 B As N 
 1.0
 17.527899999999772   0.000000000000000   0.000000000000000
 -8.763949999999658  15.179606674993195   0.000000000000000
  0.000000000000001   0.000000000000002  15.000000000000000
 B As N 
  48   1  48
Cartesian
  7.512373157201390  14.472483091959070   1.768729857555390 
 15.008692680662879   1.455829287058279   1.768320905044140 
 13.750001917408719   3.623816299037233   1.759152918445080 
 12.498408442552892   5.790918714013059   1.751915379901365 
 11.260578644241269   7.957520022202751   1.737247246871010 
 10.031786845356081  10.130007889799545   1.743523777370850 
  8.782921380339335  12.311955647322648   1.766119169881845 
 -7.505844972355090  14.454746324965829   1.763058401279280 
 -0.012071310974354   1.439759015260846   1.768601869026195 
 -1.270952456991968   3.612229099287121   1.744614373762395 
 -2.515266572781673   5.781452158169468   1.718166313878330 
 -3.746168139297906   7.946920614311462   1.724891953537170 
 -4.986168738124989  10.114906834282598   1.740602820409065 
 -6.241185956760626  12.286363180740842   1.755890406476775 
 -4.995669016550821  14.443809722289563   1.755604547784705 
  2.494251083444615   1.419874582279173   1.765685705234085 
  1.226854163917852   3.587172200441890   1.732138310283615 
 -0.011079424787092   5.766999140048463   1.632680668985685 
 -1.221605200336501   7.933363554791862   1.612862828787045 
 -2.467290072938588  10.102947369034151   1.671622949827935 
 -3.730123483014318  12.274674327334726   1.729107969778710 
 -2.487911938023940  14.442524794136949   1.740239631943830 
  5.008105864028591   1.429564961753860   1.743347887229610 
  3.724088554358133   3.559708630450973   1.715301929154435 
  2.458975658015816   5.736309411098049   1.531976745085485 
  1.326151162187525   7.898270686841221   1.400795880602310 
  0.060487889811658  10.086267806078338   1.523648632642215 
 -1.218074330642180  12.266943043604279   1.671270564775515 
  0.009590304951466  14.452393615671046   1.724377684511085 
  7.503816315664014   1.451131670968318   1.737239743026720 
  6.228889264492764   3.624538302085925   1.623620599549995 
  4.878712237722198   5.700318057749436   1.334164404688980 
  2.588474502427442  10.083689351621256   1.400645225434920 
  1.283951989620456  12.272704510787166   1.612286448077430 
  2.500556945424966  14.469177776146712   1.718073063326355 
  9.998992418923127   1.462135777121094   1.751754700613550 
  8.728915896064059   3.640186200598169   1.686938040133920 
  7.446854697023904   5.822043410136225   1.488622527500415 
  6.269197944323318   8.107376572817882   1.334004576179340 
  5.027785742594445  10.184461818750151   1.532537760273975 
  3.765307883893681  12.307529918343150   1.632649184926725 
  5.001293978389674  14.476254947207865   1.744975354189335 
 12.501745939529002   1.461912956823413   1.759365899207235 
 11.239732312610178   3.631746993207616   1.748868508485735 
  9.977218400078449   5.802126552284008   1.687011096921360 
  8.741372963180186   7.975497713727312   1.623563198562990 
  7.545180648270339  10.177280971149747   1.715583526103100 
  6.272260425637350  12.326044720782621   1.732162961917140 
  4.464551661015774   7.545460973515443   0.626400517188030 
  8.771015999279694  13.750920627824938   1.766383700301405 
 16.262867322073003   0.731861694194994   1.771869669514170 
 15.000409806356080   2.897589555803572   1.762985512515735 
 13.750022288386891   5.066762123128994   1.753128488307990 
 12.514691289832626   7.234250416501009   1.751861249278305 
 11.282536550486221   9.402292752491208   1.747433163541725 
 10.034070331514505  11.576458289061261   1.763063372596875 
 -6.249236135465530  13.729266272898998   1.756743089426730 
  1.242116565222939   0.710532257192171   1.766148283790775 
 -0.026781062575251   2.874708930293845   1.759186311231330 
 -1.274234087647480   5.051673183782891   1.705158691605540 
 -2.497098906669859   7.224156232822388   1.693497567651195 
 -3.734301443122949   9.391772191523719   1.719283516832970 
 -4.987328660006671  11.560434335898410   1.744086931115265 
 -3.740195268579678  13.720616966326309   1.743707312791350 
  3.756706138772304   0.704045084516709   1.762478799438030 
  2.475149214682426   2.847177661211942   1.761665991960900 
  1.210174803967524   5.011469396279150   1.654698934326780 
  0.017758014855886   7.206363984269857   1.550609609079360 
 -1.218094474689437   9.381675805046669   1.598059923338715 
 -2.477703990939204  11.551519094481595   1.691681532716955 
 -1.235748884693240  13.719748144296828   1.718818915392135 
  6.263545403626156   0.709778358171022   1.747329161990265 
  4.996130752535807   2.866275491329047   1.705040472856710 
  3.697685875031201   4.969225302778830   1.622307439530555 
  2.510012365152576   7.117888107283789   1.317549853758015 
  1.304948388757884   9.367759080357263   1.391075647670085 
  0.031272329059731  11.545782497599937   1.597629808629555 
  1.260260106784523  13.732066387966601   1.692933118607985 
  8.757244227896450   0.726433255281823   1.751580806767320 
  7.488724077714652   2.900875709756842   1.693535353703595 
  6.201313646204468   5.066863685455604   1.453276915107270 
  3.856845864203952   9.448946415973625   1.317656814914865 
  2.533320977458302  11.562738768174986   1.550235489032850 
  3.753082430431348  13.759192059944430   1.705228525386555 
 11.252117818800581   0.740349833251435   1.753186206539940 
  9.986610328122051   2.912443814658058   1.742194465934865 
  8.713730488833798   5.090356537906807   1.625393360148525 
  7.478634631044465   7.278337762534633   1.453085982270690 
  6.311464455249442   9.495566533051598   1.623282390361740 
  5.030510122358105  11.628157883995458   1.654772952010410 
  6.262261905621566  13.767830356870457   1.759419458037480 
 13.755846049208301   0.742138310587834   1.763489228850510 
 12.494156342297261   2.907563181578948   1.761352793828340 
 11.236146118203127   5.076649663582665   1.742346568065120 
  9.997636345896190   7.245845953594636   1.693554340400955 
  8.781615086386772   9.422194108268625   1.704837573615810 
  7.537306492793337  11.615110190711658   1.761872814763320 
