 B N Al 
 1.0
 17.527899999999772   0.000000000000000   0.000000000000000
 -8.763949999999658  15.179606674993195   0.000000000000000
  0.000000000000001   0.000000000000002  15.000000000000000
 B N Al 
  48  48   1
Cartesian
  7.559961174624632  14.512107632139001   1.659796619719635 
 15.033776571642955   1.487814557414628   1.662344609935965 
 13.762390615367686   3.649755450881363   1.662510311576790 
 12.495941475294547   5.804912722144022   1.661522700051570 
 11.236143378362549   7.956047185054824   1.661025303613905 
 10.052649582073567  10.125952495220977   1.661778181403475 
  8.837036779207821  12.340779649982172   1.660525321684515 
 -7.466315149607556  14.427182818391387   1.658961360765570 
  0.013642546737687   1.414942402757972   1.661012086270830 
 -1.249116027512068   3.612623079125127   1.661114261475480 
 -2.492160881202134   5.785664051346761   1.659902431269780 
 -3.726257417739272   7.939107076855842   1.660015888759155 
 -4.957908118296790  10.093467745918128   1.661392482760755 
 -6.203043041957395  12.258770175521962   1.660232097762225 
 -4.955671714334070  14.385303688961022   1.659487986441405 
  2.517677016543483   1.327640690760507   1.661514009847845 
  1.235171735006739   3.488820110759904   1.662677066265795 
  0.029059008352846   5.748339525118068   1.659469577586315 
 -1.163102393504651   7.921327191973028   1.659011463924390 
 -2.419388858314183  10.081912295611197   1.660268632539705 
 -3.687396805994464  12.237636232847228   1.660065037046670 
 -2.443086128555620  14.395810852137357   1.660165724424780 
  5.054276369160736   1.330832934816067   1.660981958062080 
  3.759200458231964   3.353212298411049   1.668012391438950 
  2.492289814822739   5.427153007704935   1.669524902343360 
  1.393425427055323   7.931710147862701   1.660709652989130 
  0.119145861225779  10.102208723738448   1.660171602325470 
 -1.171586324234743  12.253164855059504   1.660550930014530 
  0.046859286245738  14.451537982138428   1.661306318750700 
  7.534625296037431   1.423777124189120   1.660561881028920 
  6.241662163257569   3.560290557706533   1.660906294263480 
  4.855690466829927   5.604716411333220   1.668929504905410 
  2.665183398813496  10.131447470125858   1.659711503580945 
  1.334083717216640  12.294507853481276   1.661813810687115 
  2.524492558037281  14.520741124299800   1.661625035009445 
 10.013162634875922   1.490780520393744   1.660873591203555 
  8.719998749964384   3.658451772237419   1.659778478633235 
  7.368870335541314   5.844328934195391   1.658987125663290 
  6.061399299523960   8.260545574433346   1.658258190971520 
  5.170736847510369  10.414839174704948   1.661757096554160 
  3.807356961546880  12.403391533156368   1.662272454691590 
  5.035440556681655  14.542380039743941   1.660925240450835 
 12.517664622770791   1.505965220109193   1.661539848682275 
 11.238834090646929   3.662466800963440   1.661870542588050 
  9.943066981926151   5.822243809496918   1.660318317860940 
  8.645961869067287   7.992233609262867   1.659850987705875 
  7.611026855684128  10.260695083712070   1.661909841445275 
  6.349200906868805  12.438686930269631   1.660915202051880 
  8.807025677359626  13.765721417384249   1.659325157235825 
 16.284848122214509   0.752806115693306   1.661128882807170 
 15.015633855799194   2.921925234528097   1.662515527312020 
 13.759835323198752   5.087204348792087   1.661490178336380 
 12.511352197840685   7.242612551738274   1.660458919471410 
 11.297778877147541   9.395747571243323   1.661609786322165 
 10.066679869340479  11.571629632574112   1.661174431697115 
 -6.214137283342724  13.692616791690419   1.658577939517620 
  1.259744645013877   0.665021179668605   1.659233290849590 
 -0.023099743972137   2.834848052350775   1.661408610132030 
 -1.248015371633924   5.052450238345845   1.658942119375860 
 -2.461339396638544   7.225389691691794   1.658718720019815 
 -3.698891396801210   9.379035882967983   1.660405842697140 
 -4.949916106437713  11.533228795700609   1.660574890337235 
 -3.695596362712064  13.675030070106038   1.659217291310550 
  3.791157756704556   0.629572903963153   1.660387737495390 
  2.477958488648910   2.729764144294110   1.664437669515810 
  1.200806990345690   4.906789632951902   1.661299062664335 
  0.094100422039434   7.197257671745121   1.659015626251365 
 -1.156251103578657   9.373631407995678   1.659418973677680 
 -2.427933666114741  11.527486990706693   1.660186837987710 
 -1.186523626279063  13.697806168389603   1.660336467419520 
  6.313777208789883   0.648930827434126   1.660029965440725 
  5.045000023507239   2.742082379907019   1.662357179276430 
  3.729099286606343   4.720398018716128   1.675628449946490 
  1.385035155913000   9.409073815351636   1.659663599235150 
  0.088388035836515  11.555068226999980   1.660822695632175 
  1.304031241239613  13.750904518358714   1.661641107261810 
  8.791860751029787   0.722166534405205   1.660791705436995 
  7.510380035916180   2.870050729184833   1.659518026274460 
  6.181462450607684   5.004124236149654   1.660784852386725 
  4.609771269643093   8.317409979610462   1.652513067555945 
  4.033049989978261   9.622293077356810   1.656638171397060 
  2.603605125849430  11.605250410039091   1.661934786539055 
  3.782464106535039  13.836029464519369   1.661298796005990 
 11.270725645099766   0.783439705866269   1.660664324635140 
  9.988012252828240   2.939730878138527   1.660742671991220 
  8.673826206275768   5.117423958608167   1.658627288946720 
  7.314844095859122   7.324205379889678   1.658027693487210 
  6.369828780619050   9.656830471240971   1.662720128879700 
  5.096114714378018  11.800658439608510   1.662827666765190 
  6.306721515027875  13.852694153661227   1.659239159959275 
 13.776517142267361   0.794496656787936   1.661561419448235 
 12.501627132304620   2.944686662645838   1.661927226976350 
 11.222108337830734   5.104108626137974   1.661586580720395 
  9.939913206239236   7.264966078050142   1.660340715502260 
  8.790585538038471   9.442780327783098   1.660705768245780 
  7.588665134873567  11.689926296330173   1.660364834690370 
  3.368148389325844   7.148166887645044   1.665544249020360 
