B C N                                   
   1.0000000000000000     
     8.7639499999999995  -15.1796066749929999    0.0000000000000000
     8.7639499999999995   15.1796066749929999    0.0000000000000000
     0.0000000000000000    0.0000000000000000   15.0000000000000000
   B    C    N 
    47     1    48
Selective dynamics
Direct
  0.9060384574903575  0.9544330779344274  0.1111008466554765   T   T   T
  0.9065777484975924  0.0977963101945142  0.1111344837959445   T   T   T
  0.9057534993328195  0.2400678517880894  0.1112293189595514   T   T   T
  0.9031100729559195  0.3815109314165492  0.1111477217420456   T   T   T
  0.8996649297834884  0.5226618400619213  0.1113121012913123   T   T   T
  0.9007950823361678  0.6648895984707383  0.1114273681890990   T   T   T
  0.9035746261741304  0.8094387475989655  0.1111804196094271   T   T   T
  0.0465934050435271  0.9509664910977055  0.1110974696958386   T   T   T
  0.0493314672699916  0.0962824919344483  0.1111319750283533   T   T   T
  0.0504418646401666  0.2402246862314750  0.1110746622654344   T   T   T
  0.0495579150035571  0.3816809997575383  0.1110480943164436   T   T   T
  0.0466242799013234  0.5226570221502723  0.1109722593681592   T   T   T
  0.0448859377355044  0.6641646927238039  0.1110092909639211   T   T   T
  0.0449387912833848  0.8066870363956008  0.1109785302757413   T   T   T
  0.1876930160813325  0.9478353176429186  0.1113769808953240   T   T   T
  0.1892184463572845  0.0920339298300829  0.1116885784981341   T   T   T
  0.1944888268352553  0.2393920630955090  0.1109506868964336   T   T   T
  0.1963189472779826  0.3821337320215369  0.1107954021324850   T   T   T
  0.1937575639048466  0.5231615455991804  0.1109240769248739   T   T   T
  0.1897713500126472  0.6643807097865461  0.1109555813220381   T   T   T
  0.1883738400837617  0.8059830119933231  0.1110056737006126   T   T   T
  0.3314377305122079  0.9480931022912374  0.1112508119444947   T   T   T
  0.3299708441657596  0.0880798989516281  0.1128485036634511   T   T   T
  0.3321689867680009  0.2303118685094737  0.1118647973909012   T   T   T
  0.3454142451803499  0.3854300507917184  0.1100997898824728   T   T   T
  0.3431743733472354  0.5248068390928555  0.1108608644733211   T   T   T
  0.3347777476929626  0.6654635177038413  0.1110125855864883   T   T   T
  0.3326864248475401  0.8069808624290831  0.1109511507507831   T   T   T
  0.4756190218043373  0.9509949688613143  0.1109854095917833   T   T   T
  0.4741823235605336  0.0919877745190743  0.1110445658936981   T   T   T
  0.4709266659715477  0.2315864089988807  0.1103673084148515   T   T   T
  0.4788451279716137  0.6675008858553996  0.1108128723154577   T   T   T
  0.4769222692913314  0.8094137247654548  0.1109517617718495   T   T   T
  0.6197275657210707  0.9545163471413682  0.1109562718656463   T   T   T
  0.6186298676093985  0.0963503883143209  0.1110900347366130   T   T   T
  0.6164892304983479  0.2386999428205727  0.1106727973915163   T   T   T
  0.6102348714338656  0.3830400166375421  0.1102974169687004   T   T   T
  0.6027027456384106  0.5295938730475482  0.1118388045912071   T   T   T
  0.6220721892127176  0.6737755016554885  0.1109600684377681   T   T   T
  0.6206699013960111  0.8133568284511030  0.1108517806551238   T   T   T
  0.7634345631713666  0.9555403759525414  0.1109787080031115   T   T   T
  0.7627187113293838  0.0977543317118339  0.1111235901622768   T   T   T
  0.7609218908759763  0.2397453183827715  0.1112440215475835   T   T   T
  0.7567661569839454  0.3816049695831015  0.1109777845118017   T   T   T
  0.7516341437703232  0.5233430204097665  0.1123670681489689   T   T   T
  0.7595076753212170  0.6678660807896649  0.1116710352356765   T   T   T
  0.7634701618059075  0.8131089847888300  0.1110670776671720   T   T   T
  0.4983240342383297  0.5303432382398835  0.1106354267430016   T   T   T
  0.9519563843844532  0.9049715995923546  0.1110743942133589   T   T   T
  0.9544512029984371  0.0500183474123349  0.1111059515974071   T   T   T
  0.9549493997347493  0.1931893101211630  0.1111627220785606   T   T   T
  0.9533479836502949  0.3350607262147055  0.1111644042023611   T   T   T
  0.9500383846861482  0.4762429680604437  0.1110661152720401   T   T   T
  0.9488468510026277  0.6175235837877603  0.1112176533936694   T   T   T
  0.9496417391142401  0.7602253282828133  0.1111058154477919   T   T   T
  0.0930498535976220  0.9020879639436078  0.1110053059558219   T   T   T
  0.0950163708467614  0.0467272928022455  0.1112062716686887   T   T   T
  0.0992894581817394  0.1928014729533910  0.1110309764937265   T   T   T
  0.0999617101727023  0.3352721114221101  0.1109783371519267   T   T   T
  0.0974066512595562  0.4763829122910426  0.1109388056378304   T   T   T
  0.0940530286727060  0.6174092556269741  0.1109283618472254   T   T   T
  0.0929215682678912  0.7592537249079577  0.1109367984523457   T   T   T
  0.2360645031354159  0.9011941840209783  0.1111912865491265   T   T   T
  0.2355644532678094  0.0433982750780234  0.1120817687740576   T   T   T
  0.2384687432602431  0.1881424995217552  0.1115264805829731   T   T   T
  0.2475126854113559  0.3360141122747628  0.1105300415758552   T   T   T
  0.2458209570262421  0.4767086016944292  0.1108367733869300   T   T   T
  0.2394141096697336  0.6176826574693861  0.1109724503531132   T   T   T
  0.2371370936749141  0.7593033263372968  0.1109508460241530   T   T   T
  0.3801101803363481  0.9020756459479093  0.1109387901243268   T   T   T
  0.3789025530375160  0.0430752382775919  0.1116672592234098   T   T   T
  0.3769275607814939  0.1826329646112798  0.1138140994130634   T   T   T
  0.3825080439316889  0.3258933360712274  0.1095341767095835   T   T   T
  0.3993071569049407  0.4797192596617088  0.1105837656557328   T   T   T
  0.3843237212041585  0.6187391680392484  0.1109629771168192   T   T   T
  0.3814896362966331  0.7604046999080155  0.1109664012911087   T   T   T
  0.5241934450926272  0.9047318111494150  0.1109514463594156   T   T   T
  0.5230228572193516  0.0464820006399391  0.1109933141938581   T   T   T
  0.5211089045199399  0.1875659950466724  0.1105179862265261   T   T   T
  0.5166384183598439  0.3241140052766497  0.1010469390284504   T   T   T
  0.5276889614426202  0.6208566148630021  0.1105724905717413   T   T   T
  0.5254673277474318  0.7626768386624124  0.1108574304129931   T   T   T
  0.6681015069543249  0.9080570382585547  0.1108825355128325   T   T   T
  0.6671573102083956  0.0497671347429155  0.1110357194091232   T   T   T
  0.6652719178545395  0.1919649645106119  0.1112069777471692   T   T   T
  0.6600270309554345  0.3343980674464490  0.1106763236825322   T   T   T
  0.6511539380808022  0.4775476153464832  0.1126853944625257   T   T   T
  0.6640695855367571  0.6224737125640022  0.1115598404658791   T   T   T
  0.6687749932240797  0.7671662239386049  0.1108710330070451   T   T   T
  0.8111723875214543  0.9079826918899444  0.1110172397213028   T   T   T
  0.8112689947667101  0.0507404902089688  0.1110593565414574   T   T   T
  0.8100370079838357  0.1929739846439007  0.1112371970606409   T   T   T
  0.8067702815110369  0.3348760136647639  0.1111031517989501   T   T   T
  0.8021614289603590  0.4764010879350642  0.1115980435411394   T   T   T
  0.8044400295997728  0.6182269503606044  0.1119783488926738   T   T   T
  0.8085396388007031  0.7631085828545964  0.1112688114034540   T   T   T

  0.00000000E+00  0.00000000E+00  0.00000000E+00
  0.00000000E+00  0.00000000E+00  0.00000000E+00
  0.00000000E+00  0.00000000E+00  0.00000000E+00
  0.00000000E+00  0.00000000E+00  0.00000000E+00
  0.00000000E+00  0.00000000E+00  0.00000000E+00
  0.00000000E+00  0.00000000E+00  0.00000000E+00
  0.00000000E+00  0.00000000E+00  0.00000000E+00
  0.00000000E+00  0.00000000E+00  0.00000000E+00
  0.00000000E+00  0.00000000E+00  0.00000000E+00
  0.00000000E+00  0.00000000E+00  0.00000000E+00
  0.00000000E+00  0.00000000E+00  0.00000000E+00
  0.00000000E+00  0.00000000E+00  0.00000000E+00
  0.00000000E+00  0.00000000E+00  0.00000000E+00
  0.00000000E+00  0.00000000E+00  0.00000000E+00
  0.00000000E+00  0.00000000E+00  0.00000000E+00
  0.00000000E+00  0.00000000E+00  0.00000000E+00
  0.00000000E+00  0.00000000E+00  0.00000000E+00
  0.00000000E+00  0.00000000E+00  0.00000000E+00
  0.00000000E+00  0.00000000E+00  0.00000000E+00
  0.00000000E+00  0.00000000E+00  0.00000000E+00
  0.00000000E+00  0.00000000E+00  0.00000000E+00
  0.00000000E+00  0.00000000E+00  0.00000000E+00
  0.00000000E+00  0.00000000E+00  0.00000000E+00
  0.00000000E+00  0.00000000E+00  0.00000000E+00
  0.00000000E+00  0.00000000E+00  0.00000000E+00
  0.00000000E+00  0.00000000E+00  0.00000000E+00
  0.00000000E+00  0.00000000E+00  0.00000000E+00
  0.00000000E+00  0.00000000E+00  0.00000000E+00
  0.00000000E+00  0.00000000E+00  0.00000000E+00
  0.00000000E+00  0.00000000E+00  0.00000000E+00
  0.00000000E+00  0.00000000E+00  0.00000000E+00
  0.00000000E+00  0.00000000E+00  0.00000000E+00
  0.00000000E+00  0.00000000E+00  0.00000000E+00
  0.00000000E+00  0.00000000E+00  0.00000000E+00
  0.00000000E+00  0.00000000E+00  0.00000000E+00
  0.00000000E+00  0.00000000E+00  0.00000000E+00
  0.00000000E+00  0.00000000E+00  0.00000000E+00
  0.00000000E+00  0.00000000E+00  0.00000000E+00
  0.00000000E+00  0.00000000E+00  0.00000000E+00
  0.00000000E+00  0.00000000E+00  0.00000000E+00
  0.00000000E+00  0.00000000E+00  0.00000000E+00
  0.00000000E+00  0.00000000E+00  0.00000000E+00
  0.00000000E+00  0.00000000E+00  0.00000000E+00
  0.00000000E+00  0.00000000E+00  0.00000000E+00
  0.00000000E+00  0.00000000E+00  0.00000000E+00
  0.00000000E+00  0.00000000E+00  0.00000000E+00
  0.00000000E+00  0.00000000E+00  0.00000000E+00
  0.00000000E+00  0.00000000E+00  0.00000000E+00
  0.00000000E+00  0.00000000E+00  0.00000000E+00
  0.00000000E+00  0.00000000E+00  0.00000000E+00
  0.00000000E+00  0.00000000E+00  0.00000000E+00
  0.00000000E+00  0.00000000E+00  0.00000000E+00
  0.00000000E+00  0.00000000E+00  0.00000000E+00
  0.00000000E+00  0.00000000E+00  0.00000000E+00
  0.00000000E+00  0.00000000E+00  0.00000000E+00
  0.00000000E+00  0.00000000E+00  0.00000000E+00
  0.00000000E+00  0.00000000E+00  0.00000000E+00
  0.00000000E+00  0.00000000E+00  0.00000000E+00
  0.00000000E+00  0.00000000E+00  0.00000000E+00
  0.00000000E+00  0.00000000E+00  0.00000000E+00
  0.00000000E+00  0.00000000E+00  0.00000000E+00
  0.00000000E+00  0.00000000E+00  0.00000000E+00
  0.00000000E+00  0.00000000E+00  0.00000000E+00
  0.00000000E+00  0.00000000E+00  0.00000000E+00
  0.00000000E+00  0.00000000E+00  0.00000000E+00
  0.00000000E+00  0.00000000E+00  0.00000000E+00
  0.00000000E+00  0.00000000E+00  0.00000000E+00
  0.00000000E+00  0.00000000E+00  0.00000000E+00
  0.00000000E+00  0.00000000E+00  0.00000000E+00
  0.00000000E+00  0.00000000E+00  0.00000000E+00
  0.00000000E+00  0.00000000E+00  0.00000000E+00
  0.00000000E+00  0.00000000E+00  0.00000000E+00
  0.00000000E+00  0.00000000E+00  0.00000000E+00
  0.00000000E+00  0.00000000E+00  0.00000000E+00
  0.00000000E+00  0.00000000E+00  0.00000000E+00
  0.00000000E+00  0.00000000E+00  0.00000000E+00
  0.00000000E+00  0.00000000E+00  0.00000000E+00
  0.00000000E+00  0.00000000E+00  0.00000000E+00
  0.00000000E+00  0.00000000E+00  0.00000000E+00
  0.00000000E+00  0.00000000E+00  0.00000000E+00
  0.00000000E+00  0.00000000E+00  0.00000000E+00
  0.00000000E+00  0.00000000E+00  0.00000000E+00
  0.00000000E+00  0.00000000E+00  0.00000000E+00
  0.00000000E+00  0.00000000E+00  0.00000000E+00
  0.00000000E+00  0.00000000E+00  0.00000000E+00
  0.00000000E+00  0.00000000E+00  0.00000000E+00
  0.00000000E+00  0.00000000E+00  0.00000000E+00
  0.00000000E+00  0.00000000E+00  0.00000000E+00
  0.00000000E+00  0.00000000E+00  0.00000000E+00
  0.00000000E+00  0.00000000E+00  0.00000000E+00
  0.00000000E+00  0.00000000E+00  0.00000000E+00
  0.00000000E+00  0.00000000E+00  0.00000000E+00
  0.00000000E+00  0.00000000E+00  0.00000000E+00
  0.00000000E+00  0.00000000E+00  0.00000000E+00
  0.00000000E+00  0.00000000E+00  0.00000000E+00
  0.00000000E+00  0.00000000E+00  0.00000000E+00
