In B N                                  
   1.0000000000000000     
     8.7639499999999995  -15.1796066749929999    0.0000000000000000
     8.7639499999999995   15.1796066749929999    0.0000000000000000
     0.0000000000000000    0.0000000000000000   15.0000000000000000
   In   B    N 
     1    48    48
Selective dynamics
Direct
  0.4123618440702674  0.4793148824550360  0.1094273890007063   T   T   T
  0.9085636998803516  0.9551965848877634  0.1106858624372370   T   T   T
  0.9069228759404212  0.0976288776755372  0.1106237258878004   T   T   T
  0.9060379664889185  0.2401248539947102  0.1106887108234895   T   T   T
  0.9050033031787741  0.3822488281598261  0.1106141527205282   T   T   T
  0.9041473033401395  0.5243776203672962  0.1108289547791341   T   T   T
  0.9073861276672115  0.6674087063763987  0.1110281154345224   T   T   T
  0.9101441431875549  0.8127290818474574  0.1108031074922687   T   T   T
  0.0489548406555430  0.9505915981141667  0.1107386998014636   T   T   T
  0.0473068549887247  0.0930348220148148  0.1103471668842405   T   T   T
  0.0484241555080195  0.2382344309882766  0.1106749857264295   T   T   T
  0.0488145405077253  0.3814653576442159  0.1108294523656035   T   T   T
  0.0480234588437986  0.5238169647531893  0.1104069549985897   T   T   T
  0.0492243528217512  0.6658843503004047  0.1106713878389514   T   T   T
  0.0496063321041400  0.8082194254672900  0.1107581932173607   T   T   T
  0.1909214793440849  0.9482527826571503  0.1110213582306466   T   T   T
  0.1875818814371402  0.0875739150907453  0.1107693045700913   T   T   T
  0.1858201494422176  0.2298560604002039  0.1106922982111649   T   T   T
  0.1923351252201836  0.3799581664105182  0.1125332676186820   T   T   T
  0.1912583389533922  0.5239023948046921  0.1107150115626506   T   T   T
  0.1926167556423562  0.6661281891086063  0.1098961542055373   T   T   T
  0.1921584242544957  0.8074913903426288  0.1106517728360617   T   T   T
  0.3347325344857250  0.9492832000254179  0.1112034891517628   T   T   T
  0.3326249080651028  0.0871008092714536  0.1110855412475231   T   T   T
  0.3259253948881264  0.2186437673280038  0.1076234486707146   T   T   T
  0.3225351642611458  0.3522383939180208  0.1148084221581691   T   T   T
  0.3337110915572479  0.5336060786453188  0.1112280884884979   T   T   T
  0.3374724122296663  0.6710820057813904  0.1097910682961893   T   T   T
  0.3360624587921157  0.8099593490117704  0.1099292372055462   T   T   T
  0.4789579291434561  0.9527478677776824  0.1107940828194857   T   T   T
  0.4775020835335334  0.0936979024945795  0.1111680741499935   T   T   T
  0.4748438874163722  0.2336827141161998  0.1106687311690829   T   T   T
  0.4631189898831292  0.3656216635462300  0.1098864694877090   T   T   T
  0.4843384907262639  0.6688312460157371  0.1107599963587726   T   T   T
  0.4806913691521630  0.8113455049274707  0.1098065710065053   T   T   T
  0.6225943242339184  0.9561523254095450  0.1108145333812185   T   T   T
  0.6211467827706116  0.0977431525064641  0.1108975089185988   T   T   T
  0.6194757974940490  0.2402267100206847  0.1110100444989032   T   T   T
  0.6162949033981198  0.3842393450215585  0.1114612084620044   T   T   T
  0.6238731329207485  0.5408344745530607  0.1114773485903376   T   T   T
  0.6343286178276146  0.6814315798476592  0.1106744814250484   T   T   T
  0.6252272870873538  0.8158959890125346  0.1104020671674292   T   T   T
  0.7660538040170575  0.9570938670461114  0.1108915151266019   T   T   T
  0.7642557577596824  0.0986100874766733  0.1108626144289343   T   T   T
  0.7628477455478712  0.2406797722775013  0.1107737828451233   T   T   T
  0.7608828856492624  0.3830481813325325  0.1109635069673207   T   T   T
  0.7598044858544988  0.5262091738490025  0.1112525394646382   T   T   T
  0.7720237371908224  0.6751693813169464  0.1108730251861060   T   T   T
  0.7702984520071721  0.8174431550075191  0.1107872981265873   T   T   T
  0.9555503991309620  0.9066426452570379  0.1105634195361068   T   T   T
  0.9536891614787619  0.0490041059631106  0.1105056433325190   T   T   T
  0.9535224896008911  0.1923082066953980  0.1105619197510703   T   T   T
  0.9532020562241627  0.3348731049897301  0.1105991848689728   T   T   T
  0.9523679363789128  0.4770385281142644  0.1105607279500371   T   T   T
  0.9541305801890014  0.6192526121309180  0.1109327640647223   T   T   T
  0.9553776269297626  0.7625752792959395  0.1107700860689481   T   T   T
  0.0963752939950699  0.9026007439159570  0.1107667465294151   T   T   T
  0.0939303443055546  0.0439876604719244  0.1108211791550702   T   T   T
  0.0924341250730146  0.1866760593829608  0.1100029942443375   T   T   T
  0.0962520378404353  0.3334001070368962  0.1113446916261431   T   T   T
  0.0956721925472052  0.4765372581761417  0.1105283008625411   T   T   T
  0.0969097545091034  0.6187696961689385  0.1102745071599302   T   T   T
  0.0971141637195391  0.7606829733207365  0.1107341221644974   T   T   T
  0.2395408792498567  0.9019696492927541  0.1110551498020446   T   T   T
  0.2374355932924966  0.0418791674656995  0.1110067871570518   T   T   T
  0.2322910684417279  0.1798922513509650  0.1100098968647921   T   T   T
  0.2315826479912332  0.3231795818660913  0.1132361302200972   T   T   T
  0.2383909329622806  0.4766107365862423  0.1119217883208940   T   T   T
  0.2407554551707471  0.6198979666099839  0.1096641203881659   T   T   T
  0.2404880734344012  0.7612523383845452  0.1100641944233764   T   T   T
  0.3837022226301883  0.9042965501786986  0.1107549750352714   T   T   T
  0.3823161160109937  0.0431067637716447  0.1114957912526488   T   T   T
  0.3796677052770571  0.1796197702154518  0.1100612687092726   T   T   T
  0.3708840844620807  0.3082691456783486  0.1052491513023422   T   T   T
  0.3867302210396680  0.6274779093230258  0.1107857620209147   T   T   T
  0.3851434487031052  0.7653389725202197  0.1091758043586356   T   T   T
  0.5276175776187479  0.9067958378236376  0.1104889977684795   T   T   T
  0.5261718073196539  0.0478989056658604  0.1109986188813601   T   T   T
  0.5244676890627573  0.1888165462820173  0.1109997025415616   T   T   T
  0.5204066627442926  0.3294005813221685  0.1111698515293774   T   T   T
  0.5396766948758446  0.5306884121425716  0.1128655856880954   T   T   T
  0.5432893204435933  0.6318600700709259  0.1116096117163149   T   T   T
  0.5301508616146933  0.7656118782600212  0.1099031467744645   T   T   T
  0.6713778109729642  0.9105456082612799  0.1108174572707036   T   T   T
  0.6693815543588997  0.0511355665380114  0.1109341991256976   T   T   T
  0.6678178211114629  0.1930369722715188  0.1108037105783847   T   T   T
  0.6653802019848664  0.3360799965304682  0.1111549053302976   T   T   T
  0.6631775797561676  0.4808535853981201  0.1115080484319962   T   T   T
  0.6815135245055851  0.6343745291194969  0.1104142622310452   T   T   T
  0.6774364880833468  0.7742230362978538  0.1104064915869228   T   T   T
  0.8151437776648559  0.9110864967919549  0.1108975447490022   T   T   T
  0.8123411887138990  0.0516322376624958  0.1108320221682191   T   T   T
  0.8109698724846633  0.1934214738992460  0.1107486360284587   T   T   T
  0.8095094259271741  0.3355943389583999  0.1107033925937372   T   T   T
  0.8082850948168153  0.4780430391963883  0.1109909915900636   T   T   T
  0.8133199990900067  0.6217742236288857  0.1111823658932103   T   T   T
  0.8175210368011692  0.7693318974264345  0.1109707591190395   T   T   T

  0.00000000E+00  0.00000000E+00  0.00000000E+00
  0.00000000E+00  0.00000000E+00  0.00000000E+00
  0.00000000E+00  0.00000000E+00  0.00000000E+00
  0.00000000E+00  0.00000000E+00  0.00000000E+00
  0.00000000E+00  0.00000000E+00  0.00000000E+00
  0.00000000E+00  0.00000000E+00  0.00000000E+00
  0.00000000E+00  0.00000000E+00  0.00000000E+00
  0.00000000E+00  0.00000000E+00  0.00000000E+00
  0.00000000E+00  0.00000000E+00  0.00000000E+00
  0.00000000E+00  0.00000000E+00  0.00000000E+00
  0.00000000E+00  0.00000000E+00  0.00000000E+00
  0.00000000E+00  0.00000000E+00  0.00000000E+00
  0.00000000E+00  0.00000000E+00  0.00000000E+00
  0.00000000E+00  0.00000000E+00  0.00000000E+00
  0.00000000E+00  0.00000000E+00  0.00000000E+00
  0.00000000E+00  0.00000000E+00  0.00000000E+00
  0.00000000E+00  0.00000000E+00  0.00000000E+00
  0.00000000E+00  0.00000000E+00  0.00000000E+00
  0.00000000E+00  0.00000000E+00  0.00000000E+00
  0.00000000E+00  0.00000000E+00  0.00000000E+00
  0.00000000E+00  0.00000000E+00  0.00000000E+00
  0.00000000E+00  0.00000000E+00  0.00000000E+00
  0.00000000E+00  0.00000000E+00  0.00000000E+00
  0.00000000E+00  0.00000000E+00  0.00000000E+00
  0.00000000E+00  0.00000000E+00  0.00000000E+00
  0.00000000E+00  0.00000000E+00  0.00000000E+00
  0.00000000E+00  0.00000000E+00  0.00000000E+00
  0.00000000E+00  0.00000000E+00  0.00000000E+00
  0.00000000E+00  0.00000000E+00  0.00000000E+00
  0.00000000E+00  0.00000000E+00  0.00000000E+00
  0.00000000E+00  0.00000000E+00  0.00000000E+00
  0.00000000E+00  0.00000000E+00  0.00000000E+00
  0.00000000E+00  0.00000000E+00  0.00000000E+00
  0.00000000E+00  0.00000000E+00  0.00000000E+00
  0.00000000E+00  0.00000000E+00  0.00000000E+00
  0.00000000E+00  0.00000000E+00  0.00000000E+00
  0.00000000E+00  0.00000000E+00  0.00000000E+00
  0.00000000E+00  0.00000000E+00  0.00000000E+00
  0.00000000E+00  0.00000000E+00  0.00000000E+00
  0.00000000E+00  0.00000000E+00  0.00000000E+00
  0.00000000E+00  0.00000000E+00  0.00000000E+00
  0.00000000E+00  0.00000000E+00  0.00000000E+00
  0.00000000E+00  0.00000000E+00  0.00000000E+00
  0.00000000E+00  0.00000000E+00  0.00000000E+00
  0.00000000E+00  0.00000000E+00  0.00000000E+00
  0.00000000E+00  0.00000000E+00  0.00000000E+00
  0.00000000E+00  0.00000000E+00  0.00000000E+00
  0.00000000E+00  0.00000000E+00  0.00000000E+00
  0.00000000E+00  0.00000000E+00  0.00000000E+00
  0.00000000E+00  0.00000000E+00  0.00000000E+00
  0.00000000E+00  0.00000000E+00  0.00000000E+00
  0.00000000E+00  0.00000000E+00  0.00000000E+00
  0.00000000E+00  0.00000000E+00  0.00000000E+00
  0.00000000E+00  0.00000000E+00  0.00000000E+00
  0.00000000E+00  0.00000000E+00  0.00000000E+00
  0.00000000E+00  0.00000000E+00  0.00000000E+00
  0.00000000E+00  0.00000000E+00  0.00000000E+00
  0.00000000E+00  0.00000000E+00  0.00000000E+00
  0.00000000E+00  0.00000000E+00  0.00000000E+00
  0.00000000E+00  0.00000000E+00  0.00000000E+00
  0.00000000E+00  0.00000000E+00  0.00000000E+00
  0.00000000E+00  0.00000000E+00  0.00000000E+00
  0.00000000E+00  0.00000000E+00  0.00000000E+00
  0.00000000E+00  0.00000000E+00  0.00000000E+00
  0.00000000E+00  0.00000000E+00  0.00000000E+00
  0.00000000E+00  0.00000000E+00  0.00000000E+00
  0.00000000E+00  0.00000000E+00  0.00000000E+00
  0.00000000E+00  0.00000000E+00  0.00000000E+00
  0.00000000E+00  0.00000000E+00  0.00000000E+00
  0.00000000E+00  0.00000000E+00  0.00000000E+00
  0.00000000E+00  0.00000000E+00  0.00000000E+00
  0.00000000E+00  0.00000000E+00  0.00000000E+00
  0.00000000E+00  0.00000000E+00  0.00000000E+00
  0.00000000E+00  0.00000000E+00  0.00000000E+00
  0.00000000E+00  0.00000000E+00  0.00000000E+00
  0.00000000E+00  0.00000000E+00  0.00000000E+00
  0.00000000E+00  0.00000000E+00  0.00000000E+00
  0.00000000E+00  0.00000000E+00  0.00000000E+00
  0.00000000E+00  0.00000000E+00  0.00000000E+00
  0.00000000E+00  0.00000000E+00  0.00000000E+00
  0.00000000E+00  0.00000000E+00  0.00000000E+00
  0.00000000E+00  0.00000000E+00  0.00000000E+00
  0.00000000E+00  0.00000000E+00  0.00000000E+00
  0.00000000E+00  0.00000000E+00  0.00000000E+00
  0.00000000E+00  0.00000000E+00  0.00000000E+00
  0.00000000E+00  0.00000000E+00  0.00000000E+00
  0.00000000E+00  0.00000000E+00  0.00000000E+00
  0.00000000E+00  0.00000000E+00  0.00000000E+00
  0.00000000E+00  0.00000000E+00  0.00000000E+00
  0.00000000E+00  0.00000000E+00  0.00000000E+00
  0.00000000E+00  0.00000000E+00  0.00000000E+00
  0.00000000E+00  0.00000000E+00  0.00000000E+00
  0.00000000E+00  0.00000000E+00  0.00000000E+00
  0.00000000E+00  0.00000000E+00  0.00000000E+00
  0.00000000E+00  0.00000000E+00  0.00000000E+00
  0.00000000E+00  0.00000000E+00  0.00000000E+00
  0.00000000E+00  0.00000000E+00  0.00000000E+00
