B N O                                   
   1.0000000000000000     
     8.7639499999999995  -15.1796066749929999    0.0000000000000000
     8.7639499999999995   15.1796066749929999    0.0000000000000000
     0.0000000000000000    0.0000000000000000   15.0000000000000000
   B    N    O 
    47    48     2
Selective dynamics
Direct
  0.9021511403237584  0.9498370490594447  0.1111512337246477   T   T   T
  0.9037625072240139  0.0937802383352544  0.1110338623762166   T   T   T
  0.9052853909368314  0.2374616965383681  0.1110292814571852   T   T   T
  0.9076575163342240  0.3813720297918088  0.1111704593245871   T   T   T
  0.9085891183925735  0.5250562938415452  0.1111317970812516   T   T   T
  0.9051340827954959  0.6671401041586362  0.1111628064761768   T   T   T
  0.9009297371723718  0.8062085170320802  0.1111715554557113   T   T   T
  0.0456807927640383  0.9517112344706854  0.1109088839396618   T   T   T
  0.0464167729640497  0.0948659788281606  0.1110553765951890   T   T   T
  0.0472153109161998  0.2381212147008059  0.1112695168871980   T   T   T
  0.0484110563333471  0.3817661541519737  0.1114205754490906   T   T   T
  0.0493530930882876  0.5255986890205459  0.1112406562385284   T   T   T
  0.0484298148973699  0.6687447795287603  0.1111691910819198   T   T   T
  0.0473518520917244  0.8108343708405734  0.1109930293362628   T   T   T
  0.1909808965447919  0.9552493063853474  0.1107874306554568   T   T   T
  0.1896345186807553  0.0963583355447519  0.1110457773132845   T   T   T
  0.1902091946847983  0.2400135595428347  0.1112927885147709   T   T   T
  0.1898009632825685  0.3827651937141240  0.1113181443777721   T   T   T
  0.1904397547305787  0.5260669932959369  0.1110928397148022   T   T   T
  0.1904040674456786  0.6694606726231321  0.1109863568144592   T   T   T
  0.1907874236851461  0.8125129323279985  0.1109835622649897   T   T   T
  0.3342810503670854  0.9564830027234222  0.1109188048948028   T   T   T
  0.3355452308805476  0.1003922150912834  0.1109912909707460   T   T   T
  0.3328112745763829  0.2400618169497634  0.1109929149772977   T   T   T
  0.3339905642827234  0.3869615946502952  0.1108648420626576   T   T   T
  0.3319769452587377  0.5281992444947400  0.1107975158555006   T   T   T
  0.3318583712753307  0.6700584184421096  0.1106947412966251   T   T   T
  0.3333129324594788  0.8130147344647186  0.1109003181910006   T   T   T
  0.4766315517827764  0.9555261042429379  0.1109730650737947   T   T   T
  0.4780748003607951  0.1008177155195741  0.1109453477560198   T   T   T
  0.4800227038161041  0.2489241708104731  0.1109897117806628   T   T   T
  0.4723307752403383  0.6677835634105203  0.1106607591755885   T   T   T
  0.4754430136181839  0.8114531504980790  0.1108301657942319   T   T   T
  0.6185859711507573  0.9517634796688661  0.1111363656210504   T   T   T
  0.6197949832432997  0.0954662263555774  0.1109156843967246   T   T   T
  0.6218784459030371  0.2386384244054361  0.1109114573304596   T   T   T
  0.6305477266070190  0.3816957276403205  0.1108396881818376   T   T   T
  0.6147032968906418  0.5046613564605729  0.1109656519539325   T   T   T
  0.6122775985810304  0.6580013552061770  0.1109975864726957   T   T   T
  0.6169467185390048  0.8068326993329658  0.1111052772994195   T   T   T
  0.7602314762360700  0.9499258042406790  0.1112736624944686   T   T   T
  0.7617618989137728  0.0939533596270686  0.1110208047508597   T   T   T
  0.7636025390095894  0.2374810590727045  0.1108810287658738   T   T   T
  0.7677063326485634  0.3811753794641463  0.1109846999902992   T   T   T
  0.7684267300626605  0.5243256813076381  0.1109606027314968   T   T   T
  0.7549070571915512  0.6586201968029988  0.1111917882611002   T   T   T
  0.7574755576206132  0.8044142051868002  0.1113317077436155   T   T   T
  0.9495832779470142  0.9022510461377534  0.1110586392219272   T   T   T
  0.9508577293936845  0.0458042204150464  0.1110115833222575   T   T   T
  0.9521370419576258  0.1894501555133503  0.1109962733579940   T   T   T
  0.9538026452486437  0.3330792620731059  0.1112420903634665   T   T   T
  0.9549848507512797  0.4768715102451747  0.1111972459178463   T   T   T
  0.9535319569187832  0.6202264345458203  0.1111464172976221   T   T   T
  0.9516060701809649  0.7619323538678185  0.1110537254454289   T   T   T
  0.0951391990983831  0.9062284856304273  0.1107251367384485   T   T   T
  0.0940092622208819  0.0474317590221956  0.1109397147998289   T   T   T
  0.0947339791030516  0.1907533575308787  0.1112400955502598   T   T   T
  0.0950653399142309  0.3337501784793998  0.1114869455921110   T   T   T
  0.0959224606255982  0.4773433989255178  0.1113491443739965   T   T   T
  0.0957459585637569  0.6209914212117571  0.1110614531179421   T   T   T
  0.0955791821624964  0.7640525632465479  0.1111310808319819   T   T   T
  0.2388592608381961  0.9081048667048935  0.1107951589649906   T   T   T
  0.2393992351499362  0.0510409138651207  0.1108808273692919   T   T   T
  0.2369196582234363  0.1916279412085791  0.1112182124183782   T   T   T
  0.2375790082852989  0.3361270703719160  0.1112655655558168   T   T   T
  0.2373534835416619  0.4781081300701043  0.1110277512400562   T   T   T
  0.2372775752760917  0.6214691172960100  0.1108541399575609   T   T   T
  0.2382275853390755  0.7648926745863162  0.1108939891987737   T   T   T
  0.3813881284428651  0.9083683256826417  0.1109522536793595   T   T   T
  0.3826038167833316  0.0523659189065884  0.1109466223873417   T   T   T
  0.3842210470304196  0.1968729688176359  0.1110505731196052   T   T   T
  0.3697076005247764  0.3317900972567551  0.1103602006329868   T   T   T
  0.3791854196463773  0.4819065730531015  0.1107422151011591   T   T   T
  0.3783492935408871  0.6222971236147378  0.1105671312761515   T   T   T
  0.3803454100261263  0.7649846131263773  0.1107346231056350   T   T   T
  0.5234075725589016  0.9064942143511751  0.1109730738808549   T   T   T
  0.5245287079683777  0.0510889040382093  0.1108913234554981   T   T   T
  0.5264897451591991  0.1974592755695425  0.1109468960365093   T   T   T
  0.5386589803590299  0.3464104052140562  0.1108573169844469   T   T   T
  0.5176274614328092  0.6189998215537260  0.1106601177076396   T   T   T
  0.5220684009637658  0.7624048301354297  0.1107838730577623   T   T   T
  0.6650635504536186  0.9024766583459125  0.1112259574163444   T   T   T
  0.6665599376407564  0.0469228307713479  0.1111189320093055   T   T   T
  0.6682575525795064  0.1902258106272202  0.1107923398485677   T   T   T
  0.6736113097827742  0.3324630580096508  0.1109111013525194   T   T   T
  0.6757755208086396  0.4747294065500736  0.1107859810127561   T   T   T
  0.6551519704340707  0.6041990928392604  0.1111094622501567   T   T   T
  0.6616328718279475  0.7553419995944428  0.1111999944734611   T   T   T
  0.8064108605051730  0.9007184729770644  0.1113366911679918   T   T   T
  0.8085537884724847  0.0455523643001186  0.1111094435274152   T   T   T
  0.8102290119325205  0.1893599469660790  0.1108326799199412   T   T   T
  0.8131934752632503  0.3328122465054115  0.1110110986550661   T   T   T
  0.8146059999677682  0.4763216199772193  0.1109987732281959   T   T   T
  0.8096701662686698  0.6181668197992787  0.1110682189776397   T   T   T
  0.8038895045804904  0.7555611209403814  0.1112993857378350   T   T   T
  0.4725773287072196  0.5254762310148137  0.1116391118624876   T   T   T
  0.5280629077043608  0.4242668035554080  0.1109646549193899   T   T   T

  0.00000000E+00  0.00000000E+00  0.00000000E+00
  0.00000000E+00  0.00000000E+00  0.00000000E+00
  0.00000000E+00  0.00000000E+00  0.00000000E+00
  0.00000000E+00  0.00000000E+00  0.00000000E+00
  0.00000000E+00  0.00000000E+00  0.00000000E+00
  0.00000000E+00  0.00000000E+00  0.00000000E+00
  0.00000000E+00  0.00000000E+00  0.00000000E+00
  0.00000000E+00  0.00000000E+00  0.00000000E+00
  0.00000000E+00  0.00000000E+00  0.00000000E+00
  0.00000000E+00  0.00000000E+00  0.00000000E+00
  0.00000000E+00  0.00000000E+00  0.00000000E+00
  0.00000000E+00  0.00000000E+00  0.00000000E+00
  0.00000000E+00  0.00000000E+00  0.00000000E+00
  0.00000000E+00  0.00000000E+00  0.00000000E+00
  0.00000000E+00  0.00000000E+00  0.00000000E+00
  0.00000000E+00  0.00000000E+00  0.00000000E+00
  0.00000000E+00  0.00000000E+00  0.00000000E+00
  0.00000000E+00  0.00000000E+00  0.00000000E+00
  0.00000000E+00  0.00000000E+00  0.00000000E+00
  0.00000000E+00  0.00000000E+00  0.00000000E+00
  0.00000000E+00  0.00000000E+00  0.00000000E+00
  0.00000000E+00  0.00000000E+00  0.00000000E+00
  0.00000000E+00  0.00000000E+00  0.00000000E+00
  0.00000000E+00  0.00000000E+00  0.00000000E+00
  0.00000000E+00  0.00000000E+00  0.00000000E+00
  0.00000000E+00  0.00000000E+00  0.00000000E+00
  0.00000000E+00  0.00000000E+00  0.00000000E+00
  0.00000000E+00  0.00000000E+00  0.00000000E+00
  0.00000000E+00  0.00000000E+00  0.00000000E+00
  0.00000000E+00  0.00000000E+00  0.00000000E+00
  0.00000000E+00  0.00000000E+00  0.00000000E+00
  0.00000000E+00  0.00000000E+00  0.00000000E+00
  0.00000000E+00  0.00000000E+00  0.00000000E+00
  0.00000000E+00  0.00000000E+00  0.00000000E+00
  0.00000000E+00  0.00000000E+00  0.00000000E+00
  0.00000000E+00  0.00000000E+00  0.00000000E+00
  0.00000000E+00  0.00000000E+00  0.00000000E+00
  0.00000000E+00  0.00000000E+00  0.00000000E+00
  0.00000000E+00  0.00000000E+00  0.00000000E+00
  0.00000000E+00  0.00000000E+00  0.00000000E+00
  0.00000000E+00  0.00000000E+00  0.00000000E+00
  0.00000000E+00  0.00000000E+00  0.00000000E+00
  0.00000000E+00  0.00000000E+00  0.00000000E+00
  0.00000000E+00  0.00000000E+00  0.00000000E+00
  0.00000000E+00  0.00000000E+00  0.00000000E+00
  0.00000000E+00  0.00000000E+00  0.00000000E+00
  0.00000000E+00  0.00000000E+00  0.00000000E+00
  0.00000000E+00  0.00000000E+00  0.00000000E+00
  0.00000000E+00  0.00000000E+00  0.00000000E+00
  0.00000000E+00  0.00000000E+00  0.00000000E+00
  0.00000000E+00  0.00000000E+00  0.00000000E+00
  0.00000000E+00  0.00000000E+00  0.00000000E+00
  0.00000000E+00  0.00000000E+00  0.00000000E+00
  0.00000000E+00  0.00000000E+00  0.00000000E+00
  0.00000000E+00  0.00000000E+00  0.00000000E+00
  0.00000000E+00  0.00000000E+00  0.00000000E+00
  0.00000000E+00  0.00000000E+00  0.00000000E+00
  0.00000000E+00  0.00000000E+00  0.00000000E+00
  0.00000000E+00  0.00000000E+00  0.00000000E+00
  0.00000000E+00  0.00000000E+00  0.00000000E+00
  0.00000000E+00  0.00000000E+00  0.00000000E+00
  0.00000000E+00  0.00000000E+00  0.00000000E+00
  0.00000000E+00  0.00000000E+00  0.00000000E+00
  0.00000000E+00  0.00000000E+00  0.00000000E+00
  0.00000000E+00  0.00000000E+00  0.00000000E+00
  0.00000000E+00  0.00000000E+00  0.00000000E+00
  0.00000000E+00  0.00000000E+00  0.00000000E+00
  0.00000000E+00  0.00000000E+00  0.00000000E+00
  0.00000000E+00  0.00000000E+00  0.00000000E+00
  0.00000000E+00  0.00000000E+00  0.00000000E+00
  0.00000000E+00  0.00000000E+00  0.00000000E+00
  0.00000000E+00  0.00000000E+00  0.00000000E+00
  0.00000000E+00  0.00000000E+00  0.00000000E+00
  0.00000000E+00  0.00000000E+00  0.00000000E+00
  0.00000000E+00  0.00000000E+00  0.00000000E+00
  0.00000000E+00  0.00000000E+00  0.00000000E+00
  0.00000000E+00  0.00000000E+00  0.00000000E+00
  0.00000000E+00  0.00000000E+00  0.00000000E+00
  0.00000000E+00  0.00000000E+00  0.00000000E+00
  0.00000000E+00  0.00000000E+00  0.00000000E+00
  0.00000000E+00  0.00000000E+00  0.00000000E+00
  0.00000000E+00  0.00000000E+00  0.00000000E+00
  0.00000000E+00  0.00000000E+00  0.00000000E+00
  0.00000000E+00  0.00000000E+00  0.00000000E+00
  0.00000000E+00  0.00000000E+00  0.00000000E+00
  0.00000000E+00  0.00000000E+00  0.00000000E+00
  0.00000000E+00  0.00000000E+00  0.00000000E+00
  0.00000000E+00  0.00000000E+00  0.00000000E+00
  0.00000000E+00  0.00000000E+00  0.00000000E+00
  0.00000000E+00  0.00000000E+00  0.00000000E+00
  0.00000000E+00  0.00000000E+00  0.00000000E+00
  0.00000000E+00  0.00000000E+00  0.00000000E+00
  0.00000000E+00  0.00000000E+00  0.00000000E+00
  0.00000000E+00  0.00000000E+00  0.00000000E+00
  0.00000000E+00  0.00000000E+00  0.00000000E+00
  0.00000000E+00  0.00000000E+00  0.00000000E+00
  0.00000000E+00  0.00000000E+00  0.00000000E+00
