S B N                                   
   1.0000000000000000     
     8.7639499999999995  -15.1796066749929999    0.0000000000000000
     8.7639499999999995   15.1796066749929999    0.0000000000000000
     0.0000000000000000    0.0000000000000000   15.0000000000000000
   S    B    N 
     1    48    48
Selective dynamics
Direct
  0.5080849410409829  0.4919164608759496  0.1117347219562594   T   T   T
  0.9058883911445971  0.9532589116213661  0.1109215286992834   T   T   T
  0.9045452833016593  0.0954567378943018  0.1109453406164294   T   T   T
  0.9041472759289757  0.2382385957355317  0.1109413119787272   T   T   T
  0.9042490008926599  0.3810971870995512  0.1109077558912554   T   T   T
  0.9052112136945871  0.5240318652118339  0.1109866274933896   T   T   T
  0.9067866967896305  0.6673423415171745  0.1111028173141935   T   T   T
  0.9073453123964261  0.8110501337935435  0.1110154680504030   T   T   T
  0.0481204234650038  0.9518815977310631  0.1109385317925266   T   T   T
  0.0467431095746299  0.0941136300513992  0.1109215286992834   T   T   T
  0.0464419165174483  0.2373324064389419  0.1108891520819877   T   T   T
  0.0468551759699552  0.3805620107021971  0.1109084242856219   T   T   T
  0.0478717698476111  0.5234798950959932  0.1109483241218875   T   T   T
  0.0487893028812783  0.6663804847041378  0.1110399428294218   T   T   T
  0.0488496535240375  0.8093079163807496  0.1110350516116243   T   T   T
  0.1906941048152324  0.9511523676720303  0.1110350516116243   T   T   T
  0.1889518874025176  0.0926567087995699  0.1110154680504030   T   T   T
  0.1874085894835485  0.2346651248330391  0.1109578838885970   T   T   T
  0.1887106435373112  0.3794565032744970  0.1109411776277177   T   T   T
  0.1905533318736677  0.5227439002168869  0.1110135111193420   T   T   T
  0.1915122757866357  0.6658692220194048  0.1110338504002920   T   T   T
  0.1913135882925789  0.8086884329034175  0.1110039089310587   T   T   T
  0.3336215364928177  0.9512127183146822  0.1110399428294218   T   T   T
  0.3326596796798240  0.0932153244063872  0.1111028173141935   T   T   T
  0.3293576954566800  0.2328690940290832  0.1111041201925110   T   T   T
  0.3276575546973895  0.3752871516230586  0.1111724373871133   T   T   T
  0.3337204140124091  0.5211634377600823  0.1111987995409948   T   T   T
  0.3346928928220559  0.6653091283748994  0.1111256263538343   T   T   T
  0.3341327991776642  0.8084897454093464  0.1110338504002920   T   T   T
  0.4765221261010264  0.9521302513484348  0.1109483241218875   T   T   T
  0.4759701559851008  0.0947908075013881  0.1109866274933896   T   T   T
  0.4747932434822383  0.2369614063045945  0.1110726084327288   T   T   T
  0.4677309710744061  0.3735581091021014  0.1113453576382843   T   T   T
  0.4788385834369590  0.6662816071846384  0.1111987995409948   T   T   T
  0.4772581209801464  0.8094486893223994  0.1110135111193420   T   T   T
  0.6194400104937929  0.9531468452260348  0.1109084242856219   T   T   T
  0.6189048340964244  0.0957530203032723  0.1109077558912554   T   T   T
  0.6184052775570369  0.2387376506569654  0.1109748009271304   T   T   T
  0.6177338802900701  0.3822681409059337  0.1111110457688611   T   T   T
  0.6264439120939238  0.5322710501225848  0.1113453576382843   T   T   T
  0.6247148695728958  0.6723444664995951  0.1111724373871133   T   T   T
  0.6205455179215419  0.8112913776586148  0.1109411776277177   T   T   T
  0.7626696147570193  0.9535601046785130  0.1108891520819877   T   T   T
  0.7617634254604793  0.0958547452670703  0.1109413119787272   T   T   T
  0.7613926259946650  0.2386093952013318  0.1109603302605421   T   T   T
  0.7612643705390735  0.3815967436390229  0.1109748009271304   T   T   T
  0.7630406148914660  0.5252087777147026  0.1110726084327288   T   T   T
  0.7671329271669344  0.6706443257403473  0.1111041201925110   T   T   T
  0.7653368963629855  0.8125934317123985  0.1109578838885970   T   T   T
  0.9536139577621433  0.9055758070123318  0.1109152945805120   T   T   T
  0.9522023134006788  0.0477990885173269  0.1109189229285771   T   T   T
  0.9515456913544393  0.1904154304134100  0.1109166792120552   T   T   T
  0.9516181908069711  0.3333319452184456  0.1108903417396899   T   T   T
  0.9524370020319044  0.4762066914553199  0.1109037973469746   T   T   T
  0.9535664581616839  0.6191348850740340  0.1110465200517318   T   T   T
  0.9540123173131988  0.7623876364406161  0.1110547629098534   T   T   T
  0.0957963636056836  0.9042050383123226  0.1109747911027892   T   T   T
  0.0944255949056455  0.0463874441558627  0.1109152945805120   T   T   T
  0.0930879746925618  0.1886580618797504  0.1108834194263751   T   T   T
  0.0937287162005799  0.3323982696801890  0.1108603289176128   T   T   T
  0.0950963118101380  0.4756857663895918  0.1109230779599555   T   T   T
  0.0961419012180554  0.6186221973954718  0.1109875714289364   T   T   T
  0.0962371659718421  0.7614631265430143  0.1110056749046003   T   T   T
  0.2385382753749771  0.9037642359461568  0.1110056749046003   T   T   T
  0.2376137654773616  0.0459890846047360  0.1110547629098534   T   T   T
  0.2350227773867677  0.1868835771616701  0.1110014189577037   T   T   T
  0.2334652280739947  0.3289997306405482  0.1109677105762464   T   T   T
  0.2372019343109688  0.4746378589807540  0.1110109942191852   T   T   T
  0.2391438797581611  0.6181621608435200  0.1110540934676374   T   T   T
  0.2389511742147440  0.7610502277031908  0.1110109708672846   T   T   T
  0.3813792045224982  0.9038595006999361  0.1109875714289364   T   T   T
  0.3808665168440005  0.0464349437563222  0.1110465200517318   T   T   T
  0.3796368497900772  0.1881474190122926  0.1110892571889082   T   T   T
  0.3747446335072117  0.3264194176600507  0.1111995141224720   T   T   T
  0.3729244406814520  0.4675310041675143  0.1112585140779454   T   T   T
  0.3826514156835284  0.6173499862345060  0.1112008954396208   T   T   T
  0.3818392410745140  0.7608575221598163  0.1110540934676374   T   T   T
  0.5243156355274261  0.9049050901079030  0.1109230779599555   T   T   T
  0.5237947104616912  0.0475643998861219  0.1109037973469746   T   T   T
  0.5231942532687054  0.1903480140760150  0.1109843157977696   T   T   T
  0.5216842084921919  0.3330994523741114  0.1111474397341227   T   T   T
  0.5324703977495751  0.6270769612365605  0.1112585140779454   T   T   T
  0.5253635429362499  0.7627994676070013  0.1110109942191852   T   T   T
  0.6676031322368722  0.9062726857173899  0.1108603289176128   T   T   T
  0.6666694566985796  0.0483832111109988  0.1108903417396899   T   T   T
  0.6661494999082699  0.1912061279409175  0.1109225219106379   T   T   T
  0.6654977425900568  0.3345036593269397  0.1109907774465370   T   T   T
  0.6669019495429066  0.4783171934247625  0.1111474397341227   T   T   T
  0.6735819842569029  0.6252567684108582  0.1111995141224720   T   T   T
  0.6710016712764914  0.7665361738440394  0.1109677105762464   T   T   T
  0.8113433400383050  0.9069134272254582  0.1108834194263751   T   T   T
  0.8095859715045887  0.0484557105634949  0.1109166792120552   T   T   T
  0.8090069532475215  0.1909944486705061  0.1109515827708235   T   T   T
  0.8087952739770029  0.3338519020087418  0.1109225219106379   T   T   T
  0.8096533878420120  0.4768071486483408  0.1109843157977696   T   T   T
  0.8118539829057340  0.6203645521279568  0.1110892571889082   T   T   T
  0.8131178247563496  0.7649786245312099  0.1110014189577037   T   T   T

  0.00000000E+00  0.00000000E+00  0.00000000E+00
  0.00000000E+00  0.00000000E+00  0.00000000E+00
  0.00000000E+00  0.00000000E+00  0.00000000E+00
  0.00000000E+00  0.00000000E+00  0.00000000E+00
  0.00000000E+00  0.00000000E+00  0.00000000E+00
  0.00000000E+00  0.00000000E+00  0.00000000E+00
  0.00000000E+00  0.00000000E+00  0.00000000E+00
  0.00000000E+00  0.00000000E+00  0.00000000E+00
  0.00000000E+00  0.00000000E+00  0.00000000E+00
  0.00000000E+00  0.00000000E+00  0.00000000E+00
  0.00000000E+00  0.00000000E+00  0.00000000E+00
  0.00000000E+00  0.00000000E+00  0.00000000E+00
  0.00000000E+00  0.00000000E+00  0.00000000E+00
  0.00000000E+00  0.00000000E+00  0.00000000E+00
  0.00000000E+00  0.00000000E+00  0.00000000E+00
  0.00000000E+00  0.00000000E+00  0.00000000E+00
  0.00000000E+00  0.00000000E+00  0.00000000E+00
  0.00000000E+00  0.00000000E+00  0.00000000E+00
  0.00000000E+00  0.00000000E+00  0.00000000E+00
  0.00000000E+00  0.00000000E+00  0.00000000E+00
  0.00000000E+00  0.00000000E+00  0.00000000E+00
  0.00000000E+00  0.00000000E+00  0.00000000E+00
  0.00000000E+00  0.00000000E+00  0.00000000E+00
  0.00000000E+00  0.00000000E+00  0.00000000E+00
  0.00000000E+00  0.00000000E+00  0.00000000E+00
  0.00000000E+00  0.00000000E+00  0.00000000E+00
  0.00000000E+00  0.00000000E+00  0.00000000E+00
  0.00000000E+00  0.00000000E+00  0.00000000E+00
  0.00000000E+00  0.00000000E+00  0.00000000E+00
  0.00000000E+00  0.00000000E+00  0.00000000E+00
  0.00000000E+00  0.00000000E+00  0.00000000E+00
  0.00000000E+00  0.00000000E+00  0.00000000E+00
  0.00000000E+00  0.00000000E+00  0.00000000E+00
  0.00000000E+00  0.00000000E+00  0.00000000E+00
  0.00000000E+00  0.00000000E+00  0.00000000E+00
  0.00000000E+00  0.00000000E+00  0.00000000E+00
  0.00000000E+00  0.00000000E+00  0.00000000E+00
  0.00000000E+00  0.00000000E+00  0.00000000E+00
  0.00000000E+00  0.00000000E+00  0.00000000E+00
  0.00000000E+00  0.00000000E+00  0.00000000E+00
  0.00000000E+00  0.00000000E+00  0.00000000E+00
  0.00000000E+00  0.00000000E+00  0.00000000E+00
  0.00000000E+00  0.00000000E+00  0.00000000E+00
  0.00000000E+00  0.00000000E+00  0.00000000E+00
  0.00000000E+00  0.00000000E+00  0.00000000E+00
  0.00000000E+00  0.00000000E+00  0.00000000E+00
  0.00000000E+00  0.00000000E+00  0.00000000E+00
  0.00000000E+00  0.00000000E+00  0.00000000E+00
  0.00000000E+00  0.00000000E+00  0.00000000E+00
  0.00000000E+00  0.00000000E+00  0.00000000E+00
  0.00000000E+00  0.00000000E+00  0.00000000E+00
  0.00000000E+00  0.00000000E+00  0.00000000E+00
  0.00000000E+00  0.00000000E+00  0.00000000E+00
  0.00000000E+00  0.00000000E+00  0.00000000E+00
  0.00000000E+00  0.00000000E+00  0.00000000E+00
  0.00000000E+00  0.00000000E+00  0.00000000E+00
  0.00000000E+00  0.00000000E+00  0.00000000E+00
  0.00000000E+00  0.00000000E+00  0.00000000E+00
  0.00000000E+00  0.00000000E+00  0.00000000E+00
  0.00000000E+00  0.00000000E+00  0.00000000E+00
  0.00000000E+00  0.00000000E+00  0.00000000E+00
  0.00000000E+00  0.00000000E+00  0.00000000E+00
  0.00000000E+00  0.00000000E+00  0.00000000E+00
  0.00000000E+00  0.00000000E+00  0.00000000E+00
  0.00000000E+00  0.00000000E+00  0.00000000E+00
  0.00000000E+00  0.00000000E+00  0.00000000E+00
  0.00000000E+00  0.00000000E+00  0.00000000E+00
  0.00000000E+00  0.00000000E+00  0.00000000E+00
  0.00000000E+00  0.00000000E+00  0.00000000E+00
  0.00000000E+00  0.00000000E+00  0.00000000E+00
  0.00000000E+00  0.00000000E+00  0.00000000E+00
  0.00000000E+00  0.00000000E+00  0.00000000E+00
  0.00000000E+00  0.00000000E+00  0.00000000E+00
  0.00000000E+00  0.00000000E+00  0.00000000E+00
  0.00000000E+00  0.00000000E+00  0.00000000E+00
  0.00000000E+00  0.00000000E+00  0.00000000E+00
  0.00000000E+00  0.00000000E+00  0.00000000E+00
  0.00000000E+00  0.00000000E+00  0.00000000E+00
  0.00000000E+00  0.00000000E+00  0.00000000E+00
  0.00000000E+00  0.00000000E+00  0.00000000E+00
  0.00000000E+00  0.00000000E+00  0.00000000E+00
  0.00000000E+00  0.00000000E+00  0.00000000E+00
  0.00000000E+00  0.00000000E+00  0.00000000E+00
  0.00000000E+00  0.00000000E+00  0.00000000E+00
  0.00000000E+00  0.00000000E+00  0.00000000E+00
  0.00000000E+00  0.00000000E+00  0.00000000E+00
  0.00000000E+00  0.00000000E+00  0.00000000E+00
  0.00000000E+00  0.00000000E+00  0.00000000E+00
  0.00000000E+00  0.00000000E+00  0.00000000E+00
  0.00000000E+00  0.00000000E+00  0.00000000E+00
  0.00000000E+00  0.00000000E+00  0.00000000E+00
  0.00000000E+00  0.00000000E+00  0.00000000E+00
  0.00000000E+00  0.00000000E+00  0.00000000E+00
  0.00000000E+00  0.00000000E+00  0.00000000E+00
  0.00000000E+00  0.00000000E+00  0.00000000E+00
  0.00000000E+00  0.00000000E+00  0.00000000E+00
  0.00000000E+00  0.00000000E+00  0.00000000E+00
