 C B N 
 1.0
 17.527899999999772   0.000000000000000   0.000000000000000
 -8.763949999999658  15.179606674993195   0.000000000000000
  0.000000000000001   0.000000000000002  15.000000000000000
 C B N 
   1  49  48
Cartesian
  5.007562783967096   7.228638861347042   1.666771458409395 
  7.512643098616167  14.458702682716165   1.665355305236325 
 15.023658433205579   1.445842545060247   1.665671166491550 
 13.771977944033107   3.613672206779082   1.665681963474735 
 12.521798599831349   5.782342750563360   1.665246998455260 
 11.278164102792850   7.952823567152178   1.665462109933590 
 10.025083411451304  10.124838982765553   1.666109424060225 
  8.770467405463176  12.296224825946100   1.665866568102240 
 -7.511333845665511  14.456425924657669   1.665378299270715 
 -0.001316939088326   1.444141264705648   1.665355282526265 
 -1.253503471441383   3.613086044842068   1.665188665810830 
 -2.505713156690625   5.782220388117018   1.665439950826755 
 -3.755946452087160   7.951953283940636   1.665375067918725 
 -5.003818742090044  10.119737783328796   1.665497297371725 
 -6.256708687004037  12.290025106418314   1.665146203745145 
 -5.007862833215218  14.453088574664433   1.665146160470115 
  2.500356223121907   1.436073073735177   1.665866514042225 
  1.249184484479879   3.609914398051213   1.665203579861310 
 -0.005020445759932   5.782403946907483   1.665177785450025 
 -1.261973590388291   7.952786502677752   1.665688364094870 
 -2.506070269236895  10.119737783328796   1.665822775359840 
 -3.756089208224083  12.288333094456013   1.665180922239720 
 -2.501923023009127  14.453195575807335   1.665497329186800 
  5.008140632730827   1.435235785143395   1.666109407065180 
  3.747876618142772   3.589626070349671   1.665723030742575 
  2.499969739336452   5.780602114665628   1.665480540583680 
  1.226589119383074   7.956566477722558   1.665200750109690 
 -0.009046480294097  10.124980291468152   1.665897433123110 
 -1.253050394898861  12.290084731738206   1.665822798294765 
 -0.000603060564629  14.456400348812632   1.665375171373680 
  7.515702416010637   1.436038868103488   1.665462234253560 
  6.268149944544506   3.589694813889905   1.665896489077335 
  5.007711917365340   5.714546639762738   1.665734222579040 
  3.696727381655957   7.985446849569310   1.666035355347870 
  2.486669868963076  10.139094455004917   1.665200756514705 
  1.245660680930655  12.296146411229401   1.665688478559900 
  2.503558415308820  14.458535611203168   1.665440007046740 
 10.017209422898381   1.444263914995312   1.665247044625275 
  8.766589812537738   3.610041094610502   1.665462116521470 
  7.515713014100201   5.780556582956687   1.665227260835580 
  6.318880518001063   7.985554576726113   1.665734198098995 
  5.007801375129554  10.124292180915216   1.665480500893725 
  3.753744736810874  12.292779487226118   1.665177803060055 
  5.008188567633322  14.458656588789369   1.665188775820860 
 12.520422470533783   1.445914285538050   1.665681998619735 
 11.269597367909437   3.613249219386573   1.665876348260925 
 10.020870279322429   5.782522087252120   1.665462039736485 
  8.789270995886298   7.956410044770624   1.665896439472425 
  7.529197457970919  10.139063978911846   1.665723092632575 
  6.262279199256740  12.292849113895512   1.665203702876295 
  8.765602104162424  13.738262283258370   1.665110252348250 
 16.274955731139137   0.723405216423377   1.664986235171715 
 15.023252908641950   2.890872870088719   1.665102329782530 
 13.771290675300676   5.059868891664398   1.664996261830380 
 12.524522456163172   7.227605693768121   1.664596500044505 
 11.274068368797238   9.398695548887853   1.665248727793875 
 10.020666132073327  11.569698501810677   1.665294399285015 
 -6.259494836345434  13.733676293667964   1.664548606657980 
  1.249082355091395   0.719267542498842   1.665110438513250 
 -0.002334149715312   2.889727127367934   1.664675163924645 
 -1.255200045728896   5.059868891664398   1.664728675284540 
 -2.508430392637329   7.227593684926566   1.665082918526205 
 -3.756006655416496   9.397399335156340   1.665115861577310 
 -5.006379296963330  11.566352898210829   1.664728705011135 
 -3.755980589528292  13.732105994183360   1.664728678746165 
  3.754646262480575   0.716632032396152   1.665294362415000 
  2.495929065186577   2.877189418265601   1.665160975526055 
  1.248155937029485   5.059868891664398   1.664856524948640 
 -0.016258452621243   7.228448233568656   1.664909363949570 
 -1.258064993418962   9.398743218980757   1.665433303590645 
 -2.505640072261778  11.566386618367929   1.665102846988860 
 -1.252425648604189  13.733729091922534   1.665115903427235 
  6.261491414898545   0.716651752754864   1.665248865163890 
  5.008035911574759   2.877272779242196   1.665638398951785 
  3.744872052749399   5.027418598478616   1.665053581610400 
  2.470257881703684   7.235219504894340   1.664974683054450 
  1.239720702782275   9.404002851445330   1.664893711281975 
 -0.004618736668108  11.569781518077653   1.665433356510660 
  1.250468415164254  13.738205589764490   1.665083033441115 
  8.766938684894871   0.719271397134100   1.664596581884535 
  7.520034247593633   2.877176541909039   1.665265470497055 
  6.270779874123210   5.027458275953733   1.664937043220550 
  3.733207807187831   9.422713851778175   1.664974662099480 
  2.495812156593957  11.579493324407201   1.664909480409585 
  3.754359093343963  13.736734867127925   1.664728691409555 
 11.267604897568551   0.723411404456798   1.664996312305425 
 10.016793647677996   2.889880039946046   1.665159223555785 
  8.763949999999962   5.059868891664398   1.664901767825430 
  7.545449418553325   7.235249454936352   1.664937034895475 
  6.282531627204027   9.422769224858575   1.665053484830430 
  5.006038854366205  11.568761926231657   1.664856515573625 
  6.260220099083444  13.736790459642458   1.664675331939675 
 13.772022398704040   0.723678766728458   1.665102423727545 
 12.520701081383599   2.890924818201372   1.665272030806905 
 11.269664460551153   5.059868891664398   1.665159149245845 
 10.032267544395744   7.228503303068551   1.665265307267100 
  8.776191876354734   9.403910936513372   1.665638394151785 
  7.520211080286967  11.579500215110549   1.665161240560980 
