 N Ga B 
 1.0
 17.527899999999772   0.000000000000000   0.000000000000000
 -8.763949999999658  15.179606674993195   0.000000000000000
  0.000000000000001   0.000000000000002  15.000000000000000
 N Ga B 
  48   1  48
Cartesian
  8.782382733097487  13.746500626973953   1.664790823603890 
 16.272307284656733   0.724930979238452   1.664966878434255 
 15.008878584389837   2.888007795666783   1.665066892436505 
 13.758727782083120   5.056766040076394   1.664859618109785 
 12.523733382515452   7.225987133939864   1.664541586896045 
 11.291744632974156   9.395869075610225   1.665807111129480 
 10.044577649434569  11.571221996285743   1.665705320793435 
 -6.240460172636393  13.722683330910229   1.664943630553845 
  1.250334896789678   0.700611089450006   1.664790823603890 
 -0.024121499533687   2.858505434398609   1.664690333085345 
 -1.273845718210434   5.039417407151923   1.664467667472720 
 -2.501242765856346   7.216069021107432   1.664879636656680 
 -3.731805800187708   9.386947433642110   1.665195052112625 
 -4.980878365889470  11.555544057750376   1.665141712950240 
 -3.733871605167432  13.715423124702614   1.665141712950240 
  3.765278909443749   0.695157542718600   1.665705320793435 
  2.479488155546216   2.831063254805783   1.664922020226270 
  1.200835670701633   4.985406645733520   1.664506572371970 
 -0.002577395470383   7.198288224485195   1.665422492945475 
 -1.220959150901750   9.378438792368540   1.665318509049030 
 -2.475026654738517  11.548709275736305   1.664946786330990 
 -1.231275555277731  13.717992863688790   1.665195052112625 
  6.272773292715113   0.702755712549830   1.665807111129480 
  5.007856896814345   2.854128415437556   1.665320754245595 
  3.699131582787023   4.950246989236957   1.664922691716090 
  2.454191843332637   7.100602846642117   1.666015139185170 
  1.301552385180222   9.368300350423215   1.666653705269805 
  0.031516468859778  11.547790201036971   1.665318509049030 
  1.264041815652694  13.737733221267025   1.664879636656680 
  8.767940552167810   0.720763129105572   1.664541586896045 
  7.508455095002310   2.885392665598091   1.664787191173590 
  6.237852783985840   5.048771114066705   1.665619664766465 
  3.841755760611858   9.503934050149402   1.666015139185170 
  2.528773122419921  11.582715933267577   1.665422492945475 
  3.762775932349486  13.763102004453394   1.664467667472720 
 11.264038325662503   0.735837152480173   1.664859618109785 
 10.005583289178515   2.899916149494027   1.664916509724420 
  8.744128893387401   5.071326799935200   1.664534945340735 
  7.510524635648553   7.253103422509215   1.665619664766465 
  6.326488430028569   9.500962538303668   1.664922691716090 
  5.046891318271469  11.646970436092273   1.664506572371970 
  6.276363213527430  13.771265069731291   1.664690333085345 
 13.767313461159061   0.737553921325813   1.665066892436505 
 12.508031706229779   2.898236497747156   1.665578277865425 
 11.255352876630669   5.064580572685093   1.664916509724420 
 10.019366485547925   7.234418767296019   1.664787191173590 
  8.796143021314478   9.415632456679903   1.665320754245595 
  7.551933665729888  11.616796597068600   1.664922020226270 
  4.288321806074147   7.643888221252604   1.668024278164155 
  7.526162855647563  14.469419205260985   1.665088208677785 
 15.019315247388130   1.448352536178835   1.665403004504550 
 13.760404058957739   3.614788448141177   1.665558411981900 
 12.510206609765781   5.782498518753261   1.664881183925670 
 11.273562177337091   7.950516681644342   1.665146403437265 
 10.042061412347538  10.124079255782060   1.666058742908850 
  8.796428541847643  12.308861004839269   1.665607151757825 
 -7.495564724476564  14.447324548707346   1.664907922836465 
 -0.003835468278003   1.427079527313456   1.665088208677785 
 -1.265196749943193   3.599664021480840   1.664776637889285 
 -2.512531014388080   5.772551379563090   1.665059105359290 
 -3.745280055451142   7.941943309128329   1.665007507237650 
 -4.981734665107656  10.110658666410162   1.665790241488455 
 -6.233230471364586  12.280926614368694   1.665649242195675 
 -4.988241952077206  14.437309984614407   1.665649242195675 
  2.502395662742041   1.407276273719321   1.665607151757825 
  1.228231322049424   3.562379529099571   1.664980413457215 
 -0.015067297281281   5.753428595875278   1.664844286795350 
 -1.234666431349247   7.929289024987797   1.665548300863830 
 -2.468700447667061  10.101009771909021   1.665348522322320 
 -3.726325727759246  12.271153399312499   1.665030033577980 
 -2.482986872980054  14.438616797645414   1.665790241488455 
  5.017288594417561   1.420917438606062   1.666058742908850 
  3.731056118675727   3.542821338117287   1.665035717125005 
  2.447010341149400   5.700418022000876   1.665335971696875 
  1.291780791044517   7.897163991457170   1.666661741619840 
  0.054368352189051  10.088368654540767   1.665856530457635 
 -1.218113576503353  12.267089772012849   1.665348522322320 
  0.013403024831700  14.452173373697381   1.665007507237650 
  7.515399382830688   1.441187778413947   1.665146403437265 
  6.250260627052487   3.605679796301357   1.665331343809335 
  4.934546977688621   5.682686019062402   1.667631627668580 
  2.570713474738118  10.112340379074837   1.666661741619840 
  1.279668768415005  12.284245338208070   1.665548300863830 
  2.508526067114213  14.469277352428444   1.665059105359290 
 10.011280403957374   1.454231365927615   1.664881183925670 
  8.749867011354354   3.625847485625970   1.664954330941560 
  7.477254152063992   5.802763539808986   1.665327042124260 
  6.309890748257589   8.064851307591434   1.667631627668580 
  5.050766064983347  10.210255226209650   1.665335971696875 
  3.773818742132318  12.315971720227930   1.664844286795350 
  5.013968850997975  14.475497871449484   1.664776637889285 
 12.513671117742764   1.455383650486910   1.665558411981900 
 11.255541473401529   3.621368337758972   1.665479871748845 
  9.998825186537829   5.789106501572252   1.664954330941560 
  8.766487725668949   7.963912974516849   1.665331343809335 
  7.561322493110753  10.177037305191449   1.665035717125005 
  6.292972204563626  12.334768064785253   1.664980413457215 
