Species order: X N B                    
   2.51242800000000     
     5.9449720136058266    0.0000000000000000    0.0000000000000000
    -2.9724860068029120    5.1484967885702053   -0.0000000000000001
     0.0000000000000000    0.0000000000000009    5.3101128803662583
   As   N    B 
     1   143   143
Direct
  0.5061504541973779  0.4197418937653558  0.3750000000000000
  0.1118420902429011  0.0559227315101436  0.1249575543953734
  0.6119094055337001  0.5560156188620352  0.1228752003667624
  0.4452170401462234  0.0559453999090566  0.1248877191102573
  0.9451721686216156  0.5559160342563170  0.1248581305273530
  0.7785497786998085  0.0559415560165860  0.1248218184661150
  0.1118602725390864  0.7225968029362110  0.6250958821928568
  0.4452170401462230  0.7226049735704896  0.6251122808897793
  0.2784536476989780  0.2225565283528592  0.6256521295165126
  0.7785244920202067  0.7226171688266628  0.6253981871207758
  0.6118715759254815  0.2225781948150794  0.6255379079920612
  0.9451812552531503  0.2225889240658537  0.6251489850078975
  0.2785357814325208  0.7226010698416565  0.1248838999501451
  0.1118216239311831  0.2225774786322536  0.1248857696602342
  0.4452104958449490  0.2226085257359090  0.1241510794607049
  0.6118715759254872  0.7226267144437425  0.1244620920079418
  0.9451721686215997  0.7225894676986292  0.1248581305273530
  0.7785460101067367  0.2225879383721450  0.1248203606949051
  0.1118617171807468  0.8892701024537694  0.6250691092898190
  0.4452213519588671  0.8892773426460553  0.6250791888430310
  0.2784536476989784  0.3892304526794533  0.6256521295165114
  0.6119094055337135  0.3892271200049526  0.6271247996332284
  0.7785460101067359  0.8892914050679281  0.6251796393050845
  0.9451819913928808  0.3892542762838339  0.6250991587573411
  0.1118420902428992  0.3892526920660808  0.1249575543953714
  0.2785357814325214  0.8892680449241857  0.1248838999501453
  0.6118755359269985  0.8892809535011662  0.1248015095975168
  0.4449818807413212  0.3891576070373087  0.1219662485642242
  0.9451819913928847  0.8892610484424022  0.1249008412426483
  0.7785244920202067  0.3892406565268677  0.1246018128792483
  0.2785283507107296  0.5559283875386682  0.6251617248569911
  0.1118420902428992  0.0559227315101424  0.6250424456046165
  0.6119094055337001  0.5560156188620378  0.6271247996332147
  0.4452170401462234  0.0559453999090561  0.6251122808897793
  0.9451721686216152  0.5559160342563161  0.6251418694726600
  0.1118617171807466  0.5559249480603593  0.1249308907101637
  0.7785497786998085  0.0559415560165860  0.6251781815338939
  0.2785283507107296  0.0559332965054203  0.1248382751430423
  0.4452104958449490  0.5559353034423661  0.1241510794607027
  0.7785124215324467  0.5559228774329094  0.1244059846711492
  0.6118755359269985  0.0559279157591322  0.1248015095975218
  0.4452104958449496  0.5559353034423854  0.6258489205392923
  0.9451812552531503  0.0559256645206676  0.1248510149921468
  0.2785357814325208  0.7226010698416565  0.6251161000498622
  0.1118216239311809  0.2225774786322483  0.6251142303397930
  0.4452104958449490  0.2226085257359054  0.6258489205392923
  0.6118715759254815  0.7226267144437436  0.6255379079920612
  0.9451721686216009  0.7225894676986320  0.6251418694726600
  0.7785460101067367  0.2225879383721446  0.6251796393050845
  0.1118602725390841  0.7225968029362110  0.1249041178071544
  0.4452170401462234  0.7226049735704896  0.1248877191102541
  0.2784536476989667  0.2225565283528577  0.1243478704835090
  0.7785244920202209  0.7226171688266622  0.1246018128792463
  0.6118715759254872  0.2225781948150790  0.1244620920079418
  0.9451812552531503  0.2225889240658537  0.1248510149921469
  0.1118420902429014  0.3892526920660808  0.6250424456046163
  0.2785357814325214  0.8892680449241857  0.6251161000498622
  0.6118755359269985  0.8892809535011755  0.6251984904024797
  0.4449818807413114  0.3891576070373091  0.6280337514357685
  0.9451819913928822  0.8892610484424022  0.6250991587573411
  0.1118617171807468  0.8892701024537694  0.1249308907101635
  0.7785244920202086  0.3892406565268677  0.6253981871207778
  0.4452213519588671  0.8892773426460553  0.1249208111569761
  0.2784536476989671  0.3892304526794533  0.1243478704835084
  0.2785283507107313  0.5559283875386625  0.1248382751430420
  0.6119094055337138  0.3892271200049658  0.1228752003667618
  0.7785460101067359  0.8892914050679281  0.1248203606949053
  0.9451819913928822  0.3892542762838339  0.1249008412426476
  0.1118617171807468  0.5559249480603593  0.6250691092898190
  0.2785283507107313  0.0559332965054207  0.6251617248569923
  0.7785124215324467  0.5559228774329094  0.6255940153288859
  0.6118755359269985  0.0559279157591322  0.6251984904024797
  0.9451812552531503  0.0559256645206676  0.6251489850078975
  0.0573309800780578  0.1122761622266006  0.3750000000000000
  0.5535356287733455  0.6211080638803307  0.3750000000000000
  0.3858606039048439  0.1044528402092209  0.3750000000000000
  0.8827167066604007  0.6080250199968743  0.3750000000000000
  0.7223770598779599  0.1101547251583748  0.3750000000000000
  0.0546717923784341  0.7773364962298310  0.8750000000000000
  0.3879907736008926  0.7773319051773634  0.8750000000000000
  0.2213063412614623  0.2773198372974101  0.8750000000000000
  0.7213284098665902  0.7773325923774890  0.8750000000000000
  0.5546382884572707  0.2773217464313743  0.8750000000000000
  0.8879669929606681  0.2773204881570245  0.8750000000000000
  0.2180772156837923  0.7757052745085252  0.3750000000000000
  0.0573309800780565  0.2783881511847721  0.3750000000000000
  0.3924902211199976  0.2734326317227483  0.3750000000000000
  0.5538906311632557  0.7817084774184302  0.3750000000000000
  0.8859441294597614  0.7768237985923698  0.3750000000000000
  0.7216963929888445  0.2748479120322447  0.3750000000000000
  0.0546634143198229  0.9439987718071435  0.8750000000000000
  0.3879907736008908  0.9439922017568155  0.8750000000000000
  0.2213024331833184  0.4439799764909251  0.8750000000000000
  0.5546520887953027  0.4439927110643156  0.8750000000000000
  0.7213186015483222  0.9439935008964614  0.8750000000000000
  0.8879786560850350  0.4439915359072823  0.8750000000000000
  0.0542827348899231  0.4437813112735070  0.3750000000000000
  0.2186971602071012  0.9413889869349433  0.3750000000000000
  0.5539627947142235  0.9436480640237763  0.3750000000000000
  0.3924902211199888  0.4523909227305875  0.3750000000000000
  0.8893419400672395  0.9455186822123142  0.3750000000000000
  0.7164590030731869  0.4397684116067151  0.3750000000000000
  0.2213006554945668  0.6106451914997161  0.8750000000000000
  0.0546564579391733  0.1106616171616478  0.8750000000000000
  0.5546382884572758  0.6106498753592349  0.8750000000000000
  0.3879925748166432  0.1106557773947706  0.8750000000000000
  0.8879871878485625  0.6106602605909879  0.8750000000000000
  0.0511224957020563  0.6091895703330668  0.3750000000000000
  0.7213186015483222  0.1106584339852108  0.8750000000000000
  0.2228674800509655  0.1107414386203904  0.3750000000000000
  0.3858606039048424  0.6147410970289561  0.3750000000000000
  0.7164590030731868  0.6100239247998079  0.3750000000000000
  0.5538906311632485  0.1055154870781537  0.3750000000000000
  0.3879925748166432  0.6106701307552098  0.8750000000000000
  0.8901401429294420  0.1117367381313870  0.3750000000000000
  0.2213026948047551  0.7773180140690402  0.8750000000000000
  0.0546564579391736  0.2773281741108782  0.8750000000000000
  0.3879985707072106  0.2773228444014191  0.8750000000000000
  0.5546285385974876  0.7773136729283820  0.8750000000000000
  0.8879786560850350  0.7773204535110434  0.8750000000000000
  0.7213284098665904  0.2773291508224172  0.8750000000000000
  0.0511224957020565  0.7752662587023164  0.3750000000000000
  0.3856572712447953  0.7778513769296367  0.3750000000000000
  0.2261638193160385  0.2797485763246794  0.3750000000000000
  0.7216963929888445  0.7801818142899087  0.3750000000000000
  0.5535356287733439  0.2657608982263561  0.3750000000000000
  0.8893419400672395  0.2771565911882719  0.3750000000000000
  0.0546634143198228  0.4439979758460060  0.8750000000000000
  0.2213006554945668  0.9439887973282163  0.8750000000000000
  0.5546262396732159  0.9439797865032749  0.8750000000000000
  0.3879985707072074  0.4440090596391119  0.8750000000000000
  0.8879669929606681  0.9439798381369603  0.8750000000000000
  0.0542827348899243  0.9438347569497881  0.3750000000000000
  0.7213466721085594  0.4440069048178829  0.8750000000000000
  0.3856572712447862  0.9411392276484971  0.3750000000000000
  0.2228674800509662  0.4454593747639254  0.3750000000000000
  0.2186971602070979  0.6106415066054658  0.3750000000000000
  0.7223770598779652  0.9455556680529494  0.3750000000000000
  0.8859441294597773  0.4424536642007246  0.3750000000000000
  0.0546717923784330  0.6106686294819302  0.8750000000000000
  0.2213024331833250  0.1106557900257189  0.8750000000000000
  0.7213466721085594  0.6106731006240066  0.8750000000000000
  0.5546285385974876  0.1106481990024548  0.8750000000000000
  0.8879616110916120  0.1106474722124592  0.8750000000000000
  0.1120238734559885  0.0558204493667863  0.3750000000000000
  0.6042908450053248  0.5634307030605499  0.3750000000000000
  0.4424184213893684  0.0512798979680679  0.3750000000000000
  0.9395778705401167  0.5534415975368533  0.3750000000000000
  0.7788693065800260  0.0561013199566693  0.3750000000000000
  0.1102206470275143  0.7217769901804323  0.8750000000000000
  0.4435510306916959  0.7217466276054652  0.8750000000000000
  0.2768147939053994  0.2217556713685840  0.8750000000000000
  0.7768677895968733  0.7217403821586426  0.8750000000000000
  0.6100528813403304  0.2217390930627343  0.8750000000000000
  0.9434152776529745  0.2217115431275103  0.8750000000000000
  0.2743987858124785  0.7213103093858613  0.3750000000000000
  0.1150153206668744  0.2241743270001088  0.3750000000000000
  0.4421979874596060  0.2147866716940542  0.3750000000000000
  0.6105113670323192  0.7286461409006939  0.3750000000000000
  0.9395778705401204  0.7194696063366164  0.3750000000000000
  0.7782580881535137  0.2211069092690841  0.3750000000000000
  0.1102288592028209  0.8884551752297307  0.8750000000000000
  0.4435476246156076  0.8884404789744680  0.8750000000000000
  0.2768147939053885  0.3883924558701634  0.8750000000000000
  0.6100584937218653  0.3884071316933952  0.8750000000000000
  0.7768777408711598  0.8884203868147581  0.8750000000000000
  0.9434014610285741  0.3883782878555471  0.8750000000000000
  0.1120238734559929  0.3895367574225337  0.3750000000000000
  0.2743987858124785  0.8864218097599602  0.3750000000000000
  0.6108353202915561  0.8908414227001794  0.3750000000000000
  0.9430885953539083  0.8883480194210335  0.3750000000000000
  0.7743988782481940  0.3862462010112234  0.3750000000000000
  0.2767662800211819  0.5550251305746629  0.8750000000000000
  0.1102537922028508  0.0551380184797205  0.8750000000000000
  0.6100584937218653  0.5549846953618098  0.8750000000000000
  0.4435510306917028  0.0551377364195852  0.8750000000000000
  0.9433889351934367  0.5550354946390336  0.8750000000000000
  0.1078645032693891  0.5546237584270085  0.3750000000000000
  0.7768833591409827  0.0551083462371497  0.8750000000000000
  0.2755033428863114  0.0525339373193743  0.3750000000000000
  0.4421979874596076  0.5607446490988948  0.3750000000000000
  0.7698925633877769  0.5516129483605651  0.3750000000000000
  0.6108353202915561  0.0533272309247265  0.3750000000000000
  0.4435691726253382  0.5550749808915346  0.8750000000000000
  0.9461618010373112  0.0567334088081649  0.3750000000000000
  0.2767386605874571  0.7216922749955882  0.8750000000000000
  0.1102712989945621  0.2218023161639475  0.8750000000000000
  0.4435691726253382  0.2218275250671616  0.8750000000000000
  0.6100528813403330  0.7216471216109123  0.8750000000000000
  0.9433889351934367  0.7216867738877565  0.8750000000000000
  0.7768777408711598  0.2217906873897307  0.8750000000000000
  0.1068759085083799  0.7201046209208617  0.3750000000000000
  0.4424184213893839  0.7244718567546661  0.3750000000000000
  0.2830372272382343  0.2241903840480658  0.3750000000000000
  0.7743988782481955  0.7214860105703375  0.3750000000000000
  0.6105113670323192  0.2151985594649823  0.3750000000000000
  0.9461618010373029  0.2227617255624691  0.3750000000000000
  0.1102537922028507  0.3884491070564657  0.8750000000000000
  0.2767386605874658  0.8883797189252535  0.8750000000000000
  0.6100501614785060  0.8883419974467014  0.8750000000000000
  0.4436041245507631  0.3884687289420515  0.8750000000000000
  0.9434014610285741  0.8883565065063455  0.8750000000000000
  0.1078645032693911  0.8865740781756761  0.3750000000000000
  0.7768677895968733  0.3884607407715668  0.8750000000000000
  0.4423931516290416  0.8878632424812035  0.3750000000000000
  0.2830372272382352  0.3921801765234934  0.3750000000000000
  0.2755033428863110  0.5563027389002684  0.3750000000000000
  0.6042908450053190  0.3741934752780816  0.3750000000000000
  0.7782580881535188  0.8904845122177868  0.3750000000000000
  0.9430885953539142  0.3880739092662022  0.3750000000000000
  0.1102288592028220  0.5551070173064468  0.8750000000000000
  0.2767662800211818  0.0550744827798306  0.8750000000000000
  0.7768649171154880  0.5550991252244202  0.8750000000000000
  0.6100501614784885  0.0550414973651248  0.8750000000000000
  0.9434152776529739  0.0550370678588021  0.8750000000000000
  0.0564381024866057  0.1115720990523281  0.1250235132387412
  0.5562872057748787  0.6112903485897581  0.1242470173935080
  0.3897953247688225  0.1117325476584439  0.1249379790949876
  0.8894451831779319  0.6113892582556535  0.1248799651455945
  0.7230537407048360  0.1115437622583536  0.1248764415603521
  0.0563436217595212  0.7781885425015228  0.6250304645498682
  0.3897652237788214  0.7781630952812411  0.6250100555183867
  0.2230588191516558  0.2781960762424776  0.6251302199339597
  0.7229831086564044  0.7781096024858141  0.6252360040412011
  0.5562872057748786  0.2783301905184403  0.6257529826064857
  0.8896169845590134  0.2781428842411540  0.6250784143255046
  0.2229717634096543  0.7781525483714734  0.1249308215210018
  0.0564381024866057  0.2781993367676255  0.1250235132387405
  0.3897740794767917  0.2783773392199192  0.1242566687260248
  0.5563102934678549  0.7780648486110479  0.1248619768484175
  0.8895220056934919  0.7780866767019586  0.1249028504745144
  0.7229831086564044  0.2782068395039638  0.1247639959587958
  0.0563968711851296  0.9448991036086204  0.6249660328666953
  0.3897652237788295  0.9449354618309038  0.6250100555183867
  0.2230415214621556  0.4447543528405966  0.6249913452217923
  0.5561022352637816  0.4447177842985551  0.6250568736620240
  0.7230537407048360  0.9448433117798607  0.6251235584396209
  0.8895220056934919  0.4447686623248592  0.6250971495254871
  0.0563968711851307  0.4448311009098179  0.1250339671333236
  0.2230024622265453  0.9449108191985172  0.1249890435353998
  0.5563190051731804  0.9448261692532837  0.1249051968560589
  0.3897740794767940  0.4447300735901990  0.1242566687260196
  0.8896169845590134  0.9448074336511859  0.1249215856744929
  0.7227811412249845  0.4447580547479840  0.1242489834712101
  0.2230024622265453  0.6114249763613615  0.6250109564646003
  0.0564381024866057  0.1115720990523282  0.6249764867612329
  0.5562872057748787  0.6112903485897594  0.6257529826064856
  0.3897953247688225  0.1117325476584474  0.6250620209050288
  0.8894451831779300  0.6113892582556543  0.6251200348543778
  0.0563436217595212  0.6114884125913463  0.1249695354501422
  0.7230537407048367  0.1115437622583536  0.6251235584396209
  0.2230415214621596  0.1116205019548969  0.1250086547782092
  0.3897953247688205  0.6113961104437309  0.1249379790949870
  0.7227811412249862  0.6113564198103253  0.1242489834712101
  0.5563102934678549  0.1115787781901182  0.1248619768484178
  0.3897953247688212  0.6113961104437452  0.6250620209050326
  0.8896498345601566  0.1114915839467448  0.1248956506169323
  0.2229717634096543  0.7781525483714734  0.6250691784789901
  0.0564381024866056  0.2781993367676255  0.6249764867612329
  0.3897740794767917  0.2783773392199266  0.6257433312739850
  0.5563102934678549  0.7780648486110433  0.6251380231515650
  0.8895220056934919  0.7780866767019586  0.6250971495254871
  0.7229831086564044  0.2782068395039638  0.6252360040411999
  0.0563436217595213  0.7781885425015228  0.1249695354501422
  0.3897652237788210  0.7781630952812411  0.1249899444816121
  0.2230588191516510  0.2781960762424776  0.1248697800660459
  0.7229831086564044  0.7781096024858141  0.1247639959587956
  0.5562872057748787  0.2783301905184492  0.1242470173935075
  0.8896169845590134  0.2781428842411540  0.1249215856744929
  0.0563968711851290  0.4448311009098192  0.6249660328666953
  0.2230024622265453  0.9449108191985172  0.6250109564646003
  0.5563190051731804  0.9448261692532837  0.6250948031439549
  0.3897740794767941  0.4447300735901990  0.6257433312739850
  0.8896169845590134  0.9448074336511859  0.6250784143255046
  0.0563968711851295  0.9448991036086204  0.1250339671333187
  0.7227811412249885  0.4447580547479849  0.6257510165287810
  0.3897652237788295  0.9449354618309038  0.1249899444816125
  0.2230415214621548  0.4447543528405966  0.1250086547782077
  0.2230024622265447  0.6114249763613615  0.1249890435354006
  0.5561022352637777  0.4447177842985531  0.1249431263379846
  0.7230537407048360  0.9448433117798607  0.1248764415603529
  0.8895220056934919  0.4447686623248592  0.1249028504745138
  0.0563436217595212  0.6114884125913463  0.6250304645498682
  0.2230415214621600  0.1116205019548969  0.6249913452217923
  0.7227811412249865  0.6113564198103253  0.6257510165287810
  0.5563102934678549  0.1115787781901186  0.6251380231515716
  0.8896498345601566  0.1114915839467448  0.6251043493830825
 
  0.00000000E+00  0.00000000E+00  0.00000000E+00
  0.00000000E+00  0.00000000E+00  0.00000000E+00
  0.00000000E+00  0.00000000E+00  0.00000000E+00
  0.00000000E+00  0.00000000E+00  0.00000000E+00
  0.00000000E+00  0.00000000E+00  0.00000000E+00
  0.00000000E+00  0.00000000E+00  0.00000000E+00
  0.00000000E+00  0.00000000E+00  0.00000000E+00
  0.00000000E+00  0.00000000E+00  0.00000000E+00
  0.00000000E+00  0.00000000E+00  0.00000000E+00
  0.00000000E+00  0.00000000E+00  0.00000000E+00
  0.00000000E+00  0.00000000E+00  0.00000000E+00
  0.00000000E+00  0.00000000E+00  0.00000000E+00
  0.00000000E+00  0.00000000E+00  0.00000000E+00
  0.00000000E+00  0.00000000E+00  0.00000000E+00
  0.00000000E+00  0.00000000E+00  0.00000000E+00
  0.00000000E+00  0.00000000E+00  0.00000000E+00
  0.00000000E+00  0.00000000E+00  0.00000000E+00
  0.00000000E+00  0.00000000E+00  0.00000000E+00
  0.00000000E+00  0.00000000E+00  0.00000000E+00
  0.00000000E+00  0.00000000E+00  0.00000000E+00
  0.00000000E+00  0.00000000E+00  0.00000000E+00
  0.00000000E+00  0.00000000E+00  0.00000000E+00
  0.00000000E+00  0.00000000E+00  0.00000000E+00
  0.00000000E+00  0.00000000E+00  0.00000000E+00
  0.00000000E+00  0.00000000E+00  0.00000000E+00
  0.00000000E+00  0.00000000E+00  0.00000000E+00
  0.00000000E+00  0.00000000E+00  0.00000000E+00
  0.00000000E+00  0.00000000E+00  0.00000000E+00
  0.00000000E+00  0.00000000E+00  0.00000000E+00
  0.00000000E+00  0.00000000E+00  0.00000000E+00
  0.00000000E+00  0.00000000E+00  0.00000000E+00
  0.00000000E+00  0.00000000E+00  0.00000000E+00
  0.00000000E+00  0.00000000E+00  0.00000000E+00
  0.00000000E+00  0.00000000E+00  0.00000000E+00
  0.00000000E+00  0.00000000E+00  0.00000000E+00
  0.00000000E+00  0.00000000E+00  0.00000000E+00
  0.00000000E+00  0.00000000E+00  0.00000000E+00
  0.00000000E+00  0.00000000E+00  0.00000000E+00
  0.00000000E+00  0.00000000E+00  0.00000000E+00
  0.00000000E+00  0.00000000E+00  0.00000000E+00
  0.00000000E+00  0.00000000E+00  0.00000000E+00
  0.00000000E+00  0.00000000E+00  0.00000000E+00
  0.00000000E+00  0.00000000E+00  0.00000000E+00
  0.00000000E+00  0.00000000E+00  0.00000000E+00
  0.00000000E+00  0.00000000E+00  0.00000000E+00
  0.00000000E+00  0.00000000E+00  0.00000000E+00
  0.00000000E+00  0.00000000E+00  0.00000000E+00
  0.00000000E+00  0.00000000E+00  0.00000000E+00
  0.00000000E+00  0.00000000E+00  0.00000000E+00
  0.00000000E+00  0.00000000E+00  0.00000000E+00
  0.00000000E+00  0.00000000E+00  0.00000000E+00
  0.00000000E+00  0.00000000E+00  0.00000000E+00
  0.00000000E+00  0.00000000E+00  0.00000000E+00
  0.00000000E+00  0.00000000E+00  0.00000000E+00
  0.00000000E+00  0.00000000E+00  0.00000000E+00
  0.00000000E+00  0.00000000E+00  0.00000000E+00
  0.00000000E+00  0.00000000E+00  0.00000000E+00
  0.00000000E+00  0.00000000E+00  0.00000000E+00
  0.00000000E+00  0.00000000E+00  0.00000000E+00
  0.00000000E+00  0.00000000E+00  0.00000000E+00
  0.00000000E+00  0.00000000E+00  0.00000000E+00
  0.00000000E+00  0.00000000E+00  0.00000000E+00
  0.00000000E+00  0.00000000E+00  0.00000000E+00
  0.00000000E+00  0.00000000E+00  0.00000000E+00
  0.00000000E+00  0.00000000E+00  0.00000000E+00
  0.00000000E+00  0.00000000E+00  0.00000000E+00
  0.00000000E+00  0.00000000E+00  0.00000000E+00
  0.00000000E+00  0.00000000E+00  0.00000000E+00
  0.00000000E+00  0.00000000E+00  0.00000000E+00
  0.00000000E+00  0.00000000E+00  0.00000000E+00
  0.00000000E+00  0.00000000E+00  0.00000000E+00
  0.00000000E+00  0.00000000E+00  0.00000000E+00
  0.00000000E+00  0.00000000E+00  0.00000000E+00
  0.00000000E+00  0.00000000E+00  0.00000000E+00
  0.00000000E+00  0.00000000E+00  0.00000000E+00
  0.00000000E+00  0.00000000E+00  0.00000000E+00
  0.00000000E+00  0.00000000E+00  0.00000000E+00
  0.00000000E+00  0.00000000E+00  0.00000000E+00
  0.00000000E+00  0.00000000E+00  0.00000000E+00
  0.00000000E+00  0.00000000E+00  0.00000000E+00
  0.00000000E+00  0.00000000E+00  0.00000000E+00
  0.00000000E+00  0.00000000E+00  0.00000000E+00
  0.00000000E+00  0.00000000E+00  0.00000000E+00
  0.00000000E+00  0.00000000E+00  0.00000000E+00
  0.00000000E+00  0.00000000E+00  0.00000000E+00
  0.00000000E+00  0.00000000E+00  0.00000000E+00
  0.00000000E+00  0.00000000E+00  0.00000000E+00
  0.00000000E+00  0.00000000E+00  0.00000000E+00
  0.00000000E+00  0.00000000E+00  0.00000000E+00
  0.00000000E+00  0.00000000E+00  0.00000000E+00
  0.00000000E+00  0.00000000E+00  0.00000000E+00
  0.00000000E+00  0.00000000E+00  0.00000000E+00
  0.00000000E+00  0.00000000E+00  0.00000000E+00
  0.00000000E+00  0.00000000E+00  0.00000000E+00
  0.00000000E+00  0.00000000E+00  0.00000000E+00
  0.00000000E+00  0.00000000E+00  0.00000000E+00
  0.00000000E+00  0.00000000E+00  0.00000000E+00
  0.00000000E+00  0.00000000E+00  0.00000000E+00
  0.00000000E+00  0.00000000E+00  0.00000000E+00
  0.00000000E+00  0.00000000E+00  0.00000000E+00
  0.00000000E+00  0.00000000E+00  0.00000000E+00
  0.00000000E+00  0.00000000E+00  0.00000000E+00
  0.00000000E+00  0.00000000E+00  0.00000000E+00
  0.00000000E+00  0.00000000E+00  0.00000000E+00
  0.00000000E+00  0.00000000E+00  0.00000000E+00
  0.00000000E+00  0.00000000E+00  0.00000000E+00
  0.00000000E+00  0.00000000E+00  0.00000000E+00
  0.00000000E+00  0.00000000E+00  0.00000000E+00
  0.00000000E+00  0.00000000E+00  0.00000000E+00
  0.00000000E+00  0.00000000E+00  0.00000000E+00
  0.00000000E+00  0.00000000E+00  0.00000000E+00
  0.00000000E+00  0.00000000E+00  0.00000000E+00
  0.00000000E+00  0.00000000E+00  0.00000000E+00
  0.00000000E+00  0.00000000E+00  0.00000000E+00
  0.00000000E+00  0.00000000E+00  0.00000000E+00
  0.00000000E+00  0.00000000E+00  0.00000000E+00
  0.00000000E+00  0.00000000E+00  0.00000000E+00
  0.00000000E+00  0.00000000E+00  0.00000000E+00
  0.00000000E+00  0.00000000E+00  0.00000000E+00
  0.00000000E+00  0.00000000E+00  0.00000000E+00
  0.00000000E+00  0.00000000E+00  0.00000000E+00
  0.00000000E+00  0.00000000E+00  0.00000000E+00
  0.00000000E+00  0.00000000E+00  0.00000000E+00
  0.00000000E+00  0.00000000E+00  0.00000000E+00
  0.00000000E+00  0.00000000E+00  0.00000000E+00
  0.00000000E+00  0.00000000E+00  0.00000000E+00
  0.00000000E+00  0.00000000E+00  0.00000000E+00
  0.00000000E+00  0.00000000E+00  0.00000000E+00
  0.00000000E+00  0.00000000E+00  0.00000000E+00
  0.00000000E+00  0.00000000E+00  0.00000000E+00
  0.00000000E+00  0.00000000E+00  0.00000000E+00
  0.00000000E+00  0.00000000E+00  0.00000000E+00
  0.00000000E+00  0.00000000E+00  0.00000000E+00
  0.00000000E+00  0.00000000E+00  0.00000000E+00
  0.00000000E+00  0.00000000E+00  0.00000000E+00
  0.00000000E+00  0.00000000E+00  0.00000000E+00
  0.00000000E+00  0.00000000E+00  0.00000000E+00
  0.00000000E+00  0.00000000E+00  0.00000000E+00
  0.00000000E+00  0.00000000E+00  0.00000000E+00
  0.00000000E+00  0.00000000E+00  0.00000000E+00
  0.00000000E+00  0.00000000E+00  0.00000000E+00
  0.00000000E+00  0.00000000E+00  0.00000000E+00
  0.00000000E+00  0.00000000E+00  0.00000000E+00
  0.00000000E+00  0.00000000E+00  0.00000000E+00
  0.00000000E+00  0.00000000E+00  0.00000000E+00
  0.00000000E+00  0.00000000E+00  0.00000000E+00
  0.00000000E+00  0.00000000E+00  0.00000000E+00
  0.00000000E+00  0.00000000E+00  0.00000000E+00
  0.00000000E+00  0.00000000E+00  0.00000000E+00
  0.00000000E+00  0.00000000E+00  0.00000000E+00
  0.00000000E+00  0.00000000E+00  0.00000000E+00
  0.00000000E+00  0.00000000E+00  0.00000000E+00
  0.00000000E+00  0.00000000E+00  0.00000000E+00
  0.00000000E+00  0.00000000E+00  0.00000000E+00
  0.00000000E+00  0.00000000E+00  0.00000000E+00
  0.00000000E+00  0.00000000E+00  0.00000000E+00
  0.00000000E+00  0.00000000E+00  0.00000000E+00
  0.00000000E+00  0.00000000E+00  0.00000000E+00
  0.00000000E+00  0.00000000E+00  0.00000000E+00
  0.00000000E+00  0.00000000E+00  0.00000000E+00
  0.00000000E+00  0.00000000E+00  0.00000000E+00
  0.00000000E+00  0.00000000E+00  0.00000000E+00
  0.00000000E+00  0.00000000E+00  0.00000000E+00
  0.00000000E+00  0.00000000E+00  0.00000000E+00
  0.00000000E+00  0.00000000E+00  0.00000000E+00
  0.00000000E+00  0.00000000E+00  0.00000000E+00
  0.00000000E+00  0.00000000E+00  0.00000000E+00
  0.00000000E+00  0.00000000E+00  0.00000000E+00
  0.00000000E+00  0.00000000E+00  0.00000000E+00
  0.00000000E+00  0.00000000E+00  0.00000000E+00
  0.00000000E+00  0.00000000E+00  0.00000000E+00
  0.00000000E+00  0.00000000E+00  0.00000000E+00
  0.00000000E+00  0.00000000E+00  0.00000000E+00
  0.00000000E+00  0.00000000E+00  0.00000000E+00
  0.00000000E+00  0.00000000E+00  0.00000000E+00
  0.00000000E+00  0.00000000E+00  0.00000000E+00
  0.00000000E+00  0.00000000E+00  0.00000000E+00
  0.00000000E+00  0.00000000E+00  0.00000000E+00
  0.00000000E+00  0.00000000E+00  0.00000000E+00
  0.00000000E+00  0.00000000E+00  0.00000000E+00
  0.00000000E+00  0.00000000E+00  0.00000000E+00
  0.00000000E+00  0.00000000E+00  0.00000000E+00
  0.00000000E+00  0.00000000E+00  0.00000000E+00
  0.00000000E+00  0.00000000E+00  0.00000000E+00
  0.00000000E+00  0.00000000E+00  0.00000000E+00
  0.00000000E+00  0.00000000E+00  0.00000000E+00
  0.00000000E+00  0.00000000E+00  0.00000000E+00
  0.00000000E+00  0.00000000E+00  0.00000000E+00
  0.00000000E+00  0.00000000E+00  0.00000000E+00
  0.00000000E+00  0.00000000E+00  0.00000000E+00
  0.00000000E+00  0.00000000E+00  0.00000000E+00
  0.00000000E+00  0.00000000E+00  0.00000000E+00
  0.00000000E+00  0.00000000E+00  0.00000000E+00
  0.00000000E+00  0.00000000E+00  0.00000000E+00
  0.00000000E+00  0.00000000E+00  0.00000000E+00
  0.00000000E+00  0.00000000E+00  0.00000000E+00
  0.00000000E+00  0.00000000E+00  0.00000000E+00
  0.00000000E+00  0.00000000E+00  0.00000000E+00
  0.00000000E+00  0.00000000E+00  0.00000000E+00
  0.00000000E+00  0.00000000E+00  0.00000000E+00
  0.00000000E+00  0.00000000E+00  0.00000000E+00
  0.00000000E+00  0.00000000E+00  0.00000000E+00
  0.00000000E+00  0.00000000E+00  0.00000000E+00
  0.00000000E+00  0.00000000E+00  0.00000000E+00
  0.00000000E+00  0.00000000E+00  0.00000000E+00
  0.00000000E+00  0.00000000E+00  0.00000000E+00
  0.00000000E+00  0.00000000E+00  0.00000000E+00
  0.00000000E+00  0.00000000E+00  0.00000000E+00
  0.00000000E+00  0.00000000E+00  0.00000000E+00
  0.00000000E+00  0.00000000E+00  0.00000000E+00
  0.00000000E+00  0.00000000E+00  0.00000000E+00
  0.00000000E+00  0.00000000E+00  0.00000000E+00
  0.00000000E+00  0.00000000E+00  0.00000000E+00
  0.00000000E+00  0.00000000E+00  0.00000000E+00
  0.00000000E+00  0.00000000E+00  0.00000000E+00
  0.00000000E+00  0.00000000E+00  0.00000000E+00
  0.00000000E+00  0.00000000E+00  0.00000000E+00
  0.00000000E+00  0.00000000E+00  0.00000000E+00
  0.00000000E+00  0.00000000E+00  0.00000000E+00
  0.00000000E+00  0.00000000E+00  0.00000000E+00
  0.00000000E+00  0.00000000E+00  0.00000000E+00
  0.00000000E+00  0.00000000E+00  0.00000000E+00
  0.00000000E+00  0.00000000E+00  0.00000000E+00
  0.00000000E+00  0.00000000E+00  0.00000000E+00
  0.00000000E+00  0.00000000E+00  0.00000000E+00
  0.00000000E+00  0.00000000E+00  0.00000000E+00
  0.00000000E+00  0.00000000E+00  0.00000000E+00
  0.00000000E+00  0.00000000E+00  0.00000000E+00
  0.00000000E+00  0.00000000E+00  0.00000000E+00
  0.00000000E+00  0.00000000E+00  0.00000000E+00
  0.00000000E+00  0.00000000E+00  0.00000000E+00
  0.00000000E+00  0.00000000E+00  0.00000000E+00
  0.00000000E+00  0.00000000E+00  0.00000000E+00
  0.00000000E+00  0.00000000E+00  0.00000000E+00
  0.00000000E+00  0.00000000E+00  0.00000000E+00
  0.00000000E+00  0.00000000E+00  0.00000000E+00
  0.00000000E+00  0.00000000E+00  0.00000000E+00
  0.00000000E+00  0.00000000E+00  0.00000000E+00
  0.00000000E+00  0.00000000E+00  0.00000000E+00
  0.00000000E+00  0.00000000E+00  0.00000000E+00
  0.00000000E+00  0.00000000E+00  0.00000000E+00
  0.00000000E+00  0.00000000E+00  0.00000000E+00
  0.00000000E+00  0.00000000E+00  0.00000000E+00
  0.00000000E+00  0.00000000E+00  0.00000000E+00
  0.00000000E+00  0.00000000E+00  0.00000000E+00
  0.00000000E+00  0.00000000E+00  0.00000000E+00
  0.00000000E+00  0.00000000E+00  0.00000000E+00
  0.00000000E+00  0.00000000E+00  0.00000000E+00