 N B As 
 1.0
 14.936314146199660   0.000000000000000   0.000000000000000
 -7.468157073099825  12.935227489513863   0.000000000000000
  0.000000000000001   0.000000000000001  13.341276283792837
 N B As 
 143 143   1
Cartesian
  1.252868851761037   0.723373253918718   1.667093256935743 
  4.987259133307145   7.192188517703258   1.639311996519375 
  6.232092540826950   0.723666474815481   1.666161565102653 
  9.965720169496336   7.190900368173842   1.665766815643285 
 11.210883745869079   0.723616753191923   1.665282366401875 
 -3.725686253724084   9.346954029175308   8.339576868196126 
  1.253374130437606   9.347059718188442   8.339795647742454 
  2.496984045804196   2.878819323520674   8.346997917423138 
  6.231667862808110   9.347217466601332   8.343610001761444 
  7.476857155227219   2.879099584138383   8.345474056507870 
 12.455195105904290   2.879238369437950   8.340285327523032 
 -1.236200358334131   9.347009222567928   1.666110612632427 
  0.007959332014155   2.879090320150616   1.666135556951295 
  4.987328391118523   2.879491921499285   1.656333852016384 
  3.742416266469411   9.347340941329778   1.660483156336799 
  8.720976788636062   9.346859146208496   1.665766815643285 
  9.966286097883916   2.879225619265588   1.665262917873404 
 -4.970407056791343  11.502911074862803   8.339219683499774 
  0.008703101023812  11.503004728397089   8.339354157603994 
  1.252236998943238   5.034784451255186   8.346997917423112 
  6.232861840758575   5.034741342352381   8.366645216325120 
  4.987239887419617  11.503186629023071   8.340694294971078 
 11.210523072111185   5.035092614997475   8.339620581748168 
 -1.236491650840899   5.035072122780446   1.667093256935716 
 -2.480895507148872  11.502884460249581   1.666110612632427 
  2.497875380117245  11.503051435629382   1.665011420174898 
  3.740099024572841   5.033842176302433   1.627185419393064 
  7.476393960017422  11.502793959166077   1.666336631096314 
  8.721376021145174   5.034916440342767   1.662347211083504 
  0.008426425304454   7.191060160691296   8.340455293369596 
  1.252868851761022   0.723373253918693   8.338863955908751 
  4.987259133307123   7.192188517703298   8.366645216324946 
  6.232092540826958   0.723666474815468   8.339795647742454 
  9.965720169496327   7.190900368173830   8.340190397201516 
 -2.480933084224645   7.191015670256922   1.666737529344626 
 11.210883745869079   0.723616753191924   8.340674846442873 
  3.742468300919595   0.723509914536039   1.665501919475471 
  2.497991658536473   7.191149619478924   1.656333852016357 
  7.476386725528656   7.190988886219811   1.659734612855095 
  8.721486763319641   0.723440313358740   1.665011420174964 
  2.497991658536348   7.191149619479170   8.349623360828204 
 13.699862506502543   0.723411193077075   1.665671885322195 
 -1.236200358334130   9.347009222567928   8.339846600212294 
  0.007959332014170   2.879090320150540   8.339821655893692 
  4.987328391118553   2.879491921499234   8.349623360828204 
  3.742416266469308   9.347340941329803   8.345474056507870 
  8.720976788636055   9.346859146208534   8.340190397201516 
  9.966286097883916   2.879225619265589   8.340694294971078 
 -3.725686253724114   9.346954029175308   1.666380344648650 
  1.253374130437606   9.347059718188442   1.666161565102613 
  2.496984045804039   2.878819323520661   1.658959295421782 
  6.231667862808324   9.347217466601320   1.662347211083478 
  7.476857155227307   2.879099584138382   1.660483156336799 
 12.455195105904290   2.879238369437949   1.665671885322195 
 -1.236491650840869   5.035072122780447   8.338863955908737 
 -2.480895507148871  11.502884460249581   8.339846600212294 
  2.497875380117171  11.503051435629510   8.340945792669689 
  3.740099024572693   5.033842176302434   8.378771793451458 
  7.476393960017378  11.502793959166077   8.339620581748168 
 -4.970407056791344  11.502911074862803   1.666737529344626 
  8.721376021145204   5.034916440342768   8.343610001761471 
  0.008703101023811  11.503004728397089   1.666603055240727 
  1.252236998943073   5.034784451255185   1.658959295421768 
  0.008426425304513   7.191060160691217   1.665501919475471 
  6.232861840758476   5.034741342352548   1.639311996519375 
  4.987239887419616  11.503186629023071   1.665262917873404 
 11.210523072111199   5.035092614997474   1.666336631096314 
 -2.480933084224645   7.191015670256923   8.339219683499774 
  3.742468300919603   0.723509914536052   8.340455293369610 
  7.476386725528656   7.190988886219812   8.346222599990000 
  8.721486763319641   0.723440313358741   8.340945792669689 
 13.699862506502543   0.723411193077076   8.340285327523032 
  0.017817513682295   1.452317700050648   5.002978606422314 
  3.629249462045619   8.034174101863590   5.002978606422314 
  4.983264979151206   1.351121250032115   5.002978606422314 
  8.643707679067209   7.864941952975782   5.002978606422314 
  9.966997908518406   1.424876428968457   5.002978606422314 
 -4.988675986597352  10.055024414634502  11.673616748318732 
 -0.010084685466517  10.054965028326411  11.673616748318732 
  1.234432931203720   3.587195182796971  11.673616748318732 
  4.968745834431088  10.054973917416373  11.673616748318732 
  6.213169351772444   3.587219877879104  11.673616748318732 
 11.191880993171424   3.587203601814142  11.673616748318732 
 -2.535819030880025  10.033924190583571   5.002978606422314 
 -1.222732911582364   3.601014065960205   5.002978606422314 
  3.820319399343119   3.536913294390211   5.002978606422314 
  2.435162774956657  10.111576985888902   5.002978606422314 
  7.431297687582489  10.048392554060605   5.002978606422314 
  8.726876665590211   3.555220267154984   5.002978606422314 
 -6.233461176084323  12.210838863147096  11.673616748318732 
 -1.254729958171303  12.210753878051484  11.673616748318732 
 -0.010269538400997   5.742981996699133  11.673616748318732 
  4.968650534552737   5.743146721302927  11.673616748318732 
  3.723949491542988  12.210770682718334  11.673616748318732 
  9.947329633123848   5.743131520379356  11.673616748318732 
 -2.503444557665993   5.740412216917577   5.002978606422314 
 -3.763911333581456  12.177080702126482   5.002978606422314 
  1.226850363302228  12.206302378186885   5.002978606422314 
  2.483830772562927   5.851779499711245   5.002978606422314 
  6.222208565923047  12.230499250001648   5.002978606422314 
  7.416997169107585   5.688504446835029   5.002978606422314 
 -1.254978094826242   7.898834467426584  11.673616748318732 
 -0.010072313028389   1.431433192343410  11.673616748318732 
  3.723822528056782   7.898895054214992  11.673616748318732 
  4.968784257224137   1.431357653630370  11.673616748318732 
  8.702748851112963   7.899029389550249  11.673616748318732 
 -3.785941742797887   7.880005676497428   5.002978606422314 
  9.947426665758353   1.431392017232058  11.673616748318732 
  2.501784236894983   1.432465701070781   5.002978606422314 
  1.172352124663093   7.951815937222861   5.002978606422314 
  6.145502254020347   7.890798241331616   5.002978606422314 
  7.485078238546805   1.364866829022783   5.002978606422314 
  1.234598527523939   7.899157062369819  11.673616748318732 
 12.460945297736190   1.445340126665730   5.002978606422314 
 -2.499686453813241  10.054785343680171  11.673616748318732 
 -1.254764339157961   3.587303021375718  11.673616748318732 
  3.724177978410746   3.587234080371413  11.673616748318732 
  2.479005482442404  10.054729190038197  11.673616748318732 
  7.457976919452614  10.054816898417428  11.673616748318732 
  8.702850073054853   3.587315655361666  11.673616748318732 
 -5.026228537719675  10.028245421258765   5.002978606422314 
 -0.048818106359116  10.061684513616450   5.002978606422314 
  1.288847544839925   3.618611474627355   5.002978606422314 
  4.952963709167503  10.091829251021631   5.002978606422314 
  6.283037910630297   3.437677676375457   5.002978606422314 
 11.213641643396036   3.585083557238492   5.002978606422314 
 -2.499376695171609   5.743214822451770  11.673616748318732 
 -3.744440502466953  12.210709840993072  11.673616748318732 
  1.234282430046884  12.210593283922591  11.673616748318732 
  2.479339141095069   5.743358193837043  11.673616748318732 
  6.213164253270634  12.210593951816053  11.673616748318732 
 -6.237922234921236  12.208717293655534   5.002978606422314 
  7.458347196208284   5.743330320734247  11.673616748318732 
 -1.268277423656572  12.173850008938684   5.002978606422314 
  0.002058114591282   5.762118349907982   5.002978606422314 
 -1.293837198948973   7.898786802481187   5.002978606422314 
  3.728092447966107  12.230977670264151   5.002978606422314 
  9.928426371773030   5.723238800005355   5.002978606422314 
 -3.743974178685571   7.899137643058418  11.673616748318732 
  2.479047842384481   1.431357817014556  11.673616748318732 
  6.213657867152139   7.899195478298322  11.673616748318732 
  7.457767956933763   1.431259625401758  11.673616748318732 
 12.436540870805793   1.431250224207822  11.673616748318732 
  1.256347882050596   0.722050211126268   5.002978606422314 
  4.818088906408729   7.288104318664950   5.002978606422314 
  6.225134193219275   0.663317145856020   5.002978606422314 
  9.900641458011986   7.158892966299169   5.002978606422314 
 11.214463172467328   0.725683336101518   5.002978606422314 
 -3.744053725016358   9.336349564680503  11.673616748318732 
  1.234900352344120   9.335956817866139  11.673616748318732 
  2.478486536455264   2.868460056242512  11.673616748318732 
  6.213470815522796   9.335876031590722  11.673616748318732 
  7.455959105254237   2.868245612084951  11.673616748318732 
 12.435370328353418   2.867889247405508  11.673616748318732 
 -1.288352222708901   9.330312942437740   5.002978606422314 
  0.043735875313064   2.899745917055080   5.002978606422314 
  5.000747454094413   2.778314460078117   5.002978606422314 
  3.677145736866110   9.425203591906849   5.002978606422314 
  8.660718209761400   9.306503029755113   5.002978606422314 
  9.973046163112482   2.860068170898904   5.002978606422314 
 -4.988709931993514  11.492369805832475  11.673616748318732 
 -0.010046387022007  11.492179706427404  11.673616748318732 
  1.234016855641021   5.023944771891534  11.673616748318732 
  6.211339841988708   5.024134607003636  11.673616748318732 
  4.968826995164825  11.491919809770799  11.673616748318732 
 11.190470530419715   5.023761505399401  11.673616748318732 
 -1.235897924364639   5.038746572788057   5.002978606422314 
 -2.521430842077851  11.466067760911663   5.002978606422314 
  2.470684563520516  11.523236459708995   5.002978606422314 
  7.451944983290735  11.490983721070142   5.002978606422314 
  8.682117621939746   4.996182477040670   5.002978606422314 
 -0.011146751177886   7.179376326380403  11.673616748318732 
  1.235005893445565   0.713222812356212  11.673616748318732 
  4.967312431658698   7.178853287703563  11.673616748318732 
  6.213240258045285   0.713219163844187  11.673616748318732 
  9.945661242988006   7.179510387910758  11.673616748318732 
 -2.530919238350501   7.174184486342543   5.002978606422314 
 11.192216121346771   0.712838995148432  11.673616748318732 
  3.722672782108637   0.679538430145965   5.002978606422314 
  2.417078938143172   7.253359599621833   5.002978606422314 
  7.379825043670371   7.135238973205372   5.002978606422314 
  8.725372098649840   0.689799863397183   5.002978606422314 
  2.479901363256050   7.180021151569567  11.673616748318732 
 13.708475885155574   0.733859549189204   5.002978606422314 
 -1.256255697177023   9.335253754492729  11.673616748318732 
 -0.009407773197415   2.869063417281734  11.673616748318732 
  4.968645707563362   2.869389500179581  11.673616748318732 
  3.722567425952817   9.334669685190025  11.673616748318732 
  8.701083313125530   9.335182596411480  11.673616748318732 
  9.947322300064251   2.868912996441826  11.673616748318732 
 -3.781522273960347   9.314717087861494   5.002978606422314 
  1.197630904653457   9.371208276872105   5.002978606422314 
  2.553243938750032   2.899953618623214   5.002978606422314 
  6.178494066996240   9.332585677229114   5.002978606422314 
  7.511652923831220   2.783642322095219   5.002978606422314 
 12.468550337051941   2.881473596107193   5.002978606422314 
 -1.254213670251456   5.024677567873914  11.673616748318732 
 -2.501103710557147  11.491393761368535  11.673616748318732 
  2.477623285219591  11.490905825462223  11.673616748318732 
  3.724665075113401   5.024931381427728  11.673616748318732 
  7.456554660406908  11.491093503449378  11.673616748318732 
 -5.009976366699227  11.468037387508417   5.002978606422314 
  8.702455526667860   5.024828052625293  11.673616748318732 
 -0.022979065422636  11.484713021071782   5.002978606422314 
  1.298669781866115   5.072939800209087   5.002978606422314 
 -0.039551756624739   7.195902480714602   5.002978606422314 
  6.231342247566081   4.840277727813773   5.002978606422314 
  4.974029083076595  11.518619741425862   5.002978606422314 
 11.188070617532347   5.019824299103286   5.002978606422314 
 -2.499213528593927   7.180435549884401  11.673616748318732 
  3.722563215351928   0.712400963624429  11.673616748318732 
  7.457930992882013   7.180333464008016  11.673616748318732 
  8.700842308921164   0.711974289781371  11.673616748318732 
 13.680121489736608   0.711916993109417  11.673616748318732 
  0.009739267857122   1.443210482724437   1.667973232088475 
  3.743668120426948   7.907179721152749   1.657613786484004 
  4.987669207376190   1.445285921944923   1.666832097444969 
  8.719081658310483   7.908459140182014   1.666058117317803 
  9.966731478682330   1.442843939848060   1.666011108193566 
 -4.970068233153135  10.066045826990429   8.338704113347173 
  0.010211601574428  10.065716661407103   8.338431830819500 
  1.254064601430592   3.598529532886597   8.340034977487141 
  4.987658101836729  10.065024719929205   8.341446272488279 
  6.230266879987697   3.600264331555757   8.348343426360543 
 11.210384002890310   3.597841482248849   8.339343824551692 
 -2.480989154052371  10.065580234729943   1.666736606272900 
 -1.234659116057459   3.598571708521108   1.667973232088475 
  3.742822402225212   3.600874210735222   1.657742547577620 
  2.498514803515465  10.064445818378070   1.665818130475289 
  7.475306598899127  10.064728169699666   1.666363436813757 
  8.721010457061777   3.598668758122447   1.664510940356311 
 -6.214293539096540  12.222484859815228   8.337844512460533 
 -1.235270627270916  12.222955161691589   8.338431830819500 
  0.009922866246657   5.752998730944640   8.338182211583275 
  4.984895416961144   5.752525708534367   8.339056444608856 
  3.743519553912391  12.221763179818176   8.339946104650700 
  9.964577885561056   5.753183827378826   8.339593776030885 
 -2.479707147710567   5.753991484679393   1.668112700384348 
 -3.725907586654256  12.222636403635722   1.667513362252782 
  1.253245188009165  12.221541437337157   1.666394740538216 
  2.500474052408338   5.752684673317465   1.657742547577554 
  6.231628432828872  12.221299088061867   1.666613388292909 
  7.474163171900788   5.753046615958834   1.657640016469822 
 -1.235382930691299   7.908921162004854   8.338443850591846 
  0.009739267857122   1.443210482724438   8.337983980755805 
  3.743668120426940   7.907179721152763   8.348343426360543 
  4.987669207376169   1.445285921944963   8.339125115399886 
  8.719081658310445   7.908459140182027   8.339899095526464 
 -3.725125478877788   7.909741724070774   1.667253099497588 
  9.966731478682345   1.442843939848061   8.339946104650700 
  2.497818791027739   1.443836585280320   1.667775001261366 
  1.256103236790961   7.908547774793603   1.666832097444955 
  6.229980413493630   7.908034367421293   1.657640016469822 
  7.475937464452040   1.443296878891184   1.665818130475289 
  1.256103236790856   7.908547774793785   8.339125115399940 
 12.455452747862074   1.442169001517379   1.666267381524551 
 -2.480989154052371  10.065580234729943   8.339220606571622 
 -1.234659116057459   3.598571708521109   8.337983980755805 
  3.742822402225152   3.600874210735327   8.348214665267140 
  2.498514803515503  10.064445818378006   8.340139082369111 
  7.475306598899128  10.064728169699666   8.339593776030885 
  8.721010457061777   3.598668758122448   8.341446272488264 
 -4.970068233153136  10.066045826990429   1.667253099497588 
  0.010211601574428  10.065716661407103   1.667525382025114 
  1.254064601430516   3.598529532886596   1.665922235357567 
  4.987658101836728  10.065024719929205   1.664510940356311 
  6.230266879987630   3.600264331555872   1.657613786484004 
 11.210384002890310   3.597841482248848   1.666613388292909 
 -2.479707147710604   5.753991484679407   8.337844512460533 
 -3.725907586654255  12.222636403635722   8.338443850591846 
  1.253245188009166  12.221541437337157   8.339562472306600 
  2.500474052408339   5.752684673317466   8.348214665267140 
  6.231628432828873  12.221299088061867   8.339343824551692 
 -6.214293539096541  12.222484859815228   1.668112700384282 
  7.474163171900840   5.753046615958849   8.348317196374685 
 -1.235270627270916  12.222955161691589   1.667525382025127 
  0.009922866246641   5.752998730944639   1.667775001261352 
 -1.235382930691299   7.908921162004853   1.667513362252796 
  4.984895416961098   5.752525708534340   1.666900768235891 
  3.743519553912391  12.221763179818176   1.666011108193580 
  9.964577885561056   5.753183827378825   1.666363436813757 
 -3.725125478877787   7.909741724070775   8.338704113347173 
  2.497818791027739   1.443836585280321   8.338182211583275 
  6.229980413493631   7.908034367421294   8.348317196374685 
  7.475937464452034   1.443296878891198   8.340139082369204 
 12.455452747862074   1.442169001517379   8.339689831320264 
  4.425323796333622   5.429456882734241   5.002978606422314 
Generated by cif2cell 2.0.0.  :  Failed to get author information, No journal information. Species order: N B As 
 1.0
 14.936314146199660   0.000000000000000   0.000000000000000
 -7.468157073099825  12.935227489513863   0.000000000000000
  0.000000000000001   0.000000000000001  13.341276283792837
 N B As 
 143 143   1
Cartesian
  1.252868851761037   0.723373253918718   1.667093256935743 
  4.987259133307145   7.192188517703258   1.639311996519375 
  6.232092540826950   0.723666474815481   1.666161565102653 
  9.965720169496336   7.190900368173842   1.665766815643285 
 11.210883745869079   0.723616753191923   1.665282366401875 
 -3.725686253724084   9.346954029175308   8.339576868196126 
  1.253374130437606   9.347059718188442   8.339795647742454 
  2.496984045804196   2.878819323520674   8.346997917423138 
  6.231667862808110   9.347217466601332   8.343610001761444 
  7.476857155227219   2.879099584138383   8.345474056507870 
 12.455195105904290   2.879238369437950   8.340285327523032 
 -1.236200358334131   9.347009222567928   1.666110612632427 
  0.007959332014155   2.879090320150616   1.666135556951295 
  4.987328391118523   2.879491921499285   1.656333852016384 
  3.742416266469411   9.347340941329778   1.660483156336799 
  8.720976788636062   9.346859146208496   1.665766815643285 
  9.966286097883916   2.879225619265588   1.665262917873404 
 -4.970407056791343  11.502911074862803   8.339219683499774 
  0.008703101023812  11.503004728397089   8.339354157603994 
  1.252236998943238   5.034784451255186   8.346997917423112 
  6.232861840758575   5.034741342352381   8.366645216325120 
  4.987239887419617  11.503186629023071   8.340694294971078 
 11.210523072111185   5.035092614997475   8.339620581748168 
 -1.236491650840899   5.035072122780446   1.667093256935716 
 -2.480895507148872  11.502884460249581   1.666110612632427 
  2.497875380117245  11.503051435629382   1.665011420174898 
  3.740099024572841   5.033842176302433   1.627185419393064 
  7.476393960017422  11.502793959166077   1.666336631096314 
  8.721376021145174   5.034916440342767   1.662347211083504 
  0.008426425304454   7.191060160691296   8.340455293369596 
  1.252868851761022   0.723373253918693   8.338863955908751 
  4.987259133307123   7.192188517703298   8.366645216324946 
  6.232092540826958   0.723666474815468   8.339795647742454 
  9.965720169496327   7.190900368173830   8.340190397201516 
 -2.480933084224645   7.191015670256922   1.666737529344626 
 11.210883745869079   0.723616753191924   8.340674846442873 
  3.742468300919595   0.723509914536039   1.665501919475471 
  2.497991658536473   7.191149619478924   1.656333852016357 
  7.476386725528656   7.190988886219811   1.659734612855095 
  8.721486763319641   0.723440313358740   1.665011420174964 
  2.497991658536348   7.191149619479170   8.349623360828204 
 13.699862506502543   0.723411193077075   1.665671885322195 
 -1.236200358334130   9.347009222567928   8.339846600212294 
  0.007959332014170   2.879090320150540   8.339821655893692 
  4.987328391118553   2.879491921499234   8.349623360828204 
  3.742416266469308   9.347340941329803   8.345474056507870 
  8.720976788636055   9.346859146208534   8.340190397201516 
  9.966286097883916   2.879225619265589   8.340694294971078 
 -3.725686253724114   9.346954029175308   1.666380344648650 
  1.253374130437606   9.347059718188442   1.666161565102613 
  2.496984045804039   2.878819323520661   1.658959295421782 
  6.231667862808324   9.347217466601320   1.662347211083478 
  7.476857155227307   2.879099584138382   1.660483156336799 
 12.455195105904290   2.879238369437949   1.665671885322195 
 -1.236491650840869   5.035072122780447   8.338863955908737 
 -2.480895507148871  11.502884460249581   8.339846600212294 
  2.497875380117171  11.503051435629510   8.340945792669689 
  3.740099024572693   5.033842176302434   8.378771793451458 
  7.476393960017378  11.502793959166077   8.339620581748168 
 -4.970407056791344  11.502911074862803   1.666737529344626 
  8.721376021145204   5.034916440342768   8.343610001761471 
  0.008703101023811  11.503004728397089   1.666603055240727 
  1.252236998943073   5.034784451255185   1.658959295421768 
  0.008426425304513   7.191060160691217   1.665501919475471 
  6.232861840758476   5.034741342352548   1.639311996519375 
  4.987239887419616  11.503186629023071   1.665262917873404 
 11.210523072111199   5.035092614997474   1.666336631096314 
 -2.480933084224645   7.191015670256923   8.339219683499774 
  3.742468300919603   0.723509914536052   8.340455293369610 
  7.476386725528656   7.190988886219812   8.346222599990000 
  8.721486763319641   0.723440313358741   8.340945792669689 
 13.699862506502543   0.723411193077076   8.340285327523032 
  0.017817513682295   1.452317700050648   5.002978606422314 
  3.629249462045619   8.034174101863590   5.002978606422314 
  4.983264979151206   1.351121250032115   5.002978606422314 
  8.643707679067209   7.864941952975782   5.002978606422314 
  9.966997908518406   1.424876428968457   5.002978606422314 
 -4.988675986597352  10.055024414634502  11.673616748318732 
 -0.010084685466517  10.054965028326411  11.673616748318732 
  1.234432931203720   3.587195182796971  11.673616748318732 
  4.968745834431088  10.054973917416373  11.673616748318732 
  6.213169351772444   3.587219877879104  11.673616748318732 
 11.191880993171424   3.587203601814142  11.673616748318732 
 -2.535819030880025  10.033924190583571   5.002978606422314 
 -1.222732911582364   3.601014065960205   5.002978606422314 
  3.820319399343119   3.536913294390211   5.002978606422314 
  2.435162774956657  10.111576985888902   5.002978606422314 
  7.431297687582489  10.048392554060605   5.002978606422314 
  8.726876665590211   3.555220267154984   5.002978606422314 
 -6.233461176084323  12.210838863147096  11.673616748318732 
 -1.254729958171303  12.210753878051484  11.673616748318732 
 -0.010269538400997   5.742981996699133  11.673616748318732 
  4.968650534552737   5.743146721302927  11.673616748318732 
  3.723949491542988  12.210770682718334  11.673616748318732 
  9.947329633123848   5.743131520379356  11.673616748318732 
 -2.503444557665993   5.740412216917577   5.002978606422314 
 -3.763911333581456  12.177080702126482   5.002978606422314 
  1.226850363302228  12.206302378186885   5.002978606422314 
  2.483830772562927   5.851779499711245   5.002978606422314 
  6.222208565923047  12.230499250001648   5.002978606422314 
  7.416997169107585   5.688504446835029   5.002978606422314 
 -1.254978094826242   7.898834467426584  11.673616748318732 
 -0.010072313028389   1.431433192343410  11.673616748318732 
  3.723822528056782   7.898895054214992  11.673616748318732 
  4.968784257224137   1.431357653630370  11.673616748318732 
  8.702748851112963   7.899029389550249  11.673616748318732 
 -3.785941742797887   7.880005676497428   5.002978606422314 
  9.947426665758353   1.431392017232058  11.673616748318732 
  2.501784236894983   1.432465701070781   5.002978606422314 
  1.172352124663093   7.951815937222861   5.002978606422314 
  6.145502254020347   7.890798241331616   5.002978606422314 
  7.485078238546805   1.364866829022783   5.002978606422314 
  1.234598527523939   7.899157062369819  11.673616748318732 
 12.460945297736190   1.445340126665730   5.002978606422314 
 -2.499686453813241  10.054785343680171  11.673616748318732 
 -1.254764339157961   3.587303021375718  11.673616748318732 
  3.724177978410746   3.587234080371413  11.673616748318732 
  2.479005482442404  10.054729190038197  11.673616748318732 
  7.457976919452614  10.054816898417428  11.673616748318732 
  8.702850073054853   3.587315655361666  11.673616748318732 
 -5.026228537719675  10.028245421258765   5.002978606422314 
 -0.048818106359116  10.061684513616450   5.002978606422314 
  1.288847544839925   3.618611474627355   5.002978606422314 
  4.952963709167503  10.091829251021631   5.002978606422314 
  6.283037910630297   3.437677676375457   5.002978606422314 
 11.213641643396036   3.585083557238492   5.002978606422314 
 -2.499376695171609   5.743214822451770  11.673616748318732 
 -3.744440502466953  12.210709840993072  11.673616748318732 
  1.234282430046884  12.210593283922591  11.673616748318732 
  2.479339141095069   5.743358193837043  11.673616748318732 
  6.213164253270634  12.210593951816053  11.673616748318732 
 -6.237922234921236  12.208717293655534   5.002978606422314 
  7.458347196208284   5.743330320734247  11.673616748318732 
 -1.268277423656572  12.173850008938684   5.002978606422314 
  0.002058114591282   5.762118349907982   5.002978606422314 
 -1.293837198948973   7.898786802481187   5.002978606422314 
  3.728092447966107  12.230977670264151   5.002978606422314 
  9.928426371773030   5.723238800005355   5.002978606422314 
 -3.743974178685571   7.899137643058418  11.673616748318732 
  2.479047842384481   1.431357817014556  11.673616748318732 
  6.213657867152139   7.899195478298322  11.673616748318732 
  7.457767956933763   1.431259625401758  11.673616748318732 
 12.436540870805793   1.431250224207822  11.673616748318732 
  1.256347882050596   0.722050211126268   5.002978606422314 
  4.818088906408729   7.288104318664950   5.002978606422314 
  6.225134193219275   0.663317145856020   5.002978606422314 
  9.900641458011986   7.158892966299169   5.002978606422314 
 11.214463172467328   0.725683336101518   5.002978606422314 
 -3.744053725016358   9.336349564680503  11.673616748318732 
  1.234900352344120   9.335956817866139  11.673616748318732 
  2.478486536455264   2.868460056242512  11.673616748318732 
  6.213470815522796   9.335876031590722  11.673616748318732 
  7.455959105254237   2.868245612084951  11.673616748318732 
 12.435370328353418   2.867889247405508  11.673616748318732 
 -1.288352222708901   9.330312942437740   5.002978606422314 
  0.043735875313064   2.899745917055080   5.002978606422314 
  5.000747454094413   2.778314460078117   5.002978606422314 
  3.677145736866110   9.425203591906849   5.002978606422314 
  8.660718209761400   9.306503029755113   5.002978606422314 
  9.973046163112482   2.860068170898904   5.002978606422314 
 -4.988709931993514  11.492369805832475  11.673616748318732 
 -0.010046387022007  11.492179706427404  11.673616748318732 
  1.234016855641021   5.023944771891534  11.673616748318732 
  6.211339841988708   5.024134607003636  11.673616748318732 
  4.968826995164825  11.491919809770799  11.673616748318732 
 11.190470530419715   5.023761505399401  11.673616748318732 
 -1.235897924364639   5.038746572788057   5.002978606422314 
 -2.521430842077851  11.466067760911663   5.002978606422314 
  2.470684563520516  11.523236459708995   5.002978606422314 
  7.451944983290735  11.490983721070142   5.002978606422314 
  8.682117621939746   4.996182477040670   5.002978606422314 
 -0.011146751177886   7.179376326380403  11.673616748318732 
  1.235005893445565   0.713222812356212  11.673616748318732 
  4.967312431658698   7.178853287703563  11.673616748318732 
  6.213240258045285   0.713219163844187  11.673616748318732 
  9.945661242988006   7.179510387910758  11.673616748318732 
 -2.530919238350501   7.174184486342543   5.002978606422314 
 11.192216121346771   0.712838995148432  11.673616748318732 
  3.722672782108637   0.679538430145965   5.002978606422314 
  2.417078938143172   7.253359599621833   5.002978606422314 
  7.379825043670371   7.135238973205372   5.002978606422314 
  8.725372098649840   0.689799863397183   5.002978606422314 
  2.479901363256050   7.180021151569567  11.673616748318732 
 13.708475885155574   0.733859549189204   5.002978606422314 
 -1.256255697177023   9.335253754492729  11.673616748318732 
 -0.009407773197415   2.869063417281734  11.673616748318732 
  4.968645707563362   2.869389500179581  11.673616748318732 
  3.722567425952817   9.334669685190025  11.673616748318732 
  8.701083313125530   9.335182596411480  11.673616748318732 
  9.947322300064251   2.868912996441826  11.673616748318732 
 -3.781522273960347   9.314717087861494   5.002978606422314 
  1.197630904653457   9.371208276872105   5.002978606422314 
  2.553243938750032   2.899953618623214   5.002978606422314 
  6.178494066996240   9.332585677229114   5.002978606422314 
  7.511652923831220   2.783642322095219   5.002978606422314 