 N B P 
 1.0
 17.527899999999772   0.000000000000000   0.000000000000000
 -8.763949999999658  15.179606674993195   0.000000000000000
  0.000000000000001   0.000000000000002  15.000000000000000
 N B P 
  49  47   1
Cartesian
  8.797165235672495  13.720852765342423   1.660789185016290 
 16.340102544220368   0.735848210226941   1.661812945172085 
 15.094225542982560   2.894899477153965   1.661622147425745 
 13.842137449626057   5.054229351784097   1.660658048979045 
 12.578252884195550   7.219998841591441   1.660273676008260 
 11.308385099936819   9.389234395259786   1.662119330410290 
 10.036568618188806  11.553935006320437   1.661602080494715 
 -6.232508138544799  13.754012513335329   1.659993309921150 
  1.311683511838456   0.758847728587977   1.660660146071970 
  0.074408492717317   2.924283928062796   1.661868458159880 
 -1.194575484119989   5.070633998571271   1.661654847726345 
 -2.477893821250188   7.233680627168094   1.660949206124910 
 -3.746504680539136   9.407578190216574   1.660534242617190 
 -4.995308232870845  11.581549864277671   1.660967430664140 
 -3.739924703698967  13.767109663934320   1.660321748383425 
  3.798044084068567   0.769437631774908   1.660284999916410 
  2.596894130076898   2.985075487270448   1.660991496603990 
  1.324848623312334   5.116390953754250   1.660223489385990 
 -0.005416897255451   7.245172819706341   1.660619693354220 
 -1.285460979242039   9.418577468308586   1.660936995763260 
 -2.506421698649667  11.595032537994005   1.660776685724610 
 -1.240931415018997  13.768721601338525   1.660709869426515 
  6.292590297204459   0.757832946571763   1.660724056966515 
  5.069967267042197   2.951347238913899   1.661288170887495 
  3.917941274840564   5.255519670769077   1.660712047327275 
  2.462920044087296   7.304299564793637   1.661550074795160 
  1.145132097634813   9.435191688113536   1.663850765737080 
 -0.017499199938614  11.607552902700347   1.661642319733155 
  1.271302517455486  13.759258421700881   1.661538706183335 
  8.809236903804903   0.732768217694231   1.660907081677905 
  7.586917447621143   2.888357531864074   1.661290732730190 
  6.388259556073330   5.053485919457409   1.662550734559875 
  3.683127146599071   7.948217528759725   1.662435457629585 
  3.495513312977882   9.327257067716250   1.658586350254905 
  2.490896518440016  11.599537926405304   1.659972856994700 
  3.781499178643061  13.765464787896839   1.661926884055515 
 11.322475416912450   0.728098621524593   1.661136198332520 
 10.101078819799014   2.869157120210974   1.660159926803040 
  8.898353522039342   5.002769394592421   1.661267877037830 
  7.660805440936849   7.120736772704648   1.664294784296025 
  6.388743748794482   9.089871329285105   1.656274867265805 
  5.011359904717882  11.670213989328600   1.654258904140005 
  6.309907946207620  13.743727795369201   1.661115562462530 
 13.833179661590929   0.726033737821781   1.661721919477680 
 12.596475032299802   2.881936619605645   1.660362628625685 
 11.363372343227052   5.036683270350703   1.659652729402770 
 10.111427050639200   7.193101499637508   1.661671926158670 
  8.834172257470732   9.341738692521860   1.662769801634865 
  7.513339700714315  11.485688921421652   1.659392786015835 
  7.560213050900819  14.464847062013023   1.661514707114025 
 15.087034243086332   1.450795039016822   1.661968827286140 
 13.844243184667180   3.610886072216616   1.661049967970085 
 12.596749037340402   5.774078356606668   1.660226871618945 
 11.332032721685334   7.939379779861175   1.661541191312085 
 10.054701015646227  10.101006804968872   1.662826450731420 
  8.766715153698897  12.249057061063063   1.660918559037270 
 -7.479716608449514  14.476143592069327   1.660566818029005 
  0.062718535419716   1.477506770160394   1.661854688569245 
 -1.183479886548049   3.630248456546715   1.662299321008305 
 -2.444464807249945   5.788721281558836   1.661373176094270 
 -3.719302778532744   7.958840915156424   1.660746080633715 
 -4.987845842508745  10.130644539999707   1.661521519123560 
 -6.246691873715248  12.299964932059584   1.661072330515965 
 -4.983977636852350  14.496061430161330   1.660267648032120 
  2.565566034780862   1.521436182117952   1.660834507517520 
  1.328365718701383   3.679006642671884   1.661182548900075 
  0.055517336181938   5.807941539895608   1.660962560176770 
 -1.244250454167327   7.971075914322800   1.661151500662200 
 -2.512051196294788  10.144584689801590   1.660874833023165 
 -3.748350154938069  12.317077818445224   1.660908454822095 
 -2.486113256812793  14.493039239816106   1.660588110113565 
  5.048410717546811   1.502641983965560   1.660966177658565 
  3.862763859091969   3.767988952110770   1.661317430311185 
  2.588976702581537   5.882150484055361   1.660674076971420 
  1.219413332665993   7.995084437962716   1.662411644488485 
 -0.052450378428973  10.156764417018081   1.662333528932850 
 -1.253006437773758  12.323220128794373   1.661389584671985 
  0.023886166161450  14.474131426229478   1.661279842389405 
  7.560385158001412   1.456829253529068   1.661283764039460 
  6.340395930886130   3.633431140024364   1.662080519482110 
  5.270475061546117   6.010828042962714   1.661768063841510 
  2.388926679454921  10.137720756291849   1.661414204103300 
  1.251814382923698  12.313453353108942   1.661532193180020 
  2.531986641537559  14.471544180130229   1.662008848197300 
 10.073484010728073   1.437244934753640   1.660905642338370 
  8.854638407753059   3.578569276247458   1.660941177211275 
  7.663253514619827   5.703783389470017   1.663476734881980 
  6.302096859914288   7.596792078693001   1.661025709042650 
  3.743504169503108  12.328177770841297   1.658867052122445 
  5.051958161314614  14.460799320495296   1.662080374499250 
 12.581804455044177   1.440923584680650   1.661224512862155 
 11.348939109360385   3.596376874277680   1.660188992223420 
 10.120344249150975   5.751612118714200   1.660855188875130 
  8.854407573574312   7.894228087581851   1.663362691698510 
  7.550175173276040   9.978808275825040   1.659756544063230 
  6.292271463530577  12.294754302069816   1.658340382863720 
  4.996851122257820   9.992545429343462   1.656060215342220 
