B P N                                   
   1.0000000000000000     
     8.7639499999999995  -15.1796066749929999    0.0000000000000000
     8.7639499999999995   15.1796066749929999    0.0000000000000000
     0.0000000000000000    0.0000000000000000   15.0000000000000000
   B    P    N 
    47     1    49
Selective dynamics
Direct
  0.9077811030380549  0.9529131664420751  0.1107676471409351   T   T   T
  0.9085316067185374  0.0955752721450194  0.1107979218190758   T   T   T
  0.9087791024865874  0.2378774463349681  0.1107366645313391   T   T   T
  0.9088604299915762  0.3803839243159608  0.1106817914412627   T   T   T
  0.9080286728465423  0.5230293478513163  0.1107694127541391   T   T   T
  0.9063561529664853  0.6654327099007921  0.1108550967154283   T   T   T
  0.9036285890051116  0.8069416634649763  0.1107279039358185   T   T   T
  0.0500966340097281  0.9536573576650872  0.1107044545352671   T   T   T
  0.0522457035298747  0.0973349838236871  0.1107903125712835   T   T   T
  0.0520567231136847  0.2391529987748083  0.1108199547338868   T   T   T
  0.0512129224220616  0.3813485688726798  0.1107582117396184   T   T   T
  0.0499624122838492  0.5243114057933911  0.1107164053755811   T   T   T
  0.0491265074381021  0.6673851804532511  0.1107681012749044   T   T   T
  0.0487620417067688  0.8102953650520126  0.1107381553677308   T   T   T
  0.1931393567991826  0.9549695022099658  0.1106845098688076   T   T   T
  0.1964848968833408  0.1002289594646984  0.1107223005011675   T   T   T
  0.1969683301592536  0.2423650837233260  0.1107455032600048   T   T   T
  0.1944747486965472  0.3826147583562613  0.1107308373451180   T   T   T
  0.1915718580490404  0.5251174213528407  0.1107434333774799   T   T   T
  0.1908344699124805  0.6683035276871649  0.1107249888682113   T   T   T
  0.1918608640607634  0.8114227253816996  0.1107272303214730   T   T   T
  0.3355477181904636  0.9547704067781847  0.1107058740075706   T   T   T
  0.3375168429466736  0.0989908379141999  0.1107310785105712   T   T   T
  0.3444915417646533  0.2482270478271437  0.1107544953540789   T   T   T
  0.3414577826188393  0.3875034847737914  0.1107116051314284   T   T   T
  0.3329193734056825  0.5266990515066364  0.1108274429658992   T   T   T
  0.3315605572733702  0.6691059020488510  0.1108222352621905   T   T   T
  0.3344272856912988  0.8118273676415865  0.1107593056447994   T   T   T
  0.4781251514089465  0.9535248004860419  0.1107519894926274   T   T   T
  0.4793207354954001  0.0959727932825193  0.1107522509359636   T   T   T
  0.4814129689045006  0.2393626671506615  0.1108053679654738   T   T   T
  0.4986808602401422  0.3959804869558918  0.1107845375894335   T   T   T
  0.4702184795137568  0.6678513464378938  0.1107609469402202   T   T   T
  0.4770103658164934  0.8111839533625108  0.1107688128786681   T   T   T
  0.6211318280869449  0.9533543582503078  0.1108005898798201   T   T   T
  0.6220527137135441  0.0946826202764095  0.1107270428225582   T   T   T
  0.6230481884714267  0.2357484849816812  0.1107294118140850   T   T   T
  0.6250796952247382  0.3757530423279284  0.1108984489921320   T   T   T
  0.6097768022139159  0.5004604033125518  0.1107350472695098   T   T   T
  0.6196510091976675  0.8121539664891761  0.1105911368081627   T   T   T
  0.7645470673440408  0.9526465098939576  0.1108053582999495   T   T   T
  0.7652783319474308  0.0949249618604691  0.1107483008574765   T   T   T
  0.7659393461756434  0.2369216114276747  0.1106792661482281   T   T   T
  0.7668368175403214  0.3789038966463724  0.1107236792583423   T   T   T
  0.7651882019514036  0.5200548509986604  0.1108908461132337   T   T   T
  0.7594431059918910  0.6573825323329411  0.1106504362708818   T   T   T
  0.7639620929746758  0.8099520999001991  0.1105560255242480   T   T   T
  0.6142236044123244  0.6582875066061576  0.1104040143561476   T   T   T
  0.9538451995535179  0.9039004144913769  0.1107192790010861   T   T   T
  0.9564719508028799  0.0484761052102344  0.1107875296781386   T   T   T
  0.9565091388811248  0.1907097818234654  0.1107748098283834   T   T   T
  0.9562011493918174  0.3329618125158941  0.1107105365986032   T   T   T
  0.9554322627888807  0.4756380712739835  0.1106849117338838   T   T   T
  0.9544361906175056  0.6185426669010842  0.1108079553606860   T   T   T
  0.9531795653950181  0.7611485102149803  0.1107734720329810   T   T   T
  0.0974660220828840  0.9060849077198830  0.1106662206614104   T   T   T
  0.0998296688258534  0.0499912642557529  0.1107106764047981   T   T   T
  0.1005679291741304  0.1926455665600510  0.1107912305439925   T   T   T
  0.0988684565702184  0.3340425155366253  0.1107769898484228   T   T   T
  0.0969011482309333  0.4765393980256955  0.1107299470749943   T   T   T
  0.0961303476174954  0.6197511168530188  0.1107022828411460   T   T   T
  0.0964920326395477  0.7629677179552394  0.1107311620442765   T   T   T
  0.2401040493576752  0.9069477199705170  0.1106881165588951   T   T   T
  0.2420300839175533  0.0506889044129497  0.1106856666610939   T   T   T
  0.2464829367011364  0.1966503843731367  0.1107327664402662   T   T   T
  0.2441135742297523  0.3370568858139757  0.1106815659590660   T   T   T
  0.2383391952559791  0.4772964790742567  0.1107079795569482   T   T   T
  0.2368998714888338  0.6204757257528088  0.1107291330508842   T   T   T
  0.2389318434281036  0.7638559276437378  0.1107184457149742   T   T   T
  0.3827294603409778  0.9070539109567999  0.1107139912951008   T   T   T
  0.3839664393856940  0.0499244125883850  0.1107149371311009   T   T   T
  0.3864654858768715  0.1944284395573919  0.1107525447258326   T   T   T
  0.3966371882250841  0.3462223879243851  0.1107141364884852   T   T   T
  0.3811100795909675  0.4811916224961676  0.1107700049863438   T   T   T
  0.3761170795487637  0.6215702349954179  0.1109233843824721   T   T   T
  0.3813420086301327  0.7646807424742150  0.1107761546488775   T   T   T
  0.5257454727077376  0.9064304969355896  0.1107692470788887   T   T   T
  0.5267203048593603  0.0482732018940506  0.1107271387785274   T   T   T
  0.5279874626258025  0.1902788124689908  0.1107527155153455   T   T   T
  0.5309187644850820  0.3329128367853234  0.1108367156373250   T   T   T
  0.4719351819902066  0.5236115598339958  0.1108290305086393   T   T   T
  0.5066555429814544  0.6144597332078389  0.1105724233503274   T   T   T
  0.5241867458580477  0.7641527329897367  0.1106648571329800   T   T   T
  0.6691613929481285  0.9068393590575704  0.1107951256037010   T   T   T
  0.6699515259698201  0.0479655788923739  0.1107424132221677   T   T   T
  0.6707927050873321  0.1890139304424539  0.1106773284535360   T   T   T
  0.6724538466502523  0.3295717406719083  0.1107511918025218   T   T   T
  0.6716129561149005  0.4690988986187177  0.1109529856197353   T   T   T
  0.6639006046164267  0.5988212688184937  0.1104183244843869   T   T   T
  0.6703119650932061  0.7688087207525637  0.1102839269426667   T   T   T
  0.8126959241285543  0.9054073725118680  0.1107410374975016   T   T   T
  0.8131239586923282  0.0478295487733448  0.1107814612985119   T   T   T
  0.8135807435811875  0.1898558165115915  0.1106908419083794   T   T   T
  0.8142049409904784  0.3318059142235950  0.1106435152935180   T   T   T
  0.8138091920745358  0.4738661319523773  0.1107781284105779   T   T   T
  0.8117131890470258  0.6154137516561211  0.1108513201089915   T   T   T
  0.8069766082260489  0.7566526042037118  0.1106261857343895   T   T   T

  0.00000000E+00  0.00000000E+00  0.00000000E+00
  0.00000000E+00  0.00000000E+00  0.00000000E+00
  0.00000000E+00  0.00000000E+00  0.00000000E+00
  0.00000000E+00  0.00000000E+00  0.00000000E+00
  0.00000000E+00  0.00000000E+00  0.00000000E+00
  0.00000000E+00  0.00000000E+00  0.00000000E+00
  0.00000000E+00  0.00000000E+00  0.00000000E+00
  0.00000000E+00  0.00000000E+00  0.00000000E+00
  0.00000000E+00  0.00000000E+00  0.00000000E+00
  0.00000000E+00  0.00000000E+00  0.00000000E+00
  0.00000000E+00  0.00000000E+00  0.00000000E+00
  0.00000000E+00  0.00000000E+00  0.00000000E+00
  0.00000000E+00  0.00000000E+00  0.00000000E+00
  0.00000000E+00  0.00000000E+00  0.00000000E+00
  0.00000000E+00  0.00000000E+00  0.00000000E+00
  0.00000000E+00  0.00000000E+00  0.00000000E+00
  0.00000000E+00  0.00000000E+00  0.00000000E+00
  0.00000000E+00  0.00000000E+00  0.00000000E+00
  0.00000000E+00  0.00000000E+00  0.00000000E+00
  0.00000000E+00  0.00000000E+00  0.00000000E+00
  0.00000000E+00  0.00000000E+00  0.00000000E+00
  0.00000000E+00  0.00000000E+00  0.00000000E+00
  0.00000000E+00  0.00000000E+00  0.00000000E+00
  0.00000000E+00  0.00000000E+00  0.00000000E+00
  0.00000000E+00  0.00000000E+00  0.00000000E+00
  0.00000000E+00  0.00000000E+00  0.00000000E+00
  0.00000000E+00  0.00000000E+00  0.00000000E+00
  0.00000000E+00  0.00000000E+00  0.00000000E+00
  0.00000000E+00  0.00000000E+00  0.00000000E+00
  0.00000000E+00  0.00000000E+00  0.00000000E+00
  0.00000000E+00  0.00000000E+00  0.00000000E+00
  0.00000000E+00  0.00000000E+00  0.00000000E+00
  0.00000000E+00  0.00000000E+00  0.00000000E+00
  0.00000000E+00  0.00000000E+00  0.00000000E+00
  0.00000000E+00  0.00000000E+00  0.00000000E+00
  0.00000000E+00  0.00000000E+00  0.00000000E+00
  0.00000000E+00  0.00000000E+00  0.00000000E+00
  0.00000000E+00  0.00000000E+00  0.00000000E+00
  0.00000000E+00  0.00000000E+00  0.00000000E+00
  0.00000000E+00  0.00000000E+00  0.00000000E+00
  0.00000000E+00  0.00000000E+00  0.00000000E+00
  0.00000000E+00  0.00000000E+00  0.00000000E+00
  0.00000000E+00  0.00000000E+00  0.00000000E+00
  0.00000000E+00  0.00000000E+00  0.00000000E+00
  0.00000000E+00  0.00000000E+00  0.00000000E+00
  0.00000000E+00  0.00000000E+00  0.00000000E+00
  0.00000000E+00  0.00000000E+00  0.00000000E+00
  0.00000000E+00  0.00000000E+00  0.00000000E+00
  0.00000000E+00  0.00000000E+00  0.00000000E+00
  0.00000000E+00  0.00000000E+00  0.00000000E+00
  0.00000000E+00  0.00000000E+00  0.00000000E+00
  0.00000000E+00  0.00000000E+00  0.00000000E+00
  0.00000000E+00  0.00000000E+00  0.00000000E+00
  0.00000000E+00  0.00000000E+00  0.00000000E+00
  0.00000000E+00  0.00000000E+00  0.00000000E+00
  0.00000000E+00  0.00000000E+00  0.00000000E+00
  0.00000000E+00  0.00000000E+00  0.00000000E+00
  0.00000000E+00  0.00000000E+00  0.00000000E+00
  0.00000000E+00  0.00000000E+00  0.00000000E+00
  0.00000000E+00  0.00000000E+00  0.00000000E+00
  0.00000000E+00  0.00000000E+00  0.00000000E+00
  0.00000000E+00  0.00000000E+00  0.00000000E+00
  0.00000000E+00  0.00000000E+00  0.00000000E+00
  0.00000000E+00  0.00000000E+00  0.00000000E+00
  0.00000000E+00  0.00000000E+00  0.00000000E+00
  0.00000000E+00  0.00000000E+00  0.00000000E+00
  0.00000000E+00  0.00000000E+00  0.00000000E+00
  0.00000000E+00  0.00000000E+00  0.00000000E+00
  0.00000000E+00  0.00000000E+00  0.00000000E+00
  0.00000000E+00  0.00000000E+00  0.00000000E+00
  0.00000000E+00  0.00000000E+00  0.00000000E+00
  0.00000000E+00  0.00000000E+00  0.00000000E+00
  0.00000000E+00  0.00000000E+00  0.00000000E+00
  0.00000000E+00  0.00000000E+00  0.00000000E+00
  0.00000000E+00  0.00000000E+00  0.00000000E+00
  0.00000000E+00  0.00000000E+00  0.00000000E+00
  0.00000000E+00  0.00000000E+00  0.00000000E+00
  0.00000000E+00  0.00000000E+00  0.00000000E+00
  0.00000000E+00  0.00000000E+00  0.00000000E+00
  0.00000000E+00  0.00000000E+00  0.00000000E+00
  0.00000000E+00  0.00000000E+00  0.00000000E+00
  0.00000000E+00  0.00000000E+00  0.00000000E+00
  0.00000000E+00  0.00000000E+00  0.00000000E+00
  0.00000000E+00  0.00000000E+00  0.00000000E+00
  0.00000000E+00  0.00000000E+00  0.00000000E+00
  0.00000000E+00  0.00000000E+00  0.00000000E+00
  0.00000000E+00  0.00000000E+00  0.00000000E+00
  0.00000000E+00  0.00000000E+00  0.00000000E+00
  0.00000000E+00  0.00000000E+00  0.00000000E+00
  0.00000000E+00  0.00000000E+00  0.00000000E+00
  0.00000000E+00  0.00000000E+00  0.00000000E+00
  0.00000000E+00  0.00000000E+00  0.00000000E+00
  0.00000000E+00  0.00000000E+00  0.00000000E+00
  0.00000000E+00  0.00000000E+00  0.00000000E+00
  0.00000000E+00  0.00000000E+00  0.00000000E+00
  0.00000000E+00  0.00000000E+00  0.00000000E+00
  0.00000000E+00  0.00000000E+00  0.00000000E+00
