 Pb N B 
 1.0
 14.936314146199660   0.000000000000000   0.000000000000000
 -7.468157073099825  12.935227489513863   0.000000000000000
  0.000000000000001   0.000000000000001  13.341276283792837
 Pb N B 
   1 143 143
Cartesian
  4.338715431030783   5.379453519712557   5.002978606422314 
  1.245278940277244   0.718737186040197   1.668356636571730 
  4.979375335724871   7.187815747867424   1.625604938483299 
  6.224463254203255   0.718862775615846   1.666559363874360 
  9.958032657416869   7.186530457045583   1.668025510878428 
 11.203123562707461   0.719136409354369   1.667849004155565 
 -3.733480230468787   9.342454174603672   8.337582359328298 
  1.245399361586609   9.342854411759605   8.339397848970295 
  2.489551819338149   2.874292427556856   8.350323628062508 
  6.224025146633973   9.342624433848242   8.346060031486060 
  7.469081425434607   2.874494262793304   8.348357392194908 
 12.447613378666635   2.874928119713721   8.338030034177208 
 -1.243990873258691   9.342621353361533   1.668140266217912 
  0.000468602016412   2.874765545170027   1.666645239324843 
  4.979715887940719   2.874697408832605   1.650276624073733 
  3.734540076295676   9.342909622468795   1.657599820649653 
  8.713348578547155   9.342386521020012   1.668025510878428 
  9.958350029359401   2.874845533325673   1.666522883646130 
 -4.978085226583526  11.498251271637898   8.337197120135304 
  0.000862239509567  11.498477804891870   8.337556209532663 
  1.244600478805311   5.030611402310728   8.350323628062508 
  6.225133012204179   5.030100158286297   8.380352274361314 
  4.979478587462695  11.498503835044547   8.339434329198497 
 11.202855578802986   5.030767103679397   8.337154099055242 
 -1.244301559139279   5.030817100562344   1.668356636571730 
 -2.488590770812420  11.498331611019625   1.668140266217912 
  2.490164408427644  11.498703024242076   1.667712559447128 
  3.733202947697085   5.029860724462138   1.628266827664643 
  7.468814210677608  11.498316470836597   1.668803113789411 
  8.713576980013483   5.030594170358648   1.659897181358621 
  0.000658678459392   7.186838940024320   8.338980918883081 
  1.245278940277244   0.718737186040198   8.337600576272859 
  4.979375335724872   7.187815747867424   8.380352274361314 
  6.224463254203256   0.718862775615847   8.339397848970295 
  9.958032657416869   7.186530457045584   8.337931701966214 
 -2.488807677089761   7.186696081774114   1.668760092709337 
 11.203123562707461   0.719136409354370   8.338108208689130 
  3.734928743164676   0.718893458771252   1.666976293961560 
  2.490033237179372   7.186954254674051   1.650276624073733 
  7.468589554079401   7.186487187184503   1.654480347667339 
  8.713865442747110   0.718936621681712   1.667712559447128 
  2.490033237179372   7.186954254674052   8.355680588770948 
 13.692338857126138   0.719000349546363   1.667927178667406 
 -1.243990873258691   9.342621353361533   8.337816946626715 
  0.000468602016412   2.874765545170028   8.339311973519798 
  4.979715887940720   2.874697408832606   8.355680588770948 
  3.734540076295677   9.342909622468795   8.348357392194908 
  8.713348578547155   9.342386521020012   8.337931701966214 
  9.958350029359401   2.874845533325674   8.339434329198497 
 -3.733480230468787   9.342454174603672   1.668374853516331 
  1.245399361586609   9.342854411759605   1.666559363874360 
  2.489551819338148   2.874292427556855   1.655633584782106 
  6.224025146633972   9.342624433848242   1.659897181358621 
  7.469081425434606   2.874494262793303   1.657599820649653 
 12.447613378666635   2.874928119713720   1.667927178667406 
 -1.244301559139278   5.030817100562345   8.337600576272859 
 -2.488590770812419  11.498331611019625   8.337816946626715 
  2.490164408427644  11.498703024242076   8.338244653397513 
  3.733202947697085   5.029860724462139   8.377690385179985 
  7.468814210677609  11.498316470836597   8.337154099055242 
 -4.978085226583527  11.498251271637898   1.668760092709337 
  8.713576980013483   5.030594170358649   8.346060031486060 
  0.000862239509567  11.498477804891870   1.668401003311899 
  1.244600478805311   5.030611402310727   1.655633584782106 
  0.000658678459421   7.186838940024320   1.666976293961560 
  6.225133012204179   5.030100158286296   1.625604938483299 
  4.979478587462694  11.498503835044547   1.666522883646130 
 11.202855578802986   5.030767103679396   1.668803113789411 
 -2.488807677089760   7.186696081774115   8.337197120135304 
  3.734928743164677   0.718893458771253   8.338980918883081 
  7.468589554079402   7.186487187184504   8.351476865177249 
  8.713865442747110   0.718936621681712   8.338244653397513 
 13.692338857126138   0.719000349546364   8.338030034177208 
  0.012845180108192   1.447201188646001   5.002978606422314 
  3.632494266378994   8.046086531273254   5.002978606422314 
  5.001339567575062   1.315433487437252   5.002978606422314 
  8.672032347026802   7.881295207646926   5.002978606422314 
  9.974880052281531   1.426902246603149   5.002978606422314 
 -4.978585643787070  10.060853973926537  11.673616748318732 
  0.000128721421452  10.060872159806991  11.673616748318732 
  1.244835497615074   3.593201107314631  11.673616748318732 
  4.978991628738648  10.060886047941141  11.673616748318732 
  6.223678442723916   3.593105972408121  11.673616748318732 
 11.202455831908438   3.593253638902063  11.673616748318732 
 -2.528906473405723  10.037915157502828   5.002978606422314 
 -1.229650107224727   3.599266154471522   5.002978606422314 
  3.796401797966062   3.385903104414316   5.002978606422314 
  2.439529603979902  10.122648140593908   5.002978606422314 
  7.453563333267768  10.069764526890161   5.002978606422314 
  8.742267254072736   3.557418734735628   5.002978606422314 
 -6.223299550375173  12.216680188423675  11.673616748318732 
 -1.244507528802038  12.216645382136102  11.673616748318732 
  0.000067163987306   5.749133054126803  11.673616748318732 
  4.978967301356726   5.749103109394368  11.673616748318732 
  3.734250565005829  12.216719161349490  11.673616748318732 
  9.957820586223258   5.749133756533858  11.673616748318732 
 -2.507295617451455   5.746148689830155   5.002978606422314 
 -3.757009670956951  12.168922284166387   5.002978606422314 
  1.234838735286101  12.210914466902040   5.002978606422314 
  2.341093311125118   5.906571344309032   5.002978606422314 
  6.225960666593425  12.234994924436448   5.002978606422314 
  7.489873068570288   5.711813553790043   5.002978606422314 
 -1.244595155659102   7.904974036926863  11.673616748318732 
  0.000182128785234   1.437323045644900  11.673616748318732 
  3.734174580923635   7.905053146685165  11.673616748318732 
  4.978967809120360   1.437208871771301  11.673616748318732 
  8.713175702515858   7.905049335013769  11.673616748318732 
 -3.774391581892818   7.888728512989529   5.002978606422314 
  9.957728736098352   1.437338769221330  11.673616748318732 
  2.485391243314494   1.391720972988130   5.002978606422314 
  1.150482909863612   7.985312871258404   5.002978606422314 
  6.202126482514255   7.942256068112475   5.002978606422314 
  7.496849554282220   1.363113036538524   5.002978606422314 
  1.244757607025167   7.905050667942265  11.673616748318732 
 12.462077633787835   1.445993881190020   5.002978606422314 
 -2.489246940116817  10.060812599723123  11.673616748318732 
 -1.244536355667376   3.593238701836967  11.673616748318732 
  3.734294724736776   3.593088446134641  11.673616748318732 
  2.489505366216983  10.060890074658534  11.673616748318732 
  7.468420484991211  10.060901212234903  11.673616748318732 
  8.713093025433452   3.593232708251786  11.673616748318732 
 -5.012899259272035  10.033886735774471   5.002978606422314 
 -0.048700919792305  10.074077109417486   5.002978606422314 
  1.273754529090193   3.609897517921477   5.002978606422314 
  4.962562932182804  10.104058657836704   5.002978606422314 
  6.294976779286662   3.434531544653482   5.002978606422314 
 11.219411061998967   3.586085134519090   5.002978606422314 
 -2.489237146235725   5.749094385821314  11.673616748318732 
 -3.733932009727664  12.216631945327315  11.673616748318732 
  1.244849869983382  12.216694398214582  11.673616748318732 
  2.489467543732004   5.749192370277660  11.673616748318732 
  6.223691158450977  12.216727012259515  11.673616748318732 
 -6.234879833543255  12.202513941592999   5.002978606422314 
  7.468497670623730   5.749186643171256  11.673616748318732 
 -1.257486527590481  12.167755197581968   5.002978606422314 
 -0.041424351788731   5.768293965064334   5.002978606422314 
 -1.297451764845010   7.908843026622754   5.002978606422314 
  3.733787929382888  12.236790898181578   5.002978606422314 
  9.958067866014824   5.731835428385679   5.002978606422314 
 -3.733880460840756   7.904961356619192  11.673616748318732 
  2.489543165570953   1.437234135160480  11.673616748318732 
  6.223804828363035   7.905057885784109  11.673616748318732 
  7.468353381412095   1.437272349177080  11.673616748318732 
 12.447141089694563   1.437370263437024  11.673616748318732 
  1.241486939035499   0.702247772654340   5.002978606422314 
  4.891107799287798   7.446662466991557   5.002978606422314 
  6.244921508419813   0.644988129591929   5.002978606422314 
  9.926184148783685   7.167913935046216   5.002978606422314 
 11.220213876332098   0.729003506526124   5.002978606422314 
 -3.733873190003281   9.342227299310583  11.673616748318732 
  1.244766650442120   9.342135341072138  11.673616748318732 
  2.489492954340998   2.874585784455739  11.673616748318732 
  6.223688309068644   9.342273925008397  11.673616748318732 
  7.468251198589086   2.874532841828636  11.673616748318732 
 12.447301047517266   2.874660699031803  11.673616748318732 
 -1.285044395744892   9.338708620360205   5.002978606422314 
  0.028252146410111   2.890806382004781   5.002978606422314 
  5.015474030566429   2.718727524759251   5.002978606422314 
  3.680948458307637   9.452298461689383   5.002978606422314 
  8.681301943249013   9.324113164470683   5.002978606422314 
  9.987824642167185   2.856929355981063   5.002978606422314 
 -4.978611666615469  11.498199921744618  11.673616748318732 
  0.000121792266054  11.498050307476655  11.673616748318732 
  1.244825100833536   5.030413745278373  11.673616748318732 
  6.223475598400431   5.030431683181474  11.673616748318732 
  4.979001328100312  11.498184278620194  11.673616748318732 
 11.202596146761936   5.030455958053842  11.673616748318732 
 -1.260477810645799   5.035777837848727   5.002978606422314 
 -2.512506058232844  11.464734584132312   5.002978606422314 
  2.478204946744888  11.534684926464458   5.002978606422314 
  7.459013869668725  11.504730588165160   5.002978606422314 
  8.742885007284297   4.995989731755435   5.002978606422314 
  0.000160836321590   7.186232515130726  11.673616748318732 
  1.244897673482420   0.718844307381833  11.673616748318732 
  4.978833737804178   7.186214622961259  11.673616748318732 
  6.223524165148599   0.718674367035105  11.673616748318732 
  9.957875654142816   7.186364460415552  11.673616748318732 
 -2.527444996514812   7.179566733344904   5.002978606422314 
 11.202509659004155   0.718781971885933  11.673616748318732 
  3.724089836134558   0.660907376434755   5.002978606422314 
  2.372838426659374   7.295906656616766   5.002978606422314 
  7.430454568606977   7.164469943056266   5.002978606422314 
  8.739046953306786   0.690588472937695   5.002978606422314 
  2.489402577004278   7.186231974343711  11.673616748318732 
 13.706191178580832   0.735612247452832   5.002978606422314 
 -1.244506668148974   9.342161283453203  11.673616748318732 
  0.000291777695481   2.874663455600740  11.673616748318732 
  4.978775044738461   2.874512381264963  11.673616748318732 
  3.734158373297568   9.342171335412006  11.673616748318732 
  8.713126319611556   9.342333550511261  11.673616748318732 
  9.957834655696724   2.874591992805925  11.673616748318732 
 -3.770222854908228   9.321240810492768   5.002978606422314 
  1.191651168542615   9.397509102640145   5.002978606422314 
  2.508745944897984   2.835326141285785   5.002978606422314 
  6.208710837355312   9.385308149301151   5.002978606422314 
  7.537019130096060   2.773388140575534   5.002978606422314 
 12.468925864986057   2.878618633041640   5.002978606422314 
 -1.244399422733548   5.030433353161590  11.673616748318732 
 -2.489247100485676  11.498114954495637  11.673616748318732 
  2.489553866032974  11.498101523260784  11.673616748318732 
  3.734119351781898   5.030389810607184  11.673616748318732 
  7.468415034641128  11.498247368911182  11.673616748318732 
 -5.003578083148151  11.468355045696223   5.002978606422314 
  8.713105011671324   5.030477714889944  11.673616748318732 
 -0.014112136268952  11.489832345005334   5.002978606422314 
  1.220451747783300   5.066717145784587   5.002978606422314 
 -0.054978195425010   7.206445212355279   5.002978606422314 
  6.405167078433402   4.824234869840243   5.002978606422314 
  4.978700029147430  11.532987687175128   5.002978606422314 
 11.203510196847942   5.019072700735660   5.002978606422314 
 -2.489115367417839   7.186265846279602  11.673616748318732 
  3.734154642732414   0.718765527279627  11.673616748318732 
  7.468432041795785   7.186396247425035  11.673616748318732 
  8.713039256419604   0.718708626948437  11.673616748318732 
 13.691951098447445   0.718863573177527  11.673616748318732 
  0.000931394474772   1.437954007476746   1.668423260719590 
  3.733980853598156   7.905398812250425   1.642107822540267 
  4.979333454283273   1.437456648569698   1.663072102083203 
  8.713508661338846   7.905241568880038   1.663347725824282 
  9.958534237782029   1.437492008365397   1.667288909978566 
 -4.977914513478799  10.061411554056370   8.337672819371665 
  0.000687668462033  10.061206233469520   8.337985716848978 
  1.245338934113769   3.593491766512603   8.344667364306039 
  4.979110803640547  10.061519630957863   8.345837779185395 
  6.223880934221943   3.592765366840156   8.363849390304386 
 11.203352933627535   3.593361216622802   8.338278179221911 
 -2.488527051355257  10.061228227693473   1.667879620472284 
 -1.243615293847402   3.593572104042353   1.668423260719590 
  3.733554250445779   3.591718886687552   1.645299452352321 
  2.489680403820302  10.061513038912105   1.664105151715369 
  7.468847311461924  10.061595882354373   1.665354953931000 
  8.713701311872239   3.593019125236052   1.660119433659234 
 -6.222624109918051  12.217428729604272   8.336908342671645 
 -1.243938739003172  12.216962407641192   8.337985716848978 
  0.000726682687157   5.749251585044261   8.339863265985766 
  4.979498751318137   5.749409942172659   8.374144992617401 
  3.734786024839188  12.217340126698478   8.338668302866022 
  9.958635601429471   5.749156064040522   8.340602258913588 
 -2.488251170329024   5.749305063825690   1.669048870172944 
 -3.733278275859168  12.217338241255735   1.668494093866200 
  1.245426572116342  12.217027357346272   1.668060036168526 
  2.487911233313372   5.749235880454286   1.645299452352321 
  6.224232874349560  12.217450136277675   1.667679033622691 
  7.468692896519276   5.748817515154661   1.643575594617302 
 -1.243656618508243   7.905187039100070   8.337463118978439 
  0.000931394474772   1.437954007476747   8.337533952124918 
  3.733980853598157   7.905398812250426   8.363849390304386 
  4.979333454283274   1.437456648569699   8.342885110761397 
  8.713508661338846   7.905241568880039   8.342609487020384 
 -3.733062017129457   7.905263782450343   1.668284393472908 
  9.958534237782029   1.437492008365398   8.338668302866022 
  2.489975575706537   1.437746029650079   1.666093946858942 
  1.245155010608429   7.905243437543050   1.663072102083203 
  6.223582767071203   7.905411520377398   1.643575594617302 
  7.468980403083042   1.437112454061308   1.664105151715369 
  1.245155010608430   7.905243437543051   8.342885110761397 
 12.447960897345263   1.437843579604838   1.667871979335606 
 -2.488527051355257  10.061228227693473   8.338077592372356 
 -1.243615293847401   3.593572104042354   8.337533952124918 
  3.733554250445779   3.591718886687553   8.360657760492321 
  2.489680403820303  10.061513038912105   8.341852061129206 
  7.468847311461925  10.061595882354373   8.340602258913588 
  8.713701311872239   3.593019125236053   8.345837779185395 
 -4.977914513478800  10.061411554056370   1.668284393472908 
  0.000687668462033  10.061206233469520   1.667971495995690 
  1.245338934113768   3.593491766512602   1.661289848538602 
  4.979110803640546  10.061519630957863   1.660119433659234 
  6.223880934221942   3.592765366840155   1.642107822540267 
 11.203352933627535   3.593361216622801   1.667679033622691 
 -2.488251170329024   5.749305063825691   8.336908342671645 
 -3.733278275859167  12.217338241255735   8.337463118978439 
  1.245426572116342  12.217027357346272   8.337897176676115 
  2.487911233313372   5.749235880454287   8.360657760492321 
  6.224232874349561  12.217450136277675   8.338278179221911 
 -6.222624109918052  12.217428729604272   1.669048870172944 
  7.468692896519276   5.748817515154662   8.362381618227312 
 -1.243938739003172  12.216962407641192   1.667971495995690 
  0.000726682687157   5.749251585044260   1.666093946858942 
 -1.243656618508243   7.905187039100070   1.668494093866200 
  4.979498751318136   5.749409942172658   1.631812220227187 
  3.734786024839187  12.217340126698478   1.667288909978566 
  9.958635601429471   5.749156064040521   1.665354953931000 
 -3.733062017129456   7.905263782450344   8.337672819371665 
  2.489975575706537   1.437746029650080   8.339863265985766 
  6.223582767071204   7.905411520377399   8.362381618227312 
  7.468980403083043   1.437112454061309   8.341852061129206 
 12.447960897345263   1.437843579604839   8.338085233509073 
Generated by cif2cell 2.0.0.  :  Failed to get author information, No journal information. Species order: Pb N B 
 1.0
 14.936314146199660   0.000000000000000   0.000000000000000
 -7.468157073099825  12.935227489513863   0.000000000000000
  0.000000000000001   0.000000000000001  13.341276283792837
 Pb N B 
   1 143 143
Cartesian
  4.338715431030783   5.379453519712557   5.002978606422314 
  1.245278940277244   0.718737186040197   1.668356636571730 
  4.979375335724871   7.187815747867424   1.625604938483299 
  6.224463254203255   0.718862775615846   1.666559363874360 
  9.958032657416869   7.186530457045583   1.668025510878428 
 11.203123562707461   0.719136409354369   1.667849004155565 
 -3.733480230468787   9.342454174603672   8.337582359328298 
  1.245399361586609   9.342854411759605   8.339397848970295 
  2.489551819338149   2.874292427556856   8.350323628062508 
  6.224025146633973   9.342624433848242   8.346060031486060 
  7.469081425434607   2.874494262793304   8.348357392194908 
 12.447613378666635   2.874928119713721   8.338030034177208 
 -1.243990873258691   9.342621353361533   1.668140266217912 
  0.000468602016412   2.874765545170027   1.666645239324843 
  4.979715887940719   2.874697408832605   1.650276624073733 
  3.734540076295676   9.342909622468795   1.657599820649653 
  8.713348578547155   9.342386521020012   1.668025510878428 
  9.958350029359401   2.874845533325673   1.666522883646130 
 -4.978085226583526  11.498251271637898   8.337197120135304 
  0.000862239509567  11.498477804891870   8.337556209532663 
  1.244600478805311   5.030611402310728   8.350323628062508 
  6.225133012204179   5.030100158286297   8.380352274361314 
  4.979478587462695  11.498503835044547   8.339434329198497 
 11.202855578802986   5.030767103679397   8.337154099055242 
 -1.244301559139279   5.030817100562344   1.668356636571730 
 -2.488590770812420  11.498331611019625   1.668140266217912 
  2.490164408427644  11.498703024242076   1.667712559447128 
  3.733202947697085   5.029860724462138   1.628266827664643 
  7.468814210677608  11.498316470836597   1.668803113789411 
  8.713576980013483   5.030594170358648   1.659897181358621 
  0.000658678459392   7.186838940024320   8.338980918883081 
  1.245278940277244   0.718737186040198   8.337600576272859 
  4.979375335724872   7.187815747867424   8.380352274361314 
  6.224463254203256   0.718862775615847   8.339397848970295 
  9.958032657416869   7.186530457045584   8.337931701966214 
 -2.488807677089761   7.186696081774114   1.668760092709337 
 11.203123562707461   0.719136409354370   8.338108208689130 
  3.734928743164676   0.718893458771252   1.666976293961560 
  2.490033237179372   7.186954254674051   1.650276624073733 
  7.468589554079401   7.186487187184503   1.654480347667339 
  8.713865442747110   0.718936621681712   1.667712559447128 
  2.490033237179372   7.186954254674052   8.355680588770948 
 13.692338857126138   0.719000349546363   1.667927178667406 
 -1.243990873258691   9.342621353361533   8.337816946626715 
  0.000468602016412   2.874765545170028   8.339311973519798 
  4.979715887940720   2.874697408832606   8.355680588770948 
  3.734540076295677   9.342909622468795   8.348357392194908 
  8.713348578547155   9.342386521020012   8.337931701966214 
  9.958350029359401   2.874845533325674   8.339434329198497 
 -3.733480230468787   9.342454174603672   1.668374853516331 
  1.245399361586609   9.342854411759605   1.666559363874360 
  2.489551819338148   2.874292427556855   1.655633584782106 
  6.224025146633972   9.342624433848242   1.659897181358621 
  7.469081425434606   2.874494262793303   1.657599820649653 
 12.447613378666635   2.874928119713720   1.667927178667406 
 -1.244301559139278   5.030817100562345   8.337600576272859 
 -2.488590770812419  11.498331611019625   8.337816946626715 
  2.490164408427644  11.498703024242076   8.338244653397513 
  3.733202947697085   5.029860724462139   8.377690385179985 
  7.468814210677609  11.498316470836597   8.337154099055242 
 -4.978085226583527  11.498251271637898   1.668760092709337 
  8.713576980013483   5.030594170358649   8.346060031486060 
  0.000862239509567  11.498477804891870   1.668401003311899 
  1.244600478805311   5.030611402310727   1.655633584782106 
  0.000658678459421   7.186838940024320   1.666976293961560 
  6.225133012204179   5.030100158286296   1.625604938483299 
  4.979478587462694  11.498503835044547   1.666522883646130 
 11.202855578802986   5.030767103679396   1.668803113789411 
 -2.488807677089760   7.186696081774115   8.337197120135304 
  3.734928743164677   0.718893458771253   8.338980918883081 
  7.468589554079402   7.186487187184504   8.351476865177249 
  8.713865442747110   0.718936621681712   8.338244653397513 
 13.692338857126138   0.719000349546364   8.338030034177208 
  0.012845180108192   1.447201188646001   5.002978606422314 
  3.632494266378994   8.046086531273254   5.002978606422314 
  5.001339567575062   1.315433487437252   5.002978606422314 
  8.672032347026802   7.881295207646926   5.002978606422314 
  9.974880052281531   1.426902246603149   5.002978606422314 
 -4.978585643787070  10.060853973926537  11.673616748318732 
  0.000128721421452  10.060872159806991  11.673616748318732 
  1.244835497615074   3.593201107314631  11.673616748318732 
  4.978991628738648  10.060886047941141  11.673616748318732 
  6.223678442723916   3.593105972408121  11.673616748318732 
 11.202455831908438   3.593253638902063  11.673616748318732 
 -2.528906473405723  10.037915157502828   5.002978606422314 
 -1.229650107224727   3.599266154471522   5.002978606422314 
  3.796401797966062   3.385903104414316   5.002978606422314 
  2.439529603979902  10.122648140593908   5.002978606422314 
  7.453563333267768  10.069764526890161   5.002978606422314 
  8.742267254072736   3.557418734735628   5.002978606422314 
 -6.223299550375173  12.216680188423675  11.673616748318732 
 -1.244507528802038  12.216645382136102  11.673616748318732 
  0.000067163987306   5.749133054126803  11.673616748318732 
  4.978967301356726   5.749103109394368  11.673616748318732 
  3.734250565005829  12.216719161349490  11.673616748318732 
  9.957820586223258   5.749133756533858  11.673616748318732 
 -2.507295617451455   5.746148689830155   5.002978606422314 
 -3.757009670956951  12.168922284166387   5.002978606422314 
  1.234838735286101  12.210914466902040   5.002978606422314 
  2.341093311125118   5.906571344309032   5.002978606422314 
  6.225960666593425  12.234994924436448   5.002978606422314 
  7.489873068570288   5.711813553790043   5.002978606422314 
 -1.244595155659102   7.904974036926863  11.673616748318732 
  0.000182128785234   1.437323045644900  11.673616748318732 
  3.734174580923635   7.905053146685165  11.673616748318732 
  4.978967809120360   1.437208871771301  11.673616748318732 
  8.713175702515858   7.905049335013769  11.673616748318732 
 -3.774391581892818   7.888728512989529   5.002978606422314 
  9.957728736098352   1.437338769221330  11.673616748318732 
  2.485391243314494   1.391720972988130   5.002978606422314 
  1.150482909863612   7.985312871258404   5.002978606422314 
  6.202126482514255   7.942256068112475   5.002978606422314 
  7.496849554282220   1.363113036538524   5.002978606422314 
  1.244757607025167   7.905050667942265  11.673616748318732 
 12.462077633787835   1.445993881190020   5.002978606422314 
 -2.489246940116817  10.060812599723123  11.673616748318732 
 -1.244536355667376   3.593238701836967  11.673616748318732 
  3.734294724736776   3.593088446134641  11.673616748318732 
  2.489505366216983  10.060890074658534  11.673616748318732 
  7.468420484991211  10.060901212234903  11.673616748318732 
  8.713093025433452   3.593232708251786  11.673616748318732 
 -5.012899259272035  10.033886735774471   5.002978606422314 
 -0.048700919792305  10.074077109417486   5.002978606422314 
  1.273754529090193   3.609897517921477   5.002978606422314 
  4.962562932182804  10.104058657836704   5.002978606422314 
  6.294976779286662   3.434531544653482   5.002978606422314 
 11.219411061998967   3.586085134519090   5.002978606422314 
 -2.489237146235725   5.749094385821314  11.673616748318732 
 -3.733932009727664  12.216631945327315  11.673616748318732 
  1.244849869983382  12.216694398214582  11.673616748318732 
  2.489467543732004   5.749192370277660  11.673616748318732 
  6.223691158450977  12.216727012259515  11.673616748318732 
 -6.234879833543255  12.202513941592999   5.002978606422314 
  7.468497670623730   5.749186643171256  11.673616748318732 
 -1.257486527590481  12.167755197581968   5.002978606422314 
 -0.041424351788731   5.768293965064334   5.002978606422314 
 -1.297451764845010   7.908843026622754   5.002978606422314 
  3.733787929382888  12.236790898181578   5.002978606422314 
  9.958067866014824   5.731835428385679   5.002978606422314 
 -3.733880460840756   7.904961356619192  11.673616748318732 
  2.489543165570953   1.437234135160480  11.673616748318732 
  6.223804828363035   7.905057885784109  11.673616748318732 
  7.468353381412095   1.437272349177080  11.673616748318732 
 12.447141089694563   1.437370263437024  11.673616748318732 
  1.241486939035499   0.702247772654340   5.002978606422314 
  4.891107799287798   7.446662466991557   5.002978606422314 
  6.244921508419813   0.644988129591929   5.002978606422314 
  9.926184148783685   7.167913935046216   5.002978606422314 
 11.220213876332098   0.729003506526124   5.002978606422314 
 -3.733873190003281   9.342227299310583  11.673616748318732 
  1.244766650442120   9.342135341072138  11.673616748318732 
  2.489492954340998   2.874585784455739  11.673616748318732 
  6.223688309068644   9.342273925008397  11.673616748318732 
  7.468251198589086   2.874532841828636  11.673616748318732 
 12.447301047517266   2.874660699031803  11.673616748318732 
 -1.285044395744892   9.338708620360205   5.002978606422314 
  0.028252146410111   2.890806382004781   5.002978606422314 
  5.015474030566429   2.718727524759251   5.002978606422314 
  3.680948458307637   9.452298461689383   5.002978606422314 
  8.681301943249013   9.324113164470683   5.002978606422314 
  9.987824642167185   2.856929355981063   5.002978606422314 
 -4.978611666615469  11.498199921744618  11.673616748318732 
  0.000121792266054  11.498050307476655  11.673616748318732 
  1.244825100833536   5.030413745278373  11.673616748318732 
  6.223475598400431   5.030431683181474  11.673616748318732 
  4.979001328100312  11.498184278620194  11.673616748318732 
 11.202596146761936   5.030455958053842  11.673616748318732 
 -1.260477810645799   5.035777837848727   5.002978606422314 
 -2.512506058232844  11.464734584132312   5.002978606422314 
  2.478204946744888  11.534684926464458   5.002978606422314 
  7.459013869668725  11.504730588165160   5.002978606422314 
  8.742885007284297   4.995989731755435   5.002978606422314 
  0.000160836321590   7.186232515130726  11.673616748318732 
  1.244897673482420   0.718844307381833  11.673616748318732 
  4.978833737804178   7.186214622961259  11.673616748318732 
  6.223524165148599   0.718674367035105  11.673616748318732 
  9.957875654142816   7.186364460415552  11.673616748318732 
 -2.527444996514812   7.179566733344904   5.002978606422314 
 11.202509659004155   0.718781971885933  11.673616748318732 
  3.724089836134558   0.660907376434755   5.002978606422314 
  2.372838426659374   7.295906656616766   5.002978606422314 
  7.430454568606977   7.164469943056266   5.002978606422314 
  8.739046953306786   0.690588472937695   5.002978606422314 
  2.489402577004278   7.186231974343711  11.673616748318732 
 13.706191178580832   0.735612247452832   5.002978606422314 
 -1.244506668148974   9.342161283453203  11.673616748318732 
  0.000291777695481   2.874663455600740  11.673616748318732 
  4.978775044738461   2.874512381264963  11.673616748318732 
  3.734158373297568   9.342171335412006  11.673616748318732 
  8.713126319611556   9.342333550511261  11.673616748318732 
  9.957834655696724   2.874591992805925  11.673616748318732 
 -3.770222854908228   9.321240810492768   5.002978606422314 
  1.191651168542615   9.397509102640145   5.002978606422314 
  2.508745944897984   2.835326141285785   5.002978606422314 
  6.208710837355312   9.385308149301151   5.002978606422314 