Ge B N                                  
   1.0000000000000000     
     8.7639499999999995  -15.1796066749929999    0.0000000000000000
     8.7639499999999995   15.1796066749929999    0.0000000000000000
     0.0000000000000000    0.0000000000000000   15.0000000000000000
   Ge   B    N 
     1    48    48
Selective dynamics
Direct
  0.4961742554692931  0.5038271464477029  0.1108129092850227   T   T   T
  0.9059985336557896  0.9532387153236301  0.1110140824021366   T   T   T
  0.9045483858757964  0.0954536353201993  0.1110346718220048   T   T   T
  0.9040892991121834  0.2382380884925440  0.1110422823917563   T   T   T
  0.9042305939859624  0.3810900802777769  0.1109963318853505   T   T   T
  0.9052700535104142  0.5239920315519871  0.1110292890546245   T   T   T
  0.9068818100520041  0.6672693150161663  0.1110999195332460   T   T   T
  0.9075963587400443  0.8110864184416535  0.1110592387536780   T   T   T
  0.0482783502642690  0.9517236709317338  0.1110123354055262   T   T   T
  0.0467633058723726  0.0940034875402077  0.1110140824021366   T   T   T
  0.0463814032601643  0.2372198379770204  0.1109870609348235   T   T   T
  0.0468650428175747  0.3804175774498909  0.1110086068956659   T   T   T
  0.0481179135674547  0.5233092171871143  0.1110091208481913   T   T   T
  0.0489980168649576  0.6661825639532081  0.1110689059370639   T   T   T
  0.0490816114614891  0.8091149438272968  0.1110627999922290   T   T   T
  0.1908870773687068  0.9509204097345149  0.1110627999922290   T   T   T
  0.1889156027543502  0.0924056624559513  0.1110592387536780   T   T   T
  0.1873440969701751  0.2346316935265648  0.1110154990003998   T   T   T
  0.1886687113012979  0.3791418941664577  0.1109955934757918   T   T   T
  0.1910860471555966  0.5225325543634013  0.1110403197725027   T   T   T
  0.1918696441314479  0.6655229965134462  0.1110284008137027   T   T   T
  0.1916188761176286  0.8083831450783753  0.1110133882850949   T   T   T
  0.3338194572437896  0.9510040043310471  0.1110689059370639   T   T   T
  0.3327327061808315  0.0931202111439936  0.1110999195332460   T   T   T
  0.3289747531384327  0.2324403832244699  0.1110253774308537   T   T   T
  0.3270585434117179  0.3750187512270740  0.1110242798743427   T   T   T
  0.3342745161176403  0.5208997385240990  0.1110910024515499   T   T   T
  0.3352012686559702  0.6648007525410281  0.1110755012562252   T   T   T
  0.3344790246835511  0.8081323770645557  0.1110284008137027   T   T   T
  0.4766928040098828  0.9518841076285485  0.1110091208481913   T   T   T
  0.4760099896450103  0.0947319676855823  0.1110292890546245   T   T   T
  0.4748428961281404  0.2370964657899722  0.1110000979174517   T   T   T
  0.4669345527404810  0.3724156044080156  0.1110639451960717   T   T   T
  0.4791022826728990  0.6657275050793584  0.1110910024515499   T   T   T
  0.4774694668335972  0.8089159740404077  0.1110403197725027   T   T   T
  0.6195844437461128  0.9531369783784297  0.1110086068956659   T   T   T
  0.6189119409182259  0.0957714272100339  0.1109963318853505   T   T   T
  0.6183937055404015  0.2388337089881082  0.1110119617231090   T   T   T
  0.6176647481034537  0.3823372730925506  0.1109914527230929   T   T   T
  0.6275864167879873  0.5330674684565178  0.1110639451960717   T   T   T
  0.6249832699689289  0.6729434777852807  0.1110242798743427   T   T   T
  0.6208601270295451  0.8113333098947055  0.1109955934757918   T   T   T
  0.7627821832189843  0.9536206179358393  0.1109870609348235   T   T   T
  0.7617639327034595  0.0959127220838119  0.1110422823917563   T   T   T
  0.7613280741173185  0.2386739470786842  0.1110393312969416   T   T   T
  0.7611683122078948  0.3816083156556016  0.1110119617231090   T   T   T
  0.7629055554060308  0.5251591250688569  0.1110000979174517   T   T   T
  0.7675616379715343  0.6710272680585663  0.1110253774308537   T   T   T
  0.7653703276694385  0.8126579242258283  0.1110154990003998   T   T   T
  0.9537933968117188  0.9055644892491045  0.1109986501761973   T   T   T
  0.9522378617573827  0.0477635401606243  0.1110040798951230   T   T   T
  0.9514882047757911  0.1903812020988858  0.1110115837406475   T   T   T
  0.9516229445942291  0.3333263213978824  0.1109925889700674   T   T   T
  0.9525756517077493  0.4761876221009065  0.1109774945312453   T   T   T
  0.9537169316626587  0.6190805469663050  0.1110770148933487   T   T   T
  0.9541932141450233  0.7623231030323582  0.1110752379779638   T   T   T
  0.0959802786350389  0.9040211232829586  0.1110146590272557   T   T   T
  0.0944369126688940  0.0462080051062866  0.1109986501761973   T   T   T
  0.0930489252992032  0.1885548438970604  0.1109840657191363   T   T   T
  0.0937128107726685  0.3322611695588621  0.1109683976574586   T   T   T
  0.0954798593944851  0.4755328767806799  0.1110012559256034   T   T   T
  0.0964096036803380  0.6184206643886486  0.1110200509657941   T   T   T
  0.0964914102998109  0.7612522243786224  0.1110247489173210   T   T   T
  0.2387491775393835  0.9035099916181876  0.1110247489173210   T   T   T
  0.2376782988856474  0.0458081877729819  0.1110752379779638   T   T   T
  0.2348094850051773  0.1866316412155849  0.1110192093346460   T   T   T
  0.2333658523704156  0.3289483091513517  0.1109851927289770   T   T   T
  0.2381048712606112  0.4744061565966258  0.1110286335137464   T   T   T
  0.2395150832100095  0.6178047053912986  0.1110333951883081   T   T   T
  0.2392576275163228  0.7607437744016832  0.1109983224225644   T   T   T
  0.3815807375293507  0.9035917982376611  0.1110200509657941   T   T   T
  0.3809208549516925  0.0462844702553474  0.1110770148933487   T   T   T
  0.3795937136138032  0.1881190723529153  0.1110240540089765   T   T   T
  0.3740090122112555  0.3262306602407327  0.1110059055900964   T   T   T
  0.3760065985920978  0.4681796446039149  0.1110209663002497   T   T   T
  0.3830925023578498  0.6169088995601480  0.1110977043792186   T   T   T
  0.3821966965266989  0.7604863187079958  0.1110333951883081   T   T   T
  0.5244685251363179  0.9045215425235131  0.1110012559256034   T   T   T
  0.5238137798160910  0.0474257502102564  0.1109774945312453   T   T   T
  0.5231502967960359  0.1903714930135794  0.1109988062747787   T   T   T
  0.5217787795432868  0.3334074766580392  0.1109874746328589   T   T   T
  0.5318217573130820  0.6239948033259008  0.1110209663002497   T   T   T
  0.5255952453203728  0.7618965306573948  0.1110286335137464   T   T   T
  0.6677402323581336  0.9062885911453297  0.1109683976574586   T   T   T
  0.6666750805191132  0.0483784573237776  0.1109925889700674   T   T   T
  0.6660980763481748  0.1912301438270332  0.1109983186529550   T   T   T
  0.6654683488163169  0.3345330531006817  0.1109835903951674   T   T   T
  0.6665939252589576  0.4782226223737090  0.1109874746328589   T   T   T
  0.6737707416762637  0.6259923897067433  0.1110059055900964   T   T   T
  0.6710530927656436  0.7666355495475901  0.1109851927289770   T   T   T
  0.8114465580209381  0.9069524766187966  0.1109840657191363   T   T   T
  0.8096201998191136  0.0485131971422140  0.1110115837406475   T   T   T
  0.8089543122047667  0.1910470897132309  0.1110435761589136   T   T   T
  0.8087712580909651  0.3339033255688233  0.1109983186529550   T   T   T
  0.8096299089044184  0.4768511051209608  0.1109988062747787   T   T   T
  0.8118823295650831  0.6204076883041947  0.1110240540089765   T   T   T
  0.8133697607024144  0.7651919169128294  0.1110192093346460   T   T   T

  0.00000000E+00  0.00000000E+00  0.00000000E+00
  0.00000000E+00  0.00000000E+00  0.00000000E+00
  0.00000000E+00  0.00000000E+00  0.00000000E+00
  0.00000000E+00  0.00000000E+00  0.00000000E+00
  0.00000000E+00  0.00000000E+00  0.00000000E+00
  0.00000000E+00  0.00000000E+00  0.00000000E+00
  0.00000000E+00  0.00000000E+00  0.00000000E+00
  0.00000000E+00  0.00000000E+00  0.00000000E+00
  0.00000000E+00  0.00000000E+00  0.00000000E+00
  0.00000000E+00  0.00000000E+00  0.00000000E+00
  0.00000000E+00  0.00000000E+00  0.00000000E+00
  0.00000000E+00  0.00000000E+00  0.00000000E+00
  0.00000000E+00  0.00000000E+00  0.00000000E+00
  0.00000000E+00  0.00000000E+00  0.00000000E+00
  0.00000000E+00  0.00000000E+00  0.00000000E+00
  0.00000000E+00  0.00000000E+00  0.00000000E+00
  0.00000000E+00  0.00000000E+00  0.00000000E+00
  0.00000000E+00  0.00000000E+00  0.00000000E+00
  0.00000000E+00  0.00000000E+00  0.00000000E+00
  0.00000000E+00  0.00000000E+00  0.00000000E+00
  0.00000000E+00  0.00000000E+00  0.00000000E+00
  0.00000000E+00  0.00000000E+00  0.00000000E+00
  0.00000000E+00  0.00000000E+00  0.00000000E+00
  0.00000000E+00  0.00000000E+00  0.00000000E+00
  0.00000000E+00  0.00000000E+00  0.00000000E+00
  0.00000000E+00  0.00000000E+00  0.00000000E+00
  0.00000000E+00  0.00000000E+00  0.00000000E+00
  0.00000000E+00  0.00000000E+00  0.00000000E+00
  0.00000000E+00  0.00000000E+00  0.00000000E+00
  0.00000000E+00  0.00000000E+00  0.00000000E+00
  0.00000000E+00  0.00000000E+00  0.00000000E+00
  0.00000000E+00  0.00000000E+00  0.00000000E+00
  0.00000000E+00  0.00000000E+00  0.00000000E+00
  0.00000000E+00  0.00000000E+00  0.00000000E+00
  0.00000000E+00  0.00000000E+00  0.00000000E+00
  0.00000000E+00  0.00000000E+00  0.00000000E+00
  0.00000000E+00  0.00000000E+00  0.00000000E+00
  0.00000000E+00  0.00000000E+00  0.00000000E+00
  0.00000000E+00  0.00000000E+00  0.00000000E+00
  0.00000000E+00  0.00000000E+00  0.00000000E+00
  0.00000000E+00  0.00000000E+00  0.00000000E+00
  0.00000000E+00  0.00000000E+00  0.00000000E+00
  0.00000000E+00  0.00000000E+00  0.00000000E+00
  0.00000000E+00  0.00000000E+00  0.00000000E+00
  0.00000000E+00  0.00000000E+00  0.00000000E+00
  0.00000000E+00  0.00000000E+00  0.00000000E+00
  0.00000000E+00  0.00000000E+00  0.00000000E+00
  0.00000000E+00  0.00000000E+00  0.00000000E+00
  0.00000000E+00  0.00000000E+00  0.00000000E+00
  0.00000000E+00  0.00000000E+00  0.00000000E+00
  0.00000000E+00  0.00000000E+00  0.00000000E+00
  0.00000000E+00  0.00000000E+00  0.00000000E+00
  0.00000000E+00  0.00000000E+00  0.00000000E+00
  0.00000000E+00  0.00000000E+00  0.00000000E+00
  0.00000000E+00  0.00000000E+00  0.00000000E+00
  0.00000000E+00  0.00000000E+00  0.00000000E+00
  0.00000000E+00  0.00000000E+00  0.00000000E+00
  0.00000000E+00  0.00000000E+00  0.00000000E+00
  0.00000000E+00  0.00000000E+00  0.00000000E+00
  0.00000000E+00  0.00000000E+00  0.00000000E+00
  0.00000000E+00  0.00000000E+00  0.00000000E+00
  0.00000000E+00  0.00000000E+00  0.00000000E+00
  0.00000000E+00  0.00000000E+00  0.00000000E+00
  0.00000000E+00  0.00000000E+00  0.00000000E+00
  0.00000000E+00  0.00000000E+00  0.00000000E+00
  0.00000000E+00  0.00000000E+00  0.00000000E+00
  0.00000000E+00  0.00000000E+00  0.00000000E+00
  0.00000000E+00  0.00000000E+00  0.00000000E+00
  0.00000000E+00  0.00000000E+00  0.00000000E+00
  0.00000000E+00  0.00000000E+00  0.00000000E+00
  0.00000000E+00  0.00000000E+00  0.00000000E+00
  0.00000000E+00  0.00000000E+00  0.00000000E+00
  0.00000000E+00  0.00000000E+00  0.00000000E+00
  0.00000000E+00  0.00000000E+00  0.00000000E+00
  0.00000000E+00  0.00000000E+00  0.00000000E+00
  0.00000000E+00  0.00000000E+00  0.00000000E+00
  0.00000000E+00  0.00000000E+00  0.00000000E+00
  0.00000000E+00  0.00000000E+00  0.00000000E+00
  0.00000000E+00  0.00000000E+00  0.00000000E+00
  0.00000000E+00  0.00000000E+00  0.00000000E+00
  0.00000000E+00  0.00000000E+00  0.00000000E+00
  0.00000000E+00  0.00000000E+00  0.00000000E+00
  0.00000000E+00  0.00000000E+00  0.00000000E+00
  0.00000000E+00  0.00000000E+00  0.00000000E+00
  0.00000000E+00  0.00000000E+00  0.00000000E+00
  0.00000000E+00  0.00000000E+00  0.00000000E+00
  0.00000000E+00  0.00000000E+00  0.00000000E+00
  0.00000000E+00  0.00000000E+00  0.00000000E+00
  0.00000000E+00  0.00000000E+00  0.00000000E+00
  0.00000000E+00  0.00000000E+00  0.00000000E+00
  0.00000000E+00  0.00000000E+00  0.00000000E+00
  0.00000000E+00  0.00000000E+00  0.00000000E+00
  0.00000000E+00  0.00000000E+00  0.00000000E+00
  0.00000000E+00  0.00000000E+00  0.00000000E+00
  0.00000000E+00  0.00000000E+00  0.00000000E+00
  0.00000000E+00  0.00000000E+00  0.00000000E+00
  0.00000000E+00  0.00000000E+00  0.00000000E+00
