 B Si N 
 1.0
 17.527899999999772   0.000000000000000   0.000000000000000
 -8.763949999999658  15.179606674993195   0.000000000000000
  0.000000000000001   0.000000000000002  15.000000000000000
 B Si N 
  49   1  47
Cartesian
  7.502244240112702  14.421226320129174   1.599097510362930 
 15.028383145503591   1.413009025469899   1.632532245238320 
 13.785296104470490   3.583781318092276   1.634351316999000 
 12.537059883063868   5.756107109410573   1.616392126733850 
 11.293359947198230   7.934107151046112   1.589873373531615 
 10.033236288111096  10.109816603737270   1.562335500795345 
  8.763040090284800  12.274410383337139   1.553008096824360 
 -7.514399178176760  14.462002212010361   1.587835022332350 
  0.006632662233356   1.452754854559991   1.604745207170880 
 -1.240195766345284   3.608128701340910   1.612822863614790 
 -2.495360066605657   5.767637361883000   1.605424334644755 
 -3.756366023637028   7.939329318354405   1.604571000129465 
 -5.014675344255098  10.119737783328796   1.602772214129490 
 -6.264381613820259  12.292156415353016   1.586685465201120 
 -5.013583017323295  14.472587761703371   1.617454321877985 
  2.507475389826333   1.473608444519235   1.608123660704745 
  1.277965845026179   3.672075193544558   1.607731864799085 
  0.010626031260222   5.799042170559299   1.590369050506275 
 -1.273027493802973   7.951304662458459   1.584632162652840 
 -2.536593679898530  10.119737783328796   1.616175739924320 
 -3.771768592104390  12.297180717263645   1.632021966065025 
 -2.513069664249923  14.466410185615780   1.645315238579985 
  5.008472872270681   1.466997305405145   1.651358864195895 
  3.765860987898023   3.661846952211910   1.672220014997145 
  2.557039034241806   5.936264585700209   1.662099559738245 
  1.209909793298784   7.984444129201557   1.603553274664860 
 -0.074816422089705  10.135009095994191   1.613275001680605 
 -1.279534648910277  12.295615898054271   1.651508815585770 
 -0.000749474395947  14.435416401953709   1.660474931790525 
  7.519175684615506   1.436831391889051   1.662912601671615 
  6.275829631774339   3.617203389299896   1.771196449825155 
  5.030576519901736   5.769439361749670   2.035064884710360 
  3.532040113447322   8.727274980079978   1.933198162169325 
  2.412406293625452  10.034862464587812   1.837587935457630 
  1.234600539729286  12.248084134887481   1.712826773771070 
  2.508814748140727  14.400505775316459   1.681637397994290 
 10.030077510280046   1.407977906375538   1.658016681923100 
  8.787473035196662   3.584165003289559   1.699978901353260 
  7.559054579626357   5.751652874204423   1.845274007885940 
  6.440209228086505   7.971738344253522   1.984653420928395 
  4.996019261985364   9.936208800763673   1.580161119315060 
  3.736773503566104  12.190056529978834   1.706569677991770 
  5.002773012770852  14.393502507936443   1.648161237437325 
 12.530618577832747   1.399768446241366   1.655465288099220 
 11.287416936022126   3.577370949583999   1.647168903083100 
 10.046343516489671   5.752027313596589   1.656302324332665 
  8.825956077139937   7.927803348645125   1.651644712023465 
  7.548639809018695  10.095547178717833   1.559850571328925 
  6.232532459081598  12.199873763972176   1.593964528631685 
  4.773890858348119   7.611728667217719   3.061254851336775 
  8.763595904447405  13.720452824652556   1.573290419829270 
 16.282169841787692   0.699119081019021   1.613236663473795 
 15.037783062046390   2.864792142883312   1.631230361456805 
 13.785471219414925   5.032527998780177   1.620810305580555 
 12.532950120323424   7.204863686573210   1.601698498168320 
 11.276325069297485   9.383212210040352   1.578083758504485 
 10.017312129165873  11.557562460892902   1.552890749342640 
 -6.263504592395369  13.741351138091556   1.597004716358415 
  1.257997081065015   0.733968452484357   1.597444928156595 
  0.023923845832809   2.911187321052990   1.606221611204085 
 -1.237796056595902   5.054596689474089   1.600137194367720 
 -2.511064186230864   7.214449539829387   1.597770160291455 
 -3.774246391818302   9.388319649535772   1.614723238424190 
 -5.017962079762412  11.567101107138003   1.612198151310570 
 -3.766412482106175  13.745363014960748   1.636401563137035 
  3.755606246540107   0.743917632770937   1.618983496270275 
  2.518292309354353   2.929689480046092   1.613640377716050 
  1.299506241478316   5.139653996461900   1.606582900239345 
 -0.020067398068715   7.236013901062376   1.576778064436635 
 -1.303333834587546   9.396568987519830   1.589499935471385 
 -2.528847991087367  11.570255145563637   1.637790643601625 
 -1.266117157549238  13.737646262810840   1.655197839424110 
  6.257018964922993   0.733486478533114   1.648042315725420 
  5.013563554620221   2.919073502044180   1.700348503990785 
  3.779911529448990   5.127138677220288   1.737817749237540 
  2.542140937497469   7.422400748203377   1.636818225754320 
  1.146122525269074   9.414914950377797   1.627595147184360 
 -0.038643700302361  11.569874082269548   1.661504049825195 
  1.247725528249924  13.696703661666506   1.682972207693895 
  8.768905016830386   0.702726828027527   1.652128911641445 
  7.523942624511856   2.883409292741581   1.704727666038990 
  6.286185537872830   5.063970437049869   1.922315554599345 
  2.475985810879799  11.488845208541010   1.794173712164085 
  3.754827032563544  13.652263730357740   1.681943847401670 
 11.278783916786406   0.673505092373280   1.664259452229345 
 10.036503187448526   2.855742115669689   1.659441024909240 
  8.795609529711550   5.028386520670885   1.729093115664000 
  7.599160840387836   7.191481872892336   1.817530030961205 
  6.310678415394892   9.345707381014448   1.591007860320915 
  4.972228977921018  11.415307343657432   1.620035357431410 
  6.248971585098758  13.663010393562955   1.615448562465945 
 13.778921198376866   0.670130264268895   1.648198154027175 
 12.535650785127560   2.850581253854086   1.646536590872085 
 11.289907317210648   5.025290746064235   1.632125474711415 
 10.056819403523615   7.198656219717541   1.611051530196180 
  8.795308394490661   9.372556015040637   1.579238811727890 
  7.513775185433058  11.531444667133279   1.546541694888870 
