Species order:X N B                     
   2.51242800000000     
     5.9449720136058266    0.0000000000000000    0.0000000000000000
    -2.9724860068029120    5.1484967885702053   -0.0000000000000001
     0.0000000000000000    0.0000000000000009    5.3101128803662583
   C    N    B 
     3   142   142
Direct
  0.6011775177331316  0.3822383868026414  0.3750000000000000
  0.4424942251893256  0.3866818116117989  0.3750000000000000
  0.5490080502858501  0.4365916837887315  0.3750000000000000
  0.1110349394810572  0.0555188692688544  0.1249139072235748
  0.6110585376248591  0.5554566714579856  0.1245891601139068
  0.4444005877034997  0.0555441355608334  0.1249493257153021
  0.9444103161927424  0.5555209930349160  0.1247830804305172
  0.7777360144272851  0.0555122725635538  0.1249393522410055
  0.1110681293919838  0.7221937216625364  0.6250919543997450
  0.4444112917567740  0.7221625878898681  0.6250814346261419
  0.2776659297485958  0.2221608230166922  0.6250878862037175
  0.7777551379120702  0.7221898825289766  0.6251279151425464
  0.6110780275925576  0.2221721345485053  0.6254552968455818
  0.9444029440828311  0.2221679866511101  0.6250967014143924
  0.2777403268122088  0.7221837414688149  0.1248897328318201
  0.1110196194332553  0.2221503316001593  0.1248737725317362
  0.4443725260468372  0.2221907430904995  0.1249580611282392
  0.6110751480554462  0.7221401066015847  0.1249564788944993
  0.9444229229881085  0.7222219423436996  0.1248349248946890
  0.7777665926016641  0.2221839602181994  0.1248145312164922
  0.1110663143414603  0.8888778509825498  0.6250928654722672
  0.4444102878073432  0.8888628718851875  0.6251116127431074
  0.2777103810434634  0.3888043245004688  0.6250306450979319
  0.6110244350861249  0.3887687609814460  0.6264030391906228
  0.7777375064418772  0.8888411268600476  0.6250432142381952
  0.9444319367030691  0.3888402303635939  0.6251975225161854
  0.1110696329766253  0.3888315758183086  0.1249554181123022
  0.2777369109513488  0.8888723326161325  0.1249041284775207
  0.6110737840101413  0.8888384876901068  0.1249044096335649
  0.4443400891206500  0.3887855961011207  0.1241514282286381
  0.9444056031035392  0.8888729995839915  0.1249169770547280
  0.7778006870022198  0.3887920539672514  0.1237653218948828
  0.2777396184049545  0.5554918845118180  0.6250873489324181
  0.1110349394810572  0.0555188692688544  0.6250860927764260
  0.6110585376248591  0.5554566714579856  0.6254108398860931
  0.4444005877034997  0.0555441355608334  0.6250506742846980
  0.9444103161927423  0.5555209930349160  0.6252169195694826
  0.1110715756446242  0.5555114151078773  0.1248938111156914
  0.7777360144272851  0.0555122725635538  0.6250606477589948
  0.2777166306898713  0.0555362624757729  0.1249931667373699
  0.4444080500127233  0.5554720490486734  0.1248689376006212
  0.7777901368174726  0.5556150725905874  0.1239190612448430
  0.6110805134240183  0.0555249021334753  0.1248735185467543
  0.4444080500127233  0.5554720490486734  0.6251310623993780
  0.9443833453995620  0.0555076335302547  0.1249040561613798
  0.2777403268122088  0.7221837414688149  0.6251102671681800
  0.1110196194332553  0.2221503316001593  0.6251262274682643
  0.4443725260468372  0.2221907430904995  0.6250419388717622
  0.6110751480554462  0.7221401066015847  0.6250435211055010
  0.9444229229881085  0.7222219423436996  0.6251650751053112
  0.7777665926016641  0.2221839602181994  0.6251854687835087
  0.1110681293919838  0.7221937216625364  0.1249080456002563
  0.4444112917567740  0.7221625878898681  0.1249185653738586
  0.2776659297485958  0.2221608230166922  0.1249121137962825
  0.7777551379120702  0.7221898825289766  0.1248720848574539
  0.6110780275925576  0.2221721345485053  0.1245447031544189
  0.9444029440828311  0.2221679866511101  0.1249032985856071
  0.1110696329766253  0.3888315758183086  0.6250445818876992
  0.2777369109513488  0.8888723326161325  0.6250958715224796
  0.6110737840101413  0.8888384876901068  0.6250955903664344
  0.4443400891206500  0.3887855961011207  0.6258485717713619
  0.9444056031035392  0.8888729995839915  0.6250830229452721
  0.1110663143414603  0.8888778509825498  0.1249071345277329
  0.7778006870022198  0.3887920539672514  0.6262346781051183
  0.4444102878073432  0.8888628718851875  0.1248883872568922
  0.2777103810434634  0.3888043245004688  0.1249693549020678
  0.2777396184049545  0.5554918845118180  0.1249126510675816
  0.6110244350861249  0.3887687609814460  0.1235969608093763
  0.7777375064418772  0.8888411268600476  0.1249567857618051
  0.9444319367030691  0.3888402303635939  0.1248024774838142
  0.1110715756446242  0.5555114151078773  0.6251061888843090
  0.2777166306898713  0.0555362624757729  0.6250068332626301
  0.7777901368174726  0.5556150725905874  0.6260809387551562
  0.6110805134240183  0.0555249021334753  0.6251264814532465
  0.9443833453995620  0.0555076335302547  0.6250959438386190
  0.0537341580704189  0.1104547185327502  0.3750000000000000
  0.5572303965290020  0.6099679624161727  0.3750000000000000
  0.3874123988292775  0.1112302202594852  0.3750000000000000
  0.8916798912727304  0.6098803851528984  0.3750000000000000
  0.7224711331932491  0.1160910810849051  0.3750000000000000
  0.0555545568654133  0.7777763602259669  0.8750000000000000
  0.3888822378096664  0.7777764424920105  0.8750000000000000
  0.2222198860079163  0.2777801812024219  0.8750000000000000
  0.7222092964097326  0.7777756977693743  0.8750000000000000
  0.5555452417091954  0.2777621485941710  0.8750000000000000
  0.8888816834135967  0.2777797521796181  0.8750000000000000
  0.2251684502951966  0.7793493814757939  0.3750000000000000
  0.0541732644314931  0.2782764204877251  0.3750000000000000
  0.3856276933775427  0.2781359575775585  0.3750000000000000
  0.5572230116454254  0.7778702580039202  0.3750000000000000
  0.8887161944160572  0.7752866194478037  0.3750000000000000
  0.7221804017076759  0.2898172821686178  0.3750000000000000
  0.0555486501427559  0.9444408427732568  0.8750000000000000
  0.3888821663905985  0.9444338849909381  0.8750000000000000
  0.2222196911465604  0.4444496374130789  0.8750000000000000
  0.5555478471620208  0.4444507158857671  0.8750000000000000
  0.7222093013022888  0.9444386200953409  0.8750000000000000
  0.8888951326946445  0.4444519481156745  0.8750000000000000
  0.0568114691074351  0.4459557519601872  0.3750000000000000
  0.2222407044714990  0.9443400800792870  0.3750000000000000
  0.5570195293093112  0.9461617097715277  0.3750000000000000
  0.3889228720921512  0.4413535194618338  0.3750000000000000
  0.8880973931217497  0.9433749877729254  0.3750000000000000
  0.2222201839500114  0.6111139511889963  0.8750000000000000
  0.0555486705635595  0.1111067400904131  0.8750000000000000
  0.5555412622049990  0.6111147872368156  0.8750000000000000
  0.3888837706443249  0.1111000584196976  0.8750000000000000
  0.8888942442730156  0.6111118902347302  0.8750000000000000
  0.0606771393493701  0.6136368528759467  0.3750000000000000
  0.7222068352977623  0.1111002444459096  0.8750000000000000
  0.2206058724642763  0.1104322223855971  0.3750000000000000
  0.3908653221121319  0.6101548425404989  0.3750000000000000
  0.7233751716497762  0.6011237072996681  0.3750000000000000
  0.5562004276449724  0.1137688284436207  0.3750000000000000
  0.3888810088386669  0.6111144155731918  0.8750000000000000
  0.8878684477185488  0.1120635413965629  0.3750000000000000
  0.2222218908309421  0.7777770678484880  0.8750000000000000
  0.0555505497173102  0.2777802490759040  0.8750000000000000
  0.3888872772367847  0.2777762636939856  0.8750000000000000
  0.5555425667481881  0.7777759900831710  0.8750000000000000
  0.8888817608796673  0.7777745222472717  0.8750000000000000
  0.7222072603811946  0.2777634737407668  0.8750000000000000
  0.0567385637806599  0.7775700488569210  0.3750000000000000
  0.3913059263636185  0.7785506990411548  0.3750000000000000
  0.2197445156117496  0.2768932318730433  0.3750000000000000
  0.7229702504561655  0.7742191438118112  0.3750000000000000
  0.5516324781510543  0.2762989842380524  0.3750000000000000
  0.8880008375606571  0.2806217987905135  0.3750000000000000
  0.0555542522506577  0.4444502908167319  0.8750000000000000
  0.2222186975514689  0.9444391614698336  0.8750000000000000
  0.5555410886698389  0.9444326714170546  0.8750000000000000
  0.3888852150679134  0.4444518748393356  0.8750000000000000
  0.8888812345632791  0.9444407833790315  0.8750000000000000
  0.0545991467135926  0.9433944759320266  0.3750000000000000
  0.7222189348157223  0.4444459606461357  0.8750000000000000
  0.3904571689315344  0.9459611398776867  0.3750000000000000
  0.2231540771637154  0.4445637691054969  0.3750000000000000
  0.2253480612187241  0.6121231293340789  0.3750000000000000
  0.7227065450788119  0.9450631780486863  0.3750000000000000
  0.8913089011285079  0.4488955218571167  0.3750000000000000
  0.0555613842614762  0.6111144053188828  0.8750000000000000
  0.2222176326984889  0.1111064921137881  0.8750000000000000
  0.7222069283886339  0.6111123161707389  0.8750000000000000
  0.5555380496762535  0.1110861160867690  0.8750000000000000
  0.8888800262343065  0.1111072832779990  0.8750000000000000
  0.1093254336464917  0.0545633583314012  0.3750000000000000
  0.6130551133800876  0.5535799151696934  0.3750000000000000
  0.4453292605835149  0.0574425914605439  0.3750000000000000
  0.9499366165963550  0.5584469027003992  0.3750000000000000
  0.7768905791114598  0.0578729723014060  0.3750000000000000
  0.1110685430933977  0.7221859193145707  0.8750000000000000
  0.4444430473718247  0.7222133893601860  0.8750000000000000
  0.2778280334681623  0.2222510929735957  0.8750000000000000
  0.7777413065551834  0.7221426591368101  0.8750000000000000
  0.6111327254252592  0.2222715751282286  0.8750000000000000
  0.9444108036278572  0.2222478316361094  0.8750000000000000
  0.2803227952351596  0.7232468492384163  0.3750000000000000
  0.1087819774995916  0.2218040112638927  0.3750000000000000
  0.4414988373665302  0.2219152217161300  0.3750000000000000
  0.6122618687503226  0.7210435658290412  0.3750000000000000
  0.9445904535126614  0.7197135084475791  0.3750000000000000
  0.7764757406037543  0.2304285714667682  0.3750000000000000
  0.1110854890578307  0.8888494192214391  0.8750000000000000
  0.4444434455245789  0.8888917607354269  0.8750000000000000
  0.2778118639199588  0.3889141759730652  0.8750000000000000
  0.6111678359858145  0.3889281081181551  0.8750000000000000
  0.7777500123817920  0.8888501921041893  0.8750000000000000
  0.9443916356774019  0.3889187219878541  0.8750000000000000
  0.1112740218479835  0.3896560691597542  0.3750000000000000
  0.2794171046751399  0.8900957363343517  0.3750000000000000
  0.6119073699829582  0.8895103429739163  0.3750000000000000
  0.9430248322959817  0.8865188689491006  0.3750000000000000
  0.7780643349883122  0.4101628595513166  0.3750000000000000
  0.2777768395115723  0.5555642427743795  0.8750000000000000
  0.1111076265622718  0.0555425876084815  0.8750000000000000
  0.6111314277224257  0.5555257624725211  0.8750000000000000
  0.4444700604666727  0.0555788325440472  0.8750000000000000
  0.9443834375635294  0.5555279145536356  0.8750000000000000
  0.1142074430336925  0.5569626259876395  0.3750000000000000
  0.7777506799326886  0.0555638597081006  0.8750000000000000
  0.2765313078944859  0.0551071269899546  0.3750000000000000
  0.4464792157930128  0.5538529395890619  0.3750000000000000
  0.7788531217817865  0.5365491479883624  0.3750000000000000
  0.6116542297934792  0.0582648476515533  0.3750000000000000
  0.4444728065989190  0.5555549292933574  0.8750000000000000
  0.9425722822731732  0.0549936225981756  0.3750000000000000
  0.2777603742625035  0.7222130410785810  0.8750000000000000
  0.1111129071595327  0.2222370274780759  0.8750000000000000
  0.4445149333740945  0.2222713677236801  0.8750000000000000
  0.6111042690472336  0.7221847580234588  0.8750000000000000
  0.9443871467297162  0.7221434582746972  0.8750000000000000
  0.7777444593545318  0.2222673957820256  0.8750000000000000
  0.1140654751475904  0.7237746481469302  0.3750000000000000
  0.4462953071095418  0.7218877719892473  0.3750000000000000
  0.2751003555608139  0.2215455953262374  0.3750000000000000
  0.7772601291208017  0.7141731068107737  0.3750000000000000
  0.6119820165476809  0.2263476138940224  0.3750000000000000
  0.9425611837736598  0.2238014922935672  0.3750000000000000
  0.1110915125205091  0.3889108378647584  0.8750000000000000
  0.2777730373007609  0.8888781518589245  0.8750000000000000
  0.6110964892473548  0.8888787451595325  0.8750000000000000
  0.4445229278287829  0.3889252924013790  0.8750000000000000
  0.9444070946019504  0.8888300913109997  0.8750000000000000
  0.1108550058213475  0.8881619413145115  0.3750000000000000
  0.7777437967098296  0.3889227245635836  0.8750000000000000
  0.4461308599646824  0.8901185464818940  0.3750000000000000
  0.2773831738590863  0.3878271798316482  0.3750000000000000
  0.2799145641009855  0.5558044433194986  0.3750000000000000
  0.7771401464544934  0.8866860066896699  0.3750000000000000
  0.9443591064201299  0.3920803660035439  0.3750000000000000
  0.1110709012229020  0.5555536711589436  0.8750000000000000
  0.2778017145563144  0.0555631386952875  0.8750000000000000
  0.7777408060925344  0.5554963149107768  0.8750000000000000
  0.6111048096048255  0.0555786706204374  0.8750000000000000
  0.9444209303057418  0.0555432033278243  0.8750000000000000
  0.0554710678108185  0.1110603818754764  0.1250226104574702
  0.5556354791809589  0.6108988490394647  0.1251118242137226
  0.3889330637212776  0.1112183670968152  0.1251359282702180
  0.8886144733211381  0.6108984853068767  0.1252429156513266
  0.7222352893533903  0.1112174552844422  0.1251318835686844
  0.0553713478226068  0.7776435420643787  0.6248503500724560
  0.3888568568815725  0.7777302205111527  0.6249670159936109
  0.2221642633576991  0.2777232374521211  0.6249805300983100
  0.7222275124702567  0.7776161137875275  0.6248043241133783
  0.5557402212851663  0.2780301067709888  0.6251336553607525
  0.8888041826943052  0.2778200328850352  0.6248593656986220
  0.2220920454981085  0.7777006405393857  0.1250626028599482
  0.0554577068058809  0.2777359459797055  0.1250628924481912
  0.3889531577203860  0.2778485343154353  0.1249132756184785
  0.5555770259648878  0.7776775542028352  0.1250881034773317
  0.8887818206047641  0.7776059367503586  0.1251842033810167
  0.7222868103637139  0.2780125326428594  0.1249960015504416
  0.0554543333621157  0.9443618146591631  0.6249316478393386
  0.3888808934540149  0.9444903054035259  0.6249430022619841
  0.2221601498829762  0.4443611662922279  0.6248967098673670
  0.5556682432273966  0.4442720884813444  0.6249536254539626
  0.7222122993920386  0.9444093130891689  0.6248933460863690
  0.8886280483881024  0.4443552852838775  0.6248063589465560
  0.0553838942029858  0.4443712590145717  0.1251574625633951
  0.2221455446936594  0.9444174850302314  0.1250690738979049
  0.5555780702341526  0.9444871850440462  0.1250540138054004
  0.3889634372564516  0.4443146616800728  0.1249103951630758
  0.8888268383783918  0.9443557853153568  0.1250905807398440
  0.7222108276008571  0.4444125295347578  0.1262920919568644
  0.2220984390455071  0.6110123406784200  0.6249322036332385
  0.0554710678108185  0.1110603818754764  0.6249773895425291
  0.5556354791809589  0.6108988490394647  0.6248881757862776
  0.3889330637212776  0.1112183670968152  0.6248640717297830
  0.8886144733211381  0.6108984853068767  0.6247570843486728
  0.0552923461429367  0.6109612438419894  0.1251990945327314
  0.7222352893533903  0.1112174552844422  0.6248681164313162
  0.2221675667797281  0.1110999209787527  0.1250665273072275
  0.3888953585979200  0.6109901415349593  0.1250769245580779
  0.7222349268467375  0.6108563645093832  0.1251539223377660
  0.5556474224613006  0.1113064106394473  0.1250807767333890
  0.3888953585979200  0.6109901415349593  0.6249230754419224
  0.8888309833176967  0.1111023023084593  0.1250772746906534
  0.2220920454981085  0.7777006405393857  0.6249373971400535
  0.0554577068058809  0.2777359459797055  0.6249371075518100
  0.3889531577203860  0.2778485343154353  0.6250867243815216
  0.5555770259648878  0.7776775542028352  0.6249118965226689
  0.8887818206047641  0.7776059367503586  0.6248157966189838
  0.7222868103637139  0.2780125326428594  0.6250039984495581
  0.0553713478226068  0.7776435420643787  0.1251496499275429
  0.3888568568815725  0.7777302205111527  0.1250329840063896
  0.2221642633576991  0.2777232374521211  0.1250194699016907
  0.7222275124702567  0.7776161137875275  0.1251956758866225
  0.5557402212851663  0.2780301067709888  0.1248663446392470
  0.8888041826943052  0.2778200328850352  0.1251406343013780
  0.0553838942029858  0.4443712590145717  0.6248425374366054
  0.2221455446936594  0.9444174850302314  0.6249309261020948
  0.5555780702341526  0.9444871850440462  0.6249459861945986
  0.3889634372564516  0.4443146616800728  0.6250896048369246
  0.8888268383783918  0.9443557853153568  0.6249094192601561
  0.0554543333621157  0.9443618146591631  0.1250683521606613
  0.7222108276008571  0.4444125295347578  0.6237079080431344
  0.3888808934540149  0.9444903054035259  0.1250569977380162
  0.2221601498829762  0.4443611662922279  0.1251032901326326
  0.2220984390455071  0.6110123406784200  0.1250677963667613
  0.5556682432273966  0.4442720884813444  0.1250463745460365
  0.7222122993920386  0.9444093130891689  0.1251066539136310
  0.8886280483881024  0.4443552852838775  0.1251936410534449
  0.0552923461429367  0.6109612438419894  0.6248009054672684
  0.2221675667797281  0.1110999209787527  0.6249334726927732
  0.7222349268467375  0.6108563645093832  0.6248460776622342
  0.5556474224613006  0.1113064106394473  0.6249192232666112
  0.8888309833176967  0.1111023023084593  0.6249227253093463
 
  0.00000000E+00  0.00000000E+00  0.00000000E+00
  0.00000000E+00  0.00000000E+00  0.00000000E+00
  0.00000000E+00  0.00000000E+00  0.00000000E+00
  0.00000000E+00  0.00000000E+00  0.00000000E+00
  0.00000000E+00  0.00000000E+00  0.00000000E+00
  0.00000000E+00  0.00000000E+00  0.00000000E+00
  0.00000000E+00  0.00000000E+00  0.00000000E+00
  0.00000000E+00  0.00000000E+00  0.00000000E+00
  0.00000000E+00  0.00000000E+00  0.00000000E+00
  0.00000000E+00  0.00000000E+00  0.00000000E+00
  0.00000000E+00  0.00000000E+00  0.00000000E+00
  0.00000000E+00  0.00000000E+00  0.00000000E+00
  0.00000000E+00  0.00000000E+00  0.00000000E+00
  0.00000000E+00  0.00000000E+00  0.00000000E+00
  0.00000000E+00  0.00000000E+00  0.00000000E+00
  0.00000000E+00  0.00000000E+00  0.00000000E+00
  0.00000000E+00  0.00000000E+00  0.00000000E+00
  0.00000000E+00  0.00000000E+00  0.00000000E+00
  0.00000000E+00  0.00000000E+00  0.00000000E+00
  0.00000000E+00  0.00000000E+00  0.00000000E+00
  0.00000000E+00  0.00000000E+00  0.00000000E+00
  0.00000000E+00  0.00000000E+00  0.00000000E+00
  0.00000000E+00  0.00000000E+00  0.00000000E+00
  0.00000000E+00  0.00000000E+00  0.00000000E+00
  0.00000000E+00  0.00000000E+00  0.00000000E+00
  0.00000000E+00  0.00000000E+00  0.00000000E+00
  0.00000000E+00  0.00000000E+00  0.00000000E+00
  0.00000000E+00  0.00000000E+00  0.00000000E+00
  0.00000000E+00  0.00000000E+00  0.00000000E+00
  0.00000000E+00  0.00000000E+00  0.00000000E+00
  0.00000000E+00  0.00000000E+00  0.00000000E+00
  0.00000000E+00  0.00000000E+00  0.00000000E+00
  0.00000000E+00  0.00000000E+00  0.00000000E+00
  0.00000000E+00  0.00000000E+00  0.00000000E+00
  0.00000000E+00  0.00000000E+00  0.00000000E+00
  0.00000000E+00  0.00000000E+00  0.00000000E+00
  0.00000000E+00  0.00000000E+00  0.00000000E+00
  0.00000000E+00  0.00000000E+00  0.00000000E+00
  0.00000000E+00  0.00000000E+00  0.00000000E+00
  0.00000000E+00  0.00000000E+00  0.00000000E+00
  0.00000000E+00  0.00000000E+00  0.00000000E+00
  0.00000000E+00  0.00000000E+00  0.00000000E+00
  0.00000000E+00  0.00000000E+00  0.00000000E+00
  0.00000000E+00  0.00000000E+00  0.00000000E+00
  0.00000000E+00  0.00000000E+00  0.00000000E+00
  0.00000000E+00  0.00000000E+00  0.00000000E+00
  0.00000000E+00  0.00000000E+00  0.00000000E+00
  0.00000000E+00  0.00000000E+00  0.00000000E+00
  0.00000000E+00  0.00000000E+00  0.00000000E+00
  0.00000000E+00  0.00000000E+00  0.00000000E+00
  0.00000000E+00  0.00000000E+00  0.00000000E+00
  0.00000000E+00  0.00000000E+00  0.00000000E+00
  0.00000000E+00  0.00000000E+00  0.00000000E+00
  0.00000000E+00  0.00000000E+00  0.00000000E+00
  0.00000000E+00  0.00000000E+00  0.00000000E+00
  0.00000000E+00  0.00000000E+00  0.00000000E+00
  0.00000000E+00  0.00000000E+00  0.00000000E+00
  0.00000000E+00  0.00000000E+00  0.00000000E+00
  0.00000000E+00  0.00000000E+00  0.00000000E+00
  0.00000000E+00  0.00000000E+00  0.00000000E+00
  0.00000000E+00  0.00000000E+00  0.00000000E+00
  0.00000000E+00  0.00000000E+00  0.00000000E+00
  0.00000000E+00  0.00000000E+00  0.00000000E+00
  0.00000000E+00  0.00000000E+00  0.00000000E+00
  0.00000000E+00  0.00000000E+00  0.00000000E+00
  0.00000000E+00  0.00000000E+00  0.00000000E+00
  0.00000000E+00  0.00000000E+00  0.00000000E+00
  0.00000000E+00  0.00000000E+00  0.00000000E+00
  0.00000000E+00  0.00000000E+00  0.00000000E+00
  0.00000000E+00  0.00000000E+00  0.00000000E+00
  0.00000000E+00  0.00000000E+00  0.00000000E+00
  0.00000000E+00  0.00000000E+00  0.00000000E+00
  0.00000000E+00  0.00000000E+00  0.00000000E+00
  0.00000000E+00  0.00000000E+00  0.00000000E+00
  0.00000000E+00  0.00000000E+00  0.00000000E+00
  0.00000000E+00  0.00000000E+00  0.00000000E+00
  0.00000000E+00  0.00000000E+00  0.00000000E+00
  0.00000000E+00  0.00000000E+00  0.00000000E+00
  0.00000000E+00  0.00000000E+00  0.00000000E+00
  0.00000000E+00  0.00000000E+00  0.00000000E+00
  0.00000000E+00  0.00000000E+00  0.00000000E+00
  0.00000000E+00  0.00000000E+00  0.00000000E+00
  0.00000000E+00  0.00000000E+00  0.00000000E+00
  0.00000000E+00  0.00000000E+00  0.00000000E+00
  0.00000000E+00  0.00000000E+00  0.00000000E+00
  0.00000000E+00  0.00000000E+00  0.00000000E+00
  0.00000000E+00  0.00000000E+00  0.00000000E+00
  0.00000000E+00  0.00000000E+00  0.00000000E+00
  0.00000000E+00  0.00000000E+00  0.00000000E+00
  0.00000000E+00  0.00000000E+00  0.00000000E+00
  0.00000000E+00  0.00000000E+00  0.00000000E+00
  0.00000000E+00  0.00000000E+00  0.00000000E+00
  0.00000000E+00  0.00000000E+00  0.00000000E+00
  0.00000000E+00  0.00000000E+00  0.00000000E+00
  0.00000000E+00  0.00000000E+00  0.00000000E+00
  0.00000000E+00  0.00000000E+00  0.00000000E+00
  0.00000000E+00  0.00000000E+00  0.00000000E+00
  0.00000000E+00  0.00000000E+00  0.00000000E+00
  0.00000000E+00  0.00000000E+00  0.00000000E+00
  0.00000000E+00  0.00000000E+00  0.00000000E+00
  0.00000000E+00  0.00000000E+00  0.00000000E+00
  0.00000000E+00  0.00000000E+00  0.00000000E+00
  0.00000000E+00  0.00000000E+00  0.00000000E+00
  0.00000000E+00  0.00000000E+00  0.00000000E+00
  0.00000000E+00  0.00000000E+00  0.00000000E+00
  0.00000000E+00  0.00000000E+00  0.00000000E+00
  0.00000000E+00  0.00000000E+00  0.00000000E+00
  0.00000000E+00  0.00000000E+00  0.00000000E+00
  0.00000000E+00  0.00000000E+00  0.00000000E+00
  0.00000000E+00  0.00000000E+00  0.00000000E+00
  0.00000000E+00  0.00000000E+00  0.00000000E+00
  0.00000000E+00  0.00000000E+00  0.00000000E+00
  0.00000000E+00  0.00000000E+00  0.00000000E+00
  0.00000000E+00  0.00000000E+00  0.00000000E+00
  0.00000000E+00  0.00000000E+00  0.00000000E+00
  0.00000000E+00  0.00000000E+00  0.00000000E+00
  0.00000000E+00  0.00000000E+00  0.00000000E+00
  0.00000000E+00  0.00000000E+00  0.00000000E+00
  0.00000000E+00  0.00000000E+00  0.00000000E+00
  0.00000000E+00  0.00000000E+00  0.00000000E+00
  0.00000000E+00  0.00000000E+00  0.00000000E+00
  0.00000000E+00  0.00000000E+00  0.00000000E+00
  0.00000000E+00  0.00000000E+00  0.00000000E+00
  0.00000000E+00  0.00000000E+00  0.00000000E+00
  0.00000000E+00  0.00000000E+00  0.00000000E+00
  0.00000000E+00  0.00000000E+00  0.00000000E+00
  0.00000000E+00  0.00000000E+00  0.00000000E+00
  0.00000000E+00  0.00000000E+00  0.00000000E+00
  0.00000000E+00  0.00000000E+00  0.00000000E+00
  0.00000000E+00  0.00000000E+00  0.00000000E+00
  0.00000000E+00  0.00000000E+00  0.00000000E+00
  0.00000000E+00  0.00000000E+00  0.00000000E+00
  0.00000000E+00  0.00000000E+00  0.00000000E+00
  0.00000000E+00  0.00000000E+00  0.00000000E+00
  0.00000000E+00  0.00000000E+00  0.00000000E+00
  0.00000000E+00  0.00000000E+00  0.00000000E+00
  0.00000000E+00  0.00000000E+00  0.00000000E+00
  0.00000000E+00  0.00000000E+00  0.00000000E+00
  0.00000000E+00  0.00000000E+00  0.00000000E+00
  0.00000000E+00  0.00000000E+00  0.00000000E+00
  0.00000000E+00  0.00000000E+00  0.00000000E+00
  0.00000000E+00  0.00000000E+00  0.00000000E+00
  0.00000000E+00  0.00000000E+00  0.00000000E+00
  0.00000000E+00  0.00000000E+00  0.00000000E+00
  0.00000000E+00  0.00000000E+00  0.00000000E+00
  0.00000000E+00  0.00000000E+00  0.00000000E+00
  0.00000000E+00  0.00000000E+00  0.00000000E+00
  0.00000000E+00  0.00000000E+00  0.00000000E+00
  0.00000000E+00  0.00000000E+00  0.00000000E+00
  0.00000000E+00  0.00000000E+00  0.00000000E+00
  0.00000000E+00  0.00000000E+00  0.00000000E+00
  0.00000000E+00  0.00000000E+00  0.00000000E+00
  0.00000000E+00  0.00000000E+00  0.00000000E+00
  0.00000000E+00  0.00000000E+00  0.00000000E+00
  0.00000000E+00  0.00000000E+00  0.00000000E+00
  0.00000000E+00  0.00000000E+00  0.00000000E+00
  0.00000000E+00  0.00000000E+00  0.00000000E+00
  0.00000000E+00  0.00000000E+00  0.00000000E+00
  0.00000000E+00  0.00000000E+00  0.00000000E+00
  0.00000000E+00  0.00000000E+00  0.00000000E+00
  0.00000000E+00  0.00000000E+00  0.00000000E+00
  0.00000000E+00  0.00000000E+00  0.00000000E+00
  0.00000000E+00  0.00000000E+00  0.00000000E+00
  0.00000000E+00  0.00000000E+00  0.00000000E+00
  0.00000000E+00  0.00000000E+00  0.00000000E+00
  0.00000000E+00  0.00000000E+00  0.00000000E+00
  0.00000000E+00  0.00000000E+00  0.00000000E+00
  0.00000000E+00  0.00000000E+00  0.00000000E+00
  0.00000000E+00  0.00000000E+00  0.00000000E+00
  0.00000000E+00  0.00000000E+00  0.00000000E+00
  0.00000000E+00  0.00000000E+00  0.00000000E+00
  0.00000000E+00  0.00000000E+00  0.00000000E+00
  0.00000000E+00  0.00000000E+00  0.00000000E+00
  0.00000000E+00  0.00000000E+00  0.00000000E+00
  0.00000000E+00  0.00000000E+00  0.00000000E+00
  0.00000000E+00  0.00000000E+00  0.00000000E+00
  0.00000000E+00  0.00000000E+00  0.00000000E+00
  0.00000000E+00  0.00000000E+00  0.00000000E+00
  0.00000000E+00  0.00000000E+00  0.00000000E+00
  0.00000000E+00  0.00000000E+00  0.00000000E+00
  0.00000000E+00  0.00000000E+00  0.00000000E+00
  0.00000000E+00  0.00000000E+00  0.00000000E+00
  0.00000000E+00  0.00000000E+00  0.00000000E+00
  0.00000000E+00  0.00000000E+00  0.00000000E+00
  0.00000000E+00  0.00000000E+00  0.00000000E+00
  0.00000000E+00  0.00000000E+00  0.00000000E+00
  0.00000000E+00  0.00000000E+00  0.00000000E+00
  0.00000000E+00  0.00000000E+00  0.00000000E+00
  0.00000000E+00  0.00000000E+00  0.00000000E+00
  0.00000000E+00  0.00000000E+00  0.00000000E+00
  0.00000000E+00  0.00000000E+00  0.00000000E+00
  0.00000000E+00  0.00000000E+00  0.00000000E+00
  0.00000000E+00  0.00000000E+00  0.00000000E+00
  0.00000000E+00  0.00000000E+00  0.00000000E+00
  0.00000000E+00  0.00000000E+00  0.00000000E+00
  0.00000000E+00  0.00000000E+00  0.00000000E+00
  0.00000000E+00  0.00000000E+00  0.00000000E+00
  0.00000000E+00  0.00000000E+00  0.00000000E+00
  0.00000000E+00  0.00000000E+00  0.00000000E+00
  0.00000000E+00  0.00000000E+00  0.00000000E+00
  0.00000000E+00  0.00000000E+00  0.00000000E+00
  0.00000000E+00  0.00000000E+00  0.00000000E+00
  0.00000000E+00  0.00000000E+00  0.00000000E+00
  0.00000000E+00  0.00000000E+00  0.00000000E+00
  0.00000000E+00  0.00000000E+00  0.00000000E+00
  0.00000000E+00  0.00000000E+00  0.00000000E+00
  0.00000000E+00  0.00000000E+00  0.00000000E+00
  0.00000000E+00  0.00000000E+00  0.00000000E+00
  0.00000000E+00  0.00000000E+00  0.00000000E+00
  0.00000000E+00  0.00000000E+00  0.00000000E+00
  0.00000000E+00  0.00000000E+00  0.00000000E+00
  0.00000000E+00  0.00000000E+00  0.00000000E+00
  0.00000000E+00  0.00000000E+00  0.00000000E+00
  0.00000000E+00  0.00000000E+00  0.00000000E+00
  0.00000000E+00  0.00000000E+00  0.00000000E+00
  0.00000000E+00  0.00000000E+00  0.00000000E+00
  0.00000000E+00  0.00000000E+00  0.00000000E+00
  0.00000000E+00  0.00000000E+00  0.00000000E+00
  0.00000000E+00  0.00000000E+00  0.00000000E+00
  0.00000000E+00  0.00000000E+00  0.00000000E+00
  0.00000000E+00  0.00000000E+00  0.00000000E+00
  0.00000000E+00  0.00000000E+00  0.00000000E+00
  0.00000000E+00  0.00000000E+00  0.00000000E+00
  0.00000000E+00  0.00000000E+00  0.00000000E+00
  0.00000000E+00  0.00000000E+00  0.00000000E+00
  0.00000000E+00  0.00000000E+00  0.00000000E+00
  0.00000000E+00  0.00000000E+00  0.00000000E+00
  0.00000000E+00  0.00000000E+00  0.00000000E+00
  0.00000000E+00  0.00000000E+00  0.00000000E+00
  0.00000000E+00  0.00000000E+00  0.00000000E+00
  0.00000000E+00  0.00000000E+00  0.00000000E+00
  0.00000000E+00  0.00000000E+00  0.00000000E+00
  0.00000000E+00  0.00000000E+00  0.00000000E+00
  0.00000000E+00  0.00000000E+00  0.00000000E+00
  0.00000000E+00  0.00000000E+00  0.00000000E+00
  0.00000000E+00  0.00000000E+00  0.00000000E+00
  0.00000000E+00  0.00000000E+00  0.00000000E+00
  0.00000000E+00  0.00000000E+00  0.00000000E+00
  0.00000000E+00  0.00000000E+00  0.00000000E+00
  0.00000000E+00  0.00000000E+00  0.00000000E+00
  0.00000000E+00  0.00000000E+00  0.00000000E+00
  0.00000000E+00  0.00000000E+00  0.00000000E+00
  0.00000000E+00  0.00000000E+00  0.00000000E+00
  0.00000000E+00  0.00000000E+00  0.00000000E+00
  0.00000000E+00  0.00000000E+00  0.00000000E+00
  0.00000000E+00  0.00000000E+00  0.00000000E+00
  0.00000000E+00  0.00000000E+00  0.00000000E+00
  0.00000000E+00  0.00000000E+00  0.00000000E+00