 N B C 
 1.0
 14.936314146199660   0.000000000000000   0.000000000000000
 -7.468157073099825  12.935227489513863   0.000000000000000
  0.000000000000001   0.000000000000001  13.341276283792837
 N B C 
 141 143   3
Cartesian
  1.244844392364759   0.718966968306504   1.669835114088226 
  4.978727274946741   7.186903874999809   1.658677540925776 
  6.223312680735086   0.718966968306504   1.669835114088226 
  9.957520539101125   7.186320692698507   1.667940526029313 
 11.202235609649760   0.719082341075429   1.668074668631940 
 -3.734078536549866   9.342175373078318   8.337877327306863 
  1.244741894294002   9.342531802061195   8.338485543453251 
  2.489645827466792   2.874898293213999   8.336939146642033 
  6.223415178805820   9.342531802061195   8.338485543453251 
  7.468026971274895   2.874810137863336   8.336866920124976 
 12.446957870258110   2.874753052009125   8.338043867268116 
 -1.244652611845910   9.342249774043477   1.668204039068458 
  0.000130101825042   2.874810137863336   1.669090292719638 
  4.978511245633056   2.874898293213998   1.669018066202608 
  3.734078536549958   9.342612154216511   1.666458596768523 
  8.712809684945732   9.342249774043477   1.668204039068458 
  9.957513349041367   2.874753052009124   1.667913345576525 
 -4.978784588326368  11.498179111185250   8.337276934265638 
 -0.000036276158464  11.498359424616053   8.337776494798595 
  1.244512923745296   5.030369337556528   8.343104359035980 
  6.223644149354615   5.030369337556528   8.343104359035980 
  4.978823849806481  11.498536724449142   8.337715943742905 
 11.202235609649732   5.030536456978846   8.338093013404723 
 -1.244694743043082   5.030536235745682   1.667957660651735 
 -2.489372484773332  11.498179111185250   1.668680278578989 
  2.489333223293464  11.498536724449142   1.668241269101710 
  3.734078536549918   5.030626239919213   1.654481103666663 
  7.468193349258335  11.498359424616053   1.668180718046033 
  8.712851816143051   5.030536235745682   1.667957660651735 
  0.000125935623316   7.186388657691715   8.338529944841300 
  1.244844392364759   0.718966968306505   8.336122098756402 
  4.978727274946742   7.186903874999810   8.347279671918853 
  6.223312680735087   0.718966968306505   8.336122098756402 
  9.957520539101125   7.186320692698508   8.338016686815303 
 -2.489363466001262   7.186320692698507   1.667940526029313 
 11.202235609649760   0.719082341075429   8.337882544212688 
  3.734078536549915   0.718893512580298   1.671715137372653 
  2.489429798153093   7.186903874999809   1.658677540925776 
  7.468031137476506   7.186388657691714   1.667427268003341 
  8.712681391692106   0.719054570489019   1.668548374652408 
  2.489429798153094   7.186903874999810   8.347279671918853 
 13.691789827607369   0.719054570489019   1.668548374652408 
 -1.244652611845910   9.342249774043477   8.337753173776170 
  0.000130101825042   2.874810137863336   8.336866920124976 
  4.978511245633057   2.874898293213999   8.336939146642033 
  3.734078536549958   9.342612154216511   8.339498616076119 
  8.712809684945732   9.342249774043477   8.337753173776170 
  9.957513349041367   2.874753052009125   8.338043867268116 
 -3.734078536549867   9.342175373078318   1.668079885537751 
  1.244741894294002   9.342531802061195   1.667471669391378 
  2.489645827466791   2.874898293213998   1.669018066202608 
  6.223415178805819   9.342531802061195   1.667471669391378 
  7.468026971274894   2.874810137863336   1.669090292719638 
 12.446957870258110   2.874753052009124   1.667913345576525 
 -1.244694743043082   5.030536235745683   8.337999552192880 
 -2.489372484773332  11.498179111185250   8.337276934265638 
  2.489333223293464  11.498536724449142   8.337715943742905 
  3.734078536549918   5.030626239919214   8.351476109177939 
  7.468193349258336  11.498359424616053   8.337776494798595 
 -4.978784588326369  11.498179111185250   1.668680278578989 
  8.712851816143051   5.030536235745683   8.337999552192880 
 -0.000036276158465  11.498359424616053   1.668180718046033 
  1.244512923745295   5.030369337556527   1.662852853808647 
  0.000125935623316   7.186388657691714   1.667427268003341 
  6.223644149354614   5.030369337556527   1.662852853808647 
  4.978823849806480  11.498536724449142   1.668241269101710 
 11.202235609649732   5.030536456978845   1.667864199439890 
 -2.489363466001261   7.186320692698508   8.338016686815303 
  3.734078536549915   0.718893512580299   8.334242075471975 
  7.468031137476506   7.186388657691715   8.338529944841300 
  8.712681391692106   0.719054570489019   8.337408838192205 
 13.691789827607369   0.719054570489019   8.337408838192205 
  0.020372286111783   1.425575644282729   5.002978606422314 
  3.734078536549905   7.977475037030360   5.002978606422314 
  4.953348325563935   1.414324732022902   5.002978606422314 
  8.710817953912942   7.887622471582119   5.002978606422314 
  9.949448705137247   1.436867912296908   5.002978606422314 
 -4.978761582162634  10.060910611930474  11.673616748318732 
 -0.000019461199953  10.060897074751360  11.673616748318732 
  1.244681332009374   3.593201987942138  11.673616748318732 
  4.978786450998238  10.060839510048478  11.673616748318732 
  6.223475741090490   3.593201987942138  11.673616748318732 
 11.202235609649708   3.593305756446367  11.673616748318732 
 -2.489877541012953  10.037534709966202   5.002978606422314 
 -1.209893065065893   3.575775526470277   5.002978606422314 
  2.479742820476410  10.090450907568689   5.002978606422314 
  7.479262518570645  10.066268817569247   5.002978606422314 
  8.678050138165727   3.575775526470277   5.002978606422314 
 -6.223490921627442  12.216741725131650  11.673616748318732 
 -1.244666151472362  12.216741725131650  11.673616748318732 
 -0.000036737818608   5.749143852439681  11.673616748318732 
  4.978786280133563   5.749119190538658  11.673616748318732 
  3.734078536549920  12.216704392951844  11.673616748318732 
  9.957573779578023   5.749189579103510  11.673616748318732 
 -2.487880231547603   5.729343949132603   5.002978606422314 
 -3.734078536549917  12.178856448613173   5.002978606422314 
  1.234131612632876  12.224751078463223   5.002978606422314 
  6.234025460466949  12.224751078463223   5.002978606422314 
  7.469768955795894   5.726512071818636   5.002978606422314 
 -1.244754751302475   7.905028744054272  11.673616748318732 
  0.000001672775066   1.437328606158807  11.673616748318732 
  3.734078536549919   7.904975745908642  11.673616748318732 
  4.978796619967489   1.437308241236642  11.673616748318732 
  8.712911824402223   7.905028744054272  11.673616748318732 
 -3.734078536549911   7.883106773274663   5.002978606422314 
  9.957519442314762   1.437351299603829  11.673616748318732 
  2.514808747535807   1.414324732022902   5.002978606422314 
  1.229926627636100   7.931981605144259   5.002978606422314 
  6.238230445463619   7.931981605144259   5.002978606422314 
  7.447784786988049   1.425575644282729   5.002978606422314 
  1.244641313780000   7.904988723592070  11.673616748318732 
 12.455022514162138   1.436867912296908   5.002978606422314 
 -2.489395490937185  10.060910611930474  11.673616748318732 
 -1.244703392606250   3.593257554236592  11.673616748318732 
  3.734078536549858   3.593171901094949  11.673616748318732 
  2.489370622101601  10.060839510048478  11.673616748318732 
  7.468176534299674  10.060897074751360  11.673616748318732 
  8.712860465706115   3.593257554236592  11.673616748318732 
 -4.978279532086884  10.037534709966202   5.002978606422314 
 -0.011105445470924  10.066268817569247   5.002978606422314 
  1.339344840199314   3.547513301303539   5.002978606422314 
  4.988414252623444  10.090450907568689   5.002978606422314 
  6.128812232900519   3.547513301303539   5.002978606422314 
 11.202235609649680   3.580284482783108   5.002978606422314 
 -2.489416706478174   5.749189579103510  11.673616748318732 
 -3.734078536549894  12.216752559417227  11.673616748318732 
  1.244668267107883  12.216731686938310  11.673616748318732 
  2.489370792966274   5.749119190538658  11.673616748318732 
  6.223488805991975  12.216731686938310  11.673616748318732 
 -6.212565908062944  12.206957441702427   5.002978606422314 
  7.468193810918430   5.749143852439681  11.673616748318732 
 -1.255591165036861  12.206957441702427   5.002978606422314 
 -0.001611882696044   5.726512071818636   5.002978606422314 
 -1.242660880813239   7.887622471582119   5.002978606422314 
  3.734078536549921  12.230685579850883   5.002978606422314 
  9.956037304647424   5.729343949132603   5.002978606422314 
 -3.734078536549903   7.905029252000295  11.673616748318732 
  2.489360453132240   1.437308241236642  11.673616748318732 
  6.223515759319734   7.904988723592070  11.673616748318732 
  7.468155400324753   1.437328606158807  11.673616748318732 
 12.446951776984653   1.437351299603829  11.673616748318732 
  1.257423397758724   0.706079653757062   5.002978606422314 
  4.974276865738494   7.270264889805536   5.002978606422314 
  6.210733675341122   0.706079653757062   5.002978606422314 
  9.955227535203360   7.166799566801444   5.002978606422314 
 11.202235609649744   0.727629678158550   5.002978606422314 
 -3.734078536549850   9.342197767140151  11.673616748318732 
  1.244767124530410   9.341990276154856  11.673616748318732 
  2.489442808697151   2.874857941635767  11.673616748318732 
  6.223389948569415   9.341990276154856  11.673616748318732 
  7.468038503995163   2.874784149292256  11.673616748318732 
 12.446972289766782   2.874717893272821  11.673616748318732 
 -1.243946616116863   9.325836878644566   5.002978606422314 
  0.053782511299407   2.854591300588681   5.002978606422314 
  4.847985190422690   2.836625697289234   5.002978606422314 
  3.734078536549972   9.398847193309866   5.002978606422314 
  8.712103689216701   9.325836878644566   5.002978606422314 
  9.941494556849088   2.869962505558818   5.002978606422314 
 -4.978816114722429  11.498087520444304  11.673616748318732 
  0.000053517655096  11.498002606032532  11.673616748318732 
  1.244946150949908   5.030699154713428  11.673616748318732 
  6.223210922150048   5.030699154713428  11.673616748318732 
  4.978760583693756  11.497903560522138  11.673616748318732 
 11.202235609649732   5.030625574484364  11.673616748318732 
 -1.241709776717743   5.013077481209951   5.002978606422314 
 -2.487780509953678  11.470005980967620   5.002978606422314 
  2.483561881681007  11.519560753662430   5.002978606422314 
  7.475935064824918  11.499819708715920   5.002978606422314 
  8.709866849817681   5.013077481209951   5.002978606422314 
  0.000153770749721   7.186336992453031  11.673616748318732 
  1.244694925024292   0.718806405494574  11.673616748318732 
  4.978679147208677   7.186172001243553  11.673616748318732 
  6.223462148075541   0.718806405494574  11.673616748318732 
  9.957487869423863   7.186405282712998  11.673616748318732 
 -2.487070462103505   7.166799566801444   5.002978606422314 
 11.202235609649760   0.718696965300447  11.673616748318732 
  3.734078536549915   0.664207354535234   5.002978606422314 
  2.493880207361312   7.270264889805536   5.002978606422314 
  7.462217533352598   7.173822695647515   5.002978606422314 
  8.702762180023045   0.720951189013486   5.002978606422314 
  2.489477925891146   7.186172001243553  11.673616748318732 
 13.701709039276430   0.720951189013486   5.002978606422314 
 -1.244613139044969   9.342156256208161  11.673616748318732 
  0.000118569104775   2.874784149292256  11.673616748318732 
  4.978714264402699   2.874857941635767  11.673616748318732 
  3.734078536549980   9.341919116162414  11.673616748318732 
  8.712770212144793   9.342156256208161  11.673616748318732 
  9.957498929532710   2.874717893272821  11.673616748318732 
 -3.734078536549858   9.318707570157992   5.002978606422314 
  1.235262956111799   9.364236858796616   5.002978606422314 
  2.620171882677127   2.836625697289234   5.002978606422314 
  6.232894116988038   9.364236858796616   5.002978606422314 
  7.414374561800500   2.854591300588681   5.002978606422314 
 12.462976662450419   2.869962505558818   5.002978606422314 
 -1.244561799083893   5.030634481304356  11.673616748318732 
 -2.489340958377285  11.498087520444304  11.673616748318732 
  2.489396489406191  11.497903560522138  11.673616748318732 
  3.734078536549926   5.030752826743612  11.673616748318732 
  7.468103555444716  11.498002606032532  11.673616748318732 
 -4.980376563146054  11.470005980967620   5.002978606422314 
  8.712718872183848   5.030634481304356  11.673616748318732 
 -0.007777991725079  11.499819708715920   5.002978606422314 
  1.226688973341010   4.984550266707698   5.002978606422314 
  0.005939539747209   7.173822695647515   5.002978606422314 
  6.241468099758944   4.984550266707698   5.002978606422314 
  4.984595191418923  11.519560753662430   5.002978606422314 
 11.202235609649732   5.014911694343276   5.002978606422314 
 -2.489330796324025   7.186405282712998  11.673616748318732 
  3.734078536549902   0.718866618976611  11.673616748318732 
  7.468003302350132   7.186336992453031  11.673616748318732 
  8.712831708032349   0.718731375914947  11.673616748318732 
 13.691639511267141   0.718731375914947  11.673616748318732 
  0.000021851063903   1.437948996481959   1.668272129536569 
  3.734078536549912   7.904441605585794   1.661559519422869 
  4.978742803204343   1.438270741255452   1.669085843254215 
  8.712333186148449   7.904593403336870   1.667863256901334 
  9.957537594520218   1.437717434959187   1.667714562851888 
 -4.978927526126579  10.060528796622103   8.338303430886373 
  0.000340665890145  10.060682178760247   8.338232954983509 
  1.244947544127410   3.594451952739738   8.338977717771593 
  4.978632854463299  10.060780486465056   8.338630942982341 
  6.223209528972425   3.594451952739738   8.338977717771593 
 11.202235609649694   3.593416952614609   8.338319512593500 
 -2.489229546973227  10.060528796622103   1.667653781958267 
 -1.244572679470702   3.593594887123819   1.667882239248723 
  3.734078536549865   3.595712025905245   1.664857838883471 
  2.489524218636523  10.060780486465056   1.667326269862273 
  7.467816407209544  10.060682178760247   1.667724257861093 
  8.712729752570549   3.593594887123819   1.667882239248723 
 -6.223604647535289  12.216896095930883   8.338027323640485 
 -1.244552425564514  12.216896095930883   8.338027323640485 
  0.000782379730801   5.749028770255507   8.339414461518784 
  4.977961544148834   5.749178974197534   8.340892861454238 
  3.734078536549912  12.216931419500145   8.338201570585566 
  9.957382474129391   5.749037121440345   8.338241091677117 
 -2.489225401029556   5.749037121440344   1.667716121167497 
 -3.734078536549925  12.216703691419378   1.668305454277581 
  1.244766104786764  12.216908487294637   1.667744042086333 
  2.490195528951016   5.749178974197533   1.665064351390389 
  6.223390968313074  12.216908487294637   1.667744042086333 
  7.467374693369035   5.749028770255507   1.666542751325843 
 -1.244176113048702   7.904593403336871   8.338093955943281 
  0.000021851063903   1.437948996481960   8.337685083308045 
  3.734078536549913   7.904441605585795   8.344397693421731 
  4.978742803204343   1.438270741255453   8.336871369590412 
  8.712333186148449   7.904593403336871   8.338093955943281 
 -3.734078536549911   7.904626484031168   1.667669012284041 
  9.957537594520218   1.437717434959188   8.338242649992726 
  2.489414269895384   1.438270741255452   1.669085843254215 
  1.245673717834822   7.904483837931176   1.665276879171935 
  6.222483355264880   7.904483837931176   1.665276879171935 
  7.468135222035928   1.437948996481959   1.668272129536569 
  1.245673717834822   7.904483837931177   8.340680333672680 
 12.446933624779199   1.437717434959187   1.667714562851888 
 -2.489229546973226  10.060528796622103   8.338303430886373 
 -1.244572679470701   3.593594887123820   8.338074973595917 
  3.734078536549865   3.595712025905246   8.341099373961157 
  2.489524218636524  10.060780486465056   8.338630942982341 
  7.467816407209545  10.060682178760247   8.338232954983509 
  8.712729752570549   3.593594887123820   8.338074973595917 
 -4.978927526126580  10.060528796622103   1.667653781958267 
  0.000340665890144  10.060682178760247   1.667724257861093 
  1.244947544127409   3.594451952739738   1.666979495073022 
  4.978632854463298  10.060780486465056   1.667326269862273 
  6.223209528972424   3.594451952739738   1.666979495073022 
 11.202235609649694   3.593416952614608   1.667637700251129 
 -2.489225401029556   5.749037121440345   8.338241091677117 
 -3.734078536549924  12.216703691419378   8.337651758567047 
  1.244766104786765  12.216908487294637   8.338213170758294 
  2.490195528951016   5.749178974197534   8.340892861454238 
  6.223390968313075  12.216908487294637   8.338213170758294 
 -6.223604647535290  12.216896095930883   1.667929889204155 
  7.467374693369035   5.749028770255507   8.339414461518784 
 -1.244552425564515  12.216896095930883   1.667929889204155 
  0.000782379730800   5.749028770255507   1.666542751325843 
 -1.244176113048703   7.904593403336870   1.667863256901334 
  4.977961544148833   5.749178974197533   1.665064351390389 
  3.734078536549911  12.216931419500145   1.667755642259062 
  9.957382474129391   5.749037121440344   1.667716121167497 
 -3.734078536549911   7.904626484031169   8.338288200560587 
  2.489414269895385   1.438270741255453   8.336871369590412 
  6.222483355264881   7.904483837931177   8.340680333672680 
  7.468135222035929   1.437948996481960   8.337685083308045 
 12.446933624779199   1.437717434959188   8.338242649992726 
  2.489252001472689   5.747747470464694   5.002978606422314 
  3.734078536549911   5.397094949397753   5.002978606422314 
  4.978905071627118   5.747747470464694   5.002978606422314 
Generated by cif2cell 2.0.0.  :  Failed to get author information, No journal information. Species order: N B C 
 1.0
 14.936314146199660   0.000000000000000   0.000000000000000
 -7.468157073099825  12.935227489513863   0.000000000000000
  0.000000000000001   0.000000000000001  13.341276283792837
 N B C 
 141 143   3
Cartesian
  1.244844392364759   0.718966968306504   1.669835114088226 
  4.978727274946741   7.186903874999809   1.658677540925776 
  6.223312680735086   0.718966968306504   1.669835114088226 
  9.957520539101125   7.186320692698507   1.667940526029313 
 11.202235609649760   0.719082341075429   1.668074668631940 
 -3.734078536549866   9.342175373078318   8.337877327306863 
  1.244741894294002   9.342531802061195   8.338485543453251 
  2.489645827466792   2.874898293213999   8.336939146642033 
  6.223415178805820   9.342531802061195   8.338485543453251 
  7.468026971274895   2.874810137863336   8.336866920124976 
 12.446957870258110   2.874753052009125   8.338043867268116 
 -1.244652611845910   9.342249774043477   1.668204039068458 
  0.000130101825042   2.874810137863336   1.669090292719638 
  4.978511245633056   2.874898293213998   1.669018066202608 
  3.734078536549958   9.342612154216511   1.666458596768523 
  8.712809684945732   9.342249774043477   1.668204039068458 
  9.957513349041367   2.874753052009124   1.667913345576525 
 -4.978784588326368  11.498179111185250   8.337276934265638 
 -0.000036276158464  11.498359424616053   8.337776494798595 
  1.244512923745296   5.030369337556528   8.343104359035980 
  6.223644149354615   5.030369337556528   8.343104359035980 
  4.978823849806481  11.498536724449142   8.337715943742905 
 11.202235609649732   5.030536456978846   8.338093013404723 
 -1.244694743043082   5.030536235745682   1.667957660651735 
 -2.489372484773332  11.498179111185250   1.668680278578989 
  2.489333223293464  11.498536724449142   1.668241269101710 
  3.734078536549918   5.030626239919213   1.654481103666663 
  7.468193349258335  11.498359424616053   1.668180718046033 
  8.712851816143051   5.030536235745682   1.667957660651735 
  0.000125935623316   7.186388657691715   8.338529944841300 
  1.244844392364759   0.718966968306505   8.336122098756402 
  4.978727274946742   7.186903874999810   8.347279671918853 
  6.223312680735087   0.718966968306505   8.336122098756402 
  9.957520539101125   7.186320692698508   8.338016686815303 
 -2.489363466001262   7.186320692698507   1.667940526029313 
 11.202235609649760   0.719082341075429   8.337882544212688 
  3.734078536549915   0.718893512580298   1.671715137372653 
  2.489429798153093   7.186903874999809   1.658677540925776 
  7.468031137476506   7.186388657691714   1.667427268003341 
  8.712681391692106   0.719054570489019   1.668548374652408 
  2.489429798153094   7.186903874999810   8.347279671918853 
 13.691789827607369   0.719054570489019   1.668548374652408 
 -1.244652611845910   9.342249774043477   8.337753173776170 
  0.000130101825042   2.874810137863336   8.336866920124976 
  4.978511245633057   2.874898293213999   8.336939146642033 
  3.734078536549958   9.342612154216511   8.339498616076119 
  8.712809684945732   9.342249774043477   8.337753173776170 
  9.957513349041367   2.874753052009125   8.338043867268116 
 -3.734078536549867   9.342175373078318   1.668079885537751 
  1.244741894294002   9.342531802061195   1.667471669391378 
  2.489645827466791   2.874898293213998   1.669018066202608 
  6.223415178805819   9.342531802061195   1.667471669391378 
  7.468026971274894   2.874810137863336   1.669090292719638 
 12.446957870258110   2.874753052009124   1.667913345576525 
 -1.244694743043082   5.030536235745683   8.337999552192880 
 -2.489372484773332  11.498179111185250   8.337276934265638 
  2.489333223293464  11.498536724449142   8.337715943742905 
  3.734078536549918   5.030626239919214   8.351476109177939 
  7.468193349258336  11.498359424616053   8.337776494798595 
 -4.978784588326369  11.498179111185250   1.668680278578989 
  8.712851816143051   5.030536235745683   8.337999552192880 
 -0.000036276158465  11.498359424616053   1.668180718046033 
  1.244512923745295   5.030369337556527   1.662852853808647 
  0.000125935623316   7.186388657691714   1.667427268003341 
  6.223644149354614   5.030369337556527   1.662852853808647 
  4.978823849806480  11.498536724449142   1.668241269101710 
 11.202235609649732   5.030536456978845   1.667864199439890 
 -2.489363466001261   7.186320692698508   8.338016686815303 
  3.734078536549915   0.718893512580299   8.334242075471975 
  7.468031137476506   7.186388657691715   8.338529944841300 
  8.712681391692106   0.719054570489019   8.337408838192205 
 13.691789827607369   0.719054570489019   8.337408838192205 
  0.020372286111783   1.425575644282729   5.002978606422314 
  3.734078536549905   7.977475037030360   5.002978606422314 
  4.953348325563935   1.414324732022902   5.002978606422314 
  8.710817953912942   7.887622471582119   5.002978606422314 
  9.949448705137247   1.436867912296908   5.002978606422314 
 -4.978761582162634  10.060910611930474  11.673616748318732 
 -0.000019461199953  10.060897074751360  11.673616748318732 
  1.244681332009374   3.593201987942138  11.673616748318732 
  4.978786450998238  10.060839510048478  11.673616748318732 
  6.223475741090490   3.593201987942138  11.673616748318732 
 11.202235609649708   3.593305756446367  11.673616748318732 
 -2.489877541012953  10.037534709966202   5.002978606422314 
 -1.209893065065893   3.575775526470277   5.002978606422314 
  2.479742820476410  10.090450907568689   5.002978606422314 
  7.479262518570645  10.066268817569247   5.002978606422314 
  8.678050138165727   3.575775526470277   5.002978606422314 
 -6.223490921627442  12.216741725131650  11.673616748318732 
 -1.244666151472362  12.216741725131650  11.673616748318732 
 -0.000036737818608   5.749143852439681  11.673616748318732 
  4.978786280133563   5.749119190538658  11.673616748318732 
  3.734078536549920  12.216704392951844  11.673616748318732 
  9.957573779578023   5.749189579103510  11.673616748318732 
 -2.487880231547603   5.729343949132603   5.002978606422314 
 -3.734078536549917  12.178856448613173   5.002978606422314 
  1.234131612632876  12.224751078463223   5.002978606422314 
  6.234025460466949  12.224751078463223   5.002978606422314 
  7.469768955795894   5.726512071818636   5.002978606422314 
 -1.244754751302475   7.905028744054272  11.673616748318732 
  0.000001672775066   1.437328606158807  11.673616748318732 
  3.734078536549919   7.904975745908642  11.673616748318732 
  4.978796619967489   1.437308241236642  11.673616748318732 
  8.712911824402223   7.905028744054272  11.673616748318732 
 -3.734078536549911   7.883106773274663   5.002978606422314 
  9.957519442314762   1.437351299603829  11.673616748318732 
  2.514808747535807   1.414324732022902   5.002978606422314 
  1.229926627636100   7.931981605144259   5.002978606422314 
  6.238230445463619   7.931981605144259   5.002978606422314 
  7.447784786988049   1.425575644282729   5.002978606422314 
  1.244641313780000   7.904988723592070  11.673616748318732 
 12.455022514162138   1.436867912296908   5.002978606422314 
 -2.489395490937185  10.060910611930474  11.673616748318732 
 -1.244703392606250   3.593257554236592  11.673616748318732 
  3.734078536549858   3.593171901094949  11.673616748318732 
  2.489370622101601  10.060839510048478  11.673616748318732 
  7.468176534299674  10.060897074751360  11.673616748318732 
  8.712860465706115   3.593257554236592  11.673616748318732 
 -4.978279532086884  10.037534709966202   5.002978606422314 
 -0.011105445470924  10.066268817569247   5.002978606422314 
  1.339344840199314   3.547513301303539   5.002978606422314 
  4.988414252623444  10.090450907568689   5.002978606422314 
  6.128812232900519   3.547513301303539   5.002978606422314 
 11.202235609649680   3.580284482783108   5.002978606422314 
 -2.489416706478174   5.749189579103510  11.673616748318732 
 -3.734078536549894  12.216752559417227  11.673616748318732 
  1.244668267107883  12.216731686938310  11.673616748318732 
  2.489370792966274   5.749119190538658  11.673616748318732 
  6.223488805991975  12.216731686938310  11.673616748318732 
 -6.212565908062944  12.206957441702427   5.002978606422314 
  7.468193810918430   5.749143852439681  11.673616748318732 
 -1.255591165036861  12.206957441702427   5.002978606422314 
 -0.001611882696044   5.726512071818636   5.002978606422314 
 -1.242660880813239   7.887622471582119   5.002978606422314 
  3.734078536549921  12.230685579850883   5.002978606422314 
  9.956037304647424   5.729343949132603   5.002978606422314 
 -3.734078536549903   7.905029252000295  11.673616748318732 
  2.489360453132240   1.437308241236642  11.673616748318732 
  6.223515759319734   7.904988723592070  11.673616748318732 
  7.468155400324753   1.437328606158807  11.673616748318732 
 12.446951776984653   1.437351299603829  11.673616748318732 
  1.257423397758724   0.706079653757062   5.002978606422314 
  4.974276865738494   7.270264889805536   5.002978606422314 
  6.210733675341122   0.706079653757062   5.002978606422314 
  9.955227535203360   7.166799566801444   5.002978606422314 
 11.202235609649744   0.727629678158550   5.002978606422314 
 -3.734078536549850   9.342197767140151  11.673616748318732 
  1.244767124530410   9.341990276154856  11.673616748318732 
  2.489442808697151   2.874857941635767  11.673616748318732 
  6.223389948569415   9.341990276154856  11.673616748318732 
  7.468038503995163   2.874784149292256  11.673616748318732 
 12.446972289766782   2.874717893272821  11.673616748318732 
 -1.243946616116863   9.325836878644566   5.002978606422314 
  0.053782511299407   2.854591300588681   5.002978606422314 
  4.847985190422690   2.836625697289234   5.002978606422314 
  3.734078536549972   9.398847193309866   5.002978606422314 
  8.712103689216701   9.325836878644566   5.002978606422314 
  9.941494556849088   2.869962505558818   5.002978606422314 
 -4.978816114722429  11.498087520444304  11.673616748318732 
  0.000053517655096  11.498002606032532  11.673616748318732 
  1.244946150949908   5.030699154713428  11.673616748318732 
  6.223210922150048   5.030699154713428  11.673616748318732 
  4.978760583693756  11.497903560522138  11.673616748318732 
 11.202235609649732   5.030625574484364  11.673616748318732 
 -1.241709776717743   5.013077481209951   5.002978606422314 
 -2.487780509953678  11.470005980967620   5.002978606422314 
  2.483561881681007  11.519560753662430   5.002978606422314 
  7.475935064824918  11.499819708715920   5.002978606422314 
  8.709866849817681   5.013077481209951   5.002978606422314 
  0.000153770749721   7.186336992453031  11.673616748318732 
  1.244694925024292   0.718806405494574  11.673616748318732 
  4.978679147208677   7.186172001243553  11.673616748318732 
  6.223462148075541   0.718806405494574  11.673616748318732 
  9.957487869423863   7.186405282712998  11.673616748318732 
 -2.487070462103505   7.166799566801444   5.002978606422314 
 11.202235609649760   0.718696965300447  11.673616748318732 
  3.734078536549915   0.664207354535234   5.002978606422314 
  2.493880207361312   7.270264889805536   5.002978606422314 
  7.462217533352598   7.173822695647515   5.002978606422314 
  8.702762180023045   0.720951189013486   5.002978606422314 
  2.489477925891146   7.186172001243553  11.673616748318732 
 13.701709039276430   0.720951189013486   5.002978606422314 
 -1.244613139044969   9.342156256208161  11.673616748318732 
  0.000118569104775   2.874784149292256  11.673616748318732 
  4.978714264402699   2.874857941635767  11.673616748318732 
  3.734078536549980   9.341919116162414  11.673616748318732 
  8.712770212144793   9.342156256208161  11.673616748318732 
  9.957498929532710   2.874717893272821  11.673616748318732 
 -3.734078536549858   9.318707570157992   5.002978606422314 
  1.235262956111799   9.364236858796616   5.002978606422314 
  2.620171882677127   2.836625697289234   5.002978606422314 
  6.232894116988038   9.364236858796616   5.002978606422314 
  7.414374561800500   2.854591300588681   5.002978606422314 
 12.462976662450419   2.869962505558818   5.002978606422314 
 -1.244561799083893   5.030634481304356  11.673616748318732 