B N As                                  
   1.0000000000000000     
     8.7639499999999995  -15.1796066749929999    0.0000000000000000
     8.7639499999999995   15.1796066749929999    0.0000000000000000
     0.0000000000000000    0.0000000000000000   15.0000000000000000
   B    N    As
    48    48     1
Selective dynamics
Direct
  0.9055730213010117  0.9539991047957964  0.1110288040287526   T   T   T
  0.9038860860466376  0.0961159351493512  0.1110471644836389   T   T   T
  0.9033133957482038  0.2388596897378910  0.1110318144865482   T   T   T
  0.9034244949297304  0.3816518417157558  0.1109621428940829   T   T   T
  0.9048262099953318  0.5245895385958761  0.1109362856778749   T   T   T
  0.9070246545695286  0.6681254058164638  0.1110406345856519   T   T   T
  0.9079490394352390  0.8123507248396306  0.1110222006197011   T   T   T
  0.0477940100431416  0.9522080111528617  0.1110169826489886   T   T   T
  0.0460029164002071  0.0944289998949849  0.1110288040287526   T   T   T
  0.0455760529632621  0.2377184630432425  0.1110337208138298   T   T   T
  0.0461515864640161  0.3808954991044525  0.1110057379156624   T   T   T
  0.0476078875971414  0.5237483672765428  0.1109959346762845   T   T   T
  0.0487534821420556  0.6666805338292966  0.1110527672715862   T   T   T
  0.0488811743594037  0.8096944837549265  0.1110387038887302   T   T   T
  0.1903075374410750  0.9511208468365953  0.1110387038887302   T   T   T
  0.1876512963563773  0.0920529817607574  0.1110222006197011   T   T   T
  0.1863831809495452  0.2348074310436725  0.1109652748357039   T   T   T
  0.1879913866552878  0.3795446616134054  0.1110324595097033   T   T   T
  0.1906761509964469  0.5228738389876562  0.1111026283717927   T   T   T
  0.1915326507065010  0.6658939278139951  0.1110898937090407   T   T   T
  0.1912513293848036  0.8087506918111972  0.1110274246866577   T   T   T
  0.3333214873676931  0.9512485390539506  0.1110527672715862   T   T   T
  0.3318766153805362  0.0929773666264738  0.1110406345856519   T   T   T
  0.3266855314789378  0.2309266837057431  0.1108977043261517   T   T   T
  0.3263788547230620  0.3751598010874965  0.1109085225890942   T   T   T
  0.3343234691924302  0.5210968388459594  0.1110912215747176   T   T   T
  0.3349343061563713  0.6650677150406279  0.1111680855593068   T   T   T
  0.3341080933830048  0.8084693704895139  0.1110898937090407   T   T   T
  0.4762536539204580  0.9523941335988603  0.1109959346762845   T   T   T
  0.4754124826011226  0.0951758112006606  0.1109362856778749   T   T   T
  0.4737404798725059  0.2373281300944130  0.1109020737775900   T   T   T
  0.4628135605526418  0.3712843669945225  0.1112618760818377   T   T   T
  0.4789051823510357  0.6656785520045700  0.1110912215747176   T   T   T
  0.4771281822093431  0.8093258701995492  0.1111026283717927   T   T   T
  0.6191065220915584  0.9538504347319792  0.1110057379156624   T   T   T
  0.6183501794802491  0.0965775262662643  0.1109621428940829   T   T   T
  0.6175467252875186  0.2397483115657750  0.1110330676295738   T   T   T
  0.6162827006058069  0.3837193205901965  0.1109753068962233   T   T   T
  0.6287176542014793  0.5371884606443623  0.1112618760818377   T   T   T
  0.6248422201085069  0.6736231664739379  0.1109085225890942   T   T   T
  0.6204573595825941  0.8120106345407172  0.1110324595097033   T   T   T
  0.7622835581527692  0.9544259682327387  0.1110337208138298   T   T   T
  0.7611423314581115  0.0966886254478025  0.1110318144865482   T   T   T
  0.7605538468197426  0.2394481743762664  0.1110306453626276   T   T   T
  0.7602537096302350  0.3824552959084861  0.1110330676295738   T   T   T
  0.7626738911015883  0.5262615413244890  0.1109020737775900   T   T   T
  0.7690753374902585  0.6733164897180643  0.1108977043261517   T   T   T
  0.7651945901523286  0.8136188402464588  0.1109652748357039   T   T   T
  0.9536275674058009  0.9065558665439889  0.1109945905521457   T   T   T
  0.9515712521459355  0.0484301497720708  0.1110212725620712   T   T   T
  0.9507151646719478  0.1909879229477525  0.1110294009755619   T   T   T
  0.9508836875188469  0.3338977542808956  0.1109436334789482   T   T   T
  0.9521063435012472  0.4767441173265494  0.1108972352010448   T   T   T
  0.9536403470523621  0.6197293812593455  0.1110086356730325   T   T   T
  0.9542464916106157  0.7632084776500007  0.1110373025884692   T   T   T
  0.0955312820539904  0.9044701198640048  0.1109884971351660   T   T   T
  0.0934455353740102  0.0463738345122058  0.1109945905521457   T   T   T
  0.0920814039219216  0.1889108904068341  0.1110066152882249   T   T   T
  0.0929107783639597  0.3327070643746705  0.1110184967052485   T   T   T
  0.0949398450496126  0.4759929297570922  0.1110157911296522   T   T   T
  0.0960917668258311  0.6188748569411265  0.1110304050538250   T   T   T
  0.0962254506795718  0.7617363663470110  0.1110080854696171   T   T   T
  0.2382650355709914  0.9037759512384244  0.1110080854696171   T   T   T
  0.2367929242680066  0.0457549103073896  0.1110373025884692   T   T   T
  0.2328283357435749  0.1857576738018919  0.1109498646506232   T   T   T
  0.2323539303926450  0.3291172402308117  0.1109299514748625   T   T   T
  0.2375730736410339  0.4747592087028629  0.1110828594014578   T   T   T
  0.2391262775651420  0.6182110151304301  0.1111241247029131   T   T   T
  0.2388836757106651  0.7611177262073409  0.1110611396101313   T   T   T
  0.3811265449768686  0.9039096350921693  0.1110304050538250   T   T   T
  0.3802720206586599  0.0463610548656454  0.1110086356730325   T   T   T
  0.3782797897371654  0.1875566251989210  0.1109511218995931   T   T   T
  0.3706737726984867  0.3235837540162727  0.1107976292825483   T   T   T
  0.3763326037215373  0.4685764175775557  0.1109300863643029   T   T   T
  0.3827146031516919  0.6172867987663041  0.1111448699246930   T   T   T
  0.3817903867875662  0.7608751243528667  0.1111241247029131   T   T   T
  0.5240084721599048  0.9050615568683822  0.1110157911296522   T   T   T
  0.5232572845904472  0.0478950584167590  0.1108972352010447   T   T   T
  0.5222969678173639  0.1906731278378854  0.1108654704433677   T   T   T
  0.5198297377151235  0.3333183771786806  0.1109548010568434   T   T   T
  0.5314249843394416  0.6236687981964582  0.1109300863643031   T   T   T
  0.5252421932141351  0.7624283282769730  0.1110828594014578   T   T   T
  0.6672943375423254  0.9070906235540426  0.1110184967052485   T   T   T
  0.6661036476360991  0.0491177143991606  0.1109436334789482   T   T   T
  0.6653608721070894  0.1920365063001082  0.1110280555984179   T   T   T
  0.6644099378634103  0.3355914640535853  0.1109865195013325   T   T   T
  0.6666830247383091  0.4801716642018743  0.1109548010568434   T   T   T
  0.6764176479007222  0.6293276292195185  0.1107976292825483   T   T   T
  0.6708841616861809  0.7676474715253601  0.1109299514748625   T   T   T
  0.8110905115111651  0.9079199979960776  0.1110066152882249   T   T   T
  0.8090134789702490  0.0492862372460547  0.1110294009755619   T   T   T
  0.8082305992618088  0.1917708026561898  0.1109897101514306   T   T   T
  0.8079648956178895  0.3346405298099068  0.1110280555984179   T   T   T
  0.8093282740801123  0.4777044340996322  0.1108654704433677   T   T   T
  0.8124447767190791  0.6217216121808349  0.1109511218995928   T   T   T
  0.8142437281161062  0.7671730661744302  0.1109498646506232   T   T   T
  0.5007938728945258  0.4992081483024740  0.1124112826464916   T   T   T

  0.00000000E+00  0.00000000E+00  0.00000000E+00
  0.00000000E+00  0.00000000E+00  0.00000000E+00
  0.00000000E+00  0.00000000E+00  0.00000000E+00
  0.00000000E+00  0.00000000E+00  0.00000000E+00
  0.00000000E+00  0.00000000E+00  0.00000000E+00
  0.00000000E+00  0.00000000E+00  0.00000000E+00
  0.00000000E+00  0.00000000E+00  0.00000000E+00
  0.00000000E+00  0.00000000E+00  0.00000000E+00
  0.00000000E+00  0.00000000E+00  0.00000000E+00
  0.00000000E+00  0.00000000E+00  0.00000000E+00
  0.00000000E+00  0.00000000E+00  0.00000000E+00
  0.00000000E+00  0.00000000E+00  0.00000000E+00
  0.00000000E+00  0.00000000E+00  0.00000000E+00
  0.00000000E+00  0.00000000E+00  0.00000000E+00
  0.00000000E+00  0.00000000E+00  0.00000000E+00
  0.00000000E+00  0.00000000E+00  0.00000000E+00
  0.00000000E+00  0.00000000E+00  0.00000000E+00
  0.00000000E+00  0.00000000E+00  0.00000000E+00
  0.00000000E+00  0.00000000E+00  0.00000000E+00
  0.00000000E+00  0.00000000E+00  0.00000000E+00
  0.00000000E+00  0.00000000E+00  0.00000000E+00
  0.00000000E+00  0.00000000E+00  0.00000000E+00
  0.00000000E+00  0.00000000E+00  0.00000000E+00
  0.00000000E+00  0.00000000E+00  0.00000000E+00
  0.00000000E+00  0.00000000E+00  0.00000000E+00
  0.00000000E+00  0.00000000E+00  0.00000000E+00
  0.00000000E+00  0.00000000E+00  0.00000000E+00
  0.00000000E+00  0.00000000E+00  0.00000000E+00
  0.00000000E+00  0.00000000E+00  0.00000000E+00
  0.00000000E+00  0.00000000E+00  0.00000000E+00
  0.00000000E+00  0.00000000E+00  0.00000000E+00
  0.00000000E+00  0.00000000E+00  0.00000000E+00
  0.00000000E+00  0.00000000E+00  0.00000000E+00
  0.00000000E+00  0.00000000E+00  0.00000000E+00
  0.00000000E+00  0.00000000E+00  0.00000000E+00
  0.00000000E+00  0.00000000E+00  0.00000000E+00
  0.00000000E+00  0.00000000E+00  0.00000000E+00
  0.00000000E+00  0.00000000E+00  0.00000000E+00
  0.00000000E+00  0.00000000E+00  0.00000000E+00
  0.00000000E+00  0.00000000E+00  0.00000000E+00
  0.00000000E+00  0.00000000E+00  0.00000000E+00
  0.00000000E+00  0.00000000E+00  0.00000000E+00
  0.00000000E+00  0.00000000E+00  0.00000000E+00
  0.00000000E+00  0.00000000E+00  0.00000000E+00
  0.00000000E+00  0.00000000E+00  0.00000000E+00
  0.00000000E+00  0.00000000E+00  0.00000000E+00
  0.00000000E+00  0.00000000E+00  0.00000000E+00
  0.00000000E+00  0.00000000E+00  0.00000000E+00
  0.00000000E+00  0.00000000E+00  0.00000000E+00
  0.00000000E+00  0.00000000E+00  0.00000000E+00
  0.00000000E+00  0.00000000E+00  0.00000000E+00
  0.00000000E+00  0.00000000E+00  0.00000000E+00
  0.00000000E+00  0.00000000E+00  0.00000000E+00
  0.00000000E+00  0.00000000E+00  0.00000000E+00
  0.00000000E+00  0.00000000E+00  0.00000000E+00
  0.00000000E+00  0.00000000E+00  0.00000000E+00
  0.00000000E+00  0.00000000E+00  0.00000000E+00
  0.00000000E+00  0.00000000E+00  0.00000000E+00
  0.00000000E+00  0.00000000E+00  0.00000000E+00
  0.00000000E+00  0.00000000E+00  0.00000000E+00
  0.00000000E+00  0.00000000E+00  0.00000000E+00
  0.00000000E+00  0.00000000E+00  0.00000000E+00
  0.00000000E+00  0.00000000E+00  0.00000000E+00
  0.00000000E+00  0.00000000E+00  0.00000000E+00
  0.00000000E+00  0.00000000E+00  0.00000000E+00
  0.00000000E+00  0.00000000E+00  0.00000000E+00
  0.00000000E+00  0.00000000E+00  0.00000000E+00
  0.00000000E+00  0.00000000E+00  0.00000000E+00
  0.00000000E+00  0.00000000E+00  0.00000000E+00
  0.00000000E+00  0.00000000E+00  0.00000000E+00
  0.00000000E+00  0.00000000E+00  0.00000000E+00
  0.00000000E+00  0.00000000E+00  0.00000000E+00
  0.00000000E+00  0.00000000E+00  0.00000000E+00
  0.00000000E+00  0.00000000E+00  0.00000000E+00
  0.00000000E+00  0.00000000E+00  0.00000000E+00
  0.00000000E+00  0.00000000E+00  0.00000000E+00
  0.00000000E+00  0.00000000E+00  0.00000000E+00
  0.00000000E+00  0.00000000E+00  0.00000000E+00
  0.00000000E+00  0.00000000E+00  0.00000000E+00
  0.00000000E+00  0.00000000E+00  0.00000000E+00
  0.00000000E+00  0.00000000E+00  0.00000000E+00
  0.00000000E+00  0.00000000E+00  0.00000000E+00
  0.00000000E+00  0.00000000E+00  0.00000000E+00
  0.00000000E+00  0.00000000E+00  0.00000000E+00
  0.00000000E+00  0.00000000E+00  0.00000000E+00
  0.00000000E+00  0.00000000E+00  0.00000000E+00
  0.00000000E+00  0.00000000E+00  0.00000000E+00
  0.00000000E+00  0.00000000E+00  0.00000000E+00
  0.00000000E+00  0.00000000E+00  0.00000000E+00
  0.00000000E+00  0.00000000E+00  0.00000000E+00
  0.00000000E+00  0.00000000E+00  0.00000000E+00
  0.00000000E+00  0.00000000E+00  0.00000000E+00
  0.00000000E+00  0.00000000E+00  0.00000000E+00
  0.00000000E+00  0.00000000E+00  0.00000000E+00
  0.00000000E+00  0.00000000E+00  0.00000000E+00
  0.00000000E+00  0.00000000E+00  0.00000000E+00
  0.00000000E+00  0.00000000E+00  0.00000000E+00
