B N P                                   
   1.0000000000000000     
     8.7639499999999995  -15.1796066749929999    0.0000000000000000
     8.7639499999999995   15.1796066749929999    0.0000000000000000
     0.0000000000000000    0.0000000000000000   15.0000000000000000
   B    N    P 
    48    48     1
Selective dynamics
Direct
  0.9056707478059182  0.9532036737108464  0.1110007844939328   T   T   T
  0.9043901621532250  0.0956117845169356  0.1110343889794118   T   T   T
  0.9039098641786324  0.2384323350568699  0.1110444611841232   T   T   T
  0.9038029698706205  0.3811917867643512  0.1109789164901443   T   T   T
  0.9043590306771369  0.5238629169408809  0.1109913556639367   T   T   T
  0.9063222388996632  0.6670651343635615  0.1110592580457199   T   T   T
  0.9074197539789950  0.8111934567542056  0.1110356691657322   T   T   T
  0.0481911886562073  0.9518103948479132  0.1110159397310469   T   T   T
  0.0467977377465980  0.0943307121716685  0.1110104068512669   T   T   T
  0.0465116014201925  0.2374909259882709  0.1109979626990409   T   T   T
  0.0470643356921720  0.3804505504750201  0.1109964436674729   T   T   T
  0.0482444953322908  0.5230726518811385  0.1109732762432760   T   T   T
  0.0489207979100371  0.6658998166716191  0.1110256388519655   T   T   T
  0.0489937919697473  0.8090029354853583  0.1110612414289917   T   T   T
  0.1909990262414292  0.9510077889893841  0.1110556666686493   T   T   T
  0.1888077018615142  0.0925819244972143  0.1110426585884829   T   T   T
  0.1879987572992148  0.2354908227404890  0.1110039440499516   T   T   T
  0.1894994443241090  0.3792923978282111  0.1109886904334099   T   T   T
  0.1923561580834306  0.5220757506819378  0.1109912881026678   T   T   T
  0.1923429664153294  0.6650361966143578  0.1109840238092170   T   T   T
  0.1918424707995315  0.8081596187137411  0.1110058104017686   T   T   T
  0.3341025268741409  0.9510814936145646  0.1110188112835498   T   T   T
  0.3329357896933105  0.0936798023776736  0.1110659558817547   T   T   T
  0.3287956017751069  0.2329488574174349  0.1109858342758264   T   T   T
  0.3293137084863232  0.3764421463997545  0.1110019549555397   T   T   T
  0.3375355795552386  0.5199689323266179  0.1110709892597425   T   T   T
  0.3361691957979298  0.6638329979295062  0.1110040068506511   T   T   T
  0.3349659042088121  0.8076591982006948  0.1109791992633140   T   T   T
  0.4769296238488900  0.9517577051131055  0.1109676716222763   T   T   T
  0.4761388419228675  0.0956427272848033  0.1109976002021475   T   T   T
  0.4747847980314674  0.2395218220971118  0.1110731370718196   T   T   T
  0.4660530857472436  0.3784061341490900  0.1111492309212554   T   T   T
  0.4800320413625227  0.6624658511698777  0.1110689982025244   T   T   T
  0.4779263309976827  0.8076461977022701  0.1109869936882018   T   T   T
  0.6195513569182794  0.9529377346652878  0.1109896433466895   T   T   T
  0.6188102767046644  0.0961989014940521  0.1109794123771818   T   T   T
  0.6179243335870696  0.2399227355074070  0.1110777973628247   T   T   T
  0.6159650397658374  0.3840389824192760  0.1111395296758796   T   T   T
  0.6215954269429704  0.5339484079935776  0.1111287876793711   T   T   T
  0.6235584216589265  0.6706870949888684  0.1109827644180219   T   T   T
  0.6207097989431064  0.8105034275700945  0.1109817545434242   T   T   T
  0.7625109096207993  0.9534901984158419  0.1109832570318593   T   T   T
  0.7615695407184349  0.0960913702502550  0.1110430798591951   T   T   T
  0.7609114809099240  0.2390900467002966  0.1110881390878314   T   T   T
  0.7600793667543416  0.3820776971397699  0.1110700873945267   T   T   T
  0.7604798825040270  0.5252174321762262  0.1110475726346380   T   T   T
  0.7670505875792623  0.6712082110523232  0.1109572868335269   T   T   T
  0.7645094125978719  0.8120022260926277  0.1109848376835865   T   T   T
  0.9538171365034508  0.9058099494808576  0.1109941694403334   T   T   T
  0.9520821308709970  0.0479193679287684  0.1110023217992666   T   T   T
  0.9513538888039167  0.1905699629544729  0.1110186007460761   T   T   T
  0.9515167660854694  0.3334975427645450  0.1109829090196850   T   T   T
  0.9524178489862659  0.4762744129863810  0.1109366121882903   T   T   T
  0.9536844536340598  0.6190756800724897  0.1110179422323153   T   T   T
  0.9542715647963775  0.7624485707462526  0.1110524682511801   T   T   T
  0.0959913751476566  0.9040103292424160  0.1110257087899534   T   T   T
  0.0941916650877433  0.0461843263206944  0.1109977816266293   T   T   T
  0.0931069938836688  0.1888726760151950  0.1109840898178310   T   T   T
  0.0938990694591736  0.3324033884003572  0.1109718530543329   T   T   T
  0.0960306325184090  0.4755066125888566  0.1109688734092858   T   T   T
  0.0966537213898992  0.6182489186258073  0.1109739036049224   T   T   T
  0.0966282745019288  0.7611282201082598  0.1110210375538572   T   T   T
  0.2388738142178007  0.9033740108537346  0.1110149967248705   T   T   T
  0.2375535238342303  0.0457305056126840  0.1110492321441598   T   T   T
  0.2342034036699182  0.1863300847185558  0.1110000840120176   T   T   T
  0.2342066280127300  0.3297116828850644  0.1109822393722255   T   T   T
  0.2397217102695058  0.4742584894780244  0.1109857151938384   T   T   T
  0.2400914493363358  0.6174308254290553  0.1109760493177896   T   T   T
  0.2395593051372140  0.7604429456042183  0.1109668710884388   T   T   T
  0.3817532726279684  0.9033482034978946  0.1109663438301107   T   T   T
  0.3809265429244104  0.0463169686509265  0.1110153283104202   T   T   T
  0.3792045932710939  0.1881291422033875  0.1110318593713577   T   T   T
  0.3727108770669876  0.3252177551117111  0.1109041850734718   T   T   T
  0.3817295959356550  0.4696266212075851  0.1111011936890158   T   T   T
  0.3838121099841634  0.6161909655611228  0.1110503680809734   T   T   T
  0.3825700147706048  0.7599105239509556  0.1109719551455527   T   T   T
  0.5244961557000231  0.9039724421832233  0.1109623134851114   T   T   T
  0.5237281989407220  0.0475846749095182  0.1109358539042450   T   T   T
  0.5227681616992803  0.1912358760318902  0.1110336524424892   T   T   T
  0.5204327355787982  0.3350979139023147  0.1111137378555089   T   T   T
  0.5303724084457360  0.6182678565785147  0.1110904827999532   T   T   T
  0.5257428880947934  0.7602807356230797  0.1109864740171914   T   T   T
  0.6675976677258001  0.9061022834976948  0.1109611863882101   T   T   T
  0.6665046449631838  0.0484841461358530  0.1109799142598083   T   T   T
  0.6657498350695386  0.1916778567202598  0.1110279600254780   T   T   T
  0.6646567159288519  0.3353442733265062  0.1111003369421029   T   T   T
  0.6649038125210117  0.4795682823961461  0.1110985680704453   T   T   T
  0.6747830561179382  0.6272906387803965  0.1108734218659529   T   T   T
  0.6702901644505341  0.7657963038158987  0.1109664965606262   T   T   T
  0.8111287230621023  0.9068941836207994  0.1109665926729598   T   T   T
  0.8094315582723793  0.0486476389891938  0.1110095541595682   T   T   T
  0.8087023316958812  0.1912988212692896  0.1110697918191086   T   T   T
  0.8083236788293598  0.3342523889867280  0.1110254553378552   T   T   T
  0.8087660903697458  0.4772339653631535  0.1110144060385196   T   T   T
  0.8118713126468917  0.6207976819628787  0.1110014456465435   T   T   T
  0.8136709340143383  0.7657975938488816  0.1109778875314472   T   T   T
  0.5020551122383969  0.4979469085931240  0.1116534626512607   T   T   T

  0.00000000E+00  0.00000000E+00  0.00000000E+00
  0.00000000E+00  0.00000000E+00  0.00000000E+00
  0.00000000E+00  0.00000000E+00  0.00000000E+00
  0.00000000E+00  0.00000000E+00  0.00000000E+00
  0.00000000E+00  0.00000000E+00  0.00000000E+00
  0.00000000E+00  0.00000000E+00  0.00000000E+00
  0.00000000E+00  0.00000000E+00  0.00000000E+00
  0.00000000E+00  0.00000000E+00  0.00000000E+00
  0.00000000E+00  0.00000000E+00  0.00000000E+00
  0.00000000E+00  0.00000000E+00  0.00000000E+00
  0.00000000E+00  0.00000000E+00  0.00000000E+00
  0.00000000E+00  0.00000000E+00  0.00000000E+00
  0.00000000E+00  0.00000000E+00  0.00000000E+00
  0.00000000E+00  0.00000000E+00  0.00000000E+00
  0.00000000E+00  0.00000000E+00  0.00000000E+00
  0.00000000E+00  0.00000000E+00  0.00000000E+00
  0.00000000E+00  0.00000000E+00  0.00000000E+00
  0.00000000E+00  0.00000000E+00  0.00000000E+00
  0.00000000E+00  0.00000000E+00  0.00000000E+00
  0.00000000E+00  0.00000000E+00  0.00000000E+00
  0.00000000E+00  0.00000000E+00  0.00000000E+00
  0.00000000E+00  0.00000000E+00  0.00000000E+00
  0.00000000E+00  0.00000000E+00  0.00000000E+00
  0.00000000E+00  0.00000000E+00  0.00000000E+00
  0.00000000E+00  0.00000000E+00  0.00000000E+00
  0.00000000E+00  0.00000000E+00  0.00000000E+00
  0.00000000E+00  0.00000000E+00  0.00000000E+00
  0.00000000E+00  0.00000000E+00  0.00000000E+00
  0.00000000E+00  0.00000000E+00  0.00000000E+00
  0.00000000E+00  0.00000000E+00  0.00000000E+00
  0.00000000E+00  0.00000000E+00  0.00000000E+00
  0.00000000E+00  0.00000000E+00  0.00000000E+00
  0.00000000E+00  0.00000000E+00  0.00000000E+00
  0.00000000E+00  0.00000000E+00  0.00000000E+00
  0.00000000E+00  0.00000000E+00  0.00000000E+00
  0.00000000E+00  0.00000000E+00  0.00000000E+00
  0.00000000E+00  0.00000000E+00  0.00000000E+00
  0.00000000E+00  0.00000000E+00  0.00000000E+00
  0.00000000E+00  0.00000000E+00  0.00000000E+00
  0.00000000E+00  0.00000000E+00  0.00000000E+00
  0.00000000E+00  0.00000000E+00  0.00000000E+00
  0.00000000E+00  0.00000000E+00  0.00000000E+00
  0.00000000E+00  0.00000000E+00  0.00000000E+00
  0.00000000E+00  0.00000000E+00  0.00000000E+00
  0.00000000E+00  0.00000000E+00  0.00000000E+00
  0.00000000E+00  0.00000000E+00  0.00000000E+00
  0.00000000E+00  0.00000000E+00  0.00000000E+00
  0.00000000E+00  0.00000000E+00  0.00000000E+00
  0.00000000E+00  0.00000000E+00  0.00000000E+00
  0.00000000E+00  0.00000000E+00  0.00000000E+00
  0.00000000E+00  0.00000000E+00  0.00000000E+00
  0.00000000E+00  0.00000000E+00  0.00000000E+00
  0.00000000E+00  0.00000000E+00  0.00000000E+00
  0.00000000E+00  0.00000000E+00  0.00000000E+00
  0.00000000E+00  0.00000000E+00  0.00000000E+00
  0.00000000E+00  0.00000000E+00  0.00000000E+00
  0.00000000E+00  0.00000000E+00  0.00000000E+00
  0.00000000E+00  0.00000000E+00  0.00000000E+00
  0.00000000E+00  0.00000000E+00  0.00000000E+00
  0.00000000E+00  0.00000000E+00  0.00000000E+00
  0.00000000E+00  0.00000000E+00  0.00000000E+00
  0.00000000E+00  0.00000000E+00  0.00000000E+00
  0.00000000E+00  0.00000000E+00  0.00000000E+00
  0.00000000E+00  0.00000000E+00  0.00000000E+00
  0.00000000E+00  0.00000000E+00  0.00000000E+00
  0.00000000E+00  0.00000000E+00  0.00000000E+00
  0.00000000E+00  0.00000000E+00  0.00000000E+00
  0.00000000E+00  0.00000000E+00  0.00000000E+00
  0.00000000E+00  0.00000000E+00  0.00000000E+00
  0.00000000E+00  0.00000000E+00  0.00000000E+00
  0.00000000E+00  0.00000000E+00  0.00000000E+00
  0.00000000E+00  0.00000000E+00  0.00000000E+00
  0.00000000E+00  0.00000000E+00  0.00000000E+00
  0.00000000E+00  0.00000000E+00  0.00000000E+00
  0.00000000E+00  0.00000000E+00  0.00000000E+00
  0.00000000E+00  0.00000000E+00  0.00000000E+00
  0.00000000E+00  0.00000000E+00  0.00000000E+00
  0.00000000E+00  0.00000000E+00  0.00000000E+00
  0.00000000E+00  0.00000000E+00  0.00000000E+00
  0.00000000E+00  0.00000000E+00  0.00000000E+00
  0.00000000E+00  0.00000000E+00  0.00000000E+00
  0.00000000E+00  0.00000000E+00  0.00000000E+00
  0.00000000E+00  0.00000000E+00  0.00000000E+00
  0.00000000E+00  0.00000000E+00  0.00000000E+00
  0.00000000E+00  0.00000000E+00  0.00000000E+00
  0.00000000E+00  0.00000000E+00  0.00000000E+00
  0.00000000E+00  0.00000000E+00  0.00000000E+00
  0.00000000E+00  0.00000000E+00  0.00000000E+00
  0.00000000E+00  0.00000000E+00  0.00000000E+00
  0.00000000E+00  0.00000000E+00  0.00000000E+00
  0.00000000E+00  0.00000000E+00  0.00000000E+00
  0.00000000E+00  0.00000000E+00  0.00000000E+00
  0.00000000E+00  0.00000000E+00  0.00000000E+00
  0.00000000E+00  0.00000000E+00  0.00000000E+00
  0.00000000E+00  0.00000000E+00  0.00000000E+00
  0.00000000E+00  0.00000000E+00  0.00000000E+00
  0.00000000E+00  0.00000000E+00  0.00000000E+00
