Species order: X N B                    
   2.51242800000000     
     5.9449720136058266    0.0000000000000000    0.0000000000000000
    -2.9724860068029120    5.1484967885702053   -0.0000000000000001
     0.0000000000000000    0.0000000000000009    5.3101128803662583
   Ge   N    B 
     1   143   144
Direct
  0.5555555555555571  0.4444444444444429  0.3750000000000000
  0.1111126808235695  0.0555392991488627  0.1252274797868730
  0.6111308387039022  0.5555950107411338  0.1254895538135092
  0.4444273712795324  0.0555351042627725  0.1253277318294565
  0.9444648957372280  0.5555726287204683  0.1253277318294565
  0.7777694696761794  0.0555514015047575  0.1251669167651195
  0.1111231711180675  0.7222282522256981  0.6248008783839707
  0.4444273712795324  0.7222256003500954  0.6246722681705436
  0.2777703894363616  0.2222057446506014  0.6245479411461812
  0.7777942553493985  0.7222296105636383  0.6245479411461812
  0.6111020218809108  0.2222057446506014  0.6245479411461812
  0.9444485984952427  0.2222305303238207  0.6248330832348802
  0.2777717477743020  0.7222282522256981  0.1251991216160291
  0.1111125931715968  0.2222229632524627  0.1252241130668165
  0.4444394253994222  0.2222121841321794  0.1256011447587365
  0.6111020218809108  0.7222296105636383  0.1254520588538188
  0.9444648957372280  0.7222256003500954  0.1253277318294565
  0.7777770367475368  0.2222229632524627  0.1252241130668165
  0.1111203443675554  0.8888796556324450  0.6247941626904580
  0.4444259779315604  0.8888796556324450  0.6247941626904580
  0.2777703894363616  0.3888979781190887  0.6245479411461812
  0.6111308387039022  0.3888691612960974  0.6245104461864908
  0.7777770367475368  0.8888874068284035  0.6247758869331841
  0.9444607008511374  0.3889067150080356  0.6247725202131269
  0.1111126808235695  0.3889067150080356  0.1252274797868730
  0.2777717477743020  0.8888768288819326  0.1251991216160291
  0.6110932849919648  0.8888873191764305  0.1252274797868730
  0.4444049892588663  0.3888691612960974  0.1254895538135092
  0.9444607008511374  0.8888873191764305  0.1252274797868730
  0.7777942553493985  0.3888979781190887  0.1254520588538188
  0.2777743996499050  0.5555726287204683  0.6246722681705436
  0.1111126808235695  0.0555392991488627  0.6247725202131269
  0.6111308387039022  0.5555950107411338  0.6245104461864908
  0.4444273712795324  0.0555351042627725  0.6246722681705436
  0.9444648957372280  0.5555726287204683  0.6246722681705436
  0.1111203443675554  0.5555740220684395  0.1252058373095421
  0.7777694696761794  0.0555514015047575  0.6248330832348802
  0.2777743996499050  0.0555351042627725  0.1253277318294565
  0.4444394253994222  0.5555605746005782  0.1256011447587365
  0.7777878158678199  0.5555605746005782  0.1256011447587365
  0.6110932849919648  0.0555392991488627  0.1252274797868730
  0.4444394253994222  0.5555605746005782  0.6243988552412634
  0.9444485984952427  0.0555514015047575  0.1251669167651195
  0.2777717477743020  0.7222282522256981  0.6248008783839707
  0.1111125931715968  0.2222229632524627  0.6247758869331841
  0.4444394253994222  0.2222121841321794  0.6243988552412634
  0.6111020218809108  0.7222296105636383  0.6245479411461812
  0.9444648957372280  0.7222256003500954  0.6246722681705436
  0.7777770367475368  0.2222229632524627  0.6247758869331841
  0.1111231711180675  0.7222282522256981  0.1251991216160291
  0.4444273712795324  0.7222256003500954  0.1253277318294565
  0.2777703894363616  0.2222057446506014  0.1254520588538188
  0.7777942553493985  0.7222296105636383  0.1254520588538188
  0.6111020218809108  0.2222057446506014  0.1254520588538188
  0.9444485984952427  0.2222305303238207  0.1251669167651195
  0.1111126808235695  0.3889067150080356  0.6247725202131269
  0.2777717477743020  0.8888768288819326  0.6248008783839707
  0.6110932849919648  0.8888873191764305  0.6247725202131269
  0.4444049892588663  0.3888691612960974  0.6245104461864908
  0.9444607008511374  0.8888873191764305  0.6247725202131269
  0.1111203443675554  0.8888796556324450  0.1252058373095421
  0.7777942553493985  0.3888979781190887  0.6245479411461812
  0.4444259779315604  0.8888796556324450  0.1252058373095421
  0.2777703894363616  0.3888979781190887  0.1254520588538188
  0.2777743996499050  0.5555726287204683  0.1253277318294565
  0.6111308387039022  0.3888691612960974  0.1254895538135092
  0.7777770367475368  0.8888874068284035  0.1252241130668165
  0.9444607008511374  0.3889067150080356  0.1252274797868730
  0.1111203443675554  0.5555740220684395  0.6247941626904580
  0.2777743996499050  0.0555351042627725  0.6246722681705436
  0.7777878158678199  0.5555605746005782  0.6243988552412634
  0.6110932849919648  0.0555392991488627  0.6247725202131269
  0.9444485984952427  0.0555514015047575  0.6248330832348802
  0.0545857020345700  0.1105003653139849  0.3750000000000000
  0.5545086513099284  0.6186827670587729  0.3750000000000000
  0.3875308223884479  0.1083949781102380  0.3750000000000000
  0.8916050218897613  0.6124691776115523  0.3750000000000000
  0.7225813299460789  0.1105003653139849  0.3750000000000000
  0.0555495408621234  0.7777787763023846  0.8750000000000000
  0.3888959021069251  0.7777787763023846  0.8750000000000000
  0.2222195705029585  0.2777764519181470  0.8750000000000000
  0.7222235480818527  0.7777804294970417  0.8750000000000000
  0.5555572308590672  0.2777803269002563  0.8750000000000000
  0.8888892178547750  0.2777751209883194  0.8750000000000000
  0.2222222222222214  0.7777777777777786  0.3750000000000000
  0.0545857020345700  0.2774186700539205  0.3750000000000000
  0.3813172329412272  0.2691592175844910  0.3750000000000000
  0.5550843446363719  0.7809850341334413  0.3750000000000000
  0.8925673561637334  0.7809850341334413  0.3750000000000000
  0.7237192160932585  0.2762807839067409  0.3750000000000000
  0.0555520178650785  0.9444479821349212  0.8750000000000000
  0.3888959021069251  0.9444504591378772  0.8750000000000000
  0.2222195037130807  0.4444385132839777  0.8750000000000000
  0.5555555555555571  0.4444444444444429  0.8750000000000000
  0.7222248790116804  0.9444474301997918  0.8750000000000000
  0.8888856762375615  0.4444385132839777  0.8750000000000000
  0.0557047304009170  0.4447427941351629  0.3750000000000000
  0.2217976974870219  0.9434549811928133  0.3750000000000000
  0.5552572058648377  0.9442952695990829  0.3750000000000000
  0.3813172329412272  0.4454913486900718  0.3750000000000000
  0.8894996346860153  0.9454142979654299  0.3750000000000000
  0.7308407824155092  0.4454913486900718  0.3750000000000000
  0.2222212236976159  0.6111040978930751  0.8750000000000000
  0.0555525698002080  0.1111107821452244  0.8750000000000000
  0.5555572308590672  0.6111102372921463  0.8750000000000000
  0.3888928217320863  0.1111189767975152  0.8750000000000000
  0.8888810232024846  0.6111071782679142  0.8750000000000000
  0.0565450188071866  0.6116760496275437  0.3750000000000000
  0.7222248790116804  0.1111107821452244  0.8750000000000000
  0.2190149658665590  0.1074326438362665  0.3750000000000000
  0.3875308223884479  0.6124691776115523  0.3750000000000000
  0.7308407824155092  0.6186827670587729  0.3750000000000000
  0.5550843446363719  0.1074326438362665  0.3750000000000000
  0.3888928217320863  0.6111071782679142  0.8750000000000000
  0.8888888888888857  0.1111111111111143  0.3750000000000000
  0.2222222222222214  0.7777777777777786  0.8750000000000000
  0.0555525698002080  0.2777751209883194  0.8750000000000000
  0.3888897627078535  0.2777803269002563  0.8750000000000000
  0.5555614867160221  0.7777804962869195  0.8750000000000000
  0.8888856762375615  0.7777804962869195  0.8750000000000000
  0.7222235480818527  0.2777764519181470  0.8750000000000000
  0.0565450188071866  0.7782023025129781  0.3750000000000000
  0.3883239503724558  0.7782023025129781  0.3750000000000000
  0.2192282344801463  0.2762807839067409  0.3750000000000000
  0.7237192160932585  0.7807717655198539  0.3750000000000000
  0.5545086513099284  0.2691592175844909  0.3750000000000000
  0.8894996346860153  0.2774186700539205  0.3750000000000000
  0.0555520178650785  0.4444373690634856  0.8750000000000000
  0.2222212236976159  0.9444504591378772  0.8750000000000000
  0.5555626309365145  0.9444479821349212  0.8750000000000000
  0.3888897627078535  0.4444427691409330  0.8750000000000000
  0.8888892178547750  0.9444474301997918  0.8750000000000000
  0.0557047304009170  0.9442952695990829  0.3750000000000000
  0.7222196730997438  0.4444427691409330  0.8750000000000000
  0.3883239503724558  0.9434549811928133  0.3750000000000000
  0.2190149658665590  0.4449156553636283  0.3750000000000000
  0.2217976974870219  0.6116760496275437  0.3750000000000000
  0.7225813299460789  0.9454142979654299  0.3750000000000000
  0.8925673561637334  0.4449156553636283  0.3750000000000000
  0.0555495408621234  0.6111040978930751  0.8750000000000000
  0.2222195037130807  0.1111143237624387  0.8750000000000000
  0.7222196730997438  0.6111102372921463  0.8750000000000000
  0.5555614867160221  0.1111143237624387  0.8750000000000000
  0.8888888888888857  0.1111111111111143  0.8750000000000000
  0.1086614603686289  0.0538735533783655  0.3750000000000000
  0.6279652271739506  0.5892637876812292  0.3750000000000000
  0.4438430159876259  0.0530522413223175  0.3750000000000000
  0.9469477586776827  0.5561569840123736  0.3750000000000000
  0.7784304129966754  0.0558818731650052  0.3750000000000000
  0.1111226595396140  0.7222279964364715  0.8750000000000000
  0.4444431390944683  0.7222597271410980  0.8750000000000000
  0.2777018922123382  0.2221721182089944  0.8750000000000000
  0.7778278817910056  0.7222981077876618  0.8750000000000000
  0.6111368926633275  0.2221721182089944  0.8750000000000000
  0.9444349687859952  0.2222032709053255  0.8750000000000000
  0.2774234686233757  0.7225765313766247  0.3750000000000000
  0.1081455323037547  0.2207394328185416  0.3750000000000000
  0.4416450632262393  0.2166234597858138  0.3750000000000000
  0.6129253978098926  0.7307871418018340  0.3750000000000000
  0.9469477586776827  0.7241241079986439  0.3750000000000000
  0.7792605671814579  0.2207394328185416  0.3750000000000000
  0.1111065936669784  0.8888934063330219  0.8750000000000000
  0.4444534793327146  0.8888934063330219  0.8750000000000000
  0.2777018922123382  0.3888631073366727  0.8750000000000000
  0.6111366062872944  0.3888633937127053  0.8750000000000000
  0.7778084943958928  0.8889503221251152  0.8750000000000000
  0.9444607547501077  0.3888645540483681  0.8750000000000000
  0.1086614603686289  0.3881212403235920  0.3750000000000000
  0.2774234686233757  0.8881802705800801  0.3750000000000000
  0.6118787596764079  0.8913385396313709  0.3750000000000000
  0.4107362123187704  0.3720347728260497  0.3750000000000000
  0.9461264466216340  0.8913385396313709  0.3750000000000000
  0.7845284106586126  0.3870746021901073  0.3750000000000000
  0.2777402728589020  0.5555568609055314  0.8750000000000000
  0.1110704659649323  0.0555392452498926  0.8750000000000000
  0.6111366062872944  0.5556065459079180  0.8750000000000000
  0.4444431390944683  0.0555167452867062  0.8750000000000000
  0.9444832547132942  0.5555568609055314  0.8750000000000000
  0.1111971692503191  0.5557276718339671  0.3750000000000000
  0.7777967290946749  0.0555650312140052  0.8750000000000000
  0.2758758920013558  0.0530522413223175  0.3750000000000000
  0.4416450632262393  0.5583549367737609  0.3750000000000000
  0.7833765402141857  0.5583549367737609  0.3750000000000000
  0.6118787596764079  0.0538735533783655  0.3750000000000000
  0.4444154054994847  0.5555845945005153  0.8750000000000000
  0.9441181268349949  0.0558818731650052  0.3750000000000000
  0.2777720035635288  0.7222279964364715  0.8750000000000000
  0.1110496778748849  0.2221915056041068  0.8750000000000000
  0.4444154054994847  0.2221641443323048  0.8750000000000000
  0.6111368926633275  0.7222981077876618  0.8750000000000000
  0.9444832547132942  0.7222597271410980  0.8750000000000000
  0.7778084943958928  0.2221915056041068  0.8750000000000000
  0.1118197294199200  0.7225765313766247  0.3750000000000000
  0.4438430159876259  0.7241241079986439  0.3750000000000000
  0.2692128581981660  0.2154715893413869  0.3750000000000000
  0.7845284106586126  0.7307871418018340  0.3750000000000000
  0.6129253978098925  0.2154715893413869  0.3750000000000000
  0.9441181268349949  0.2215695870033254  0.3750000000000000
  0.1110704659649323  0.3888645540483681  0.8750000000000000
  0.2777720035635288  0.8888773404603862  0.8750000000000000
  0.6111354459516313  0.8889295340350676  0.8750000000000000
  0.4443934540920821  0.3888633937127053  0.8750000000000000
  0.9444607547501077  0.8889295340350676  0.8750000000000000
  0.1111971692503191  0.8888028307496807  0.3750000000000000
  0.7778278817910056  0.3888631073366727  0.8750000000000000
  0.4442723281660332  0.8888028307496807  0.3750000000000000
  0.2692128581981660  0.3870746021901073  0.3750000000000000
  0.2758758920013558  0.5561569840123736  0.3750000000000000
  0.6279652271739506  0.3720347728260497  0.3750000000000000
  0.7792605671814579  0.8918544676962454  0.3750000000000000
  0.9461264466216340  0.3881212403235920  0.3750000000000000
  0.1111065936669784  0.5555465206672856  0.8750000000000000
  0.2777402728589020  0.0555167452867062  0.8750000000000000
  0.7778358556676950  0.5555845945005153  0.8750000000000000
  0.6111354459516313  0.0555392452498926  0.8750000000000000
  0.9444349687859952  0.0555650312140052  0.8750000000000000
  0.0554886235642045  0.1110528350812374  0.1247592008855491
  0.5555081453075738  0.6113294313649384  0.1244143156589830
  0.3887503263609119  0.1108339860551668  0.1247493169264153
  0.8891660139448333  0.6112496736390881  0.1247493169264153
  0.7222308781836969  0.1110528350812374  0.1247592008855491
  0.0556831872252181  0.7778234777026248  0.6252234287181997
  0.3888069571440709  0.7778234777026248  0.6252234287181997
  0.2220250543122695  0.2776791938228027  0.6253390256648746
  0.7223208061771971  0.7779749456877303  0.6253390256648746
  0.5555081453075738  0.2775120472759708  0.6255856843410174
  0.8889471649187622  0.2777691218163027  0.6252407991144509
  0.2222222222222214  0.7777777777777786  0.1247817455259019
  0.0554886235642045  0.2777691218163027  0.1247592008855491
  0.3886705686350612  0.2775120472759708  0.1244143156589830
  0.5555003834417679  0.7779252563080039  0.1247361468599620
  0.8890915395329009  0.7779252563080039  0.1247361468599620
  0.7223208061771971  0.2776791938228027  0.1246609743351254
  0.0555832395056096  0.9444167604943901  0.6252328710623659
  0.3888069571440709  0.9443168127747824  0.6252234287181997
  0.2220747436919959  0.4444996165582319  0.6252638531400383
  0.5555555555555571  0.4444444444444429  0.6258232961622785
  0.7222308781836969  0.9445113764357957  0.6252407991144509
  0.8890915395329009  0.4444996165582319  0.6252638531400383
  0.0555832395056096  0.4444998123445477  0.1247671289376338
  0.2221765222973749  0.9443168127747824  0.1247765712818001
  0.5555001876554525  0.9444167604943901  0.1247671289376338
  0.3886705686350612  0.4444918546924260  0.1244143156589830
  0.8889471649187622  0.9445113764357957  0.1247592008855491
  0.7224879527240292  0.4444918546924260  0.1244143156589830
  0.2221765222973749  0.6111930428559290  0.6252234287181997
  0.0554886235642045  0.1110528350812374  0.6252407991144509
  0.5555081453075738  0.6113294313649384  0.6255856843410174
  0.3887503263609119  0.1108339860551668  0.6252506830735850
  0.8891660139448333  0.6112496736390881  0.6252506830735850
  0.0556831872252181  0.6111930428559290  0.1247765712818001
  0.7222308781836969  0.1110528350812374  0.6252407991144509
  0.2220747436919959  0.1109084604670995  0.1247361468599620
  0.3887503263609119  0.6112496736390881  0.1247493169264153
  0.7224879527240292  0.6113294313649384  0.1244143156589830
  0.5555003834417679  0.1109084604670995  0.1247361468599620
  0.3887503263609119  0.6112496736390881  0.6252506830735850
  0.8888888888888857  0.1111111111111143  0.1247818397579329
  0.2222222222222214  0.7777777777777786  0.6252182544740984
  0.0554886235642045  0.2777691218163027  0.6252407991144509
  0.3886705686350612  0.2775120472759708  0.6255856843410174
  0.5555003834417679  0.7779252563080039  0.6252638531400383
  0.8890915395329009  0.7779252563080039  0.6252638531400383
  0.7223208061771971  0.2776791938228027  0.6253390256648746
  0.0556831872252181  0.7778234777026248  0.1247765712818001
  0.3888069571440709  0.7778234777026248  0.1247765712818001
  0.2220250543122695  0.2776791938228027  0.1246609743351254
  0.7223208061771971  0.7779749456877303  0.1246609743351254
  0.5555081453075738  0.2775120472759708  0.1244143156589830
  0.8889471649187622  0.2777691218163027  0.1247592008855491
  0.0555832395056096  0.4444998123445477  0.6252328710623659
  0.2221765222973749  0.9443168127747824  0.6252234287181997
  0.5555001876554525  0.9444167604943901  0.6252328710623659
  0.3886705686350612  0.4444918546924260  0.6255856843410174
  0.8889471649187622  0.9445113764357957  0.6252407991144509
  0.0555832395056096  0.9444167604943901  0.1247671289376338
  0.7224879527240292  0.4444918546924260  0.6255856843410174
  0.3888069571440709  0.9443168127747824  0.1247765712818001
  0.2220747436919959  0.4444996165582319  0.1247361468599620
  0.2221765222973749  0.6111930428559290  0.1247765712818001
  0.5555555555555571  0.4444444444444429  0.1241767038377212
  0.7222308781836969  0.9445113764357957  0.1247592008855491
  0.8890915395329009  0.4444996165582319  0.1247361468599620
  0.0556831872252181  0.6111930428559290  0.6252234287181997
  0.2220747436919959  0.1109084604670995  0.6252638531400383
  0.7224879527240292  0.6113294313649384  0.6255856843410174
  0.5555003834417679  0.1109084604670995  0.6252638531400383
  0.8888888888888857  0.1111111111111143  0.6252181602420668
 
  0.00000000E+00  0.00000000E+00  0.00000000E+00
  0.00000000E+00  0.00000000E+00  0.00000000E+00
  0.00000000E+00  0.00000000E+00  0.00000000E+00
  0.00000000E+00  0.00000000E+00  0.00000000E+00
  0.00000000E+00  0.00000000E+00  0.00000000E+00
  0.00000000E+00  0.00000000E+00  0.00000000E+00
  0.00000000E+00  0.00000000E+00  0.00000000E+00
  0.00000000E+00  0.00000000E+00  0.00000000E+00
  0.00000000E+00  0.00000000E+00  0.00000000E+00
  0.00000000E+00  0.00000000E+00  0.00000000E+00
  0.00000000E+00  0.00000000E+00  0.00000000E+00
  0.00000000E+00  0.00000000E+00  0.00000000E+00
  0.00000000E+00  0.00000000E+00  0.00000000E+00
  0.00000000E+00  0.00000000E+00  0.00000000E+00
  0.00000000E+00  0.00000000E+00  0.00000000E+00
  0.00000000E+00  0.00000000E+00  0.00000000E+00
  0.00000000E+00  0.00000000E+00  0.00000000E+00
  0.00000000E+00  0.00000000E+00  0.00000000E+00
  0.00000000E+00  0.00000000E+00  0.00000000E+00
  0.00000000E+00  0.00000000E+00  0.00000000E+00
  0.00000000E+00  0.00000000E+00  0.00000000E+00
  0.00000000E+00  0.00000000E+00  0.00000000E+00
  0.00000000E+00  0.00000000E+00  0.00000000E+00
  0.00000000E+00  0.00000000E+00  0.00000000E+00
  0.00000000E+00  0.00000000E+00  0.00000000E+00
  0.00000000E+00  0.00000000E+00  0.00000000E+00
  0.00000000E+00  0.00000000E+00  0.00000000E+00
  0.00000000E+00  0.00000000E+00  0.00000000E+00
  0.00000000E+00  0.00000000E+00  0.00000000E+00
  0.00000000E+00  0.00000000E+00  0.00000000E+00
  0.00000000E+00  0.00000000E+00  0.00000000E+00
  0.00000000E+00  0.00000000E+00  0.00000000E+00
  0.00000000E+00  0.00000000E+00  0.00000000E+00
  0.00000000E+00  0.00000000E+00  0.00000000E+00
  0.00000000E+00  0.00000000E+00  0.00000000E+00
  0.00000000E+00  0.00000000E+00  0.00000000E+00
  0.00000000E+00  0.00000000E+00  0.00000000E+00
  0.00000000E+00  0.00000000E+00  0.00000000E+00
  0.00000000E+00  0.00000000E+00  0.00000000E+00
  0.00000000E+00  0.00000000E+00  0.00000000E+00
  0.00000000E+00  0.00000000E+00  0.00000000E+00
  0.00000000E+00  0.00000000E+00  0.00000000E+00
  0.00000000E+00  0.00000000E+00  0.00000000E+00
  0.00000000E+00  0.00000000E+00  0.00000000E+00
  0.00000000E+00  0.00000000E+00  0.00000000E+00
  0.00000000E+00  0.00000000E+00  0.00000000E+00
  0.00000000E+00  0.00000000E+00  0.00000000E+00
  0.00000000E+00  0.00000000E+00  0.00000000E+00
  0.00000000E+00  0.00000000E+00  0.00000000E+00
  0.00000000E+00  0.00000000E+00  0.00000000E+00
  0.00000000E+00  0.00000000E+00  0.00000000E+00
  0.00000000E+00  0.00000000E+00  0.00000000E+00
  0.00000000E+00  0.00000000E+00  0.00000000E+00
  0.00000000E+00  0.00000000E+00  0.00000000E+00
  0.00000000E+00  0.00000000E+00  0.00000000E+00
  0.00000000E+00  0.00000000E+00  0.00000000E+00
  0.00000000E+00  0.00000000E+00  0.00000000E+00
  0.00000000E+00  0.00000000E+00  0.00000000E+00
  0.00000000E+00  0.00000000E+00  0.00000000E+00
  0.00000000E+00  0.00000000E+00  0.00000000E+00
  0.00000000E+00  0.00000000E+00  0.00000000E+00
  0.00000000E+00  0.00000000E+00  0.00000000E+00
  0.00000000E+00  0.00000000E+00  0.00000000E+00
  0.00000000E+00  0.00000000E+00  0.00000000E+00
  0.00000000E+00  0.00000000E+00  0.00000000E+00
  0.00000000E+00  0.00000000E+00  0.00000000E+00
  0.00000000E+00  0.00000000E+00  0.00000000E+00
  0.00000000E+00  0.00000000E+00  0.00000000E+00
  0.00000000E+00  0.00000000E+00  0.00000000E+00
  0.00000000E+00  0.00000000E+00  0.00000000E+00
  0.00000000E+00  0.00000000E+00  0.00000000E+00
  0.00000000E+00  0.00000000E+00  0.00000000E+00
  0.00000000E+00  0.00000000E+00  0.00000000E+00
  0.00000000E+00  0.00000000E+00  0.00000000E+00
  0.00000000E+00  0.00000000E+00  0.00000000E+00
  0.00000000E+00  0.00000000E+00  0.00000000E+00
  0.00000000E+00  0.00000000E+00  0.00000000E+00
  0.00000000E+00  0.00000000E+00  0.00000000E+00
  0.00000000E+00  0.00000000E+00  0.00000000E+00
  0.00000000E+00  0.00000000E+00  0.00000000E+00
  0.00000000E+00  0.00000000E+00  0.00000000E+00
  0.00000000E+00  0.00000000E+00  0.00000000E+00
  0.00000000E+00  0.00000000E+00  0.00000000E+00
  0.00000000E+00  0.00000000E+00  0.00000000E+00
  0.00000000E+00  0.00000000E+00  0.00000000E+00
  0.00000000E+00  0.00000000E+00  0.00000000E+00
  0.00000000E+00  0.00000000E+00  0.00000000E+00
  0.00000000E+00  0.00000000E+00  0.00000000E+00
  0.00000000E+00  0.00000000E+00  0.00000000E+00
  0.00000000E+00  0.00000000E+00  0.00000000E+00
  0.00000000E+00  0.00000000E+00  0.00000000E+00
  0.00000000E+00  0.00000000E+00  0.00000000E+00
  0.00000000E+00  0.00000000E+00  0.00000000E+00
  0.00000000E+00  0.00000000E+00  0.00000000E+00
  0.00000000E+00  0.00000000E+00  0.00000000E+00
  0.00000000E+00  0.00000000E+00  0.00000000E+00
  0.00000000E+00  0.00000000E+00  0.00000000E+00
  0.00000000E+00  0.00000000E+00  0.00000000E+00
  0.00000000E+00  0.00000000E+00  0.00000000E+00
  0.00000000E+00  0.00000000E+00  0.00000000E+00
  0.00000000E+00  0.00000000E+00  0.00000000E+00
  0.00000000E+00  0.00000000E+00  0.00000000E+00
  0.00000000E+00  0.00000000E+00  0.00000000E+00
  0.00000000E+00  0.00000000E+00  0.00000000E+00
  0.00000000E+00  0.00000000E+00  0.00000000E+00
  0.00000000E+00  0.00000000E+00  0.00000000E+00
  0.00000000E+00  0.00000000E+00  0.00000000E+00
  0.00000000E+00  0.00000000E+00  0.00000000E+00
  0.00000000E+00  0.00000000E+00  0.00000000E+00
  0.00000000E+00  0.00000000E+00  0.00000000E+00
  0.00000000E+00  0.00000000E+00  0.00000000E+00
  0.00000000E+00  0.00000000E+00  0.00000000E+00
  0.00000000E+00  0.00000000E+00  0.00000000E+00
  0.00000000E+00  0.00000000E+00  0.00000000E+00
  0.00000000E+00  0.00000000E+00  0.00000000E+00
  0.00000000E+00  0.00000000E+00  0.00000000E+00
  0.00000000E+00  0.00000000E+00  0.00000000E+00
  0.00000000E+00  0.00000000E+00  0.00000000E+00
  0.00000000E+00  0.00000000E+00  0.00000000E+00
  0.00000000E+00  0.00000000E+00  0.00000000E+00
  0.00000000E+00  0.00000000E+00  0.00000000E+00
  0.00000000E+00  0.00000000E+00  0.00000000E+00
  0.00000000E+00  0.00000000E+00  0.00000000E+00
  0.00000000E+00  0.00000000E+00  0.00000000E+00
  0.00000000E+00  0.00000000E+00  0.00000000E+00
  0.00000000E+00  0.00000000E+00  0.00000000E+00
  0.00000000E+00  0.00000000E+00  0.00000000E+00
  0.00000000E+00  0.00000000E+00  0.00000000E+00
  0.00000000E+00  0.00000000E+00  0.00000000E+00
  0.00000000E+00  0.00000000E+00  0.00000000E+00
  0.00000000E+00  0.00000000E+00  0.00000000E+00
  0.00000000E+00  0.00000000E+00  0.00000000E+00
  0.00000000E+00  0.00000000E+00  0.00000000E+00
  0.00000000E+00  0.00000000E+00  0.00000000E+00
  0.00000000E+00  0.00000000E+00  0.00000000E+00
  0.00000000E+00  0.00000000E+00  0.00000000E+00
  0.00000000E+00  0.00000000E+00  0.00000000E+00
  0.00000000E+00  0.00000000E+00  0.00000000E+00
  0.00000000E+00  0.00000000E+00  0.00000000E+00
  0.00000000E+00  0.00000000E+00  0.00000000E+00
  0.00000000E+00  0.00000000E+00  0.00000000E+00
  0.00000000E+00  0.00000000E+00  0.00000000E+00
  0.00000000E+00  0.00000000E+00  0.00000000E+00
  0.00000000E+00  0.00000000E+00  0.00000000E+00
  0.00000000E+00  0.00000000E+00  0.00000000E+00
  0.00000000E+00  0.00000000E+00  0.00000000E+00
  0.00000000E+00  0.00000000E+00  0.00000000E+00
  0.00000000E+00  0.00000000E+00  0.00000000E+00
  0.00000000E+00  0.00000000E+00  0.00000000E+00
  0.00000000E+00  0.00000000E+00  0.00000000E+00
  0.00000000E+00  0.00000000E+00  0.00000000E+00
  0.00000000E+00  0.00000000E+00  0.00000000E+00
  0.00000000E+00  0.00000000E+00  0.00000000E+00
  0.00000000E+00  0.00000000E+00  0.00000000E+00
  0.00000000E+00  0.00000000E+00  0.00000000E+00
  0.00000000E+00  0.00000000E+00  0.00000000E+00
  0.00000000E+00  0.00000000E+00  0.00000000E+00
  0.00000000E+00  0.00000000E+00  0.00000000E+00
  0.00000000E+00  0.00000000E+00  0.00000000E+00
  0.00000000E+00  0.00000000E+00  0.00000000E+00
  0.00000000E+00  0.00000000E+00  0.00000000E+00
  0.00000000E+00  0.00000000E+00  0.00000000E+00
  0.00000000E+00  0.00000000E+00  0.00000000E+00
  0.00000000E+00  0.00000000E+00  0.00000000E+00
  0.00000000E+00  0.00000000E+00  0.00000000E+00
  0.00000000E+00  0.00000000E+00  0.00000000E+00
  0.00000000E+00  0.00000000E+00  0.00000000E+00
  0.00000000E+00  0.00000000E+00  0.00000000E+00
  0.00000000E+00  0.00000000E+00  0.00000000E+00
  0.00000000E+00  0.00000000E+00  0.00000000E+00
  0.00000000E+00  0.00000000E+00  0.00000000E+00
  0.00000000E+00  0.00000000E+00  0.00000000E+00
  0.00000000E+00  0.00000000E+00  0.00000000E+00
  0.00000000E+00  0.00000000E+00  0.00000000E+00
  0.00000000E+00  0.00000000E+00  0.00000000E+00
  0.00000000E+00  0.00000000E+00  0.00000000E+00
  0.00000000E+00  0.00000000E+00  0.00000000E+00
  0.00000000E+00  0.00000000E+00  0.00000000E+00
  0.00000000E+00  0.00000000E+00  0.00000000E+00
  0.00000000E+00  0.00000000E+00  0.00000000E+00
  0.00000000E+00  0.00000000E+00  0.00000000E+00
  0.00000000E+00  0.00000000E+00  0.00000000E+00
  0.00000000E+00  0.00000000E+00  0.00000000E+00
  0.00000000E+00  0.00000000E+00  0.00000000E+00
  0.00000000E+00  0.00000000E+00  0.00000000E+00
  0.00000000E+00  0.00000000E+00  0.00000000E+00
  0.00000000E+00  0.00000000E+00  0.00000000E+00
  0.00000000E+00  0.00000000E+00  0.00000000E+00
  0.00000000E+00  0.00000000E+00  0.00000000E+00
  0.00000000E+00  0.00000000E+00  0.00000000E+00
  0.00000000E+00  0.00000000E+00  0.00000000E+00
  0.00000000E+00  0.00000000E+00  0.00000000E+00
  0.00000000E+00  0.00000000E+00  0.00000000E+00
  0.00000000E+00  0.00000000E+00  0.00000000E+00
  0.00000000E+00  0.00000000E+00  0.00000000E+00
  0.00000000E+00  0.00000000E+00  0.00000000E+00
  0.00000000E+00  0.00000000E+00  0.00000000E+00
  0.00000000E+00  0.00000000E+00  0.00000000E+00
  0.00000000E+00  0.00000000E+00  0.00000000E+00
  0.00000000E+00  0.00000000E+00  0.00000000E+00
  0.00000000E+00  0.00000000E+00  0.00000000E+00
  0.00000000E+00  0.00000000E+00  0.00000000E+00
  0.00000000E+00  0.00000000E+00  0.00000000E+00
  0.00000000E+00  0.00000000E+00  0.00000000E+00
  0.00000000E+00  0.00000000E+00  0.00000000E+00
  0.00000000E+00  0.00000000E+00  0.00000000E+00
  0.00000000E+00  0.00000000E+00  0.00000000E+00
  0.00000000E+00  0.00000000E+00  0.00000000E+00
  0.00000000E+00  0.00000000E+00  0.00000000E+00
  0.00000000E+00  0.00000000E+00  0.00000000E+00
  0.00000000E+00  0.00000000E+00  0.00000000E+00
  0.00000000E+00  0.00000000E+00  0.00000000E+00
  0.00000000E+00  0.00000000E+00  0.00000000E+00
  0.00000000E+00  0.00000000E+00  0.00000000E+00
  0.00000000E+00  0.00000000E+00  0.00000000E+00
  0.00000000E+00  0.00000000E+00  0.00000000E+00
  0.00000000E+00  0.00000000E+00  0.00000000E+00
  0.00000000E+00  0.00000000E+00  0.00000000E+00
  0.00000000E+00  0.00000000E+00  0.00000000E+00
  0.00000000E+00  0.00000000E+00  0.00000000E+00
  0.00000000E+00  0.00000000E+00  0.00000000E+00
  0.00000000E+00  0.00000000E+00  0.00000000E+00
  0.00000000E+00  0.00000000E+00  0.00000000E+00
  0.00000000E+00  0.00000000E+00  0.00000000E+00
  0.00000000E+00  0.00000000E+00  0.00000000E+00
  0.00000000E+00  0.00000000E+00  0.00000000E+00
  0.00000000E+00  0.00000000E+00  0.00000000E+00
  0.00000000E+00  0.00000000E+00  0.00000000E+00
  0.00000000E+00  0.00000000E+00  0.00000000E+00
  0.00000000E+00  0.00000000E+00  0.00000000E+00
  0.00000000E+00  0.00000000E+00  0.00000000E+00
  0.00000000E+00  0.00000000E+00  0.00000000E+00
  0.00000000E+00  0.00000000E+00  0.00000000E+00
  0.00000000E+00  0.00000000E+00  0.00000000E+00
  0.00000000E+00  0.00000000E+00  0.00000000E+00
  0.00000000E+00  0.00000000E+00  0.00000000E+00
  0.00000000E+00  0.00000000E+00  0.00000000E+00
  0.00000000E+00  0.00000000E+00  0.00000000E+00
  0.00000000E+00  0.00000000E+00  0.00000000E+00
  0.00000000E+00  0.00000000E+00  0.00000000E+00
  0.00000000E+00  0.00000000E+00  0.00000000E+00
  0.00000000E+00  0.00000000E+00  0.00000000E+00
  0.00000000E+00  0.00000000E+00  0.00000000E+00
  0.00000000E+00  0.00000000E+00  0.00000000E+00
  0.00000000E+00  0.00000000E+00  0.00000000E+00
  0.00000000E+00  0.00000000E+00  0.00000000E+00
  0.00000000E+00  0.00000000E+00  0.00000000E+00