 O N B 
 1.0
 17.527899999999772   0.000000000000000   0.000000000000000
 -8.763949999999658  15.179606674993195   0.000000000000000
  0.000000000000001   0.000000000000002  15.000000000000000
 O N B 
   1  49  48
Cartesian
  3.755980213596274   7.951242049921758   1.667293600839780 
  8.767249173611239  13.737704708657882   1.665131351093880 
 16.273751871020213   0.724096946912641   1.664839017034200 
 15.016298066385680   2.887710413114489   1.665211480875405 
 13.764972109789799   5.055070546768358   1.665211480875405 
 12.519954786406217   7.225864218768235   1.664839017034200 
 11.272853354259471   9.397870964118004   1.665131351093880 
 10.021053902139899  11.568366709825336   1.665249132705630 
 -6.258938513043409  13.733351805718408   1.664847808681095 
  1.250385605757859   0.718115095572828   1.665131351093880 
 -0.015692212134739   2.873679594479387   1.665084159699210 
 -1.273571451090647   5.047411721731548   1.664963207454150 
 -2.527139074835388   7.223633161186518   1.665084159699210 
 -3.760873781446759   9.397870964118004   1.665131351093880 
 -5.007975213584789  11.566619812652004   1.664847808681095 
 -3.757011914125964  13.733351805718408   1.664847808681095 
  3.755989786406236   0.716957348698179   1.665249132705630 
  2.499422296403319   2.878703728802680   1.665496739814765 
  1.212950403716873   5.015276672218112   1.664990534576190 
 -0.058140292917308   7.216870339816707   1.664990534576190 
 -1.265230792619040   9.399274151860750   1.665496739814765 
 -2.509074329327136  11.568366709825336   1.665249132705630 
 -1.255269600798395  13.737704708657882   1.665131351093880 
  6.261593967054456   0.718115095572828   1.665131351093880 
  5.012557276409202   2.878703728802680   1.665496739814765 
  3.755989786406284   5.042574568419109   1.665264080250495 
  2.319654262055916   7.121961554475740   1.665459612228060 
  1.237020069998592   9.405558099964749   1.665264080250495 
 -0.008663302616136  11.575712887685283   1.665496739814765 
  1.244542923696867  13.756378012667614   1.665084159699210 
  8.766157701774340   0.724096946912641   1.664839017034200 
  7.527671784947137   2.873679594479387   1.665084159699210 
  6.299029169095704   5.015276672218096   1.664990534576190 
  5.192325310756715   7.121961554475740   1.665459612228060 
  3.755989786397580   9.609767659381932   1.665459612228060 
  2.484899089763336  11.621543756298699   1.664990534576190 
  3.755989786397580  13.758867324870423   1.664963207454150 
 11.268628829792512   0.731277152710653   1.665211480875405 
 10.023611506408937   2.887710413114489   1.665211480875405 
  8.785551023903110   5.047411721731548   1.664963207454150 
  7.570119865729940   7.216870339816707   1.664990534576190 
  6.274959502796562   9.405558099964749   1.665264080250495 
  5.027080483031761  11.621543756298699   1.664990534576190 
  6.267436649115855  13.756378012667614   1.665084159699210 
 13.771280743001919   0.731277152710653   1.665211480875405 
 12.519954786406029   2.891352704197829   1.665434331152085 
 11.274937463022463   5.055070546768358   1.665211480875405 
 10.039118647665479   7.223633161186518   1.665084159699210 
  8.777210365431756   9.399274151860750   1.665496739814765 
  7.520642875428776  11.575712887685283   1.665496739814765 
  7.516127304010851  14.463704498420928   1.665184999203285 
 15.022380056760230   1.446583067662839   1.665299731536015 
 13.769314090193671   3.612687955224146   1.665646685140875 
 12.519945213587368   5.780927358669040   1.665299731536015 
 11.276011680395960   7.951393727937268   1.665184999203285 
 10.018948616094431  10.119737783328796   1.665690241651965 
  8.766008093495316  12.289894427332440   1.665690241651965 
 -7.511153441957870  14.456324698941479   1.665251098373100 
 -0.003904162797690   1.438627923391869   1.665184999203285 
 -1.260318023477315   3.607318011830837   1.665274825544745 
 -2.514117474028327   5.778962362687206   1.665274825544745 
 -3.764051253220836   7.951393727937268   1.665184999203285 
 -5.007423818864766  10.119737783328796   1.665251098373100 
 -6.259368533639829  12.288632858503673   1.665077156416170 
 -5.007984786403467  14.456093088482945   1.665077156416170 
  2.503610976509655   1.443104443540365   1.665690241651965 
  1.236596931211454   3.591717242866934   1.665507991090890 
 -0.020244485627106   5.771037703294476   1.665235645155075 
 -1.279170658934003   7.949154529034129   1.665507991090890 
 -2.505845617876704  10.119737783328796   1.665690241651965 
 -3.756601039167170  12.288632858503673   1.665077156416170 
 -2.503729623092953  14.456324698941479   1.665251098373100 
  5.009456594386512   1.443104443540365   1.665690241651965 
  3.756087756345269   3.614002951651439   1.665791934567135 
  2.469435384473190   5.748408035026515   1.665410466346665 
  1.204997581823788   7.938478552226104   1.665410466346665 
  0.000000000000152  10.119737783328796   1.665791934567135 
 -1.252940522598963  12.289894427332440   1.665690241651965 
 -0.004166876818091  14.463704498420928   1.665184999203285 
  7.515864589990164   1.438627923391869   1.665184999203285 
  6.275363495980963   3.591717242866934   1.665507991090890 
  5.042525042736855   5.748408035026515   1.665410466346665 
  2.491542410955662  10.166839562497461   1.665410466346665 
  1.240212623459538  12.312854377849106   1.665507991090890 
  2.502180763045390  14.467445775216918   1.665274825544745 
 10.017510370414499   1.446583067662839   1.665299731536015 
  8.772278450669855   3.607318011830837   1.665274825544745 
  7.532204912819727   5.771037703294476   1.665235645155075 
  6.306962845368883   7.938478552226104   1.665410466346665 
  5.020418016237092  10.166839562497461   1.665410466346665 
  3.755980213596399  12.311650743146009   1.665235645155075 
  5.009779664147494  14.467445775216918   1.665274825544745 
 12.519945213587354   1.448717583546578   1.665646685140875 
 11.270576336980980   3.612687955224146   1.665646685140875 
 10.026077901220949   5.778962362687206   1.665274825544745 
  8.791131086109109   7.949154529034129   1.665507991090890 
  7.512210940012003  10.119737783328796   1.665791934567135 
  6.271747803733140  12.312854377849106   1.665507991090890 
