B C N                                   
   1.0000000000000000     
     8.7639499999999995  -15.1796066749929999    0.0000000000000000
     8.7639499999999995   15.1796066749929999    0.0000000000000000
     0.0000000000000000    0.0000000000000000   15.0000000000000000
   B    C    N 
    47     3    47
Selective dynamics
Direct
  0.9051725104858225  0.9526434275443983  0.1110225858258092   T   T   T
  0.9044487507210401  0.0948439136996893  0.1110618245434231   T   T   T
  0.9043714227127827  0.2384564527403603  0.1110738281182748   T   T   T
  0.9048555768891032  0.3811264199173965  0.1110230537459048   T   T   T
  0.9053734500541839  0.5239988572834100  0.1110267920215540   T   T   T
  0.9064855684157213  0.6670568649343942  0.1110727215437213   T   T   T
  0.9063344103475849  0.8103941011409693  0.1110546050193887   T   T   T
  0.0475641601894503  0.9515898110091611  0.1110315646126738   T   T   T
  0.0464905888455078  0.0943497484833887  0.1110340771506521   T   T   T
  0.0474808597632882  0.2382795822650102  0.1110345667545943   T   T   T
  0.0472338504359223  0.3811829670635469  0.1110365782846244   T   T   T
  0.0476233396718594  0.5241381605421471  0.1110235522519873   T   T   T
  0.0479949718623653  0.6667913980742166  0.1110465083541839   T   T   T
  0.0483620304326991  0.8096840174096944  0.1110368368953967   T   T   T
  0.1903546052608794  0.9516996907818708  0.1110337121335660   T   T   T
  0.1896095053320823  0.0931694562184939  0.1110659037685918   T   T   T
  0.1889566181297749  0.2349768596321105  0.1110089154742757   T   T   T
  0.1902704104213878  0.3823670866787874  0.1110027617357679   T   T   T
  0.1906132455743497  0.5246702872539043  0.1110491941210320   T   T   T
  0.1898776422753115  0.6672232323918864  0.1110556090714094   T   T   T
  0.1903793497540466  0.8095176038363593  0.1110180307509268   T   T   T
  0.3333221585333829  0.9521412818179357  0.1110387267601919   T   T   T
  0.3328263376031163  0.0934361223025331  0.1110773978362256   T   T   T
  0.3296327246940960  0.2325958273502945  0.1110438392680238   T   T   T
  0.3338955603950052  0.5261035676171466  0.1110332388652770   T   T   T
  0.3316535653483524  0.6684106829023704  0.1110628170232341   T   T   T
  0.3328661857692204  0.8102955446844139  0.1110504458304216   T   T   T
  0.4760389694699161  0.9529047290704349  0.1110231535447658   T   T   T
  0.4762234204357331  0.0948423093496383  0.1110262636706250   T   T   T
  0.4762329793252085  0.2368911194592298  0.1110608544439958   T   T   T
  0.4741668764400939  0.3771741107102360  0.1109413729703676   T   T   T
  0.4731573807366333  0.6695296000621902  0.1109413758829423   T   T   T
  0.4756861086337651  0.8110628266953658  0.1110452675649057   T   T   T
  0.6188147883583732  0.9524099741591198  0.1110359769844210   T   T   T
  0.6189287391516602  0.0953837805469543  0.1110184570074538   T   T   T
  0.6191286193411992  0.2380775594856653  0.1110267673599981   T   T   T
  0.6194450442343643  0.3810126432816623  0.1110237585995365   T   T   T
  0.6241912921282674  0.5279688191451078  0.1109653619598018   T   T   T
  0.6245607962337026  0.6687408731937593  0.1109774013147865   T   T   T
  0.6191952749186520  0.8099399630731291  0.1110063693037030   T   T   T
  0.7620833640590192  0.9525809002315118  0.1110208145440672   T   T   T
  0.7619560094539104  0.0954309120648522  0.1110525328093386   T   T   T
  0.7618097883268742  0.2380421999526604  0.1110664866375149   T   T   T
  0.7621880415090682  0.3812895025866689  0.1110332002680774   T   T   T
  0.7637391676106853  0.5245828263090547  0.1110695440731614   T   T   T
  0.7663002935316705  0.6689270948348321  0.1110527766115346   T   T   T
  0.7637285821592023  0.8104390975724710  0.1110265996166725   T   T   T
  0.4722648349706970  0.5237082726446796  0.1108955462153762   T   T   T
  0.5206323652526124  0.4784155212168175  0.1108065243756339   T   T   T
  0.5219986861356226  0.6166884181414336  0.1108148030302789   T   T   T
  0.9529103355101977  0.9050258557371315  0.1110174853558539   T   T   T
  0.9519576804402675  0.0472716216634476  0.1110208157471654   T   T   T
  0.9521567763193612  0.1904637481971474  0.1110564244868163   T   T   T
  0.9521726622166019  0.3334671305775450  0.1110312094284447   T   T   T
  0.9526179396880814  0.4763111655651076  0.1109874821317573   T   T   T
  0.9530902259978051  0.6191268665359221  0.1110303729607717   T   T   T
  0.9533978743675042  0.7624552271252207  0.1110460546702298   T   T   T
  0.0954877061428854  0.9046142789342789  0.1110074052403776   T   T   T
  0.0945132697391048  0.0466951996630562  0.1110208659740698   T   T   T
  0.0936654822635667  0.1890779818912278  0.1110126212957788   T   T   T
  0.0947221934726917  0.3335570737242436  0.1110097941746071   T   T   T
  0.0954865155688408  0.4764552737542584  0.1110179338278950   T   T   T
  0.0951641404240862  0.6192906502690370  0.1110276985917657   T   T   T
  0.0954852070474270  0.7619964477475373  0.1110159524730438   T   T   T
  0.2380279747534940  0.9046323216664953  0.1110045435792006   T   T   T
  0.2378267975612907  0.0466258290227598  0.1110475141823159   T   T   T
  0.2362903593719460  0.1875146122786635  0.1110337134820029   T   T   T
  0.2270697209256899  0.3269588958363180  0.1109133882759555   T   T   T
  0.2395785326885513  0.4777163711023314  0.1110271608255900   T   T   T
  0.2373804989861618  0.6196950461719068  0.1110457966937866   T   T   T
  0.2379123181554533  0.7622756769936440  0.1110272938323966   T   T   T
  0.3808947227451078  0.9050880701334387  0.1110213366859520   T   T   T
  0.3809616173111622  0.0470722432535743  0.1110336081894532   T   T   T
  0.3806301562100593  0.1886511070006280  0.1110495841331977   T   T   T
  0.3835371403322363  0.3252716943021794  0.1109584024055571   T   T   T
  0.3835171369441118  0.4786246170885169  0.1109931774053829   T   T   T
  0.3794365139784042  0.6209863342070832  0.1110191321440647   T   T   T
  0.3805978209602593  0.7629866834887488  0.1110368127104271   T   T   T
  0.5237503961037219  0.9055186209334908  0.1110227743433126   T   T   T
  0.5238268668677211  0.0477723881708590  0.1109921786571144   T   T   T
  0.5239307782145264  0.1900955293662734  0.1110249236467339   T   T   T
  0.5239995048948882  0.3322276310843165  0.1110134420221001   T   T   T
  0.5233380505836939  0.7631853795536644  0.1109922516367613   T   T   T
  0.6664978652680276  0.9043795199890329  0.1110048335057858   T   T   T
  0.6667350825104241  0.0476720338499849  0.1110253598550897   T   T   T
  0.6665638520314670  0.1905584137535508  0.1110249938541519   T   T   T
  0.6666749529709624  0.3337939511442577  0.1110057477420698   T   T   T
  0.6675042534958106  0.4774141761936013  0.1110237376768856   T   T   T
  0.6716588560546741  0.6217906204128318  0.1110158229036102   T   T   T
  0.6679932809228426  0.7623141722580917  0.1110044727890464   T   T   T
  0.8101336702931747  0.9052137325666200  0.1110094920274823   T   T   T
  0.8093682501200762  0.0474857261094268  0.1110278556457392   T   T   T
  0.8093635757811990  0.1905228136659969  0.1110517813690925   T   T   T
  0.8094646460441176  0.3333576596212988  0.1110317947380606   T   T   T
  0.8100213571045934  0.4764448438049916  0.1110323040567972   T   T   T
  0.8115379111086740  0.6196947936377749  0.1110491524892727   T   T   T
  0.8114969985428065  0.7632370493241450  0.1110229889019493   T   T   T

  0.00000000E+00  0.00000000E+00  0.00000000E+00
  0.00000000E+00  0.00000000E+00  0.00000000E+00
  0.00000000E+00  0.00000000E+00  0.00000000E+00
  0.00000000E+00  0.00000000E+00  0.00000000E+00
  0.00000000E+00  0.00000000E+00  0.00000000E+00
  0.00000000E+00  0.00000000E+00  0.00000000E+00
  0.00000000E+00  0.00000000E+00  0.00000000E+00
  0.00000000E+00  0.00000000E+00  0.00000000E+00
  0.00000000E+00  0.00000000E+00  0.00000000E+00
  0.00000000E+00  0.00000000E+00  0.00000000E+00
  0.00000000E+00  0.00000000E+00  0.00000000E+00
  0.00000000E+00  0.00000000E+00  0.00000000E+00
  0.00000000E+00  0.00000000E+00  0.00000000E+00
  0.00000000E+00  0.00000000E+00  0.00000000E+00
  0.00000000E+00  0.00000000E+00  0.00000000E+00
  0.00000000E+00  0.00000000E+00  0.00000000E+00
  0.00000000E+00  0.00000000E+00  0.00000000E+00
  0.00000000E+00  0.00000000E+00  0.00000000E+00
  0.00000000E+00  0.00000000E+00  0.00000000E+00
  0.00000000E+00  0.00000000E+00  0.00000000E+00
  0.00000000E+00  0.00000000E+00  0.00000000E+00
  0.00000000E+00  0.00000000E+00  0.00000000E+00
  0.00000000E+00  0.00000000E+00  0.00000000E+00
  0.00000000E+00  0.00000000E+00  0.00000000E+00
  0.00000000E+00  0.00000000E+00  0.00000000E+00
  0.00000000E+00  0.00000000E+00  0.00000000E+00
  0.00000000E+00  0.00000000E+00  0.00000000E+00
  0.00000000E+00  0.00000000E+00  0.00000000E+00
  0.00000000E+00  0.00000000E+00  0.00000000E+00
  0.00000000E+00  0.00000000E+00  0.00000000E+00
  0.00000000E+00  0.00000000E+00  0.00000000E+00
  0.00000000E+00  0.00000000E+00  0.00000000E+00
  0.00000000E+00  0.00000000E+00  0.00000000E+00
  0.00000000E+00  0.00000000E+00  0.00000000E+00
  0.00000000E+00  0.00000000E+00  0.00000000E+00
  0.00000000E+00  0.00000000E+00  0.00000000E+00
  0.00000000E+00  0.00000000E+00  0.00000000E+00
  0.00000000E+00  0.00000000E+00  0.00000000E+00
  0.00000000E+00  0.00000000E+00  0.00000000E+00
  0.00000000E+00  0.00000000E+00  0.00000000E+00
  0.00000000E+00  0.00000000E+00  0.00000000E+00
  0.00000000E+00  0.00000000E+00  0.00000000E+00
  0.00000000E+00  0.00000000E+00  0.00000000E+00
  0.00000000E+00  0.00000000E+00  0.00000000E+00
  0.00000000E+00  0.00000000E+00  0.00000000E+00
  0.00000000E+00  0.00000000E+00  0.00000000E+00
  0.00000000E+00  0.00000000E+00  0.00000000E+00
  0.00000000E+00  0.00000000E+00  0.00000000E+00
  0.00000000E+00  0.00000000E+00  0.00000000E+00
  0.00000000E+00  0.00000000E+00  0.00000000E+00
  0.00000000E+00  0.00000000E+00  0.00000000E+00
  0.00000000E+00  0.00000000E+00  0.00000000E+00
  0.00000000E+00  0.00000000E+00  0.00000000E+00
  0.00000000E+00  0.00000000E+00  0.00000000E+00
  0.00000000E+00  0.00000000E+00  0.00000000E+00
  0.00000000E+00  0.00000000E+00  0.00000000E+00
  0.00000000E+00  0.00000000E+00  0.00000000E+00
  0.00000000E+00  0.00000000E+00  0.00000000E+00
  0.00000000E+00  0.00000000E+00  0.00000000E+00
  0.00000000E+00  0.00000000E+00  0.00000000E+00
  0.00000000E+00  0.00000000E+00  0.00000000E+00
  0.00000000E+00  0.00000000E+00  0.00000000E+00
  0.00000000E+00  0.00000000E+00  0.00000000E+00
  0.00000000E+00  0.00000000E+00  0.00000000E+00
  0.00000000E+00  0.00000000E+00  0.00000000E+00
  0.00000000E+00  0.00000000E+00  0.00000000E+00
  0.00000000E+00  0.00000000E+00  0.00000000E+00
  0.00000000E+00  0.00000000E+00  0.00000000E+00
  0.00000000E+00  0.00000000E+00  0.00000000E+00
  0.00000000E+00  0.00000000E+00  0.00000000E+00
  0.00000000E+00  0.00000000E+00  0.00000000E+00
  0.00000000E+00  0.00000000E+00  0.00000000E+00
  0.00000000E+00  0.00000000E+00  0.00000000E+00
  0.00000000E+00  0.00000000E+00  0.00000000E+00
  0.00000000E+00  0.00000000E+00  0.00000000E+00
  0.00000000E+00  0.00000000E+00  0.00000000E+00
  0.00000000E+00  0.00000000E+00  0.00000000E+00
  0.00000000E+00  0.00000000E+00  0.00000000E+00
  0.00000000E+00  0.00000000E+00  0.00000000E+00
  0.00000000E+00  0.00000000E+00  0.00000000E+00
  0.00000000E+00  0.00000000E+00  0.00000000E+00
  0.00000000E+00  0.00000000E+00  0.00000000E+00
  0.00000000E+00  0.00000000E+00  0.00000000E+00
  0.00000000E+00  0.00000000E+00  0.00000000E+00
  0.00000000E+00  0.00000000E+00  0.00000000E+00
  0.00000000E+00  0.00000000E+00  0.00000000E+00
  0.00000000E+00  0.00000000E+00  0.00000000E+00
  0.00000000E+00  0.00000000E+00  0.00000000E+00
  0.00000000E+00  0.00000000E+00  0.00000000E+00
  0.00000000E+00  0.00000000E+00  0.00000000E+00
  0.00000000E+00  0.00000000E+00  0.00000000E+00
  0.00000000E+00  0.00000000E+00  0.00000000E+00
  0.00000000E+00  0.00000000E+00  0.00000000E+00
  0.00000000E+00  0.00000000E+00  0.00000000E+00
  0.00000000E+00  0.00000000E+00  0.00000000E+00
  0.00000000E+00  0.00000000E+00  0.00000000E+00
  0.00000000E+00  0.00000000E+00  0.00000000E+00
