 B N Ge 
 1.0
 17.527899999999772   0.000000000000000   0.000000000000000
 -8.763949999999658  15.179606674993195   0.000000000000000
  0.000000000000001   0.000000000000002  15.000000000000000
 B N Ge 
  48  48   1
Cartesian
  7.559378263998163  14.502521278750988   1.660125506299725 
 15.057060801742352   1.490467620704139   1.661281327077390 
 13.794280176131707   3.653181886709064   1.661737339980300 
 12.521674917171346   5.806338929049734   1.660668409719465 
 11.232373124390595   7.955164373507574   1.660584574364940 
 10.027896016958749  10.119737783328796   1.661394332981550 
  8.812277018844741  12.320183657832139   1.660303484006355 
 -7.474045866095707  14.429257235702140   1.660275955785300 
  0.032117080849671   1.429059861443288   1.661109770212395 
 -1.214137216701048   3.630389292545948   1.661658390344205 
 -2.467679905322880   5.800432722271113   1.660764054179205 
 -3.744873281896329   7.952059268851024   1.660324790146335 
 -4.986156373083288  10.101857098111470   1.660756002913560 
 -6.226344172493144  12.260611376942002   1.660805897832720 
 -4.967294521986688  14.391008532628746   1.660789978563615 
  2.532442438256346   1.343420640281444   1.660396667995455 
  1.278166929453648   3.523488031207910   1.661401027796640 
  0.073753379176635   5.783763632976485   1.660741390872945 
 -1.211304080379155   7.959480060962234   1.661140228627695 
 -2.465184608519261  10.109571869343808   1.660862035400490 
 -3.716009146278521  12.251854197140519   1.660685563042440 
 -2.453094931640104  14.403176071442644   1.661803021994550 
  5.067388050252983   1.322105491782880   1.660985740574160 
  3.811479969435623   3.360560589956801   1.661807591032620 
  2.619417241416721   5.450110669654040   1.663115365495965 
  1.246607625840805   8.098761080291240   1.663300438551720 
  0.036535710995229  10.178737063743103   1.663880132409285 
 -1.208370145904884  12.287284327812207   1.661261009445180 
  0.051111938615787  14.451519178019877   1.661619456274695 
  7.560167280441440   1.403074487904398   1.661712199730640 
  6.299973382558156   3.510934981999031   1.660600412703780 
  4.999946838947600   5.514066350915211   1.663725992674515 
  2.617744990454578  10.153129868172616   1.664327022187485 
  1.317941684920491  12.310153602643185   1.662362063190255 
  2.539144772832710  14.514182072628223   1.660925800278525 
 10.041727193958064   1.478355099217705   1.660893410084070 
  8.766856576463923   3.635883539539174   1.661148143204445 
  7.446068647443282   5.813963584143235   1.660835930195010 
  6.032981540447107   8.169074341766535   1.661475974790780 
  5.123713127051501  10.345144718420881   1.660019838824115 
  3.805543067542414  12.389585294195317   1.660887268763130 
  5.047183711912535  14.531784464030302   1.660309914757305 
 12.545040909452844   1.500657847176597   1.660951846598490 
 11.275079581524961   3.654759260337857   1.660816680099555 
  9.983336706143250   5.812028442434015   1.660806453933975 
  8.649634299193444   7.974010345286819   1.660696986941220 
  7.567722225660474  10.210879416972835   1.659171482546040 
  6.330068084680406  12.402281601729452   1.659030651897525 
  8.799185676671982  13.752393072425201   1.660092037985790 
 16.304014053829579   0.753143516356463   1.660696691431695 
 15.051890943692099   2.931612811659423   1.661613221773425 
 13.791743132292918   5.093601619401952   1.660778638981890 
 12.508706713839125   7.244696523591571   1.660192262803335 
 11.275480416879407   9.393853001268264   1.660859089332015 
 10.043699075459664  11.562104715413335   1.660975473927480 
 -6.226272610385194  13.696445425971332   1.660243715160180 
  1.273003770679633   0.677416994472722   1.659980567744355 
  0.018451674966636   2.862297166374661   1.661445475357155 
 -1.200082173316191   5.079997190134494   1.660755438176865 
 -2.474973207053037   7.242402196661970   1.660110231010275 
 -3.727435290908939   9.391133249075789   1.660243525043040 
 -4.974688262775627  11.540208996287998   1.660556598400020 
 -3.709416786268481  13.686794728471391   1.660876415524380 
  3.796892048701614   0.639211584835949   1.660329352458885 
  2.520204774179727   2.760646994164514   1.660844401247685 
  1.288628912387580   4.959348678684805   1.661007008203590 
  0.060634660202072   7.251065014886604   1.661194604707695 
 -1.201567627656391   9.408798546606363   1.661811955033425 
 -2.457556767931802  11.549701845395713   1.660387240478835 
 -1.197138664238470  13.718053292524555   1.661324895030390 
  6.324083709755457   0.651110301095972   1.661592220785990 
  5.081368676454440   2.736775717242018   1.660405085754960 
  3.829063638575780   4.745668506146184   1.663992390428835 
  1.299086365506470   9.509931155866960   1.665431569652775 
  0.050475013157981  11.604077022030690   1.662271595847075 
  1.309069114211103  13.754329346157112   1.661192611575930 
  8.814411641925762   0.714428537411446   1.661315246365890 
  7.556447651161513   2.845207802405555   1.661018737968750 
  6.277384501730398   4.958469101833789   1.660472083637460 
  4.514109184157979   8.189123837534689   1.664645042816595 
  3.970902406455169   9.551757307847543   1.663338637538520 
  2.589302785766136  11.608215659237960   1.662391830182250 
  3.793586967765177  13.820465300970200   1.660332594434805 
 11.296846233934993   0.774893804720805   1.660408649688180 
 10.026878201091648   2.926536648740549   1.660619893474890 
  8.724496724450722   5.095844162460710   1.660708559630970 
  7.315180502453536   7.281849731316548   1.660867686337230 
  6.314805192712967   9.569928796852295   1.658697373524525 
  5.075311078590022  11.741468400056229   1.658881118616975 
  6.306533204900157  13.824459630504494   1.659448039329930 
 13.801020632633501   0.787883970920045   1.660710688148040 
 12.536115136641364   2.941511439854066   1.660964384663535 
 11.255468039398000   5.097630092156011   1.660439278341465 
  9.942748679003468   7.253718687522534   1.660443331241025 
  8.763209882968770   9.419648836829655   1.660435100773995 
  7.560888062523051  11.644873721719094   1.658765640951180 
  2.971120269812407   7.270512912939843   1.654836164274060 
