B N O                                   
   1.0000000000000000     
     8.7639499999999995  -15.1796066749929999    0.0000000000000000
     8.7639499999999995   15.1796066749929999    0.0000000000000000
     0.0000000000000000    0.0000000000000000   15.0000000000000000
   B    N    O 
    48    47     2
Selective dynamics
Direct
  0.9047824208382296  0.9525916315080816  0.1109059539886555   T   T   T
  0.9057050618956917  0.0960010794175639  0.1110046757782105   T   T   T
  0.9056878114267155  0.2388105046476640  0.1111286124271107   T   T   T
  0.9054852978969121  0.3815705314745893  0.1110524078120256   T   T   T
  0.9047293518682452  0.5241530605645089  0.1109694506490065   T   T   T
  0.9022996668085235  0.6663009631168313  0.1109839001915290   T   T   T
  0.9027923257494918  0.8085326089441978  0.1109587832348826   T   T   T
  0.0469891226346503  0.9518603747615882  0.1108942527167786   T   T   T
  0.0480862345452325  0.0954455073611816  0.1109034481819883   T   T   T
  0.0484481484102217  0.2386379836043402  0.1109956622364833   T   T   T
  0.0483445919028766  0.3816229761731826  0.1110835658916914   T   T   T
  0.0478255058967585  0.5243695378912414  0.1110556783535151   T   T   T
  0.0471052205665275  0.6666076758947406  0.1109904465147447   T   T   T
  0.0465731316267690  0.8089514830115904  0.1109199688563619   T   T   T
  0.1899741647815302  0.9517059318215007  0.1109554969925996   T   T   T
  0.1906014654627574  0.0950147663513426  0.1109516715886345   T   T   T
  0.1912457215698780  0.2385053267569075  0.1108647706918884   T   T   T
  0.1910625800178103  0.3814695383585833  0.1108919078728824   T   T   T
  0.1905438050086915  0.5245710240025568  0.1110286534307630   T   T   T
  0.1916405069912531  0.6668013321007853  0.1111056685520646   T   T   T
  0.1902071845324146  0.8090823141281347  0.1109776812791414   T   T   T
  0.3331706313409162  0.9516507681806444  0.1110152165034533   T   T   T
  0.3330966211096827  0.0942288918102409  0.1110260357267250   T   T   T
  0.3341083536297522  0.2379482576491973  0.1110438311749671   T   T   T
  0.3346608685307475  0.3813333644168441  0.1112957785729610   T   T   T
  0.3317516490868056  0.5252560657100571  0.1112107501123922   T   T   T
  0.3371614773518133  0.6671883962753817  0.1111402809504738   T   T   T
  0.3337844128277896  0.8092627527393078  0.1110973524488453   T   T   T
  0.4765007908379221  0.9520987291378712  0.1109731677749501   T   T   T
  0.4762651759827038  0.0938676451811126  0.1109943975727184   T   T   T
  0.4762483189705664  0.2350612266840803  0.1109623832489237   T   T   T
  0.4780069281833235  0.3764297556931330  0.1109742457716083   T   T   T
  0.4867750309418721  0.6686507808347733  0.1113278577383027   T   T   T
  0.4771100579125127  0.8100092906348323  0.1110958767170785   T   T   T
  0.6197552883877779  0.9536737655720720  0.1109340526779926   T   T   T
  0.6195950613300989  0.0954404621854471  0.1109272694097904   T   T   T
  0.6196389525776331  0.2374845658057983  0.1109354326921408   T   T   T
  0.6198901425140946  0.3797987921921421  0.1109511949907785   T   T   T
  0.6174416471742759  0.5211156981413259  0.1109673332586110   T   T   T
  0.6094122404577519  0.6696437865359205  0.1111789207590994   T   T   T
  0.6204230074956683  0.8127906630398911  0.1110504669744860   T   T   T
  0.7629655344915280  0.9537551870440466  0.1109216289198195   T   T   T
  0.7628200578720684  0.0960982224685098  0.1110083690645427   T   T   T
  0.7627298380511203  0.2385281969812174  0.1110277571924123   T   T   T
  0.7626382038041002  0.3811246531580798  0.1109623567749451   T   T   T
  0.7617468519838572  0.5237740307433555  0.1110147193632831   T   T   T
  0.7553753425280704  0.6651176479103668  0.1110280483532671   T   T   T
  0.7611740651615642  0.8099552683638312  0.1109796393298643   T   T   T
  0.9514139287250940  0.9040667870203207  0.1108663228741692   T   T   T
  0.9528289546671642  0.0479059610875755  0.1108944575447170   T   T   T
  0.9532624326618785  0.1911374839234677  0.1110486120931045   T   T   T
  0.9531427463719350  0.3340057722916842  0.1110898327330946   T   T   T
  0.9526382880493081  0.4768042261590768  0.1109754161331231   T   T   T
  0.9512635311299904  0.6192939634947320  0.1109356966767298   T   T   T
  0.9508264664022278  0.7614065303982520  0.1109210899613554   T   T   T
  0.0945403781019944  0.9041725085424708  0.1108778208258621   T   T   T
  0.0951988468902814  0.0473268736561152  0.1108669605669260   T   T   T
  0.0959405196049413  0.1908103184801410  0.1108674383070059   T   T   T
  0.0958359087337491  0.3338113934906209  0.1109676843361029   T   T   T
  0.0954507217799406  0.4769129224895361  0.1110581467604563   T   T   T
  0.0957473734079996  0.6195177431105295  0.1110249343436141   T   T   T
  0.0947064650879573  0.7617047745799383  0.1109055626183684   T   T   T
  0.2378153883327186  0.9042199260989664  0.1109382147746238   T   T   T
  0.2378451666814975  0.0469599394901857  0.1109626383402234   T   T   T
  0.2387308780892867  0.1905246212871934  0.1109175233745896   T   T   T
  0.2389221982504296  0.3338363302045623  0.1108342754938479   T   T   T
  0.2371702198945541  0.4767408730871962  0.1108503774181964   T   T   T
  0.2405333330096956  0.6198149476924523  0.1111157599848521   T   T   T
  0.2384910937174599  0.7618777792901329  0.1110428879513788   T   T   T
  0.3811916622573088  0.9043804074738149  0.1109920039951726   T   T   T
  0.3809166948548496  0.0467618234915019  0.1109956611656770   T   T   T
  0.3810639787473321  0.1894034144209197  0.1109680662942907   T   T   T
  0.3829628071082213  0.3336973126197001  0.1111345956773782   T   T   T
  0.3748146691598357  0.4752268138497294  0.1119153385460668   T   T   T
  0.3875318992693095  0.6206122956762530  0.1111474964260265   T   T   T
  0.3822170044057839  0.7621634666346480  0.1111216043250761   T   T   T
  0.5245701743035535  0.9051822687084095  0.1109365351391743   T   T   T
  0.5242805363480376  0.0470800749643736  0.1109133616343823   T   T   T
  0.5243081524993910  0.1886824255578630  0.1109198472877725   T   T   T
  0.5246992953872212  0.3293986319769572  0.1109360220970414   T   T   T
  0.5256586994567936  0.7634005499647474  0.1111504255905207   T   T   T
  0.6679266516151378  0.9069490213522760  0.1109016465329685   T   T   T
  0.6675535534774059  0.0485038520339403  0.1108910982694986   T   T   T
  0.6674744884748590  0.1905137042551177  0.1109256143059709   T   T   T
  0.6675314304937554  0.3327889192364726  0.1108994622300287   T   T   T
  0.6671729127215632  0.4756238048213479  0.1109838284303000   T   T   T
  0.6564734313299180  0.6171678010767233  0.1110760687024161   T   T   T
  0.6659845955495510  0.7634581052636829  0.1110383746426407   T   T   T
  0.8095681237964532  0.9052388743785590  0.1108826446250950   T   T   T
  0.8105643175413855  0.0486697756578586  0.1109406720502159   T   T   T
  0.8104665837695132  0.1911704633596152  0.1110549157941494   T   T   T
  0.8103066218088102  0.3337462482109639  0.1109808693084203   T   T   T
  0.8096421779065091  0.4764511340840171  0.1109406768385672   T   T   T
  0.8059568333320445  0.6188950833529328  0.1109755110947575   T   T   T
  0.8066535763180814  0.7606578415782645  0.1109638453512593   T   T   T
  0.4631665214662762  0.5331348744381426  0.1131291017115192   T   T   T
  0.5289352631620846  0.4653318948892065  0.1106001911838655   T   T   T

  0.00000000E+00  0.00000000E+00  0.00000000E+00
  0.00000000E+00  0.00000000E+00  0.00000000E+00
  0.00000000E+00  0.00000000E+00  0.00000000E+00
  0.00000000E+00  0.00000000E+00  0.00000000E+00
  0.00000000E+00  0.00000000E+00  0.00000000E+00
  0.00000000E+00  0.00000000E+00  0.00000000E+00
  0.00000000E+00  0.00000000E+00  0.00000000E+00
  0.00000000E+00  0.00000000E+00  0.00000000E+00
  0.00000000E+00  0.00000000E+00  0.00000000E+00
  0.00000000E+00  0.00000000E+00  0.00000000E+00
  0.00000000E+00  0.00000000E+00  0.00000000E+00
  0.00000000E+00  0.00000000E+00  0.00000000E+00
  0.00000000E+00  0.00000000E+00  0.00000000E+00
  0.00000000E+00  0.00000000E+00  0.00000000E+00
  0.00000000E+00  0.00000000E+00  0.00000000E+00
  0.00000000E+00  0.00000000E+00  0.00000000E+00
  0.00000000E+00  0.00000000E+00  0.00000000E+00
  0.00000000E+00  0.00000000E+00  0.00000000E+00
  0.00000000E+00  0.00000000E+00  0.00000000E+00
  0.00000000E+00  0.00000000E+00  0.00000000E+00
  0.00000000E+00  0.00000000E+00  0.00000000E+00
  0.00000000E+00  0.00000000E+00  0.00000000E+00
  0.00000000E+00  0.00000000E+00  0.00000000E+00
  0.00000000E+00  0.00000000E+00  0.00000000E+00
  0.00000000E+00  0.00000000E+00  0.00000000E+00
  0.00000000E+00  0.00000000E+00  0.00000000E+00
  0.00000000E+00  0.00000000E+00  0.00000000E+00
  0.00000000E+00  0.00000000E+00  0.00000000E+00
  0.00000000E+00  0.00000000E+00  0.00000000E+00
  0.00000000E+00  0.00000000E+00  0.00000000E+00
  0.00000000E+00  0.00000000E+00  0.00000000E+00
  0.00000000E+00  0.00000000E+00  0.00000000E+00
  0.00000000E+00  0.00000000E+00  0.00000000E+00
  0.00000000E+00  0.00000000E+00  0.00000000E+00
  0.00000000E+00  0.00000000E+00  0.00000000E+00
  0.00000000E+00  0.00000000E+00  0.00000000E+00
  0.00000000E+00  0.00000000E+00  0.00000000E+00
  0.00000000E+00  0.00000000E+00  0.00000000E+00
  0.00000000E+00  0.00000000E+00  0.00000000E+00
  0.00000000E+00  0.00000000E+00  0.00000000E+00
  0.00000000E+00  0.00000000E+00  0.00000000E+00
  0.00000000E+00  0.00000000E+00  0.00000000E+00
  0.00000000E+00  0.00000000E+00  0.00000000E+00
  0.00000000E+00  0.00000000E+00  0.00000000E+00
  0.00000000E+00  0.00000000E+00  0.00000000E+00
  0.00000000E+00  0.00000000E+00  0.00000000E+00
  0.00000000E+00  0.00000000E+00  0.00000000E+00
  0.00000000E+00  0.00000000E+00  0.00000000E+00
  0.00000000E+00  0.00000000E+00  0.00000000E+00
  0.00000000E+00  0.00000000E+00  0.00000000E+00
  0.00000000E+00  0.00000000E+00  0.00000000E+00
  0.00000000E+00  0.00000000E+00  0.00000000E+00
  0.00000000E+00  0.00000000E+00  0.00000000E+00
  0.00000000E+00  0.00000000E+00  0.00000000E+00
  0.00000000E+00  0.00000000E+00  0.00000000E+00
  0.00000000E+00  0.00000000E+00  0.00000000E+00
  0.00000000E+00  0.00000000E+00  0.00000000E+00
  0.00000000E+00  0.00000000E+00  0.00000000E+00
  0.00000000E+00  0.00000000E+00  0.00000000E+00
  0.00000000E+00  0.00000000E+00  0.00000000E+00
  0.00000000E+00  0.00000000E+00  0.00000000E+00
  0.00000000E+00  0.00000000E+00  0.00000000E+00
  0.00000000E+00  0.00000000E+00  0.00000000E+00
  0.00000000E+00  0.00000000E+00  0.00000000E+00
  0.00000000E+00  0.00000000E+00  0.00000000E+00
  0.00000000E+00  0.00000000E+00  0.00000000E+00
  0.00000000E+00  0.00000000E+00  0.00000000E+00
  0.00000000E+00  0.00000000E+00  0.00000000E+00
  0.00000000E+00  0.00000000E+00  0.00000000E+00
  0.00000000E+00  0.00000000E+00  0.00000000E+00
  0.00000000E+00  0.00000000E+00  0.00000000E+00
  0.00000000E+00  0.00000000E+00  0.00000000E+00
  0.00000000E+00  0.00000000E+00  0.00000000E+00
  0.00000000E+00  0.00000000E+00  0.00000000E+00
  0.00000000E+00  0.00000000E+00  0.00000000E+00
  0.00000000E+00  0.00000000E+00  0.00000000E+00
  0.00000000E+00  0.00000000E+00  0.00000000E+00
  0.00000000E+00  0.00000000E+00  0.00000000E+00
  0.00000000E+00  0.00000000E+00  0.00000000E+00
  0.00000000E+00  0.00000000E+00  0.00000000E+00
  0.00000000E+00  0.00000000E+00  0.00000000E+00
  0.00000000E+00  0.00000000E+00  0.00000000E+00
  0.00000000E+00  0.00000000E+00  0.00000000E+00
  0.00000000E+00  0.00000000E+00  0.00000000E+00
  0.00000000E+00  0.00000000E+00  0.00000000E+00
  0.00000000E+00  0.00000000E+00  0.00000000E+00
  0.00000000E+00  0.00000000E+00  0.00000000E+00
  0.00000000E+00  0.00000000E+00  0.00000000E+00
  0.00000000E+00  0.00000000E+00  0.00000000E+00
  0.00000000E+00  0.00000000E+00  0.00000000E+00
  0.00000000E+00  0.00000000E+00  0.00000000E+00
  0.00000000E+00  0.00000000E+00  0.00000000E+00
  0.00000000E+00  0.00000000E+00  0.00000000E+00
  0.00000000E+00  0.00000000E+00  0.00000000E+00
  0.00000000E+00  0.00000000E+00  0.00000000E+00
  0.00000000E+00  0.00000000E+00  0.00000000E+00
  0.00000000E+00  0.00000000E+00  0.00000000E+00
