B C N                                   
   1.0000000000000000     
     8.7639499999999995  -15.1796066749929999    0.0000000000000000
     8.7639499999999995   15.1796066749929999    0.0000000000000000
     0.0000000000000000    0.0000000000000000   15.0000000000000000
   B    C    N 
    48     3    47
Selective dynamics
Direct
  0.9054853994696728  0.9529161292413442  0.1110134777864556   T   T   T
  0.9049212103338324  0.0953421969949670  0.1110528914676274   T   T   T
  0.9048038337510794  0.2381263338117682  0.1110644531295677   T   T   T
  0.9049199983540650  0.3810113375222122  0.1110070135843906   T   T   T
  0.9054959550583883  0.5240063674755234  0.1110207129841641   T   T   T
  0.9064088777180882  0.6672716774282257  0.1111005460304487   T   T   T
  0.9063966311743917  0.8105726650942677  0.1110664512228332   T   T   T
  0.0479600100712487  0.9524483981951161  0.1110170928658364   T   T   T
  0.0476142656829349  0.0950776784054136  0.1110093895017487   T   T   T
  0.0474907975881378  0.2379069597127375  0.1110035135974669   T   T   T
  0.0474811437800527  0.3810022935549544  0.1110244869599897   T   T   T
  0.0476164401138834  0.5239563436136975  0.1110161088809078   T   T   T
  0.0479867149759209  0.6669618254495175  0.1110389702501848   T   T   T
  0.0482316681742681  0.8098419753034198  0.1110199804468374   T   T   T
  0.1903528911717154  0.9520676245536067  0.1110114472901848   T   T   T
  0.1897780192386020  0.0941664813649774  0.1110610401675603   T   T   T
  0.1898577245712347  0.2371095040200750  0.1110200233011320   T   T   T
  0.1899110289295713  0.3806501972700991  0.1110189396507361   T   T   T
  0.1898638791711258  0.5241657005860113  0.1110751104291863   T   T   T
  0.1897843801921038  0.6670254227237542  0.1110860816214167   T   T   T
  0.1903669865083605  0.8097236625088593  0.1110042339390295   T   T   T
  0.3330271010080910  0.9522220207051107  0.1110400453202462   T   T   T
  0.3327611900524711  0.0940775221148978  0.1111021759117791   T   T   T
  0.3315103800495422  0.2353824711056973  0.1110367466576207   T   T   T
  0.3320289602618441  0.3788355624672964  0.1110227932064695   T   T   T
  0.3320267744504793  0.5245840914483128  0.1110190507414772   T   T   T
  0.3315218701682642  0.6675429925801732  0.1110874658934001   T   T   T
  0.3327633015647076  0.8101071334999209  0.1110817875442948   T   T   T
  0.4759565105535112  0.9527841524128917  0.1110220966884691   T   T   T
  0.4759583367061268  0.0946054446857460  0.1110257187444959   T   T   T
  0.4756358955299849  0.2360582869337666  0.1110619449583219   T   T   T
  0.4732934326679985  0.3752935367845395  0.1110618141985008   T   T   T
  0.4732871043797014  0.6694214432931171  0.1108794186592410   T   T   T
  0.4756344813187166  0.8110116411098652  0.1110383416043500   T   T   T
  0.6189164267236750  0.9527468459856101  0.1110304973728830   T   T   T
  0.6189938436263147  0.0952213040538684  0.1110105158408773   T   T   T
  0.6189305595308677  0.2376209782055774  0.1110215649704879   T   T   T
  0.6192018028943710  0.3804780053656894  0.1110066831174488   T   T   T
  0.6233108347167303  0.5263456137548702  0.1110030203385371   T   T   T
  0.6233096723900593  0.6684012802591459  0.1109014910401821   T   T   T
  0.6192085256756089  0.8101563562199392  0.1109581692300308   T   T   T
  0.7623757904043352  0.9527534009369348  0.1110191246834945   T   T   T
  0.7619883321747478  0.0953567549368353  0.1110660510339255   T   T   T
  0.7619899525126229  0.2380829567979550  0.1110660405842534   T   T   T
  0.7623802271598222  0.3810507570214944  0.1110193263316408   T   T   T
  0.7636537951051969  0.5243133775152845  0.1110585370430296   T   T   T
  0.7657384538634922  0.6685868460990737  0.1110174421826399   T   T   T
  0.7636569925320836  0.8107846941387987  0.1110005688744876   T   T   T
  0.4713391942484041  0.5213824471161858  0.1109345423690735   T   T   T
  0.5216565184367509  0.4758112936877578  0.1111079750017457   T   T   T
  0.5216675614246989  0.6172949207087933  0.1108233107275870   T   T   T
  0.9529852449268997  0.9052750934855662  0.1110114052614461   T   T   T
  0.9525968085079506  0.0478573272118439  0.1110036585249553   T   T   T
  0.9525077415641231  0.1905667988120364  0.1110320880386601   T   T   T
  0.9525071857350239  0.3333795202356922  0.1110151206694894   T   T   T
  0.9526008596015842  0.4761707807918603  0.1109661516652685   T   T   T
  0.9530019827160916  0.6191554977297444  0.1110390651735693   T   T   T
  0.9531448055588517  0.7622954594438229  0.1110663800153693   T   T   T
  0.0953966015610495  0.9048180784200318  0.1109793429549010   T   T   T
  0.0950612540840141  0.0474144972350375  0.1110165006447170   T   T   T
  0.0952279295194563  0.1904299716008486  0.1109786616544796   T   T   T
  0.0954383757417124  0.3334282493353318  0.1109937635650812   T   T   T
  0.0952306431546035  0.4762179771726654  0.1110215977221910   T   T   T
  0.0950700388350668  0.6190731145190905  0.1110309861650894   T   T   T
  0.0954063698741053  0.7620271518954038  0.1109931369631954   T   T   T
  0.2380248826844444  0.9047283519514473  0.1109851573745208   T   T   T
  0.2378332397359585  0.0471678613991757  0.1110574864107391   T   T   T
  0.2370878099344707  0.1893093298466520  0.1110285862478304   T   T   T
  0.2380809680007924  0.3331620813471975  0.1110069534296959   T   T   T
  0.2380787419528413  0.4763208091479332  0.1110384308002071   T   T   T
  0.2370935328519211  0.6191944614180086  0.1110908081681519   T   T   T
  0.2378355005433781  0.7620874909315523  0.1110464981331228   T   T   T
  0.3808101074942413  0.9049541486378948  0.1110301470423070   T   T   T
  0.3808114954314676  0.0472794481638786  0.1110475227999663   T   T   T
  0.3804736833253077  0.1894327008139348  0.1110737160216946   T   T   T
  0.3789658628674018  0.3304884958529708  0.1110081076062342   T   T   T
  0.3803757023674139  0.4758902377190575  0.1109838445674856   T   T   T
  0.3789591705746630  0.6198830152317053  0.1109850123869027   T   T   T
  0.3804714014802777  0.7624618566481237  0.1110778741197116   T   T   T
  0.5237313733339070  0.9054633591447788  0.1110239753263733   T   T   T
  0.5238294094099997  0.0476317300784454  0.1109744443628042   T   T   T
  0.5237387355094613  0.1897083419649484  0.1110232965624160   T   T   T
  0.5232473265926836  0.3314233014489666  0.1110082099151079   T   T   T
  0.5232473575743600  0.7632607864433512  0.1109334005130776   T   T   T
  0.6665849325289398  0.9045953416746627  0.1109930987183996   T   T   T
  0.6666835024490013  0.0476359867689771  0.1110214538765159   T   T   T
  0.6666881477651577  0.1904949753493959  0.1110226502809659   T   T   T
  0.6665892420455513  0.3334326160098913  0.1109940861691369   T   T   T
  0.6677382280484241  0.4767316575292321  0.1109975481518423   T   T   T
  0.6711693560109357  0.6213013401215782  0.1109248695063956   T   T   T
  0.6677447663291417  0.7624491689350557  0.1109374000852964   T   T   T
  0.8101544844079827  0.9053103904976912  0.1109957325509388   T   T   T
  0.8095916162389714  0.0476478865498080  0.1110412321378716   T   T   T
  0.8095835072066256  0.1905162926736397  0.1110638360536085   T   T   T
  0.8095972257772220  0.3333843490598776  0.1110219224840637   T   T   T
  0.8101583138919269  0.4762833551928214  0.1110193638484862   T   T   T
  0.8112408358224890  0.6194933799770111  0.1110705306241393   T   T   T
  0.8112358865701838  0.7631848931006757  0.1110287187188573   T   T   T

  0.00000000E+00  0.00000000E+00  0.00000000E+00
  0.00000000E+00  0.00000000E+00  0.00000000E+00
  0.00000000E+00  0.00000000E+00  0.00000000E+00
  0.00000000E+00  0.00000000E+00  0.00000000E+00
  0.00000000E+00  0.00000000E+00  0.00000000E+00
  0.00000000E+00  0.00000000E+00  0.00000000E+00
  0.00000000E+00  0.00000000E+00  0.00000000E+00
  0.00000000E+00  0.00000000E+00  0.00000000E+00
  0.00000000E+00  0.00000000E+00  0.00000000E+00
  0.00000000E+00  0.00000000E+00  0.00000000E+00
  0.00000000E+00  0.00000000E+00  0.00000000E+00
  0.00000000E+00  0.00000000E+00  0.00000000E+00
  0.00000000E+00  0.00000000E+00  0.00000000E+00
  0.00000000E+00  0.00000000E+00  0.00000000E+00
  0.00000000E+00  0.00000000E+00  0.00000000E+00
  0.00000000E+00  0.00000000E+00  0.00000000E+00
  0.00000000E+00  0.00000000E+00  0.00000000E+00
  0.00000000E+00  0.00000000E+00  0.00000000E+00
  0.00000000E+00  0.00000000E+00  0.00000000E+00
  0.00000000E+00  0.00000000E+00  0.00000000E+00
  0.00000000E+00  0.00000000E+00  0.00000000E+00
  0.00000000E+00  0.00000000E+00  0.00000000E+00
  0.00000000E+00  0.00000000E+00  0.00000000E+00
  0.00000000E+00  0.00000000E+00  0.00000000E+00
  0.00000000E+00  0.00000000E+00  0.00000000E+00
  0.00000000E+00  0.00000000E+00  0.00000000E+00
  0.00000000E+00  0.00000000E+00  0.00000000E+00
  0.00000000E+00  0.00000000E+00  0.00000000E+00
  0.00000000E+00  0.00000000E+00  0.00000000E+00
  0.00000000E+00  0.00000000E+00  0.00000000E+00
  0.00000000E+00  0.00000000E+00  0.00000000E+00
  0.00000000E+00  0.00000000E+00  0.00000000E+00
  0.00000000E+00  0.00000000E+00  0.00000000E+00
  0.00000000E+00  0.00000000E+00  0.00000000E+00
  0.00000000E+00  0.00000000E+00  0.00000000E+00
  0.00000000E+00  0.00000000E+00  0.00000000E+00
  0.00000000E+00  0.00000000E+00  0.00000000E+00
  0.00000000E+00  0.00000000E+00  0.00000000E+00
  0.00000000E+00  0.00000000E+00  0.00000000E+00
  0.00000000E+00  0.00000000E+00  0.00000000E+00
  0.00000000E+00  0.00000000E+00  0.00000000E+00
  0.00000000E+00  0.00000000E+00  0.00000000E+00
  0.00000000E+00  0.00000000E+00  0.00000000E+00
  0.00000000E+00  0.00000000E+00  0.00000000E+00
  0.00000000E+00  0.00000000E+00  0.00000000E+00
  0.00000000E+00  0.00000000E+00  0.00000000E+00
  0.00000000E+00  0.00000000E+00  0.00000000E+00
  0.00000000E+00  0.00000000E+00  0.00000000E+00
  0.00000000E+00  0.00000000E+00  0.00000000E+00
  0.00000000E+00  0.00000000E+00  0.00000000E+00
  0.00000000E+00  0.00000000E+00  0.00000000E+00
  0.00000000E+00  0.00000000E+00  0.00000000E+00
  0.00000000E+00  0.00000000E+00  0.00000000E+00
  0.00000000E+00  0.00000000E+00  0.00000000E+00
  0.00000000E+00  0.00000000E+00  0.00000000E+00
  0.00000000E+00  0.00000000E+00  0.00000000E+00
  0.00000000E+00  0.00000000E+00  0.00000000E+00
  0.00000000E+00  0.00000000E+00  0.00000000E+00
  0.00000000E+00  0.00000000E+00  0.00000000E+00
  0.00000000E+00  0.00000000E+00  0.00000000E+00
  0.00000000E+00  0.00000000E+00  0.00000000E+00
  0.00000000E+00  0.00000000E+00  0.00000000E+00
  0.00000000E+00  0.00000000E+00  0.00000000E+00
  0.00000000E+00  0.00000000E+00  0.00000000E+00
  0.00000000E+00  0.00000000E+00  0.00000000E+00
  0.00000000E+00  0.00000000E+00  0.00000000E+00
  0.00000000E+00  0.00000000E+00  0.00000000E+00
  0.00000000E+00  0.00000000E+00  0.00000000E+00
  0.00000000E+00  0.00000000E+00  0.00000000E+00
  0.00000000E+00  0.00000000E+00  0.00000000E+00
  0.00000000E+00  0.00000000E+00  0.00000000E+00
  0.00000000E+00  0.00000000E+00  0.00000000E+00
  0.00000000E+00  0.00000000E+00  0.00000000E+00
  0.00000000E+00  0.00000000E+00  0.00000000E+00
  0.00000000E+00  0.00000000E+00  0.00000000E+00
  0.00000000E+00  0.00000000E+00  0.00000000E+00
  0.00000000E+00  0.00000000E+00  0.00000000E+00
  0.00000000E+00  0.00000000E+00  0.00000000E+00
  0.00000000E+00  0.00000000E+00  0.00000000E+00
  0.00000000E+00  0.00000000E+00  0.00000000E+00
  0.00000000E+00  0.00000000E+00  0.00000000E+00
  0.00000000E+00  0.00000000E+00  0.00000000E+00
  0.00000000E+00  0.00000000E+00  0.00000000E+00
  0.00000000E+00  0.00000000E+00  0.00000000E+00
  0.00000000E+00  0.00000000E+00  0.00000000E+00
  0.00000000E+00  0.00000000E+00  0.00000000E+00
  0.00000000E+00  0.00000000E+00  0.00000000E+00
  0.00000000E+00  0.00000000E+00  0.00000000E+00
  0.00000000E+00  0.00000000E+00  0.00000000E+00
  0.00000000E+00  0.00000000E+00  0.00000000E+00
  0.00000000E+00  0.00000000E+00  0.00000000E+00
  0.00000000E+00  0.00000000E+00  0.00000000E+00
  0.00000000E+00  0.00000000E+00  0.00000000E+00
  0.00000000E+00  0.00000000E+00  0.00000000E+00
  0.00000000E+00  0.00000000E+00  0.00000000E+00
  0.00000000E+00  0.00000000E+00  0.00000000E+00
  0.00000000E+00  0.00000000E+00  0.00000000E+00
  0.00000000E+00  0.00000000E+00  0.00000000E+00
