 C N B 
 1.0
 17.527899999999772   0.000000000000000   0.000000000000000
 -8.763949999999658  15.179606674993195   0.000000000000000
  0.000000000000001   0.000000000000002  15.000000000000000
 C N B 
   3  47  48
Cartesian
  3.692216565462773   7.914380474469144   1.664018135536110 
  4.973556902192744   7.222628289699839   1.666619625026190 
  3.733795029550246   9.370294098830589   1.662349660913805 
  8.770044419001476  13.741719851778587   1.665171078921690 
 16.277602377028074   0.726455403592241   1.665054877874325 
 15.025342546912894   2.892729051279267   1.665481320579900 
 13.774134034178157   5.059868891664398   1.665226810042335 
 12.523955692689729   7.228085162544839   1.664492274979035 
 11.277875628520793   9.398536926197156   1.665585977603535 
 10.025907545562351  11.571345244490461   1.665995700230535 
 -6.257678305867042  13.734782542839234   1.664690144323515 
  1.250685872416172   0.719733418720430   1.665247509670755 
  0.000226876212855   2.890652068031012   1.664679924817200 
 -1.248482360503421   5.059868891664398   1.664906453476215 
 -2.504357350892653   7.228801585041943   1.665323965832865 
 -3.759147688292226   9.397286381462820   1.665464792476335 
 -5.006094547337163  11.567272441437529   1.664897054447925 
 -3.756917698879962  13.733420530337778   1.664777360617815 
  3.755340463858551   0.715989583740086   1.665862296161085 
  2.496553922440859   2.873641166978727   1.665428793717450 
  1.251742732354475   5.059868891664398   1.665104301445440 
 -0.001431374256717   7.230362533980124   1.665576462003105 
 -1.270837565669017   9.399128379659627   1.666362122522280 
 -2.510139796175094  11.568188364273404   1.665697471996845 
 -1.256171427806551  13.736848035226576   1.665452205634605 
  6.260471091037330   0.717683426938413   1.665712841999490 
  5.008725955659358   2.875513889737197   1.666105740325425 
  3.746091094522917   5.016685377658220   1.665121614093510 
  2.496509024667943   7.223826629044296   1.664757668512290 
  1.209734694575860   9.409580355726098   1.664775185803545 
 -0.013312910564988  11.573871088603569   1.666168111795680 
  1.244475532282690  13.744577650435849   1.665359629895595 
  8.764187404376447   0.723030927840238   1.664616665442060 
  7.517445758572521   2.879698013993016   1.665349448436240 
  6.266849573050226   5.030875358923021   1.665123148726620 
  2.482247989477560  11.585998528656047   1.664001007696170 
  3.757438321997160  13.731401486652466   1.664896480776000 
 11.267787260422555   0.723095542728251   1.665321808147740 
 10.015778227453239   2.891638799366356   1.665339754214490 
  8.763949999999962   5.059868891664398   1.664911292537055 
  7.525996477406669   7.236599050811300   1.664963222277630 
  6.319135475465640   9.431109969691724   1.663873042595940 
  5.022097095652293  11.573678494109590   1.664061001279440 
  6.266211790452569  13.742255646539446   1.664935988264085 
 13.772857194946701   0.723276176720784   1.665618482068080 
 12.520623492789753   2.891962387963743   1.665957540804135 
 11.269222547033833   5.059868891664398   1.665328837260960 
 10.026250399324162   7.229793997673100   1.665290457727290 
  8.790139238763505   9.403665845813133   1.666057959362085 
  7.530747252323932  11.584846497564991   1.665430780782855 
  7.519948222499924  14.464892036140583   1.665202166796840 
 15.025794235256159   1.447257049913317   1.665793372014405 
 13.772383834395766   3.614664086220771   1.665966796943520 
 12.522182927672349   5.783602242300255   1.665105203765865 
 11.279076946430781   7.954210553470386   1.665310694762460 
 10.039508550357795  10.128921608723406   1.666508190456735 
  8.783411203308784  12.304174237631974   1.665996768342495 
 -7.506571878833928  14.457792062829158   1.665256392987540 
  0.001322067802810   1.443241761765679   1.665140842526235 
 -1.252590748529256   3.611334073682815   1.665052703962005 
 -2.506840310538429   5.783464958434497   1.665367304399850 
 -3.757310996940962   7.953451210923504   1.665241633213620 
 -5.004113748721640  10.124218177559150   1.665584553752775 
 -6.252014722868389  12.293082654005469   1.665299706702555 
 -5.007386617037600  14.452012068718849   1.665171709352775 
  2.501139809053690   1.429410149088427   1.665915602513400 
  1.249791372755451   3.599229009927456   1.665300349516980 
 -0.007257772390570   5.778120275318671   1.665284094761040 
 -1.265846903927056   7.956629167417897   1.666126656437790 
 -2.519255815910479  10.125183559167654   1.666291224321255 
 -3.759644189224381  12.291286712319414   1.665063509085450 
 -2.507960454598589  14.454355741570811   1.665600679803690 
  5.008114163181803   1.428059782662126   1.666532638676685 
  3.747800582823598   3.573013329572431   1.665551199864315 
  2.499674484888370   5.750574832753368   1.665341898097050 
  1.222303351642212   7.962980176144052   1.665285761122155 
 -0.039431221700540  10.133040066014928   1.666311988401000 
 -1.267096539140387  12.297107651135004   1.666226813164425 
 -0.007634551207863  14.462888679794471   1.665331450327035 
  7.513432742997604   1.436073439642450   1.665385781167440 
  6.268095389486808   3.583271948027268   1.665929174374830 
  5.006786166758570   5.696808276056408   1.665927212977515 
  2.428952978908369  10.161554208995778   1.663191279888615 
  1.229208153001706  12.310837720888493   1.665575124065250 
  2.498479515094500  14.462322382901879   1.665457460593245 
 10.015147444034682   1.445421942617652   1.665157737613155 
  8.766054582456274   3.606992986887789   1.665323474557320 
  7.518817065827603   5.775506469937110   1.665100246761735 
  6.312463338164416   7.989719391906815   1.665045305078055 
  5.067474206558657  10.146068535395731   1.663522365602730 
  3.753255319095908  12.297854832664351   1.664372538450465 
  5.012963448487044  14.462421884484765   1.665286870252410 
 12.520353455096950   1.447478033744871   1.665990765508890 
 11.269536559416476   3.614005640212354   1.665990608763795 
 10.023414601636077   5.784200614794680   1.665289894974615 
  8.790191130349307   7.958870845119247   1.665878055645450 
  7.562325355603977  10.148885351858153   1.665261632739600 
  6.279626879205489  12.307392755131628   1.665008533117320 
