As B N                                  
   1.0000000000000000     
     8.7639499999999995  -15.1796066749929999    0.0000000000000000
     8.7639499999999995   15.1796066749929999    0.0000000000000000
     0.0000000000000000    0.0000000000000000   15.0000000000000000
   As   B    N 
     1    48    48
Selective dynamics
Direct
  0.4008017837706744  0.4804298332942490  0.1102466038218230   T   T   T
  0.9082883380010200  0.9536626900779055  0.1108993170963622   T   T   T
  0.9087305129929106  0.0968861097896166  0.1109430769011497   T   T   T
  0.9085049585086111  0.2394446416169604  0.1108536323135633   T   T   T
  0.9072736249404729  0.3815129804443013  0.1107159798249443   T   T   T
  0.9040361755408781  0.5230773185692512  0.1106465646619772   T   T   T
  0.9030582091797763  0.6648268607572204  0.1107802382258503   T   T   T
  0.9050582217786997  0.8083427496229652  0.1108842832323093   T   T   T
  0.0486975741728853  0.9508150923596428  0.1108348535437167   T   T   T
  0.0500264954952597  0.0944314023633143  0.1108529244267608   T   T   T
  0.0514955365107839  0.2388666834817420  0.1108223221025818   T   T   T
  0.0511512297717911  0.3817539043073599  0.1108456937051052   T   T   T
  0.0486223592749066  0.5239298183654876  0.1108025546075082   T   T   T
  0.0474210025342401  0.6656957714172060  0.1106498444732303   T   T   T
  0.0474912015536383  0.8077870184217025  0.1107372061718748   T   T   T
  0.1910945132889861  0.9500821368514542  0.1108093602623837   T   T   T
  0.1917556051537009  0.0922862164335652  0.1107127169366158   T   T   T
  0.1916748563644443  0.2343660767461868  0.1104889973882134   T   T   T
  0.1954385983651408  0.3815797871190131  0.1106689260599063   T   T   T
  0.1922341567329810  0.5250284412012031  0.1110695145434667   T   T   T
  0.1915153881066927  0.6670427944110564  0.1109145177708945   T   T   T
  0.1910417028649786  0.8085017515395182  0.1106674562599267   T   T   T
  0.3347752484010419  0.9510761972426848  0.1108354290433891   T   T   T
  0.3346777113853474  0.0908950001525434  0.1109092906835268   T   T   T
  0.3356207105006435  0.2302170184945964  0.1105354553696052   T   T   T
  0.3326800480024895  0.3622457541601111  0.1100555753986421   T   T   T
  0.3351987479546816  0.5352137516856809  0.1106563050842385   T   T   T
  0.3359636159610082  0.6720957854322529  0.1110692429356862   T   T   T
  0.3351609073685473  0.8111491316870320  0.1108853094824724   T   T   T
  0.4789817229481296  0.9532742794630098  0.1108208875944157   T   T   T
  0.4787334589947888  0.0940535362526701  0.1108678679746960   T   T   T
  0.4785665294581702  0.2348272796672014  0.1109709855061519   T   T   T
  0.4835918077327245  0.3798996522206855  0.1108081316979105   T   T   T
  0.4813883595332093  0.6718342634506079  0.1102656344537339   T   T   T
  0.4797976504694949  0.8126033235621262  0.1109528557055712   T   T   T
  0.6229564205109154  0.9553527066908840  0.1107330399392659   T   T   T
  0.6224418782929696  0.0964727042870461  0.1106477288777784   T   T   T
  0.6219903564668582  0.2381787865005928  0.1107985267274334   T   T   T
  0.6214215241870704  0.3812959074783846  0.1106665788705205   T   T   T
  0.5861071443138195  0.5182724420342200  0.1105510162680591   T   T   T
  0.6291743244653363  0.6772453848869460  0.1106921998833585   T   T   T
  0.6241327661317210  0.8148153783304001  0.1108229645553851   T   T   T
  0.7663563135577517  0.9554096023344244  0.1108221537880981   T   T   T
  0.7658554113906730  0.0973072935807572  0.1107409779493602   T   T   T
  0.7652135787116812  0.2392051149611638  0.1107139078929543   T   T   T
  0.7636511099924499  0.3811051389609402  0.1106335116534936   T   T   T
  0.7567607211933718  0.5213940057143508  0.1105194067355726   T   T   T
  0.7592572229208541  0.6641495245665785  0.1111280246296418   T   T   T
  0.7672368855428090  0.8135040545056869  0.1110056934707368   T   T   T
  0.9538852844934886  0.9041679176226206  0.1108480979005048   T   T   T
  0.9555405208906066  0.0485036515280343  0.1109435404355669   T   T   T
  0.9563160038449917  0.1919432477167841  0.1109159171662272   T   T   T
  0.9558701694142483  0.3343785169116625  0.1107933468784978   T   T   T
  0.9535541451051460  0.4764326413557212  0.1106801118407646   T   T   T
  0.9523017401866631  0.6183242281692242  0.1106376366955253   T   T   T
  0.9524662809202814  0.7605880120725638  0.1107903918601499   T   T   T
  0.0959172737612281  0.9029501566945961  0.1107908762245485   T   T   T
  0.0966369951095757  0.0458360021863546  0.1107979850767485   T   T   T
  0.0971491148738408  0.1891096875377836  0.1107076600686332   T   T   T
  0.0994868365397916  0.3343006893086367  0.1107657320361426   T   T   T
  0.0971612676818868  0.4769570367951205  0.1109144744122828   T   T   T
  0.0961441516023457  0.6190558702938470  0.1107326697740880   T   T   T
  0.0957312862156015  0.7608601896439974  0.1106061228037458   T   T   T
  0.2392625537076619  0.9033179040582938  0.1107479187606011   T   T   T
  0.2391987706216131  0.0445655202336474  0.1108225513484665   T   T   T
  0.2395717224104913  0.1865112901581938  0.1104721746779531   T   T   T
  0.2390117007701722  0.3287617798230828  0.1103158430616985   T   T   T
  0.2403824821149851  0.4780455990128381  0.1109400924497702   T   T   T
  0.2400383862348900  0.6208078573385539  0.1111684451173046   T   T   T
  0.2395464566544865  0.7622034224154265  0.1107490172486601   T   T   T
  0.3834257498915727  0.9054255272870835  0.1107949375565093   T   T   T
  0.3831267392599133  0.0451014225285291  0.1109137320730270   T   T   T
  0.3830523201728445  0.1841608248896569  0.1109117775679580   T   T   T
  0.3852433929381182  0.3225870454188235  0.1102411341897654   T   T   T
  0.3852481703026674  0.6285028010425129  0.1107481260162591   T   T   T
  0.3841323105096733  0.7661813444271365  0.1110414697042038   T   T   T
  0.5276073835780736  0.9072807430643720  0.1108351143389554   T   T   T
  0.5270877470575073  0.0477707090703433  0.1107094317181664   T   T   T
  0.5266968270517329  0.1882497495685419  0.1109011768145380   T   T   T
  0.5259270051896447  0.3285959364338058  0.1109569900215119   T   T   T
  0.5163631368756456  0.5437344372201020  0.1090973823337357   T   T   T
  0.5361419158945711  0.6323056602279167  0.1093278591588234   T   T   T
  0.5288443584565453  0.7669024692071329  0.1107773489593503   T   T   T
  0.6713856138717961  0.9092911791257011  0.1107442575000875   T   T   T
  0.6707055860721326  0.0499304667498685  0.1106210045767159   T   T   T
  0.6701359616839622  0.1910640955931565  0.1106626303572427   T   T   T
  0.6691271457435576  0.3325891371409328  0.1107202269988642   T   T   T
  0.6627328899809812  0.4743150004983804  0.1102035645725043   T   T   T
  0.6647839995294661  0.6199432053624927  0.1112756344971352   T   T   T
  0.6739235401218479  0.7705754111769620  0.1109937112717632   T   T   T
  0.8142138281984368  0.9082371177700206  0.1108775275482674   T   T   T
  0.8138086768444431  0.0502213185064488  0.1108437414213108   T   T   T
  0.8134095098640463  0.1920801406335572  0.1107572696743138   T   T   T
  0.8124171828165776  0.3339143247265892  0.1106583372984076   T   T   T
  0.8091925266205372  0.4758102236045916  0.1105846546123858   T   T   T
  0.8082395117277434  0.6177791272604182  0.1108472998990892   T   T   T
  0.8104005872110758  0.7617882622033059  0.1110058971874011   T   T   T

  0.00000000E+00  0.00000000E+00  0.00000000E+00
  0.00000000E+00  0.00000000E+00  0.00000000E+00
  0.00000000E+00  0.00000000E+00  0.00000000E+00
  0.00000000E+00  0.00000000E+00  0.00000000E+00
  0.00000000E+00  0.00000000E+00  0.00000000E+00
  0.00000000E+00  0.00000000E+00  0.00000000E+00
  0.00000000E+00  0.00000000E+00  0.00000000E+00
  0.00000000E+00  0.00000000E+00  0.00000000E+00
  0.00000000E+00  0.00000000E+00  0.00000000E+00
  0.00000000E+00  0.00000000E+00  0.00000000E+00
  0.00000000E+00  0.00000000E+00  0.00000000E+00
  0.00000000E+00  0.00000000E+00  0.00000000E+00
  0.00000000E+00  0.00000000E+00  0.00000000E+00
  0.00000000E+00  0.00000000E+00  0.00000000E+00
  0.00000000E+00  0.00000000E+00  0.00000000E+00
  0.00000000E+00  0.00000000E+00  0.00000000E+00
  0.00000000E+00  0.00000000E+00  0.00000000E+00
  0.00000000E+00  0.00000000E+00  0.00000000E+00
  0.00000000E+00  0.00000000E+00  0.00000000E+00
  0.00000000E+00  0.00000000E+00  0.00000000E+00
  0.00000000E+00  0.00000000E+00  0.00000000E+00
  0.00000000E+00  0.00000000E+00  0.00000000E+00
  0.00000000E+00  0.00000000E+00  0.00000000E+00
  0.00000000E+00  0.00000000E+00  0.00000000E+00
  0.00000000E+00  0.00000000E+00  0.00000000E+00
  0.00000000E+00  0.00000000E+00  0.00000000E+00
  0.00000000E+00  0.00000000E+00  0.00000000E+00
  0.00000000E+00  0.00000000E+00  0.00000000E+00
  0.00000000E+00  0.00000000E+00  0.00000000E+00
  0.00000000E+00  0.00000000E+00  0.00000000E+00
  0.00000000E+00  0.00000000E+00  0.00000000E+00
  0.00000000E+00  0.00000000E+00  0.00000000E+00
  0.00000000E+00  0.00000000E+00  0.00000000E+00
  0.00000000E+00  0.00000000E+00  0.00000000E+00
  0.00000000E+00  0.00000000E+00  0.00000000E+00
  0.00000000E+00  0.00000000E+00  0.00000000E+00
  0.00000000E+00  0.00000000E+00  0.00000000E+00
  0.00000000E+00  0.00000000E+00  0.00000000E+00
  0.00000000E+00  0.00000000E+00  0.00000000E+00
  0.00000000E+00  0.00000000E+00  0.00000000E+00
  0.00000000E+00  0.00000000E+00  0.00000000E+00
  0.00000000E+00  0.00000000E+00  0.00000000E+00
  0.00000000E+00  0.00000000E+00  0.00000000E+00
  0.00000000E+00  0.00000000E+00  0.00000000E+00
  0.00000000E+00  0.00000000E+00  0.00000000E+00
  0.00000000E+00  0.00000000E+00  0.00000000E+00
  0.00000000E+00  0.00000000E+00  0.00000000E+00
  0.00000000E+00  0.00000000E+00  0.00000000E+00
  0.00000000E+00  0.00000000E+00  0.00000000E+00
  0.00000000E+00  0.00000000E+00  0.00000000E+00
  0.00000000E+00  0.00000000E+00  0.00000000E+00
  0.00000000E+00  0.00000000E+00  0.00000000E+00
  0.00000000E+00  0.00000000E+00  0.00000000E+00
  0.00000000E+00  0.00000000E+00  0.00000000E+00
  0.00000000E+00  0.00000000E+00  0.00000000E+00
  0.00000000E+00  0.00000000E+00  0.00000000E+00
  0.00000000E+00  0.00000000E+00  0.00000000E+00
  0.00000000E+00  0.00000000E+00  0.00000000E+00
  0.00000000E+00  0.00000000E+00  0.00000000E+00
  0.00000000E+00  0.00000000E+00  0.00000000E+00
  0.00000000E+00  0.00000000E+00  0.00000000E+00
  0.00000000E+00  0.00000000E+00  0.00000000E+00
  0.00000000E+00  0.00000000E+00  0.00000000E+00
  0.00000000E+00  0.00000000E+00  0.00000000E+00
  0.00000000E+00  0.00000000E+00  0.00000000E+00
  0.00000000E+00  0.00000000E+00  0.00000000E+00
  0.00000000E+00  0.00000000E+00  0.00000000E+00
  0.00000000E+00  0.00000000E+00  0.00000000E+00
  0.00000000E+00  0.00000000E+00  0.00000000E+00
  0.00000000E+00  0.00000000E+00  0.00000000E+00
  0.00000000E+00  0.00000000E+00  0.00000000E+00
  0.00000000E+00  0.00000000E+00  0.00000000E+00
  0.00000000E+00  0.00000000E+00  0.00000000E+00
  0.00000000E+00  0.00000000E+00  0.00000000E+00
  0.00000000E+00  0.00000000E+00  0.00000000E+00
  0.00000000E+00  0.00000000E+00  0.00000000E+00
  0.00000000E+00  0.00000000E+00  0.00000000E+00
  0.00000000E+00  0.00000000E+00  0.00000000E+00
  0.00000000E+00  0.00000000E+00  0.00000000E+00
  0.00000000E+00  0.00000000E+00  0.00000000E+00
  0.00000000E+00  0.00000000E+00  0.00000000E+00
  0.00000000E+00  0.00000000E+00  0.00000000E+00
  0.00000000E+00  0.00000000E+00  0.00000000E+00
  0.00000000E+00  0.00000000E+00  0.00000000E+00
  0.00000000E+00  0.00000000E+00  0.00000000E+00
  0.00000000E+00  0.00000000E+00  0.00000000E+00
  0.00000000E+00  0.00000000E+00  0.00000000E+00
  0.00000000E+00  0.00000000E+00  0.00000000E+00
  0.00000000E+00  0.00000000E+00  0.00000000E+00
  0.00000000E+00  0.00000000E+00  0.00000000E+00
  0.00000000E+00  0.00000000E+00  0.00000000E+00
  0.00000000E+00  0.00000000E+00  0.00000000E+00
  0.00000000E+00  0.00000000E+00  0.00000000E+00
  0.00000000E+00  0.00000000E+00  0.00000000E+00
  0.00000000E+00  0.00000000E+00  0.00000000E+00
  0.00000000E+00  0.00000000E+00  0.00000000E+00
  0.00000000E+00  0.00000000E+00  0.00000000E+00
