 P B N 
 1.0
 17.527899999999772   0.000000000000000   0.000000000000000
 -8.763949999999658  15.179606674993195   0.000000000000000
  0.000000000000001   0.000000000000002  15.000000000000000
 P B N 
   2  48  48
Cartesian
  4.045095274604224   7.784321391622041   2.344749357125775 
  5.051225552551393   7.203425537858176   0.118268032498410 
  7.512752750365280  14.467983386298396   1.657328697878850 
 15.014213184904678   1.451298213327089   1.639796892416625 
 13.756789902493921   3.619879257013049   1.647828218148960 
 12.505622796158862   5.788125596535126   1.675995929851470 
 11.263052970883514   7.957364351887386   1.707828947654670 
 10.024315199073165  10.129652193419600   1.702527157358130 
  8.776901554549358  12.307260632740002   1.696054630996815 
 -7.508785732555129  14.454957701280453   1.664559902288880 
 -0.009297065222293   1.439410928636634   1.657328697878850 
 -1.266717191833119   3.611050755103701   1.652391399994455 
 -2.516076101302591   5.781978581428398   1.648175153148645 
 -3.756307847775332   7.950596502229922   1.650111763905465 
 -5.000287008857145  10.119737783328796   1.663523410468305 
 -6.250506502686919  12.288792857408295   1.668791798069685 
 -5.003692334042981  14.448338345096305   1.668791798069685 
  2.494018131986372   1.424987326828645   1.696054630996815 
  1.231125411343443   3.589602371712887   1.688753148964260 
 -0.014855450582688   5.770701069974508   1.691617196991930 
 -1.246538435075505   7.945484666561904   1.664041579838895 
 -2.494501606691531  10.115186766602219   1.645054055156835 
 -3.747267906984993  12.283244372125923   1.643119418290395 
 -2.500161218089143  14.450144040172898   1.663523410468305 
  5.003589182212558   1.433499641303875   1.702527157358130 
  3.728922685523802   3.569142385368604   1.677883086848355 
  2.473377232480669   5.727121245957878   1.713084628593885 
  1.263637996259956   7.938344249072010   1.783655385528390 
  0.014310395140862  10.111496126825726   1.704775162548660 
 -1.243291793569242  12.282345733828539   1.645054055156835 
  0.000395243619765  14.457397125447008   1.650111763905465 
  7.504214523216712   1.446865183054854   1.707828947654670 
  6.241330357828570   3.613108086541767   1.706154632774130 
  4.939197705436397   5.693535563788418   1.342822303895190 
  2.520978928116975  10.116122625484353   1.783655385528390 
  1.259706929518157  12.286428974241765   1.664041579838895 
  2.498589327355029  14.467633886822382   1.648175153148645 
 10.004115304845751   1.455387526066488   1.675995929851470 
  8.742623532830709   3.626818177984128   1.732738289071635 
  7.479775035300735   5.801308107193657   1.651307221740180 
  6.302820130779287   8.055398886852737   1.342822303895190 
  5.040823840339273  10.174069216519445   1.713084628593885 
  3.758966264125490  12.307152018555627   1.691617196991930 
  5.003347429469478  14.471121245939722   1.652391399994455 
 12.507455269702000   1.455968197361862   1.647828218148960 
 11.250090475151355   3.624515473066052   1.690179901797240 
  9.994362803034583   5.794894191806416   1.732738289071635 
  8.755589503002144   7.967932669407194   1.706154632774130 
  7.537461080960940  10.165724388872633   1.677883086848355 
  6.270843575944252  12.318650288629170   1.688753148964260 
  8.766544145813931  13.745854749534212   1.668075986174790 
 16.266528858023854   0.728267155410449   1.643661592538940 
 15.008997218850268   2.895360026957311   1.639830090855555 
 13.757981827912825   5.064591891215758   1.649792938072080 
 12.515335064423390   7.232373455857886   1.673268224079705 
 11.273928925838465   9.402339543624246   1.696154404772730 
 10.024691044310764  11.574799956615788   1.693870534040775 
 -6.255817091629020  13.731549652224556   1.662504103850670 
  1.242974949418418   0.714650647117508   1.668075986174790 
 -0.019381287407529   2.881220738654975   1.662636556890045 
 -1.266669738438966   5.056545472376483   1.659623365514475 
 -2.502544370943157   7.227272768819338   1.642343677951125 
 -3.747824980089293   9.395283036142823   1.645501530966930 
 -4.998520037181646  11.563924329549911   1.652212565103465 
 -3.749949969082516  13.726511124307084   1.652212565103465 
  3.752237002342298   0.710590867785822   1.693870534040775 
  2.479036421407910   2.861891493344653   1.715325477917115 
  1.222610387428857   5.032935698790121   1.703791236283380 
  0.009405289310958   7.220414702437694   1.696527631463385 
 -1.238839288417021   9.390973231475769   1.664162359804095 
 -2.494059547816953  11.559697921678588   1.639708670465505 
 -1.246503988749983  13.727698079180984   1.645501530966930 
  6.258261849472715   0.714949333508713   1.696154404772730 
  4.995237282633051   2.873892422682375   1.698887618157495 
  3.701680266647861   4.996369670864960   1.577347038351810 
  2.504210255224709   7.174950712150941   1.880817133690260 
  1.273573567968763   9.384453928071848   1.789052644930200 
  0.011721257413069  11.557007634794726   1.664162359804095 
  1.253688282973178  13.733258570481960   1.642343677951125 
  8.758210676104015   0.724843124963365   1.673268224079705 
  7.496821256562239   2.894015073813168   1.742616281066130 
  6.228435163970198   5.059868891664398   1.622018640107430 
  3.802377826310084   9.423442902039504   1.880817133690260 
  2.515602372807451  11.561275384865146   1.696527631463385 
  3.751530582633074  13.748323391061980   1.659623365514475 
 11.256887962684413   0.732570242172026   1.649792938072080 
  9.998002226451259   2.902346810367420   1.706943255317265 
  8.734979190684088   5.076609383253963   1.735403361951135 
  7.496180295654647   7.255710431887133   1.622018640107430 
  6.287819357978503   9.475693972519950   1.577347038351810 
  5.016617309270306  11.604348451717973   1.703791236283380 
  6.259061289049801  13.755802273482528   1.662636556890045 
 13.761005559317189   0.733775065224067   1.639830090855555 
 12.503447182101766   2.900883373986580   1.656097814119275 
 11.249457331202699   5.069930635157887   1.706943255317265 
 10.006082341771840   7.240182762821123   1.742616281066130 
  8.772717081869263   9.416679359524437   1.698887618157495 
  7.525009760932148  11.601773691038694   1.715325477917115 
