Species order:X N B                     
   2.51242800000000     
     5.9449720136058266    0.0000000000000000    0.0000000000000000
    -2.9724860068029120    5.1484967885702053   -0.0000000000000001
     0.0000000000000000    0.0000000000000009    5.3101128803662583
   C    N    B 
     2   142   143
Direct
  0.3875550290422551  0.4384531430343503  0.3750000000000000
  0.4297483970985984  0.3783793865538528  0.3750000000000000
  0.1110912817506664  0.0555484712273824  0.1250557958665898
  0.6111142807867620  0.5555108112180732  0.1249090951547706
  0.4444358249689970  0.0555484414184842  0.1250762484821238
  0.9444617002019757  0.5555537927469194  0.1250436290685452
  0.7777416100448564  0.0555399325527941  0.1250301829146592
  0.1111202861852621  0.7222151924850907  0.6249813084197485
  0.4444383752528152  0.7221815304906957  0.6249655861663512
  0.2777656340457973  0.2222091627764327  0.6250892131974329
  0.7777738658673502  0.7222023197155382  0.6249298533440472
  0.6110962098460954  0.2222275670144691  0.6248728822545137
  0.9444118395380993  0.2222071575808695  0.6249867211868511
  0.2777823698504482  0.7222003796867054  0.1250058866366886
  0.1110859882116961  0.2222044666433741  0.1250047644275260
  0.4444477080913553  0.2222179276369573  0.1250325752565009
  0.6110911663635735  0.7221719128448659  0.1250871703846526
  0.9444544140484881  0.7222229129613466  0.1250473747320817
  0.7777516747956725  0.2222205117694434  0.1250506218620596
  0.1111109925577622  0.8888900200274661  0.6249652355165218
  0.4444343026616910  0.8888705118146664  0.6249961112718290
  0.2777628215131231  0.3888566642410817  0.6254669598334698
  0.6111225948963908  0.3889002053768158  0.6251144574573174
  0.7777507779143175  0.8888633078320749  0.6249614009959840
  0.9444404200117171  0.3888820552803064  0.6249833332587120
  0.1110969557869717  0.3888660990516333  0.1249807022032606
  0.2777787855406000  0.8888817036071415  0.1250141835452582
  0.6110861433597031  0.8888633003707596  0.1250151343297220
  0.4444595407263930  0.3888238601216024  0.1236984417726767
  0.9444333037710608  0.8888848194032173  0.1250193857734671
  0.7777852694163563  0.3888968109565949  0.1250744265694627
  0.2777857655821216  0.5555221878197715  0.6249812010580345
  0.1110912817506664  0.0555484712273824  0.6249442041334096
  0.6111142807867620  0.5555108112180732  0.6250909048452281
  0.4444358249689970  0.0555484414184842  0.6249237515178762
  0.9444617002019757  0.5555537927469194  0.6249563709314540
  0.1111206513752718  0.5555403796680671  0.1250192273177181
  0.7777416100448564  0.0555399325527941  0.6249698170853411
  0.2777742728761801  0.0555553675589517  0.1250721099813801
  0.4444555818827306  0.5555072331255011  0.1248423745332531
  0.7777969789493531  0.5555552296417410  0.1251251793803798
  0.6110848420116576  0.0555468412908385  0.1250321603181651
  0.4444555818827306  0.5555072331255011  0.6251576254667462
  0.9444138239160168  0.0555403765156045  0.1250201688789580
  0.2777823698504482  0.7222003796867054  0.6249941133633121
  0.1110859882116961  0.2222044666433741  0.6249952355724745
  0.4444477080913553  0.2222179276369573  0.6249674247434996
  0.6110911663635735  0.7221719128448659  0.6249128296153459
  0.9444544140484881  0.7222229129613466  0.6249526252679188
  0.7777516747956725  0.2222205117694434  0.6249493781379404
  0.1111202861852621  0.7222151924850907  0.1250186915802513
  0.4444383752528152  0.7221815304906957  0.1250344138336497
  0.2777656340457973  0.2222091627764327  0.1249107868025675
  0.7777738658673502  0.7222023197155382  0.1250701466559522
  0.6110962098460954  0.2222275670144691  0.1251271177454869
  0.9444118395380993  0.2222071575808695  0.1250132788131480
  0.1110969557869717  0.3888660990516333  0.6250192977967386
  0.2777787855406000  0.8888817036071415  0.6249858164547425
  0.6110861433597031  0.8888633003707596  0.6249848656702782
  0.4444595407263930  0.3888238601216024  0.6263015582273236
  0.9444333037710608  0.8888848194032173  0.6249806142265328
  0.1111109925577622  0.8888900200274661  0.1250347644834782
  0.7777852694163563  0.3888968109565949  0.6249255734305377
  0.4444343026616910  0.8888705118146664  0.1250038887281713
  0.2777628215131231  0.3888566642410817  0.1245330401665297
  0.2777857655821216  0.5555221878197715  0.1250187989419653
  0.6111225948963908  0.3889002053768158  0.1248855425426823
  0.7777507779143175  0.8888633078320749  0.1250385990040162
  0.9444404200117171  0.3888820552803064  0.1250166667412887
  0.1111206513752718  0.5555403796680671  0.6249807726822835
  0.2777742728761801  0.0555553675589517  0.6249278900186188
  0.7777969789493531  0.5555552296417410  0.6248748206196206
  0.6110848420116576  0.0555468412908385  0.6249678396818351
  0.9444138239160168  0.0555403765156045  0.6249798311210414
  0.0524308803688827  0.1088287731239283  0.3750000000000000
  0.5599800273257162  0.6050692106334082  0.3750000000000000
  0.3897296335021327  0.1141139734418354  0.3750000000000000
  0.8930999992008120  0.6132120692952955  0.3750000000000000
  0.7211248692558452  0.1120189550889015  0.3750000000000000
  0.0555535503193393  0.7777744417999878  0.8750000000000000
  0.3888885877466449  0.7777771929795667  0.8750000000000000
  0.2222204107620013  0.2777725975816275  0.8750000000000000
  0.7222225754220115  0.7777752072889290  0.8750000000000000
  0.5555541978387167  0.2777744983959093  0.8750000000000000
  0.8888897033993829  0.2777771646629939  0.8750000000000000
  0.2244916426566186  0.7784995284521367  0.3750000000000000
  0.0525987371044302  0.2765667776910757  0.3750000000000000
  0.3829491753925856  0.2750213255060856  0.3750000000000000
  0.5568660213821529  0.7753861727012976  0.3750000000000000
  0.8905732702279432  0.7781609800198366  0.3750000000000000
  0.7213539829713947  0.2802451291703169  0.3750000000000000
  0.0555528754731362  0.9444410230516805  0.8750000000000000
  0.3888885573966983  0.9444423995250188  0.8750000000000000
  0.2222195084428940  0.4444433552325109  0.8750000000000000
  0.5555596970724985  0.4444470624512917  0.8750000000000000
  0.7222220172414777  0.9444412534809501  0.8750000000000000
  0.8888909860308637  0.4444441858734752  0.8750000000000000
  0.0549784260828894  0.4444808966392519  0.3750000000000000
  0.2236538358327597  0.9454048994619755  0.3750000000000000
  0.5560722413127734  0.9452770728491047  0.3750000000000000
  0.8878471579938918  0.9433982894058306  0.3750000000000000
  0.7244605636766025  0.4481127567797821  0.3750000000000000
  0.2222187682803797  0.6111077303201017  0.8750000000000000
  0.0555535352985112  0.1111044325524840  0.8750000000000000
  0.5555558946667357  0.6111087982490161  0.8750000000000000
  0.3888868853878396  0.1111053837629445  0.8750000000000000
  0.8888893005960753  0.6111083550752558  0.8750000000000000
  0.0581179172518825  0.6119493619460398  0.3750000000000000
  0.7222194099895929  0.1111068652841439  0.8750000000000000
  0.2196478969742843  0.1089957211475529  0.3750000000000000
  0.3914654984934715  0.6098550732658933  0.3750000000000000
  0.7263065849860327  0.6119736197745500  0.3750000000000000
  0.5558437920088996  0.1156966886926189  0.3750000000000000
  0.3888889961604155  0.6111089526682038  0.8750000000000000
  0.8868083449093094  0.1103860513951868  0.3750000000000000
  0.2222199350999892  0.7777744188458178  0.8750000000000000
  0.0555551660980201  0.2777743364130233  0.8750000000000000
  0.3888862813467854  0.2777709560930564  0.8750000000000000
  0.5555550488716412  0.7777755898950754  0.8750000000000000
  0.8888903120825284  0.7777775636796165  0.8750000000000000
  0.7222209851759053  0.2777754469622518  0.8750000000000000
  0.0580923623433560  0.7788983245610548  0.3750000000000000
  0.3907342823918230  0.7778654294189771  0.3750000000000000
  0.2162776847854906  0.2735946582047222  0.3750000000000000
  0.7232366386459044  0.7769221182271768  0.3750000000000000
  0.5561005299400436  0.2890881303075034  0.3750000000000000
  0.8871884740972047  0.2780553163316644  0.3750000000000000
  0.0555534479997969  0.4444438473368459  0.8750000000000000
  0.2222192907766232  0.9444397120874768  0.8750000000000000
  0.5555530894688016  0.9444424878979208  0.8750000000000000
  0.3888896913646782  0.4444467651410666  0.8750000000000000
  0.8888906748867966  0.9444420005201386  0.8750000000000000
  0.0552424615918834  0.9436773859103262  0.3750000000000000
  0.7222240268821376  0.4444442594233036  0.8750000000000000
  0.3903774562700992  0.9462012827688496  0.3750000000000000
  0.2197433470920409  0.4427689711427654  0.3750000000000000
  0.2242701675214147  0.6108300412859011  0.3750000000000000
  0.7215853512985696  0.9439128795969478  0.3750000000000000
  0.8895634728916934  0.4456606384634285  0.3750000000000000
  0.0555528222901671  0.6111067737186168  0.8750000000000000
  0.2222169820458613  0.1111032958655087  0.8750000000000000
  0.7222227874645547  0.6111097771165103  0.8750000000000000
  0.5555521443716632  0.1111056425618423  0.8750000000000000
  0.8888897696698282  0.1111065487400082  0.8750000000000000
  0.1088218231611302  0.0539877906874146  0.3750000000000000
  0.6167423989563761  0.5473872718108762  0.3750000000000000
  0.4450178821170148  0.0578992662466932  0.3750000000000000
  0.9473196813186997  0.5566943661956100  0.3750000000000000
  0.7760100163282065  0.0552601752582473  0.3750000000000000
  0.1111121232450153  0.7222159474726305  0.8750000000000000
  0.4444389671259824  0.7222049931037108  0.8750000000000000
  0.2777804641034015  0.2222329584797504  0.8750000000000000
  0.7777685665692279  0.7222152625681395  0.8750000000000000
  0.6111047898121509  0.2222216650353254  0.8750000000000000
  0.9444552709213644  0.2222241596484832  0.8750000000000000
  0.2796986761800688  0.7221877195425221  0.3750000000000000
  0.1062173607069631  0.2193363361405739  0.3750000000000000
  0.4447509667730429  0.2256004544827271  0.3750000000000000
  0.6125845479301333  0.7181062456167304  0.3750000000000000
  0.9474231363226524  0.7239276671007741  0.3750000000000000
  0.7761693960894767  0.2232340835354902  0.3750000000000000
  0.1111081823297060  0.8888861479230402  0.8750000000000000
  0.4444404613582780  0.8888760898212031  0.8750000000000000
  0.2777938144518026  0.3889009051523804  0.8750000000000000
  0.6111016789675915  0.3888961130794457  0.8750000000000000
  0.7777727378141307  0.8888791587912193  0.8750000000000000
  0.9444547654629426  0.3888916197448840  0.8750000000000000
  0.1091891638470383  0.3879977411320753  0.3750000000000000
  0.2793687237144770  0.8897969606305038  0.3750000000000000
  0.6107846833127335  0.8875918634572180  0.3750000000000000
  0.9444447987975851  0.8886871367833088  0.3750000000000000
  0.7784290311099811  0.3909477577900969  0.3750000000000000
  0.2777847148019154  0.5555478193651319  0.8750000000000000
  0.1111109686780059  0.0555568897209232  0.8750000000000000
  0.6110959513649734  0.5555517290309948  0.8750000000000000
  0.4444394199434179  0.0555493089504189  0.8750000000000000
  0.9444482028223985  0.5555545156192514  0.8750000000000000
  0.1129561542696265  0.5556999292882657  0.3750000000000000
  0.7777781712505558  0.0555483320458528  0.8750000000000000
  0.2780239509217439  0.0563881122239753  0.3750000000000000
  0.4485372210046023  0.5544711584304742  0.3750000000000000
  0.7834257695713426  0.5587216347982783  0.3750000000000000
  0.6103700281329608  0.0575344438248986  0.3750000000000000
  0.4444365192548549  0.5555414214798067  0.8750000000000000
  0.9418816865178176  0.0541330778104455  0.3750000000000000
  0.2777791644118985  0.7222106255950168  0.8750000000000000
  0.1111230331783822  0.2222293399025760  0.8750000000000000
  0.4444369291460967  0.2222295110375833  0.8750000000000000
  0.6110975569837351  0.7222048195454839  0.8750000000000000
  0.9444418729152634  0.7222202527128577  0.8750000000000000
  0.7777809177173703  0.2222204119586259  0.8750000000000000
  0.1135282222289535  0.7230787444078183  0.3750000000000000
  0.4457998781879457  0.7210275589508217  0.3750000000000000
  0.2713128306925935  0.2187098999953568  0.3750000000000000
  0.7797938894600496  0.7228061919867091  0.3750000000000000
  0.6104478338541557  0.2287213031386717  0.3750000000000000
  0.9418949271545124  0.2215779334240590  0.3750000000000000
  0.1111260562777308  0.3888939531150043  0.8750000000000000
  0.2777759223284857  0.8888810369146669  0.8750000000000000
  0.6111042611713925  0.8888752654971951  0.8750000000000000
  0.4444356514129392  0.3889012700751111  0.8750000000000000
  0.9444418805445016  0.8888864233683789  0.8750000000000000
  0.1125134053415439  0.8896897907843614  0.3750000000000000
  0.7777784765430782  0.3888923603520570  0.8750000000000000
  0.4452958939304282  0.8894218040877163  0.3750000000000000
  0.2716644432946471  0.3841001011951194  0.3750000000000000
  0.2793680807309601  0.5541817837594911  0.3750000000000000
  0.6144639370227160  0.4048370306047716  0.3750000000000000
  0.7770775467438191  0.8880533788026208  0.3750000000000000
  0.9440191725028121  0.3892762232625431  0.3750000000000000
  0.1111192210340219  0.5555521160816318  0.8750000000000000
  0.2777727777984318  0.0555547221686979  0.8750000000000000
  0.7777704428837950  0.5555561980126774  0.8750000000000000
  0.6111062960863586  0.0555458368991846  0.8750000000000000
  0.9444484006128666  0.0555539320139106  0.8750000000000000
  0.0555383823893189  0.1111232879291195  0.1249987339163779
  0.5554807222043806  0.6110161461982703  0.1250495954214541
  0.3888895114576054  0.1111128511597449  0.1250027169030558
  0.8889065830286405  0.6111081539855978  0.1250055258588000
  0.7221952873654417  0.1110977871993086  0.1250068320701667
  0.0555717108342947  0.7777722361183156  0.6250045152791921
  0.3888979801372058  0.7777245476593971  0.6249741825986227
  0.2222431766726682  0.2778419951249313  0.6251809550039981
  0.7221658352622826  0.7777259990958009  0.6249606001182149
  0.5555561148836889  0.2778089249874487  0.6250280270566176
  0.8888839454678059  0.2777768160706393  0.6249994363519447
  0.2222445297328994  0.7777498039938734  0.1249968477953513
  0.0555535516464866  0.2777848643138301  0.1249958779654587
  0.3889191530398800  0.2778713531652382  0.1244311361579467
  0.5555242547815599  0.7777118523457507  0.1250669110692865
  0.8888680483905549  0.7777643603536813  0.1250048747453045
  0.7222150603743137  0.2777850716394916  0.1250204867619740
  0.0555439676572349  0.9444453709431534  0.6249996755857566
  0.3888898615586757  0.9444169785247029  0.6249936735831524
  0.2222668530145747  0.4444052115410627  0.6250425280417767
  0.5554455201438859  0.4443934432418535  0.6254200953206492
  0.7221801599962051  0.9444112201734854  0.6249901317775923
  0.8889047562347121  0.4444401288261530  0.6249930500478725
  0.0555812011990833  0.4444274800854163  0.1250129589061051
  0.2222262481006089  0.9444360409311923  0.1250014538945806
  0.5555357067597171  0.9444107103080743  0.1250048394842577
  0.3889093451306520  0.4443817588944540  0.1249131150991178
  0.8888568073093384  0.9444304725564470  0.1249958708271447
  0.7222127590765741  0.4444459566487476  0.1249961557195354
  0.2222609213257570  0.6110657416751304  0.6249620499627577
  0.0555383823893189  0.1111232879291195  0.6250012660836224
  0.5554807222043806  0.6110161461982703  0.6249504045785449
  0.3888895114576054  0.1111128511597449  0.6249972830969436
  0.8889065830286405  0.6111081539855978  0.6249944741411986
  0.0555912007425386  0.6110953650714193  0.1250015687421078
  0.7221952873654417  0.1110977871993086  0.6249931679298324
  0.2222183539876869  0.1111401021175113  0.1249821500670983
  0.3889070434123816  0.6110228322971619  0.1250694940785237
  0.7221733948487871  0.6110733543927513  0.1250186999932875
  0.5555464281996181  0.1111066198386533  0.1250370255630388
  0.3889070434123816  0.6110228322971619  0.6249305059214763
  0.8888618628080560  0.1111047717496427  0.1249977966513107
  0.2222445297328994  0.7777498039938734  0.6250031522046492
  0.0555535516464866  0.2777848643138301  0.6250041220345419
  0.3889191530398800  0.2778713531652382  0.6255688638420528
  0.5555242547815599  0.7777118523457507  0.6249330889307123
  0.8888680483905549  0.7777643603536813  0.6249951252546955
  0.7222150603743137  0.2777850716394916  0.6249795132380270
  0.0555717108342947  0.7777722361183156  0.1249954847208072
  0.3888979801372058  0.7777245476593971  0.1250258174013764
  0.2222431766726682  0.2778419951249313  0.1248190449960020
  0.7221658352622826  0.7777259990958009  0.1250393998817856
  0.5555561148836889  0.2778089249874487  0.1249719729433816
  0.8888839454678059  0.2777768160706393  0.1250005636480554
  0.0555812011990833  0.4444274800854163  0.6249870410938950
  0.2222262481006089  0.9444360409311923  0.6249985461054194
  0.5555357067597171  0.9444107103080743  0.6249951605157429
  0.3889093451306520  0.4443817588944540  0.6250868849008822
  0.8888568073093384  0.9444304725564470  0.6250041291728555
  0.0555439676572349  0.9444453709431534  0.1250003244142432
  0.7222127590765741  0.4444459566487476  0.6250038442804637
  0.3888898615586757  0.9444169785247029  0.1250063264168493
  0.2222668530145747  0.4444052115410627  0.1249574719582214
  0.2222609213257570  0.6110657416751304  0.1250379500372427
  0.5554455201438859  0.4443934432418535  0.1245799046793501
  0.7221801599962051  0.9444112201734854  0.1250098682224077
  0.8889047562347121  0.4444401288261530  0.1250069499521271
  0.0555912007425386  0.6110953650714193  0.6249984312578920
  0.2222183539876869  0.1111401021175113  0.6250178499329018
  0.7221733948487871  0.6110733543927513  0.6249813000067129
  0.5555464281996181  0.1111066198386533  0.6249629744369609
  0.8888618628080560  0.1111047717496427  0.6250022033486889
 
  0.00000000E+00  0.00000000E+00  0.00000000E+00
  0.00000000E+00  0.00000000E+00  0.00000000E+00
  0.00000000E+00  0.00000000E+00  0.00000000E+00
  0.00000000E+00  0.00000000E+00  0.00000000E+00
  0.00000000E+00  0.00000000E+00  0.00000000E+00
  0.00000000E+00  0.00000000E+00  0.00000000E+00
  0.00000000E+00  0.00000000E+00  0.00000000E+00
  0.00000000E+00  0.00000000E+00  0.00000000E+00
  0.00000000E+00  0.00000000E+00  0.00000000E+00
  0.00000000E+00  0.00000000E+00  0.00000000E+00
  0.00000000E+00  0.00000000E+00  0.00000000E+00
  0.00000000E+00  0.00000000E+00  0.00000000E+00
  0.00000000E+00  0.00000000E+00  0.00000000E+00
  0.00000000E+00  0.00000000E+00  0.00000000E+00
  0.00000000E+00  0.00000000E+00  0.00000000E+00
  0.00000000E+00  0.00000000E+00  0.00000000E+00
  0.00000000E+00  0.00000000E+00  0.00000000E+00
  0.00000000E+00  0.00000000E+00  0.00000000E+00
  0.00000000E+00  0.00000000E+00  0.00000000E+00
  0.00000000E+00  0.00000000E+00  0.00000000E+00
  0.00000000E+00  0.00000000E+00  0.00000000E+00
  0.00000000E+00  0.00000000E+00  0.00000000E+00
  0.00000000E+00  0.00000000E+00  0.00000000E+00
  0.00000000E+00  0.00000000E+00  0.00000000E+00
  0.00000000E+00  0.00000000E+00  0.00000000E+00
  0.00000000E+00  0.00000000E+00  0.00000000E+00
  0.00000000E+00  0.00000000E+00  0.00000000E+00
  0.00000000E+00  0.00000000E+00  0.00000000E+00
  0.00000000E+00  0.00000000E+00  0.00000000E+00
  0.00000000E+00  0.00000000E+00  0.00000000E+00
  0.00000000E+00  0.00000000E+00  0.00000000E+00
  0.00000000E+00  0.00000000E+00  0.00000000E+00
  0.00000000E+00  0.00000000E+00  0.00000000E+00
  0.00000000E+00  0.00000000E+00  0.00000000E+00
  0.00000000E+00  0.00000000E+00  0.00000000E+00
  0.00000000E+00  0.00000000E+00  0.00000000E+00
  0.00000000E+00  0.00000000E+00  0.00000000E+00
  0.00000000E+00  0.00000000E+00  0.00000000E+00
  0.00000000E+00  0.00000000E+00  0.00000000E+00
  0.00000000E+00  0.00000000E+00  0.00000000E+00
  0.00000000E+00  0.00000000E+00  0.00000000E+00
  0.00000000E+00  0.00000000E+00  0.00000000E+00
  0.00000000E+00  0.00000000E+00  0.00000000E+00
  0.00000000E+00  0.00000000E+00  0.00000000E+00
  0.00000000E+00  0.00000000E+00  0.00000000E+00
  0.00000000E+00  0.00000000E+00  0.00000000E+00
  0.00000000E+00  0.00000000E+00  0.00000000E+00
  0.00000000E+00  0.00000000E+00  0.00000000E+00
  0.00000000E+00  0.00000000E+00  0.00000000E+00
  0.00000000E+00  0.00000000E+00  0.00000000E+00
  0.00000000E+00  0.00000000E+00  0.00000000E+00
  0.00000000E+00  0.00000000E+00  0.00000000E+00
  0.00000000E+00  0.00000000E+00  0.00000000E+00
  0.00000000E+00  0.00000000E+00  0.00000000E+00
  0.00000000E+00  0.00000000E+00  0.00000000E+00
  0.00000000E+00  0.00000000E+00  0.00000000E+00
  0.00000000E+00  0.00000000E+00  0.00000000E+00
  0.00000000E+00  0.00000000E+00  0.00000000E+00
  0.00000000E+00  0.00000000E+00  0.00000000E+00
  0.00000000E+00  0.00000000E+00  0.00000000E+00
  0.00000000E+00  0.00000000E+00  0.00000000E+00
  0.00000000E+00  0.00000000E+00  0.00000000E+00
  0.00000000E+00  0.00000000E+00  0.00000000E+00
  0.00000000E+00  0.00000000E+00  0.00000000E+00
  0.00000000E+00  0.00000000E+00  0.00000000E+00
  0.00000000E+00  0.00000000E+00  0.00000000E+00
  0.00000000E+00  0.00000000E+00  0.00000000E+00
  0.00000000E+00  0.00000000E+00  0.00000000E+00
  0.00000000E+00  0.00000000E+00  0.00000000E+00
  0.00000000E+00  0.00000000E+00  0.00000000E+00
  0.00000000E+00  0.00000000E+00  0.00000000E+00
  0.00000000E+00  0.00000000E+00  0.00000000E+00
  0.00000000E+00  0.00000000E+00  0.00000000E+00
  0.00000000E+00  0.00000000E+00  0.00000000E+00
  0.00000000E+00  0.00000000E+00  0.00000000E+00
  0.00000000E+00  0.00000000E+00  0.00000000E+00
  0.00000000E+00  0.00000000E+00  0.00000000E+00
  0.00000000E+00  0.00000000E+00  0.00000000E+00
  0.00000000E+00  0.00000000E+00  0.00000000E+00
  0.00000000E+00  0.00000000E+00  0.00000000E+00
  0.00000000E+00  0.00000000E+00  0.00000000E+00
  0.00000000E+00  0.00000000E+00  0.00000000E+00
  0.00000000E+00  0.00000000E+00  0.00000000E+00
  0.00000000E+00  0.00000000E+00  0.00000000E+00
  0.00000000E+00  0.00000000E+00  0.00000000E+00
  0.00000000E+00  0.00000000E+00  0.00000000E+00
  0.00000000E+00  0.00000000E+00  0.00000000E+00
  0.00000000E+00  0.00000000E+00  0.00000000E+00
  0.00000000E+00  0.00000000E+00  0.00000000E+00
  0.00000000E+00  0.00000000E+00  0.00000000E+00
  0.00000000E+00  0.00000000E+00  0.00000000E+00
  0.00000000E+00  0.00000000E+00  0.00000000E+00
  0.00000000E+00  0.00000000E+00  0.00000000E+00
  0.00000000E+00  0.00000000E+00  0.00000000E+00
  0.00000000E+00  0.00000000E+00  0.00000000E+00
  0.00000000E+00  0.00000000E+00  0.00000000E+00
  0.00000000E+00  0.00000000E+00  0.00000000E+00
  0.00000000E+00  0.00000000E+00  0.00000000E+00
  0.00000000E+00  0.00000000E+00  0.00000000E+00
  0.00000000E+00  0.00000000E+00  0.00000000E+00
  0.00000000E+00  0.00000000E+00  0.00000000E+00
  0.00000000E+00  0.00000000E+00  0.00000000E+00
  0.00000000E+00  0.00000000E+00  0.00000000E+00
  0.00000000E+00  0.00000000E+00  0.00000000E+00
  0.00000000E+00  0.00000000E+00  0.00000000E+00
  0.00000000E+00  0.00000000E+00  0.00000000E+00
  0.00000000E+00  0.00000000E+00  0.00000000E+00
  0.00000000E+00  0.00000000E+00  0.00000000E+00
  0.00000000E+00  0.00000000E+00  0.00000000E+00
  0.00000000E+00  0.00000000E+00  0.00000000E+00
  0.00000000E+00  0.00000000E+00  0.00000000E+00
  0.00000000E+00  0.00000000E+00  0.00000000E+00
  0.00000000E+00  0.00000000E+00  0.00000000E+00
  0.00000000E+00  0.00000000E+00  0.00000000E+00
  0.00000000E+00  0.00000000E+00  0.00000000E+00
  0.00000000E+00  0.00000000E+00  0.00000000E+00
  0.00000000E+00  0.00000000E+00  0.00000000E+00
  0.00000000E+00  0.00000000E+00  0.00000000E+00
  0.00000000E+00  0.00000000E+00  0.00000000E+00
  0.00000000E+00  0.00000000E+00  0.00000000E+00
  0.00000000E+00  0.00000000E+00  0.00000000E+00
  0.00000000E+00  0.00000000E+00  0.00000000E+00
  0.00000000E+00  0.00000000E+00  0.00000000E+00
  0.00000000E+00  0.00000000E+00  0.00000000E+00
  0.00000000E+00  0.00000000E+00  0.00000000E+00
  0.00000000E+00  0.00000000E+00  0.00000000E+00
  0.00000000E+00  0.00000000E+00  0.00000000E+00
  0.00000000E+00  0.00000000E+00  0.00000000E+00
  0.00000000E+00  0.00000000E+00  0.00000000E+00
  0.00000000E+00  0.00000000E+00  0.00000000E+00
  0.00000000E+00  0.00000000E+00  0.00000000E+00
  0.00000000E+00  0.00000000E+00  0.00000000E+00
  0.00000000E+00  0.00000000E+00  0.00000000E+00
  0.00000000E+00  0.00000000E+00  0.00000000E+00
  0.00000000E+00  0.00000000E+00  0.00000000E+00
  0.00000000E+00  0.00000000E+00  0.00000000E+00
  0.00000000E+00  0.00000000E+00  0.00000000E+00
  0.00000000E+00  0.00000000E+00  0.00000000E+00
  0.00000000E+00  0.00000000E+00  0.00000000E+00
  0.00000000E+00  0.00000000E+00  0.00000000E+00
  0.00000000E+00  0.00000000E+00  0.00000000E+00
  0.00000000E+00  0.00000000E+00  0.00000000E+00
  0.00000000E+00  0.00000000E+00  0.00000000E+00
  0.00000000E+00  0.00000000E+00  0.00000000E+00
  0.00000000E+00  0.00000000E+00  0.00000000E+00
  0.00000000E+00  0.00000000E+00  0.00000000E+00
  0.00000000E+00  0.00000000E+00  0.00000000E+00
  0.00000000E+00  0.00000000E+00  0.00000000E+00
  0.00000000E+00  0.00000000E+00  0.00000000E+00
  0.00000000E+00  0.00000000E+00  0.00000000E+00
  0.00000000E+00  0.00000000E+00  0.00000000E+00
  0.00000000E+00  0.00000000E+00  0.00000000E+00
  0.00000000E+00  0.00000000E+00  0.00000000E+00
  0.00000000E+00  0.00000000E+00  0.00000000E+00
  0.00000000E+00  0.00000000E+00  0.00000000E+00
  0.00000000E+00  0.00000000E+00  0.00000000E+00
  0.00000000E+00  0.00000000E+00  0.00000000E+00
  0.00000000E+00  0.00000000E+00  0.00000000E+00
  0.00000000E+00  0.00000000E+00  0.00000000E+00
  0.00000000E+00  0.00000000E+00  0.00000000E+00
  0.00000000E+00  0.00000000E+00  0.00000000E+00
  0.00000000E+00  0.00000000E+00  0.00000000E+00
  0.00000000E+00  0.00000000E+00  0.00000000E+00
  0.00000000E+00  0.00000000E+00  0.00000000E+00
  0.00000000E+00  0.00000000E+00  0.00000000E+00
  0.00000000E+00  0.00000000E+00  0.00000000E+00
  0.00000000E+00  0.00000000E+00  0.00000000E+00
  0.00000000E+00  0.00000000E+00  0.00000000E+00
  0.00000000E+00  0.00000000E+00  0.00000000E+00
  0.00000000E+00  0.00000000E+00  0.00000000E+00
  0.00000000E+00  0.00000000E+00  0.00000000E+00
  0.00000000E+00  0.00000000E+00  0.00000000E+00
  0.00000000E+00  0.00000000E+00  0.00000000E+00
  0.00000000E+00  0.00000000E+00  0.00000000E+00
  0.00000000E+00  0.00000000E+00  0.00000000E+00
  0.00000000E+00  0.00000000E+00  0.00000000E+00
  0.00000000E+00  0.00000000E+00  0.00000000E+00
  0.00000000E+00  0.00000000E+00  0.00000000E+00
  0.00000000E+00  0.00000000E+00  0.00000000E+00
  0.00000000E+00  0.00000000E+00  0.00000000E+00
  0.00000000E+00  0.00000000E+00  0.00000000E+00
  0.00000000E+00  0.00000000E+00  0.00000000E+00
  0.00000000E+00  0.00000000E+00  0.00000000E+00
  0.00000000E+00  0.00000000E+00  0.00000000E+00
  0.00000000E+00  0.00000000E+00  0.00000000E+00
  0.00000000E+00  0.00000000E+00  0.00000000E+00
  0.00000000E+00  0.00000000E+00  0.00000000E+00
  0.00000000E+00  0.00000000E+00  0.00000000E+00
  0.00000000E+00  0.00000000E+00  0.00000000E+00
  0.00000000E+00  0.00000000E+00  0.00000000E+00
  0.00000000E+00  0.00000000E+00  0.00000000E+00
  0.00000000E+00  0.00000000E+00  0.00000000E+00
  0.00000000E+00  0.00000000E+00  0.00000000E+00
  0.00000000E+00  0.00000000E+00  0.00000000E+00
  0.00000000E+00  0.00000000E+00  0.00000000E+00
  0.00000000E+00  0.00000000E+00  0.00000000E+00
  0.00000000E+00  0.00000000E+00  0.00000000E+00
  0.00000000E+00  0.00000000E+00  0.00000000E+00
  0.00000000E+00  0.00000000E+00  0.00000000E+00
  0.00000000E+00  0.00000000E+00  0.00000000E+00
  0.00000000E+00  0.00000000E+00  0.00000000E+00
  0.00000000E+00  0.00000000E+00  0.00000000E+00
  0.00000000E+00  0.00000000E+00  0.00000000E+00
  0.00000000E+00  0.00000000E+00  0.00000000E+00
  0.00000000E+00  0.00000000E+00  0.00000000E+00
  0.00000000E+00  0.00000000E+00  0.00000000E+00
  0.00000000E+00  0.00000000E+00  0.00000000E+00
  0.00000000E+00  0.00000000E+00  0.00000000E+00
  0.00000000E+00  0.00000000E+00  0.00000000E+00
  0.00000000E+00  0.00000000E+00  0.00000000E+00
  0.00000000E+00  0.00000000E+00  0.00000000E+00
  0.00000000E+00  0.00000000E+00  0.00000000E+00
  0.00000000E+00  0.00000000E+00  0.00000000E+00
  0.00000000E+00  0.00000000E+00  0.00000000E+00
  0.00000000E+00  0.00000000E+00  0.00000000E+00
  0.00000000E+00  0.00000000E+00  0.00000000E+00
  0.00000000E+00  0.00000000E+00  0.00000000E+00
  0.00000000E+00  0.00000000E+00  0.00000000E+00
  0.00000000E+00  0.00000000E+00  0.00000000E+00
  0.00000000E+00  0.00000000E+00  0.00000000E+00
  0.00000000E+00  0.00000000E+00  0.00000000E+00
  0.00000000E+00  0.00000000E+00  0.00000000E+00
  0.00000000E+00  0.00000000E+00  0.00000000E+00
  0.00000000E+00  0.00000000E+00  0.00000000E+00
  0.00000000E+00  0.00000000E+00  0.00000000E+00
  0.00000000E+00  0.00000000E+00  0.00000000E+00
  0.00000000E+00  0.00000000E+00  0.00000000E+00
  0.00000000E+00  0.00000000E+00  0.00000000E+00
  0.00000000E+00  0.00000000E+00  0.00000000E+00
  0.00000000E+00  0.00000000E+00  0.00000000E+00
  0.00000000E+00  0.00000000E+00  0.00000000E+00
  0.00000000E+00  0.00000000E+00  0.00000000E+00
  0.00000000E+00  0.00000000E+00  0.00000000E+00
  0.00000000E+00  0.00000000E+00  0.00000000E+00
  0.00000000E+00  0.00000000E+00  0.00000000E+00
  0.00000000E+00  0.00000000E+00  0.00000000E+00
  0.00000000E+00  0.00000000E+00  0.00000000E+00
  0.00000000E+00  0.00000000E+00  0.00000000E+00
  0.00000000E+00  0.00000000E+00  0.00000000E+00
  0.00000000E+00  0.00000000E+00  0.00000000E+00
  0.00000000E+00  0.00000000E+00  0.00000000E+00
  0.00000000E+00  0.00000000E+00  0.00000000E+00
  0.00000000E+00  0.00000000E+00  0.00000000E+00
  0.00000000E+00  0.00000000E+00  0.00000000E+00
  0.00000000E+00  0.00000000E+00  0.00000000E+00
  0.00000000E+00  0.00000000E+00  0.00000000E+00
  0.00000000E+00  0.00000000E+00  0.00000000E+00
  0.00000000E+00  0.00000000E+00  0.00000000E+00