 B N C 
 1.0
 14.936314146199660   0.000000000000000   0.000000000000000
 -7.468157073099825  12.935227489513863   0.000000000000000
  0.000000000000001   0.000000000000001  13.341276283792837
 B N C 
 143 142   2
Cartesian
  1.222207635813573   0.698344354197972   5.002978606422314 
  5.123884092394022   7.080578885738041   5.002978606422314 
  6.214526073228654   0.748940180376906   5.002978606422314 
  9.991983388595285   7.200968268870953   5.002978606422314 
 11.178037715760015   0.714802938075831   5.002978606422314 
 -3.734016558184422   9.342027577113278  11.673616748318732 
  1.244739704330682   9.341885879859294  11.673616748318732 
  2.489345634779107   2.874633873603257  11.673616748318732 
  6.223378621868491   9.342018717717879  11.673616748318732 
  7.468066817352018   2.874487790330479  11.673616748318732 
 12.447075693823120   2.874520058719176  11.673616748318732 
 -1.215744032105636   9.341662442415759   5.002978606422314 
 -0.051542342836625   2.837165404694806   5.002978606422314 
  4.958120526708464   2.918193200471792   5.002978606422314 
  3.786825011552426   9.288867648693120   5.002978606422314 
  8.744604066021573   9.364169059901574   5.002978606422314 
  9.925962730745974   2.887583653944705   5.002978606422314 
 -4.978794657302188  11.497944535662196  11.673616748318732 
  0.000036092821619  11.497814431826821  11.673616748318732 
  1.244842634974559   5.030521679023891  11.673616748318732 
  6.223269394734699   5.030459692470343  11.673616748318732 
  4.978768769483980  11.497854129652136  11.673616748318732 
 11.202369373162837   5.030401570165597  11.673616748318732 
 -1.266744422202035   5.018839046960902   5.002978606422314 
 -2.472404445133136  11.509726105233579   5.002978606422314 
  2.494196452542191  11.481202671660641   5.002978606422314 
  7.469669082243960  11.495370281296825   5.002978606422314 
  8.707201286627875   5.056998183530271   5.002978606422314 
  0.000161388656988   7.186137424791339  11.673616748318732 
  1.244680754334511   0.718641007149975  11.673616748318732 
  4.978573528422324   7.186187997208685  11.673616748318732 
  6.223435830685768   0.718542948158960  11.673616748318732 
  9.957606666854574   7.186224042361695  11.673616748318732 
 -2.462905752517495   7.188105001250489   5.002978606422314 
 11.202295432987846   0.718530311676163  11.673616748318732 
  3.731537791990540   0.729393059321355   5.002978606422314 
  2.558615135525722   7.172210570672465   5.002978606422314 
  7.528872475733150   7.227191449428812   5.002978606422314 
  8.687002222020846   0.744221119357725   5.002978606422314 
  2.489372873409678   7.186054666689208  11.673616748318732 
 13.663966430443740   0.700223676185662   5.002978606422314 
 -1.244585528880322   9.341958737415670  11.673616748318732 
  0.000124915787154   2.874587066484322  11.673616748318732 
  4.978604697191544   2.874589280154570  11.673616748318732 
  3.734006053768827   9.341883634844146  11.673616748318732 
  8.712826218054072   9.342083266375012  11.673616748318732 
  9.957603182590137   2.874471581498315  11.673616748318732 
 -3.704372447786177   9.353188051747177   5.002978606422314 
  1.273859962674220   9.326655501237751   5.002978606422314 
  2.419053784511970   2.829062310648770   5.002978606422314 
  6.249216327096308   9.349662524177313   5.002978606422314 
  7.409713998509089   2.958562087796784   5.002978606422314 
 12.413659713947906   2.866160975496561   5.002978606422314 
 -1.244507440249115   5.030431752838917  11.673616748318732 
 -2.489354764829952  11.497878423606190  11.673616748318732 
  2.489385119810794  11.497803769008252  11.673616748318732 
  3.733854736425597   5.030526399382432  11.673616748318732 
  7.468137190779290  11.497948098610316  11.673616748318732 
 -4.963807536070928  11.508339838893704   5.002978606422314 
  8.712834430162296   5.030411150087859  11.673616748318732 
  0.008737622590793  11.504873370008438   5.002978606422314 
  1.189145579882605   4.968422187704161   5.002978606422314 
  0.034012808051966   7.168467443473596   5.002978606422314 
  6.154439861318171   5.236659087052013   5.002978606422314 
  4.974552231928839  11.487172477643332   5.002978606422314 
 11.192990940389700   5.035376504159784   5.002978606422314 
 -2.489238872145465   7.186193003796724  11.673616748318732 
  3.734010079151638   0.718612969368849  11.673616748318732 
  7.468042718848383   7.186245804503387  11.673616748318732 
  8.712850580346464   0.718498036386393  11.673616748318732 
 13.691692516121412   0.718602748536927  11.673616748318732 
 -0.000347442195334   1.437405008745917   1.667642644302705 
  3.733670014993693   7.903632850840684   1.668321201694134 
  4.978767685991962   1.437270006759796   1.667695782428411 
  8.713136288124158   7.904822992500579   1.667733257483061 
  9.957239961716922   1.437075151004664   1.667750684009793 
 -4.978488695764871  10.060660809218309   8.338357916957722 
  0.000533320625937  10.060043948153567   8.337953240285824 
  1.244526242535901   3.593949413081385   8.340711848073795 
  4.978315860049197  10.060062722813639   8.337772032662080 
  6.223239969629691   3.593521643329946   8.338671594076285 
 11.202168955339467   3.593106307186567   8.338290157586094 
 -2.488843586433855  10.060370644585564   1.667617481040979 
 -1.244775699896347   3.593210413043132   1.667604542272442 
  3.733831735724758   3.594329166011401   1.660070165789416 
  2.489410514321350  10.059879731383505   1.668552214535893 
  7.467945996300426  10.060558934411102   1.667724570798032 
  8.712688475301295   3.593213094847735   1.667932855025760 
 -6.223644227310679  12.216615724567990   8.338293349270476 
 -1.244473197612346  12.216248462176361   8.338213274895468 
  0.000959617020064   5.748482508809182   8.338865055725678 
  4.977508743582524   5.748330283181736   8.343902285108831 
  3.733698406002603  12.216173976593392   8.338166022688949 
  9.957811993510257   5.748934171835138   8.338204956139037 
 -2.488875947147198   5.748770557496248   1.667832423820787 
 -3.733955646008676  12.216495038740796   1.667678932283397 
  1.244648309495714  12.216167381368313   1.667724100370662 
  2.490159377420045   5.748179143490064   1.666500380006548 
  6.223089391286893  12.216423010546722   1.667604447038223 
  7.468004435204353   5.749009556046172   1.667608247866309 
 -1.243775997474838   7.904274379616319   8.337791375438696 
 -0.000347442195334   1.437405008745918   8.338314568541923 
  3.733670014993694   7.903632850840685   8.337636011150481 
  4.978767685991963   1.437270006759797   8.338261430416217 
  8.713136288124158   7.904822992500580   8.338223955361554 
 -3.733428534941627   7.904657564986330   1.667680464495985 
  9.957239961716922   1.437075151004664   8.338206528834821 
  2.489111404477566   1.437622504097807   1.667421394587612 
  1.245623287231508   7.903719337050870   1.668586675175781 
  6.223016899697909   7.904372851850560   1.667909017251051 
  7.468054285572398   1.437189403203911   1.668153503740171 
  1.245623287231509   7.903719337050870   8.337370537668848 
 12.446572128480110   1.437165497752146   1.667630139990495 
 -2.488843586433854  10.060370644585564   8.338339731803648 
 -1.244775699896347   3.593210413043133   8.338352670572199 
  3.733831735724759   3.594329166011402   8.345887047055212 
  2.489410514321351  10.059879731383505   8.337404998308708 
  7.467945996300427  10.060558934411102   8.338232642046597 
  8.712688475301295   3.593213094847736   8.338024357818881 
 -4.978488695764872  10.060660809218309   1.667599295886892 
  0.000533320625936  10.060043948153567   1.668003972558791 
  1.244526242535900   3.593949413081384   1.665245364770832 
  4.978315860049196  10.060062722813639   1.668185180182560 
  6.223239969629690   3.593521643329945   1.667285618768342 
 11.202168955339467   3.593106307186566   1.667667055258533 
 -2.488875947147198   5.748770557496249   8.338124789023841 
 -3.733955646008675  12.216495038740796   8.338278280561232 
  1.244648309495715  12.216167381368313   8.338233112473979 
  2.490159377420046   5.748179143490065   8.339456832838080 
  6.223089391286893  12.216423010546722   8.338352765806418 
 -6.223644227310680  12.216615724567990   1.667663863574151 
  7.468004435204354   5.749009556046173   8.338348964978305 
 -1.244473197612346  12.216248462176361   1.667743937949174 
  0.000959617020064   5.748482508809182   1.667092157118922 
 -1.243775997474838   7.904274379616318   1.668165837405944 
  4.977508743582523   5.748330283181735   1.662054927735784 
  3.733698406002603  12.216173976593392   1.667791190155680 
  9.957811993510257   5.748934171835137   1.667752256705590 
 -3.733428534941627   7.904657564986331   8.338276748348642 
  2.489111404477567   1.437622504097807   8.338535818257016 
  6.223016899697910   7.904372851850561   8.338048195593577 
  7.468054285572399   1.437189403203911   8.337803709104458 
 12.446572128480110   1.437165497752146   8.338327072854131 
  1.244449574835270   0.718532112020902   1.668403923545775 
  4.979152883078271   7.185658715990164   1.666446748818369 
  6.223388613883223   0.718531726436025   1.668676787540341 
  9.957813666480220   7.186214691843634   1.668241602931568 
 11.201812072067446   0.718421662322647   1.668062214077620 
 -3.733888995579000   9.342017811177696   8.338048307834214 
  1.244906086406466   9.341582385622445   8.337838552907828 
  2.489301838429948   2.874326070767578   8.339487895285638 
  6.223554433106200   9.341851298975108   8.337361831453071 
  7.467894587376355   2.874564133773345   8.336601764407421 
 12.446553963150370   2.874300133106809   8.338120521055581 
 -1.244461133390532   9.341826204260817   1.667738070720555 
 -0.000242642066164   2.874265325218138   1.667723099018063 
  4.978852201559397   2.874439446232369   1.668094130971100 
  3.734156353867483   9.341457979185721   1.668822499659525 
  8.712993669206099   9.342117677294395   1.668291574863681 
  9.957165655722260   2.874472872573938   1.668334895721847 
 -4.978781600337179  11.497994622213806   8.337833874791581 
 -0.000014237976363  11.497742279043326   8.338245796773601 
  1.244710112780750   5.029949412771908   8.344527517522280 
  6.223551239698367   5.030512627267779   8.339824685931330 
  4.978559146974386  11.497649093889681   8.337782717393665 
 11.202226533920545   5.030277851640465   8.338075321770249 
 -1.244734075800522   5.030071454192704   1.667402078236141 
 -2.489316977958468  11.497887047425005   1.667848762070075 
  2.489203863927380  11.497648997375872   1.667861446748296 
  3.734789664407909   5.029525084023840   1.650295087563945 
  7.468021064060584  11.497927350956058   1.667918166433903 
  8.712902652837771   5.030468719670024   1.668652480900165 
  0.000368503847040   7.185805874921186   8.338046875491912 
  1.244449574835270   0.718532112020902   8.337553289298853 
  4.979152883078272   7.185658715990165   8.339510464026246 
  6.223388613883224   0.718531726436026   8.337280425304288 
  9.957813666480220   7.186214691843634   8.337715609913046 
 -2.489129858739242   7.186041190617349   1.667916052431977 
 11.201812072067446   0.718421662322648   8.337894998767007 
  3.734027590226765   0.718621317638603   1.668621574658514 
  2.489912922808113   7.185612432548766   1.665556610572871 
  7.468446301806014   7.186233278405035   1.669329588172788 
  8.712522634592386   0.718511028420912   1.668088595164118 
  2.489912922808113   7.185612432548767   8.340400602271744 
 13.691277302305686   0.718427405082591   1.667928614060618 
 -1.244461133390531   9.341826204260817   8.338219142124085 
 -0.000242642066164   2.874265325218138   8.338234113826566 
  4.978852201559397   2.874439446232369   8.337863081873541 
  3.734156353867484   9.341457979185721   8.337134713185090 
  8.712993669206099   9.342117677294395   8.337665637980960 
  9.957165655722260   2.874472872573939   8.337622317122781 
 -3.733888995579000   9.342017811177696   1.667908905010414 
  1.244906086406465   9.341582385622445   1.668118659936814 
  2.489301838429948   2.874326070767577   1.666469317558990 
  6.223554433106199   9.341851298975108   1.668595381391545 
  7.467894587376354   2.874564133773344   1.669355448437219 
 12.446553963150370   2.874300133106809   1.667836691789033 
 -1.244734075800521   5.030071454192705   8.338555134608487 
 -2.489316977958467  11.497887047425005   8.338108450774554 
  2.489203863927381  11.497648997375872   8.338095766096332 
  3.734789664407909   5.029525084023841   8.355662125280697 
  7.468021064060585  11.497927350956058   8.338039046410724 
 -4.978781600337180  11.497994622213806   1.668123338053048 
  8.712902652837771   5.030468719670025   8.337304731944476 
 -0.000014237976363  11.497742279043326   1.667711416071026 
  1.244710112780750   5.029949412771907   1.661429695322347 
  0.000368503847040   7.185805874921185   1.667910337352703 
  6.223551239698367   5.030512627267778   1.666132526913285 
  4.978559146974385  11.497649093889681   1.668174495450961 
 11.202226533920545   5.030277851640464   1.667881891074392 
 -2.489129858739241   7.186041190617350   8.338041160412665 
  3.734027590226765   0.718621317638603   8.337335638186101 
  7.468446301806015   7.186233278405036   8.336627624671852 
  8.712522634592386   0.718511028420912   8.337868617680510 
 13.691277302305686   0.718427405082592   8.338028598783998 
 -0.029626271610789   1.407724937762701   5.002978606422314 
  3.845285698627551   7.826707886443715   5.002978606422314 
  4.968903160171953   1.476090206202480   5.002978606422314 
  8.760058099416156   7.932037615650182   5.002978606422314 
  9.934372434074021   1.448990667212585   5.002978606422314 
 -4.978776419298490  10.060689340212507  11.673616748318732 
 -0.000000130590259  10.060724927346227  11.673616748318732 
  1.244704475496237   3.593051740071535  11.673616748318732 
  4.978795854384051  10.060699241986100  11.673616748318732 
  6.223468439236870   3.593076327536688  11.673616748318732 
 11.202252354271870   3.593110816307981  11.673616748318732 
 -2.460879061899047  10.070068501007663   5.002978606422314 
 -1.279812875912901   3.577454185475876   5.002978606422314 
  3.665946728360212   3.557463409888864   5.002978606422314 
  2.526820102665174  10.029796536114773   5.002978606422314 
  7.490453707387480  10.065689300019644   5.002978606422314 
  8.681455056658038   3.625034498646249   5.002978606422314 
 -6.223478706637576  12.216559483602701  11.673616748318732 
 -1.244682525008662  12.216577288598462  11.673616748318732 
 -0.000032399454761   5.748975906135352  11.673616748318732 
  4.978813689378309   5.749023859853638  11.673616748318732 
  3.734099305509723  12.216562464257716  11.673616748318732 
  9.957576018753073   5.748986650665184  11.673616748318732 
 -2.498278108856534   5.749461512771823   5.002978606422314 
 -3.719868334859507  12.229027444241630   5.002978606422314 
  1.246192026591781  12.227373977924943   5.002978606422314 
  6.215717457830902  12.203071486682662   5.002978606422314 
  7.474194111515420   5.796440449899677   5.002978606422314 
 -1.244719186398745   7.904817512291009  11.673616748318732 
  0.000019701330977   1.437161110159731  11.673616748318732 
  3.734100874438457   7.904831326194454  11.673616748318732 
  4.978784229881213   1.437173414283435  11.673616748318732 
  8.712876650513003   7.904825593641051  11.673616748318732 
 -3.702066486199297   7.915704208834886   5.002978606422314 
  9.957532468245802   1.437192578097174  11.673616748318732 
  2.466732824934290   1.409884448427215   5.002978606422314 
  1.292558183920656   7.888614108328472   5.002978606422314 
  6.278028202735041   7.916017989365065   5.002978606422314 
  7.438216449665783   1.496562988022494   5.002978606422314 
  1.244710567348534   7.904833323641779  11.673616748318732 
 12.421267656538294   1.427868686465913   5.002978606422314 
 -2.489394767177964  10.060689043295096  11.673616748318732 
 -1.244672961924199   3.593074232251209  11.673616748318732 
  3.734090534894909   3.593030507043448  11.673616748318732 
  2.489394462494842  10.060704191083637  11.673616748318732 
  7.468179929285820  10.060729722435690  11.673616748318732 
  8.712848848600517   3.593088597458123  11.673616748318732 
 -4.949249258341021  10.075227019398451   5.002978606422314 
  0.026908780858993  10.061866285762857   5.002978606422314 
  1.187143560934917   3.539009143793870   5.002978606422314 
  5.000313224370717  10.049664340903520   5.002978606422314 
  6.147136646947423   3.739420730045779   5.002978606422314 
 11.174764978628048   3.596708771418814   5.002978606422314 
 -2.489412710854829   5.748982271616875  11.673616748318732 
 -3.734086979557123  12.216542525982494  11.673616748318732 
  1.244670623066940  12.216578431722054  11.673616748318732 
  2.489380345736865   5.749020014078243  11.673616748318732 
  6.223509155419604  12.216572127379571  11.673616748318732 
 -6.222412183764821  12.206681663459833   5.002978606422314 
  7.468185409834201   5.748987602048954  11.673616748318732 
 -1.235579480041795  12.239328843484909   5.002978606422314 
 -0.024512559884858   5.727317367029665   5.002978606422314 
 -1.212005017570481   7.901225541462276   5.002978606422314 
  3.728535842139313  12.209727827868631   5.002978606422314 
  9.958535834751851   5.764721741646447   5.002978606422314 
 -3.734086969131965   7.904805138433184  11.673616748318732 
  2.489365787594687   1.437146406855125  11.673616748318732 
  6.223482632701463   7.904843988068172  11.673616748318732 
  7.468146962570506   1.437176761906041  11.673616748318732 
 12.446975683291209   1.437188483526765  11.673616748318732 
  2.514206721339824   5.671491148641679   5.002978606422314 
  3.593060370883089   4.894423442416793   5.002978606422314 
Generated by cif2cell 2.0.0.  :  Failed to get author information, No journal information. Species order: B N C 
 1.0
 14.936314146199660   0.000000000000000   0.000000000000000
 -7.468157073099825  12.935227489513863   0.000000000000000
  0.000000000000001   0.000000000000001  13.341276283792837
 B N C 
 143 142   2
Cartesian
  1.222207635813573   0.698344354197972   5.002978606422314 
  5.123884092394022   7.080578885738041   5.002978606422314 
  6.214526073228654   0.748940180376906   5.002978606422314 
  9.991983388595285   7.200968268870953   5.002978606422314 
 11.178037715760015   0.714802938075831   5.002978606422314 
 -3.734016558184422   9.342027577113278  11.673616748318732 
  1.244739704330682   9.341885879859294  11.673616748318732 
  2.489345634779107   2.874633873603257  11.673616748318732 
  6.223378621868491   9.342018717717879  11.673616748318732 
  7.468066817352018   2.874487790330479  11.673616748318732 
 12.447075693823120   2.874520058719176  11.673616748318732 
 -1.215744032105636   9.341662442415759   5.002978606422314 
 -0.051542342836625   2.837165404694806   5.002978606422314 
  4.958120526708464   2.918193200471792   5.002978606422314 
  3.786825011552426   9.288867648693120   5.002978606422314 
  8.744604066021573   9.364169059901574   5.002978606422314 
  9.925962730745974   2.887583653944705   5.002978606422314 
 -4.978794657302188  11.497944535662196  11.673616748318732 
  0.000036092821619  11.497814431826821  11.673616748318732 
  1.244842634974559   5.030521679023891  11.673616748318732 
  6.223269394734699   5.030459692470343  11.673616748318732 
  4.978768769483980  11.497854129652136  11.673616748318732 
 11.202369373162837   5.030401570165597  11.673616748318732 
 -1.266744422202035   5.018839046960902   5.002978606422314 
 -2.472404445133136  11.509726105233579   5.002978606422314 
  2.494196452542191  11.481202671660641   5.002978606422314 
  7.469669082243960  11.495370281296825   5.002978606422314 
  8.707201286627875   5.056998183530271   5.002978606422314 
  0.000161388656988   7.186137424791339  11.673616748318732 
  1.244680754334511   0.718641007149975  11.673616748318732 
  4.978573528422324   7.186187997208685  11.673616748318732 
  6.223435830685768   0.718542948158960  11.673616748318732 
  9.957606666854574   7.186224042361695  11.673616748318732 
 -2.462905752517495   7.188105001250489   5.002978606422314 
 11.202295432987846   0.718530311676163  11.673616748318732 
  3.731537791990540   0.729393059321355   5.002978606422314 
  2.558615135525722   7.172210570672465   5.002978606422314 
  7.528872475733150   7.227191449428812   5.002978606422314 
  8.687002222020846   0.744221119357725   5.002978606422314 
  2.489372873409678   7.186054666689208  11.673616748318732 
 13.663966430443740   0.700223676185662   5.002978606422314 
 -1.244585528880322   9.341958737415670  11.673616748318732 
  0.000124915787154   2.874587066484322  11.673616748318732 
  4.978604697191544   2.874589280154570  11.673616748318732 
  3.734006053768827   9.341883634844146  11.673616748318732 
  8.712826218054072   9.342083266375012  11.673616748318732 
  9.957603182590137   2.874471581498315  11.673616748318732 
 -3.704372447786177   9.353188051747177   5.002978606422314 
  1.273859962674220   9.326655501237751   5.002978606422314 
  2.419053784511970   2.829062310648770   5.002978606422314 
  6.249216327096308   9.349662524177313   5.002978606422314 
  7.409713998509089   2.958562087796784   5.002978606422314 
 12.413659713947906   2.866160975496561   5.002978606422314 
 -1.244507440249115   5.030431752838917  11.673616748318732 
 -2.489354764829952  11.497878423606190  11.673616748318732 
  2.489385119810794  11.497803769008252  11.673616748318732 
  3.733854736425597   5.030526399382432  11.673616748318732 
  7.468137190779290  11.497948098610316  11.673616748318732 
 -4.963807536070928  11.508339838893704   5.002978606422314 
  8.712834430162296   5.030411150087859  11.673616748318732 
  0.008737622590793  11.504873370008438   5.002978606422314 
  1.189145579882605   4.968422187704161   5.002978606422314 
  0.034012808051966   7.168467443473596   5.002978606422314 
  6.154439861318171   5.236659087052013   5.002978606422314 
  4.974552231928839  11.487172477643332   5.002978606422314 
 11.192990940389700   5.035376504159784   5.002978606422314 
 -2.489238872145465   7.186193003796724  11.673616748318732 
  3.734010079151638   0.718612969368849  11.673616748318732 
  7.468042718848383   7.186245804503387  11.673616748318732 
  8.712850580346464   0.718498036386393  11.673616748318732 
 13.691692516121412   0.718602748536927  11.673616748318732 
 -0.000347442195334   1.437405008745917   1.667642644302705 
  3.733670014993693   7.903632850840684   1.668321201694134 
  4.978767685991962   1.437270006759796   1.667695782428411 
  8.713136288124158   7.904822992500579   1.667733257483061 
  9.957239961716922   1.437075151004664   1.667750684009793 
 -4.978488695764871  10.060660809218309   8.338357916957722 
  0.000533320625937  10.060043948153567   8.337953240285824 
  1.244526242535901   3.593949413081385   8.340711848073795 
  4.978315860049197  10.060062722813639   8.337772032662080 
  6.223239969629691   3.593521643329946   8.338671594076285 
 11.202168955339467   3.593106307186567   8.338290157586094 
 -2.488843586433855  10.060370644585564   1.667617481040979 
 -1.244775699896347   3.593210413043132   1.667604542272442 
  3.733831735724758   3.594329166011401   1.660070165789416 
  2.489410514321350  10.059879731383505   1.668552214535893 
  7.467945996300426  10.060558934411102   1.667724570798032 
  8.712688475301295   3.593213094847735   1.667932855025760 
 -6.223644227310679  12.216615724567990   8.338293349270476 
 -1.244473197612346  12.216248462176361   8.338213274895468 
  0.000959617020064   5.748482508809182   8.338865055725678 
  4.977508743582524   5.748330283181736   8.343902285108831 
  3.733698406002603  12.216173976593392   8.338166022688949 
  9.957811993510257   5.748934171835138   8.338204956139037 
 -2.488875947147198   5.748770557496248   1.667832423820787 
 -3.733955646008676  12.216495038740796   1.667678932283397 
  1.244648309495714  12.216167381368313   1.667724100370662 
  2.490159377420045   5.748179143490064   1.666500380006548 
  6.223089391286893  12.216423010546722   1.667604447038223 
  7.468004435204353   5.749009556046172   1.667608247866309 
 -1.243775997474838   7.904274379616319   8.337791375438696 
 -0.000347442195334   1.437405008745918   8.338314568541923 
  3.733670014993694   7.903632850840685   8.337636011150481 
  4.978767685991963   1.437270006759797   8.338261430416217 
  8.713136288124158   7.904822992500580   8.338223955361554 
 -3.733428534941627   7.904657564986330   1.667680464495985 
  9.957239961716922   1.437075151004664   8.338206528834821 
  2.489111404477566   1.437622504097807   1.667421394587612 
  1.245623287231508   7.903719337050870   1.668586675175781 
  6.223016899697909   7.904372851850560   1.667909017251051 
  7.468054285572398   1.437189403203911   1.668153503740171 
  1.245623287231509   7.903719337050870   8.337370537668848 
 12.446572128480110   1.437165497752146   1.667630139990495 
 -2.488843586433854  10.060370644585564   8.338339731803648 
 -1.244775699896347   3.593210413043133   8.338352670572199 
  3.733831735724759   3.594329166011402   8.345887047055212 
  2.489410514321351  10.059879731383505   8.337404998308708 
  7.467945996300427  10.060558934411102   8.338232642046597 
  8.712688475301295   3.593213094847736   8.338024357818881 
 -4.978488695764872  10.060660809218309   1.667599295886892 
  0.000533320625936  10.060043948153567   1.668003972558791 
  1.244526242535900   3.593949413081384   1.665245364770832 
  4.978315860049196  10.060062722813639   1.668185180182560 
  6.223239969629690   3.593521643329945   1.667285618768342 
 11.202168955339467   3.593106307186566   1.667667055258533 
 -2.488875947147198   5.748770557496249   8.338124789023841 
 -3.733955646008675  12.216495038740796   8.338278280561232 
  1.244648309495715  12.216167381368313   8.338233112473979 
  2.490159377420046   5.748179143490065   8.339456832838080 
  6.223089391286893  12.216423010546722   8.338352765806418 
 -6.223644227310680  12.216615724567990   1.667663863574151 
  7.468004435204354   5.749009556046173   8.338348964978305 
 -1.244473197612346  12.216248462176361   1.667743937949174 
  0.000959617020064   5.748482508809182   1.667092157118922 
 -1.243775997474838   7.904274379616318   1.668165837405944 
  4.977508743582523   5.748330283181735   1.662054927735784 
  3.733698406002603  12.216173976593392   1.667791190155680 
  9.957811993510257   5.748934171835137   1.667752256705590 
 -3.733428534941627   7.904657564986331   8.338276748348642 
  2.489111404477567   1.437622504097807   8.338535818257016 
  6.223016899697910   7.904372851850561   8.338048195593577 
  7.468054285572399   1.437189403203911   8.337803709104458 
 12.446572128480110   1.437165497752146   8.338327072854131 
  1.244449574835270   0.718532112020902   1.668403923545775 
  4.979152883078271   7.185658715990164   1.666446748818369 
  6.223388613883223   0.718531726436025   1.668676787540341 
  9.957813666480220   7.186214691843634   1.668241602931568 
 11.201812072067446   0.718421662322647   1.668062214077620 
 -3.733888995579000   9.342017811177696   8.338048307834214 
  1.244906086406466   9.341582385622445   8.337838552907828 
  2.489301838429948   2.874326070767578   8.339487895285638 
  6.223554433106200   9.341851298975108   8.337361831453071 
  7.467894587376355   2.874564133773345   8.336601764407421 
 12.446553963150370   2.874300133106809   8.338120521055581 
 -1.244461133390532   9.341826204260817   1.667738070720555 
 -0.000242642066164   2.874265325218138   1.667723099018063 
  4.978852201559397   2.874439446232369   1.668094130971100 
  3.734156353867483   9.341457979185721   1.668822499659525 
  8.712993669206099   9.342117677294395   1.668291574863681 
  9.957165655722260   2.874472872573938   1.668334895721847 
 -4.978781600337179  11.497994622213806   8.337833874791581 
 -0.000014237976363  11.497742279043326   8.338245796773601 
  1.244710112780750   5.029949412771908   8.344527517522280 
  6.223551239698367   5.030512627267779   8.339824685931330 
  4.978559146974386  11.497649093889681   8.337782717393665 
 11.202226533920545   5.030277851640465   8.338075321770249 
 -1.244734075800522   5.030071454192704   1.667402078236141 
 -2.489316977958468  11.497887047425005   1.667848762070075 
  2.489203863927380  11.497648997375872   1.667861446748296 
  3.734789664407909   5.029525084023840   1.650295087563945 
  7.468021064060584  11.497927350956058   1.667918166433903 
  8.712902652837771   5.030468719670024   1.668652480900165 
  0.000368503847040   7.185805874921186   8.338046875491912 
  1.244449574835270   0.718532112020902   8.337553289298853 
  4.979152883078272   7.185658715990165   8.339510464026246 
  6.223388613883224   0.718531726436026   8.337280425304288 
  9.957813666480220   7.186214691843634   8.337715609913046 
 -2.489129858739242   7.186041190617349   1.667916052431977 
 11.201812072067446   0.718421662322648   8.337894998767007 
  3.734027590226765   0.718621317638603   1.668621574658514 
  2.489912922808113   7.185612432548766   1.665556610572871 
  7.468446301806014   7.186233278405035   1.669329588172788 
  8.712522634592386   0.718511028420912   1.668088595164118 
  2.489912922808113   7.185612432548767   8.340400602271744 
 13.691277302305686   0.718427405082591   1.667928614060618 
 -1.244461133390531   9.341826204260817   8.338219142124085 
 -0.000242642066164   2.874265325218138   8.338234113826566 
  4.978852201559397   2.874439446232369   8.337863081873541 
  3.734156353867484   9.341457979185721   8.337134713185090 
  8.712993669206099   9.342117677294395   8.337665637980960 
  9.957165655722260   2.874472872573939   8.337622317122781 
 -3.733888995579000   9.342017811177696   1.667908905010414 
  1.244906086406465   9.341582385622445   1.668118659936814 
  2.489301838429948   2.874326070767577   1.666469317558990 
  6.223554433106199   9.341851298975108   1.668595381391545 