B N                                     
   1.0000000000000000     
     8.7639499999999995  -15.1796066749929999    0.0000000000000000
     8.7639499999999995   15.1796066749929999    0.0000000000000000
     0.0000000000000000    0.0000000000000000   15.0000000000000000
   B    N 
    48    49
Selective dynamics
Direct
  0.9050282212415816  0.9526059179361870  0.1128029980254578   T   T   T
  0.9046894488300157  0.0953119189761844  0.1131076793189233   T   T   T
  0.9046371432288383  0.2381341512839364  0.1134631228892165   T   T   T
  0.9046600863846911  0.3809499787615958  0.1138256627991737   T   T   T
  0.9047782048855867  0.5237898115287134  0.1134611761559495   T   T   T
  0.9052291188751617  0.6667670472679212  0.1116481430839047   T   T   T
  0.9051610456910202  0.8097679412987867  0.1118857284952302   T   T   T
  0.0476897198066670  0.9523120080697457  0.1132630151859292   T   T   T
  0.0473949617034951  0.0949725594325918  0.1128058681472265   T   T   T
  0.0473368162731507  0.2379430519405808  0.1126019283478336   T   T   T
  0.0474084408878421  0.3808118424070731  0.1132925720514093   T   T   T
  0.0475589077481538  0.5237421641412781  0.1136572724714164   T   T   T
  0.0477778330823763  0.6666150169306624  0.1134787170470679   T   T   T
  0.0478729744871286  0.8095185833622752  0.1131100104574506   T   T   T
  0.1904832981242291  0.9521288341103127  0.1131100436914131   T   T   T
  0.1902339339426571  0.0948411436577850  0.1118885456089522   T   T   T
  0.1897362682605716  0.2372182306801691  0.1101742128048662   T   T   T
  0.1900850964990045  0.3805229860682394  0.1110507106069258   T   T   T
  0.1902353845874886  0.5236627015699031  0.1127348661393450   T   T   T
  0.1904796707811064  0.6665618734434516  0.1134055169606359   T   T   T
  0.1905888125911770  0.8094134119331070  0.1133790407543558   T   T   T
  0.3333878928865537  0.9522242491633275  0.1134751838902140   T   T   T
  0.3332348844704218  0.0947730327458757  0.1116470512966053   T   T   T
  0.3328117604539648  0.2371749746740845  0.1062355772010538   T   T   T
  0.3325564205041477  0.3788790815211648  0.1040566727153299   T   T   T
  0.3335383578805347  0.5245256678040645  0.1097619283831944   T   T   T
  0.3332987468547509  0.6667027400316081  0.1126603474799426   T   T   T
  0.3334402019345556  0.8095225175024192  0.1134025417919165   T   T   T
  0.4762611424316356  0.9524425968376699  0.1136512626261590   T   T   T
  0.4762122114429104  0.0952234256945201  0.1134553925788640   T   T   T
  0.4761715943127933  0.2380827248479137  0.1093082608692782   T   T   T
  0.4756727869036196  0.3812824472112441  0.0973829354706161   T   T   T
  0.4754767259921709  0.6664627789655203  0.1097584516456069   T   T   T
  0.4763378160163870  0.8097641824478741  0.1127281312772852   T   T   T
  0.6191898247783134  0.9525913752954452  0.1132808622384370   T   T   T
  0.6190516788530829  0.0953407964784409  0.1138170719069414   T   T   T
  0.6189409303080311  0.2380924164190317  0.1124035766909782   T   T   T
  0.6189031488602318  0.3810989066728860  0.1071100792623775   T   T   T
  0.6187198209293995  0.5243293456561917  0.0973791142318180   T   T   T
  0.6211237147947531  0.6674457651052879  0.1040508204298262   T   T   T
  0.6194792417140662  0.8099165688296737  0.1110424016067574   T   T   T
  0.7620590186612194  0.9526648360819662  0.1125930152048607   T   T   T
  0.7618663947747091  0.0953633125270666  0.1134561438800373   T   T   T
  0.7618247429020887  0.2381763589289390  0.1136655173246909   T   T   T
  0.7619090420158140  0.3810607888990419  0.1124063951237516   T   T   T
  0.7619193988569329  0.5238304842466568  0.1093073938082154   T   T   T
  0.7628273761798446  0.6671902226634202  0.1062323576694529   T   T   T
  0.7627836341368663  0.8102651391532462  0.1101670807964495   T   T   T
  0.9526060770466562  0.9048881296564290  0.1129954813978156   T   T   T
  0.9523365402694802  0.0476644289621046  0.1130945593083818   T   T   T
  0.9521516519382243  0.1904457884701372  0.1131262304731454   T   T   T
  0.9521702439045810  0.3332995326977017  0.1136609920258556   T   T   T
  0.9522778162442161  0.4761502773622515  0.1138682176543193   T   T   T
  0.9525576839326357  0.6190319941615934  0.1132265339608237   T   T   T
  0.9526643406584854  0.7619454998856976  0.1122764128834224   T   T   T
  0.0953320613555455  0.9046697652161934  0.1133254193264609   T   T   T
  0.0951135583480479  0.0473955641123406  0.1129978204647375   T   T   T
  0.0947020290707689  0.1899940435648660  0.1121075184282756   T   T   T
  0.0947722419933285  0.3330260850840967  0.1125475170371797   T   T   T
  0.0949652864180786  0.4760307135073794  0.1133976943672556   T   T   T
  0.0952407181829280  0.6189693818414372  0.1135751244479417   T   T   T
  0.0953586719519430  0.7618351606487537  0.1133060874426566   T   T   T
  0.2381675341686637  0.9046435606628315  0.1133040661100731   T   T   T
  0.2380562921126475  0.0473376359282721  0.1122773300588182   T   T   T
  0.2376555162394889  0.1897735346368076  0.1097645505157421   T   T   T
  0.2367429919896962  0.3319175370573875  0.1087160270198608   T   T   T
  0.2373205051870520  0.4757034472391688  0.1114733386079741   T   T   T
  0.2379680755840895  0.6189745736872435  0.1130539210404966   T   T   T
  0.2381489348299398  0.7618529604591322  0.1134054569568843   T   T   T
  0.3810337516048181  0.9047613492669219  0.1135709534274807   T   T   T
  0.3809700817821154  0.0474444762675911  0.1132218779639491   T   T   T
  0.3808322762023342  0.1899837068392490  0.1089574978067427   T   T   T
  0.3803201396799212  0.3316795008403361  0.1001046675297103   T   T   T
  0.3715641568368269  0.4704054938636623  0.1058138065059821   T   T   T
  0.3807292130181316  0.6192728523427105  0.1113640890263837   T   T   T
  0.3810266018252987  0.7620330741021412  0.1130502433302362   T   T   T
  0.5239711107576944  0.9050347990361481  0.1133885308988861   T   T   T
  0.5238516882964462  0.0477236059547834  0.1138604903729090   T   T   T
  0.5237970354069268  0.1904542420814241  0.1125517280930709   T   T   T
  0.5237718638863259  0.3330307376717952  0.1050546212363340   T   T   T
  0.5253370149539014  0.4746653210647976  0.0943115957459635   T   T   T
  0.5295971245799526  0.6284371208051005  0.1058094489561644   T   T   T
  0.5242987051842719  0.7626805790016177  0.1114659619296003   T   T   T
  0.6669763964309905  0.9052289652918838  0.1125351490622307   T   T   T
  0.6667013221797098  0.0478295115811758  0.1136481510415282   T   T   T
  0.6666043710975031  0.1905882795964260  0.1136373431699952   T   T   T
  0.6665834193228628  0.3334182889844853  0.1109326429002120   T   T   T
  0.6669710215117464  0.4762300500689934  0.1050517578673061   T   T   T
  0.6683229470806412  0.6196820435469748  0.1000997245607507   T   T   T
  0.6680846573628337  0.7632589135942687  0.1087080534734931   T   T   T
  0.8100073724116076  0.9052990479175466  0.1121011108882561   T   T   T
  0.8095557937594257  0.0478498562054746  0.1131205757905089   T   T   T
  0.8094046790865155  0.1905959865438923  0.1135783057748182   T   T   T
  0.8094125796031161  0.3333969736919276  0.1136425972296194   T   T   T
  0.8095474513764210  0.4762047684575588  0.1125551136465735   T   T   T
  0.8100184882915165  0.6191696710417089  0.1089564860948750   T   T   T
  0.8102287211929363  0.7623463157714219  0.1097606240259364   T   T   T

  0.00000000E+00  0.00000000E+00  0.00000000E+00
  0.00000000E+00  0.00000000E+00  0.00000000E+00
  0.00000000E+00  0.00000000E+00  0.00000000E+00
  0.00000000E+00  0.00000000E+00  0.00000000E+00
  0.00000000E+00  0.00000000E+00  0.00000000E+00
  0.00000000E+00  0.00000000E+00  0.00000000E+00
  0.00000000E+00  0.00000000E+00  0.00000000E+00
  0.00000000E+00  0.00000000E+00  0.00000000E+00
  0.00000000E+00  0.00000000E+00  0.00000000E+00
  0.00000000E+00  0.00000000E+00  0.00000000E+00
  0.00000000E+00  0.00000000E+00  0.00000000E+00
  0.00000000E+00  0.00000000E+00  0.00000000E+00
  0.00000000E+00  0.00000000E+00  0.00000000E+00
  0.00000000E+00  0.00000000E+00  0.00000000E+00
  0.00000000E+00  0.00000000E+00  0.00000000E+00
  0.00000000E+00  0.00000000E+00  0.00000000E+00
  0.00000000E+00  0.00000000E+00  0.00000000E+00
  0.00000000E+00  0.00000000E+00  0.00000000E+00
  0.00000000E+00  0.00000000E+00  0.00000000E+00
  0.00000000E+00  0.00000000E+00  0.00000000E+00
  0.00000000E+00  0.00000000E+00  0.00000000E+00
  0.00000000E+00  0.00000000E+00  0.00000000E+00
  0.00000000E+00  0.00000000E+00  0.00000000E+00
  0.00000000E+00  0.00000000E+00  0.00000000E+00
  0.00000000E+00  0.00000000E+00  0.00000000E+00
  0.00000000E+00  0.00000000E+00  0.00000000E+00
  0.00000000E+00  0.00000000E+00  0.00000000E+00
  0.00000000E+00  0.00000000E+00  0.00000000E+00
  0.00000000E+00  0.00000000E+00  0.00000000E+00
  0.00000000E+00  0.00000000E+00  0.00000000E+00
  0.00000000E+00  0.00000000E+00  0.00000000E+00
  0.00000000E+00  0.00000000E+00  0.00000000E+00
  0.00000000E+00  0.00000000E+00  0.00000000E+00
  0.00000000E+00  0.00000000E+00  0.00000000E+00
  0.00000000E+00  0.00000000E+00  0.00000000E+00
  0.00000000E+00  0.00000000E+00  0.00000000E+00
  0.00000000E+00  0.00000000E+00  0.00000000E+00
  0.00000000E+00  0.00000000E+00  0.00000000E+00
  0.00000000E+00  0.00000000E+00  0.00000000E+00
  0.00000000E+00  0.00000000E+00  0.00000000E+00
  0.00000000E+00  0.00000000E+00  0.00000000E+00
  0.00000000E+00  0.00000000E+00  0.00000000E+00
  0.00000000E+00  0.00000000E+00  0.00000000E+00
  0.00000000E+00  0.00000000E+00  0.00000000E+00
  0.00000000E+00  0.00000000E+00  0.00000000E+00
  0.00000000E+00  0.00000000E+00  0.00000000E+00
  0.00000000E+00  0.00000000E+00  0.00000000E+00
  0.00000000E+00  0.00000000E+00  0.00000000E+00
  0.00000000E+00  0.00000000E+00  0.00000000E+00
  0.00000000E+00  0.00000000E+00  0.00000000E+00
  0.00000000E+00  0.00000000E+00  0.00000000E+00
  0.00000000E+00  0.00000000E+00  0.00000000E+00
  0.00000000E+00  0.00000000E+00  0.00000000E+00
  0.00000000E+00  0.00000000E+00  0.00000000E+00
  0.00000000E+00  0.00000000E+00  0.00000000E+00
  0.00000000E+00  0.00000000E+00  0.00000000E+00
  0.00000000E+00  0.00000000E+00  0.00000000E+00
  0.00000000E+00  0.00000000E+00  0.00000000E+00
  0.00000000E+00  0.00000000E+00  0.00000000E+00
  0.00000000E+00  0.00000000E+00  0.00000000E+00
  0.00000000E+00  0.00000000E+00  0.00000000E+00
  0.00000000E+00  0.00000000E+00  0.00000000E+00
  0.00000000E+00  0.00000000E+00  0.00000000E+00
  0.00000000E+00  0.00000000E+00  0.00000000E+00
  0.00000000E+00  0.00000000E+00  0.00000000E+00
  0.00000000E+00  0.00000000E+00  0.00000000E+00
  0.00000000E+00  0.00000000E+00  0.00000000E+00
  0.00000000E+00  0.00000000E+00  0.00000000E+00
  0.00000000E+00  0.00000000E+00  0.00000000E+00
  0.00000000E+00  0.00000000E+00  0.00000000E+00
  0.00000000E+00  0.00000000E+00  0.00000000E+00
  0.00000000E+00  0.00000000E+00  0.00000000E+00
  0.00000000E+00  0.00000000E+00  0.00000000E+00
  0.00000000E+00  0.00000000E+00  0.00000000E+00
  0.00000000E+00  0.00000000E+00  0.00000000E+00
  0.00000000E+00  0.00000000E+00  0.00000000E+00
  0.00000000E+00  0.00000000E+00  0.00000000E+00
  0.00000000E+00  0.00000000E+00  0.00000000E+00
  0.00000000E+00  0.00000000E+00  0.00000000E+00
  0.00000000E+00  0.00000000E+00  0.00000000E+00
  0.00000000E+00  0.00000000E+00  0.00000000E+00
  0.00000000E+00  0.00000000E+00  0.00000000E+00
  0.00000000E+00  0.00000000E+00  0.00000000E+00
  0.00000000E+00  0.00000000E+00  0.00000000E+00
  0.00000000E+00  0.00000000E+00  0.00000000E+00
  0.00000000E+00  0.00000000E+00  0.00000000E+00
  0.00000000E+00  0.00000000E+00  0.00000000E+00
  0.00000000E+00  0.00000000E+00  0.00000000E+00
  0.00000000E+00  0.00000000E+00  0.00000000E+00
  0.00000000E+00  0.00000000E+00  0.00000000E+00
  0.00000000E+00  0.00000000E+00  0.00000000E+00
  0.00000000E+00  0.00000000E+00  0.00000000E+00
  0.00000000E+00  0.00000000E+00  0.00000000E+00
  0.00000000E+00  0.00000000E+00  0.00000000E+00
  0.00000000E+00  0.00000000E+00  0.00000000E+00
  0.00000000E+00  0.00000000E+00  0.00000000E+00
  0.00000000E+00  0.00000000E+00  0.00000000E+00
