In B N                                  
   1.0000000000000000     
     8.7639499999999995  -15.1796066749929999    0.0000000000000000
     8.7639499999999995   15.1796066749929999    0.0000000000000000
     0.0000000000000000    0.0000000000000000   15.0000000000000000
   In   B    N 
     1    48    48
Selective dynamics
Direct
  0.4951917780486139  0.5048096238683832  0.1113271376110984   T   T   T
  0.9067820615854119  0.9539845128148996  0.1110086120566303   T   T   T
  0.9043721924507930  0.0956298287452045  0.1110253769990312   T   T   T
  0.9037091559959787  0.2382549276964041  0.1110355503467933   T   T   T
  0.9042853141992346  0.3811737834899336  0.1109786036645826   T   T   T
  0.9067352851153944  0.5244474447076950  0.1110337503261261   T   T   T
  0.9088577371533373  0.6682111867583738  0.1110638615549242   T   T   T
  0.9093911229169612  0.8122421611551509  0.1110591554670281   T   T   T
  0.0485230016251102  0.9514790195708935  0.1110436372318362   T   T   T
  0.0460175083811041  0.0932199596105850  0.1110086120566303   T   T   T
  0.0452463689052159  0.2366738801103072  0.1109739269407027   T   T   T
  0.0459856671058387  0.3802976049239242  0.1110000564591407   T   T   T
  0.0480577561009242  0.5235210542482203  0.1110193525707251   T   T   T
  0.0497737063907749  0.6664814914223234  0.1110700361105999   T   T   T
  0.0498840575483335  0.8092715364166259  0.1110528345528992   T   T   T
  0.1907304847793768  0.9501179636476690  0.1110528345528992   T   T   T
  0.1877598600408520  0.0906108982790350  0.1110591554670281   T   T   T
  0.1847539110576442  0.2322273760519284  0.1109932388822768   T   T   T
  0.1864332559858171  0.3783008355849797  0.1110114579608488   T   T   T
  0.1895045695523691  0.5226887007084323  0.1110672250420688   T   T   T
  0.1918808067018558  0.6657082917337562  0.1110503280514657   T   T   T
  0.1917943845020919  0.8082076366939123  0.1110297363655053   T   T   T
  0.3335205297746751  0.9502283148052285  0.1110700361105999   T   T   T
  0.3317908344386234  0.0911442840426585  0.1110638615549242   T   T   T
  0.3260487572157403  0.2283829501935809  0.1110038302152654   T   T   T
  0.3219225208827632  0.3715394070222106  0.1110040781307430   T   T   T
  0.3305484626963219  0.5208143619425005  0.1110532681767936   T   T   T
  0.3347968003513072  0.6652052208456911  0.1110939567884280   T   T   T
  0.3342937294632424  0.8081212144941484  0.1110503280514657   T   T   T
  0.4764809669487798  0.9519442650950796  0.1110193525707251   T   T   T
  0.4755545764893024  0.0932667360806023  0.1110337503261261   T   T   T
  0.4736456808641702  0.2330840784606789  0.1109937457327018   T   T   T
  0.4610396070338308  0.3593884493326662  0.1110992701064960   T   T   T
  0.4791876592544976  0.6694535585006751  0.1110532681767936   T   T   T
  0.4773133204885653  0.8104974516436338  0.1110672250420688   T   T   T
  0.6197044162720796  0.9540163540901658  0.1110000564591407   T   T   T
  0.6188282377060706  0.0957167069967613  0.1109786036645826   T   T   T
  0.6183714580620626  0.2380027463529813  0.1109792788155565   T   T   T
  0.6186388128670517  0.3813632083289519  0.1109968022637766   T   T   T
  0.6406135718633377  0.5389624141631660  0.1110992701064960   T   T   T
  0.6284626141737942  0.6780795003142354  0.1110040781307430   T   T   T
  0.6217011856110234  0.8135687652101860  0.1110114579608488   T   T   T
  0.7633281410856964  0.9547556522907876  0.1109739269407027   T   T   T
  0.7617470934995991  0.0962928652000184  0.1110355503467933   T   T   T
  0.7613439062153829  0.2386581149806209  0.1110294338663574   T   T   T
  0.7619992748430229  0.3816305631339410  0.1109792788155565   T   T   T
  0.7669179427353245  0.5263563403328274  0.1109937457327018   T   T   T
  0.7716190710024233  0.6739532639812582  0.1110038302152654   T   T   T
  0.7677746451440753  0.8152481101383598  0.1109932388822768   T   T   T
  0.9544161154398288  0.9060730032444589  0.1110171959876940   T   T   T
  0.9520906464866735  0.0479107554313315  0.1110007362719408   T   T   T
  0.9508664881368316  0.1902961440330251  0.1110051711275803   T   T   T
  0.9510797378917676  0.3332257556890666  0.1109828385422050   T   T   T
  0.9527897587278557  0.4761993441073057  0.1109801828688598   T   T   T
  0.9545298559130413  0.6193423785253216  0.1110592794233941   T   T   T
  0.9551238244975641  0.7627941438483085  0.1110564409918974   T   T   T
  0.0961596162778182  0.9038417856401804  0.1110292058300546   T   T   T
  0.0939283986735393  0.0455852864781766  0.1110171959876940   T   T   T
  0.0914905070739439  0.1874102822502262  0.1109573849670914   T   T   T
  0.0922620632680302  0.3316478706673077  0.1109680863521020   T   T   T
  0.0945301745844219  0.4753584422338543  0.1110072718166554   T   T   T
  0.0965724149963812  0.6184775315349598  0.1110309247537037   T   T   T
  0.0968701297479382  0.7612805965101040  0.1110320505745750   T   T   T
  0.2387208054079020  0.9031312721700608  0.1110320505745750   T   T   T
  0.2372072580696964  0.0448775774204423  0.1110564409918974   T   T   T
  0.2330350411239912  0.1847624648194307  0.1110069232332008   T   T   T
  0.2297460632768713  0.3261974619483750  0.1109892464546628   T   T   T
  0.2353207558504272  0.4737902170247715  0.1110491172197113   T   T   T
  0.2392317450990323  0.6178696244613264  0.1110673179385100   T   T   T
  0.2392932443041148  0.7607081576138909  0.1110175599523234   T   T   T
  0.3815238703830381  0.9034289869216190  0.1110309247537037   T   T   T
  0.3806590233926753  0.0454715460049648  0.1110592794233941   T   T   T
  0.3786624656636196  0.1863942836357365  0.1109968838330113   T   T   T
  0.3707302364768988  0.3231015913332532  0.1109953609473311   T   T   T
  0.3661718252004080  0.4634068853632616  0.1109338020239461   T   T   T
  0.3828602973894376  0.6171411045285613  0.1110684059653310   T   T   T
  0.3821317774566712  0.7607696568189737  0.1110673179385100   T   T   T
  0.5246429596831428  0.9054712273335764  0.1110072718166554   T   T   T
  0.5238020578096919  0.0472116431901497  0.1109801828688598   T   T   T
  0.5230416416337140  0.1889335687621628  0.1109791323475664   T   T   T
  0.5217448043147931  0.3303172241715897  0.1109958257058986   T   T   T
  0.5365945165537358  0.6338295767175904  0.1109338020239461   T   T   T
  0.5262111848922232  0.7646806460675788  0.1110491172197113   T   T   T
  0.6683535312496871  0.9077393386499689  0.1109680863521020   T   T   T
  0.6667756462279291  0.0489216640262374  0.1109828385422050   T   T   T
  0.6660732425084352  0.1912429741488609  0.1109740189774924   T   T   T
  0.6656788633350244  0.3343225385819712  0.1109608837091435   T   T   T
  0.6696841777454068  0.4782565976022035  0.1109958257058986   T   T   T
  0.6768998105837445  0.6292711654411004  0.1109953609473311   T   T   T
  0.6738039399686228  0.7702553386411348  0.1109892464546628   T   T   T
  0.8125911196677720  0.9085108948440541  0.1109573849670914   T   T   T
  0.8097052578849731  0.0491349137811741  0.1110051711275803   T   T   T
  0.8087496396101106  0.1912517623078874  0.1110411389642442   T   T   T
  0.8087584277691374  0.3339281594085607  0.1109740189774924   T   T   T
  0.8110678331558353  0.4769597602832814  0.1109791323475664   T   T   T
  0.8136071182822632  0.6213389362543795  0.1109968838330113   T   T   T
  0.8152389370985675  0.7669663607940156  0.1110069232332008   T   T   T

  0.00000000E+00  0.00000000E+00  0.00000000E+00
  0.00000000E+00  0.00000000E+00  0.00000000E+00
  0.00000000E+00  0.00000000E+00  0.00000000E+00
  0.00000000E+00  0.00000000E+00  0.00000000E+00
  0.00000000E+00  0.00000000E+00  0.00000000E+00
  0.00000000E+00  0.00000000E+00  0.00000000E+00
  0.00000000E+00  0.00000000E+00  0.00000000E+00
  0.00000000E+00  0.00000000E+00  0.00000000E+00
  0.00000000E+00  0.00000000E+00  0.00000000E+00
  0.00000000E+00  0.00000000E+00  0.00000000E+00
  0.00000000E+00  0.00000000E+00  0.00000000E+00
  0.00000000E+00  0.00000000E+00  0.00000000E+00
  0.00000000E+00  0.00000000E+00  0.00000000E+00
  0.00000000E+00  0.00000000E+00  0.00000000E+00
  0.00000000E+00  0.00000000E+00  0.00000000E+00
  0.00000000E+00  0.00000000E+00  0.00000000E+00
  0.00000000E+00  0.00000000E+00  0.00000000E+00
  0.00000000E+00  0.00000000E+00  0.00000000E+00
  0.00000000E+00  0.00000000E+00  0.00000000E+00
  0.00000000E+00  0.00000000E+00  0.00000000E+00
  0.00000000E+00  0.00000000E+00  0.00000000E+00
  0.00000000E+00  0.00000000E+00  0.00000000E+00
  0.00000000E+00  0.00000000E+00  0.00000000E+00
  0.00000000E+00  0.00000000E+00  0.00000000E+00
  0.00000000E+00  0.00000000E+00  0.00000000E+00
  0.00000000E+00  0.00000000E+00  0.00000000E+00
  0.00000000E+00  0.00000000E+00  0.00000000E+00
  0.00000000E+00  0.00000000E+00  0.00000000E+00
  0.00000000E+00  0.00000000E+00  0.00000000E+00
  0.00000000E+00  0.00000000E+00  0.00000000E+00
  0.00000000E+00  0.00000000E+00  0.00000000E+00
  0.00000000E+00  0.00000000E+00  0.00000000E+00
  0.00000000E+00  0.00000000E+00  0.00000000E+00
  0.00000000E+00  0.00000000E+00  0.00000000E+00
  0.00000000E+00  0.00000000E+00  0.00000000E+00
  0.00000000E+00  0.00000000E+00  0.00000000E+00
  0.00000000E+00  0.00000000E+00  0.00000000E+00
  0.00000000E+00  0.00000000E+00  0.00000000E+00
  0.00000000E+00  0.00000000E+00  0.00000000E+00
  0.00000000E+00  0.00000000E+00  0.00000000E+00
  0.00000000E+00  0.00000000E+00  0.00000000E+00
  0.00000000E+00  0.00000000E+00  0.00000000E+00
  0.00000000E+00  0.00000000E+00  0.00000000E+00
  0.00000000E+00  0.00000000E+00  0.00000000E+00
  0.00000000E+00  0.00000000E+00  0.00000000E+00
  0.00000000E+00  0.00000000E+00  0.00000000E+00
  0.00000000E+00  0.00000000E+00  0.00000000E+00
  0.00000000E+00  0.00000000E+00  0.00000000E+00
  0.00000000E+00  0.00000000E+00  0.00000000E+00
  0.00000000E+00  0.00000000E+00  0.00000000E+00
  0.00000000E+00  0.00000000E+00  0.00000000E+00
  0.00000000E+00  0.00000000E+00  0.00000000E+00
  0.00000000E+00  0.00000000E+00  0.00000000E+00
  0.00000000E+00  0.00000000E+00  0.00000000E+00
  0.00000000E+00  0.00000000E+00  0.00000000E+00
  0.00000000E+00  0.00000000E+00  0.00000000E+00
  0.00000000E+00  0.00000000E+00  0.00000000E+00
  0.00000000E+00  0.00000000E+00  0.00000000E+00
  0.00000000E+00  0.00000000E+00  0.00000000E+00
  0.00000000E+00  0.00000000E+00  0.00000000E+00
  0.00000000E+00  0.00000000E+00  0.00000000E+00
  0.00000000E+00  0.00000000E+00  0.00000000E+00
  0.00000000E+00  0.00000000E+00  0.00000000E+00
  0.00000000E+00  0.00000000E+00  0.00000000E+00
  0.00000000E+00  0.00000000E+00  0.00000000E+00
  0.00000000E+00  0.00000000E+00  0.00000000E+00
  0.00000000E+00  0.00000000E+00  0.00000000E+00
  0.00000000E+00  0.00000000E+00  0.00000000E+00
  0.00000000E+00  0.00000000E+00  0.00000000E+00
  0.00000000E+00  0.00000000E+00  0.00000000E+00
  0.00000000E+00  0.00000000E+00  0.00000000E+00
  0.00000000E+00  0.00000000E+00  0.00000000E+00
  0.00000000E+00  0.00000000E+00  0.00000000E+00
  0.00000000E+00  0.00000000E+00  0.00000000E+00
  0.00000000E+00  0.00000000E+00  0.00000000E+00
  0.00000000E+00  0.00000000E+00  0.00000000E+00
  0.00000000E+00  0.00000000E+00  0.00000000E+00
  0.00000000E+00  0.00000000E+00  0.00000000E+00
  0.00000000E+00  0.00000000E+00  0.00000000E+00
  0.00000000E+00  0.00000000E+00  0.00000000E+00
  0.00000000E+00  0.00000000E+00  0.00000000E+00
  0.00000000E+00  0.00000000E+00  0.00000000E+00
  0.00000000E+00  0.00000000E+00  0.00000000E+00
  0.00000000E+00  0.00000000E+00  0.00000000E+00
  0.00000000E+00  0.00000000E+00  0.00000000E+00
  0.00000000E+00  0.00000000E+00  0.00000000E+00
  0.00000000E+00  0.00000000E+00  0.00000000E+00
  0.00000000E+00  0.00000000E+00  0.00000000E+00
  0.00000000E+00  0.00000000E+00  0.00000000E+00
  0.00000000E+00  0.00000000E+00  0.00000000E+00
  0.00000000E+00  0.00000000E+00  0.00000000E+00
  0.00000000E+00  0.00000000E+00  0.00000000E+00
  0.00000000E+00  0.00000000E+00  0.00000000E+00
  0.00000000E+00  0.00000000E+00  0.00000000E+00
  0.00000000E+00  0.00000000E+00  0.00000000E+00
  0.00000000E+00  0.00000000E+00  0.00000000E+00
  0.00000000E+00  0.00000000E+00  0.00000000E+00
