 In B N 
 1.0
 17.527899999999772   0.000000000000000   0.000000000000000
 -8.763949999999658  15.179606674993195   0.000000000000000
  0.000000000000001   0.000000000000002  15.000000000000000
 In B N 
   1  48  48
Cartesian
  4.255545663357045   7.662811536073311   1.669907064166470 
  7.533312726178918  14.481109678565188   1.665129180849450 
 15.013650314426551   1.451623186749155   1.665380654985465 
 13.752069441796895   3.616616090810355   1.665533255201895 
 12.509634578936087   5.786068108196214   1.664679054968745 
 11.296934220928083   7.960905932368052   1.665506254891890 
 10.074198100858943  10.143182990822538   1.665957923323860 
  8.821266975120585  12.329516531181628   1.665887332005420 
 -7.488208233383256  14.443077276594323   1.665654558477540 
 -0.010384779876012   1.415042321147432   1.665129180849450 
 -1.281124222058919   3.592616410318955   1.664608904110545 
 -2.526877020208469   5.772768062187122   1.665000846887115 
 -3.745760800217135   7.946843689565756   1.665290288560875 
 -4.970204785086252  10.119737783328796   1.666050541659000 
 -6.218052509276799  12.284423616071814   1.665792518293485 
 -4.983681463345265  14.422416983017099   1.665792518293485 
  2.496926668837489   1.375437796343569   1.665887332005420 
  1.203118965277021   3.525120227634001   1.664898583234155 
 -0.047626140431097   5.742457889001266   1.665171869412735 
 -1.259200493916558   7.934208890217235   1.666008375631035 
 -2.470966591550406  10.105190028800040   1.665754920771990 
 -3.721338525489160  12.268274036739383   1.665446045482575 
 -2.485120106203704  14.424092070184988   1.666050541659000 
  5.016812618821042   1.383534382441407   1.665957923323860 
  3.713413255252739   3.466763355213121   1.665057453228975 
  2.386472967608730   5.639822062857368   1.665061171961145 
  1.229429371948983   7.905757164974710   1.665799022651910 
  0.038459541647231  10.097553610589573   1.666409351826420 
 -1.222866857107030  12.266962181738977   1.665754920771990 
  0.008918798501711  14.450139520658768   1.665290288560875 
  7.518088049573167   1.415752369563935   1.665506254891890 
  6.259276920193590   3.538124633236361   1.664906185990530 
  4.931393727599287   5.455375304405591   1.666489051597440 
  2.532095858625044  10.162041705214794   1.665799022651910 
  1.263141008859462  12.303032527034681   1.666008375631035 
  2.501165411547065  14.481593016599756   1.665000846887115 
 10.007903033403869   1.452941964436401   1.664679054968745 
  8.752908910865767   3.612788077206423   1.664689182233340 
  7.501191158417871   5.788943502746980   1.664952033956655 
  6.505170976658161   8.181237459601642   1.666489051597440 
  5.072975018197991  10.292980109146013   1.665061171961145 
  3.767040231407777  12.349653858950511   1.665171869412735 
  5.012108525242272  14.492815272500726   1.664608904110545 
 12.507921024181783   1.461687819344413   1.665533255201895 
 11.253172066968105   3.622736315201128   1.665441507995355 
 10.011655915743278   5.793001843529383   1.664689182233340 
  8.829500359610629   7.989882217141171   1.664906185990530 
  7.618369206754878  10.230345464563355   1.665057453228975 
  6.312683527773856  12.375145654431837   1.664898583234155 
  8.788131733033595  13.753831808080722   1.665257939815410 
 16.268262177491156   0.727266422949399   1.665011044079115 
 14.998946825915198   2.888620618189173   1.665077566913700 
 13.749113871126351   5.059868891664398   1.664742578133075 
 12.527016370216707   7.228518742438644   1.664702743032900 
 11.303018223181187   9.401373703169140   1.665889191350910 
 10.056225146431515  11.578915077605496   1.665846614878455 
 -6.235748079105003  13.719962802441446   1.665438087450825 
  1.246860407679499   0.691966718905613   1.665257939815410 
 -0.038817884185442   2.844814371407889   1.664360774506365 
 -1.289385137378959   5.034284231328749   1.664521295281530 
 -2.509102172716954   7.215754182747377   1.665109077249825 
 -3.727594529680557   9.388245666021392   1.665463871305560 
 -4.973895136575607  11.555940024327576   1.665480758618625 
 -3.730722907625386  13.709177487427754   1.665480758618625 
  3.764440254085903   0.681223973768866   1.665846614878455 
  2.465365893762959   2.804621544261230   1.665103848498015 
  1.168187775868265   4.951549170757392   1.664838696819945 
 -0.027595096023433   7.191949140895688   1.665736758295665 
 -1.221748390376359   9.379017875748684   1.666009769077650 
 -2.472500201081957  11.547250627037595   1.665263399284845 
 -1.230294222244650  13.713696680257748   1.665463871305560 
  6.273642940514184   0.690240183259227   1.665889191350910 
  5.003607649835924   2.829391912057608   1.664953257495165 
  3.666476320578401   4.904555072503171   1.664930414209965 
  2.356948361950946   7.034334250297978   1.664007030359190 
  1.302143223579372   9.367959229714417   1.666026089479965 
  0.030620348204309  11.548184160781581   1.666009769077650 
  1.260384770240258  13.744697086447031   1.665109077249825 
  8.767389608746083   0.716654174106598   1.664702743032900 
  7.512017240438363   2.867937261512415   1.664686985213490 
  6.250207118770648   5.014085540900291   1.664937385588485 
  3.850524307828200   9.621283673550440   1.664007030359190 
  2.521754079568576  11.607551439285531   1.665736758295665 
  3.759451683430150  13.779126124124979   1.664521295281530 
 11.256519649223792   0.742611617804442   1.664742578133075 
  9.998821324071601   2.902993126935602   1.664610284662380 
  8.737966536644464   5.074884638259556   1.664413255637160 
  7.546740390547893   7.259747041321950   1.664937385588485 
  6.349731159563340   9.552088783310468   1.664930414209965 
  5.059888804292161  11.692173079886118   1.664838696819945 
  6.280871829556318  13.790838043678843   1.664360774506365 
 13.761816862049331   0.745848665207924   1.665077566913700 
 12.499561925843739   2.903126527733014   1.665617084463660 
 11.249307153445926   5.068898117526385   1.664610284662380 
 10.036264381637476   7.240061560899247   1.664686985213490 
  8.815440838153130   9.431680664200158   1.664953257495165 
  7.567771727889348  11.642247689804085   1.665103848498015 
