Species order: X N B                    
   2.51242800000000     
     5.9449720136058266    0.0000000000000000    0.0000000000000000
    -2.9724860068029120    5.1484967885702053   -0.0000000000000001
     0.0000000000000000    0.0000000000000009    5.3101128803662583
   In   N    B 
     1   143   143
Direct
  0.4962255385225197  0.4147794359279202  0.3750000000000000
  0.1110963689519228  0.0555511826171927  0.1246874997555262
  0.6115313378702029  0.5562063133346179  0.1252756270244198
  0.4445661228100749  0.0556000595543879  0.1244680685747969
  0.9445216957609081  0.5555688904878548  0.1242983519855818
  0.7779317973018517  0.0556325653175955  0.1248989838569274
  0.1111885472580888  0.7222609402957073  0.6250929775240959
  0.4445661228100749  0.7222993965890265  0.6255319314252076
  0.2775609165623230  0.2220936540876754  0.6264283912626565
  0.7779807839981568  0.7225208631270208  0.6264735718365475
  0.6113222465901212  0.2221217283170007  0.6264728362578759
  0.9445065774432905  0.2222202050696458  0.6249872199955101
  0.2778754876229610  0.7222667005027544  0.1249704965754686
  0.1110139010082022  0.2221736171707660  0.1245283427637325
  0.4445545212820033  0.2222748240936809  0.1245821262677331
  0.6113222465901212  0.7225338516064540  0.1235271637421284
  0.9445216957609081  0.7222861386063928  0.1242983519855818
  0.7779522188331203  0.2221715664190174  0.1243914396411670
  0.1111808191965307  0.8889400901691012  0.6251578193616492
  0.4445681098987636  0.8889507216160437  0.6251863861354693
  0.2775609165623230  0.3888005958079736  0.6264283912626565
  0.6115313378702029  0.3886583578689151  0.6247243729755819
  0.7779522188331203  0.8891139857474354  0.6256085603588356
  0.9445432796424745  0.3888748220194109  0.6253543910429459
  0.1110963689519234  0.3888785196680574  0.1246874997555262
  0.2778754876229610  0.8889421204535439  0.1249704965754686
  0.6112655046956482  0.8890297583836513  0.1245515965978749
  0.4437911245182532  0.3885622289257935  0.1258715566042185
  0.9445432796424745  0.8890017909563863  0.1246456089570493
  0.7779807839981568  0.3887932542044740  0.1235264281634467
  0.2778535899549040  0.5555863197223483  0.6254817193171478
  0.1110963689519228  0.0555511826171927  0.6253125002444747
  0.6115313378702029  0.5562063133346179  0.6247243729755819
  0.4445661228100749  0.0556000595543879  0.6255319314252076
  0.9445216957609081  0.5555688904878548  0.6257016480144226
  0.1111808191965307  0.5555740623607509  0.1248421806383576
  0.7779317973018517  0.0556325653175955  0.6251010161430792
  0.2778535899549040  0.0556006035658839  0.1245182806828500
  0.4445545212820033  0.5556130305216608  0.1245821262677331
  0.7778875500119682  0.5556104416726504  0.1242091522519355
  0.6112655046956482  0.0555690796453267  0.1245515965978749
  0.4445545212820033  0.5556130305216608  0.6254178737322669
  0.9445065774432905  0.0556197057069770  0.1250127800044900
  0.2778754876229610  0.7222667005027544  0.6250295034245373
  0.1110139010082021  0.2221736171707660  0.6254716572362727
  0.4445545212820033  0.2222748240936809  0.6254178737322669
  0.6113222465901212  0.7225338516064540  0.6264728362578759
  0.9445216957609081  0.7222861386063928  0.6257016480144226
  0.7779522188331203  0.2221715664190174  0.6256085603588356
  0.1111885472580888  0.7222609402957073  0.1249070224759015
  0.4445661228100749  0.7222993965890265  0.1244680685747969
  0.2775609165623230  0.2220936540876754  0.1235716087373384
  0.7779807839981568  0.7225208631270208  0.1235264281634467
  0.6113222465901212  0.2221217283170007  0.1235271637421284
  0.9445065774432905  0.2222202050696458  0.1250127800044900
  0.1110963689519234  0.3888785196680574  0.6253125002444747
  0.2778754876229610  0.8889421204535439  0.6250295034245373
  0.6112655046956482  0.8890297583836513  0.6254484034021276
  0.4437911245182532  0.3885622289257935  0.6241284433957852
  0.9445432796424745  0.8890017909563863  0.6253543910429459
  0.1111808191965307  0.8889400901691012  0.1248421806383576
  0.7779807839981568  0.3887932542044740  0.6264735718365475
  0.4445681098987636  0.8889507216160437  0.1248136138645361
  0.2775609165623230  0.3888005958079736  0.1235716087373384
  0.2778535899549040  0.5555863197223483  0.1245182806828500
  0.6115313378702029  0.3886583578689151  0.1252756270244198
  0.7779522188331203  0.8891139857474354  0.1243914396411670
  0.9445432796424745  0.3888748220194109  0.1246456089570493
  0.1111808191965307  0.5555740623607509  0.6251578193616492
  0.2778535899549040  0.0556006035658839  0.6254817193171478
  0.7778875500119682  0.5556104416726504  0.6257908477480663
  0.6112655046956482  0.0555690796453267  0.6254484034021276
  0.9445065774432905  0.0556197057069770  0.6249872199955101
  0.0562550793452369  0.1114801267152926  0.3750000000000000
  0.5544915245799240  0.6204743637379703  0.3750000000000000
  0.3859825977840202  0.1022555966775952  0.3750000000000000
  0.8865515867148073  0.6099424600240720  0.3750000000000000
  0.7227652075653686  0.1104157118603710  0.3750000000000000
  0.0556463705552487  0.7778209177748934  0.8750000000000000
  0.3889199171622940  0.7778155829964272  0.8750000000000000
  0.2223038873472337  0.2778186103402866  0.8750000000000000
  0.7222577693568234  0.7777698616957180  0.8750000000000000
  0.5555609397528418  0.2777673269410117  0.8750000000000000
  0.8889352380714749  0.2778139343949424  0.8750000000000000
  0.2192872276963829  0.7763102805148585  0.3750000000000000
  0.0562550793452369  0.2781082859632807  0.3750000000000000
  0.3842294813300643  0.2618814962383453  0.3750000000000000
  0.5546610208272957  0.7818967954625509  0.3750000000000000
  0.8884380296486526  0.7782217712679836  0.3750000000000000
  0.7227601449880682  0.2755703941224907  0.3750000000000000
  0.0556079177302211  0.9444629794299726  0.8750000000000000
  0.3889199171622940  0.9444376674992109  0.8750000000000000
  0.2222745551496059  0.4444913477972461  0.8750000000000000
  0.5556024357103895  0.4444678845218589  0.8750000000000000
  0.7222616014629171  0.9444550449165304  0.8750000000000000
  0.8889625125632805  0.4444970876055035  0.8750000000000000
  0.0540631253259240  0.4443943437043389  0.3750000000000000
  0.2192334163703917  0.9409651337106353  0.3750000000000000
  0.5547664241536426  0.9440498787434939  0.3750000000000000
  0.3842294813300645  0.4556813184250581  0.3750000000000000
  0.8894862468369724  0.9454538707426251  0.3750000000000000
  0.7228954947259073  0.4424912316771243  0.3750000000000000
  0.2222579523218856  0.6111526424171998  0.8750000000000000
  0.0556158911317794  0.1111381859493603  0.8750000000000000
  0.5555609397528418  0.6111269461451723  0.8750000000000000
  0.3889055531640442  0.1110705942838057  0.8750000000000000
  0.8890271992784275  0.6111802663058891  0.8750000000000000
  0.0529796230381563  0.6102611472107750  0.3750000000000000
  0.7222616014629171  0.1111398898797179  0.8750000000000000
  0.2194805410678342  0.1069408039088832  0.3750000000000000
  0.3859825977840202  0.6170603344397698  0.3750000000000000
  0.7228954947259073  0.6137375963821209  0.3750000000000000
  0.5546610208272957  0.1060975586980726  0.3750000000000000
  0.3889055531640442  0.6111682922135842  0.8750000000000000
  0.8898230639075819  0.1115781986204641  0.3750000000000000
  0.2222771277263643  0.7778052305298472  0.8750000000000000
  0.0556158911317794  0.2778110385157538  0.8750000000000000
  0.3889524138309436  0.2777642458469279  0.8750000000000000
  0.5555793531709700  0.7777954223347603  0.8750000000000000
  0.8889625125632805  0.7777987582911090  0.8750000000000000
  0.7222577693568234  0.2778212409944391  0.8750000000000000
  0.0529796230381563  0.7760518091607206  0.3750000000000000
  0.3864878352060766  0.7788709114653346  0.3750000000000000
  0.2239802537792764  0.2786567935563068  0.3750000000000000
  0.7227601449880682  0.7805230841989201  0.3750000000000000
  0.5544915245799240  0.2673504941752993  0.3750000000000000
  0.8894862468369712  0.2773657094276868  0.3750000000000000
  0.0556079177302211  0.4444782716335752  0.8750000000000000
  0.2222579523218856  0.9444386432380171  0.8750000000000000
  0.5555918968872214  0.9444626151102752  0.8750000000000000
  0.3889524138309436  0.4445215013173472  0.8750000000000000
  0.8889352380714749  0.9444546370098659  0.8750000000000000
  0.0540631253259240  0.9430021149549120  0.3750000000000000
  0.7223170390629678  0.4445205195780986  0.8750000000000000
  0.3864878352060766  0.9409502570740788  0.3750000000000000
  0.2194805410678342  0.4458730704922897  0.3750000000000000
  0.2192334163703917  0.6116016159930917  0.3750000000000000
  0.7227652075653686  0.9456828290383300  0.3750000000000000
  0.8884380296486526  0.4435495917140110  0.3750000000000000
  0.0556463705552487  0.6111587861136890  0.8750000000000000
  0.2222745551496059  0.1111165406856903  0.8750000000000000
  0.7223170390629678  0.6111298528182133  0.8750000000000000
  0.5555793531709700  0.1111172641695421  0.8750000000000000
  0.8889392800356624  0.1111363066845038  0.8750000000000000
  0.1101118919536437  0.0540339367626179  0.3750000000000000
  0.6129020327682478  0.5678320244153822  0.3750000000000000
  0.4432359196231369  0.0507042456360206  0.3750000000000000
  0.9419995704305555  0.5545482244165365  0.3750000000000000
  0.7788078713582026  0.0560706023457698  0.3750000000000000
  0.1111571349308849  0.7222452341321057  0.8750000000000000
  0.4444613605458576  0.7221634961199714  0.8750000000000000
  0.2780180139402843  0.2223627677309151  0.8750000000000000
  0.7777199487140101  0.7220567769366484  0.8750000000000000
  0.6110722832601735  0.2223584862285883  0.8750000000000000
  0.9445247812909582  0.2222880341121735  0.8750000000000000
  0.2754446922154943  0.7220657053910451  0.3750000000000000
  0.1137070250660960  0.2235201791997120  0.3750000000000000
  0.4414466437259838  0.2122420075858375  0.3750000000000000
  0.6109609582431080  0.7278908849686079  0.3750000000000000
  0.9419995704305555  0.7207846793473497  0.3750000000000000
  0.7784510307046302  0.2214261870999211  0.3750000000000000
  0.1111807780807676  0.8889132513804578  0.8750000000000000
  0.4444607408529296  0.8888970370931324  0.8750000000000000
  0.2780180139402843  0.3889885795426937  0.8750000000000000
  0.6110704734754410  0.3889959821991797  0.8750000000000000
  0.7777642668492422  0.8887825527006028  0.8750000000000000
  0.9444737193182327  0.3889619527842547  0.8750000000000000
  0.1101118919536437  0.3894112885243569  0.3750000000000000
  0.2754446922154943  0.8867123201577793  0.3750000000000000
  0.6114173413662058  0.8908794540732293  0.3750000000000000
  0.9437488075595689  0.8887148592794153  0.3750000000000000
  0.7776688521940168  0.3873563463340517  0.3750000000000000
  0.2778976357612617  0.5555915395317524  0.8750000000000000
  0.1112459785676436  0.0556196365445627  0.8750000000000000
  0.6110704734754410  0.5554078246095971  0.8750000000000000
  0.4444613605458576  0.0556311977592202  0.8750000000000000
  0.9444642229235836  0.5556130335457766  0.8750000000000000
  0.1087283943085699  0.5552646350136176  0.3750000000000000
  0.7777956672510462  0.0555645002921908  0.8750000000000000
  0.2754380355896261  0.0517731908128523  0.3750000000000000
  0.4414466437259838  0.5625379694734861  0.3750000000000000
  0.7745697736277424  0.5539515534805399  0.3750000000000000
  0.6114173413662058  0.0538712206263040  0.3750000000000000
  0.4445372868317708  0.5555149716933788  0.8750000000000000
  0.9456697157566121  0.0564426749895462  0.3750000000000000
  0.2778344216746481  0.7222330618695251  0.8750000000000000
  0.1113077943024709  0.2223205638178992  0.8750000000000000
  0.4445372868317708  0.2223556484717308  0.8750000000000000
  0.6110722832601735  0.7220471303649113  0.8750000000000000
  0.9444642229235836  0.7221845227111526  0.8750000000000000
  0.7777642668492422  0.2223150474819735  0.8750000000000000
  0.1084330919800535  0.7208832126567006  0.3750000000000000
  0.4432359196231369  0.7258650073204461  0.3750000000000000
  0.2783179060863106  0.2193748368998581  0.3750000000000000
  0.7776688521940168  0.7236458391932949  0.3750000000000000
  0.6109609582431080  0.2164034066078314  0.3750000000000000
  0.9456697157566121  0.2225603741003982  0.3750000000000000
  0.1112459785676436  0.3889596753564100  0.8750000000000000
  0.2778344216746481  0.8889346931384484  0.8750000000000000
  0.6111068436508349  0.8888337635131269  0.8750000000000000
  0.4446486912864521  0.3889910123098859  0.8750000000000000
  0.9444737193182327  0.8888450998673063  0.8750000000000000
  0.1087283943085699  0.8867970926282777  0.3750000000000000
  0.7777199487140101  0.3889965051106947  0.8750000000000000
  0.4433599938936150  0.8883466636134727  0.3750000000000000
  0.2783179060863106  0.3922764025197817  0.3750000000000000
  0.2754380355896261  0.5569981781101078  0.3750000000000000
  0.6129020327682477  0.3784033416861891  0.3750000000000000
  0.7784510307046302  0.8903581769380461  0.3750000000000000
  0.9437488075595689  0.3883672816134801  0.3750000000000000
  0.1111807780807676  0.5556008600336415  0.8750000000000000
  0.2778976357612617  0.0556394295628409  0.8750000000000000
  0.7777381844586841  0.5555357588960158  0.8750000000000000
  0.6111068436508349  0.0556064134710348  0.8750000000000000
  0.9445247812909582  0.0555700805121173  0.8750000000000000
  0.0556739284224278  0.1112122020506868  0.1251188006144920
  0.5559326741855800  0.6109535847683299  0.1250634587079020
  0.3892042537301323  0.1116343275023367  0.1249809268229584
  0.8884851345160206  0.6109092339246728  0.1245450802324416
  0.7223482544555367  0.1111706718054793  0.1249210156302846
  0.0554915056783240  0.7777764550385399  0.6250408192183946
  0.3890862836166438  0.7777550761994738  0.6249411319992084
  0.2223738566502460  0.2778535949917898  0.6254591095073008
  0.7222616531325100  0.7777906368982936  0.6257907588651708
  0.5559326741855800  0.2783124227505765  0.6249365412920992
  0.8889583092259900  0.2777721845225367  0.6250129258885810
  0.2223286286450429  0.7778309809891949  0.1252279579117005
  0.0556739284224278  0.2777950597050769  0.1251188006144920
  0.3890197543381084  0.2782132260248935  0.1254624505873199
  0.5557462715340878  0.7777448613616121  0.1245145714942087
  0.8887758410468150  0.7777571418763910  0.1244106219840084
  0.7222616531325100  0.2778043495675496  0.1242092411348319
  0.0556259492044965  0.9445598085571230  0.6249335839582451
  0.3890862836166438  0.9446645407505018  0.6249411319992084
  0.2224009942026548  0.4443532636340791  0.6252570998809708
  0.5556223900950050  0.4444778617141668  0.6128385148129563
  0.7223482544555367  0.9445109159834018  0.6250789843697135
  0.8887758410468150  0.4443520325037537  0.6255893780159920
  0.0556259492044965  0.4443994739807034  0.1250664160417523
  0.2223996534395833  0.9446933641548637  0.1250957670785706
  0.5557196760963167  0.9445265047148239  0.1249692053575359
  0.3890197543381084  0.4441398616465495  0.1254624505873199
  0.8889583092259900  0.9445194580367791  0.1249870741114190
  0.7217374216751998  0.4441178156936629  0.1247336226493349
  0.2223996534395833  0.6110396226180570  0.6249042329214364
  0.0556739284224278  0.1112122020506868  0.6248811993855099
  0.5559326741855800  0.6109535847683299  0.6249365412920992
  0.3892042537301323  0.1116343275023367  0.6250190731770419
  0.8884851345160206  0.6109092339246728  0.6254549197675565
  0.0554915056783240  0.6110483839731237  0.1249591807816033
  0.7223482544555367  0.1111706718054793  0.6250789843697135
  0.2224009942026548  0.1113810639019116  0.1247429001190311
  0.3892042537301323  0.6109032595611348  0.1249809268229584
  0.7217374216751998  0.6109529393148796  0.1247336226493349
  0.5557462715340878  0.1113347435058044  0.1245145714942087
  0.3892042537301323  0.6109032595611348  0.6250190731770419
  0.8890039220955587  0.1111686277144516  0.1252872679011947
  0.2223286286450429  0.7778309809891949  0.6247720420882964
  0.0556739284224278  0.2777950597050769  0.6248811993855099
  0.3890197543381084  0.2782132260248935  0.6245375494126730
  0.5557462715340878  0.7777448613616121  0.6254854285057865
  0.8887758410468150  0.7777571418763910  0.6255893780159920
  0.7222616531325100  0.2778043495675496  0.6257907588651708
  0.0554915056783240  0.7777764550385399  0.1249591807816033
  0.3890862836166438  0.7777550761994738  0.1250588680007908
  0.2223738566502460  0.2778535949917898  0.1245408904926982
  0.7222616531325100  0.7777906368982936  0.1242092411348319
  0.5559326741855800  0.2783124227505765  0.1250634587079020
  0.8889583092259900  0.2777721845225367  0.1249870741114190
  0.0556259492044965  0.4443994739807034  0.6249335839582451
  0.2223996534395833  0.9446933641548637  0.6249042329214364
  0.5557196760963167  0.9445265047148239  0.6250307946424644
  0.3890197543381084  0.4441398616465495  0.6245375494126730
  0.8889583092259900  0.9445194580367791  0.6250129258885810
  0.0556259492044965  0.9445598085571230  0.1250664160417523
  0.7217374216751998  0.4441178156936629  0.6252663773506607
  0.3890862836166438  0.9446645407505018  0.1250588680007908
  0.2224009942026548  0.4443532636340791  0.1247429001190311
  0.2223996534395833  0.6110396226180570  0.1250957670785706
  0.5556223900950050  0.4444778617141668  0.1371614851870457
  0.7223482544555367  0.9445109159834018  0.1249210156302846
  0.8887758410468150  0.4443520325037537  0.1244106219840084
  0.0554915056783240  0.6110483839731237  0.6250408192183946
  0.2224009942026548  0.1113810639019116  0.6252570998809708
  0.7217374216751998  0.6109529393148796  0.6252663773506607
  0.5557462715340878  0.1113347435058044  0.6254854285057865
  0.8890039220955587  0.1111686277144516  0.6247127320988050
 
  0.00000000E+00  0.00000000E+00  0.00000000E+00
  0.00000000E+00  0.00000000E+00  0.00000000E+00
  0.00000000E+00  0.00000000E+00  0.00000000E+00
  0.00000000E+00  0.00000000E+00  0.00000000E+00
  0.00000000E+00  0.00000000E+00  0.00000000E+00
  0.00000000E+00  0.00000000E+00  0.00000000E+00
  0.00000000E+00  0.00000000E+00  0.00000000E+00
  0.00000000E+00  0.00000000E+00  0.00000000E+00
  0.00000000E+00  0.00000000E+00  0.00000000E+00
  0.00000000E+00  0.00000000E+00  0.00000000E+00
  0.00000000E+00  0.00000000E+00  0.00000000E+00
  0.00000000E+00  0.00000000E+00  0.00000000E+00
  0.00000000E+00  0.00000000E+00  0.00000000E+00
  0.00000000E+00  0.00000000E+00  0.00000000E+00
  0.00000000E+00  0.00000000E+00  0.00000000E+00
  0.00000000E+00  0.00000000E+00  0.00000000E+00
  0.00000000E+00  0.00000000E+00  0.00000000E+00
  0.00000000E+00  0.00000000E+00  0.00000000E+00
  0.00000000E+00  0.00000000E+00  0.00000000E+00
  0.00000000E+00  0.00000000E+00  0.00000000E+00
  0.00000000E+00  0.00000000E+00  0.00000000E+00
  0.00000000E+00  0.00000000E+00  0.00000000E+00
  0.00000000E+00  0.00000000E+00  0.00000000E+00
  0.00000000E+00  0.00000000E+00  0.00000000E+00
  0.00000000E+00  0.00000000E+00  0.00000000E+00
  0.00000000E+00  0.00000000E+00  0.00000000E+00
  0.00000000E+00  0.00000000E+00  0.00000000E+00
  0.00000000E+00  0.00000000E+00  0.00000000E+00
  0.00000000E+00  0.00000000E+00  0.00000000E+00
  0.00000000E+00  0.00000000E+00  0.00000000E+00
  0.00000000E+00  0.00000000E+00  0.00000000E+00
  0.00000000E+00  0.00000000E+00  0.00000000E+00
  0.00000000E+00  0.00000000E+00  0.00000000E+00
  0.00000000E+00  0.00000000E+00  0.00000000E+00
  0.00000000E+00  0.00000000E+00  0.00000000E+00
  0.00000000E+00  0.00000000E+00  0.00000000E+00
  0.00000000E+00  0.00000000E+00  0.00000000E+00
  0.00000000E+00  0.00000000E+00  0.00000000E+00
  0.00000000E+00  0.00000000E+00  0.00000000E+00
  0.00000000E+00  0.00000000E+00  0.00000000E+00
  0.00000000E+00  0.00000000E+00  0.00000000E+00
  0.00000000E+00  0.00000000E+00  0.00000000E+00
  0.00000000E+00  0.00000000E+00  0.00000000E+00
  0.00000000E+00  0.00000000E+00  0.00000000E+00
  0.00000000E+00  0.00000000E+00  0.00000000E+00
  0.00000000E+00  0.00000000E+00  0.00000000E+00
  0.00000000E+00  0.00000000E+00  0.00000000E+00
  0.00000000E+00  0.00000000E+00  0.00000000E+00
  0.00000000E+00  0.00000000E+00  0.00000000E+00
  0.00000000E+00  0.00000000E+00  0.00000000E+00
  0.00000000E+00  0.00000000E+00  0.00000000E+00
  0.00000000E+00  0.00000000E+00  0.00000000E+00
  0.00000000E+00  0.00000000E+00  0.00000000E+00
  0.00000000E+00  0.00000000E+00  0.00000000E+00
  0.00000000E+00  0.00000000E+00  0.00000000E+00
  0.00000000E+00  0.00000000E+00  0.00000000E+00
  0.00000000E+00  0.00000000E+00  0.00000000E+00
  0.00000000E+00  0.00000000E+00  0.00000000E+00
  0.00000000E+00  0.00000000E+00  0.00000000E+00
  0.00000000E+00  0.00000000E+00  0.00000000E+00
  0.00000000E+00  0.00000000E+00  0.00000000E+00
  0.00000000E+00  0.00000000E+00  0.00000000E+00
  0.00000000E+00  0.00000000E+00  0.00000000E+00
  0.00000000E+00  0.00000000E+00  0.00000000E+00
  0.00000000E+00  0.00000000E+00  0.00000000E+00
  0.00000000E+00  0.00000000E+00  0.00000000E+00
  0.00000000E+00  0.00000000E+00  0.00000000E+00
  0.00000000E+00  0.00000000E+00  0.00000000E+00
  0.00000000E+00  0.00000000E+00  0.00000000E+00
  0.00000000E+00  0.00000000E+00  0.00000000E+00
  0.00000000E+00  0.00000000E+00  0.00000000E+00
  0.00000000E+00  0.00000000E+00  0.00000000E+00
  0.00000000E+00  0.00000000E+00  0.00000000E+00
  0.00000000E+00  0.00000000E+00  0.00000000E+00
  0.00000000E+00  0.00000000E+00  0.00000000E+00
  0.00000000E+00  0.00000000E+00  0.00000000E+00
  0.00000000E+00  0.00000000E+00  0.00000000E+00
  0.00000000E+00  0.00000000E+00  0.00000000E+00
  0.00000000E+00  0.00000000E+00  0.00000000E+00
  0.00000000E+00  0.00000000E+00  0.00000000E+00
  0.00000000E+00  0.00000000E+00  0.00000000E+00
  0.00000000E+00  0.00000000E+00  0.00000000E+00
  0.00000000E+00  0.00000000E+00  0.00000000E+00
  0.00000000E+00  0.00000000E+00  0.00000000E+00
  0.00000000E+00  0.00000000E+00  0.00000000E+00
  0.00000000E+00  0.00000000E+00  0.00000000E+00
  0.00000000E+00  0.00000000E+00  0.00000000E+00
  0.00000000E+00  0.00000000E+00  0.00000000E+00
  0.00000000E+00  0.00000000E+00  0.00000000E+00
  0.00000000E+00  0.00000000E+00  0.00000000E+00
  0.00000000E+00  0.00000000E+00  0.00000000E+00
  0.00000000E+00  0.00000000E+00  0.00000000E+00
  0.00000000E+00  0.00000000E+00  0.00000000E+00
  0.00000000E+00  0.00000000E+00  0.00000000E+00
  0.00000000E+00  0.00000000E+00  0.00000000E+00
  0.00000000E+00  0.00000000E+00  0.00000000E+00
  0.00000000E+00  0.00000000E+00  0.00000000E+00
  0.00000000E+00  0.00000000E+00  0.00000000E+00
  0.00000000E+00  0.00000000E+00  0.00000000E+00
  0.00000000E+00  0.00000000E+00  0.00000000E+00
  0.00000000E+00  0.00000000E+00  0.00000000E+00
  0.00000000E+00  0.00000000E+00  0.00000000E+00
  0.00000000E+00  0.00000000E+00  0.00000000E+00
  0.00000000E+00  0.00000000E+00  0.00000000E+00
  0.00000000E+00  0.00000000E+00  0.00000000E+00
  0.00000000E+00  0.00000000E+00  0.00000000E+00
  0.00000000E+00  0.00000000E+00  0.00000000E+00
  0.00000000E+00  0.00000000E+00  0.00000000E+00
  0.00000000E+00  0.00000000E+00  0.00000000E+00
  0.00000000E+00  0.00000000E+00  0.00000000E+00
  0.00000000E+00  0.00000000E+00  0.00000000E+00
  0.00000000E+00  0.00000000E+00  0.00000000E+00
  0.00000000E+00  0.00000000E+00  0.00000000E+00
  0.00000000E+00  0.00000000E+00  0.00000000E+00
  0.00000000E+00  0.00000000E+00  0.00000000E+00
  0.00000000E+00  0.00000000E+00  0.00000000E+00
  0.00000000E+00  0.00000000E+00  0.00000000E+00
  0.00000000E+00  0.00000000E+00  0.00000000E+00
  0.00000000E+00  0.00000000E+00  0.00000000E+00
  0.00000000E+00  0.00000000E+00  0.00000000E+00
  0.00000000E+00  0.00000000E+00  0.00000000E+00
  0.00000000E+00  0.00000000E+00  0.00000000E+00
  0.00000000E+00  0.00000000E+00  0.00000000E+00
  0.00000000E+00  0.00000000E+00  0.00000000E+00
  0.00000000E+00  0.00000000E+00  0.00000000E+00
  0.00000000E+00  0.00000000E+00  0.00000000E+00
  0.00000000E+00  0.00000000E+00  0.00000000E+00
  0.00000000E+00  0.00000000E+00  0.00000000E+00
  0.00000000E+00  0.00000000E+00  0.00000000E+00
  0.00000000E+00  0.00000000E+00  0.00000000E+00
  0.00000000E+00  0.00000000E+00  0.00000000E+00
  0.00000000E+00  0.00000000E+00  0.00000000E+00
  0.00000000E+00  0.00000000E+00  0.00000000E+00
  0.00000000E+00  0.00000000E+00  0.00000000E+00
  0.00000000E+00  0.00000000E+00  0.00000000E+00
  0.00000000E+00  0.00000000E+00  0.00000000E+00
  0.00000000E+00  0.00000000E+00  0.00000000E+00
  0.00000000E+00  0.00000000E+00  0.00000000E+00
  0.00000000E+00  0.00000000E+00  0.00000000E+00
  0.00000000E+00  0.00000000E+00  0.00000000E+00
  0.00000000E+00  0.00000000E+00  0.00000000E+00
  0.00000000E+00  0.00000000E+00  0.00000000E+00
  0.00000000E+00  0.00000000E+00  0.00000000E+00
  0.00000000E+00  0.00000000E+00  0.00000000E+00
  0.00000000E+00  0.00000000E+00  0.00000000E+00
  0.00000000E+00  0.00000000E+00  0.00000000E+00
  0.00000000E+00  0.00000000E+00  0.00000000E+00
  0.00000000E+00  0.00000000E+00  0.00000000E+00
  0.00000000E+00  0.00000000E+00  0.00000000E+00
  0.00000000E+00  0.00000000E+00  0.00000000E+00
  0.00000000E+00  0.00000000E+00  0.00000000E+00
  0.00000000E+00  0.00000000E+00  0.00000000E+00
  0.00000000E+00  0.00000000E+00  0.00000000E+00
  0.00000000E+00  0.00000000E+00  0.00000000E+00
  0.00000000E+00  0.00000000E+00  0.00000000E+00
  0.00000000E+00  0.00000000E+00  0.00000000E+00
  0.00000000E+00  0.00000000E+00  0.00000000E+00
  0.00000000E+00  0.00000000E+00  0.00000000E+00
  0.00000000E+00  0.00000000E+00  0.00000000E+00
  0.00000000E+00  0.00000000E+00  0.00000000E+00
  0.00000000E+00  0.00000000E+00  0.00000000E+00
  0.00000000E+00  0.00000000E+00  0.00000000E+00
  0.00000000E+00  0.00000000E+00  0.00000000E+00
  0.00000000E+00  0.00000000E+00  0.00000000E+00
  0.00000000E+00  0.00000000E+00  0.00000000E+00
  0.00000000E+00  0.00000000E+00  0.00000000E+00
  0.00000000E+00  0.00000000E+00  0.00000000E+00
  0.00000000E+00  0.00000000E+00  0.00000000E+00
  0.00000000E+00  0.00000000E+00  0.00000000E+00
  0.00000000E+00  0.00000000E+00  0.00000000E+00
  0.00000000E+00  0.00000000E+00  0.00000000E+00
  0.00000000E+00  0.00000000E+00  0.00000000E+00
  0.00000000E+00  0.00000000E+00  0.00000000E+00
  0.00000000E+00  0.00000000E+00  0.00000000E+00
  0.00000000E+00  0.00000000E+00  0.00000000E+00
  0.00000000E+00  0.00000000E+00  0.00000000E+00
  0.00000000E+00  0.00000000E+00  0.00000000E+00
  0.00000000E+00  0.00000000E+00  0.00000000E+00
  0.00000000E+00  0.00000000E+00  0.00000000E+00
  0.00000000E+00  0.00000000E+00  0.00000000E+00
  0.00000000E+00  0.00000000E+00  0.00000000E+00
  0.00000000E+00  0.00000000E+00  0.00000000E+00
  0.00000000E+00  0.00000000E+00  0.00000000E+00
  0.00000000E+00  0.00000000E+00  0.00000000E+00
  0.00000000E+00  0.00000000E+00  0.00000000E+00
  0.00000000E+00  0.00000000E+00  0.00000000E+00
  0.00000000E+00  0.00000000E+00  0.00000000E+00
  0.00000000E+00  0.00000000E+00  0.00000000E+00
  0.00000000E+00  0.00000000E+00  0.00000000E+00
  0.00000000E+00  0.00000000E+00  0.00000000E+00
  0.00000000E+00  0.00000000E+00  0.00000000E+00
  0.00000000E+00  0.00000000E+00  0.00000000E+00
  0.00000000E+00  0.00000000E+00  0.00000000E+00
  0.00000000E+00  0.00000000E+00  0.00000000E+00
  0.00000000E+00  0.00000000E+00  0.00000000E+00
  0.00000000E+00  0.00000000E+00  0.00000000E+00
  0.00000000E+00  0.00000000E+00  0.00000000E+00
  0.00000000E+00  0.00000000E+00  0.00000000E+00
  0.00000000E+00  0.00000000E+00  0.00000000E+00
  0.00000000E+00  0.00000000E+00  0.00000000E+00
  0.00000000E+00  0.00000000E+00  0.00000000E+00
  0.00000000E+00  0.00000000E+00  0.00000000E+00
  0.00000000E+00  0.00000000E+00  0.00000000E+00
  0.00000000E+00  0.00000000E+00  0.00000000E+00
  0.00000000E+00  0.00000000E+00  0.00000000E+00
  0.00000000E+00  0.00000000E+00  0.00000000E+00
  0.00000000E+00  0.00000000E+00  0.00000000E+00
  0.00000000E+00  0.00000000E+00  0.00000000E+00
  0.00000000E+00  0.00000000E+00  0.00000000E+00
  0.00000000E+00  0.00000000E+00  0.00000000E+00
  0.00000000E+00  0.00000000E+00  0.00000000E+00
  0.00000000E+00  0.00000000E+00  0.00000000E+00
  0.00000000E+00  0.00000000E+00  0.00000000E+00
  0.00000000E+00  0.00000000E+00  0.00000000E+00
  0.00000000E+00  0.00000000E+00  0.00000000E+00
  0.00000000E+00  0.00000000E+00  0.00000000E+00
  0.00000000E+00  0.00000000E+00  0.00000000E+00
  0.00000000E+00  0.00000000E+00  0.00000000E+00
  0.00000000E+00  0.00000000E+00  0.00000000E+00
  0.00000000E+00  0.00000000E+00  0.00000000E+00
  0.00000000E+00  0.00000000E+00  0.00000000E+00
  0.00000000E+00  0.00000000E+00  0.00000000E+00
  0.00000000E+00  0.00000000E+00  0.00000000E+00
  0.00000000E+00  0.00000000E+00  0.00000000E+00
  0.00000000E+00  0.00000000E+00  0.00000000E+00
  0.00000000E+00  0.00000000E+00  0.00000000E+00
  0.00000000E+00  0.00000000E+00  0.00000000E+00
  0.00000000E+00  0.00000000E+00  0.00000000E+00
  0.00000000E+00  0.00000000E+00  0.00000000E+00
  0.00000000E+00  0.00000000E+00  0.00000000E+00
  0.00000000E+00  0.00000000E+00  0.00000000E+00
  0.00000000E+00  0.00000000E+00  0.00000000E+00
  0.00000000E+00  0.00000000E+00  0.00000000E+00
  0.00000000E+00  0.00000000E+00  0.00000000E+00
  0.00000000E+00  0.00000000E+00  0.00000000E+00
  0.00000000E+00  0.00000000E+00  0.00000000E+00
  0.00000000E+00  0.00000000E+00  0.00000000E+00
  0.00000000E+00  0.00000000E+00  0.00000000E+00
  0.00000000E+00  0.00000000E+00  0.00000000E+00
  0.00000000E+00  0.00000000E+00  0.00000000E+00
  0.00000000E+00  0.00000000E+00  0.00000000E+00
  0.00000000E+00  0.00000000E+00  0.00000000E+00
  0.00000000E+00  0.00000000E+00  0.00000000E+00
  0.00000000E+00  0.00000000E+00  0.00000000E+00
  0.00000000E+00  0.00000000E+00  0.00000000E+00
  0.00000000E+00  0.00000000E+00  0.00000000E+00
  0.00000000E+00  0.00000000E+00  0.00000000E+00
  0.00000000E+00  0.00000000E+00  0.00000000E+00