 B N In 
 1.0
 14.936314146199660   0.000000000000000   0.000000000000000
 -7.468157073099825  12.935227489513863   0.000000000000000
  0.000000000000001   0.000000000000001  13.341276283792837
 B N In 
 143 143   1
Cartesian
  1.241131882430847   0.698941264178471   5.002978606422314 
  4.913838552800582   7.345036411644158   5.002978606422314 
  6.241643665688035   0.655870951986123   5.002978606422314 
  9.928548264984594   7.173207436733892   5.002978606422314 
 11.213774960637641   0.725285996816605   5.002978606422314 
 -3.733562966877123   9.342406406715995  11.673616748318732 
  1.245384085477387   9.341349106934489  11.673616748318732 
  2.491924317890913   2.876312985797319  11.673616748318732 
  6.223836045899652   9.339968670020712  11.673616748318732 
  7.466559487117649   2.876257603590723  11.673616748318732 
 12.447636898011995   2.875346289437777  11.673616748318732 
 -1.278371652125052   9.340084161609465   5.002978606422314 
  0.029080039746140   2.891284366445180   5.002978606422314 
  5.008529099315702   2.745398650953929   5.002978606422314 
  3.689501342359035   9.415434184612511   5.002978606422314 
  8.687068308286001   9.323513798314277   5.002978606422314 
  9.973543596677469   2.864198102273139   5.002978606422314 
 -4.977912757235868  11.498295125049649  11.673616748318732 
  0.000182556207450  11.498085389554506  11.673616748318732 
  1.247536582847775   5.031655767207607  11.673616748318732 
  6.222057461427934   5.031751522253280  11.673616748318732 
  4.979363713950216  11.496604507893146  11.673616748318732 
 11.202127215714277   5.031311344029890  11.673616748318732 
 -1.263518859286072   5.037123604047278   5.002978606422314 
 -2.507978432757179  11.469825578995520   5.002978606422314 
  2.479093788863554  11.523728404171136   5.002978606422314 
  7.459066502514573  11.495728878090533   5.002978606422314 
  8.722668240399592   5.010542459337883   5.002978606422314 
  0.001521502507905   7.186702955092448  11.673616748318732 
  1.246228701324206   0.719452651588002  11.673616748318732 
  4.979267683483005   7.184326560781155  11.673616748318732 
  6.223151983929712   0.719602198529646  11.673616748318732 
  9.957408927051652   7.186980985053523  11.673616748318732 
 -2.522802057414475   7.182474370783035   5.002978606422314 
 11.202436011744219   0.718739451620651  11.673616748318732 
  3.727378706212829   0.669698001022250   5.002978606422314 
  2.392463833866149   7.276556606628747   5.002978606422314 
  7.432220254774380   7.165489362440391   5.002978606422314 
  8.730002747722995   0.696836493939034   5.002978606422314 
  2.491075500753841   7.185712532684713  11.673616748318732 
 13.703297190640242   0.730098841106473   5.002978606422314 
 -1.243927746667189   9.342248955730447  11.673616748318732 
  0.002203291450097   2.875767068581510  11.673616748318732 
  4.979161656940742   2.876220896560218  11.673616748318732 
  3.734806205063308   9.339843889420798  11.673616748318732 
  8.713426882064478   9.341621090674757  11.673616748318732 
  9.956647727039913   2.875695713521411  11.673616748318732 
 -3.764078337823216   9.324788349086027   5.002978606422314 
  1.199437047835032   9.389228996367615   5.002978606422314 
  2.518717937963841   2.837663420774664   5.002978606422314 
  6.211205485693684   9.360523551805437   5.002978606422314 
  7.509370171681065   2.799227293978062   5.002978606422314 
 12.462704121058463   2.878869069139958   5.002978606422314 
 -1.243207067275859   5.031281884982624  11.673616748318732 
 -2.488881713325475  11.498572479067025  11.673616748318732 
  2.489733635870895  11.497266931403066  11.673616748318732 
  3.736366557796663   5.031687235604664  11.673616748318732 
  7.468921355102591  11.497413569723273  11.673616748318732 
 -4.998738525711566  11.470922130186274   5.002978606422314 
  8.711182470705193   5.031758286232683  11.673616748318732 
 -0.012148270577392  11.490966183390920   5.002978606422314 
  1.227461887729372   5.074184505361490   5.002978606422314 
 -0.045720856177943   7.204898145099008   5.002978606422314 
  6.328521709572588   4.894733307503100   5.002978606422314 
  4.977854425345138  11.516985565842461   5.002978606422314 
 11.195740803668789   5.023619137154459   5.002978606422314 
 -2.488683464247328   7.186823517904711  11.673616748318732 
  3.735242388783409   0.719708678782132  11.673616748318732 
  7.467713539410722   7.185981419879694  11.673616748318732 
  8.712406363587966   0.719281608123807  11.673616748318732 
 13.692712762402980   0.718811633034836  11.673616748318732 
  0.001013091310574   1.438555133135417   1.669244487294727 
  3.740887730349389   7.902823604512340   1.668506155628838 
  4.979574308213132   1.444015421881623   1.667405074949578 
  8.708326967003210   7.902249916260286   1.661590325168155 
  9.958980412541521   1.438017929965956   1.666605783175636 
 -4.979718172729510  10.060715381911166   8.338842257840820 
  0.003117888617138  10.060438841764386   8.337512303107681 
  1.246391490105895   3.594099459998055   8.344422784151941 
  4.979264300597851  10.060898827493308   8.348847409864629 
  6.225104177276424   3.600034501436455   8.337451057215803 
 11.203314264921511   3.593046397058239   8.338470125221296 
 -2.488193701214505  10.061420687486970   1.670700784955171 
 -1.243053855338240   3.593342292748257   1.669244487294727 
  3.732781188103666   3.598751369223543   1.673829216527143 
  2.492480109767550  10.060306710512872   1.661183299662318 
  7.466622667169969  10.060465561765227   1.659796480527162 
  8.713240428779866   3.593462459232692   1.657109802980040 
 -6.223274363242797  12.218096001138049   8.337411602607794 
 -1.243388209636926  12.219450735884882   8.337512303107681 
  0.003351147074147   5.747810550814741   8.341727717915088 
  4.979520078324349   5.749422255325435   8.176047943468916 
  3.735464573685431  12.217463564574420   8.339351429668978 
  9.956544392938849   5.747794625863917   8.346160732317466 
 -2.487998422891931   5.748408292160691   1.668545610236794 
 -3.733287339644070  12.219823573177328   1.668937190528212 
  1.246531362482646  12.217665208361637   1.667248695640932 
  2.493615010670139   5.745050147559338   1.673829216527143 
  6.223940898256102  12.217574057978078   1.667487087623332 
  7.463355254646685   5.744764978143521   1.664105721643138 
 -1.241508789819744   7.903936523671269   8.337020022316510 
  0.001013091310574   1.438555133135418   8.336712725549928 
  3.740887730349389   7.902823604512341   8.337451057215803 
  4.979574308213133   1.444015421881624   8.338552137895050 
  8.708326967003210   7.902249916260287   8.344366887676459 
 -3.734566749518034   7.904049853792176   1.667114955003782 
  9.958980412541521   1.438017929965957   8.339351429668978 
  2.490039835649537   1.440739399595313   1.664229494929567 
  1.250955501879224   7.902172636508817   1.667405074949578 
  6.217404346133409   7.902815255425131   1.664105721643138 
  7.469335545017691   1.440140234734251   1.661183299662318 
  1.250955501879224   7.902172636508817   8.338552137895050 
 12.448217084250393   1.437991489183513   1.671492055911412 
 -2.488193701214505  10.061420687486970   8.335256427889403 
 -1.243053855338240   3.593342292748258   8.336712725549928 
  3.732781188103667   3.598751369223544   8.332127996317391 
  2.492480109767551  10.060306710512872   8.344773913182243 
  7.466622667169970  10.060465561765227   8.346160732317466 
  8.713240428779866   3.593462459232692   8.348847409864629 
 -4.979718172729511  10.060715381911166   1.667114955003782 
  0.003117888617138  10.060438841764386   1.668444909736932 
  1.246391490105894   3.594099459998054   1.661534428692673 
  4.979264300597850  10.060898827493308   1.657109802980040 
  6.225104177276423   3.600034501436454   1.668506155628838 
 11.203314264921511   3.593046397058238   1.667487087623332 
 -2.487998422891931   5.748408292160692   8.337411602607794 
 -3.733287339644070  12.219823573177328   8.337020022316510 
  1.246531362482646  12.217665208361637   8.338708517203695 
  2.493615010670139   5.745050147559339   8.332127996317391 
  6.223940898256103  12.217574057978078   8.338470125221296 
 -6.223274363242798  12.218096001138049   1.668545610236794 
  7.463355254646686   5.744764978143522   8.341851491201437 
 -1.243388209636926  12.219450735884882   1.668444909736932 
  0.003351147074146   5.747810550814740   1.664229494929567 
 -1.241508789819745   7.903936523671268   1.668937190528212 
  4.979520078324348   5.749422255325435   1.829909269375739 
  3.735464573685430  12.217463564574420   1.666605783175636 
  9.956544392938849   5.747794625863916   1.659796480527162 
 -3.734566749518034   7.904049853792177   8.338842257840820 
  2.490039835649537   1.440739399595313   8.341727717915088 
  6.217404346133410   7.902815255425132   8.341851491201437 
  7.469335545017691   1.440140234734252   8.344773913182243 
 12.448217084250393   1.437991489183513   8.334465156933215 
  1.244505309786374   0.718567184464920   1.663490383373824 
  4.980188059642412   7.194655194087113   1.671336751758171 
  6.224949291023384   0.719199418766528   1.660562891366440 
  9.958597026695047   7.186409984557218   1.658298655459779 
 11.203960972646886   0.719619888208344   1.666311851200245 
 -3.733211078586730   9.342609569515160   8.339538116207670 
  1.245933921517181   9.343107010417658   8.345394321478254 
  2.487106750816513   2.872831939601478   8.357354239846973 
  6.224266095078922   9.345971730467927   8.357957006365925 
  7.472061163210813   2.873195086144402   8.357947192807634 
 12.447871557568266   2.874468905342294   8.338127175799714 
 -1.243565591359154   9.342684079103700   1.667265922136119 
 -0.001088970476412   2.873866280272022   1.661367025973803 
  4.980022685254156   2.875175414843441   1.662084566560191 
  3.734904825201782   9.346139739404135   1.648010020037047 
  8.713526430950850   9.342935515396235   1.658298655459779 
  9.960526576030695   2.873839753331624   1.659540563591549 
 -4.978112579407155  11.498642290886288   8.340403189077215 
  0.001385329556101  11.498779811071039   8.340784306299282 
  1.242113124873222   5.029224154834675   8.357354239846973 
  6.231462508337017   5.027384274735307   8.334620461086484 
  4.979695829772862  11.500891669751459   8.346416649253118 
 11.203816896807021   5.030184287765297   8.343025706186967 
 -1.244835600067565   5.030232117691709   1.663490383373824 
 -2.488323807776530  11.498668553077428   1.667265922136119 
  2.490639726600390  11.499802169640070   1.661677261799762 
  3.726759892808234   5.026140824987709   1.679287212927955 
  7.468790136292374  11.499440404606101   1.662931506657594 
  8.716596298142532   5.029129189523264   1.648000206478635 
  0.000902602863839   7.186635435670355   8.344724427871835 
  1.244505309786375   0.718567184464921   8.342466829470817 
  4.980188059642413   7.194655194087114   8.334620461086484 
  6.224949291023385   0.719199418766528   8.345394321478254 
  9.958597026695047   7.186409984557219   8.347658557384914 
 -2.488482720899033   7.186476883909676   1.665554023767507 
 11.203960972646886   0.719619888208344   8.339645361644463 
  3.734874465426616   0.719206455678985   1.661232784972766 
  2.490600601184628   7.186980945935894   1.662084566560191 
  7.469386767530635   7.186947458585001   1.657108617168767 
  8.715054989670584   0.718798686595219   1.661677261799762 
  2.490600601184628   7.186980945935895   8.343872646284437 
 13.692070255265547   0.719453546219560   1.667830037044914 
 -1.243565591359153   9.342684079103700   8.338691290708589 
 -0.001088970476412   2.873866280272023   8.344590186870890 
  4.980022685254156   2.875175414843442   8.343872646284437 
  3.734904825201782   9.346139739404135   8.357947192807634 
  8.713526430950850   9.342935515396235   8.347658557384914 
  9.960526576030695   2.873839753331625   8.346416649253118 
 -3.733211078586730   9.342609569515160   1.666419096636930 
  1.245933921517181   9.343107010417658   1.660562891366440 
  2.487106750816513   2.872831939601477   1.648602972997575 
  6.224266095078921   9.345971730467927   1.648000206478635 
  7.472061163210812   2.873195086144401   1.648010020037047 
 12.447871557568266   2.874468905342293   1.667830037044914 
 -1.244835600067564   5.030232117691710   8.342466829470817 
 -2.488323807776530  11.498668553077428   8.338691290708589 
  2.490639726600391  11.499802169640070   8.344279951044905 
  3.726759892808235   5.026140824987710   8.326669999916726 
  7.468790136292375  11.499440404606101   8.343025706186967 
 -4.978112579407155  11.498642290886288   1.665554023767507 
  8.716596298142532   5.029129189523265   8.357957006365925 
  0.001385329556101  11.498779811071039   1.665172906545411 
  1.242113124873222   5.029224154834674   1.648602972997575 
  0.000902602863839   7.186635435670354   1.661232784972766 
  6.231462508337017   5.027384274735306   1.671336751758171 
  4.979695829772861  11.500891669751459   1.659540563591549 
 11.203816896807021   5.030184287765296   1.662931506657594 
 -2.488482720899033   7.186476883909677   8.340403189077215 
  3.734874465426617   0.719206455678986   8.344724427871835 
  7.469386767530636   7.186947458585002   8.348848595675888 
  8.715054989670584   0.718798686595220   8.344279951044905 
 13.692070255265547   0.719453546219561   8.338127175799714 
  0.007692440580968   1.442020799622147   5.002978606422314 
  3.648259594304102   8.025977046362014   5.002978606422314 
  5.001496477876527   1.322699405100670   5.002978606422314 
  8.686666908971446   7.889744475925088   5.002978606422314 
  9.970846314628172   1.428252351330513   5.002978606422314 
 -4.977737116976530  10.061290517520701  11.673616748318732 
  0.000181112727943  10.061221510947636  11.673616748318732 
  1.245607677488089   3.593646925572222  11.673616748318732 
  4.979361443780177  10.060630095521850  11.673616748318732 
  6.223622696135801   3.592983563136165  11.673616748318732 
 11.202657872305057   3.593586441155456  11.673616748318732 
 -2.522264191224761  10.041750080908022   5.002978606422314 
 -1.236712825484498   3.597393945653816   5.002978606422314 
  3.783200088930832   3.387496729137262   5.002978606422314 
  2.445263168260549  10.114012922629987   5.002978606422314 
  7.458107084727661  10.066475648643797   5.002978606422314 
  8.737369589891809   3.564565737349416   5.002978606422314 
 -6.222820551876280  12.216843494350755  11.673616748318732 
 -1.244178786186160  12.216516078768150  11.673616748318732 
  0.000431379437621   5.749596700878005  11.673616748318732 
  4.979296544606434   5.749293198073224  11.673616748318732 
  3.734587551269192  12.216740859614351  11.673616748318732 
  9.958249283066817   5.749670946603556  11.673616748318732 
 -2.511302937587749   5.748341930868839   5.002978606422314 
 -3.752736240608634  12.171598064247894   5.002978606422314 
  1.235852809625402  12.211499942995074   5.002978606422314 
  2.335872576101658   5.894341516549731   5.002978606422314 
  6.224847999404965  12.229660898897290   5.002978606422314 
  7.492800182464400   5.723724743858783   5.002978606422314 
 -1.244469331840904   7.905398460484003  11.673616748318732 
  0.000698991975895   1.437597718026866  11.673616748318732 
  3.734040698090389   7.905066073359689  11.673616748318732 
  4.979322870945708   1.436723404456530  11.673616748318732 
  8.714399304187289   7.905755781768339  11.673616748318732 
 -3.766205809935027   7.893866767183083   5.002978606422314 
  9.957916020478635   1.437619758753673  11.673616748318732 
  2.479579589251939   1.383303626472896   5.002978606422314 
  1.156853834292640   7.981815800733933   5.002978606422314 
  6.213905432650144   7.938835428070177   5.002978606422314 
  7.492238018298647   1.372396057841625   5.002978606422314 
  1.244514710910497   7.905600894160395  11.673616748318732 
 12.457393303826386   1.443289382025864   5.002978606422314 
 -2.488770626639596  10.061087599437347  11.673616748318732 
 -1.244040050811545   3.593548982299377  11.673616748318732 
  3.735128423625660   3.592943708483271  11.673616748318732 
  2.489609367370014  10.060960728202634  11.673616748318732 
  7.469100053660121  10.061003879556903  11.673616748318732 
  8.713056271656935   3.593680953682124  11.673616748318732 
 -5.004356514630420  10.038406695142726   5.002978606422314 
 -0.044026586168939  10.074872424769120   5.002978606422314 
  1.264386729227938   3.604489016149333   5.002978606422314 
  4.966303585916742  10.096243654930014   5.002978606422314 
  6.285444118458943   3.458239461591444   5.002978606422314 
 11.214235326783360   3.587788549237532   5.002978606422314 
 -2.488856219904860   5.749427557726230  11.673616748318732 
 -3.733501536236042  12.216528700171576  11.673616748318732 
  1.245099949676344  12.216838781792582  11.673616748318732 
  2.489759046693536   5.749986743520121  11.673616748318732 
  6.224080393855177  12.216735583248857  11.673616748318732 
 -6.234984091155257  12.197946880034490   5.002978606422314 
  7.469005146172073   5.749974044499613  11.673616748318732 
 -1.254460597480270  12.171405631569764   5.002978606422314 
 -0.051619814734688   5.767469598265824   5.002978606422314 
 -1.292997756145326   7.911206035824947   5.002978606422314 
  3.732940285547899  12.232622526537845   5.002978606422314 
  9.957491489633400   5.737414871701726   5.002978606422314 
 -3.733078139593015   7.905477930595715  11.673616748318732 
  2.490126803161077   1.437317731617224  11.673616748318732 
  6.224740475690470   7.905103671836711  11.673616748318732 
  7.468466569752750   1.437327090045435  11.673616748318732 
 12.447492948665129   1.437573409308441  11.673616748318732 
  4.314142552538009   5.365266361699886   5.002978606422314 
Generated by cif2cell 2.0.0.  :  Failed to get author information, No journal information. Species order: B N In 
 1.0
 14.936314146199660   0.000000000000000   0.000000000000000
 -7.468157073099825  12.935227489513863   0.000000000000000
  0.000000000000001   0.000000000000001  13.341276283792837
 B N In 
 143 143   1
Cartesian
  1.241131882430847   0.698941264178471   5.002978606422314 
  4.913838552800582   7.345036411644158   5.002978606422314 
  6.241643665688035   0.655870951986123   5.002978606422314 
  9.928548264984594   7.173207436733892   5.002978606422314 
 11.213774960637641   0.725285996816605   5.002978606422314 
 -3.733562966877123   9.342406406715995  11.673616748318732 
  1.245384085477387   9.341349106934489  11.673616748318732 
  2.491924317890913   2.876312985797319  11.673616748318732 
  6.223836045899652   9.339968670020712  11.673616748318732 
  7.466559487117649   2.876257603590723  11.673616748318732 
 12.447636898011995   2.875346289437777  11.673616748318732 
 -1.278371652125052   9.340084161609465   5.002978606422314 
  0.029080039746140   2.891284366445180   5.002978606422314 
  5.008529099315702   2.745398650953929   5.002978606422314 
  3.689501342359035   9.415434184612511   5.002978606422314 
  8.687068308286001   9.323513798314277   5.002978606422314 
  9.973543596677469   2.864198102273139   5.002978606422314 
 -4.977912757235868  11.498295125049649  11.673616748318732 
  0.000182556207450  11.498085389554506  11.673616748318732 
  1.247536582847775   5.031655767207607  11.673616748318732 
  6.222057461427934   5.031751522253280  11.673616748318732 
  4.979363713950216  11.496604507893146  11.673616748318732 
 11.202127215714277   5.031311344029890  11.673616748318732 
 -1.263518859286072   5.037123604047278   5.002978606422314 
 -2.507978432757179  11.469825578995520   5.002978606422314 
  2.479093788863554  11.523728404171136   5.002978606422314 
  7.459066502514573  11.495728878090533   5.002978606422314 
  8.722668240399592   5.010542459337883   5.002978606422314 
  0.001521502507905   7.186702955092448  11.673616748318732 
  1.246228701324206   0.719452651588002  11.673616748318732 
  4.979267683483005   7.184326560781155  11.673616748318732 
  6.223151983929712   0.719602198529646  11.673616748318732 
  9.957408927051652   7.186980985053523  11.673616748318732 
 -2.522802057414475   7.182474370783035   5.002978606422314 
 11.202436011744219   0.718739451620651  11.673616748318732 
  3.727378706212829   0.669698001022250   5.002978606422314 
  2.392463833866149   7.276556606628747   5.002978606422314 
  7.432220254774380   7.165489362440391   5.002978606422314 
  8.730002747722995   0.696836493939034   5.002978606422314 
  2.491075500753841   7.185712532684713  11.673616748318732 
 13.703297190640242   0.730098841106473   5.002978606422314 
 -1.243927746667189   9.342248955730447  11.673616748318732 
  0.002203291450097   2.875767068581510  11.673616748318732 
  4.979161656940742   2.876220896560218  11.673616748318732 
  3.734806205063308   9.339843889420798  11.673616748318732 
  8.713426882064478   9.341621090674757  11.673616748318732 
  9.956647727039913   2.875695713521411  11.673616748318732 
 -3.764078337823216   9.324788349086027   5.002978606422314 
  1.199437047835032   9.389228996367615   5.002978606422314 
  2.518717937963841   2.837663420774664   5.002978606422314 
  6.211205485693684   9.360523551805437   5.002978606422314 
  7.509370171681065   2.799227293978062   5.002978606422314 
 12.462704121058463   2.878869069139958   5.002978606422314 
 -1.243207067275859   5.031281884982624  11.673616748318732 
 -2.488881713325475  11.498572479067025  11.673616748318732 
  2.489733635870895  11.497266931403066  11.673616748318732 
  3.736366557796663   5.031687235604664  11.673616748318732 
  7.468921355102591  11.497413569723273  11.673616748318732 
 -4.998738525711566  11.470922130186274   5.002978606422314 
  8.711182470705193   5.031758286232683  11.673616748318732 
 -0.012148270577392  11.490966183390920   5.002978606422314 
  1.227461887729372   5.074184505361490   5.002978606422314 
 -0.045720856177943   7.204898145099008   5.002978606422314 
  6.328521709572588   4.894733307503100   5.002978606422314 
  4.977854425345138  11.516985565842461   5.002978606422314 
 11.195740803668789   5.023619137154459   5.002978606422314 
 -2.488683464247328   7.186823517904711  11.673616748318732 
  3.735242388783409   0.719708678782132  11.673616748318732 
  7.467713539410722   7.185981419879694  11.673616748318732 
  8.712406363587966   0.719281608123807  11.673616748318732 
 13.692712762402980   0.718811633034836  11.673616748318732 
  0.001013091310574   1.438555133135417   1.669244487294727 
  3.740887730349389   7.902823604512340   1.668506155628838 
  4.979574308213132   1.444015421881623   1.667405074949578 
  8.708326967003210   7.902249916260286   1.661590325168155 
  9.958980412541521   1.438017929965956   1.666605783175636 
 -4.979718172729510  10.060715381911166   8.338842257840820 
  0.003117888617138  10.060438841764386   8.337512303107681 
  1.246391490105895   3.594099459998055   8.344422784151941 
  4.979264300597851  10.060898827493308   8.348847409864629 
  6.225104177276424   3.600034501436455   8.337451057215803 
 11.203314264921511   3.593046397058239   8.338470125221296 
 -2.488193701214505  10.061420687486970   1.670700784955171 
 -1.243053855338240   3.593342292748257   1.669244487294727 
  3.732781188103666   3.598751369223543   1.673829216527143 
  2.492480109767550  10.060306710512872   1.661183299662318 
  7.466622667169969  10.060465561765227   1.659796480527162 
  8.713240428779866   3.593462459232692   1.657109802980040 
 -6.223274363242797  12.218096001138049   8.337411602607794 
 -1.243388209636926  12.219450735884882   8.337512303107681 
  0.003351147074147   5.747810550814741   8.341727717915088 
  4.979520078324349   5.749422255325435   8.176047943468916 
  3.735464573685431  12.217463564574420   8.339351429668978 
  9.956544392938849   5.747794625863917   8.346160732317466 
 -2.487998422891931   5.748408292160691   1.668545610236794 
 -3.733287339644070  12.219823573177328   1.668937190528212 
  1.246531362482646  12.217665208361637   1.667248695640932 
  2.493615010670139   5.745050147559338   1.673829216527143 
  6.223940898256102  12.217574057978078   1.667487087623332 
  7.463355254646685   5.744764978143521   1.664105721643138 
 -1.241508789819744   7.903936523671269   8.337020022316510 
  0.001013091310574   1.438555133135418   8.336712725549928 
  3.740887730349389   7.902823604512341   8.337451057215803 
  4.979574308213133   1.444015421881624   8.338552137895050 
  8.708326967003210   7.902249916260287   8.344366887676459 
 -3.734566749518034   7.904049853792176   1.667114955003782 
  9.958980412541521   1.438017929965957   8.339351429668978 
  2.490039835649537   1.440739399595313   1.664229494929567 
  1.250955501879224   7.902172636508817   1.667405074949578 
  6.217404346133409   7.902815255425131   1.664105721643138 
  7.469335545017691   1.440140234734251   1.661183299662318 
  1.250955501879224   7.902172636508817   8.338552137895050 
 12.448217084250393   1.437991489183513   1.671492055911412 
 -2.488193701214505  10.061420687486970   8.335256427889403 
 -1.243053855338240   3.593342292748258   8.336712725549928 
  3.732781188103667   3.598751369223544   8.332127996317391 
  2.492480109767551  10.060306710512872   8.344773913182243 
  7.466622667169970  10.060465561765227   8.346160732317466 
  8.713240428779866   3.593462459232692   8.348847409864629 
 -4.979718172729511  10.060715381911166   1.667114955003782 
  0.003117888617138  10.060438841764386   1.668444909736932 
  1.246391490105894   3.594099459998054   1.661534428692673 
  4.979264300597850  10.060898827493308   1.657109802980040 
  6.225104177276423   3.600034501436454   1.668506155628838 
 11.203314264921511   3.593046397058238   1.667487087623332 
 -2.487998422891931   5.748408292160692   8.337411602607794 
 -3.733287339644070  12.219823573177328   8.337020022316510 
  1.246531362482646  12.217665208361637   8.338708517203695 
  2.493615010670139   5.745050147559339   8.332127996317391 
  6.223940898256103  12.217574057978078   8.338470125221296 
 -6.223274363242798  12.218096001138049   1.668545610236794 
  7.463355254646686   5.744764978143522   8.341851491201437 
 -1.243388209636926  12.219450735884882   1.668444909736932 
  0.003351147074146   5.747810550814740   1.664229494929567 
 -1.241508789819745   7.903936523671268   1.668937190528212 
  4.979520078324348   5.749422255325435   1.829909269375739 
  3.735464573685430  12.217463564574420   1.666605783175636 
  9.956544392938849   5.747794625863916   1.659796480527162 
 -3.734566749518034   7.904049853792177   8.338842257840820 
  2.490039835649537   1.440739399595313   8.341727717915088 
  6.217404346133410   7.902815255425132   8.341851491201437 
  7.469335545017691   1.440140234734252   8.344773913182243 
 12.448217084250393   1.437991489183513   8.334465156933215 
  1.244505309786374   0.718567184464920   1.663490383373824 
  4.980188059642412   7.194655194087113   1.671336751758171 
  6.224949291023384   0.719199418766528   1.660562891366440 
  9.958597026695047   7.186409984557218   1.658298655459779 
 11.203960972646886   0.719619888208344   1.666311851200245 
 -3.733211078586730   9.342609569515160   8.339538116207670 
  1.245933921517181   9.343107010417658   8.345394321478254 
  2.487106750816513   2.872831939601478   8.357354239846973 
  6.224266095078922   9.345971730467927   8.357957006365925 
  7.472061163210813   2.873195086144402   8.357947192807634 
 12.447871557568266   2.874468905342294   8.338127175799714 
 -1.243565591359154   9.342684079103700   1.667265922136119 
 -0.001088970476412   2.873866280272022   1.661367025973803 
  4.980022685254156   2.875175414843441   1.662084566560191 
  3.734904825201782   9.346139739404135   1.648010020037047 
  8.713526430950850   9.342935515396235   1.658298655459779 
  9.960526576030695   2.873839753331624   1.659540563591549 
 -4.978112579407155  11.498642290886288   8.340403189077215 
  0.001385329556101  11.498779811071039   8.340784306299282 
  1.242113124873222   5.029224154834675   8.357354239846973 
  6.231462508337017   5.027384274735307   8.334620461086484 
  4.979695829772862  11.500891669751459   8.346416649253118 
 11.203816896807021   5.030184287765297   8.343025706186967 
 -1.244835600067565   5.030232117691709   1.663490383373824 
 -2.488323807776530  11.498668553077428   1.667265922136119 
  2.490639726600390  11.499802169640070   1.661677261799762 
  3.726759892808234   5.026140824987709   1.679287212927955 
  7.468790136292374  11.499440404606101   1.662931506657594 
  8.716596298142532   5.029129189523264   1.648000206478635 
  0.000902602863839   7.186635435670355   8.344724427871835 
  1.244505309786375   0.718567184464921   8.342466829470817 
  4.980188059642413   7.194655194087114   8.334620461086484 
  6.224949291023385   0.719199418766528   8.345394321478254 
  9.958597026695047   7.186409984557219   8.347658557384914 
 -2.488482720899033   7.186476883909676   1.665554023767507 
 11.203960972646886   0.719619888208344   8.339645361644463 
  3.734874465426616   0.719206455678985   1.661232784972766 
  2.490600601184628   7.186980945935894   1.662084566560191 
  7.469386767530635   7.186947458585001   1.657108617168767 
  8.715054989670584   0.718798686595219   1.661677261799762 
  2.490600601184628   7.186980945935895   8.343872646284437 
 13.692070255265547   0.719453546219560   1.667830037044914 
 -1.243565591359153   9.342684079103700   8.338691290708589 
 -0.001088970476412   2.873866280272023   8.344590186870890 
  4.980022685254156   2.875175414843442   8.343872646284437 
  3.734904825201782   9.346139739404135   8.357947192807634 
  8.713526430950850   9.342935515396235   8.347658557384914 
  9.960526576030695   2.873839753331625   8.346416649253118 
 -3.733211078586730   9.342609569515160   1.666419096636930 
  1.245933921517181   9.343107010417658   1.660562891366440 
  2.487106750816513   2.872831939601477   1.648602972997575 
  6.224266095078921   9.345971730467927   1.648000206478635 