B C N                                   
   1.0000000000000000     
     8.7639499999999995  -15.1796066749929999    0.0000000000000000
     8.7639499999999995   15.1796066749929999    0.0000000000000000
     0.0000000000000000    0.0000000000000000   15.0000000000000000
   B    C    N 
    48     2    47
Selective dynamics
Direct
  0.9043915328120128  0.9527625635946025  0.1110156495275855   T   T   T
  0.9054546098703699  0.0966637825515213  0.1109785722629101   T   T   T
  0.9053548824766667  0.2395803136383740  0.1110406367552187   T   T   T
  0.9050481730324688  0.3821629651373530  0.1110268024929288   T   T   T
  0.9043095365631357  0.5244034425816034  0.1110199672009684   T   T   T
  0.9022563941767254  0.6664321760848149  0.1110311815970659   T   T   T
  0.9030696274800180  0.8090621419315375  0.1110327146989471   T   T   T
  0.0465571846385823  0.9511059479287576  0.1109979393821775   T   T   T
  0.0469533967798425  0.0945604200920488  0.1109997951230570   T   T   T
  0.0479111799398492  0.2386392267692613  0.1110114787430167   T   T   T
  0.0484384061293935  0.3818521136259587  0.1110326638468280   T   T   T
  0.0485876721159689  0.5242014797138738  0.1110317490250246   T   T   T
  0.0477132787589749  0.6661404898919384  0.1110428137418749   T   T   T
  0.0467720701583233  0.8083664148641295  0.1110171786156038   T   T   T
  0.1898974993435696  0.9505968869544567  0.1110228348526369   T   T   T
  0.1890325045822140  0.0929418887133904  0.1110388474671034   T   T   T
  0.1890417263569613  0.2361481208510403  0.1109088325031584   T   T   T
  0.1911200685808405  0.3810400697234876  0.1108749627155870   T   T   T
  0.1927954770859059  0.5240338417784757  0.1109032159126767   T   T   T
  0.1933152307559854  0.6658957085859664  0.1109908097182948   T   T   T
  0.1909494624519217  0.8081132368189241  0.1109935187417500   T   T   T
  0.3335893671858097  0.9508070721650816  0.1110109053546453   T   T   T
  0.3326000995003055  0.0931942468776175  0.1110456441440646   T   T   T
  0.3309144509312408  0.2343391694759717  0.1108826407308996   T   T   T
  0.3306969105299846  0.3761055205626144  0.1112052244981715   T   T   T
  0.3366328743515183  0.5246035206208759  0.1110847697204532   T   T   T
  0.3406466666413761  0.6655018315029282  0.1108254808373333   T   T   T
  0.3352178890963857  0.8080029467872964  0.1109805059126081   T   T   T
  0.4771582580242822  0.9521517916186064  0.1110057002743306   T   T   T
  0.4761829941527462  0.0946001465844674  0.1109993369376149   T   T   T
  0.4754434482873190  0.2367432920210616  0.1108860272992929   T   T   T
  0.4723824358827480  0.3765505464575361  0.1113826932913695   T   T   T
  0.4953843574332513  0.6677928084250875  0.1114615214721916   T   T   T
  0.4792510192981763  0.8094067574858943  0.1109991101500210   T   T   T
  0.6204074587477046  0.9549880115073556  0.1110285536277117   T   T   T
  0.6195333376496990  0.0967513899613978  0.1109684590523127   T   T   T
  0.6188892766977233  0.2392379593111206  0.1110158642305627   T   T   T
  0.6177832650034599  0.3823798285413099  0.1108854131765742   T   T   T
  0.6176982119488215  0.5276863401634163  0.1112086692603790   T   T   T
  0.6058346655420739  0.6701769872539425  0.1115893965305264   T   T   T
  0.6219960830143482  0.8148525657435144  0.1109789234815787   T   T   T
  0.7633545184856717  0.9551846964588973  0.1110112746237430   T   T   T
  0.7627701048261982  0.0973544454263008  0.1109754269908943   T   T   T
  0.7622068450117633  0.2397473863176973  0.1110187387756653   T   T   T
  0.7614142318077122  0.3822902449713094  0.1110173006475040   T   T   T
  0.7601056159279997  0.5247757731217498  0.1109569348833551   T   T   T
  0.7560030604211094  0.6675022247460008  0.1107924326821992   T   T   T
  0.7607263120481058  0.8108012188937491  0.1109535865559089   T   T   T
  0.4675585033422017  0.5122497774152635  0.1116659033484309   T   T   T
  0.5187348861553041  0.4751394107343974  0.1122165177155841   T   T   T
  0.9516925063946913  0.9045508517180890  0.1110070494656498   T   T   T
  0.9522826251449861  0.0481390341022873  0.1109728220131724   T   T   T
  0.9529301250329690  0.1918297152413228  0.1109887443244599   T   T   T
  0.9530070468989376  0.3346751835247115  0.1110214691004645   T   T   T
  0.9529024406591231  0.4772068824487675  0.1110116196066758   T   T   T
  0.9517937194712466  0.6194566978088336  0.1110269529187241   T   T   T
  0.9514214259146327  0.7616702569943860  0.1110120006859626   T   T   T
  0.0946009047086337  0.9035800654783576  0.1109907718006022   T   T   T
  0.0940987223955762  0.0462383397618455  0.1109933642838217   T   T   T
  0.0942569565883913  0.1896320303220283  0.1109809341642641   T   T   T
  0.0956708789866394  0.3338241825191872  0.1109922061239909   T   T   T
  0.0966919080575842  0.4769007522801502  0.1109882752673255   T   T   T
  0.0968382668094752  0.6191940356994030  0.1110201961631231   T   T   T
  0.0953521489921319  0.7612256570863177  0.1110068121398429   T   T   T
  0.2380987496617885  0.9033417547208801  0.1109846083033948   T   T   T
  0.2371782130816887  0.0456587162282326  0.1110256468401640   T   T   T
  0.2359235933541398  0.1876300028727978  0.1109600951578354   T   T   T
  0.2361318903361072  0.3309137473708279  0.1108060762226492   T   T   T
  0.2400907953408151  0.4762816429349745  0.1108202273683089   T   T   T
  0.2425887717706051  0.6189866970157341  0.1108941784301413   T   T   T
  0.2394930372603366  0.7610337753847027  0.1109687029766950   T   T   T
  0.3816911119539018  0.9037094247433627  0.1109926568934066   T   T   T
  0.3807141581509891  0.0460943037299310  0.1109963797419683   T   T   T
  0.3797008799692669  0.1879471583406494  0.1109606609161357   T   T   T
  0.3772243920889580  0.3282825483086320  0.1108965071539921   T   T   T
  0.3785695686588504  0.4712432055133208  0.1117207486635528   T   T   T
  0.3911710689607182  0.6188258589766691  0.1107906320222014   T   T   T
  0.3836554244345465  0.7611293073192497  0.1109135525316898   T   T   T
  0.5253385680744309  0.9057019290075728  0.1110311892741615   T   T   T
  0.5242373399587302  0.0477413897317917  0.1109569942136489   T   T   T
  0.5235129609497580  0.1897071173704805  0.1109840140953875   T   T   T
  0.5222528712595494  0.3311210262882018  0.1107746578642056   T   T   T
  0.5281435348538418  0.7644027656550512  0.1110517580485248   T   T   T
  0.6691703273957481  0.9095894860825839  0.1110099701888632   T   T   T
  0.6677504052991563  0.0502195379890111  0.1109575026089471   T   T   T
  0.6669799730070088  0.1920172313463763  0.1109870743488926   T   T   T
  0.6661311764796674  0.3345172303118367  0.1109927490671971   T   T   T
  0.6654319878030047  0.4779212445187334  0.1108592768266875   T   T   T
  0.6599315624505695  0.6224567900206635  0.1107232452709232   T   T   T
  0.6669926420276437  0.7660631530374805  0.1109619195876701   T   T   T
  0.8099738960396258  0.9067081436605245  0.1110148414917082   T   T   T
  0.8108475261456322  0.0503252711303933  0.1109472788340982   T   T   T
  0.8102501161500715  0.1925058494978164  0.1109972493868765   T   T   T
  0.8097001988834205  0.3348538914547224  0.1110106648052662   T   T   T
  0.8090359754563456  0.4773839503030089  0.1109931145790706   T   T   T
  0.8064800905459638  0.6200566574982539  0.1109438760279025   T   T   T
  0.8082538212262499  0.7629199398528663  0.1109377647454205   T   T   T

  0.00000000E+00  0.00000000E+00  0.00000000E+00
  0.00000000E+00  0.00000000E+00  0.00000000E+00
  0.00000000E+00  0.00000000E+00  0.00000000E+00
  0.00000000E+00  0.00000000E+00  0.00000000E+00
  0.00000000E+00  0.00000000E+00  0.00000000E+00
  0.00000000E+00  0.00000000E+00  0.00000000E+00
  0.00000000E+00  0.00000000E+00  0.00000000E+00
  0.00000000E+00  0.00000000E+00  0.00000000E+00
  0.00000000E+00  0.00000000E+00  0.00000000E+00
  0.00000000E+00  0.00000000E+00  0.00000000E+00
  0.00000000E+00  0.00000000E+00  0.00000000E+00
  0.00000000E+00  0.00000000E+00  0.00000000E+00
  0.00000000E+00  0.00000000E+00  0.00000000E+00
  0.00000000E+00  0.00000000E+00  0.00000000E+00
  0.00000000E+00  0.00000000E+00  0.00000000E+00
  0.00000000E+00  0.00000000E+00  0.00000000E+00
  0.00000000E+00  0.00000000E+00  0.00000000E+00
  0.00000000E+00  0.00000000E+00  0.00000000E+00
  0.00000000E+00  0.00000000E+00  0.00000000E+00
  0.00000000E+00  0.00000000E+00  0.00000000E+00
  0.00000000E+00  0.00000000E+00  0.00000000E+00
  0.00000000E+00  0.00000000E+00  0.00000000E+00
  0.00000000E+00  0.00000000E+00  0.00000000E+00
  0.00000000E+00  0.00000000E+00  0.00000000E+00
  0.00000000E+00  0.00000000E+00  0.00000000E+00
  0.00000000E+00  0.00000000E+00  0.00000000E+00
  0.00000000E+00  0.00000000E+00  0.00000000E+00
  0.00000000E+00  0.00000000E+00  0.00000000E+00
  0.00000000E+00  0.00000000E+00  0.00000000E+00
  0.00000000E+00  0.00000000E+00  0.00000000E+00
  0.00000000E+00  0.00000000E+00  0.00000000E+00
  0.00000000E+00  0.00000000E+00  0.00000000E+00
  0.00000000E+00  0.00000000E+00  0.00000000E+00
  0.00000000E+00  0.00000000E+00  0.00000000E+00
  0.00000000E+00  0.00000000E+00  0.00000000E+00
  0.00000000E+00  0.00000000E+00  0.00000000E+00
  0.00000000E+00  0.00000000E+00  0.00000000E+00
  0.00000000E+00  0.00000000E+00  0.00000000E+00
  0.00000000E+00  0.00000000E+00  0.00000000E+00
  0.00000000E+00  0.00000000E+00  0.00000000E+00
  0.00000000E+00  0.00000000E+00  0.00000000E+00
  0.00000000E+00  0.00000000E+00  0.00000000E+00
  0.00000000E+00  0.00000000E+00  0.00000000E+00
  0.00000000E+00  0.00000000E+00  0.00000000E+00
  0.00000000E+00  0.00000000E+00  0.00000000E+00
  0.00000000E+00  0.00000000E+00  0.00000000E+00
  0.00000000E+00  0.00000000E+00  0.00000000E+00
  0.00000000E+00  0.00000000E+00  0.00000000E+00
  0.00000000E+00  0.00000000E+00  0.00000000E+00
  0.00000000E+00  0.00000000E+00  0.00000000E+00
  0.00000000E+00  0.00000000E+00  0.00000000E+00
  0.00000000E+00  0.00000000E+00  0.00000000E+00
  0.00000000E+00  0.00000000E+00  0.00000000E+00
  0.00000000E+00  0.00000000E+00  0.00000000E+00
  0.00000000E+00  0.00000000E+00  0.00000000E+00
  0.00000000E+00  0.00000000E+00  0.00000000E+00
  0.00000000E+00  0.00000000E+00  0.00000000E+00
  0.00000000E+00  0.00000000E+00  0.00000000E+00
  0.00000000E+00  0.00000000E+00  0.00000000E+00
  0.00000000E+00  0.00000000E+00  0.00000000E+00
  0.00000000E+00  0.00000000E+00  0.00000000E+00
  0.00000000E+00  0.00000000E+00  0.00000000E+00
  0.00000000E+00  0.00000000E+00  0.00000000E+00
  0.00000000E+00  0.00000000E+00  0.00000000E+00
  0.00000000E+00  0.00000000E+00  0.00000000E+00
  0.00000000E+00  0.00000000E+00  0.00000000E+00
  0.00000000E+00  0.00000000E+00  0.00000000E+00
  0.00000000E+00  0.00000000E+00  0.00000000E+00
  0.00000000E+00  0.00000000E+00  0.00000000E+00
  0.00000000E+00  0.00000000E+00  0.00000000E+00
  0.00000000E+00  0.00000000E+00  0.00000000E+00
  0.00000000E+00  0.00000000E+00  0.00000000E+00
  0.00000000E+00  0.00000000E+00  0.00000000E+00
  0.00000000E+00  0.00000000E+00  0.00000000E+00
  0.00000000E+00  0.00000000E+00  0.00000000E+00
  0.00000000E+00  0.00000000E+00  0.00000000E+00
  0.00000000E+00  0.00000000E+00  0.00000000E+00
  0.00000000E+00  0.00000000E+00  0.00000000E+00
  0.00000000E+00  0.00000000E+00  0.00000000E+00
  0.00000000E+00  0.00000000E+00  0.00000000E+00
  0.00000000E+00  0.00000000E+00  0.00000000E+00
  0.00000000E+00  0.00000000E+00  0.00000000E+00
  0.00000000E+00  0.00000000E+00  0.00000000E+00
  0.00000000E+00  0.00000000E+00  0.00000000E+00
  0.00000000E+00  0.00000000E+00  0.00000000E+00
  0.00000000E+00  0.00000000E+00  0.00000000E+00
  0.00000000E+00  0.00000000E+00  0.00000000E+00
  0.00000000E+00  0.00000000E+00  0.00000000E+00
  0.00000000E+00  0.00000000E+00  0.00000000E+00
  0.00000000E+00  0.00000000E+00  0.00000000E+00
  0.00000000E+00  0.00000000E+00  0.00000000E+00
  0.00000000E+00  0.00000000E+00  0.00000000E+00
  0.00000000E+00  0.00000000E+00  0.00000000E+00
  0.00000000E+00  0.00000000E+00  0.00000000E+00
  0.00000000E+00  0.00000000E+00  0.00000000E+00
  0.00000000E+00  0.00000000E+00  0.00000000E+00
  0.00000000E+00  0.00000000E+00  0.00000000E+00
