B N O Se                                
   1.0000000000000000     
     8.7639499999999995  -15.1796066749929999    0.0000000000000000
     8.7639499999999995   15.1796066749929999    0.0000000000000000
     0.0000000000000000    0.0000000000000000   15.0000000000000000
   B    N    O    Se
    49    47     1     1
Selective dynamics
Direct
  0.9053819208025002  0.9533845910182901  0.1110123453218561   T   T   T
  0.9050309373988854  0.0953060383401398  0.1110282845527598   T   T   T
  0.9053231152008340  0.2375771763723903  0.1110288908368672   T   T   T
  0.9063340225103720  0.3803498367585378  0.1110221973729797   T   T   T
  0.9104137918590572  0.5245694792886288  0.1110104224189572   T   T   T
  0.9106530355223564  0.6717261121666869  0.1110124164400199   T   T   T
  0.9064104440764400  0.8116074082362191  0.1110665092801547   T   T   T
  0.0482076993249043  0.9530834731511592  0.1110096300752504   T   T   T
  0.0474606616440832  0.0952601907608091  0.1109944069637596   T   T   T
  0.0474157269629454  0.2377955046935477  0.1109870196603130   T   T   T
  0.0480845687541572  0.3807838487256892  0.1110082634092831   T   T   T
  0.0498934013209339  0.5242101277220839  0.1110113954555680   T   T   T
  0.0499241642873907  0.6678174398491399  0.1110069362320108   T   T   T
  0.0501040397058712  0.8115778562393822  0.1110279320995742   T   T   T
  0.1907810076987250  0.9524524662121607  0.1109961739772944   T   T   T
  0.1897515169695368  0.0947574516420967  0.1110224345367387   T   T   T
  0.1891226403686006  0.2373928540474542  0.1109989236991583   T   T   T
  0.1895076341399167  0.3805989621485313  0.1109817500919144   T   T   T
  0.1905238046619093  0.5240771961248798  0.1110511181082880   T   T   T
  0.1913082349478250  0.6671979732889840  0.1110452197452100   T   T   T
  0.1913830995917903  0.8100026310418812  0.1109908133424559   T   T   T
  0.3332038023914328  0.9518743974987033  0.1110258102225458   T   T   T
  0.3316535312395072  0.0933080172362823  0.1110426415485343   T   T   T
  0.3308030440872305  0.2367139498824636  0.1110394803191923   T   T   T
  0.3303981128038584  0.3793563530799108  0.1109994792556826   T   T   T
  0.3311077702483898  0.5242650125872365  0.1109776228860222   T   T   T
  0.3330600262314674  0.6672396418451789  0.1110796402197848   T   T   T
  0.3334446342534705  0.8096911344971136  0.1110542792432665   T   T   T
  0.4758872914310484  0.9517256948206584  0.1110240905686178   T   T   T
  0.4754001772274727  0.0932824877648450  0.1110254875638345   T   T   T
  0.4715674470046762  0.2324825553576104  0.1110261607131201   T   T   T
  0.4710605427367063  0.3756191028016868  0.1111318121264053   T   T   T
  0.4696743674670863  0.5258781813200346  0.1110904763804411   T   T   T
  0.4751500366384406  0.6679117484589326  0.1110161761646207   T   T   T
  0.4758561388454948  0.8099027182461621  0.1110429550774399   T   T   T
  0.6189055011802219  0.9522433177973108  0.1110145993165790   T   T   T
  0.6189108311432285  0.0926868413233292  0.1110032989505088   T   T   T
  0.6190491478452267  0.2318740460416130  0.1109618544273720   T   T   T
  0.6081727646322661  0.3573620468857625  0.1110790705728628   T   T   T
  0.6082941499451543  0.5349890184708797  0.1112307832199663   T   T   T
  0.6197601393996728  0.6727812865887359  0.1110002246834221   T   T   T
  0.6189417169843664  0.8117918646717142  0.1110081612310007   T   T   T
  0.7622562943856117  0.9531526071187262  0.1109993773802210   T   T   T
  0.7622461670055168  0.0946828894805442  0.1110367928614547   T   T   T
  0.7627533360494559  0.2364022044254148  0.1110047987646242   T   T   T
  0.7634688156601747  0.3784251620488842  0.1110088203173445   T   T   T
  0.7826410710995422  0.5342561249175771  0.1110361254766679   T   T   T
  0.7632364481614269  0.6704499543065036  0.1110111800065800   T   T   T
  0.7628258446110988  0.8119861838911012  0.1110286688072144   T   T   T
  0.9532492539292383  0.9061465567684304  0.1110136848457432   T   T   T
  0.9526324651248433  0.0480294514689246  0.1109925081036322   T   T   T
  0.9526252842616405  0.1901916634307236  0.1109996540390731   T   T   T
  0.9532525606441595  0.3327238341461714  0.1110036664226026   T   T   T
  0.9556274179925495  0.4759135048250058  0.1109948569636403   T   T   T
  0.9554408199015636  0.6205520489600349  0.1109962817622385   T   T   T
  0.9558766810423780  0.7656190918603295  0.1110280537584381   T   T   T
  0.0962885392909809  0.9059553415616532  0.1109956006961975   T   T   T
  0.0950122750797433  0.0477635501066367  0.1109900287368014   T   T   T
  0.0944992026523489  0.1900857971537142  0.1109732699988212   T   T   T
  0.0949163234285523  0.3329147764830796  0.1109719020275753   T   T   T
  0.0961113915882301  0.4760371820775440  0.1110083432178659   T   T   T
  0.0966755267502480  0.6195052423569499  0.1109968073094396   T   T   T
  0.0967359364918458  0.7629284799666639  0.1109877736448134   T   T   T
  0.2383583046461979  0.9048368250558234  0.1109731741603301   T   T   T
  0.2371721209662518  0.0469164162409242  0.1110038533437703   T   T   T
  0.2363206693806969  0.1895884993914753  0.1110093264793025   T   T   T
  0.2361128175757039  0.3324734032189801  0.1109629443178947   T   T   T
  0.2369130280004251  0.4760092580197122  0.1109904171009188   T   T   T
  0.2382853371238748  0.6193002300308378  0.1110610910098011   T   T   T
  0.2386283354347228  0.7622081531058504  0.1110169063030955   T   T   T
  0.3808799571597060  0.9044910609119524  0.1110137522705665   T   T   T
  0.3802507004920093  0.0465551634527314  0.1110225646455087   T   T   T
  0.3775942980731310  0.1876026271000061  0.1110293929720844   T   T   T
  0.3769692336083470  0.3318056767231092  0.1110367120633438   T   T   T
  0.3771529206087832  0.4758914185774198  0.1109571502649224   T   T   T
  0.3801576723518602  0.6195239414238857  0.1110100510293176   T   T   T
  0.3808612275680767  0.7621733676278324  0.1110557761840751   T   T   T
  0.5237147225595176  0.9046448533639861  0.1110038761069032   T   T   T
  0.5235979193923432  0.0463288776420018  0.1109963358114503   T   T   T
  0.5228319931329743  0.1878119030329455  0.1109795607298308   T   T   T
  0.5170130699341443  0.3268282383776627  0.1110197281433369   T   T   T
  0.5226726169443665  0.6203648164827704  0.1110011629899237   T   T   T
  0.5235308611244316  0.7627776358220122  0.1110068893260489   T   T   T
  0.6670018258610477  0.9059443395146688  0.1109893296378154   T   T   T
  0.6670319020803241  0.0465286613762695  0.1110057127821880   T   T   T
  0.6674584098488773  0.1866683932008935  0.1109717632982831   T   T   T
  0.6680377727184698  0.3252157991363491  0.1109560612494969   T   T   T
  0.6677029034683700  0.6280302146621982  0.1109831263754169   T   T   T
  0.6674332472076306  0.7662351746779563  0.1109891188400511   T   T   T
  0.8103782264917138  0.9063973273149772  0.1109916863906192   T   T   T
  0.8100278083747292  0.0477772149088344  0.1110118618958012   T   T   T
  0.8103857100326712  0.1895456634773961  0.1110127488874897   T   T   T
  0.8112205323722452  0.3317897516160603  0.1109989519742694   T   T   T
  0.8164765167413355  0.4759280825266884  0.1109833662034081   T   T   T
  0.8169990480432540  0.6265674326739464  0.1109741195753664   T   T   T
  0.8110609516741446  0.7648630423676890  0.1110279829357926   T   T   T
  0.5131619133985033  0.4772186369861588  0.1113755901052757   T   T   T
  0.6650009952655869  0.4750120838915611  0.1112725311436736   T   T   T

  0.00000000E+00  0.00000000E+00  0.00000000E+00
  0.00000000E+00  0.00000000E+00  0.00000000E+00
  0.00000000E+00  0.00000000E+00  0.00000000E+00
  0.00000000E+00  0.00000000E+00  0.00000000E+00
  0.00000000E+00  0.00000000E+00  0.00000000E+00
  0.00000000E+00  0.00000000E+00  0.00000000E+00
  0.00000000E+00  0.00000000E+00  0.00000000E+00
  0.00000000E+00  0.00000000E+00  0.00000000E+00
  0.00000000E+00  0.00000000E+00  0.00000000E+00
  0.00000000E+00  0.00000000E+00  0.00000000E+00
  0.00000000E+00  0.00000000E+00  0.00000000E+00
  0.00000000E+00  0.00000000E+00  0.00000000E+00
  0.00000000E+00  0.00000000E+00  0.00000000E+00
  0.00000000E+00  0.00000000E+00  0.00000000E+00
  0.00000000E+00  0.00000000E+00  0.00000000E+00
  0.00000000E+00  0.00000000E+00  0.00000000E+00
  0.00000000E+00  0.00000000E+00  0.00000000E+00
  0.00000000E+00  0.00000000E+00  0.00000000E+00
  0.00000000E+00  0.00000000E+00  0.00000000E+00
  0.00000000E+00  0.00000000E+00  0.00000000E+00
  0.00000000E+00  0.00000000E+00  0.00000000E+00
  0.00000000E+00  0.00000000E+00  0.00000000E+00
  0.00000000E+00  0.00000000E+00  0.00000000E+00
  0.00000000E+00  0.00000000E+00  0.00000000E+00
  0.00000000E+00  0.00000000E+00  0.00000000E+00
  0.00000000E+00  0.00000000E+00  0.00000000E+00
  0.00000000E+00  0.00000000E+00  0.00000000E+00
  0.00000000E+00  0.00000000E+00  0.00000000E+00
  0.00000000E+00  0.00000000E+00  0.00000000E+00
  0.00000000E+00  0.00000000E+00  0.00000000E+00
  0.00000000E+00  0.00000000E+00  0.00000000E+00
  0.00000000E+00  0.00000000E+00  0.00000000E+00
  0.00000000E+00  0.00000000E+00  0.00000000E+00
  0.00000000E+00  0.00000000E+00  0.00000000E+00
  0.00000000E+00  0.00000000E+00  0.00000000E+00
  0.00000000E+00  0.00000000E+00  0.00000000E+00
  0.00000000E+00  0.00000000E+00  0.00000000E+00
  0.00000000E+00  0.00000000E+00  0.00000000E+00
  0.00000000E+00  0.00000000E+00  0.00000000E+00
  0.00000000E+00  0.00000000E+00  0.00000000E+00
  0.00000000E+00  0.00000000E+00  0.00000000E+00
  0.00000000E+00  0.00000000E+00  0.00000000E+00
  0.00000000E+00  0.00000000E+00  0.00000000E+00
  0.00000000E+00  0.00000000E+00  0.00000000E+00
  0.00000000E+00  0.00000000E+00  0.00000000E+00
  0.00000000E+00  0.00000000E+00  0.00000000E+00
  0.00000000E+00  0.00000000E+00  0.00000000E+00
  0.00000000E+00  0.00000000E+00  0.00000000E+00
  0.00000000E+00  0.00000000E+00  0.00000000E+00
  0.00000000E+00  0.00000000E+00  0.00000000E+00
  0.00000000E+00  0.00000000E+00  0.00000000E+00
  0.00000000E+00  0.00000000E+00  0.00000000E+00
  0.00000000E+00  0.00000000E+00  0.00000000E+00
  0.00000000E+00  0.00000000E+00  0.00000000E+00
  0.00000000E+00  0.00000000E+00  0.00000000E+00
  0.00000000E+00  0.00000000E+00  0.00000000E+00
  0.00000000E+00  0.00000000E+00  0.00000000E+00
  0.00000000E+00  0.00000000E+00  0.00000000E+00
  0.00000000E+00  0.00000000E+00  0.00000000E+00
  0.00000000E+00  0.00000000E+00  0.00000000E+00
  0.00000000E+00  0.00000000E+00  0.00000000E+00
  0.00000000E+00  0.00000000E+00  0.00000000E+00
  0.00000000E+00  0.00000000E+00  0.00000000E+00
  0.00000000E+00  0.00000000E+00  0.00000000E+00
  0.00000000E+00  0.00000000E+00  0.00000000E+00
  0.00000000E+00  0.00000000E+00  0.00000000E+00
  0.00000000E+00  0.00000000E+00  0.00000000E+00
  0.00000000E+00  0.00000000E+00  0.00000000E+00
  0.00000000E+00  0.00000000E+00  0.00000000E+00
  0.00000000E+00  0.00000000E+00  0.00000000E+00
  0.00000000E+00  0.00000000E+00  0.00000000E+00
  0.00000000E+00  0.00000000E+00  0.00000000E+00
  0.00000000E+00  0.00000000E+00  0.00000000E+00
  0.00000000E+00  0.00000000E+00  0.00000000E+00
  0.00000000E+00  0.00000000E+00  0.00000000E+00
  0.00000000E+00  0.00000000E+00  0.00000000E+00
  0.00000000E+00  0.00000000E+00  0.00000000E+00
  0.00000000E+00  0.00000000E+00  0.00000000E+00
  0.00000000E+00  0.00000000E+00  0.00000000E+00
  0.00000000E+00  0.00000000E+00  0.00000000E+00
  0.00000000E+00  0.00000000E+00  0.00000000E+00
  0.00000000E+00  0.00000000E+00  0.00000000E+00
  0.00000000E+00  0.00000000E+00  0.00000000E+00
  0.00000000E+00  0.00000000E+00  0.00000000E+00
  0.00000000E+00  0.00000000E+00  0.00000000E+00
  0.00000000E+00  0.00000000E+00  0.00000000E+00
  0.00000000E+00  0.00000000E+00  0.00000000E+00
  0.00000000E+00  0.00000000E+00  0.00000000E+00
  0.00000000E+00  0.00000000E+00  0.00000000E+00
  0.00000000E+00  0.00000000E+00  0.00000000E+00
  0.00000000E+00  0.00000000E+00  0.00000000E+00
  0.00000000E+00  0.00000000E+00  0.00000000E+00
  0.00000000E+00  0.00000000E+00  0.00000000E+00
  0.00000000E+00  0.00000000E+00  0.00000000E+00
  0.00000000E+00  0.00000000E+00  0.00000000E+00
  0.00000000E+00  0.00000000E+00  0.00000000E+00
  0.00000000E+00  0.00000000E+00  0.00000000E+00
  0.00000000E+00  0.00000000E+00  0.00000000E+00
