Species order: X N B                    
   2.51242800000000     
     5.9449720136058266    0.0000000000000000    0.0000000000000000
    -2.9724860068029120    5.1484967885702053   -0.0000000000000001
     0.0000000000000000    0.0000000000000009    5.3101128803662583
   Si   N    B 
     1   143   143
Direct
  0.5013179908560951  0.4173256620947105  0.3750000000000000
  0.1110629694242551  0.0555363136273913  0.1247844387983241
  0.6113507665806756  0.5559172832242404  0.1258262821680135
  0.4445178236013679  0.0555899245519877  0.1246830622776937
  0.9444600199457421  0.5555427274095796  0.1246107548762251
  0.7778510784762900  0.0555922059048091  0.1248032782896321
  0.1111360871772198  0.7222347102552648  0.6251028570465426
  0.4445178236013659  0.7222612323827029  0.6253169377222940
  0.2775949667423274  0.2221239234228934  0.6255113757477140
  0.7778611004004824  0.7223733215830801  0.6257727877631694
  0.6112202682390151  0.2221758786580480  0.6257214269250786
  0.9444458705926803  0.2222032606647120  0.6250885983761824
  0.2778313620275421  0.7222417691173720  0.1249236179790689
  0.1109976250134711  0.2221654791734002  0.1247187200289922
  0.4444929795019505  0.2222478988438592  0.1252801484801878
  0.6112202682390151  0.7223777229142967  0.1242785730749272
  0.9444600199457495  0.7222506258694965  0.1246107548762251
  0.7778590850936797  0.2221850267481259  0.1245629799414264
  0.1111327085200377  0.8889155840219296  0.6251455653707517
  0.4445233396155938  0.8889283364744583  0.6251741036199415
  0.2775949667423274  0.3888043766527599  0.6255113757477140
  0.6113507665806756  0.3887668166897571  0.6241737178319875
  0.7778590850936797  0.8890073916788698  0.6254370200585738
  0.9444695873847335  0.3888643448467755  0.6252533214018120
  0.1110629694242551  0.3888599891301901  0.1247844387983239
  0.2778313620275421  0.8889229262435037  0.1249236179790689
  0.6112006555702484  0.8889656030690235  0.1246381720504059
  0.4439507646059117  0.3886420489696174  0.1262427589301179
  0.9444695873847343  0.8889385758712903  0.1247466785981897
  0.7778611004004824  0.3888211121507136  0.1242272122368273
  0.2778052249674681  0.5555531355195111  0.6252808054450394
  0.1110629694242551  0.0555363136273913  0.6252155612016689
  0.6113507665806756  0.5559172832242466  0.6241737178319875
  0.4445178236013679  0.0555899245519877  0.6253169377222940
  0.9444600199457421  0.5555427274095796  0.6253892451237786
  0.1111327085200377  0.5555504578314439  0.1248544346292526
  0.7778510784762900  0.0555922059048091  0.6251967217103660
  0.2778052249674680  0.0555854227812985  0.1247191945549560
  0.4444929795019505  0.5555784139914153  0.1252801484801878
  0.7778258177440436  0.5555795755386791  0.1248832047735357
  0.6112006555702484  0.0555683858345514  0.1246381720504059
  0.4444929795019505  0.5555784139914153  0.6247198515198087
  0.9444458705926803  0.0555759432613091  0.1249114016238035
  0.2778313620275421  0.7222417691173720  0.6250763820209316
  0.1109976250134708  0.2221654791734012  0.6252812799710218
  0.4444929795019505  0.2222478988438609  0.6247198515198087
  0.6112202682390151  0.7223777229142966  0.6257214269250786
  0.9444600199457421  0.7222506258694965  0.6253892451237786
  0.7778590850936797  0.2221850267481259  0.6254370200585738
  0.1111360871772198  0.7222347102552648  0.1248971429534619
  0.4445178236013660  0.7222612323827029  0.1246830622776937
  0.2775949667423274  0.2221239234228934  0.1244886242522743
  0.7778611004004824  0.7223733215830801  0.1242272122368273
  0.6112202682390151  0.2221758786580480  0.1242785730749272
  0.9444458705926803  0.2222032606647122  0.1249114016238035
  0.1110629694242551  0.3888599891301901  0.6252155612016689
  0.2778313620275421  0.8889229262435037  0.6250763820209316
  0.6112006555702484  0.8889656030690235  0.6253618279495965
  0.4439507646059117  0.3886420489696174  0.6237572410698926
  0.9444695873847343  0.8889385758712903  0.6252533214018093
  0.1111327085200377  0.8889155840219296  0.1248544346292526
  0.7778611004004824  0.3888211121507136  0.6257727877631694
  0.4445233396155938  0.8889283364744583  0.1248258963800546
  0.2775949667423274  0.3888043766527599  0.1244886242522743
  0.2778052249674680  0.5555531355195111  0.1247191945549560
  0.6113507665806756  0.3887668166897575  0.1258262821680136
  0.7778590850936797  0.8890073916788698  0.1245629799414263
  0.9444695873847343  0.3888643448467755  0.1247466785981897
  0.1111327085200372  0.5555504578314439  0.6251455653707517
  0.2778052249674680  0.0555854227812985  0.6252808054450394
  0.7778258177440436  0.5555795755386791  0.6251167952264607
  0.6112006555702484  0.0555683858345514  0.6253618279495965
  0.9444458705926803  0.0555759432613092  0.6250885983761824
  0.0595350246039593  0.1133123602900141  0.3750000000000000
  0.5559366192556474  0.6218438232830311  0.3750000000000000
  0.3883227962415158  0.1062744946714425  0.3750000000000000
  0.8851065739252880  0.6092199536293063  0.3750000000000000
  0.7246340882681854  0.1113466502881040  0.3750000000000000
  0.0555879185518809  0.7777906960389902  0.8750000000000000
  0.3888864778135528  0.7777869503412079  0.8750000000000000
  0.2222494426116731  0.2777913879725051  0.8750000000000000
  0.7222267059585422  0.7777671316941029  0.8750000000000000
  0.5555475928446599  0.2777710018638588  0.8750000000000000
  0.8889008714970164  0.2777931995404397  0.8750000000000000
  0.2205388871736864  0.7769361102535162  0.3750000000000000
  0.0595350246039590  0.2795559976472874  0.3750000000000000
  0.3953807876149615  0.2767605654689059  0.3750000000000000
  0.5561335825878682  0.7826643369172133  0.3750000000000000
  0.8880651859756127  0.7776897691532133  0.3750000000000000
  0.7239572415187880  0.2761407084444594  0.3750000000000000
  0.0555712592912836  0.9444436504857051  0.8750000000000000
  0.3888864778135528  0.9444328608056680  0.8750000000000000
  0.2222355995027607  0.4444637985762747  0.8750000000000000
  0.5555630167323560  0.4444481750328423  0.8750000000000000
  0.7222221611629124  0.9444398343277646  0.8750000000000000
  0.8889160102797323  0.4444682330416434  0.8750000000000000
  0.0565435859046694  0.4450064474536786  0.3750000000000000
  0.2211469086630637  0.9426626031667615  0.3750000000000000
  0.5562559713761976  0.9447946523547645  0.3750000000000000
  0.3953807876149615  0.4519535554793944  0.3750000000000000
  0.8915962133254414  0.9465238137107749  0.3750000000000000
  0.7181012104483081  0.4408498053202006  0.3750000000000000
  0.2222261968476632  0.6111269026087721  0.8750000000000000
  0.0555729664732907  0.1111153663588583  0.8750000000000000
  0.5555475928446599  0.6111099243141228  0.8750000000000000
  0.3888840097597848  0.1110869303199048  0.8750000000000000
  0.8889438193368054  0.6111385763350842  0.8750000000000000
  0.0535626615541370  0.6104276774551929  0.3750000000000000
  0.7222221611629118  0.1111156601684736  0.8750000000000000
  0.2251528689133341  0.1119161127409571  0.3750000000000000
  0.3883227962415161  0.6153816349034121  0.3750000000000000
  0.7181012104483034  0.6105847384614481  0.3750000000000000
  0.5561335825878682  0.1068025790039902  0.3750000000000000
  0.3888840097597848  0.6111304127732240  0.8750000000000000
  0.8923852172973782  0.1128592753153558  0.3750000000000000
  0.2222344883198973  0.7777839108266131  0.8750000000000000
  0.0555729664732906  0.2777909334477673  0.8750000000000000
  0.3889074614776478  0.2777667055089779  0.8750000000000000
  0.5555490805959172  0.7777767019188389  0.8750000000000000
  0.8889160102797323  0.7777811105714396  0.8750000000000000
  0.7222267059585422  0.2777929075977559  0.8750000000000000
  0.0535626615541369  0.7764683174322932  0.3750000000000000
  0.3880531099177358  0.7789128598339398  0.3750000000000000
  0.2282482872634164  0.2807908102983689  0.3750000000000000
  0.7239572415187880  0.7811498664076426  0.3750000000000000
  0.5559366192556418  0.2674261293059468  0.3750000000000000
  0.8915962133254414  0.2784057329480132  0.3750000000000000
  0.0555712592912836  0.4444609421389048  0.8750000000000000
  0.2222261968476632  0.9444326275722188  0.8750000000000000
  0.5555502942758829  0.9444418138046149  0.8750000000000000
  0.3889074614776478  0.4444740893020089  0.8750000000000000
  0.8889008714970164  0.9444410052899109  0.8750000000000000
  0.0565435859046694  0.9448704717843229  0.3750000000000000
  0.7222557595951193  0.4444755817958709  0.8750000000000000
  0.3880531099177358  0.9424735834171279  0.3750000000000000
  0.2251528689133340  0.4465700895057185  0.3750000000000000
  0.2211469086630629  0.6118176388296335  0.3750000000000000
  0.7246340882681854  0.9466207713134054  0.3750000000000000
  0.8880651859756127  0.4437087501557281  0.3750000000000000
  0.0555879185518809  0.6111305558462214  0.8750000000000000
  0.2222355995027615  0.1111051342598126  0.8750000000000000
  0.7222557595951193  0.6111135111325698  0.8750000000000000
  0.5555490805959172  0.1111057120104147  0.8750000000000000
  0.8888991679402530  0.1111162506367965  0.8750000000000000
  0.1144520174315870  0.0569817450879241  0.3750000000000000
  0.6032939457555813  0.5588271600402499  0.3750000000000000
  0.4448096525319415  0.0529842040571818  0.3750000000000000
  0.9416834402058740  0.5546590532015931  0.3750000000000000
  0.7809913356147836  0.0571623344740563  0.3750000000000000
  0.1111107892644344  0.7222220612988753  0.8750000000000000
  0.4444445297155615  0.7221560236106416  0.8750000000000000
  0.2779457271861095  0.2223283240340733  0.8750000000000000
  0.7776970358587466  0.7220740141575301  0.8750000000000000
  0.6110566446281347  0.2223256160962566  0.8750000000000000
  0.9444781504764508  0.2222611270952958  0.8750000000000000
  0.2768944286202957  0.7224735684381206  0.3750000000000000
  0.1174860272689058  0.2254096803011163  0.3750000000000000
  0.4451884751390505  0.2174513077799409  0.3750000000000000
  0.6124588128907422  0.7286362223688342  0.3750000000000000
  0.9416834402058742  0.7203577203376245  0.3750000000000000
  0.7802642170752447  0.2225644350637655  0.3750000000000000
  0.1111329297365298  0.8888929351178116  0.8750000000000000
  0.4444334185784476  0.8888833759558914  0.8750000000000000
  0.2779457271861095  0.3889507364853690  0.8750000000000000
  0.6110438161516124  0.3889660718212786  0.8750000000000000
  0.7777364656259269  0.8887870841545421  0.8750000000000000
  0.9444368980714912  0.3889357523082344  0.8750000000000000
  0.1144520174315869  0.3908036056769900  0.3750000000000000
  0.2768944286202958  0.8877541935155002  0.3750000000000000
  0.6130097245311986  0.8916647129687004  0.3750000000000000
  0.9451631406507067  0.8890354575062770  0.3750000000000000
  0.7756863926706465  0.3879035000611057  0.3750000000000000
  0.2778498126225069  0.5555569331138042  0.8750000000000000
  0.1111953596749850  0.0555955727359295  0.8750000000000000
  0.6110438161516122  0.5554110776636728  0.8750000000000000
  0.4444445297155615  0.0556218394382467  0.8750000000000000
  0.9444084573571637  0.5555697419265827  0.8750000000000000
  0.1102522214747175  0.5558569598696509  0.3750000000000000
  0.7777589739823363  0.0555461536578416  0.8750000000000000
  0.2781498719776574  0.0541067666562859  0.3750000000000000
  0.4451884751390505  0.5610705006924417  0.3750000000000000
  0.7712473196841840  0.5522903265087664  0.3750000000000000
  0.6130097245311986  0.0546783448958405  0.3750000000000000
  0.4445024278300176  0.5554961757680259  0.8750000000000000
  0.9484261959508392  0.0577254698997613  0.3750000000000000
  0.2777942518273141  0.7222137874845516  0.8750000000000000
  0.1112405865268885  0.2222869599301091  0.8750000000000000
  0.4445024278300176  0.2223395853953317  0.8750000000000000
  0.6110566446281347  0.7220643618652188  0.8750000000000000
  0.9444084573571637  0.7221720487639138  0.8750000000000000
  0.7777364656259269  0.2222827148047098  0.8750000000000000
  0.1092347097609525  0.7212840215471448  0.3750000000000000
  0.4448096525319415  0.7251587818080986  0.3750000000000000
  0.2861526338199766  0.2258242378093926  0.3750000000000000
  0.7756863926706454  0.7211162259428621  0.3750000000000000
  0.6124588128907386  0.2171559238552282  0.3750000000000000
  0.9484261959508392  0.2240340593844163  0.3750000000000000
  0.1111953596749850  0.3889331202723881  0.8750000000000000
  0.2777942518273141  0.8889137976760899  0.8750000000000000
  0.6110758116472845  0.8888231166618309  0.8750000000000000
  0.4445890380666354  0.3889611856999821  0.8750000000000000
  0.9444368980714912  0.8888344790965808  0.8750000000000000
  0.1102522214747176  0.8877285949384015  0.3750000000000000
  0.7776970358587466  0.3889563550345508  0.8750000000000000
  0.4447272637714804  0.8890302985524010  0.3750000000000000
  0.2861526338199766  0.3936617293439153  0.3750000000000000
  0.2781498719776574  0.5573764386547007  0.3750000000000000
  0.6032939457555835  0.3778001190486576  0.3750000000000000
  0.7802642170752447  0.8910331153448148  0.3750000000000000
  0.9451631406507067  0.3894610164777664  0.3750000000000000
  0.1111329297365298  0.5555733279520501  0.8750000000000000
  0.2778498126225069  0.0556262128420440  0.8750000000000000
  0.7776901230351747  0.5555117281842551  0.8750000000000000
  0.6110758116472845  0.0555860283187878  0.8750000000000000
  0.9444781504764508  0.0555503567144829  0.8750000000000000
  0.0556201246374688  0.1111814439172608  0.1251951478173774
  0.5557708221479926  0.6108446768775380  0.1261837076938926
  0.3891429846588789  0.1115801513754597  0.1253927624502933
  0.8884902671556809  0.6109118002445071  0.1251145416910584
  0.7222797567054341  0.1111709457755486  0.1250087866905590
  0.0554382703466894  0.7777487231920215  0.6248918660089994
  0.3890430196005952  0.7777377132509425  0.6248626545662346
  0.2223652954671215  0.2778493144002320  0.6247612583598183
  0.7221679381675083  0.7776607479000518  0.6251377974609436
  0.5557708221479926  0.2782594786037869  0.6238162923061114
  0.8888763223248426  0.2777699986980995  0.6249199371933613
  0.2222725948605668  0.7778029640969438  0.1252231988127649
  0.0556201246374690  0.2777720140535406  0.1251951478173774
  0.3890558310894744  0.2781788621277487  0.1265562569330091
  0.5556886465805665  0.7776670909053983  0.1249418442993177
  0.8886874675536385  0.7776714492933205  0.1249037346373258
  0.7221679381675083  0.2778405236008011  0.1248622025390558
  0.0555558521066702  0.9445084419031201  0.6248421900698945
  0.3890430196005952  0.9446386396829780  0.6248626545662346
  0.2223645348542560  0.4443394153567369  0.6248539496880102
  0.5554353401297862  0.4443843367315574  0.6153184220019930
  0.7222797567054341  0.9444421442632309  0.6249912133094478
  0.8886874675536285  0.4443493515936476  0.6250962653626716
  0.0555558521066702  0.4443807435368831  0.1251578099301129
  0.2223359244536974  0.9446521800265294  0.1251702426143164
  0.5556768586296080  0.9445050959814711  0.1250437307449848
  0.3890558310894757  0.4442103022950663  0.1265562569330091
  0.8888763223248426  0.9444396569600819  0.1250800628066242
  0.7217297006579417  0.4442165207425866  0.1257889927177454
  0.2223359244536974  0.6110170777605151  0.6248297573856699
  0.0556201246374690  0.1111814439172608  0.6248048521826206
  0.5557708221479926  0.6108446768775413  0.6238162923061114
  0.3891429846588789  0.1115801513754609  0.6246072375497040
  0.8884902671556809  0.6109118002445071  0.6248854583089383
  0.0554382703466894  0.6110228804880034  0.1251081339909751
  0.7222797567054341  0.1111709457755487  0.6249912133094478
  0.2223645348542557  0.1113584528308526  0.1251460503119835
  0.3891429846588789  0.6108961666167662  0.1253927624502933
  0.7217297006579417  0.6108465132487033  0.1257889927177454
  0.5556886465805665  0.1113548890085039  0.1249418442993177
  0.3891429846588789  0.6108961666167662  0.6246072375497040
  0.8889307230343547  0.1111320281838490  0.1252013769742256
  0.2222725948605668  0.7778029640969438  0.6247768011872320
  0.0556201246374690  0.2777720140535406  0.6248048521826206
  0.3890558310894757  0.2781788621277487  0.6234437430669836
  0.5556886465805665  0.7776670909053983  0.6250581557006928
  0.8886874675536285  0.7776714492933205  0.6250962653626716
  0.7221679381675083  0.2778405236008011  0.6251377974609436
  0.0554382703466894  0.7777487231920215  0.1251081339909751
  0.3890430196005952  0.7777377132509425  0.1251373454337702
  0.2223652954671215  0.2778493144002320  0.1252387416401773
  0.7221679381675083  0.7776607479000518  0.1248622025390562
  0.5557708221479926  0.2782594786037867  0.1261837076938919
  0.8888763223248426  0.2777699986980995  0.1250800628066242
  0.0555558521066702  0.4443807435368831  0.6248421900698944
  0.2223359244536974  0.9446521800265294  0.6248297573856699
  0.5556768586296080  0.9445050959814711  0.6249562692550057
  0.3890558310894757  0.4442103022950663  0.6234437430669836
  0.8888763223248426  0.9444396569600819  0.6249199371933613
  0.0555558521066702  0.9445084419031201  0.1251578099301129
  0.7217297006579415  0.4442165207425866  0.6242110072822454
  0.3890430196005952  0.9446386396829780  0.1251373454337702
  0.2223645348542560  0.4443394153567369  0.1251460503119835
  0.2223359244536974  0.6110170777605151  0.1251702426143155
  0.5554353401297862  0.4443843367315574  0.1346815779980055
  0.7222797567054341  0.9444421442632309  0.1250087866905590
  0.8886874675536285  0.4443493515936476  0.1249037346373258
  0.0554382703466894  0.6110228804880034  0.6248918660089994
  0.2223645348542557  0.1113584528308527  0.6248539496880102
  0.7217297006579417  0.6108465132487033  0.6242110072822454
  0.5556886465805665  0.1113548890085039  0.6250581557006928
  0.8889307230343547  0.1111320281838490  0.6247986230257759
 
  0.00000000E+00  0.00000000E+00  0.00000000E+00
  0.00000000E+00  0.00000000E+00  0.00000000E+00
  0.00000000E+00  0.00000000E+00  0.00000000E+00
  0.00000000E+00  0.00000000E+00  0.00000000E+00
  0.00000000E+00  0.00000000E+00  0.00000000E+00
  0.00000000E+00  0.00000000E+00  0.00000000E+00
  0.00000000E+00  0.00000000E+00  0.00000000E+00
  0.00000000E+00  0.00000000E+00  0.00000000E+00
  0.00000000E+00  0.00000000E+00  0.00000000E+00
  0.00000000E+00  0.00000000E+00  0.00000000E+00
  0.00000000E+00  0.00000000E+00  0.00000000E+00
  0.00000000E+00  0.00000000E+00  0.00000000E+00
  0.00000000E+00  0.00000000E+00  0.00000000E+00
  0.00000000E+00  0.00000000E+00  0.00000000E+00
  0.00000000E+00  0.00000000E+00  0.00000000E+00
  0.00000000E+00  0.00000000E+00  0.00000000E+00
  0.00000000E+00  0.00000000E+00  0.00000000E+00
  0.00000000E+00  0.00000000E+00  0.00000000E+00
  0.00000000E+00  0.00000000E+00  0.00000000E+00
  0.00000000E+00  0.00000000E+00  0.00000000E+00
  0.00000000E+00  0.00000000E+00  0.00000000E+00
  0.00000000E+00  0.00000000E+00  0.00000000E+00
  0.00000000E+00  0.00000000E+00  0.00000000E+00
  0.00000000E+00  0.00000000E+00  0.00000000E+00
  0.00000000E+00  0.00000000E+00  0.00000000E+00
  0.00000000E+00  0.00000000E+00  0.00000000E+00
  0.00000000E+00  0.00000000E+00  0.00000000E+00
  0.00000000E+00  0.00000000E+00  0.00000000E+00
  0.00000000E+00  0.00000000E+00  0.00000000E+00
  0.00000000E+00  0.00000000E+00  0.00000000E+00
  0.00000000E+00  0.00000000E+00  0.00000000E+00
  0.00000000E+00  0.00000000E+00  0.00000000E+00
  0.00000000E+00  0.00000000E+00  0.00000000E+00
  0.00000000E+00  0.00000000E+00  0.00000000E+00
  0.00000000E+00  0.00000000E+00  0.00000000E+00
  0.00000000E+00  0.00000000E+00  0.00000000E+00
  0.00000000E+00  0.00000000E+00  0.00000000E+00
  0.00000000E+00  0.00000000E+00  0.00000000E+00
  0.00000000E+00  0.00000000E+00  0.00000000E+00
  0.00000000E+00  0.00000000E+00  0.00000000E+00
  0.00000000E+00  0.00000000E+00  0.00000000E+00
  0.00000000E+00  0.00000000E+00  0.00000000E+00
  0.00000000E+00  0.00000000E+00  0.00000000E+00
  0.00000000E+00  0.00000000E+00  0.00000000E+00
  0.00000000E+00  0.00000000E+00  0.00000000E+00
  0.00000000E+00  0.00000000E+00  0.00000000E+00
  0.00000000E+00  0.00000000E+00  0.00000000E+00
  0.00000000E+00  0.00000000E+00  0.00000000E+00
  0.00000000E+00  0.00000000E+00  0.00000000E+00
  0.00000000E+00  0.00000000E+00  0.00000000E+00
  0.00000000E+00  0.00000000E+00  0.00000000E+00
  0.00000000E+00  0.00000000E+00  0.00000000E+00
  0.00000000E+00  0.00000000E+00  0.00000000E+00
  0.00000000E+00  0.00000000E+00  0.00000000E+00
  0.00000000E+00  0.00000000E+00  0.00000000E+00
  0.00000000E+00  0.00000000E+00  0.00000000E+00
  0.00000000E+00  0.00000000E+00  0.00000000E+00
  0.00000000E+00  0.00000000E+00  0.00000000E+00
  0.00000000E+00  0.00000000E+00  0.00000000E+00
  0.00000000E+00  0.00000000E+00  0.00000000E+00
  0.00000000E+00  0.00000000E+00  0.00000000E+00
  0.00000000E+00  0.00000000E+00  0.00000000E+00
  0.00000000E+00  0.00000000E+00  0.00000000E+00
  0.00000000E+00  0.00000000E+00  0.00000000E+00
  0.00000000E+00  0.00000000E+00  0.00000000E+00
  0.00000000E+00  0.00000000E+00  0.00000000E+00
  0.00000000E+00  0.00000000E+00  0.00000000E+00
  0.00000000E+00  0.00000000E+00  0.00000000E+00
  0.00000000E+00  0.00000000E+00  0.00000000E+00
  0.00000000E+00  0.00000000E+00  0.00000000E+00
  0.00000000E+00  0.00000000E+00  0.00000000E+00
  0.00000000E+00  0.00000000E+00  0.00000000E+00
  0.00000000E+00  0.00000000E+00  0.00000000E+00
  0.00000000E+00  0.00000000E+00  0.00000000E+00
  0.00000000E+00  0.00000000E+00  0.00000000E+00
  0.00000000E+00  0.00000000E+00  0.00000000E+00
  0.00000000E+00  0.00000000E+00  0.00000000E+00
  0.00000000E+00  0.00000000E+00  0.00000000E+00
  0.00000000E+00  0.00000000E+00  0.00000000E+00
  0.00000000E+00  0.00000000E+00  0.00000000E+00
  0.00000000E+00  0.00000000E+00  0.00000000E+00
  0.00000000E+00  0.00000000E+00  0.00000000E+00
  0.00000000E+00  0.00000000E+00  0.00000000E+00
  0.00000000E+00  0.00000000E+00  0.00000000E+00
  0.00000000E+00  0.00000000E+00  0.00000000E+00
  0.00000000E+00  0.00000000E+00  0.00000000E+00
  0.00000000E+00  0.00000000E+00  0.00000000E+00
  0.00000000E+00  0.00000000E+00  0.00000000E+00
  0.00000000E+00  0.00000000E+00  0.00000000E+00
  0.00000000E+00  0.00000000E+00  0.00000000E+00
  0.00000000E+00  0.00000000E+00  0.00000000E+00
  0.00000000E+00  0.00000000E+00  0.00000000E+00
  0.00000000E+00  0.00000000E+00  0.00000000E+00
  0.00000000E+00  0.00000000E+00  0.00000000E+00
  0.00000000E+00  0.00000000E+00  0.00000000E+00
  0.00000000E+00  0.00000000E+00  0.00000000E+00
  0.00000000E+00  0.00000000E+00  0.00000000E+00
  0.00000000E+00  0.00000000E+00  0.00000000E+00
  0.00000000E+00  0.00000000E+00  0.00000000E+00
  0.00000000E+00  0.00000000E+00  0.00000000E+00
  0.00000000E+00  0.00000000E+00  0.00000000E+00
  0.00000000E+00  0.00000000E+00  0.00000000E+00
  0.00000000E+00  0.00000000E+00  0.00000000E+00
  0.00000000E+00  0.00000000E+00  0.00000000E+00
  0.00000000E+00  0.00000000E+00  0.00000000E+00
  0.00000000E+00  0.00000000E+00  0.00000000E+00
  0.00000000E+00  0.00000000E+00  0.00000000E+00
  0.00000000E+00  0.00000000E+00  0.00000000E+00
  0.00000000E+00  0.00000000E+00  0.00000000E+00
  0.00000000E+00  0.00000000E+00  0.00000000E+00
  0.00000000E+00  0.00000000E+00  0.00000000E+00
  0.00000000E+00  0.00000000E+00  0.00000000E+00
  0.00000000E+00  0.00000000E+00  0.00000000E+00
  0.00000000E+00  0.00000000E+00  0.00000000E+00
  0.00000000E+00  0.00000000E+00  0.00000000E+00
  0.00000000E+00  0.00000000E+00  0.00000000E+00
  0.00000000E+00  0.00000000E+00  0.00000000E+00
  0.00000000E+00  0.00000000E+00  0.00000000E+00
  0.00000000E+00  0.00000000E+00  0.00000000E+00
  0.00000000E+00  0.00000000E+00  0.00000000E+00
  0.00000000E+00  0.00000000E+00  0.00000000E+00
  0.00000000E+00  0.00000000E+00  0.00000000E+00
  0.00000000E+00  0.00000000E+00  0.00000000E+00
  0.00000000E+00  0.00000000E+00  0.00000000E+00
  0.00000000E+00  0.00000000E+00  0.00000000E+00
  0.00000000E+00  0.00000000E+00  0.00000000E+00
  0.00000000E+00  0.00000000E+00  0.00000000E+00
  0.00000000E+00  0.00000000E+00  0.00000000E+00
  0.00000000E+00  0.00000000E+00  0.00000000E+00
  0.00000000E+00  0.00000000E+00  0.00000000E+00
  0.00000000E+00  0.00000000E+00  0.00000000E+00
  0.00000000E+00  0.00000000E+00  0.00000000E+00
  0.00000000E+00  0.00000000E+00  0.00000000E+00
  0.00000000E+00  0.00000000E+00  0.00000000E+00
  0.00000000E+00  0.00000000E+00  0.00000000E+00
  0.00000000E+00  0.00000000E+00  0.00000000E+00
  0.00000000E+00  0.00000000E+00  0.00000000E+00
  0.00000000E+00  0.00000000E+00  0.00000000E+00
  0.00000000E+00  0.00000000E+00  0.00000000E+00
  0.00000000E+00  0.00000000E+00  0.00000000E+00
  0.00000000E+00  0.00000000E+00  0.00000000E+00
  0.00000000E+00  0.00000000E+00  0.00000000E+00
  0.00000000E+00  0.00000000E+00  0.00000000E+00
  0.00000000E+00  0.00000000E+00  0.00000000E+00
  0.00000000E+00  0.00000000E+00  0.00000000E+00
  0.00000000E+00  0.00000000E+00  0.00000000E+00
  0.00000000E+00  0.00000000E+00  0.00000000E+00
  0.00000000E+00  0.00000000E+00  0.00000000E+00
  0.00000000E+00  0.00000000E+00  0.00000000E+00
  0.00000000E+00  0.00000000E+00  0.00000000E+00
  0.00000000E+00  0.00000000E+00  0.00000000E+00
  0.00000000E+00  0.00000000E+00  0.00000000E+00
  0.00000000E+00  0.00000000E+00  0.00000000E+00
  0.00000000E+00  0.00000000E+00  0.00000000E+00
  0.00000000E+00  0.00000000E+00  0.00000000E+00
  0.00000000E+00  0.00000000E+00  0.00000000E+00
  0.00000000E+00  0.00000000E+00  0.00000000E+00
  0.00000000E+00  0.00000000E+00  0.00000000E+00
  0.00000000E+00  0.00000000E+00  0.00000000E+00
  0.00000000E+00  0.00000000E+00  0.00000000E+00
  0.00000000E+00  0.00000000E+00  0.00000000E+00
  0.00000000E+00  0.00000000E+00  0.00000000E+00
  0.00000000E+00  0.00000000E+00  0.00000000E+00
  0.00000000E+00  0.00000000E+00  0.00000000E+00
  0.00000000E+00  0.00000000E+00  0.00000000E+00
  0.00000000E+00  0.00000000E+00  0.00000000E+00
  0.00000000E+00  0.00000000E+00  0.00000000E+00
  0.00000000E+00  0.00000000E+00  0.00000000E+00
  0.00000000E+00  0.00000000E+00  0.00000000E+00
  0.00000000E+00  0.00000000E+00  0.00000000E+00
  0.00000000E+00  0.00000000E+00  0.00000000E+00
  0.00000000E+00  0.00000000E+00  0.00000000E+00
  0.00000000E+00  0.00000000E+00  0.00000000E+00
  0.00000000E+00  0.00000000E+00  0.00000000E+00
  0.00000000E+00  0.00000000E+00  0.00000000E+00
  0.00000000E+00  0.00000000E+00  0.00000000E+00
  0.00000000E+00  0.00000000E+00  0.00000000E+00
  0.00000000E+00  0.00000000E+00  0.00000000E+00
  0.00000000E+00  0.00000000E+00  0.00000000E+00
  0.00000000E+00  0.00000000E+00  0.00000000E+00
  0.00000000E+00  0.00000000E+00  0.00000000E+00
  0.00000000E+00  0.00000000E+00  0.00000000E+00
  0.00000000E+00  0.00000000E+00  0.00000000E+00
  0.00000000E+00  0.00000000E+00  0.00000000E+00
  0.00000000E+00  0.00000000E+00  0.00000000E+00
  0.00000000E+00  0.00000000E+00  0.00000000E+00
  0.00000000E+00  0.00000000E+00  0.00000000E+00
  0.00000000E+00  0.00000000E+00  0.00000000E+00
  0.00000000E+00  0.00000000E+00  0.00000000E+00
  0.00000000E+00  0.00000000E+00  0.00000000E+00
  0.00000000E+00  0.00000000E+00  0.00000000E+00
  0.00000000E+00  0.00000000E+00  0.00000000E+00
  0.00000000E+00  0.00000000E+00  0.00000000E+00
  0.00000000E+00  0.00000000E+00  0.00000000E+00
  0.00000000E+00  0.00000000E+00  0.00000000E+00
  0.00000000E+00  0.00000000E+00  0.00000000E+00
  0.00000000E+00  0.00000000E+00  0.00000000E+00
  0.00000000E+00  0.00000000E+00  0.00000000E+00
  0.00000000E+00  0.00000000E+00  0.00000000E+00
  0.00000000E+00  0.00000000E+00  0.00000000E+00
  0.00000000E+00  0.00000000E+00  0.00000000E+00
  0.00000000E+00  0.00000000E+00  0.00000000E+00
  0.00000000E+00  0.00000000E+00  0.00000000E+00
  0.00000000E+00  0.00000000E+00  0.00000000E+00
  0.00000000E+00  0.00000000E+00  0.00000000E+00
  0.00000000E+00  0.00000000E+00  0.00000000E+00
  0.00000000E+00  0.00000000E+00  0.00000000E+00
  0.00000000E+00  0.00000000E+00  0.00000000E+00
  0.00000000E+00  0.00000000E+00  0.00000000E+00
  0.00000000E+00  0.00000000E+00  0.00000000E+00
  0.00000000E+00  0.00000000E+00  0.00000000E+00
  0.00000000E+00  0.00000000E+00  0.00000000E+00
  0.00000000E+00  0.00000000E+00  0.00000000E+00
  0.00000000E+00  0.00000000E+00  0.00000000E+00
  0.00000000E+00  0.00000000E+00  0.00000000E+00
  0.00000000E+00  0.00000000E+00  0.00000000E+00
  0.00000000E+00  0.00000000E+00  0.00000000E+00
  0.00000000E+00  0.00000000E+00  0.00000000E+00
  0.00000000E+00  0.00000000E+00  0.00000000E+00
  0.00000000E+00  0.00000000E+00  0.00000000E+00
  0.00000000E+00  0.00000000E+00  0.00000000E+00
  0.00000000E+00  0.00000000E+00  0.00000000E+00
  0.00000000E+00  0.00000000E+00  0.00000000E+00
  0.00000000E+00  0.00000000E+00  0.00000000E+00
  0.00000000E+00  0.00000000E+00  0.00000000E+00
  0.00000000E+00  0.00000000E+00  0.00000000E+00
  0.00000000E+00  0.00000000E+00  0.00000000E+00
  0.00000000E+00  0.00000000E+00  0.00000000E+00
  0.00000000E+00  0.00000000E+00  0.00000000E+00
  0.00000000E+00  0.00000000E+00  0.00000000E+00
  0.00000000E+00  0.00000000E+00  0.00000000E+00
  0.00000000E+00  0.00000000E+00  0.00000000E+00
  0.00000000E+00  0.00000000E+00  0.00000000E+00
  0.00000000E+00  0.00000000E+00  0.00000000E+00
  0.00000000E+00  0.00000000E+00  0.00000000E+00
  0.00000000E+00  0.00000000E+00  0.00000000E+00
  0.00000000E+00  0.00000000E+00  0.00000000E+00
  0.00000000E+00  0.00000000E+00  0.00000000E+00
  0.00000000E+00  0.00000000E+00  0.00000000E+00
  0.00000000E+00  0.00000000E+00  0.00000000E+00
  0.00000000E+00  0.00000000E+00  0.00000000E+00
  0.00000000E+00  0.00000000E+00  0.00000000E+00
  0.00000000E+00  0.00000000E+00  0.00000000E+00
  0.00000000E+00  0.00000000E+00  0.00000000E+00
  0.00000000E+00  0.00000000E+00  0.00000000E+00
  0.00000000E+00  0.00000000E+00  0.00000000E+00
  0.00000000E+00  0.00000000E+00  0.00000000E+00
  0.00000000E+00  0.00000000E+00  0.00000000E+00