B N P                                   
   1.0000000000000000     
     8.7639499999999995  -15.1796066749929999    0.0000000000000000
     8.7639499999999995   15.1796066749929999    0.0000000000000000
     0.0000000000000000    0.0000000000000000   15.0000000000000000
   B    N    P 
    48    48     1
Selective dynamics
Direct
  0.9058405380669470  0.9532988670282876  0.1111753147317245   T   T   T
  0.9045716195341527  0.0956569767368904  0.1111997962592426   T   T   T
  0.9041091353908257  0.2384329970891841  0.1110701260439271   T   T   T
  0.9040209557215420  0.3811649590562070  0.1106265422634181   T   T   T
  0.9045753768323692  0.5238809909099231  0.1096245661309254   T   T   T
  0.9062560668645503  0.6670223338346304  0.1092657971304050   T   T   T
  0.9072105375556418  0.8109894107887214  0.1106766492548488   T   T   T
  0.0481674574734043  0.9518170910901702  0.1110564610885376   T   T   T
  0.0469610561027238  0.0943632995436090  0.1109799787485031   T   T   T
  0.0466924542553144  0.2375378073457455  0.1104895054590429   T   T   T
  0.0471233825267134  0.3805398283204298  0.1105059549241787   T   T   T
  0.0480949040166507  0.5232094289095670  0.1107940977379940   T   T   T
  0.0487489805419017  0.6659949530857716  0.1105607150057750   T   T   T
  0.0488018612823993  0.8089980638745686  0.1108636481352363   T   T   T
  0.1907831205984962  0.9509245021984754  0.1110917635318316   T   T   T
  0.1890486595979510  0.0927018598500027  0.1107244867111916   T   T   T
  0.1881428498454838  0.2354101820548706  0.1093647394047892   T   T   T
  0.1894934720529164  0.3794316503002619  0.1074999997964241   T   T   T
  0.1918046049877375  0.5223968222636941  0.1095414228479044   T   T   T
  0.1919829880720556  0.6652876081550616  0.1107390350566178   T   T   T
  0.1915145035119110  0.8082312030126033  0.1109510399089899   T   T   T
  0.3337789212643116  0.9509398241357516  0.1110637651766382   T   T   T
  0.3327349633303882  0.0932730433485460  0.1124842571470666   T   T   T
  0.3294451445770434  0.2331045156152811  0.1126257289348302   T   T   T
  0.3293385384088836  0.3765595022679875  0.1053804994077154   T   T   T
  0.3363332467366291  0.5204198498447354  0.1041437535723517   T   T   T
  0.3356712648021514  0.6643180932442405  0.1109063277178990   T   T   T
  0.3345506000301839  0.8078699401658440  0.1111743350181058   T   T   T
  0.4766807368471220  0.9518152914501314  0.1109730548430079   T   T   T
  0.4759571528751962  0.0949912832642710  0.1116520226773545   T   T   T
  0.4747649247340533  0.2378654027855589  0.1152007865037064   T   T   T
  0.4674296462374201  0.3755801851842406  0.1261346247399402   T   T   T
  0.4795774283239993  0.6643741293544494  0.1161506763062050   T   T   T
  0.4775853917467572  0.8084566116327494  0.1121834127018957   T   T   T
  0.6195242013795834  0.9530870903045781  0.1113797672176915   T   T   T
  0.6188226875550598  0.0959592402392246  0.1109986632661517   T   T   T
  0.6181400471156735  0.2392512278913799  0.1118622578711239   T   T   T
  0.6168054104713150  0.3829961817727536  0.1108124638156767   T   T   T
  0.6220835398476439  0.5320513990132838  0.1066251148564845   T   T   T
  0.6240608400849581  0.6716236901090653  0.1152083934528676   T   T   T
  0.6207304159991978  0.8109715556960353  0.1128649145118459   T   T   T
  0.7626542942328243  0.9536311405604820  0.1113406273815229   T   T   T
  0.7617058206237743  0.0960722250740815  0.1111553172618969   T   T   T
  0.7611508671568288  0.2388948183117492  0.1108442431423171   T   T   T
  0.7605795790874410  0.3817828587038150  0.1096426950299616   T   T   T
  0.7611698570842194  0.5249578401274846  0.1055776805253501   T   T   T
  0.7665796175639343  0.6706353951632167  0.1083613623171757   T   T   T
  0.7648707710604299  0.8123066331559556  0.1108452160458668   T   T   T
  0.9536652098523319  0.9056371141514958  0.1111374679596366   T   T   T
  0.9522866681082718  0.0479737412056593  0.1112328487985650   T   T   T
  0.9516183181293272  0.1906250455858540  0.1110888393351672   T   T   T
  0.9516913186913598  0.3335083880021941  0.1109634884747450   T   T   T
  0.9523690191654950  0.4762497838824231  0.1105814647571393   T   T   T
  0.9534396848812321  0.6190127882428982  0.1097887869808289   T   T   T
  0.9539488073136297  0.7622730324506364  0.1104299875044958   T   T   T
  0.0958274766013432  0.9040012345096855  0.1110313231962579   T   T   T
  0.0944492213379391  0.0463600501682677  0.1108579712759763   T   T   T
  0.0934694899090900  0.1889939344841309  0.1105417799161970   T   T   T
  0.0941530507908368  0.3325258501641457  0.1097072165534243   T   T   T
  0.0958197918205173  0.4756144599705365  0.1105560414944691   T   T   T
  0.0963979969624518  0.6183356032985259  0.1107960653397129   T   T   T
  0.0963417731054506  0.7611528799784395  0.1108812885457198   T   T   T
  0.2386385988893238  0.9034097153220415  0.1109495920716412   T   T   T
  0.2375878788395767  0.0458037037311954  0.1112588085130497   T   T   T
  0.2350451753100700  0.1868709083225610  0.1099590863114273   T   T   T
  0.2345868931823603  0.3297314349501406  0.1068333466803892   T   T   T
  0.2391794352377659  0.4745368758678481  0.1071445783437426   T   T   T
  0.2398065156259932  0.6176883036750169  0.1102048264363162   T   T   T
  0.2392496378638995  0.7605865122829485  0.1108941096904488   T   T   T
  0.3815322568311288  0.9034312797183546  0.1109045860324969   T   T   T
  0.3808128817031218  0.0462265436832325  0.1116368424207366   T   T   T
  0.3794646791337399  0.1881072198831220  0.1145358193536410   T   T   T
  0.3746326531614059  0.3265472264956912  0.1145805414983414   T   T   T
  0.3793186069071126  0.4691776654415420  0.0971274206170776   T   T   T
  0.3836015332337723  0.6165311803078453  0.1105570324235501   T   T   T
  0.3822804151920707  0.7601992062840210  0.1117866242007324   T   T   T
  0.5244148592431799  0.9043342079906154  0.1112517490125953   T   T   T
  0.5237046163625649  0.0474530990467201  0.1109302086980861   T   T   T
  0.5229118311669581  0.1906092968874944  0.1125515493047189   T   T   T
  0.5211224299999202  0.3338918788685916  0.1188481589354708   T   T   T
  0.5313631276741617  0.6220892532618976  0.1226600108040472   T   T   T
  0.5255947361574371  0.7613347399676371  0.1138395813800130   T   T   T
  0.6676433480124615  0.9062195073384629  0.1118179024152255   T   T   T
  0.6665965566530829  0.0484615551493661  0.1109914271606698   T   T   T
  0.6659185182364311  0.1914363529322145  0.1111561411913939   T   T   T
  0.6649610009906510  0.3348630565544681  0.1106006971487119   T   T   T
  0.6649271567810970  0.4785786666825942  0.1034871300911178   T   T   T
  0.6734251663334021  0.6257457150368708  0.1089913119444077   T   T   T
  0.6705532674009405  0.7660776175505362  0.1119449157798442   T   T   T
  0.8112463158180248  0.9069265423331743  0.1110917642393829   T   T   T
  0.8095848507809791  0.0486546926110023  0.1111653645352035   T   T   T
  0.8089025103088900  0.1912376045866395  0.1110376023464354   T   T   T
  0.8085260912139134  0.3340905997563794  0.1103766154523669   T   T   T
  0.8088396826792064  0.4769633767022157  0.1082626520800218   T   T   T
  0.8114447732343493  0.6203770480392450  0.1071224657375822   T   T   T
  0.8131064401212456  0.7651650180979104  0.1102073755589927   T   T   T
  0.5012199529578965  0.4995717421578831  0.1262398361634851   T   T   T

  0.00000000E+00  0.00000000E+00  0.00000000E+00
  0.00000000E+00  0.00000000E+00  0.00000000E+00
  0.00000000E+00  0.00000000E+00  0.00000000E+00
  0.00000000E+00  0.00000000E+00  0.00000000E+00
  0.00000000E+00  0.00000000E+00  0.00000000E+00
  0.00000000E+00  0.00000000E+00  0.00000000E+00
  0.00000000E+00  0.00000000E+00  0.00000000E+00
  0.00000000E+00  0.00000000E+00  0.00000000E+00
  0.00000000E+00  0.00000000E+00  0.00000000E+00
  0.00000000E+00  0.00000000E+00  0.00000000E+00
  0.00000000E+00  0.00000000E+00  0.00000000E+00
  0.00000000E+00  0.00000000E+00  0.00000000E+00
  0.00000000E+00  0.00000000E+00  0.00000000E+00
  0.00000000E+00  0.00000000E+00  0.00000000E+00
  0.00000000E+00  0.00000000E+00  0.00000000E+00
  0.00000000E+00  0.00000000E+00  0.00000000E+00
  0.00000000E+00  0.00000000E+00  0.00000000E+00
  0.00000000E+00  0.00000000E+00  0.00000000E+00
  0.00000000E+00  0.00000000E+00  0.00000000E+00
  0.00000000E+00  0.00000000E+00  0.00000000E+00
  0.00000000E+00  0.00000000E+00  0.00000000E+00
  0.00000000E+00  0.00000000E+00  0.00000000E+00
  0.00000000E+00  0.00000000E+00  0.00000000E+00
  0.00000000E+00  0.00000000E+00  0.00000000E+00
  0.00000000E+00  0.00000000E+00  0.00000000E+00
  0.00000000E+00  0.00000000E+00  0.00000000E+00
  0.00000000E+00  0.00000000E+00  0.00000000E+00
  0.00000000E+00  0.00000000E+00  0.00000000E+00
  0.00000000E+00  0.00000000E+00  0.00000000E+00
  0.00000000E+00  0.00000000E+00  0.00000000E+00
  0.00000000E+00  0.00000000E+00  0.00000000E+00
  0.00000000E+00  0.00000000E+00  0.00000000E+00
  0.00000000E+00  0.00000000E+00  0.00000000E+00
  0.00000000E+00  0.00000000E+00  0.00000000E+00
  0.00000000E+00  0.00000000E+00  0.00000000E+00
  0.00000000E+00  0.00000000E+00  0.00000000E+00
  0.00000000E+00  0.00000000E+00  0.00000000E+00
  0.00000000E+00  0.00000000E+00  0.00000000E+00
  0.00000000E+00  0.00000000E+00  0.00000000E+00
  0.00000000E+00  0.00000000E+00  0.00000000E+00
  0.00000000E+00  0.00000000E+00  0.00000000E+00
  0.00000000E+00  0.00000000E+00  0.00000000E+00
  0.00000000E+00  0.00000000E+00  0.00000000E+00
  0.00000000E+00  0.00000000E+00  0.00000000E+00
  0.00000000E+00  0.00000000E+00  0.00000000E+00
  0.00000000E+00  0.00000000E+00  0.00000000E+00
  0.00000000E+00  0.00000000E+00  0.00000000E+00
  0.00000000E+00  0.00000000E+00  0.00000000E+00
  0.00000000E+00  0.00000000E+00  0.00000000E+00
  0.00000000E+00  0.00000000E+00  0.00000000E+00
  0.00000000E+00  0.00000000E+00  0.00000000E+00
  0.00000000E+00  0.00000000E+00  0.00000000E+00
  0.00000000E+00  0.00000000E+00  0.00000000E+00
  0.00000000E+00  0.00000000E+00  0.00000000E+00
  0.00000000E+00  0.00000000E+00  0.00000000E+00
  0.00000000E+00  0.00000000E+00  0.00000000E+00
  0.00000000E+00  0.00000000E+00  0.00000000E+00
  0.00000000E+00  0.00000000E+00  0.00000000E+00
  0.00000000E+00  0.00000000E+00  0.00000000E+00
  0.00000000E+00  0.00000000E+00  0.00000000E+00
  0.00000000E+00  0.00000000E+00  0.00000000E+00
  0.00000000E+00  0.00000000E+00  0.00000000E+00
  0.00000000E+00  0.00000000E+00  0.00000000E+00
  0.00000000E+00  0.00000000E+00  0.00000000E+00
  0.00000000E+00  0.00000000E+00  0.00000000E+00
  0.00000000E+00  0.00000000E+00  0.00000000E+00
  0.00000000E+00  0.00000000E+00  0.00000000E+00
  0.00000000E+00  0.00000000E+00  0.00000000E+00
  0.00000000E+00  0.00000000E+00  0.00000000E+00
  0.00000000E+00  0.00000000E+00  0.00000000E+00
  0.00000000E+00  0.00000000E+00  0.00000000E+00
  0.00000000E+00  0.00000000E+00  0.00000000E+00
  0.00000000E+00  0.00000000E+00  0.00000000E+00
  0.00000000E+00  0.00000000E+00  0.00000000E+00
  0.00000000E+00  0.00000000E+00  0.00000000E+00
  0.00000000E+00  0.00000000E+00  0.00000000E+00
  0.00000000E+00  0.00000000E+00  0.00000000E+00
  0.00000000E+00  0.00000000E+00  0.00000000E+00
  0.00000000E+00  0.00000000E+00  0.00000000E+00
  0.00000000E+00  0.00000000E+00  0.00000000E+00
  0.00000000E+00  0.00000000E+00  0.00000000E+00
  0.00000000E+00  0.00000000E+00  0.00000000E+00
  0.00000000E+00  0.00000000E+00  0.00000000E+00
  0.00000000E+00  0.00000000E+00  0.00000000E+00
  0.00000000E+00  0.00000000E+00  0.00000000E+00
  0.00000000E+00  0.00000000E+00  0.00000000E+00
  0.00000000E+00  0.00000000E+00  0.00000000E+00
  0.00000000E+00  0.00000000E+00  0.00000000E+00
  0.00000000E+00  0.00000000E+00  0.00000000E+00
  0.00000000E+00  0.00000000E+00  0.00000000E+00
  0.00000000E+00  0.00000000E+00  0.00000000E+00
  0.00000000E+00  0.00000000E+00  0.00000000E+00
  0.00000000E+00  0.00000000E+00  0.00000000E+00
  0.00000000E+00  0.00000000E+00  0.00000000E+00
  0.00000000E+00  0.00000000E+00  0.00000000E+00
  0.00000000E+00  0.00000000E+00  0.00000000E+00
  0.00000000E+00  0.00000000E+00  0.00000000E+00
