B C N                                   
   1.0000000000000000     
     8.7639499999999995  -15.1796066749929999    0.0000000000000000
     8.7639499999999995   15.1796066749929999    0.0000000000000000
     0.0000000000000000    0.0000000000000000   15.0000000000000000
   B    C    N 
    47     2    48
Selective dynamics
Direct
  0.9046179243194983  0.9515618476007012  0.1110275548366418   T   T   T
  0.9054599814898957  0.0945799716682700  0.1110628019491546   T   T   T
  0.9057594958349231  0.2375897106611262  0.1110618286489655   T   T   T
  0.9058086236267978  0.3808980347135126  0.1110159020258682   T   T   T
  0.9046482545498867  0.5240225596066697  0.1109999314277960   T   T   T
  0.9039699785652037  0.6665549347013719  0.1110793207972533   T   T   T
  0.9034570492623253  0.8084638433259603  0.1110500513819411   T   T   T
  0.0491967145533821  0.9546255396784615  0.1109966511877136   T   T   T
  0.0496163828534975  0.0968132119876418  0.1110040777813912   T   T   T
  0.0490939975648623  0.2386940717159234  0.1110212193789583   T   T   T
  0.0479089133358481  0.3814284180125553  0.1110247826706873   T   T   T
  0.0468992247666812  0.5246467489013676  0.1110163421197674   T   T   T
  0.0471459640772202  0.6677437917458565  0.1110066398453683   T   T   T
  0.0476352070922824  0.8108025790793327  0.1109828786846331   T   T   T
  0.1915596635656973  0.9550193415254603  0.1109690427594398   T   T   T
  0.1959860358927877  0.1016365202628262  0.1110305482223659   T   T   T
  0.1944570448802065  0.2420088199398594  0.1110015174298050   T   T   T
  0.1908413458872699  0.3829053203152437  0.1109946162877877   T   T   T
  0.1884396460192279  0.5254029455888394  0.1110702597093981   T   T   T
  0.1894009388787118  0.6683235072878908  0.1111008114373413   T   T   T
  0.1903459263757943  0.8113406180316993  0.1110060788182785   T   T   T
  0.3337562021341997  0.9542361851757418  0.1110252950060168   T   T   T
  0.3353600883836639  0.0985946358374083  0.1110406610379449   T   T   T
  0.3466449525669588  0.2513233347913860  0.1110627338463523   T   T   T
  0.3358028530522266  0.3877572186559429  0.1110158056406724   T   T   T
  0.3291659251836496  0.5284434983605669  0.1110159759899080   T   T   T
  0.3313333447540117  0.6692160501678643  0.1111027431331956   T   T   T
  0.3328343427339701  0.8112417275460531  0.1111073826798000   T   T   T
  0.4763006372416624  0.9517358392627123  0.1110250248370213   T   T   T
  0.4772314900241427  0.0942284504558315  0.1110078037127183   T   T   T
  0.4785056482242691  0.2358618022435263  0.1109768870135043   T   T   T
  0.4726042189584898  0.6646581884232660  0.1110138452104889   T   T   T
  0.4754006567081426  0.8086435667624360  0.1110763206476959   T   T   T
  0.6189405391976636  0.9505007777527356  0.1110057600439356   T   T   T
  0.6198843882403999  0.0937160345960760  0.1110077834441258   T   T   T
  0.6212399505000875  0.2364195086679716  0.1110011361775737   T   T   T
  0.6235247217333501  0.3796605391069572  0.1109880956302122   T   T   T
  0.6088614274482620  0.5107982723467153  0.1110803443557856   T   T   T
  0.6147214516817524  0.6596350044506504  0.1110213320402586   T   T   T
  0.6175902106037771  0.8063362128338593  0.1109970495785571   T   T   T
  0.7615097416609731  0.9503133353350057  0.1110495047856427   T   T   T
  0.7624586166846130  0.0938190302630391  0.1110594594361637   T   T   T
  0.7633121899010419  0.2370615768418081  0.1110317172273223   T   T   T
  0.7641970237851307  0.3803280477812949  0.1110198757876593   T   T   T
  0.7611629245265400  0.5226120294485236  0.1110897815303799   T   T   T
  0.7573227178628552  0.6615731516203178  0.1110717660783873   T   T   T
  0.7595125513488346  0.8059277707946515  0.1110279777411960   T   T   T
  0.4653546637320318  0.5196703807681248  0.1109935063542416   T   T   T
  0.4912629320697280  0.4515425711233561  0.1110502374164282   T   T   T
  0.9526369147763865  0.9046625350705338  0.1110097964804757   T   T   T
  0.9535903799814840  0.0475133910878312  0.1110128180322489   T   T   T
  0.9537738034356144  0.1902373868990221  0.1110399191060978   T   T   T
  0.9532049751908660  0.3331155276388582  0.1110137826949646   T   T   T
  0.9521353883017583  0.4763562935591903  0.1109633932484669   T   T   T
  0.9517566149783573  0.6193736943428217  0.1110072874153235   T   T   T
  0.9517334438661486  0.7618911324255252  0.1110405661216753   T   T   T
  0.0961376156851040  0.9066617575202633  0.1109406251066519   T   T   T
  0.0992184484617896  0.0514921537394114  0.1109875758079023   T   T   T
  0.0987176272714028  0.1927681289232616  0.1109825993575159   T   T   T
  0.0963589769367819  0.3342467069850053  0.1109847303340618   T   T   T
  0.0942686035864824  0.4768173902248610  0.1110217821445793   T   T   T
  0.0945076690163299  0.6200145566149768  0.1110227560686208   T   T   T
  0.0950463870764438  0.7631903211787682  0.1109702879915069   T   T   T
  0.2385389671269141  0.9068865907993713  0.1109686488169174   T   T   T
  0.2405926571434554  0.0514984436225412  0.1110059788786528   T   T   T
  0.2483140383190358  0.2008220035748346  0.1110192621050648   T   T   T
  0.2416913908501972  0.3376243243837397  0.1109722699074795   T   T   T
  0.2361457405635936  0.4779925909325093  0.1110205261854104   T   T   T
  0.2367757476024944  0.6205081380029457  0.1111066995465428   T   T   T
  0.2377019336474454  0.7634759828270121  0.1110718162028719   T   T   T
  0.3810437094626873  0.9060373943499624  0.1110398313149746   T   T   T
  0.3819744057685697  0.0497277447167790  0.1110072593680870   T   T   T
  0.3847219226650871  0.1956403344166379  0.1110548728407040   T   T   T
  0.4037767556750745  0.3628191289536380  0.1110357447398106   T   T   T
  0.3777571002310887  0.4826341934164846  0.1109654073210594   T   T   T
  0.3787832440806154  0.6213438603990161  0.1110453875682703   T   T   T
  0.3803142917293204  0.7632487506536713  0.1111102408533222   T   T   T
  0.5235966566530931  0.9033767554967344  0.1110121292367076   T   T   T
  0.5245152197356533  0.0465519151693106  0.1109696716292767   T   T   T
  0.5261492078532709  0.1887329690260331  0.1109788899963105   T   T   T
  0.5328705425767339  0.3264096690083824  0.1107139196153406   T   T   T
  0.5164016853900073  0.6099410944603643  0.1109716283296322   T   T   T
  0.5221857712431069  0.7589308192985357  0.1110096146113157   T   T   T
  0.6657711485914669  0.9016276981717254  0.1109943000004554   T   T   T
  0.6670660975993330  0.0456999597335584  0.1110044768448351   T   T   T
  0.6682316465333125  0.1888464244730725  0.1109940959998624   T   T   T
  0.6697660997144247  0.3315224240342352  0.1109943951750011   T   T   T
  0.6646986738077417  0.4734640469566748  0.1110857138276149   T   T   T
  0.6579017800727821  0.6085930672729055  0.1110370263544309   T   T   T
  0.6625672152338167  0.7554359706524171  0.1109767691114682   T   T   T
  0.8083133353938023  0.9018773832174335  0.1110135085027110   T   T   T
  0.8098286927597744  0.0458949279235460  0.1110536638964917   T   T   T
  0.8105867033770903  0.1892905589428579  0.1110556609678012   T   T   T
  0.8110479163062547  0.3325653676560520  0.1110099203650076   T   T   T
  0.8093283993563358  0.4757080823718375  0.1110173331821648   T   T   T
  0.8075757987529860  0.6173189066194139  0.1110835270413783   T   T   T
  0.8062265851990561  0.7578248693350444  0.1110490722902264   T   T   T

  0.00000000E+00  0.00000000E+00  0.00000000E+00
  0.00000000E+00  0.00000000E+00  0.00000000E+00
  0.00000000E+00  0.00000000E+00  0.00000000E+00
  0.00000000E+00  0.00000000E+00  0.00000000E+00
  0.00000000E+00  0.00000000E+00  0.00000000E+00
  0.00000000E+00  0.00000000E+00  0.00000000E+00
  0.00000000E+00  0.00000000E+00  0.00000000E+00
  0.00000000E+00  0.00000000E+00  0.00000000E+00
  0.00000000E+00  0.00000000E+00  0.00000000E+00
  0.00000000E+00  0.00000000E+00  0.00000000E+00
  0.00000000E+00  0.00000000E+00  0.00000000E+00
  0.00000000E+00  0.00000000E+00  0.00000000E+00
  0.00000000E+00  0.00000000E+00  0.00000000E+00
  0.00000000E+00  0.00000000E+00  0.00000000E+00
  0.00000000E+00  0.00000000E+00  0.00000000E+00
  0.00000000E+00  0.00000000E+00  0.00000000E+00
  0.00000000E+00  0.00000000E+00  0.00000000E+00
  0.00000000E+00  0.00000000E+00  0.00000000E+00
  0.00000000E+00  0.00000000E+00  0.00000000E+00
  0.00000000E+00  0.00000000E+00  0.00000000E+00
  0.00000000E+00  0.00000000E+00  0.00000000E+00
  0.00000000E+00  0.00000000E+00  0.00000000E+00
  0.00000000E+00  0.00000000E+00  0.00000000E+00
  0.00000000E+00  0.00000000E+00  0.00000000E+00
  0.00000000E+00  0.00000000E+00  0.00000000E+00
  0.00000000E+00  0.00000000E+00  0.00000000E+00
  0.00000000E+00  0.00000000E+00  0.00000000E+00
  0.00000000E+00  0.00000000E+00  0.00000000E+00
  0.00000000E+00  0.00000000E+00  0.00000000E+00
  0.00000000E+00  0.00000000E+00  0.00000000E+00
  0.00000000E+00  0.00000000E+00  0.00000000E+00
  0.00000000E+00  0.00000000E+00  0.00000000E+00
  0.00000000E+00  0.00000000E+00  0.00000000E+00
  0.00000000E+00  0.00000000E+00  0.00000000E+00
  0.00000000E+00  0.00000000E+00  0.00000000E+00
  0.00000000E+00  0.00000000E+00  0.00000000E+00
  0.00000000E+00  0.00000000E+00  0.00000000E+00
  0.00000000E+00  0.00000000E+00  0.00000000E+00
  0.00000000E+00  0.00000000E+00  0.00000000E+00
  0.00000000E+00  0.00000000E+00  0.00000000E+00
  0.00000000E+00  0.00000000E+00  0.00000000E+00
  0.00000000E+00  0.00000000E+00  0.00000000E+00
  0.00000000E+00  0.00000000E+00  0.00000000E+00
  0.00000000E+00  0.00000000E+00  0.00000000E+00
  0.00000000E+00  0.00000000E+00  0.00000000E+00
  0.00000000E+00  0.00000000E+00  0.00000000E+00
  0.00000000E+00  0.00000000E+00  0.00000000E+00
  0.00000000E+00  0.00000000E+00  0.00000000E+00
  0.00000000E+00  0.00000000E+00  0.00000000E+00
  0.00000000E+00  0.00000000E+00  0.00000000E+00
  0.00000000E+00  0.00000000E+00  0.00000000E+00
  0.00000000E+00  0.00000000E+00  0.00000000E+00
  0.00000000E+00  0.00000000E+00  0.00000000E+00
  0.00000000E+00  0.00000000E+00  0.00000000E+00
  0.00000000E+00  0.00000000E+00  0.00000000E+00
  0.00000000E+00  0.00000000E+00  0.00000000E+00
  0.00000000E+00  0.00000000E+00  0.00000000E+00
  0.00000000E+00  0.00000000E+00  0.00000000E+00
  0.00000000E+00  0.00000000E+00  0.00000000E+00
  0.00000000E+00  0.00000000E+00  0.00000000E+00
  0.00000000E+00  0.00000000E+00  0.00000000E+00
  0.00000000E+00  0.00000000E+00  0.00000000E+00
  0.00000000E+00  0.00000000E+00  0.00000000E+00
  0.00000000E+00  0.00000000E+00  0.00000000E+00
  0.00000000E+00  0.00000000E+00  0.00000000E+00
  0.00000000E+00  0.00000000E+00  0.00000000E+00
  0.00000000E+00  0.00000000E+00  0.00000000E+00
  0.00000000E+00  0.00000000E+00  0.00000000E+00
  0.00000000E+00  0.00000000E+00  0.00000000E+00
  0.00000000E+00  0.00000000E+00  0.00000000E+00
  0.00000000E+00  0.00000000E+00  0.00000000E+00
  0.00000000E+00  0.00000000E+00  0.00000000E+00
  0.00000000E+00  0.00000000E+00  0.00000000E+00
  0.00000000E+00  0.00000000E+00  0.00000000E+00
  0.00000000E+00  0.00000000E+00  0.00000000E+00
  0.00000000E+00  0.00000000E+00  0.00000000E+00
  0.00000000E+00  0.00000000E+00  0.00000000E+00
  0.00000000E+00  0.00000000E+00  0.00000000E+00
  0.00000000E+00  0.00000000E+00  0.00000000E+00
  0.00000000E+00  0.00000000E+00  0.00000000E+00
  0.00000000E+00  0.00000000E+00  0.00000000E+00
  0.00000000E+00  0.00000000E+00  0.00000000E+00
  0.00000000E+00  0.00000000E+00  0.00000000E+00
  0.00000000E+00  0.00000000E+00  0.00000000E+00
  0.00000000E+00  0.00000000E+00  0.00000000E+00
  0.00000000E+00  0.00000000E+00  0.00000000E+00
  0.00000000E+00  0.00000000E+00  0.00000000E+00
  0.00000000E+00  0.00000000E+00  0.00000000E+00
  0.00000000E+00  0.00000000E+00  0.00000000E+00
  0.00000000E+00  0.00000000E+00  0.00000000E+00
  0.00000000E+00  0.00000000E+00  0.00000000E+00
  0.00000000E+00  0.00000000E+00  0.00000000E+00
  0.00000000E+00  0.00000000E+00  0.00000000E+00
  0.00000000E+00  0.00000000E+00  0.00000000E+00
  0.00000000E+00  0.00000000E+00  0.00000000E+00
  0.00000000E+00  0.00000000E+00  0.00000000E+00
  0.00000000E+00  0.00000000E+00  0.00000000E+00
