Se B N                                  
   1.0000000000000000     
     8.7639499999999995  -15.1796066749929999    0.0000000000000000
     8.7639499999999995   15.1796066749929999    0.0000000000000000
     0.0000000000000000    0.0000000000000000   15.0000000000000000
   Se   B    N 
     1    48    48
Selective dynamics
Direct
  0.4969922940534269  0.5030091078635683  0.1113648840717006   T   T   T
  0.9059353458773407  0.9533734725487351  0.1110098685614977   T   T   T
  0.9044767435149547  0.0955252776810743  0.1109923017885935   T   T   T
  0.9041194400686359  0.2382248850629522  0.1109605340730300   T   T   T
  0.9042652682569643  0.3809525216168654  0.1109270973993510   T   T   T
  0.9049832400961221  0.5238220673075487  0.1110334202390284   T   T   T
  0.9067004130700935  0.6672455851829839  0.1111756610836574   T   T   T
  0.9076334564553946  0.8113056734692227  0.1110822181001412   T   T   T
  0.0481821343064987  0.9518198868895357  0.1110462199472911   T   T   T
  0.0466285486472294  0.0940666753186292  0.1110098685614977   T   T   T
  0.0462623499278219  0.2372623664352713  0.1109560346783400   T   T   T
  0.0468893329838439  0.3805046075285869  0.1109786371899017   T   T   T
  0.0480589123334369  0.5233588618344043  0.1110138384532660   T   T   T
  0.0488263108154406  0.6662156793913775  0.1111372944186913   T   T   T
  0.0489630027390150  0.8091956631704427  0.1111432201751198   T   T   T
  0.1908063580255734  0.9510390184569496  0.1111432201751198   T   T   T
  0.1886963477267679  0.0923685647406340  0.1110822181001412   T   T   T
  0.1870617010259229  0.2345807194389109  0.1109631209236343   T   T   T
  0.1885182049974434  0.3791362344560356  0.1109710431746785   T   T   T
  0.1911873274742601  0.5226812583119524  0.1110523651531573   T   T   T
  0.1917033473013544  0.6656603312504983  0.1110996690754819   T   T   T
  0.1914846953419244  0.8085173258540689  0.1111000833176334   T   T   T
  0.3337863418056046  0.9511757103805527  0.1111372944186913   T   T   T
  0.3327564360140042  0.0933016081258876  0.1111756610836645   T   T   T
  0.3283875359067303  0.2321640306100464  0.1109895508477579   T   T   T
  0.3267174744083944  0.3743627208050377  0.1108975449821102   T   T   T
  0.3344928526534605  0.5217459915731038  0.1110681818304102   T   T   T
  0.3349096026857575  0.6650924185112373  0.1111243209196417   T   T   T
  0.3343416899464933  0.8082986738946556  0.1110996690754819   T   T   T
  0.4766431593625697  0.9519431088625525  0.1110138384532660   T   T   T
  0.4761799538894482  0.0950187810998903  0.1110334202390284   T   T   T
  0.4751229304850252  0.2372197885990729  0.1110371573845821   T   T   T
  0.4652752924921970  0.3681867672678832  0.1112120263539850   T   T   T
  0.4782560296238643  0.6655091685435777  0.1110681818304102   T   T   T
  0.4773207628850490  0.8088146937217492  0.1110523651531573   T   T   T
  0.6194974136674348  0.9531126882121528  0.1109786371899017   T   T   T
  0.6190494995791308  0.0957367529390368  0.1109270973993510   T   T   T
  0.6192658788593813  0.2389667952875782  0.1109813047080076   T   T   T
  0.6184323633376754  0.3815696578583176  0.1107206198762551   T   T   T
  0.6318152539281560  0.5347267287047844  0.1112120263539860   T   T   T
  0.6256393003909437  0.6732845467885568  0.1108975449821102   T   T   T
  0.6208657867399560  0.8114838161985872  0.1109710431746785   T   T   T
  0.7627396547607327  0.9537396712682156  0.1109560346783400   T   T   T
  0.7617771361330832  0.0958825811273775  0.1109605340730300   T   T   T
  0.7615377037896004  0.2384643174063877  0.1109409405060550   T   T   T
  0.7610352259084359  0.3807361423366032  0.1109813047080076   T   T   T
  0.7627822325969053  0.5248790907119841  0.1110371573845821   T   T   T
  0.7678379905859289  0.6716144852902833  0.1109895508477579   T   T   T
  0.7654213017571022  0.8129403201700983  0.1109631209236343   T   T   T
  0.9537274475414108  0.9057220977143084  0.1110222039308288   T   T   T
  0.9521650400429444  0.0478363618750836  0.1109985304580634   T   T   T
  0.9515438479792567  0.1904091709676408  0.1109553083106588   T   T   T
  0.9518559225345794  0.3333467598688321  0.1109183841096693   T   T   T
  0.9526435737516374  0.4762274278300572  0.1109494186203875   T   T   T
  0.9535475720979112  0.6190959573885481  0.1111427118503676   T   T   T
  0.9540454044787141  0.7624003670204040  0.1111477307503013   T   T   T
  0.0958727498185896  0.9041286520994445  0.1110751453870305   T   T   T
  0.0942793042036275  0.0462739543765831  0.1110222039308288   T   T   T
  0.0929151859122744  0.1886516048063326  0.1109575282668188   T   T   T
  0.0938010238830206  0.3323846729216772  0.1109575317501996   T   T   T
  0.0957152602096644  0.4756727668364146  0.1109980925557805   T   T   T
  0.0963557221024478  0.6185213546016485  0.1110664154039655   T   T   T
  0.0963669438852713  0.7613437346020292  0.1111160662400152   T   T   T
  0.2386576673159341  0.9036344580327229  0.1111160662400152   T   T   T
  0.2376010348975925  0.0459559974392859  0.1111477307503013   T   T   T
  0.2344225171094797  0.1866467785855341  0.1109838105012295   T   T   T
  0.2332528142925619  0.3291333088887876  0.1109076034141015   T   T   T
  0.2384920645966389  0.4744809029122702  0.1110026960212812   T   T   T
  0.2394549519524537  0.6179374035890520  0.1110952879539467   T   T   T
  0.2391502669716397  0.7608511349463712  0.1110806731179206   T   T   T
  0.3814800473163774  0.9036456798155960  0.1110664154039655   T   T   T
  0.3809054445294388  0.0464538298201036  0.1111427118503676   T   T   T
  0.3795822082402892  0.1884541208636350  0.1110938442831324   T   T   T
  0.3730773440427819  0.3263123332707428  0.1109044378096617   T   T   T
  0.3753901664418290  0.4680510102153648  0.1109411936324932   T   T   T
  0.3828266774543623  0.6171747244636520  0.1111055917784905   T   T   T
  0.3820639983289188  0.7605464499655636  0.1110952879539467   T   T   T
  0.5243286350805236  0.9042861417083539  0.1109980925557805   T   T   T
  0.5237739740869448  0.0473578281663400  0.1109494186203875   T   T   T
  0.5233425756548519  0.1905898673285036  0.1109879500873432   T   T   T
  0.5225236279335677  0.3342013073247847  0.1109962000179892   T   T   T
  0.5319503917016456  0.6246112354761767  0.1109411936324932   T   T   T
  0.5255204990047541  0.7615093373213729  0.1110026960212812   T   T   T
  0.6676167289953669  0.9062003780349602  0.1109575317501996   T   T   T
  0.6666546420481509  0.0481454793834547  0.1109183841096693   T   T   T
  0.6664144680257779  0.1908035191581490  0.1109233105807199   T   T   T
  0.6663421721777875  0.3336592297391820  0.1109301265198576   T   T   T
  0.6658000945922529  0.4774777739834239  0.1109962000179883   T   T   T
  0.6736890686462312  0.6269240578752442  0.1109044378096617   T   T   T
  0.6708680930281776  0.7667485876254113  0.1109076034141015   T   T   T
  0.8113497971117135  0.9070862160057380  0.1109575282668188   T   T   T
  0.8095922309503450  0.0484575539388220  0.1109553083106588   T   T   T
  0.8091605519725670  0.1908408499454332  0.1109413788400157   T   T   T
  0.8091978827598770  0.3335869338912049  0.1109233105807199   T   T   T
  0.8094115345895136  0.4766588262621288  0.1109879500873432   T   T   T
  0.8115472810544188  0.6204191936776757  0.1110938442831324   T   T   T
  0.8133546233324821  0.7655788848085532  0.1109838105012295   T   T   T

  0.00000000E+00  0.00000000E+00  0.00000000E+00
  0.00000000E+00  0.00000000E+00  0.00000000E+00
  0.00000000E+00  0.00000000E+00  0.00000000E+00
  0.00000000E+00  0.00000000E+00  0.00000000E+00
  0.00000000E+00  0.00000000E+00  0.00000000E+00
  0.00000000E+00  0.00000000E+00  0.00000000E+00
  0.00000000E+00  0.00000000E+00  0.00000000E+00
  0.00000000E+00  0.00000000E+00  0.00000000E+00
  0.00000000E+00  0.00000000E+00  0.00000000E+00
  0.00000000E+00  0.00000000E+00  0.00000000E+00
  0.00000000E+00  0.00000000E+00  0.00000000E+00
  0.00000000E+00  0.00000000E+00  0.00000000E+00
  0.00000000E+00  0.00000000E+00  0.00000000E+00
  0.00000000E+00  0.00000000E+00  0.00000000E+00
  0.00000000E+00  0.00000000E+00  0.00000000E+00
  0.00000000E+00  0.00000000E+00  0.00000000E+00
  0.00000000E+00  0.00000000E+00  0.00000000E+00
  0.00000000E+00  0.00000000E+00  0.00000000E+00
  0.00000000E+00  0.00000000E+00  0.00000000E+00
  0.00000000E+00  0.00000000E+00  0.00000000E+00
  0.00000000E+00  0.00000000E+00  0.00000000E+00
  0.00000000E+00  0.00000000E+00  0.00000000E+00
  0.00000000E+00  0.00000000E+00  0.00000000E+00
  0.00000000E+00  0.00000000E+00  0.00000000E+00
  0.00000000E+00  0.00000000E+00  0.00000000E+00
  0.00000000E+00  0.00000000E+00  0.00000000E+00
  0.00000000E+00  0.00000000E+00  0.00000000E+00
  0.00000000E+00  0.00000000E+00  0.00000000E+00
  0.00000000E+00  0.00000000E+00  0.00000000E+00
  0.00000000E+00  0.00000000E+00  0.00000000E+00
  0.00000000E+00  0.00000000E+00  0.00000000E+00
  0.00000000E+00  0.00000000E+00  0.00000000E+00
  0.00000000E+00  0.00000000E+00  0.00000000E+00
  0.00000000E+00  0.00000000E+00  0.00000000E+00
  0.00000000E+00  0.00000000E+00  0.00000000E+00
  0.00000000E+00  0.00000000E+00  0.00000000E+00
  0.00000000E+00  0.00000000E+00  0.00000000E+00
  0.00000000E+00  0.00000000E+00  0.00000000E+00
  0.00000000E+00  0.00000000E+00  0.00000000E+00
  0.00000000E+00  0.00000000E+00  0.00000000E+00
  0.00000000E+00  0.00000000E+00  0.00000000E+00
  0.00000000E+00  0.00000000E+00  0.00000000E+00
  0.00000000E+00  0.00000000E+00  0.00000000E+00
  0.00000000E+00  0.00000000E+00  0.00000000E+00
  0.00000000E+00  0.00000000E+00  0.00000000E+00
  0.00000000E+00  0.00000000E+00  0.00000000E+00
  0.00000000E+00  0.00000000E+00  0.00000000E+00
  0.00000000E+00  0.00000000E+00  0.00000000E+00
  0.00000000E+00  0.00000000E+00  0.00000000E+00
  0.00000000E+00  0.00000000E+00  0.00000000E+00
  0.00000000E+00  0.00000000E+00  0.00000000E+00
  0.00000000E+00  0.00000000E+00  0.00000000E+00
  0.00000000E+00  0.00000000E+00  0.00000000E+00
  0.00000000E+00  0.00000000E+00  0.00000000E+00
  0.00000000E+00  0.00000000E+00  0.00000000E+00
  0.00000000E+00  0.00000000E+00  0.00000000E+00
  0.00000000E+00  0.00000000E+00  0.00000000E+00
  0.00000000E+00  0.00000000E+00  0.00000000E+00
  0.00000000E+00  0.00000000E+00  0.00000000E+00
  0.00000000E+00  0.00000000E+00  0.00000000E+00
  0.00000000E+00  0.00000000E+00  0.00000000E+00
  0.00000000E+00  0.00000000E+00  0.00000000E+00
  0.00000000E+00  0.00000000E+00  0.00000000E+00
  0.00000000E+00  0.00000000E+00  0.00000000E+00
  0.00000000E+00  0.00000000E+00  0.00000000E+00
  0.00000000E+00  0.00000000E+00  0.00000000E+00
  0.00000000E+00  0.00000000E+00  0.00000000E+00
  0.00000000E+00  0.00000000E+00  0.00000000E+00
  0.00000000E+00  0.00000000E+00  0.00000000E+00
  0.00000000E+00  0.00000000E+00  0.00000000E+00
  0.00000000E+00  0.00000000E+00  0.00000000E+00
  0.00000000E+00  0.00000000E+00  0.00000000E+00
  0.00000000E+00  0.00000000E+00  0.00000000E+00
  0.00000000E+00  0.00000000E+00  0.00000000E+00
  0.00000000E+00  0.00000000E+00  0.00000000E+00
  0.00000000E+00  0.00000000E+00  0.00000000E+00
  0.00000000E+00  0.00000000E+00  0.00000000E+00
  0.00000000E+00  0.00000000E+00  0.00000000E+00
  0.00000000E+00  0.00000000E+00  0.00000000E+00
  0.00000000E+00  0.00000000E+00  0.00000000E+00
  0.00000000E+00  0.00000000E+00  0.00000000E+00
  0.00000000E+00  0.00000000E+00  0.00000000E+00
  0.00000000E+00  0.00000000E+00  0.00000000E+00
  0.00000000E+00  0.00000000E+00  0.00000000E+00
  0.00000000E+00  0.00000000E+00  0.00000000E+00
  0.00000000E+00  0.00000000E+00  0.00000000E+00
  0.00000000E+00  0.00000000E+00  0.00000000E+00
  0.00000000E+00  0.00000000E+00  0.00000000E+00
  0.00000000E+00  0.00000000E+00  0.00000000E+00
  0.00000000E+00  0.00000000E+00  0.00000000E+00
  0.00000000E+00  0.00000000E+00  0.00000000E+00
  0.00000000E+00  0.00000000E+00  0.00000000E+00
  0.00000000E+00  0.00000000E+00  0.00000000E+00
  0.00000000E+00  0.00000000E+00  0.00000000E+00
  0.00000000E+00  0.00000000E+00  0.00000000E+00
  0.00000000E+00  0.00000000E+00  0.00000000E+00
  0.00000000E+00  0.00000000E+00  0.00000000E+00
