B N Sb                                  
   1.0000000000000000     
     8.7639499999999995  -15.1796066749929999    0.0000000000000000
     8.7639499999999995   15.1796066749929999    0.0000000000000000
     0.0000000000000000    0.0000000000000000   15.0000000000000000
   B    N    Sb
    48    48     1
Selective dynamics
Direct
  0.9051132855540068  0.9526947669208944  0.1179285245213358   T   T   T
  0.9047294153533822  0.0954133422484528  0.1177643489276226   T   T   T
  0.9045849247692593  0.2382668378679131  0.1170797180388097   T   T   T
  0.9045429518735092  0.3810738240104004  0.1164106246371945   T   T   T
  0.9043202897154854  0.5237168147045418  0.1152167016368598   T   T   T
  0.9044013508015680  0.6663768043792689  0.1154219877718188   T   T   T
  0.9048197108617586  0.8094797386784689  0.1171254636143200   T   T   T
  0.0478303083230208  0.9523166598574523  0.1177034915579819   T   T   T
  0.0474444304079960  0.0950209253897688  0.1179241582445243   T   T   T
  0.0473180516856957  0.2379710915424232  0.1168403980536396   T   T   T
  0.0474636708620045  0.3808755750162172  0.1149558470153275   T   T   T
  0.0478042573446814  0.5236135309565612  0.1149248540015887   T   T   T
  0.0478904939005454  0.6663638101298831  0.1156970287069694   T   T   T
  0.0478214882147691  0.8092953613387431  0.1169923420107041   T   T   T
  0.1908589088974919  0.9523338096646604  0.1169949649843637   T   T   T
  0.1906682245642523  0.0953247571205223  0.1171285862383663   T   T   T
  0.1896144837685371  0.2373155520166513  0.1169969072675186   T   T   T
  0.1900462340095352  0.3804743867939932  0.1112169647528177   T   T   T
  0.1911089498346620  0.5231930949286712  0.1087372378910786   T   T   T
  0.1913477102275132  0.6660958911038625  0.1115154612522725   T   T   T
  0.1909964494851655  0.8091702323629951  0.1152725595422699   T   T   T
  0.3338013945741829  0.9522659976629948  0.1156817712358804   T   T   T
  0.3337766326728456  0.0957462727116759  0.1154148846704670   T   T   T
  0.3336229337122864  0.2389416419609815  0.1143468799219151   T   T   T
  0.3306868853481675  0.3791732340226914  0.1025143402540731   T   T   T
  0.3340277145246652  0.5213556994601133  0.0908903589771044   T   T   T
  0.3348146319505870  0.6653384752771200  0.1012670947884771   T   T   T
  0.3340625903919593  0.8088147542383760  0.1114988409808653   T   T   T
  0.4765525280802210  0.9523516088020174  0.1148945864033051   T   T   T
  0.4764348117962285  0.0958264135373344  0.1151833945192751   T   T   T
  0.4764895434193894  0.2395754500925508  0.1089766861744862   T   T   T
  0.4763488454556778  0.3833015086825010  0.0982138959922403   T   T   T
  0.4787886648980897  0.6661247683228527  0.0908804174871727   T   T   T
  0.4769620432296772  0.8090433099273723  0.1087347540457694   T   T   T
  0.6192854833238916  0.9526889784143652  0.1149548080314908   T   T   T
  0.6190826961205381  0.0956042331185204  0.1163896141701936   T   T   T
  0.6190055525685592  0.2386389114166463  0.1127722423469259   T   T   T
  0.6188057081378440  0.3813319651705443  0.1030405713995602   T   T   T
  0.6168423210730885  0.5237901863042643  0.0981980867310147   T   T   T
  0.6209854417770176  0.6694659887052216  0.1024944894963614   T   T   T
  0.6196718155041144  0.8100932170429240  0.1112225181003453   T   T   T
  0.7621649056108925  0.9528176179464406  0.1168593681711217   T   T   T
  0.7618909903327472  0.0955684739217840  0.1170795526698087   T   T   T
  0.7617329158404355  0.2384130204568116  0.1164298278767113   T   T   T
  0.7614964790869124  0.3811343875328325  0.1127772043072024   T   T   T
  0.7605670643438023  0.5236550456964015  0.1089811998284505   T   T   T
  0.7612056902316966  0.6665196102769223  0.1143472158356165   T   T   T
  0.7628238113482040  0.8105217817906842  0.1170011299048897   T   T   T
  0.9527179230323325  0.9049252351819635  0.1177395995406927   T   T   T
  0.9523718523835069  0.0477654658518600  0.1180082083987832   T   T   T
  0.9520299765763507  0.1905116151939978  0.1174498377457403   T   T   T
  0.9520962550648866  0.3334092848242189  0.1165647508097776   T   T   T
  0.9523266409961979  0.4762607293719308  0.1162525937133585   T   T   T
  0.9525568924291788  0.6189985111184726  0.1157574821107381   T   T   T
  0.9526796522893380  0.7618753165320423  0.1167779159484088   T   T   T
  0.0955385627291231  0.9046148494765810  0.1174943326780192   T   T   T
  0.0952231273172591  0.0474271119740428  0.1177446357422668   T   T   T
  0.0943294660146522  0.1897829557314971  0.1178130694258057   T   T   T
  0.0944955005757883  0.3329730479949938  0.1148094370678809   T   T   T
  0.0953561845921995  0.4760411402428343  0.1135495010731044   T   T   T
  0.0957484991238986  0.6188818733670454  0.1144670609668329   T   T   T
  0.0956495384375087  0.7617091860407774  0.1162672549198212   T   T   T
  0.2384544408544469  0.9045106468901785  0.1162592634633091   T   T   T
  0.2382807600777721  0.0474720750093084  0.1167812906377000   T   T   T
  0.2377111074903639  0.1900677580237384  0.1167930545038190   T   T   T
  0.2357855959990426  0.3314788671895906  0.1140437091674323   T   T   T
  0.2380276694285103  0.4754795321807426  0.1053978081502622   T   T   T
  0.2389284287416646  0.6186009519191810  0.1069469959011170   T   T   T
  0.2386357425080027  0.7615256141140050  0.1126206999936413   T   T   T
  0.3812844535249180  0.9044080471206470  0.1144393054759479   T   T   T
  0.3811600145106353  0.0475955721546941  0.1157371002856428   T   T   T
  0.3810727783725936  0.1906563941195582  0.1131465650359343   T   T   T
  0.3801138413182694  0.3331657235950667  0.1105644867659084   T   T   T
  0.3748502151296041  0.4693661307787365  0.0802083016095444   T   T   T
  0.3820869685411344  0.6180604193139422  0.0901804462870869   T   T   T
  0.3815549425251220  0.7612254956947599  0.1069387330806164   T   T   T
  0.5241224718772571  0.9047981389255596  0.1135410652243290   T   T   T
  0.5239013854133298  0.0478245171022958  0.1162169486223236   T   T   T
  0.5238475006201615  0.1910609424928905  0.1126561387101902   T   T   T
  0.5239792335375714  0.3344668431759497  0.1010618693742087   T   T   T
  0.5307937548903990  0.6253217958580842  0.0801865426783547   T   T   T
  0.5246691918263011  0.7621189618322642  0.1053964642561865   T   T   T
  0.6671716489057022  0.9056420545001604  0.1148279075244744   T   T   T
  0.6667518922408663  0.0480554466600885  0.1165563298625565   T   T   T
  0.6666026598987362  0.1907737526824970  0.1159616553476625   T   T   T
  0.6666164021314376  0.3335147339583395  0.1095131292528724   T   T   T
  0.6656769888762233  0.4761617812247079  0.1010495718572225   T   T   T
  0.6669821992307006  0.6200311745194060  0.1105358422365037   T   T   T
  0.6686665583456332  0.7643534963411078  0.1140389345916202   T   T   T
  0.8103525712845862  0.9058048339079769  0.1178213632177743   T   T   T
  0.8096305683325877  0.0481068972039746  0.1174644941502095   T   T   T
  0.8093920553535198  0.1907596975394752  0.1172249322623636   T   T   T
  0.8093679363212053  0.3335463343386487  0.1159717343290994   T   T   T
  0.8090788278362420  0.4762975704446221  0.1126832818507730   T   T   T
  0.8094915295157594  0.6190746274519150  0.1131478175001481   T   T   T
  0.8100774955714529  0.7624318928303322  0.1168035563293656   T   T   T
  0.4949564840274628  0.5052775171709745  0.0109385937284863   T   T   T

  0.00000000E+00  0.00000000E+00  0.00000000E+00
  0.00000000E+00  0.00000000E+00  0.00000000E+00
  0.00000000E+00  0.00000000E+00  0.00000000E+00
  0.00000000E+00  0.00000000E+00  0.00000000E+00
  0.00000000E+00  0.00000000E+00  0.00000000E+00
  0.00000000E+00  0.00000000E+00  0.00000000E+00
  0.00000000E+00  0.00000000E+00  0.00000000E+00
  0.00000000E+00  0.00000000E+00  0.00000000E+00
  0.00000000E+00  0.00000000E+00  0.00000000E+00
  0.00000000E+00  0.00000000E+00  0.00000000E+00
  0.00000000E+00  0.00000000E+00  0.00000000E+00
  0.00000000E+00  0.00000000E+00  0.00000000E+00
  0.00000000E+00  0.00000000E+00  0.00000000E+00
  0.00000000E+00  0.00000000E+00  0.00000000E+00
  0.00000000E+00  0.00000000E+00  0.00000000E+00
  0.00000000E+00  0.00000000E+00  0.00000000E+00
  0.00000000E+00  0.00000000E+00  0.00000000E+00
  0.00000000E+00  0.00000000E+00  0.00000000E+00
  0.00000000E+00  0.00000000E+00  0.00000000E+00
  0.00000000E+00  0.00000000E+00  0.00000000E+00
  0.00000000E+00  0.00000000E+00  0.00000000E+00
  0.00000000E+00  0.00000000E+00  0.00000000E+00
  0.00000000E+00  0.00000000E+00  0.00000000E+00
  0.00000000E+00  0.00000000E+00  0.00000000E+00
  0.00000000E+00  0.00000000E+00  0.00000000E+00
  0.00000000E+00  0.00000000E+00  0.00000000E+00
  0.00000000E+00  0.00000000E+00  0.00000000E+00
  0.00000000E+00  0.00000000E+00  0.00000000E+00
  0.00000000E+00  0.00000000E+00  0.00000000E+00
  0.00000000E+00  0.00000000E+00  0.00000000E+00
  0.00000000E+00  0.00000000E+00  0.00000000E+00
  0.00000000E+00  0.00000000E+00  0.00000000E+00
  0.00000000E+00  0.00000000E+00  0.00000000E+00
  0.00000000E+00  0.00000000E+00  0.00000000E+00
  0.00000000E+00  0.00000000E+00  0.00000000E+00
  0.00000000E+00  0.00000000E+00  0.00000000E+00
  0.00000000E+00  0.00000000E+00  0.00000000E+00
  0.00000000E+00  0.00000000E+00  0.00000000E+00
  0.00000000E+00  0.00000000E+00  0.00000000E+00
  0.00000000E+00  0.00000000E+00  0.00000000E+00
  0.00000000E+00  0.00000000E+00  0.00000000E+00
  0.00000000E+00  0.00000000E+00  0.00000000E+00
  0.00000000E+00  0.00000000E+00  0.00000000E+00
  0.00000000E+00  0.00000000E+00  0.00000000E+00
  0.00000000E+00  0.00000000E+00  0.00000000E+00
  0.00000000E+00  0.00000000E+00  0.00000000E+00
  0.00000000E+00  0.00000000E+00  0.00000000E+00
  0.00000000E+00  0.00000000E+00  0.00000000E+00
  0.00000000E+00  0.00000000E+00  0.00000000E+00
  0.00000000E+00  0.00000000E+00  0.00000000E+00
  0.00000000E+00  0.00000000E+00  0.00000000E+00
  0.00000000E+00  0.00000000E+00  0.00000000E+00
  0.00000000E+00  0.00000000E+00  0.00000000E+00
  0.00000000E+00  0.00000000E+00  0.00000000E+00
  0.00000000E+00  0.00000000E+00  0.00000000E+00
  0.00000000E+00  0.00000000E+00  0.00000000E+00
  0.00000000E+00  0.00000000E+00  0.00000000E+00
  0.00000000E+00  0.00000000E+00  0.00000000E+00
  0.00000000E+00  0.00000000E+00  0.00000000E+00
  0.00000000E+00  0.00000000E+00  0.00000000E+00
  0.00000000E+00  0.00000000E+00  0.00000000E+00
  0.00000000E+00  0.00000000E+00  0.00000000E+00
  0.00000000E+00  0.00000000E+00  0.00000000E+00
  0.00000000E+00  0.00000000E+00  0.00000000E+00
  0.00000000E+00  0.00000000E+00  0.00000000E+00
  0.00000000E+00  0.00000000E+00  0.00000000E+00
  0.00000000E+00  0.00000000E+00  0.00000000E+00
  0.00000000E+00  0.00000000E+00  0.00000000E+00
  0.00000000E+00  0.00000000E+00  0.00000000E+00
  0.00000000E+00  0.00000000E+00  0.00000000E+00
  0.00000000E+00  0.00000000E+00  0.00000000E+00
  0.00000000E+00  0.00000000E+00  0.00000000E+00
  0.00000000E+00  0.00000000E+00  0.00000000E+00
  0.00000000E+00  0.00000000E+00  0.00000000E+00
  0.00000000E+00  0.00000000E+00  0.00000000E+00
  0.00000000E+00  0.00000000E+00  0.00000000E+00
  0.00000000E+00  0.00000000E+00  0.00000000E+00
  0.00000000E+00  0.00000000E+00  0.00000000E+00
  0.00000000E+00  0.00000000E+00  0.00000000E+00
  0.00000000E+00  0.00000000E+00  0.00000000E+00
  0.00000000E+00  0.00000000E+00  0.00000000E+00
  0.00000000E+00  0.00000000E+00  0.00000000E+00
  0.00000000E+00  0.00000000E+00  0.00000000E+00
  0.00000000E+00  0.00000000E+00  0.00000000E+00
  0.00000000E+00  0.00000000E+00  0.00000000E+00
  0.00000000E+00  0.00000000E+00  0.00000000E+00
  0.00000000E+00  0.00000000E+00  0.00000000E+00
  0.00000000E+00  0.00000000E+00  0.00000000E+00
  0.00000000E+00  0.00000000E+00  0.00000000E+00
  0.00000000E+00  0.00000000E+00  0.00000000E+00
  0.00000000E+00  0.00000000E+00  0.00000000E+00
  0.00000000E+00  0.00000000E+00  0.00000000E+00
  0.00000000E+00  0.00000000E+00  0.00000000E+00
  0.00000000E+00  0.00000000E+00  0.00000000E+00
  0.00000000E+00  0.00000000E+00  0.00000000E+00
  0.00000000E+00  0.00000000E+00  0.00000000E+00
  0.00000000E+00  0.00000000E+00  0.00000000E+00
