B C N                                   
   1.0000000000000000     
     8.7639499999999995  -15.1796066749929999    0.0000000000000000
     8.7639499999999995   15.1796066749929999    0.0000000000000000
     0.0000000000000000    0.0000000000000000   15.0000000000000000
   B    C    N 
    46     3    48
Selective dynamics
Direct
  0.9045803424015455  0.9523903105605901  0.1082784003800267   T   T   T
  0.9050267069857567  0.0954132846566740  0.1083943890946108   T   T   T
  0.9050844462188247  0.2381955813120516  0.1087820423236005   T   T   T
  0.9049265758083987  0.3809552547877128  0.1086965919475138   T   T   T
  0.9049504407353565  0.5236473323998402  0.1102938167442316   T   T   T
  0.9034015378860150  0.6661509326041152  0.1144040993711712   T   T   T
  0.9037760211124997  0.8092504887129135  0.1112375767672545   T   T   T
  0.0473560016692358  0.9524097059891847  0.1085755017504164   T   T   T
  0.0480468196300413  0.0956720461957456  0.1085402980063481   T   T   T
  0.0483007331483851  0.2384481369537707  0.1090579232844618   T   T   T
  0.0481949033553975  0.3810649872422213  0.1089536412730066   T   T   T
  0.0478200012017888  0.5237453123057652  0.1087939269990310   T   T   T
  0.0470162550764028  0.6664649468232920  0.1096462722552796   T   T   T
  0.0467210145953230  0.8091128555860456  0.1098080119575471   T   T   T
  0.1898882985245754  0.9520099403096797  0.1090253044356650   T   T   T
  0.1907396888083394  0.0955169741163124  0.1091580525034610   T   T   T
  0.1916847472635452  0.2390247560956244  0.1096696706924286   T   T   T
  0.1917030701066538  0.3813422979449845  0.1097812422207998   T   T   T
  0.1908764215122969  0.5239393663295817  0.1092312301306582   T   T   T
  0.1900870592765503  0.6666105449572493  0.1089760864063600   T   T   T
  0.1899137597909187  0.8092721251645814  0.1091515421997281   T   T   T
  0.3329354440937198  0.9520208495911339  0.1093042933735802   T   T   T
  0.3328512715532169  0.0945399677820166  0.1098532599816245   T   T   T
  0.3341595990350311  0.2378686600975230  0.1110755616819452   T   T   T
  0.3361753924537473  0.3824296257039519  0.1119825548193730   T   T   T
  0.3340392000242768  0.5250636382808472  0.1111719327857486   T   T   T
  0.3329824078619895  0.6669659269553744  0.1094507640867162   T   T   T
  0.3330415208267143  0.8094314710324564  0.1091287157804913   T   T   T
  0.4760118420800303  0.9520953399782510  0.1088829108897631   T   T   T
  0.4758668748148379  0.0953156955412726  0.1095297531103749   T   T   T
  0.4752621968613591  0.2384662969730494  0.1117015657763857   T   T   T
  0.4754872995981210  0.6652868392961374  0.1121713244301707   T   T   T
  0.4761186300723337  0.8088067005064310  0.1092022349905826   T   T   T
  0.6190000338921071  0.9520964614253830  0.1081493671985685   T   T   T
  0.6188916941460028  0.0948506000236506  0.1086729505033470   T   T   T
  0.6186783913941759  0.2372918232667579  0.1094019414411095   T   T   T
  0.6195548383016443  0.3812060516099908  0.1149331158537980   T   T   T
  0.6212110886061792  0.6657187494899549  0.1244162258768772   T   T   T
  0.6191838191133521  0.8091952739883634  0.1093030709696702   T   T   T
  0.7619062745082710  0.9522637114011051  0.1078557231870351   T   T   T
  0.7619783297099795  0.0951681739365002  0.1083808304130039   T   T   T
  0.7618650433242242  0.2379485146988920  0.1086057660182191   T   T   T
  0.7617193515148952  0.3809819879283248  0.1098440134331838   T   T   T
  0.7616126124482714  0.5234792616038167  0.1178688717420728   T   T   T
  0.7581287973701990  0.6656250093609538  0.1272194961986398   T   T   T
  0.7612252976784938  0.8089372213314704  0.1115482858887046   T   T   T
  0.4767842757670376  0.3825447547213000  0.1155776190221130   T   T   T
  0.4764151785603291  0.5239666282828681  0.1165696346662210   T   T   T
  0.5175595100885438  0.4732610987501263  0.1188546039126722   T   T   T
  0.9524762439651190  0.9051177943016114  0.1086306171296528   T   T   T
  0.9529210407742909  0.0481678881809876  0.1081712350407423   T   T   T
  0.9530769617108609  0.1909027147301803  0.1088402079334691   T   T   T
  0.9529074329610145  0.3334515656532852  0.1087460700080748   T   T   T
  0.9528276931718327  0.4760261518827658  0.1088130741248614   T   T   T
  0.9519768659172299  0.6188214215029499  0.1110270501723295   T   T   T
  0.9519056516298441  0.7617004638141301  0.1116797438874327   T   T   T
  0.0949874664733297  0.9047337752314534  0.1088649935045294   T   T   T
  0.0957979318638613  0.0482200075353689  0.1085303244309336   T   T   T
  0.0965491201158316  0.1914029389715813  0.1090153739523422   T   T   T
  0.0965355034461126  0.3338015307974903  0.1092257973042230   T   T   T
  0.0958909815444565  0.4762314727480279  0.1088603729329779   T   T   T
  0.0950888661131789  0.6189299624338865  0.1088943176525203   T   T   T
  0.0948727019190739  0.7617481822910960  0.1094478088591546   T   T   T
  0.2378075251571808  0.9046550283377224  0.1091635831554449   T   T   T
  0.2380044758204493  0.0476632723709462  0.1092381771677179   T   T   T
  0.2394526042224048  0.1916282351536320  0.1098049492621147   T   T   T
  0.2409142731365311  0.3347972515289488  0.1102388480092075   T   T   T
  0.2393378551789855  0.4764432724141266  0.1098835972367992   T   T   T
  0.2380351468168263  0.6189836883197611  0.1090816021890825   T   T   T
  0.2378473369511528  0.7617943504609129  0.1090757014537558   T   T   T
  0.3807049012765607  0.9046243162541403  0.1091612620519072   T   T   T
  0.3806815211287982  0.0474858694349021  0.1095939722566119   T   T   T
  0.3807021061306194  0.1902097108906035  0.1108518064513922   T   T   T
  0.3844426490693578  0.3346656982296790  0.1126847478529220   T   T   T
  0.3843161275379574  0.4784899999285009  0.1131141112337679   T   T   T
  0.3806607670324464  0.6190441460007869  0.1104915006857459   T   T   T
  0.3807234765447245  0.7617574324836414  0.1091981719248416   T   T   T
  0.5235098755507213  0.9042698128006748  0.1085825004063781   T   T   T
  0.5234801894268029  0.0476278683258443  0.1089333844877182   T   T   T
  0.5232234077872183  0.1911525287153128  0.1101250044936967   T   T   T
  0.5214763859479001  0.3349915497544557  0.1145347267018582   T   T   T
  0.5208418163560790  0.6143924857203082  0.1170023830573006   T   T   T
  0.5232163323622384  0.7604355954576292  0.1101352971853270   T   T   T
  0.6664433394708287  0.9047439904050619  0.1076995192537190   T   T   T
  0.6665463412536501  0.0474597689082417  0.1083641967283704   T   T   T
  0.6663623937196882  0.1899693204832907  0.1086656084220760   T   T   T
  0.6653176141810371  0.3318017154093812  0.1101802840075408   T   T   T
  0.6669789235708383  0.4736773548685239  0.1197160353127645   T   T   T
  0.6679141539315799  0.6248256852159245  0.1432214668842786   T   T   T
  0.6656608182453096  0.7619871286750944  0.1116645505020620   T   T   T
  0.8094773445058571  0.9050116279587764  0.1082910101820136   T   T   T
  0.8097547874570076  0.0478727882119577  0.1080806607445539   T   T   T
  0.8097106516890907  0.1905657429349165  0.1086138626499809   T   T   T
  0.8093643239439539  0.3331942580149540  0.1086574318782396   T   T   T
  0.8101345363505688  0.4759804465678160  0.1112871994174204   T   T   T
  0.8085962286248720  0.6183257142997989  0.1213223534923339   T   T   T
  0.8094788597597815  0.7623467714620817  0.1144175997772667   T   T   T

  0.00000000E+00  0.00000000E+00  0.00000000E+00
  0.00000000E+00  0.00000000E+00  0.00000000E+00
  0.00000000E+00  0.00000000E+00  0.00000000E+00
  0.00000000E+00  0.00000000E+00  0.00000000E+00
  0.00000000E+00  0.00000000E+00  0.00000000E+00
  0.00000000E+00  0.00000000E+00  0.00000000E+00
  0.00000000E+00  0.00000000E+00  0.00000000E+00
  0.00000000E+00  0.00000000E+00  0.00000000E+00
  0.00000000E+00  0.00000000E+00  0.00000000E+00
  0.00000000E+00  0.00000000E+00  0.00000000E+00
  0.00000000E+00  0.00000000E+00  0.00000000E+00
  0.00000000E+00  0.00000000E+00  0.00000000E+00
  0.00000000E+00  0.00000000E+00  0.00000000E+00
  0.00000000E+00  0.00000000E+00  0.00000000E+00
  0.00000000E+00  0.00000000E+00  0.00000000E+00
  0.00000000E+00  0.00000000E+00  0.00000000E+00
  0.00000000E+00  0.00000000E+00  0.00000000E+00
  0.00000000E+00  0.00000000E+00  0.00000000E+00
  0.00000000E+00  0.00000000E+00  0.00000000E+00
  0.00000000E+00  0.00000000E+00  0.00000000E+00
  0.00000000E+00  0.00000000E+00  0.00000000E+00
  0.00000000E+00  0.00000000E+00  0.00000000E+00
  0.00000000E+00  0.00000000E+00  0.00000000E+00
  0.00000000E+00  0.00000000E+00  0.00000000E+00
  0.00000000E+00  0.00000000E+00  0.00000000E+00
  0.00000000E+00  0.00000000E+00  0.00000000E+00
  0.00000000E+00  0.00000000E+00  0.00000000E+00
  0.00000000E+00  0.00000000E+00  0.00000000E+00
  0.00000000E+00  0.00000000E+00  0.00000000E+00
  0.00000000E+00  0.00000000E+00  0.00000000E+00
  0.00000000E+00  0.00000000E+00  0.00000000E+00
  0.00000000E+00  0.00000000E+00  0.00000000E+00
  0.00000000E+00  0.00000000E+00  0.00000000E+00
  0.00000000E+00  0.00000000E+00  0.00000000E+00
  0.00000000E+00  0.00000000E+00  0.00000000E+00
  0.00000000E+00  0.00000000E+00  0.00000000E+00
  0.00000000E+00  0.00000000E+00  0.00000000E+00
  0.00000000E+00  0.00000000E+00  0.00000000E+00
  0.00000000E+00  0.00000000E+00  0.00000000E+00
  0.00000000E+00  0.00000000E+00  0.00000000E+00
  0.00000000E+00  0.00000000E+00  0.00000000E+00
  0.00000000E+00  0.00000000E+00  0.00000000E+00
  0.00000000E+00  0.00000000E+00  0.00000000E+00
  0.00000000E+00  0.00000000E+00  0.00000000E+00
  0.00000000E+00  0.00000000E+00  0.00000000E+00
  0.00000000E+00  0.00000000E+00  0.00000000E+00
  0.00000000E+00  0.00000000E+00  0.00000000E+00
  0.00000000E+00  0.00000000E+00  0.00000000E+00
  0.00000000E+00  0.00000000E+00  0.00000000E+00
  0.00000000E+00  0.00000000E+00  0.00000000E+00
  0.00000000E+00  0.00000000E+00  0.00000000E+00
  0.00000000E+00  0.00000000E+00  0.00000000E+00
  0.00000000E+00  0.00000000E+00  0.00000000E+00
  0.00000000E+00  0.00000000E+00  0.00000000E+00
  0.00000000E+00  0.00000000E+00  0.00000000E+00
  0.00000000E+00  0.00000000E+00  0.00000000E+00
  0.00000000E+00  0.00000000E+00  0.00000000E+00
  0.00000000E+00  0.00000000E+00  0.00000000E+00
  0.00000000E+00  0.00000000E+00  0.00000000E+00
  0.00000000E+00  0.00000000E+00  0.00000000E+00
  0.00000000E+00  0.00000000E+00  0.00000000E+00
  0.00000000E+00  0.00000000E+00  0.00000000E+00
  0.00000000E+00  0.00000000E+00  0.00000000E+00
  0.00000000E+00  0.00000000E+00  0.00000000E+00
  0.00000000E+00  0.00000000E+00  0.00000000E+00
  0.00000000E+00  0.00000000E+00  0.00000000E+00
  0.00000000E+00  0.00000000E+00  0.00000000E+00
  0.00000000E+00  0.00000000E+00  0.00000000E+00
  0.00000000E+00  0.00000000E+00  0.00000000E+00
  0.00000000E+00  0.00000000E+00  0.00000000E+00
  0.00000000E+00  0.00000000E+00  0.00000000E+00
  0.00000000E+00  0.00000000E+00  0.00000000E+00
  0.00000000E+00  0.00000000E+00  0.00000000E+00
  0.00000000E+00  0.00000000E+00  0.00000000E+00
  0.00000000E+00  0.00000000E+00  0.00000000E+00
  0.00000000E+00  0.00000000E+00  0.00000000E+00
  0.00000000E+00  0.00000000E+00  0.00000000E+00
  0.00000000E+00  0.00000000E+00  0.00000000E+00
  0.00000000E+00  0.00000000E+00  0.00000000E+00
  0.00000000E+00  0.00000000E+00  0.00000000E+00
  0.00000000E+00  0.00000000E+00  0.00000000E+00
  0.00000000E+00  0.00000000E+00  0.00000000E+00
  0.00000000E+00  0.00000000E+00  0.00000000E+00
  0.00000000E+00  0.00000000E+00  0.00000000E+00
  0.00000000E+00  0.00000000E+00  0.00000000E+00
  0.00000000E+00  0.00000000E+00  0.00000000E+00
  0.00000000E+00  0.00000000E+00  0.00000000E+00
  0.00000000E+00  0.00000000E+00  0.00000000E+00
  0.00000000E+00  0.00000000E+00  0.00000000E+00
  0.00000000E+00  0.00000000E+00  0.00000000E+00
  0.00000000E+00  0.00000000E+00  0.00000000E+00
  0.00000000E+00  0.00000000E+00  0.00000000E+00
  0.00000000E+00  0.00000000E+00  0.00000000E+00
  0.00000000E+00  0.00000000E+00  0.00000000E+00
  0.00000000E+00  0.00000000E+00  0.00000000E+00
  0.00000000E+00  0.00000000E+00  0.00000000E+00
  0.00000000E+00  0.00000000E+00  0.00000000E+00
