Species order: N B                      
   2.51242800000000     
     5.9449720136058266    0.0000000000000000    0.0000000000000000
    -2.9724860068029120    5.1484967885702053   -0.0000000000000001
     0.0000000000000000    0.0000000000000009    5.3101128803662583
   N    B    C 
   142   142     4
Direct
  0.1117117685282182  0.0572710208235924  0.1250000000000000
  0.6067543877235461  0.5519779742046128  0.1250000000000000
  0.4438184642949939  0.0564532432410848  0.1250000000000000
  0.9460311734908430  0.5560722854748026  0.1250000000000000
  0.7773336363898663  0.0560961491829550  0.1250000000000000
  0.1105122530106758  0.7227781987988395  0.6250000000000000
  0.4438624896263154  0.7227925496018009  0.6250000000000000
  0.2771981002211700  0.2227515576401847  0.6250000000000000
  0.7771823448533753  0.7227868159041161  0.6250000000000000
  0.6105287890101724  0.2227738453424603  0.6250000000000000
  0.9438614124396939  0.2227661636565330  0.6250000000000000
  0.2775372665106869  0.7229484387033767  0.1250000000000000
  0.1118589009888384  0.2228626244770112  0.1250000000000000
  0.4412861737817179  0.2219271418503563  0.1250000000000000
  0.6100353009016042  0.7216988287821019  0.1250000000000000
  0.9460885217111868  0.7248842023845362  0.1250000000000000
  0.7770219851544375  0.2219741694879235  0.1250000000000000
  0.1105010986814627  0.8894439999355479  0.6250000000000000
  0.4438492848884454  0.8894495835082638  0.6250000000000000
  0.2771752137579992  0.3894232597618760  0.6250000000000000
  0.6105091140569214  0.3894455967806055  0.6250000000000000
  0.7771786511790811  0.8894567175180638  0.6250000000000000
  0.9438632076486473  0.3894553859892020  0.6250000000000000
  0.1104367935005378  0.3891359706447571  0.1250000000000000
  0.2775268056022216  0.8897243644670090  0.1250000000000000
  0.6105040268580583  0.8892435661342600  0.1250000000000000
  0.9442661783766105  0.8900248203442978  0.1250000000000000
  0.7764538154346792  0.3870834443029961  0.1250000000000000
  0.2772148837627723  0.5560804096677263  0.6250000000000000
  0.1105194549960962  0.0561147223630196  0.6250000000000000
  0.6105271411787676  0.5560989126192325  0.6250000000000000
  0.4438469876427290  0.0561080501034780  0.6250000000000000
  0.9438712185136123  0.5560986269972067  0.6250000000000000
  0.1112510090604569  0.5558611641570368  0.1250000000000000
  0.7771809539080320  0.0561289179571488  0.6250000000000000
  0.2771431501863985  0.0559460972223461  0.1250000000000000
  0.4426475760100250  0.5561647431292617  0.1250000000000000
  0.6104052365780791  0.0561708297741983  0.1250000000000000
  0.4438722196598833  0.5561276368445613  0.6250000000000000
  0.9443267809658903  0.0564019854172636  0.1250000000000000
  0.2771853176765188  0.7227664687193109  0.6250000000000000
  0.1105036800549389  0.2227596160111467  0.6250000000000000
  0.4438577378839413  0.2227811980735225  0.6250000000000000
  0.6105306910433133  0.7228003314707157  0.6250000000000000
  0.9438436544883819  0.7227863544880410  0.6250000000000000
  0.7771800057151613  0.2227904121844254  0.6250000000000000
  0.1113504812147596  0.7231709480869974  0.1250000000000000
  0.4438261889254522  0.7229971931845894  0.1250000000000000
  0.2807634876280026  0.2241777867655906  0.1250000000000000
  0.7762554665943618  0.7237980275153917  0.1250000000000000
  0.6092657521078673  0.2229379834662007  0.1250000000000000
  0.9443511354220592  0.2226194903483787  0.1250000000000000
  0.1105157865976242  0.3894316931985931  0.6250000000000000
  0.2771951083933643  0.8894203709523121  0.6250000000000000
  0.6105378135131297  0.8894553399292168  0.6250000000000000
  0.4438397469677313  0.3894463291240912  0.6250000000000000
  0.9438637656115568  0.8894442024980886  0.6250000000000000
  0.1114007722356880  0.8904555235124668  0.1250000000000000
  0.7771911491353520  0.3894500853833688  0.6250000000000000
  0.4439833108123786  0.8897438966009223  0.1250000000000000
  0.2767470132952380  0.3896124473388660  0.1250000000000000
  0.2770572512799113  0.5561079185606972  0.1250000000000000
  0.6080887784522132  0.3891191090748916  0.1250000000000000
  0.7772720486778216  0.8900548396157126  0.1250000000000000
  0.9438556918455336  0.3889759957186699  0.1250000000000000
  0.1105214506102262  0.5561036045272777  0.6250000000000000
  0.2771863998989417  0.0561038364682898  0.6250000000000000
  0.7771770820892793  0.5561062468415555  0.6250000000000000
  0.6105173084630419  0.0561328113871552  0.6250000000000000
  0.9438498395423447  0.0561193965968363  0.6250000000000000
  0.0561235382992066  0.1106053499239508  0.3750868548929813
  0.5560995887957071  0.6105774584913523  0.3753445507021471
  0.3894127597904086  0.1105346582616505  0.3751368312533105
  0.8895619585883738  0.6106458737909090  0.3757933840888937
  0.7227475402589184  0.1105811515201140  0.3751389961412107
  0.0561332453870370  0.7772808106837940  0.8749125841672863
  0.3894352044607156  0.7772672592716187  0.8749709199123487
  0.2228135391801270  0.2772866527848731  0.8747231052377956
  0.7227679336196169  0.7772488620845325  0.8748999058325502
  0.5560967990246403  0.2772248514483719  0.8747713677469446
  0.8894369836285158  0.2772596959213013  0.8748393507753667
  0.2227826584623937  0.7772540715884988  0.3749996569226224
  0.0561130484587787  0.2772636612166287  0.3750594884479079
  0.3894495041279242  0.2772057683830019  0.3757022495342217
  0.5561109412538265  0.7772552206273218  0.3750014352192738
  0.8894520454599596  0.7772560024690991  0.3751712400427266
  0.7227588073374347  0.2772386374569891  0.3752203480918930
  0.0561212918021786  0.9439290803080754  0.8749527349268612
  0.3894268157302467  0.9438862350007992  0.8749807797320761
  0.2227682411349904  0.4439496017979327  0.8748612168983845
  0.5561924415373540  0.4439404271637052  0.8742079000005444
  0.7227682640849254  0.9439083480067253  0.8749630283450479
  0.8894661828138994  0.4439428705259744  0.8748111071671616
  0.0560992944517498  0.4439486131289999  0.3750462242424031
  0.2227739544231031  0.9438932751801787  0.3750541274682823
  0.5560956078968723  0.9439051306066241  0.3751138016411253
  0.3894363877164065  0.4439593837549355  0.3756172556781060
  0.8894507947927129  0.9439247630336420  0.3751146812839992
  0.7227889026667969  0.4438751993423042  0.3758740235577485
  0.2227796095458451  0.6106098825667091  0.8749856232917258
  0.0561235382992066  0.1106053499239508  0.8749131451070188
  0.5560995887957071  0.6105774584913523  0.8746554492978543
  0.3894127597904086  0.1105346582616505  0.8748631687467008
  0.8895619585883738  0.6106458737909090  0.8742066159111060
  0.0561471497140874  0.6106221506197188  0.3750902650927371
  0.7227475402589141  0.1105811515201140  0.8748610038587761
  0.2228043014112677  0.1105831076991000  0.3750884275040864
  0.3894445530228262  0.6106146636393456  0.3750929897312186
  0.7227688047765384  0.6106083054231727  0.3759005839082674
  0.5560845316265997  0.1105557573944851  0.3750944264291681
  0.3894445530228262  0.6106146636393456  0.8749070102687991
  0.8894365953805691  0.1105862017601154  0.3751000991494283
  0.2227826584623937  0.7772540715884988  0.8750003430773798
  0.0561130484587787  0.2772636612166287  0.8749405115520960
  0.3894495041279254  0.2772057683830019  0.8742977504657766
  0.5561109412538265  0.7772552206273218  0.8749985647807341
  0.8894520454599596  0.7772560024690991  0.8748287599572848
  0.7227588073374347  0.2772386374569891  0.8747796519080978
  0.0561332453870368  0.7772808106837940  0.3750874158327213
  0.3894352044607156  0.7772672592716187  0.3750290800876521
  0.2228135391801270  0.2772866527848731  0.3752768947622064
  0.7227679336196169  0.7772488620845325  0.3751000941674601
  0.5560967990246403  0.2772248514483713  0.3752286322530491
  0.8894369836285158  0.2772596959213013  0.3751606492246354
  0.0560992944517498  0.4439486131289999  0.8749537757575950
  0.2227739544231031  0.9438932751801787  0.8749458725317215
  0.5560956078968723  0.9439051306066241  0.8748861983588707
  0.3894363877164065  0.4439593837549355  0.8743827443218845
  0.8894507947927129  0.9439247630336420  0.8748853187159878
  0.0561212918021786  0.9439290803080732  0.3750472650731390
  0.7227889026667969  0.4438751993423042  0.8741259764422395
  0.3894268157302467  0.9438862350007992  0.3750192202679179
  0.2227682411349904  0.4439496017979327  0.3751387831016230
  0.2227796095458451  0.6106098825667091  0.3750143767082688
  0.5561924415373540  0.4439404271637052  0.3757920999994525
  0.7227682640849254  0.9439083480067253  0.3750369716549470
  0.8894661828138994  0.4439428705259744  0.3751888928328339
  0.0561471497140874  0.6106221506197188  0.8749097349072584
  0.2228043014112677  0.1105831076991000  0.8749115724959220
  0.7227688047765384  0.6106083054231727  0.8740994160917360
  0.5560845316265997  0.1105557573944851  0.8749055735708242
  0.8894365953805691  0.1105862017601154  0.8748999008505707
  0.1116971076665410  0.0550114738630373  0.3749309570548623
  0.6118473402265684  0.5549520743289945  0.3751444865702802
  0.4449810178766633  0.0550485064172545  0.3749348991502335
  0.9449010728042379  0.5550879940832694  0.3748481332152184
  0.7783038129245732  0.0550090571109861  0.3749784797918869
  0.1115816826275285  0.7216608059320195  0.8751938350868724
  0.4450023722741055  0.7216622347230894  0.8751071348166458
  0.2785576475925540  0.2217749464722659  0.8748611482977174
  0.7782613969676667  0.7214511212908776  0.8751422743063788
  0.6116882982283636  0.2217712467216504  0.8750491004800131
  0.9450183736508100  0.2217118146634339  0.8750067760154323
  0.2783315036359407  0.7217462350677391  0.3748741454438219
  0.1117002847211557  0.2217295122012712  0.3750104435008699
  0.4449850586884611  0.2217710825631708  0.3750888872331642
  0.6116987574315594  0.7216170704091737  0.3748629303869468
  0.9448927488025511  0.7215398189841341  0.3748376520978982
  0.7782367281314543  0.2217527288953335  0.3750110428068680
  0.1115568524420099  0.8882435053608445  0.8751274290683934
  0.4449208569106307  0.8883165659170679  0.8750434622911615
  0.2785226809448201  0.3885201770028523  0.8748103419042488
  0.6118588234880673  0.3886038184715213  0.8748846963627229
  0.7782507529697185  0.8882107843631200  0.8751250441027780
  0.9449529883441541  0.3885247394898516  0.8750995316410346
  0.1116743529467855  0.3884366975839074  0.3749412387601453
  0.2783247690538304  0.8883064576446963  0.3748874937289465
  0.6116813929278797  0.8882731010341184  0.3749175378678016
  0.4451855980118301  0.3884343525727200  0.3745706662621643
  0.9449568883332222  0.8881700691990699  0.3748758340522829
  0.7782709302851266  0.3885266238974057  0.3749202469759332
  0.2783819854950552  0.5550335454660948  0.8750675781708337
  0.1116971076665410  0.0550114738630370  0.8750690429451420
  0.6118473402265684  0.5549520743289945  0.8748555134297161
  0.4449810178766633  0.0550485064172545  0.8750651008497820
  0.9449010728042379  0.5550879940832694  0.8751518667847796
  0.1115454327970161  0.5550482849697019  0.3748481822689376
  0.7783038129245732  0.0550090571109861  0.8750215202081115
  0.2783845410533151  0.0550837056579288  0.3749803770784216
  0.4450092566043594  0.5549534432349948  0.3751270387985803
  0.7782997938478592  0.5550034658704341  0.3737760816161286
  0.6116601486147837  0.0550971872671329  0.3750113401721303
  0.4450092566043594  0.5549534432349948  0.8748729612014111
  0.9450198059696456  0.0550395869588242  0.3749799449642849
  0.2783315036359407  0.7217462350677391  0.8751258545561982
  0.1117002847211557  0.2217295122012712  0.8749895564991279
  0.4449850586884611  0.2217710825631708  0.8749111127668351
  0.6116987574315594  0.7216170704091737  0.8751370696130385
  0.9448927488025511  0.7215398189841341  0.8751623479020969
  0.7782367281314543  0.2217527288953335  0.8749889571931275
  0.1115816826275282  0.7216608059320195  0.3748061649131189
  0.4450023722741055  0.7216622347230894  0.3748928651833475
  0.2785576475925540  0.2217749464722659  0.3751388517022838
  0.7782613969676667  0.7214511212908776  0.3748577256936229
  0.6116882982283636  0.2217712467216504  0.3749508995199822
  0.9450183736508100  0.2217118146634339  0.3749932239845725
  0.1116743529467855  0.3884366975839074  0.8750587612398648
  0.2783247690538304  0.8883064576446963  0.8751125062710436
  0.6116813929278797  0.8882731010341184  0.8750824621321931
  0.4451855980118310  0.3884343525727200  0.8754293337378420
  0.9449568883332222  0.8881700691990699  0.8751241659477085
  0.1115568524420099  0.8882435053608445  0.3748725709316060
  0.7782709302851266  0.3885266238974057  0.8750797530240865
  0.4449208569106307  0.8883165659170679  0.3749565377088501
  0.2785226809448201  0.3885201770028523  0.3751896580957511
  0.2783819854950552  0.5550335454660948  0.3749324218291660
  0.6118588234880673  0.3886038184715213  0.3751153036372833
  0.7782507529697185  0.8882107843631200  0.3748749558972261
  0.9449529883441541  0.3885247394898516  0.3749004683589807
  0.1115454327970161  0.5550482849697019  0.8751518177310583
  0.2783845410533151  0.0550837056579288  0.8750196229215841
  0.7782997938478592  0.5550034658704341  0.8762239183838694
  0.6116601486147837  0.0550971872671329  0.8749886598278627
  0.9450198059696456  0.0550395869588242  0.8750200550357252
  0.0555329024410376  0.1119997052941220  0.1250000000000000
  0.5534644234432637  0.6092754342053397  0.1250000000000000
  0.3877808922113966  0.1116960289547354  0.1250000000000000
  0.8899521372329845  0.6124089287498178  0.1250000000000000
  0.7216220536373162  0.1114392144919405  0.1250000000000000
  0.0548506864371700  0.7783574583000163  0.6250000000000000
  0.3882574933379901  0.7783794787746644  0.6250000000000000
  0.2216525536118393  0.2783404214881730  0.6250000000000000
  0.7215882024490452  0.7783418239440669  0.6250000000000000
  0.5549803452142188  0.2784054565730394  0.6250000000000000
  0.8882883227512399  0.2783701410145960  0.6250000000000000
  0.2218786107936715  0.7784851189701429  0.1250000000000000
  0.0556856319491055  0.2781399112452721  0.1250000000000000
  0.5551025770862670  0.7776235557415710  0.1250000000000000
  0.8878613109152216  0.7777261427255869  0.1250000000000000
  0.7211884324791159  0.2776685870155533  0.1250000000000000
  0.0549151721629755  0.9449258580233265  0.6250000000000000
  0.3882513299807268  0.9449255112496812  0.6250000000000000
  0.2217199437766351  0.4450070866567078  0.6250000000000000
  0.5550425473952758  0.4450506770563539  0.6250000000000000
  0.7215977225472482  0.9449368279119117  0.6250000000000000
  0.8883555731805867  0.4450630970953376  0.6250000000000000
  0.0547826881943138  0.4447374853221865  0.1250000000000000
  0.2219235775548455  0.9452848177936675  0.1250000000000000
  0.5550798716188560  0.9450159470118921  0.1250000000000000
  0.3877509749932171  0.4454206223591289  0.1250000000000000
  0.8884894487918609  0.9450806465465661  0.1250000000000000
  0.7207255920046224  0.4438528335764859  0.1250000000000000
  0.2216243734618473  0.6116486457431336  0.6250000000000000
  0.0549231245092141  0.1117162209409169  0.6250000000000000
  0.5549941201229990  0.6116574421461741  0.6250000000000000
  0.3882666607757648  0.1117524454969037  0.6250000000000000
  0.8882320447438748  0.6116456609540721  0.6250000000000000
  0.0556099398051270  0.6114140456454018  0.1250000000000000
  0.7215719306061736  0.1117630988803323  0.6250000000000000
  0.2231051358755823  0.1127483234615850  0.1250000000000000
  0.3880049110687970  0.6118341224793744  0.1250000000000000
  0.7199968478712168  0.6108639055581545  0.1250000000000000
  0.5548995717409353  0.1121921117294944  0.1250000000000000
  0.3883050210511960  0.6115903716093719  0.6250000000000000
  0.8886011725207915  0.1116660039684469  0.1250000000000000
  0.2216676372960111  0.7783465878541971  0.6250000000000000
  0.0549253854327265  0.2782450820632464  0.6250000000000000
  0.3882950287912590  0.2783119113733694  0.6250000000000000
  0.5550796360972443  0.7783751479872956  0.6250000000000000
  0.8883273053255146  0.7783239626118975  0.6250000000000000
  0.7216032999154849  0.2783276645832874  0.6250000000000000
  0.0556598111684917  0.7791780440628927  0.1250000000000000
  0.3884412008487986  0.7785742459546477  0.1250000000000000
  0.2236039630032755  0.2789016273446666  0.1250000000000000
  0.7215168800890395  0.7785681854971298  0.1250000000000000
  0.5530544092086945  0.2787497224536548  0.1250000000000000
  0.8883724734553125  0.2781376068625889  0.1250000000000000
  0.0548997017736578  0.4450364212647911  0.6250000000000000
  0.2216112182607937  0.9450053108348094  0.6250000000000000
  0.5549707760779133  0.9450339899391806  0.6250000000000000
  0.3882745006873686  0.4450505033283977  0.6250000000000000
  0.8882850215217831  0.9449938330668457  0.6250000000000000
  0.0554341218455437  0.9455574057946362  0.1250000000000000
  0.7215822270763647  0.4450842563069987  0.6250000000000000
  0.3884453064252905  0.9453956817794724  0.1250000000000000
  0.2214230992387108  0.4449150200420778  0.1250000000000000
  0.2218832104927606  0.6116413009304743  0.1250000000000000
  0.7216854252867061  0.9450239263713829  0.1250000000000000
  0.8878346546736982  0.4449626781854632  0.1250000000000000
  0.0548845228494997  0.6115868966452539  0.6250000000000000
  0.2217390098525464  0.1117299401850420  0.6250000000000000
  0.7215880005096700  0.6115521060968325  0.6250000000000000
  0.5550476034452410  0.1117506239685826  0.6250000000000000
  0.8883636980173268  0.1117135493142328  0.6250000000000000
  0.4460421765724241  0.3869754324254603  0.1250000000000000
  0.7773312239409570  0.5560051486862168  0.1250000000000000
  0.3897241965203740  0.2787948038369688  0.1250000000000000
  0.5539539627861372  0.4433210556706222  0.1250000000000000
 
  0.00000000E+00  0.00000000E+00  0.00000000E+00
  0.00000000E+00  0.00000000E+00  0.00000000E+00
  0.00000000E+00  0.00000000E+00  0.00000000E+00
  0.00000000E+00  0.00000000E+00  0.00000000E+00
  0.00000000E+00  0.00000000E+00  0.00000000E+00
  0.00000000E+00  0.00000000E+00  0.00000000E+00
  0.00000000E+00  0.00000000E+00  0.00000000E+00
  0.00000000E+00  0.00000000E+00  0.00000000E+00
  0.00000000E+00  0.00000000E+00  0.00000000E+00
  0.00000000E+00  0.00000000E+00  0.00000000E+00
  0.00000000E+00  0.00000000E+00  0.00000000E+00
  0.00000000E+00  0.00000000E+00  0.00000000E+00
  0.00000000E+00  0.00000000E+00  0.00000000E+00
  0.00000000E+00  0.00000000E+00  0.00000000E+00
  0.00000000E+00  0.00000000E+00  0.00000000E+00
  0.00000000E+00  0.00000000E+00  0.00000000E+00
  0.00000000E+00  0.00000000E+00  0.00000000E+00
  0.00000000E+00  0.00000000E+00  0.00000000E+00
  0.00000000E+00  0.00000000E+00  0.00000000E+00
  0.00000000E+00  0.00000000E+00  0.00000000E+00
  0.00000000E+00  0.00000000E+00  0.00000000E+00
  0.00000000E+00  0.00000000E+00  0.00000000E+00
  0.00000000E+00  0.00000000E+00  0.00000000E+00
  0.00000000E+00  0.00000000E+00  0.00000000E+00
  0.00000000E+00  0.00000000E+00  0.00000000E+00
  0.00000000E+00  0.00000000E+00  0.00000000E+00
  0.00000000E+00  0.00000000E+00  0.00000000E+00
  0.00000000E+00  0.00000000E+00  0.00000000E+00
  0.00000000E+00  0.00000000E+00  0.00000000E+00
  0.00000000E+00  0.00000000E+00  0.00000000E+00
  0.00000000E+00  0.00000000E+00  0.00000000E+00
  0.00000000E+00  0.00000000E+00  0.00000000E+00
  0.00000000E+00  0.00000000E+00  0.00000000E+00
  0.00000000E+00  0.00000000E+00  0.00000000E+00
  0.00000000E+00  0.00000000E+00  0.00000000E+00
  0.00000000E+00  0.00000000E+00  0.00000000E+00
  0.00000000E+00  0.00000000E+00  0.00000000E+00
  0.00000000E+00  0.00000000E+00  0.00000000E+00
  0.00000000E+00  0.00000000E+00  0.00000000E+00
  0.00000000E+00  0.00000000E+00  0.00000000E+00
  0.00000000E+00  0.00000000E+00  0.00000000E+00
  0.00000000E+00  0.00000000E+00  0.00000000E+00
  0.00000000E+00  0.00000000E+00  0.00000000E+00
  0.00000000E+00  0.00000000E+00  0.00000000E+00
  0.00000000E+00  0.00000000E+00  0.00000000E+00
  0.00000000E+00  0.00000000E+00  0.00000000E+00
  0.00000000E+00  0.00000000E+00  0.00000000E+00
  0.00000000E+00  0.00000000E+00  0.00000000E+00
  0.00000000E+00  0.00000000E+00  0.00000000E+00
  0.00000000E+00  0.00000000E+00  0.00000000E+00
  0.00000000E+00  0.00000000E+00  0.00000000E+00
  0.00000000E+00  0.00000000E+00  0.00000000E+00
  0.00000000E+00  0.00000000E+00  0.00000000E+00
  0.00000000E+00  0.00000000E+00  0.00000000E+00
  0.00000000E+00  0.00000000E+00  0.00000000E+00
  0.00000000E+00  0.00000000E+00  0.00000000E+00
  0.00000000E+00  0.00000000E+00  0.00000000E+00
  0.00000000E+00  0.00000000E+00  0.00000000E+00
  0.00000000E+00  0.00000000E+00  0.00000000E+00
  0.00000000E+00  0.00000000E+00  0.00000000E+00
  0.00000000E+00  0.00000000E+00  0.00000000E+00
  0.00000000E+00  0.00000000E+00  0.00000000E+00
  0.00000000E+00  0.00000000E+00  0.00000000E+00
  0.00000000E+00  0.00000000E+00  0.00000000E+00
  0.00000000E+00  0.00000000E+00  0.00000000E+00
  0.00000000E+00  0.00000000E+00  0.00000000E+00
  0.00000000E+00  0.00000000E+00  0.00000000E+00
  0.00000000E+00  0.00000000E+00  0.00000000E+00
  0.00000000E+00  0.00000000E+00  0.00000000E+00
  0.00000000E+00  0.00000000E+00  0.00000000E+00
  0.00000000E+00  0.00000000E+00  0.00000000E+00
  0.00000000E+00  0.00000000E+00  0.00000000E+00
  0.00000000E+00  0.00000000E+00  0.00000000E+00
  0.00000000E+00  0.00000000E+00  0.00000000E+00
  0.00000000E+00  0.00000000E+00  0.00000000E+00
  0.00000000E+00  0.00000000E+00  0.00000000E+00
  0.00000000E+00  0.00000000E+00  0.00000000E+00
  0.00000000E+00  0.00000000E+00  0.00000000E+00
  0.00000000E+00  0.00000000E+00  0.00000000E+00
  0.00000000E+00  0.00000000E+00  0.00000000E+00
  0.00000000E+00  0.00000000E+00  0.00000000E+00
  0.00000000E+00  0.00000000E+00  0.00000000E+00
  0.00000000E+00  0.00000000E+00  0.00000000E+00
  0.00000000E+00  0.00000000E+00  0.00000000E+00
  0.00000000E+00  0.00000000E+00  0.00000000E+00
  0.00000000E+00  0.00000000E+00  0.00000000E+00
  0.00000000E+00  0.00000000E+00  0.00000000E+00
  0.00000000E+00  0.00000000E+00  0.00000000E+00
  0.00000000E+00  0.00000000E+00  0.00000000E+00
  0.00000000E+00  0.00000000E+00  0.00000000E+00
  0.00000000E+00  0.00000000E+00  0.00000000E+00
  0.00000000E+00  0.00000000E+00  0.00000000E+00
  0.00000000E+00  0.00000000E+00  0.00000000E+00
  0.00000000E+00  0.00000000E+00  0.00000000E+00
  0.00000000E+00  0.00000000E+00  0.00000000E+00
  0.00000000E+00  0.00000000E+00  0.00000000E+00
  0.00000000E+00  0.00000000E+00  0.00000000E+00
  0.00000000E+00  0.00000000E+00  0.00000000E+00
  0.00000000E+00  0.00000000E+00  0.00000000E+00
  0.00000000E+00  0.00000000E+00  0.00000000E+00
  0.00000000E+00  0.00000000E+00  0.00000000E+00
  0.00000000E+00  0.00000000E+00  0.00000000E+00
  0.00000000E+00  0.00000000E+00  0.00000000E+00
  0.00000000E+00  0.00000000E+00  0.00000000E+00
  0.00000000E+00  0.00000000E+00  0.00000000E+00
  0.00000000E+00  0.00000000E+00  0.00000000E+00
  0.00000000E+00  0.00000000E+00  0.00000000E+00
  0.00000000E+00  0.00000000E+00  0.00000000E+00
  0.00000000E+00  0.00000000E+00  0.00000000E+00
  0.00000000E+00  0.00000000E+00  0.00000000E+00
  0.00000000E+00  0.00000000E+00  0.00000000E+00
  0.00000000E+00  0.00000000E+00  0.00000000E+00
  0.00000000E+00  0.00000000E+00  0.00000000E+00
  0.00000000E+00  0.00000000E+00  0.00000000E+00
  0.00000000E+00  0.00000000E+00  0.00000000E+00
  0.00000000E+00  0.00000000E+00  0.00000000E+00
  0.00000000E+00  0.00000000E+00  0.00000000E+00
  0.00000000E+00  0.00000000E+00  0.00000000E+00
  0.00000000E+00  0.00000000E+00  0.00000000E+00
  0.00000000E+00  0.00000000E+00  0.00000000E+00
  0.00000000E+00  0.00000000E+00  0.00000000E+00
  0.00000000E+00  0.00000000E+00  0.00000000E+00
  0.00000000E+00  0.00000000E+00  0.00000000E+00
  0.00000000E+00  0.00000000E+00  0.00000000E+00
  0.00000000E+00  0.00000000E+00  0.00000000E+00
  0.00000000E+00  0.00000000E+00  0.00000000E+00
  0.00000000E+00  0.00000000E+00  0.00000000E+00
  0.00000000E+00  0.00000000E+00  0.00000000E+00
  0.00000000E+00  0.00000000E+00  0.00000000E+00
  0.00000000E+00  0.00000000E+00  0.00000000E+00
  0.00000000E+00  0.00000000E+00  0.00000000E+00
  0.00000000E+00  0.00000000E+00  0.00000000E+00
  0.00000000E+00  0.00000000E+00  0.00000000E+00
  0.00000000E+00  0.00000000E+00  0.00000000E+00
  0.00000000E+00  0.00000000E+00  0.00000000E+00
  0.00000000E+00  0.00000000E+00  0.00000000E+00
  0.00000000E+00  0.00000000E+00  0.00000000E+00
  0.00000000E+00  0.00000000E+00  0.00000000E+00
  0.00000000E+00  0.00000000E+00  0.00000000E+00
  0.00000000E+00  0.00000000E+00  0.00000000E+00
  0.00000000E+00  0.00000000E+00  0.00000000E+00
  0.00000000E+00  0.00000000E+00  0.00000000E+00
  0.00000000E+00  0.00000000E+00  0.00000000E+00
  0.00000000E+00  0.00000000E+00  0.00000000E+00
  0.00000000E+00  0.00000000E+00  0.00000000E+00
  0.00000000E+00  0.00000000E+00  0.00000000E+00
  0.00000000E+00  0.00000000E+00  0.00000000E+00
  0.00000000E+00  0.00000000E+00  0.00000000E+00
  0.00000000E+00  0.00000000E+00  0.00000000E+00
  0.00000000E+00  0.00000000E+00  0.00000000E+00
  0.00000000E+00  0.00000000E+00  0.00000000E+00
  0.00000000E+00  0.00000000E+00  0.00000000E+00
  0.00000000E+00  0.00000000E+00  0.00000000E+00
  0.00000000E+00  0.00000000E+00  0.00000000E+00
  0.00000000E+00  0.00000000E+00  0.00000000E+00
  0.00000000E+00  0.00000000E+00  0.00000000E+00
  0.00000000E+00  0.00000000E+00  0.00000000E+00
  0.00000000E+00  0.00000000E+00  0.00000000E+00
  0.00000000E+00  0.00000000E+00  0.00000000E+00
  0.00000000E+00  0.00000000E+00  0.00000000E+00
  0.00000000E+00  0.00000000E+00  0.00000000E+00
  0.00000000E+00  0.00000000E+00  0.00000000E+00
  0.00000000E+00  0.00000000E+00  0.00000000E+00
  0.00000000E+00  0.00000000E+00  0.00000000E+00
  0.00000000E+00  0.00000000E+00  0.00000000E+00
  0.00000000E+00  0.00000000E+00  0.00000000E+00
  0.00000000E+00  0.00000000E+00  0.00000000E+00
  0.00000000E+00  0.00000000E+00  0.00000000E+00
  0.00000000E+00  0.00000000E+00  0.00000000E+00
  0.00000000E+00  0.00000000E+00  0.00000000E+00
  0.00000000E+00  0.00000000E+00  0.00000000E+00
  0.00000000E+00  0.00000000E+00  0.00000000E+00
  0.00000000E+00  0.00000000E+00  0.00000000E+00
  0.00000000E+00  0.00000000E+00  0.00000000E+00
  0.00000000E+00  0.00000000E+00  0.00000000E+00
  0.00000000E+00  0.00000000E+00  0.00000000E+00
  0.00000000E+00  0.00000000E+00  0.00000000E+00
  0.00000000E+00  0.00000000E+00  0.00000000E+00
  0.00000000E+00  0.00000000E+00  0.00000000E+00
  0.00000000E+00  0.00000000E+00  0.00000000E+00
  0.00000000E+00  0.00000000E+00  0.00000000E+00
  0.00000000E+00  0.00000000E+00  0.00000000E+00
  0.00000000E+00  0.00000000E+00  0.00000000E+00
  0.00000000E+00  0.00000000E+00  0.00000000E+00
  0.00000000E+00  0.00000000E+00  0.00000000E+00
  0.00000000E+00  0.00000000E+00  0.00000000E+00
  0.00000000E+00  0.00000000E+00  0.00000000E+00
  0.00000000E+00  0.00000000E+00  0.00000000E+00
  0.00000000E+00  0.00000000E+00  0.00000000E+00
  0.00000000E+00  0.00000000E+00  0.00000000E+00
  0.00000000E+00  0.00000000E+00  0.00000000E+00
  0.00000000E+00  0.00000000E+00  0.00000000E+00
  0.00000000E+00  0.00000000E+00  0.00000000E+00
  0.00000000E+00  0.00000000E+00  0.00000000E+00
  0.00000000E+00  0.00000000E+00  0.00000000E+00
  0.00000000E+00  0.00000000E+00  0.00000000E+00
  0.00000000E+00  0.00000000E+00  0.00000000E+00
  0.00000000E+00  0.00000000E+00  0.00000000E+00
  0.00000000E+00  0.00000000E+00  0.00000000E+00
  0.00000000E+00  0.00000000E+00  0.00000000E+00
  0.00000000E+00  0.00000000E+00  0.00000000E+00
  0.00000000E+00  0.00000000E+00  0.00000000E+00
  0.00000000E+00  0.00000000E+00  0.00000000E+00
  0.00000000E+00  0.00000000E+00  0.00000000E+00
  0.00000000E+00  0.00000000E+00  0.00000000E+00
  0.00000000E+00  0.00000000E+00  0.00000000E+00
  0.00000000E+00  0.00000000E+00  0.00000000E+00
  0.00000000E+00  0.00000000E+00  0.00000000E+00
  0.00000000E+00  0.00000000E+00  0.00000000E+00
  0.00000000E+00  0.00000000E+00  0.00000000E+00
  0.00000000E+00  0.00000000E+00  0.00000000E+00
  0.00000000E+00  0.00000000E+00  0.00000000E+00
  0.00000000E+00  0.00000000E+00  0.00000000E+00
  0.00000000E+00  0.00000000E+00  0.00000000E+00
  0.00000000E+00  0.00000000E+00  0.00000000E+00
  0.00000000E+00  0.00000000E+00  0.00000000E+00
  0.00000000E+00  0.00000000E+00  0.00000000E+00
  0.00000000E+00  0.00000000E+00  0.00000000E+00
  0.00000000E+00  0.00000000E+00  0.00000000E+00
  0.00000000E+00  0.00000000E+00  0.00000000E+00
  0.00000000E+00  0.00000000E+00  0.00000000E+00
  0.00000000E+00  0.00000000E+00  0.00000000E+00
  0.00000000E+00  0.00000000E+00  0.00000000E+00
  0.00000000E+00  0.00000000E+00  0.00000000E+00
  0.00000000E+00  0.00000000E+00  0.00000000E+00
  0.00000000E+00  0.00000000E+00  0.00000000E+00
  0.00000000E+00  0.00000000E+00  0.00000000E+00
  0.00000000E+00  0.00000000E+00  0.00000000E+00
  0.00000000E+00  0.00000000E+00  0.00000000E+00
  0.00000000E+00  0.00000000E+00  0.00000000E+00
  0.00000000E+00  0.00000000E+00  0.00000000E+00
  0.00000000E+00  0.00000000E+00  0.00000000E+00
  0.00000000E+00  0.00000000E+00  0.00000000E+00
  0.00000000E+00  0.00000000E+00  0.00000000E+00
  0.00000000E+00  0.00000000E+00  0.00000000E+00
  0.00000000E+00  0.00000000E+00  0.00000000E+00
  0.00000000E+00  0.00000000E+00  0.00000000E+00
  0.00000000E+00  0.00000000E+00  0.00000000E+00
  0.00000000E+00  0.00000000E+00  0.00000000E+00
  0.00000000E+00  0.00000000E+00  0.00000000E+00
  0.00000000E+00  0.00000000E+00  0.00000000E+00
  0.00000000E+00  0.00000000E+00  0.00000000E+00
  0.00000000E+00  0.00000000E+00  0.00000000E+00
  0.00000000E+00  0.00000000E+00  0.00000000E+00
  0.00000000E+00  0.00000000E+00  0.00000000E+00
  0.00000000E+00  0.00000000E+00  0.00000000E+00
  0.00000000E+00  0.00000000E+00  0.00000000E+00