Al B N                                  
   1.0000000000000000     
     8.7639499999999995  -15.1796066749929999    0.0000000000000000
     8.7639499999999995   15.1796066749929999    0.0000000000000000
     0.0000000000000000    0.0000000000000000   15.0000000000000000
   Al   B    N 
     1    48    48
Selective dynamics
Direct
  0.4238136539337102  0.4710151069265496  0.1108582251981836   T   T   T
  0.9089781767212703  0.9556057538993132  0.1106352404805809   T   T   T
  0.9071601884017306  0.0981014318912533  0.1107048317857307   T   T   T
  0.9061606535288670  0.2406096785543578  0.1107610671611160   T   T   T
  0.9047584822675189  0.3824218266466000  0.1106578398921676   T   T   T
  0.9029859846737915  0.5239259084278217  0.1106768742784673   T   T   T
  0.9063328340463275  0.6666694621228667  0.1107610141227512   T   T   T
  0.9097778984488973  0.8123174500912773  0.1106903508465458   T   T   T
  0.0488235340386757  0.9500653515124179  0.1106501691098472   T   T   T
  0.0473700307700129  0.0928942829907937  0.1106232451642754   T   T   T
  0.0487422701004448  0.2382990054177876  0.1107477587404862   T   T   T
  0.0494817367816934  0.3815016269562859  0.1106587158105205   T   T   T
  0.0489847205679277  0.5231558755365249  0.1105694257042902   T   T   T
  0.0490953856637227  0.6648974958219749  0.1106934478456011   T   T   T
  0.0492871268509331  0.8073259931553138  0.1106993360686014   T   T   T
  0.1907318666142571  0.9474566057591667  0.1106951212760203   T   T   T
  0.1874249115195635  0.0871499155876217  0.1104755991196614   T   T   T
  0.1857316909993739  0.2293320804073167  0.1109499387521145   T   T   T
  0.1932317879071233  0.3794268462251900  0.1110514767488658   T   T   T
  0.1948735528081854  0.5226862541956547  0.1106349204760229   T   T   T
  0.1935314845093910  0.6647448558041911  0.1105993503028626   T   T   T
  0.1922381455392554  0.8063457360267875  0.1107482200582268   T   T   T
  0.3346050106807061  0.9485306301195097  0.1108441954016846   T   T   T
  0.3321661830540997  0.0871760059294455  0.1104007709214568   T   T   T
  0.3256244113654310  0.2202905975011892  0.1110622749575213   T   T   T
  0.3224356227607901  0.3563982805233206  0.1112307610142555   T   T   T
  0.3424927501730443  0.5279402153849456  0.1111890785317765   T   T   T
  0.3388161659762305  0.6678904592780576  0.1105636272562218   T   T   T
  0.3364473669706970  0.8082562724249431  0.1107562760357205   T   T   T
  0.4788017266462349  0.9523864464553358  0.1108521819516656   T   T   T
  0.4769696287112303  0.0935727557792432  0.1107056915568181   T   T   T
  0.4737833768780903  0.2338097598998818  0.1105150222423256   T   T   T
  0.4636969467926434  0.3694512456366778  0.1114108820281871   T   T   T
  0.4853854338617445  0.6686798304368126  0.1106818162097194   T   T   T
  0.4810971347165515  0.8108259307283991  0.1107711651690918   T   T   T
  0.6226214253351855  0.9568321463739214  0.1107837378686362   T   T   T
  0.6207809196334144  0.0982206898850577  0.1107272503952625   T   T   T
  0.6184646281186361  0.2406917468150917  0.1106745157207913   T   T   T
  0.6132647498482490  0.3842381407656528  0.1107505128292786   T   T   T
  0.6155742861148650  0.5422316903429051  0.1107484332126468   T   T   T
  0.6365654768175238  0.6850846632290840  0.1106822614674302   T   T   T
  0.6257213692012130  0.8172653970715225  0.1107094623187433   T   T   T
  0.7664291672305742  0.9579999437070458  0.1107026569323750   T   T   T
  0.7642676348527903  0.0993200340965303  0.1107147590167689   T   T   T
  0.7624233069523584  0.2412420901093228  0.1107328196662026   T   T   T
  0.7595062696238686  0.3832918536602906  0.1107165151107632   T   T   T
  0.7560453994848083  0.5259126187586047  0.1107523327999195   T   T   T
  0.7706852563159589  0.6747946526775737  0.1107183309838926   T   T   T
  0.7711945477795302  0.8187547596586184  0.1106415785417754   T   T   T
  0.9553438820000394  0.9063064147651914  0.1106459409203059   T   T   T
  0.9538314685572202  0.0492595127311564  0.1106405062935577   T   T   T
  0.9537518965736326  0.1927409971455843  0.1107349879404402   T   T   T
  0.9535575556822565  0.3353497701353114  0.1106636226324743   T   T   T
  0.9525419730307411  0.4771222088715384  0.1105861548743029   T   T   T
  0.9535885658783209  0.6187807572854949  0.1107168231453153   T   T   T
  0.9548180885049160  0.7619024648545288  0.1107108507983556   T   T   T
  0.0960639514064060  0.9017521352622784  0.1106630331531639   T   T   T
  0.0937007237793098  0.0434843305636407  0.1105974439261135   T   T   T
  0.0923166098819357  0.1864089822868518  0.1106596023988208   T   T   T
  0.0969289862212522  0.3335448948812865  0.1107741868374700   T   T   T
  0.0979821266549541  0.4764119763050259  0.1105364543183015   T   T   T
  0.0975519816689960  0.6180319347929546  0.1106020645275698   T   T   T
  0.0969987290254499  0.7597157256475576  0.1106883334311492   T   T   T
  0.2393308326831745  0.9009071852074154  0.1107966009578888   T   T   T
  0.2369488832087632  0.0411398357838918  0.1105122002764139   T   T   T
  0.2318256200307380  0.1794910285833559  0.1105066019870444   T   T   T
  0.2310265526073272  0.3224077088026387  0.1114175927206884   T   T   T
  0.2437904770848674  0.4759606535521632  0.1109225507677182   T   T   T
  0.2424381577509114  0.6184597594162015  0.1105264928198756   T   T   T
  0.2408424329292303  0.7598817657971721  0.1106833608615928   T   T   T
  0.3835166220793335  0.9030178404578151  0.1108732112911937   T   T   T
  0.3817095658955698  0.0426077252588395  0.1106902448301310   T   T   T
  0.3784847841171245  0.1798687208166510  0.1101849746466066   T   T   T
  0.3697373268179826  0.3103367192808962  0.1122910772860898   T   T   T
  0.3885837948919104  0.6232835992724759  0.1105830517124430   T   T   T
  0.3855350023379730  0.7629094783390988  0.1106776238602649   T   T   T
  0.5275757265070804  0.9064591827684393  0.1108182081177252   T   T   T
  0.5257384606022035  0.0476463071572917  0.1107806893969761   T   T   T
  0.5234924975847546  0.1885629595850006  0.1105896739568403   T   T   T
  0.5182566851346034  0.3285193306771950  0.1107191153611245   T   T   T
  0.5341180690396774  0.5465560607256756  0.1106228163585253   T   T   T
  0.5453812610647166  0.6337462008379631  0.1106591613572265   T   T   T
  0.5307950728363979  0.7654876691906324  0.1107301128431124   T   T   T
  0.6717098146811699  0.9116106341501893  0.1107352605147559   T   T   T
  0.6692974388762776  0.0517513880712221  0.1106993530895767   T   T   T
  0.6672997714518575  0.1935482315123257  0.1106967123999138   T   T   T
  0.6640262431941226  0.3366801053228787  0.1106991590032915   T   T   T
  0.6582333224995432  0.4817053721691027  0.1107660959539308   T   T   T
  0.6796251251097705  0.6346134435394558  0.1107124572952555   T   T   T
  0.6786299845853111  0.7766768776708670  0.1106151687571541   T   T   T
  0.8157143355444861  0.9120703344873630  0.1106288441977340   T   T   T
  0.8125476377946733  0.0523879376118311  0.1106902675501079   T   T   T
  0.8109507704863037  0.1940983123853804  0.1107412583162832   T   T   T
  0.8090254159353837  0.3361674341637431  0.1106953857946846   T   T   T
  0.8063951801970665  0.4783069977314033  0.1107024705981886   T   T   T
  0.8117581849774974  0.6215192330834143  0.1107387541074873   T   T   T
  0.8169510799183903  0.7691664589655834  0.1106404969389291   T   T   T

  0.00000000E+00  0.00000000E+00  0.00000000E+00
  0.00000000E+00  0.00000000E+00  0.00000000E+00
  0.00000000E+00  0.00000000E+00  0.00000000E+00
  0.00000000E+00  0.00000000E+00  0.00000000E+00
  0.00000000E+00  0.00000000E+00  0.00000000E+00
  0.00000000E+00  0.00000000E+00  0.00000000E+00
  0.00000000E+00  0.00000000E+00  0.00000000E+00
  0.00000000E+00  0.00000000E+00  0.00000000E+00
  0.00000000E+00  0.00000000E+00  0.00000000E+00
  0.00000000E+00  0.00000000E+00  0.00000000E+00
  0.00000000E+00  0.00000000E+00  0.00000000E+00
  0.00000000E+00  0.00000000E+00  0.00000000E+00
  0.00000000E+00  0.00000000E+00  0.00000000E+00
  0.00000000E+00  0.00000000E+00  0.00000000E+00
  0.00000000E+00  0.00000000E+00  0.00000000E+00
  0.00000000E+00  0.00000000E+00  0.00000000E+00
  0.00000000E+00  0.00000000E+00  0.00000000E+00
  0.00000000E+00  0.00000000E+00  0.00000000E+00
  0.00000000E+00  0.00000000E+00  0.00000000E+00
  0.00000000E+00  0.00000000E+00  0.00000000E+00
  0.00000000E+00  0.00000000E+00  0.00000000E+00
  0.00000000E+00  0.00000000E+00  0.00000000E+00
  0.00000000E+00  0.00000000E+00  0.00000000E+00
  0.00000000E+00  0.00000000E+00  0.00000000E+00
  0.00000000E+00  0.00000000E+00  0.00000000E+00
  0.00000000E+00  0.00000000E+00  0.00000000E+00
  0.00000000E+00  0.00000000E+00  0.00000000E+00
  0.00000000E+00  0.00000000E+00  0.00000000E+00
  0.00000000E+00  0.00000000E+00  0.00000000E+00
  0.00000000E+00  0.00000000E+00  0.00000000E+00
  0.00000000E+00  0.00000000E+00  0.00000000E+00
  0.00000000E+00  0.00000000E+00  0.00000000E+00
  0.00000000E+00  0.00000000E+00  0.00000000E+00
  0.00000000E+00  0.00000000E+00  0.00000000E+00
  0.00000000E+00  0.00000000E+00  0.00000000E+00
  0.00000000E+00  0.00000000E+00  0.00000000E+00
  0.00000000E+00  0.00000000E+00  0.00000000E+00
  0.00000000E+00  0.00000000E+00  0.00000000E+00
  0.00000000E+00  0.00000000E+00  0.00000000E+00
  0.00000000E+00  0.00000000E+00  0.00000000E+00
  0.00000000E+00  0.00000000E+00  0.00000000E+00
  0.00000000E+00  0.00000000E+00  0.00000000E+00
  0.00000000E+00  0.00000000E+00  0.00000000E+00
  0.00000000E+00  0.00000000E+00  0.00000000E+00
  0.00000000E+00  0.00000000E+00  0.00000000E+00
  0.00000000E+00  0.00000000E+00  0.00000000E+00
  0.00000000E+00  0.00000000E+00  0.00000000E+00
  0.00000000E+00  0.00000000E+00  0.00000000E+00
  0.00000000E+00  0.00000000E+00  0.00000000E+00
  0.00000000E+00  0.00000000E+00  0.00000000E+00
  0.00000000E+00  0.00000000E+00  0.00000000E+00
  0.00000000E+00  0.00000000E+00  0.00000000E+00
  0.00000000E+00  0.00000000E+00  0.00000000E+00
  0.00000000E+00  0.00000000E+00  0.00000000E+00
  0.00000000E+00  0.00000000E+00  0.00000000E+00
  0.00000000E+00  0.00000000E+00  0.00000000E+00
  0.00000000E+00  0.00000000E+00  0.00000000E+00
  0.00000000E+00  0.00000000E+00  0.00000000E+00
  0.00000000E+00  0.00000000E+00  0.00000000E+00
  0.00000000E+00  0.00000000E+00  0.00000000E+00
  0.00000000E+00  0.00000000E+00  0.00000000E+00
  0.00000000E+00  0.00000000E+00  0.00000000E+00
  0.00000000E+00  0.00000000E+00  0.00000000E+00
  0.00000000E+00  0.00000000E+00  0.00000000E+00
  0.00000000E+00  0.00000000E+00  0.00000000E+00
  0.00000000E+00  0.00000000E+00  0.00000000E+00
  0.00000000E+00  0.00000000E+00  0.00000000E+00
  0.00000000E+00  0.00000000E+00  0.00000000E+00
  0.00000000E+00  0.00000000E+00  0.00000000E+00
  0.00000000E+00  0.00000000E+00  0.00000000E+00
  0.00000000E+00  0.00000000E+00  0.00000000E+00
  0.00000000E+00  0.00000000E+00  0.00000000E+00
  0.00000000E+00  0.00000000E+00  0.00000000E+00
  0.00000000E+00  0.00000000E+00  0.00000000E+00
  0.00000000E+00  0.00000000E+00  0.00000000E+00
  0.00000000E+00  0.00000000E+00  0.00000000E+00
  0.00000000E+00  0.00000000E+00  0.00000000E+00
  0.00000000E+00  0.00000000E+00  0.00000000E+00
  0.00000000E+00  0.00000000E+00  0.00000000E+00
  0.00000000E+00  0.00000000E+00  0.00000000E+00
  0.00000000E+00  0.00000000E+00  0.00000000E+00
  0.00000000E+00  0.00000000E+00  0.00000000E+00
  0.00000000E+00  0.00000000E+00  0.00000000E+00
  0.00000000E+00  0.00000000E+00  0.00000000E+00
  0.00000000E+00  0.00000000E+00  0.00000000E+00
  0.00000000E+00  0.00000000E+00  0.00000000E+00
  0.00000000E+00  0.00000000E+00  0.00000000E+00
  0.00000000E+00  0.00000000E+00  0.00000000E+00
  0.00000000E+00  0.00000000E+00  0.00000000E+00
  0.00000000E+00  0.00000000E+00  0.00000000E+00
  0.00000000E+00  0.00000000E+00  0.00000000E+00
  0.00000000E+00  0.00000000E+00  0.00000000E+00
  0.00000000E+00  0.00000000E+00  0.00000000E+00
  0.00000000E+00  0.00000000E+00  0.00000000E+00
  0.00000000E+00  0.00000000E+00  0.00000000E+00
  0.00000000E+00  0.00000000E+00  0.00000000E+00
  0.00000000E+00  0.00000000E+00  0.00000000E+00
