Species order: X N B                    
   2.51242800000000     
     5.9449720136058266    0.0000000000000000    0.0000000000000000
    -2.9724860068029120    5.1484967885702053   -0.0000000000000001
     0.0000000000000000    0.0000000000000009    5.3101128803662583
   Ge   N    B 
     1   143   144
Direct
  0.5555555555555571  0.4444444444444429  0.3750000000000000
  0.1111082828700109  0.0555434962294968  0.1250129493558044
  0.6111138005136565  0.5555609343606744  0.1261505149080699
  0.4444331157038618  0.0555429528617116  0.1251460953919839
  0.9444570471382963  0.5555668842961161  0.1251460953919839
  0.7777737125734725  0.0555535229533933  0.1250202812435907
  0.1111182542474634  0.7222257937904017  0.6248784017877619
  0.4444331157038618  0.7222234961754959  0.6248539046080139
  0.2777668986620096  0.2222038485858492  0.6248649213720979
  0.7777961514141544  0.7222331013379854  0.6248649213720979
  0.6111036165904766  0.2222038485858492  0.6248649213720979
  0.9444464770466244  0.2222262874265503  0.6249797187564009
  0.2777742062096067  0.7222257937904017  0.1251215982122421
  0.1111149335646385  0.2222241334489855  0.1249882705329775
  0.4444467157523153  0.2222267648379608  0.1254949896907535
  0.6111036165904766  0.7222331013379854  0.1251350786278974
  0.9444570471382963  0.7222234961754959  0.1251460953919839
  0.7777758665510213  0.2222241334489855  0.1249882705329775
  0.1111166979512526  0.8888833020487479  0.6248946270507909
  0.4444332707641547  0.8888833020487479  0.6248946270507909
  0.2777668986620096  0.3888963834095060  0.6248649213720979
  0.6111138005136565  0.3888861994863271  0.6238494850919252
  0.7777758665510213  0.8888850664353773  0.6250117294669969
  0.9444565037705055  0.3888981199738571  0.6249870506442230
  0.1111082828700109  0.3888981199738571  0.1250129493558044
  0.2777742062096067  0.8888817457525420  0.1251215982122421
  0.6111018800261514  0.8888917171299965  0.1250129493558044
  0.4444390656393348  0.3888861994863271  0.1261505149080699
  0.9444565037705055  0.8888917171299965  0.1250129493558044
  0.7777961514141544  0.3888963834095060  0.1251350786278974
  0.2777765038245039  0.5555668842961161  0.6248539046080139
  0.1111082828700109  0.0555434962294968  0.6249870506442230
  0.6111138005136565  0.5555609343606744  0.6238494850919252
  0.4444331157038618  0.0555429528617116  0.6248539046080139
  0.9444570471382963  0.5555668842961161  0.6248539046080139
  0.1111166979512526  0.5555667292358412  0.1251053729491847
  0.7777737125734725  0.0555535229533933  0.6249797187564009
  0.2777765038245039  0.0555429528617116  0.1251460953919839
  0.4444467157523153  0.5555532842476560  0.1254949896907535
  0.7777732351620337  0.5555532842476560  0.1254949896907535
  0.6111018800261514  0.0555434962294968  0.1250129493558044
  0.4444467157523153  0.5555532842476560  0.6245050103092258
  0.9444464770466244  0.0555535229533933  0.1250202812435907
  0.2777742062096067  0.7222257937904017  0.6248784017877619
  0.1111149335646385  0.2222241334489855  0.6250117294669969
  0.4444467157523153  0.2222267648379608  0.6245050103092258
  0.6111036165904766  0.7222331013379854  0.6248649213720979
  0.9444570471382963  0.7222234961754959  0.6248539046080139
  0.7777758665510213  0.2222241334489855  0.6250117294669969
  0.1111182542474634  0.7222257937904017  0.1251215982122421
  0.4444331157038618  0.7222234961754959  0.1251460953919839
  0.2777668986620096  0.2222038485858492  0.1251350786278974
  0.7777961514141544  0.7222331013379854  0.1251350786278974
  0.6111036165904766  0.2222038485858492  0.1251350786278974
  0.9444464770466244  0.2222262874265503  0.1250202812435907
  0.1111082828700109  0.3888981199738571  0.6249870506442230
  0.2777742062096067  0.8888817457525420  0.6248784017877619
  0.6111018800261514  0.8888917171299965  0.6249870506442230
  0.4444390656393348  0.3888861994863271  0.6238494850919252
  0.9444565037705055  0.8888917171299965  0.6249870506442230
  0.1111166979512526  0.8888833020487479  0.1251053729491847
  0.7777961514141544  0.3888963834095060  0.6248649213720979
  0.4444332707641547  0.8888833020487479  0.1251053729491847
  0.2777668986620096  0.3888963834095060  0.1251350786278974
  0.2777765038245039  0.5555668842961161  0.1251460953919839
  0.6111138005136565  0.3888861994863271  0.1261505149080699
  0.7777758665510213  0.8888850664353773  0.1249882705329775
  0.9444565037705055  0.3888981199738571  0.1250129493558044
  0.1111166979512526  0.5555667292358412  0.6248946270507909
  0.2777765038245039  0.0555429528617116  0.6248539046080139
  0.7777732351620337  0.5555532842476562  0.6245050103092258
  0.6111018800261514  0.0555434962294967  0.6249870506442230
  0.9444464770466244  0.0555535229533933  0.6249797187564009
  0.0542995782183250  0.1103026978436087  0.3750000000000000
  0.5564010033346932  0.6214465966723918  0.3750000000000000
  0.3878760220749560  0.1090853774832715  0.3750000000000000
  0.8909146225167451  0.6121239779250480  0.3750000000000000
  0.7226697862919571  0.1103026978436088  0.3750000000000000
  0.0555472804791017  0.7777768770972459  0.8750000000000000
  0.3888962632848421  0.7777768770972459  0.8750000000000000
  0.2222236421624578  0.2777784877478959  0.8750000000000000
  0.7222215122521071  0.7777763578375438  0.8750000000000000
  0.5555588466111397  0.2777869970770691  0.8750000000000000
  0.8888890628265570  0.2777771705375224  0.8750000000000000
  0.2222222222222214  0.7777777777777786  0.3750000000000000
  0.0542995782183250  0.2773302137080714  0.3750000000000000
  0.3785534033276368  0.2682877399957178  0.3750000000000000
  0.5552668906416663  0.7819097388159749  0.3750000000000000
  0.8933095148410323  0.7819097388159749  0.3750000000000000
  0.7242210449753315  0.2757789550246666  0.3750000000000000
  0.0555531716492655  0.9444468283507366  0.8750000000000000
  0.3888962632848421  0.9444527195209070  0.8750000000000000
  0.2222224116051829  0.4444394251867692  0.8750000000000000
  0.5555555555555571  0.4444444444444429  0.8750000000000000
  0.7222228294625085  0.9444452256223751  0.8750000000000000
  0.8888836802482465  0.4444394251867692  0.8750000000000000
  0.0557485994502281  0.4448305322337936  0.3750000000000000
  0.2219035992570713  0.9435348945878601  0.3750000000000000
  0.5551694677662208  0.9442514005497717  0.3750000000000000
  0.3785534033276369  0.4435989966652261  0.3750000000000000
  0.8896973021563709  0.9457004217816728  0.3750000000000000
  0.7317122600042478  0.4435989966652261  0.3750000000000000
  0.2222231229027292  0.6111037367151629  0.8750000000000000
  0.0555547743776239  0.1111109371734395  0.8750000000000000
  0.5555588466111397  0.6111051828673989  0.8750000000000000
  0.3888965727346842  0.1111264788027053  0.8750000000000000
  0.8888735211972888  0.6111034272653137  0.8750000000000000
  0.0564651054121445  0.6117020380025429  0.3750000000000000
  0.7222228294625085  0.1111109371734395  0.8750000000000000
  0.2180902611839947  0.1066904851589737  0.3750000000000000
  0.3878760220749560  0.6121239779250480  0.3750000000000000
  0.7317122600042478  0.6214465966723918  0.3750000000000000
  0.5552668906416663  0.1066904851589737  0.3750000000000000
  0.3888965727346842  0.6111034272653137  0.8750000000000000
  0.8888888888888857  0.1111111111111143  0.3750000000000000
  0.2222222222222214  0.7777777777777786  0.8750000000000000
  0.0555547743776239  0.2777771705375224  0.8750000000000000
  0.3888948171325723  0.2777869970770691  0.8750000000000000
  0.5555605748132368  0.7777775883948106  0.8750000000000000
  0.8888836802482465  0.7777775883948106  0.8750000000000000
  0.7222215122521071  0.2777784877478959  0.8750000000000000
  0.0564651054121445  0.7780964007429159  0.3750000000000000
  0.3882979619974447  0.7780964007429159  0.3750000000000000
  0.2182245767160175  0.2757789550246666  0.3750000000000000
  0.7242210449753315  0.7817754232840024  0.3750000000000000
  0.5564010033346932  0.2682877399957178  0.3750000000000000
  0.8896973021563709  0.2773302137080714  0.3750000000000000
  0.0555531716492655  0.4444396766318689  0.8750000000000000
  0.2222231229027292  0.9444527195209070  0.8750000000000000
  0.5555603233681541  0.9444468283507366  0.8750000000000000
  0.3888948171325723  0.4444411533888279  0.8750000000000000
  0.8888890628265570  0.9444452256223751  0.8750000000000000
  0.0557485994502281  0.9442514005497717  0.3750000000000000
  0.7222130029229384  0.4444411533888279  0.8750000000000000
  0.3882979619974447  0.9435348945878601  0.3750000000000000
  0.2180902611839947  0.4447331093583736  0.3750000000000000
  0.2219035992570713  0.6117020380025429  0.3750000000000000
  0.7226697862919571  0.9457004217816728  0.3750000000000000
  0.8933095148410323  0.4447331093583736  0.3750000000000000
  0.0555472804791017  0.6111037367151629  0.8750000000000000
  0.2222224116051829  0.1111163197517576  0.8750000000000000
  0.7222130029229384  0.6111051828673989  0.8750000000000000
  0.5555605748132368  0.1111163197517576  0.8750000000000000
  0.8888888888888857  0.1111111111111143  0.8750000000000000
  0.1085335805852984  0.0536691337666573  0.3750000000000000
  0.6254612485780551  0.5842558304894501  0.3750000000000000
  0.4441164677901716  0.0536079859794445  0.3750000000000000
  0.9463920140205465  0.5558835322098573  0.3750000000000000
  0.7784324931514190  0.0558829132423816  0.3750000000000000
  0.1111169286933171  0.7222251310133206  0.8750000000000000
  0.4444472903071606  0.7222498942845462  0.8750000000000000
  0.2777120003175747  0.2221804517822531  0.8750000000000000
  0.7778195482177608  0.7222879996824454  0.8750000000000000
  0.6111351181313694  0.2221804517822531  0.8750000000000000
  0.9444371481742627  0.2222076296818095  0.8750000000000000
  0.2774874279761591  0.7225125720238482  0.3750000000000000
  0.1080574755116443  0.2206954044224862  0.3750000000000000
  0.4426414338472742  0.2186162010278884  0.3750000000000000
  0.6128563609818982  0.7309851261823851  0.3750000000000000
  0.9463920140205465  0.7238418151440338  0.3750000000000000
  0.7793045955775085  0.2206954044224862  0.3750000000000000
  0.1111067208410978  0.8888932791589208  0.8750000000000000
  0.4444532249844826  0.8888932791589208  0.8750000000000000
  0.2777120003175747  0.3888648818686715  0.8750000000000000
  0.6111440192640476  0.3888559807359308  0.8750000000000000
  0.7778008936890439  0.8889351207114080  0.8750000000000000
  0.9444561237729947  0.3888703977075845  0.8750000000000000
  0.1085335805852984  0.3881977801519766  0.3750000000000000
  0.2774874279761591  0.8883081892856467  0.3750000000000000
  0.6118022198480524  0.8914664194146911  0.3750000000000000
  0.4157441695105509  0.3745387514219393  0.3750000000000000
  0.9463308662333290  0.8914664194146911  0.3750000000000000
  0.7847954318671334  0.3871436390181391  0.3750000000000000
  0.2777501057154393  0.5555527096928383  0.8750000000000000
  0.1110809406012825  0.0555438762270076  0.8750000000000000
  0.6111440192640476  0.5556213718614671  0.8750000000000000
  0.4444472903071606  0.0555307293559403  0.8750000000000000
  0.9444692706440299  0.5555527096928383  0.8750000000000000
  0.1112161096558394  0.5557655526450060  0.3750000000000000
  0.7777923703182238  0.0555628518257629  0.8750000000000000
  0.2761581848559353  0.0536079859794445  0.3750000000000000
  0.4426414338472742  0.5573585661527199  0.3750000000000000
  0.7813837989721160  0.5573585661527199  0.3750000000000000
  0.6118022198480524  0.0536691337666573  0.3750000000000000
  0.4444216693407300  0.5555783306592744  0.8750000000000000
  0.9441170867576393  0.0558829132423816  0.3750000000000000
  0.2777748689866748  0.7222251310133206  0.8750000000000000
  0.1110648792885951  0.2221991063109627  0.8750000000000000
  0.4444216693407300  0.2221766720147767  0.8750000000000000
  0.6111351181313694  0.7222879996824454  0.8750000000000000
  0.9444692706440299  0.7222498942845462  0.8750000000000000
  0.7778008936890439  0.2221991063109627  0.8750000000000000
  0.1116918107143710  0.7225125720238482  0.3750000000000000
  0.4441164677901716  0.7238418151440338  0.3750000000000000
  0.2690148738176339  0.2152045681328629  0.3750000000000000
  0.7847954318671334  0.7309851261823851  0.3750000000000000
  0.6128563609818982  0.2152045681328629  0.3750000000000000
  0.9441170867576393  0.2215675068485724  0.3750000000000000
  0.1110809406012825  0.3888703977075845  0.8750000000000000
  0.2777748689866748  0.8888830713066781  0.8750000000000000
  0.6111296022923974  0.8889190593987341  0.8750000000000000
  0.4443786281385673  0.3888559807359308  0.8750000000000000
  0.9444561237729947  0.8889190593987341  0.8750000000000000
  0.1112161096558394  0.8887838903441376  0.3750000000000000
  0.7778195482177617  0.3888648818686715  0.8750000000000000
  0.4442344473549903  0.8887838903441376  0.3750000000000000
  0.2690148738176339  0.3871436390181392  0.3750000000000000
  0.2761581848559353  0.5558835322098573  0.3750000000000000
  0.6254612485780549  0.3745387514219393  0.3750000000000000
  0.7793045955775085  0.8919425244883916  0.3750000000000000
  0.9463308662333290  0.3881977801519766  0.3750000000000000
  0.1111067208410978  0.5555467750155499  0.8750000000000000
  0.2777501057154393  0.0555307293559403  0.8750000000000000
  0.7778233279852044  0.5555783306592744  0.8750000000000000
  0.6111296022923974  0.0555438762270076  0.8750000000000000
  0.9444371481742627  0.0555628518257629  0.8750000000000000
  0.0555099804395894  0.1110747924473482  0.1248411393297242
  0.5554942998433361  0.6113343504121018  0.1250506633501882
  0.3887782573705748  0.1108898480745093  0.1249264404969838
  0.8891101519255076  0.6112217426294028  0.1249264404969831
  0.7222314786744213  0.1110747924473482  0.1248411393297242
  0.0556401674483978  0.7778125448519587  0.6250770378415776
  0.3888390440702142  0.7778125448519587  0.6250770378415776
  0.2220799619678734  0.2777066476506034  0.6252052699508330
  0.7222933523494114  0.7779200380321288  0.6252052699508330
  0.5554942998433361  0.2774932827645913  0.6249493366497890
  0.8889252075526528  0.2777685213255754  0.6251588606702821
  0.2222222222222214  0.7777777777777786  0.1249406583473578
  0.0555099804395894  0.2777685213255754  0.1248411393297242
  0.3886656495878947  0.2774932827645913  0.1250506633501882
  0.5555261603007355  0.7778878504132994  0.1248315946058382
  0.8890283567791889  0.7778878504132994  0.1248315946058382
  0.7222933523494114  0.2777066476506034  0.1247947300491763
  0.0555678167705198  0.9444321832295041  0.6251355877128162
  0.3888390440702142  0.9443598325516165  0.6250770378415776
  0.2221121495867092  0.4444738396992443  0.6251684053941847
  0.5555555555555571  0.4444444444444429  0.6252836071795649
  0.7222314786744213  0.9444900195603676  0.6251588606702821
  0.8890283567791889  0.4444738396992443  0.6251684053941847
  0.0555678167705198  0.4444689668743669  0.1248644122871814
  0.2221874551480530  0.9443598325516165  0.1249229621584083
  0.5555310331256277  0.9444321832295041  0.1248644122871814
  0.3886656495878947  0.4445057001566394  0.1250506633501882
  0.8889252075526528  0.9444900195603676  0.1248411393297242
  0.7225067172354509  0.4445057001566394  0.1250506633501882
  0.2221874551480530  0.6111609559297917  0.6250770378415776
  0.0555099804395894  0.1110747924473482  0.6251588606702821
  0.5554942998433361  0.6113343504121018  0.6249493366497890
  0.3887782573705748  0.1108898480745093  0.6250735595030414
  0.8891101519255076  0.6112217426294028  0.6250735595030414
  0.0556401674483978  0.6111609559297917  0.1249229621584083
  0.7222314786744213  0.1110747924473482  0.6251588606702821
  0.2221121495867092  0.1109716432208062  0.1248315946058382
  0.3887782573705748  0.6112217426294028  0.1249264404969831
  0.7225067172354509  0.6113343504121018  0.1250506633501882
  0.5555261603007355  0.1109716432208062  0.1248315946058382
  0.3887782573705748  0.6112217426294028  0.6250735595030414
  0.8888888888888857  0.1111111111111143  0.1248883646006314
  0.2222222222222214  0.7777777777777786  0.6250593416526420
  0.0555099804395894  0.2777685213255754  0.6251588606702821
  0.3886656495878947  0.2774932827645913  0.6249493366497890
  0.5555261603007355  0.7778878504132994  0.6251684053941847
  0.8890283567791889  0.7778878504132994  0.6251684053941847
  0.7222933523494114  0.2777066476506034  0.6252052699508330
  0.0556401674483978  0.7778125448519587  0.1249229621584083
  0.3888390440702142  0.7778125448519587  0.1249229621584083
  0.2220799619678734  0.2777066476506034  0.1247947300491763
  0.7222933523494114  0.7779200380321288  0.1247947300491763
  0.5554942998433361  0.2774932827645913  0.1250506633501882
  0.8889252075526528  0.2777685213255754  0.1248411393297242
  0.0555678167705198  0.4444689668743669  0.6251355877128162
  0.2221874551480530  0.9443598325516165  0.6250770378415776
  0.5555310331256277  0.9444321832295041  0.6251355877128162
  0.3886656495878947  0.4445057001566394  0.6249493366497890
  0.8889252075526528  0.9444900195603676  0.6251588606702821
  0.0555678167705198  0.9444321832295041  0.1248644122871814
  0.7225067172354509  0.4445057001566394  0.6249493366497890
  0.3888390440702142  0.9443598325516165  0.1249229621584083
  0.2221121495867092  0.4444738396992443  0.1248315946058382
  0.2221874551480530  0.6111609559297917  0.1249229621584083
  0.5555555555555571  0.4444444444444429  0.1247163928204670
  0.7222314786744213  0.9444900195603676  0.1248411393297242
  0.8890283567791889  0.4444738396992443  0.1248315946058382
  0.0556401674483978  0.6111609559297917  0.6250770378415776
  0.2221121495867092  0.1109716432208062  0.6251684053941847
  0.7225067172354509  0.6113343504121018  0.6249493366497890
  0.5555261603007355  0.1109716432208062  0.6251684053941847
  0.8888888888888857  0.1111111111111143  0.6251116353993542
 
  0.00000000E+00  0.00000000E+00  0.00000000E+00
  0.00000000E+00  0.00000000E+00  0.00000000E+00
  0.00000000E+00  0.00000000E+00  0.00000000E+00
  0.00000000E+00  0.00000000E+00  0.00000000E+00
  0.00000000E+00  0.00000000E+00  0.00000000E+00
  0.00000000E+00  0.00000000E+00  0.00000000E+00
  0.00000000E+00  0.00000000E+00  0.00000000E+00
  0.00000000E+00  0.00000000E+00  0.00000000E+00
  0.00000000E+00  0.00000000E+00  0.00000000E+00
  0.00000000E+00  0.00000000E+00  0.00000000E+00
  0.00000000E+00  0.00000000E+00  0.00000000E+00
  0.00000000E+00  0.00000000E+00  0.00000000E+00
  0.00000000E+00  0.00000000E+00  0.00000000E+00
  0.00000000E+00  0.00000000E+00  0.00000000E+00
  0.00000000E+00  0.00000000E+00  0.00000000E+00
  0.00000000E+00  0.00000000E+00  0.00000000E+00
  0.00000000E+00  0.00000000E+00  0.00000000E+00
  0.00000000E+00  0.00000000E+00  0.00000000E+00
  0.00000000E+00  0.00000000E+00  0.00000000E+00
  0.00000000E+00  0.00000000E+00  0.00000000E+00
  0.00000000E+00  0.00000000E+00  0.00000000E+00
  0.00000000E+00  0.00000000E+00  0.00000000E+00
  0.00000000E+00  0.00000000E+00  0.00000000E+00
  0.00000000E+00  0.00000000E+00  0.00000000E+00
  0.00000000E+00  0.00000000E+00  0.00000000E+00
  0.00000000E+00  0.00000000E+00  0.00000000E+00
  0.00000000E+00  0.00000000E+00  0.00000000E+00
  0.00000000E+00  0.00000000E+00  0.00000000E+00
  0.00000000E+00  0.00000000E+00  0.00000000E+00
  0.00000000E+00  0.00000000E+00  0.00000000E+00
  0.00000000E+00  0.00000000E+00  0.00000000E+00
  0.00000000E+00  0.00000000E+00  0.00000000E+00
  0.00000000E+00  0.00000000E+00  0.00000000E+00
  0.00000000E+00  0.00000000E+00  0.00000000E+00
  0.00000000E+00  0.00000000E+00  0.00000000E+00
  0.00000000E+00  0.00000000E+00  0.00000000E+00
  0.00000000E+00  0.00000000E+00  0.00000000E+00
  0.00000000E+00  0.00000000E+00  0.00000000E+00
  0.00000000E+00  0.00000000E+00  0.00000000E+00
  0.00000000E+00  0.00000000E+00  0.00000000E+00
  0.00000000E+00  0.00000000E+00  0.00000000E+00
  0.00000000E+00  0.00000000E+00  0.00000000E+00
  0.00000000E+00  0.00000000E+00  0.00000000E+00
  0.00000000E+00  0.00000000E+00  0.00000000E+00
  0.00000000E+00  0.00000000E+00  0.00000000E+00
  0.00000000E+00  0.00000000E+00  0.00000000E+00
  0.00000000E+00  0.00000000E+00  0.00000000E+00
  0.00000000E+00  0.00000000E+00  0.00000000E+00
  0.00000000E+00  0.00000000E+00  0.00000000E+00
  0.00000000E+00  0.00000000E+00  0.00000000E+00
  0.00000000E+00  0.00000000E+00  0.00000000E+00
  0.00000000E+00  0.00000000E+00  0.00000000E+00
  0.00000000E+00  0.00000000E+00  0.00000000E+00
  0.00000000E+00  0.00000000E+00  0.00000000E+00
  0.00000000E+00  0.00000000E+00  0.00000000E+00
  0.00000000E+00  0.00000000E+00  0.00000000E+00
  0.00000000E+00  0.00000000E+00  0.00000000E+00
  0.00000000E+00  0.00000000E+00  0.00000000E+00
  0.00000000E+00  0.00000000E+00  0.00000000E+00
  0.00000000E+00  0.00000000E+00  0.00000000E+00
  0.00000000E+00  0.00000000E+00  0.00000000E+00
  0.00000000E+00  0.00000000E+00  0.00000000E+00
  0.00000000E+00  0.00000000E+00  0.00000000E+00
  0.00000000E+00  0.00000000E+00  0.00000000E+00
  0.00000000E+00  0.00000000E+00  0.00000000E+00
  0.00000000E+00  0.00000000E+00  0.00000000E+00
  0.00000000E+00  0.00000000E+00  0.00000000E+00
  0.00000000E+00  0.00000000E+00  0.00000000E+00
  0.00000000E+00  0.00000000E+00  0.00000000E+00
  0.00000000E+00  0.00000000E+00  0.00000000E+00
  0.00000000E+00  0.00000000E+00  0.00000000E+00
  0.00000000E+00  0.00000000E+00  0.00000000E+00
  0.00000000E+00  0.00000000E+00  0.00000000E+00
  0.00000000E+00  0.00000000E+00  0.00000000E+00
  0.00000000E+00  0.00000000E+00  0.00000000E+00
  0.00000000E+00  0.00000000E+00  0.00000000E+00
  0.00000000E+00  0.00000000E+00  0.00000000E+00
  0.00000000E+00  0.00000000E+00  0.00000000E+00
  0.00000000E+00  0.00000000E+00  0.00000000E+00
  0.00000000E+00  0.00000000E+00  0.00000000E+00
  0.00000000E+00  0.00000000E+00  0.00000000E+00
  0.00000000E+00  0.00000000E+00  0.00000000E+00
  0.00000000E+00  0.00000000E+00  0.00000000E+00
  0.00000000E+00  0.00000000E+00  0.00000000E+00
  0.00000000E+00  0.00000000E+00  0.00000000E+00
  0.00000000E+00  0.00000000E+00  0.00000000E+00
  0.00000000E+00  0.00000000E+00  0.00000000E+00
  0.00000000E+00  0.00000000E+00  0.00000000E+00
  0.00000000E+00  0.00000000E+00  0.00000000E+00
  0.00000000E+00  0.00000000E+00  0.00000000E+00
  0.00000000E+00  0.00000000E+00  0.00000000E+00
  0.00000000E+00  0.00000000E+00  0.00000000E+00
  0.00000000E+00  0.00000000E+00  0.00000000E+00
  0.00000000E+00  0.00000000E+00  0.00000000E+00
  0.00000000E+00  0.00000000E+00  0.00000000E+00
  0.00000000E+00  0.00000000E+00  0.00000000E+00
  0.00000000E+00  0.00000000E+00  0.00000000E+00
  0.00000000E+00  0.00000000E+00  0.00000000E+00
  0.00000000E+00  0.00000000E+00  0.00000000E+00
  0.00000000E+00  0.00000000E+00  0.00000000E+00
  0.00000000E+00  0.00000000E+00  0.00000000E+00
  0.00000000E+00  0.00000000E+00  0.00000000E+00
  0.00000000E+00  0.00000000E+00  0.00000000E+00
  0.00000000E+00  0.00000000E+00  0.00000000E+00
  0.00000000E+00  0.00000000E+00  0.00000000E+00
  0.00000000E+00  0.00000000E+00  0.00000000E+00
  0.00000000E+00  0.00000000E+00  0.00000000E+00
  0.00000000E+00  0.00000000E+00  0.00000000E+00
  0.00000000E+00  0.00000000E+00  0.00000000E+00
  0.00000000E+00  0.00000000E+00  0.00000000E+00
  0.00000000E+00  0.00000000E+00  0.00000000E+00
  0.00000000E+00  0.00000000E+00  0.00000000E+00
  0.00000000E+00  0.00000000E+00  0.00000000E+00
  0.00000000E+00  0.00000000E+00  0.00000000E+00
  0.00000000E+00  0.00000000E+00  0.00000000E+00
  0.00000000E+00  0.00000000E+00  0.00000000E+00
  0.00000000E+00  0.00000000E+00  0.00000000E+00
  0.00000000E+00  0.00000000E+00  0.00000000E+00
  0.00000000E+00  0.00000000E+00  0.00000000E+00
  0.00000000E+00  0.00000000E+00  0.00000000E+00
  0.00000000E+00  0.00000000E+00  0.00000000E+00
  0.00000000E+00  0.00000000E+00  0.00000000E+00
  0.00000000E+00  0.00000000E+00  0.00000000E+00
  0.00000000E+00  0.00000000E+00  0.00000000E+00
  0.00000000E+00  0.00000000E+00  0.00000000E+00
  0.00000000E+00  0.00000000E+00  0.00000000E+00
  0.00000000E+00  0.00000000E+00  0.00000000E+00
  0.00000000E+00  0.00000000E+00  0.00000000E+00
  0.00000000E+00  0.00000000E+00  0.00000000E+00
  0.00000000E+00  0.00000000E+00  0.00000000E+00
  0.00000000E+00  0.00000000E+00  0.00000000E+00
  0.00000000E+00  0.00000000E+00  0.00000000E+00
  0.00000000E+00  0.00000000E+00  0.00000000E+00
  0.00000000E+00  0.00000000E+00  0.00000000E+00
  0.00000000E+00  0.00000000E+00  0.00000000E+00
  0.00000000E+00  0.00000000E+00  0.00000000E+00
  0.00000000E+00  0.00000000E+00  0.00000000E+00
  0.00000000E+00  0.00000000E+00  0.00000000E+00
  0.00000000E+00  0.00000000E+00  0.00000000E+00
  0.00000000E+00  0.00000000E+00  0.00000000E+00
  0.00000000E+00  0.00000000E+00  0.00000000E+00
  0.00000000E+00  0.00000000E+00  0.00000000E+00
  0.00000000E+00  0.00000000E+00  0.00000000E+00
  0.00000000E+00  0.00000000E+00  0.00000000E+00
  0.00000000E+00  0.00000000E+00  0.00000000E+00
  0.00000000E+00  0.00000000E+00  0.00000000E+00
  0.00000000E+00  0.00000000E+00  0.00000000E+00
  0.00000000E+00  0.00000000E+00  0.00000000E+00
  0.00000000E+00  0.00000000E+00  0.00000000E+00
  0.00000000E+00  0.00000000E+00  0.00000000E+00
  0.00000000E+00  0.00000000E+00  0.00000000E+00
  0.00000000E+00  0.00000000E+00  0.00000000E+00
  0.00000000E+00  0.00000000E+00  0.00000000E+00
  0.00000000E+00  0.00000000E+00  0.00000000E+00
  0.00000000E+00  0.00000000E+00  0.00000000E+00
  0.00000000E+00  0.00000000E+00  0.00000000E+00
  0.00000000E+00  0.00000000E+00  0.00000000E+00
  0.00000000E+00  0.00000000E+00  0.00000000E+00
  0.00000000E+00  0.00000000E+00  0.00000000E+00
  0.00000000E+00  0.00000000E+00  0.00000000E+00
  0.00000000E+00  0.00000000E+00  0.00000000E+00
  0.00000000E+00  0.00000000E+00  0.00000000E+00
  0.00000000E+00  0.00000000E+00  0.00000000E+00
  0.00000000E+00  0.00000000E+00  0.00000000E+00
  0.00000000E+00  0.00000000E+00  0.00000000E+00
  0.00000000E+00  0.00000000E+00  0.00000000E+00
  0.00000000E+00  0.00000000E+00  0.00000000E+00
  0.00000000E+00  0.00000000E+00  0.00000000E+00
  0.00000000E+00  0.00000000E+00  0.00000000E+00
  0.00000000E+00  0.00000000E+00  0.00000000E+00
  0.00000000E+00  0.00000000E+00  0.00000000E+00
  0.00000000E+00  0.00000000E+00  0.00000000E+00
  0.00000000E+00  0.00000000E+00  0.00000000E+00
  0.00000000E+00  0.00000000E+00  0.00000000E+00
  0.00000000E+00  0.00000000E+00  0.00000000E+00
  0.00000000E+00  0.00000000E+00  0.00000000E+00
  0.00000000E+00  0.00000000E+00  0.00000000E+00
  0.00000000E+00  0.00000000E+00  0.00000000E+00
  0.00000000E+00  0.00000000E+00  0.00000000E+00
  0.00000000E+00  0.00000000E+00  0.00000000E+00
  0.00000000E+00  0.00000000E+00  0.00000000E+00
  0.00000000E+00  0.00000000E+00  0.00000000E+00
  0.00000000E+00  0.00000000E+00  0.00000000E+00
  0.00000000E+00  0.00000000E+00  0.00000000E+00
  0.00000000E+00  0.00000000E+00  0.00000000E+00
  0.00000000E+00  0.00000000E+00  0.00000000E+00
  0.00000000E+00  0.00000000E+00  0.00000000E+00
  0.00000000E+00  0.00000000E+00  0.00000000E+00
  0.00000000E+00  0.00000000E+00  0.00000000E+00
  0.00000000E+00  0.00000000E+00  0.00000000E+00
  0.00000000E+00  0.00000000E+00  0.00000000E+00
  0.00000000E+00  0.00000000E+00  0.00000000E+00
  0.00000000E+00  0.00000000E+00  0.00000000E+00
  0.00000000E+00  0.00000000E+00  0.00000000E+00
  0.00000000E+00  0.00000000E+00  0.00000000E+00
  0.00000000E+00  0.00000000E+00  0.00000000E+00
  0.00000000E+00  0.00000000E+00  0.00000000E+00
  0.00000000E+00  0.00000000E+00  0.00000000E+00
  0.00000000E+00  0.00000000E+00  0.00000000E+00
  0.00000000E+00  0.00000000E+00  0.00000000E+00
  0.00000000E+00  0.00000000E+00  0.00000000E+00
  0.00000000E+00  0.00000000E+00  0.00000000E+00
  0.00000000E+00  0.00000000E+00  0.00000000E+00
  0.00000000E+00  0.00000000E+00  0.00000000E+00
  0.00000000E+00  0.00000000E+00  0.00000000E+00
  0.00000000E+00  0.00000000E+00  0.00000000E+00
  0.00000000E+00  0.00000000E+00  0.00000000E+00
  0.00000000E+00  0.00000000E+00  0.00000000E+00
  0.00000000E+00  0.00000000E+00  0.00000000E+00
  0.00000000E+00  0.00000000E+00  0.00000000E+00
  0.00000000E+00  0.00000000E+00  0.00000000E+00
  0.00000000E+00  0.00000000E+00  0.00000000E+00
  0.00000000E+00  0.00000000E+00  0.00000000E+00
  0.00000000E+00  0.00000000E+00  0.00000000E+00
  0.00000000E+00  0.00000000E+00  0.00000000E+00
  0.00000000E+00  0.00000000E+00  0.00000000E+00
  0.00000000E+00  0.00000000E+00  0.00000000E+00
  0.00000000E+00  0.00000000E+00  0.00000000E+00
  0.00000000E+00  0.00000000E+00  0.00000000E+00
  0.00000000E+00  0.00000000E+00  0.00000000E+00
  0.00000000E+00  0.00000000E+00  0.00000000E+00
  0.00000000E+00  0.00000000E+00  0.00000000E+00
  0.00000000E+00  0.00000000E+00  0.00000000E+00
  0.00000000E+00  0.00000000E+00  0.00000000E+00
  0.00000000E+00  0.00000000E+00  0.00000000E+00
  0.00000000E+00  0.00000000E+00  0.00000000E+00
  0.00000000E+00  0.00000000E+00  0.00000000E+00
  0.00000000E+00  0.00000000E+00  0.00000000E+00
  0.00000000E+00  0.00000000E+00  0.00000000E+00
  0.00000000E+00  0.00000000E+00  0.00000000E+00
  0.00000000E+00  0.00000000E+00  0.00000000E+00
  0.00000000E+00  0.00000000E+00  0.00000000E+00
  0.00000000E+00  0.00000000E+00  0.00000000E+00
  0.00000000E+00  0.00000000E+00  0.00000000E+00
  0.00000000E+00  0.00000000E+00  0.00000000E+00
  0.00000000E+00  0.00000000E+00  0.00000000E+00
  0.00000000E+00  0.00000000E+00  0.00000000E+00
  0.00000000E+00  0.00000000E+00  0.00000000E+00
  0.00000000E+00  0.00000000E+00  0.00000000E+00
  0.00000000E+00  0.00000000E+00  0.00000000E+00
  0.00000000E+00  0.00000000E+00  0.00000000E+00
  0.00000000E+00  0.00000000E+00  0.00000000E+00
  0.00000000E+00  0.00000000E+00  0.00000000E+00
  0.00000000E+00  0.00000000E+00  0.00000000E+00
  0.00000000E+00  0.00000000E+00  0.00000000E+00
  0.00000000E+00  0.00000000E+00  0.00000000E+00
  0.00000000E+00  0.00000000E+00  0.00000000E+00