 N B Ge 
 1.0
 14.936314146199660   0.000000000000000   0.000000000000000
 -7.468157073099825  12.935227489513863   0.000000000000000
  0.000000000000001   0.000000000000001  13.341276283792837
 N B Ge 
 143 144   1
Cartesian
  1.244740662960287   0.718467759291500   1.667832296407583 
  4.978771382066343   7.186307070242197   1.683008872731289 
  6.223389136852140   0.718460730705590   1.669608634462352 
  9.957646397113621   7.186384034010688   1.669608634462352 
 11.202190070273383   0.718597457246069   1.667930113148231 
 -3.733998517453534   9.342154941473579   8.336675402025440 
  1.244514121805271   9.342125221302085   8.336348578382250 
  2.489360414344977   2.874257330503451   8.336495556075647 
  6.223657415042787   9.342249466263956   8.336495556075647 
  7.468182349787704   2.874257330503451   8.336495556075647 
 12.446928455166619   2.874547582012520   8.338027099696291 
 -1.244772864612991   9.342154941473579   1.669281810819240 
  0.000042820025029   2.874519719822721   1.667503049413889 
  4.978771382066571   2.874553757437726   1.674263329696083 
  3.733885349090019   9.342249466263956   1.669461656768914 
  8.713028642327776   9.342125221302085   1.669608634462352 
  9.957499944108189   2.874519719822721   1.667503049413889 
 -4.978646211867389  11.497907723630819   8.336891867742288 
 -0.000125170199252  11.497907723630819   8.336891867742288 
  1.244474381368744   5.030463189251166   8.336495556075647 
  6.223524482225236   5.030331457888110   8.322948340113271 
  4.978771382066547  11.497930546373246   8.338454163430391 
 11.202346792339682   5.030485652106096   8.338124916437405 
 -1.244804028206685   5.030485652106095   1.667832296407583 
 -2.489385691033231  11.497887592585354   1.669281810819240 
  2.489226690899577  11.498016574621106   1.667832296407583 
  3.734018281907836   5.030331457888109   1.683008872731289 
  7.468316073233438  11.498016574621106   1.667832296407583 
  8.713068382764238   5.030463189251165   1.669461656768914 
 -0.000103632980247   7.186384034010689   8.336348578382250 
  1.244740662960288   0.718467759291500   8.338124916437405 
  4.978771382066344   7.186307070242198   8.322948340113271 
  6.223389136852141   0.718460730705591   8.336348578382250 
  9.957646397113621   7.186384034010689   8.336348578382250 
 -2.489385691033286   7.186382028270756   1.669065345102020 
 11.202190070273383   0.718597457246069   8.338027099696291 
  3.734153627280778   0.718460730705590   1.669608634462352 
  2.489436578485312   7.186208114289990   1.674263329696083 
  7.468106185648193   7.186208114289990   1.674263329696083 
  8.712802101172795   0.718467759291500   1.667832296407583 
  2.489436578485312   7.186208114289991   8.331693883148278 
 13.691666840059927   0.718597457246069   1.667930113148231 
 -1.244772864612991   9.342154941473579   8.336675402025440 
  0.000042820025029   2.874519719822722   8.338454163430391 
  4.978771382066572   2.874553757437727   8.331693883148278 
  3.733885349090019   9.342249466263956   8.336495556075647 
  8.713028642327776   9.342125221302085   8.336348578382250 
  9.957499944108189   2.874519719822722   8.338454163430391 
 -3.733998517453534   9.342154941473579   1.669281810819240 
  1.244514121805270   9.342125221302085   1.669608634462352 
  2.489360414344977   2.874257330503450   1.669461656768914 
  6.223657415042786   9.342249466263956   1.669461656768914 
  7.468182349787703   2.874257330503450   1.669461656768914 
 12.446928455166619   2.874547582012519   1.667930113148231 
 -1.244804028206685   5.030485652106096   8.338124916437405 
 -2.489385691033231  11.497887592585354   8.336675402025440 
  2.489226690899577  11.498016574621106   8.338124916437405 
  3.734018281907837   5.030331457888110   8.322948340113271 
  7.468316073233439  11.498016574621106   8.338124916437405 
 -4.978646211867390  11.497907723630819   1.669065345102020 
  8.713068382764238   5.030463189251166   8.336495556075647 
 -0.000125170199253  11.497907723630819   1.669065345102020 
  1.244474381368744   5.030463189251165   1.669461656768914 
 -0.000103632980248   7.186384034010688   1.669608634462352 
  6.223524482225235   5.030331457888109   1.683008872731289 
  4.978771382066546  11.497930546373246   1.667503049413889 
 11.202346792339682   5.030485652106095   1.667832296407583 
 -2.489385691033286   7.186382028270757   8.336891867742288 
  3.734153627280778   0.718460730705591   8.336348578382250 
  7.468106185648194   7.186208114289991   8.331693883148278 
  8.712802101172795   0.718467759291500   8.338124916437405 
 13.691666840059927   0.718597457246069   8.338027099696291 
 -0.012722314807698   1.426790489314193   5.002978606422314 
  3.669519380574922   8.038553100541559   5.002978606422314 
  4.978771382066354   1.411044173525617   5.002978606422314 
  8.735542663998041   7.917962906246659   5.002978606422314 
  9.970265078940901   1.426790489314193   5.002978606422314 
 -4.978888254784358  10.060720841336543  11.673616748318732 
  0.000116872718283  10.060720841336543  11.673616748318732 
  1.244708752021711   3.593127930712175  11.673616748318732 
  4.978771382066583  10.060714124594172  11.673616748318732 
  6.223444532648064   3.593238000820811  11.673616748318732 
 11.202242742603012   3.593110892296336  11.673616748318732 
 -2.489385691033300  10.060732491844131   5.002978606422314 
 -1.260110038813173   3.587329404029395   5.002978606422314 
  3.650577570139622   3.470362949492160   5.002978606422314 
  2.454215967143255  10.114180347851006   5.002978606422314 
  7.503326796990701  10.114180347851006   5.002978606422314 
  8.757632485460991   3.567263520064480   5.002978606422314 
 -6.223517637743062  12.216634576466637  11.673616748318732 
 -1.244644498792853  12.216710780092965  11.673616748318732 
  0.000040313288110   5.748925070099635  11.673616748318732 
  4.978771382066590   5.748989995339477  11.673616748318732 
  3.734081772522106  12.216613844810670  11.673616748318732 
  9.957502450844903   5.748925070099635  11.673616748318732 
 -2.489385691033309   5.753984128725656   5.002978606422314 
 -3.732044928056814  12.204838505788452   5.002978606422314 
  1.240367799134548  12.214106673403377   5.002978606422314 
  2.341325568649216   5.738053935984801   5.002978606422314 
  6.226159106071589  12.232850092675152   5.002978606422314 
  7.616217195483780   5.738053935984801   5.002978606422314 
 -1.244624319522381   7.904765854102620  11.673616748318732 
 -0.000010368925140   1.437245248911530  11.673616748318732 
  3.734171965845209   7.904784560410777  11.673616748318732 
  4.978771382066527   1.437446283421631  11.673616748318732 
  8.712677766114371   7.904761851298426  11.673616748318732 
 -3.724906349004192   7.912505017362149   5.002978606422314 
  9.957553133058628   1.437245248911530  11.673616748318732 
  2.460683351898440   1.380065696497932   5.002978606422314 
  1.222000100134868   7.917962906246659   5.002978606422314 
  6.288023383556435   8.038553100541559   5.002978606422314 
  7.496859412234971   1.380065696497932   5.002978606422314 
  1.244864998018627   7.904761851298426  11.673616748318732 
 12.446928455166319   1.437247498834912   5.002978606422314 
 -2.489385691033299  10.060732491844133  11.673616748318732 
 -1.244699978470014   3.593110892296336  11.673616748318732 
  3.734098231484693   3.593238000820811  11.673616748318732 
  2.489462074584535  10.060730042132361  11.673616748318732 
  7.468080689548661  10.060730042132361  11.673616748318732 
  8.712834012111433   3.593127930712175  11.673616748318732 
 -4.967565586027647  10.064853952381561   5.002978606422314 
 -0.011205796038788  10.064853952381561   5.002978606422314 
  1.199910278672333   3.567263520064480   5.002978606422314 
  4.978771382066509  10.112442945889558   5.002978606422314 
  6.306965193992673   3.470362949492160   5.002978606422314 
 11.217652802945661   3.587329404029395   5.002978606422314 
 -2.489385691033301   5.748928322599205  11.673616748318732 
 -3.734126883273729  12.216710780092965  11.673616748318732 
  1.244746255676764  12.216634576466637  11.673616748318732 
  2.489498815263546   5.748947424786416  11.673616748318732 
  6.223460991611364  12.216613844810670  11.673616748318732 
 -6.219139181200936  12.214106673403377   5.002978606422314 
  7.468043948869796   5.748947424786416  11.673616748318732 
 -1.246726454009889  12.204838505788452   5.002978606422314 
 -0.063872063025536   5.752723941669416   5.002978606422314 
 -1.253865033062258   7.912505017362149   5.002978606422314 
  3.731383658061354  12.232850092675152   5.002978606422314 
 10.021414827158443   5.752723941669416   5.002978606422314 
 -3.734147062544146   7.904765854102620  11.673616748318732 
  2.489349620770186   1.437314873786554  11.673616748318732 
  6.223370798288088   7.904784560410777  11.673616748318732 
  7.468193143362853   1.437314873786554  11.673616748318732 
 12.446928455166319   1.437247498834912  11.673616748318732 
  1.220282134087287   0.694222454436859   5.002978606422314 
  4.978771382066506   7.557482079455886   5.002978606422314 
  6.233110220747544   0.693431493898791   5.002978606422314 
  9.984182893972726   7.190479946809008   5.002978606422314 
 11.209569885522491   0.722858195566979   5.002978606422314 
 -3.734013366623329   9.342146368301263  11.673616748318732 
  1.244528692908224   9.342466686847944  11.673616748318732 
  2.488715166430653   2.873954687526410  11.673616748318732 
  6.223596887591998   9.342959588838344  11.673616748318732 
  7.468827597702821   2.873954687526410  11.673616748318732 
 12.446928455166763   2.874306239839854  11.673616748318732 
 -1.251197979290584   9.345864483162243   5.002978606422314 
 -0.034207545451223   2.854745262095121   5.002978606422314 
  4.978771382066505   2.827850293189026   5.002978606422314 
  3.694703393692623   9.455458898620146   5.002978606422314 
  8.729844055292149   9.363058545310722   5.002978606422314 
  9.991750309584337   2.854745262095121   5.002978606422314 
 -4.978869743744844  11.498036779820598  11.673616748318732 
  0.000098361678200  11.498036779820598  11.673616748318732 
  1.243889660905149   5.030055709654208  11.673616748318732 
  6.224201517348708   5.029940571477288  11.673616748318732 
  4.978771382066659  11.498578009820530  11.673616748318732 
 11.202548150816440   5.030127058285344  11.673616748318732 
 -1.278030342569750   5.021426597190112   5.002978606422314 
 -2.489385691033239  11.490468509207986   5.002978606422314 
  2.480458905410015  11.531320934391406   5.002978606422314 
  3.412571294678742   4.844743953281266   5.002978606422314 
  7.477083858723451  11.531320934391406   5.002978606422314 
  8.830701604831010   5.007791041817864   5.002978606422314 
 -0.000392065266378   7.186200682292714  11.673616748318732 
  1.244329432363982   0.718472674645751  11.673616748318732 
  4.978771382066277   7.187088843063854  11.673616748318732 
  6.223692140241002   0.718302616877711  11.673616748318732 
  9.957934829398958   7.186200682292714  11.673616748318732 
 -2.489385691033234   7.188953854298547   5.002978606422314 
 11.202399078726083   0.718718128332396  11.673616748318732 
  3.724432543385495   0.693431493898791   5.002978606422314 
  2.448990192000928   7.209559846414695   5.002978606422314 
  7.508552572132236   7.209559846414695   5.002978606422314 
  8.737260630046213   0.694222454436859   5.002978606422314 
  2.488875426877564   7.186532095322065  11.673616748318732 
 13.684287024810414   0.722858195566979   5.002978606422314 
 -1.244758015443148   9.342146368301263  11.673616748318732 
 -0.000517899768478   2.874195988098983  11.673616748318732 
  4.978771382066677   2.873905795374250  11.673616748318732 
  3.733945876541394   9.342959588838344  11.673616748318732 
  8.713014071224567   9.342466686847944  11.673616748318732 
  9.958060663901728   2.874195988098983  11.673616748318732 
 -3.727573402775733   9.345864483162243   5.002978606422314 
  1.227698708841239   9.363058545310722   5.002978606422314 
  2.410909147675609   2.783720045581169   5.002978606422314 
  6.262839370440183   9.455458898620146   5.002978606422314 
  7.546633616457534   2.783720045581169   5.002978606422314 
 12.446928455166677   2.866026105370700   5.002978606422314 
 -1.245005386682950   5.030127058285344  11.673616748318732 
 -2.489385691033231  11.497904738929655  11.673616748318732 
  2.489436563019403  11.498370253087312  11.673616748318732 
  3.733341246784665   5.029940571477288  11.673616748318732 
  7.468106201113585  11.498370253087312  11.673616748318732 
 -4.976418945192952  11.496621810616569   5.002978606422314 
  8.713653103227935   5.030055709654208  11.673616748318732 
 -0.002352436873227  11.496621810616569   5.002978606422314 
  1.126841159301524   5.007791041817864   5.002978606422314 
 -0.026640129840234   7.190479946809008   5.002978606422314 
  6.544971469454373   4.844743953281266   5.002978606422314 
  4.978771382066254  11.537479461828640   5.002978606422314 
 11.235573106702612   5.021426597190112   5.002978606422314 
 -2.489385691033428   7.186123915891917  11.673616748318732 
  3.733850623892009   0.718302616877711  11.673616748318732 
  7.468667337255452   7.186532095322065  11.673616748318732 
  8.713213331769190   0.718472674645751  11.673616748318732 
 13.691457831607540   0.718718128332396  11.673616748318732 
 -0.000409490763657   1.436777708656983   1.665540131381324 
  3.731496415824268   7.907748894734723   1.668335449226425 
  4.978771382066362   1.434385411121405   1.666678157821070 
  8.715328559284519   7.906292287448421   1.666678157821056 
  9.957952254896695   1.436777708656983   1.665540131381324 
 -4.977767238225507  10.061182211857796   8.339325460499323 
 -0.001004143841242  10.061182211857796   8.339325460499323 
  1.243099212629533   3.592198662710821   8.341036240497347 
  4.978771382066756  10.062572660596864   8.341036240497347 
  6.224673946467226   3.589438739371982   8.337621763617896 
 11.202847205260086   3.592999012772196   8.340417081463384 
 -2.489385691033300  10.060732491844131   1.666867842091071 
 -1.245304441126973   3.592999012772196   1.665540131381324 
  3.732868817665487   3.589438739371981   1.668335449226425 
  2.488124594541365  10.062156306424953   1.665412792582908 
  7.469418169591141  10.062156306424953   1.665412792582908 
  8.714443551503791   3.592198662710820   1.664920972347401 
 -6.223189521545580  12.216445138491874   8.340106590507888 
 -1.244805448481026  12.215509266014372   8.339325460499323 
 -0.001863607842969   5.749370229647440   8.340544420262026 
  4.978771382066590   5.748989995339477   8.342081359109168 
  3.733876431703498  12.217193264588760   8.340417081463384 
  9.959406371975891   5.749370229647440   8.340544420262026 
 -2.489385691033227   5.749307198549139   1.665850622336699 
 -3.733965933585751  12.215509266014372   1.666631752345119 
  1.244418139478700  12.216445138491874   1.665850622336699 
  2.485593851423563   5.749782351911763   1.668335449226425 
  6.223666332430205  12.217193264588760   1.665540131381324 
  7.471948912710151   5.749782351911763   1.668335449226425 
 -1.245584386393560   7.905505997660618   8.339325460499323 
 -0.000409490763657   1.436777708656984   8.340417081463384 
  3.731496415824269   7.907748894734724   8.337621763617896 
  4.978771382066363   1.434385411121406   8.339279055023891 
  8.715328559284519   7.906292287448422   8.339279055023891 
 -3.733186995673102   7.905505997660617   1.666631752345119 
  9.957952254896695   1.436777708656984   8.340417081463384 
  2.488783179681804   1.435443449946295   1.665412792582908 
  1.242214204848795   7.906292287448421   1.666678157821056 
  6.226046348309118   7.907748894734723   1.668335449226425 
  7.468759584450891   1.435443449946295   1.665412792582908 
  1.242214204848795   7.906292287448422   8.339279055023891 
 12.446928455166319   1.437247498834911   1.666170176768071 
 -2.489385691033300  10.060732491844131   8.339089370753557 
 -1.245304441126972   3.592999012772196   8.340417081463384 
  3.732868817665487   3.589438739371982   8.337621763617896 
  2.488124594541366  10.062156306424953   8.340544420262026 
  7.469418169591142  10.062156306424953   8.340544420262026 
  8.714443551503791   3.592198662710821   8.341036240497347 
 -4.977767238225508  10.061182211857796   1.666631752345119 
 -0.001004143841242  10.061182211857796   1.666631752345119 
  1.243099212629532   3.592198662710820   1.664920972347401 
  4.978771382066755  10.062572660596864   1.664920972347401 
  6.224673946467226   3.589438739371981   1.668335449226425 
 11.202847205260086   3.592999012772196   1.665540131381324 
 -2.489385691033226   5.749307198549140   8.340106590507888 
 -3.733965933585750  12.215509266014372   8.339325460499323 
  1.244418139478701  12.216445138491874   8.340106590507888 
  2.485593851423564   5.749782351911764   8.337621763617896 
  6.223666332430206  12.217193264588760   8.340417081463384 
 -6.223189521545581  12.216445138491874   1.665850622336699 
  7.471948912710152   5.749782351911764   8.337621763617896 
 -1.244805448481027  12.215509266014372   1.666631752345119 
 -0.001863607842970   5.749370229647439   1.665412792582908 
 -1.245584386393560   7.905505997660617   1.666631752345119 
  4.978771382066589   5.748989995339476   1.663875853735888 
  3.733876431703497  12.217193264588760   1.665540131381324 
  9.959406371975891   5.749370229647439   1.665412792582908 
 -3.733186995673102   7.905505997660618   8.339325460499323 
  2.488783179681805   1.435443449946295   8.340544420262026 
  6.226046348309119   7.907748894734724   8.337621763617896 
  7.468759584450892   1.435443449946295   8.340544420262026 
 12.446928455166319   1.437247498834912   8.339787036076356 
  4.978771382066589   5.748989995339477   5.002978606422314 
Generated by cif2cell 2.0.0.  :  Failed to get author information, No journal information. Species order: N B Ge 
 1.0
 14.936314146199660   0.000000000000000   0.000000000000000
 -7.468157073099825  12.935227489513863   0.000000000000000
  0.000000000000001   0.000000000000001  13.341276283792837
 N B Ge 
 143 144   1
Cartesian
  1.244740662960287   0.718467759291500   1.667832296407583 
  4.978771382066343   7.186307070242197   1.683008872731289 
  6.223389136852140   0.718460730705590   1.669608634462352 
  9.957646397113621   7.186384034010688   1.669608634462352 
 11.202190070273383   0.718597457246069   1.667930113148231 
 -3.733998517453534   9.342154941473579   8.336675402025440 
  1.244514121805271   9.342125221302085   8.336348578382250 
  2.489360414344977   2.874257330503451   8.336495556075647 
  6.223657415042787   9.342249466263956   8.336495556075647 
  7.468182349787704   2.874257330503451   8.336495556075647 
 12.446928455166619   2.874547582012520   8.338027099696291 
 -1.244772864612991   9.342154941473579   1.669281810819240 
  0.000042820025029   2.874519719822721   1.667503049413889 
  4.978771382066571   2.874553757437726   1.674263329696083 
  3.733885349090019   9.342249466263956   1.669461656768914 
  8.713028642327776   9.342125221302085   1.669608634462352 
  9.957499944108189   2.874519719822721   1.667503049413889 
 -4.978646211867389  11.497907723630819   8.336891867742288 
 -0.000125170199252  11.497907723630819   8.336891867742288 
  1.244474381368744   5.030463189251166   8.336495556075647 
  6.223524482225236   5.030331457888110   8.322948340113271 
  4.978771382066547  11.497930546373246   8.338454163430391 
 11.202346792339682   5.030485652106096   8.338124916437405 
 -1.244804028206685   5.030485652106095   1.667832296407583 
 -2.489385691033231  11.497887592585354   1.669281810819240 
  2.489226690899577  11.498016574621106   1.667832296407583 
  3.734018281907836   5.030331457888109   1.683008872731289 
  7.468316073233438  11.498016574621106   1.667832296407583 
  8.713068382764238   5.030463189251165   1.669461656768914 
 -0.000103632980247   7.186384034010689   8.336348578382250 
  1.244740662960288   0.718467759291500   8.338124916437405 
  4.978771382066344   7.186307070242198   8.322948340113271 
  6.223389136852141   0.718460730705591   8.336348578382250 
  9.957646397113621   7.186384034010689   8.336348578382250 
 -2.489385691033286   7.186382028270756   1.669065345102020 
 11.202190070273383   0.718597457246069   8.338027099696291 
  3.734153627280778   0.718460730705590   1.669608634462352 
  2.489436578485312   7.186208114289990   1.674263329696083 
  7.468106185648193   7.186208114289990   1.674263329696083 
  8.712802101172795   0.718467759291500   1.667832296407583 
  2.489436578485312   7.186208114289991   8.331693883148278 
 13.691666840059927   0.718597457246069   1.667930113148231 
 -1.244772864612991   9.342154941473579   8.336675402025440 
  0.000042820025029   2.874519719822722   8.338454163430391 
  4.978771382066572   2.874553757437727   8.331693883148278 
  3.733885349090019   9.342249466263956   8.336495556075647 
  8.713028642327776   9.342125221302085   8.336348578382250 
  9.957499944108189   2.874519719822722   8.338454163430391 
 -3.733998517453534   9.342154941473579   1.669281810819240 
  1.244514121805270   9.342125221302085   1.669608634462352 
  2.489360414344977   2.874257330503450   1.669461656768914 
  6.223657415042786   9.342249466263956   1.669461656768914 
  7.468182349787703   2.874257330503450   1.669461656768914 
 12.446928455166619   2.874547582012519   1.667930113148231 
 -1.244804028206685   5.030485652106096   8.338124916437405 
 -2.489385691033231  11.497887592585354   8.336675402025440 
  2.489226690899577  11.498016574621106   8.338124916437405 
  3.734018281907837   5.030331457888110   8.322948340113271 
  7.468316073233439  11.498016574621106   8.338124916437405 
 -4.978646211867390  11.497907723630819   1.669065345102020 
  8.713068382764238   5.030463189251166   8.336495556075647 
 -0.000125170199253  11.497907723630819   1.669065345102020 
  1.244474381368744   5.030463189251165   1.669461656768914 
 -0.000103632980248   7.186384034010688   1.669608634462352 
  6.223524482225235   5.030331457888109   1.683008872731289 
  4.978771382066546  11.497930546373246   1.667503049413889 
 11.202346792339682   5.030485652106095   1.667832296407583 
 -2.489385691033286   7.186382028270757   8.336891867742288 
  3.734153627280778   0.718460730705591   8.336348578382250 
  7.468106185648194   7.186208114289991   8.331693883148278 
  8.712802101172795   0.718467759291500   8.338124916437405 
 13.691666840059927   0.718597457246069   8.338027099696291 
 -0.012722314807698   1.426790489314193   5.002978606422314 
  3.669519380574922   8.038553100541559   5.002978606422314 
  4.978771382066354   1.411044173525617   5.002978606422314 
  8.735542663998041   7.917962906246659   5.002978606422314 
  9.970265078940901   1.426790489314193   5.002978606422314 
 -4.978888254784358  10.060720841336543  11.673616748318732 
  0.000116872718283  10.060720841336543  11.673616748318732 
  1.244708752021711   3.593127930712175  11.673616748318732 
  4.978771382066583  10.060714124594172  11.673616748318732 
  6.223444532648064   3.593238000820811  11.673616748318732 
 11.202242742603012   3.593110892296336  11.673616748318732 
 -2.489385691033300  10.060732491844131   5.002978606422314 
 -1.260110038813173   3.587329404029395   5.002978606422314 
  3.650577570139622   3.470362949492160   5.002978606422314 
  2.454215967143255  10.114180347851006   5.002978606422314 
  7.503326796990701  10.114180347851006   5.002978606422314 
  8.757632485460991   3.567263520064480   5.002978606422314 
 -6.223517637743062  12.216634576466637  11.673616748318732 
 -1.244644498792853  12.216710780092965  11.673616748318732 
  0.000040313288110   5.748925070099635  11.673616748318732 
  4.978771382066590   5.748989995339477  11.673616748318732 
  3.734081772522106  12.216613844810670  11.673616748318732 
  9.957502450844903   5.748925070099635  11.673616748318732 
 -2.489385691033309   5.753984128725656   5.002978606422314 
 -3.732044928056814  12.204838505788452   5.002978606422314 
  1.240367799134548  12.214106673403377   5.002978606422314 
  2.341325568649216   5.738053935984801   5.002978606422314 
  6.226159106071589  12.232850092675152   5.002978606422314 
  7.616217195483780   5.738053935984801   5.002978606422314 
 -1.244624319522381   7.904765854102620  11.673616748318732 
 -0.000010368925140   1.437245248911530  11.673616748318732 
  3.734171965845209   7.904784560410777  11.673616748318732 
  4.978771382066527   1.437446283421631  11.673616748318732 
  8.712677766114371   7.904761851298426  11.673616748318732 
 -3.724906349004192   7.912505017362149   5.002978606422314 
  9.957553133058628   1.437245248911530  11.673616748318732 
  2.460683351898440   1.380065696497932   5.002978606422314 
  1.222000100134868   7.917962906246659   5.002978606422314 
  6.288023383556435   8.038553100541559   5.002978606422314 
  7.496859412234971   1.380065696497932   5.002978606422314 
  1.244864998018627   7.904761851298426  11.673616748318732 
 12.446928455166319   1.437247498834912   5.002978606422314 
 -2.489385691033299  10.060732491844133  11.673616748318732 
 -1.244699978470014   3.593110892296336  11.673616748318732 
  3.734098231484693   3.593238000820811  11.673616748318732 
  2.489462074584535  10.060730042132361  11.673616748318732 
  7.468080689548661  10.060730042132361  11.673616748318732 
  8.712834012111433   3.593127930712175  11.673616748318732 
 -4.967565586027647  10.064853952381561   5.002978606422314 
 -0.011205796038788  10.064853952381561   5.002978606422314 
  1.199910278672333   3.567263520064480   5.002978606422314 
  4.978771382066509  10.112442945889558   5.002978606422314 
  6.306965193992673   3.470362949492160   5.002978606422314 
 11.217652802945661   3.587329404029395   5.002978606422314 
 -2.489385691033301   5.748928322599205  11.673616748318732 
 -3.734126883273729  12.216710780092965  11.673616748318732 
  1.244746255676764  12.216634576466637  11.673616748318732 
  2.489498815263546   5.748947424786416  11.673616748318732 
  6.223460991611364  12.216613844810670  11.673616748318732 
 -6.219139181200936  12.214106673403377   5.002978606422314 
  7.468043948869796   5.748947424786416  11.673616748318732 
 -1.246726454009889  12.204838505788452   5.002978606422314 
 -0.063872063025536   5.752723941669416   5.002978606422314 
 -1.253865033062258   7.912505017362149   5.002978606422314 
  3.731383658061354  12.232850092675152   5.002978606422314 
 10.021414827158443   5.752723941669416   5.002978606422314 
 -3.734147062544146   7.904765854102620  11.673616748318732 
  2.489349620770186   1.437314873786554  11.673616748318732 
  6.223370798288088   7.904784560410777  11.673616748318732 
  7.468193143362853   1.437314873786554  11.673616748318732 
 12.446928455166319   1.437247498834912  11.673616748318732 
  1.220282134087287   0.694222454436859   5.002978606422314 
  4.978771382066506   7.557482079455886   5.002978606422314 
  6.233110220747544   0.693431493898791   5.002978606422314 
  9.984182893972726   7.190479946809008   5.002978606422314 
 11.209569885522491   0.722858195566979   5.002978606422314 
 -3.734013366623329   9.342146368301263  11.673616748318732 
  1.244528692908224   9.342466686847944  11.673616748318732 
  2.488715166430653   2.873954687526410  11.673616748318732 
  6.223596887591998   9.342959588838344  11.673616748318732 
  7.468827597702821   2.873954687526410  11.673616748318732 
 12.446928455166763   2.874306239839854  11.673616748318732 
 -1.251197979290584   9.345864483162243   5.002978606422314 
 -0.034207545451223   2.854745262095121   5.002978606422314 
  4.978771382066505   2.827850293189026   5.002978606422314 
  3.694703393692623   9.455458898620146   5.002978606422314 
  8.729844055292149   9.363058545310722   5.002978606422314 
  9.991750309584337   2.854745262095121   5.002978606422314 
 -4.978869743744844  11.498036779820598  11.673616748318732 
  0.000098361678200  11.498036779820598  11.673616748318732 
  1.243889660905149   5.030055709654208  11.673616748318732 
  6.224201517348708   5.029940571477288  11.673616748318732 
  4.978771382066659  11.498578009820530  11.673616748318732 
 11.202548150816440   5.030127058285344  11.673616748318732 
 -1.278030342569750   5.021426597190112   5.002978606422314 
 -2.489385691033239  11.490468509207986   5.002978606422314 
  2.480458905410015  11.531320934391406   5.002978606422314 
  3.412571294678742   4.844743953281266   5.002978606422314 
  7.477083858723451  11.531320934391406   5.002978606422314 
  8.830701604831010   5.007791041817864   5.002978606422314 
 -0.000392065266378   7.186200682292714  11.673616748318732 
  1.244329432363982   0.718472674645751  11.673616748318732 
  4.978771382066277   7.187088843063854  11.673616748318732 
  6.223692140241002   0.718302616877711  11.673616748318732 
  9.957934829398958   7.186200682292714  11.673616748318732 
 -2.489385691033234   7.188953854298547   5.002978606422314 
 11.202399078726083   0.718718128332396  11.673616748318732 
  3.724432543385495   0.693431493898791   5.002978606422314 
  2.448990192000928   7.209559846414695   5.002978606422314 
  7.508552572132236   7.209559846414695   5.002978606422314 
  8.737260630046213   0.694222454436859   5.002978606422314 
  2.488875426877564   7.186532095322065  11.673616748318732 
 13.684287024810414   0.722858195566979   5.002978606422314 
 -1.244758015443148   9.342146368301263  11.673616748318732 
 -0.000517899768478   2.874195988098983  11.673616748318732 
  4.978771382066677   2.873905795374250  11.673616748318732 
  3.733945876541394   9.342959588838344  11.673616748318732 
  8.713014071224567   9.342466686847944  11.673616748318732 
  9.958060663901728   2.874195988098983  11.673616748318732 
 -3.727573402775733   9.345864483162243   5.002978606422314 
  1.227698708841239   9.363058545310722   5.002978606422314 
  2.410909147675609   2.783720045581169   5.002978606422314 