 B O N 
 1.0
 14.936314146199660   0.000000000000000   0.000000000000000
 -7.468157073099825  12.935227489513863   0.000000000000000
  0.000000000000001   0.000000000000001  13.341276283792837
 B O N 
 144   1 143
Cartesian
  1.242560263518844   0.718507341502295   5.002978606422314 
  4.978771382066618   7.229074949934481   5.002978606422314 
  6.225406926976026   0.716738369195172   5.002978606422314 
  9.960146900997817   7.185497757259340   5.002978606422314 
 11.203122023525973   0.719135520707513   5.002978606422314 
 -3.734011869304035   9.342147232778997  11.673616748318732 
  1.244528344698328   9.342399012735935  11.673616748318732 
  2.488889141294536   2.874084484065819  11.673616748318732 
  6.223571467923428   9.342744023916588  11.673616748318732 
  7.468653622838683   2.874084484065819  11.673616748318732 
 12.446928455166386   2.874333104442504  11.673616748318732 
 -1.244783888088747   9.342161305880195   5.002978606422314 
 -0.003678765611015   2.872371061353913   5.002978606422314 
  4.978771382066542   2.864900583766009   5.002978606422314 
  3.734996957000159   9.350223190625522   5.002978606422314 
  8.713511356088310   9.344733859563933   5.002978606422314 
  9.961221529744162   2.872371061353913   5.002978606422314 
 -4.978836601711871  11.498017645258750  11.673616748318732 
  0.000065219645408  11.498017645258750  11.673616748318732 
  1.244089055437693   5.030141478035986  11.673616748318732 
  6.223872446005614   5.030130560905995  11.673616748318732 
  4.978771382066577  11.498456929945895  11.673616748318732 
 11.202494917259745   5.030188080987514  11.673616748318732 
 -1.245859948727216   5.028577579693830   5.002978606422314 
 -2.489385691033232  11.497874863771887   5.002978606422314 
  2.490351169820551  11.499885064822317   5.002978606422314 
  3.696980211628200   5.008947518041975   5.002978606422314 
  7.467191594312570  11.499885064822317   5.002978606422314 
  8.719418026669269   5.025513646381362   5.002978606422314 
 -0.000333631870947   7.186234820907372  11.673616748318732 
  1.244408896352364   0.718488264907070  11.673616748318732 
  4.978771382066611   7.186708864206429  11.673616748318732 
  6.223633358635780   0.718336152375267  11.673616748318732 
  9.957876396003947   7.186234820907372  11.673616748318732 
 -2.489385691033241   7.185150881562762   5.002978606422314 
 11.202375813297246   0.718704696031071  11.673616748318732 
  3.732135837157026   0.716738369195172   5.002978606422314 
  2.481076684858202   7.191034701126250   5.002978606422314 
  7.476466079274871   7.191034701126250   5.002978606422314 
  8.714982500614358   0.718507341502295   5.002978606422314 
  2.488971336706388   7.186476721756498  11.673616748318732 
 13.690734886806741   0.719135520707513   5.002978606422314 
 -1.244759512762429   9.342147232778997  11.673616748318732 
 -0.000413041521177   2.874256528036281  11.673616748318732 
  4.978771382066514   2.874016542505436  11.673616748318732 
  3.733971296209827   9.342744023916588  11.673616748318732 
  8.713014419434703   9.342399012735935  11.673616748318732 
  9.957955805654336   2.874256528036281  11.673616748318732 
 -3.733987493977688   9.342161305880195   5.002978606422314 
  1.244031408044780   9.344733859563933   5.002978606422314 
  2.481899162530255   2.871233149011533   5.002978606422314 
  6.222545807132977   9.350223190625522   5.002978606422314 
  7.475643601602874   2.871233149011533   5.002978606422314 
 12.446928455166351   2.873471455089630   5.002978606422314 
 -1.244952153126524   5.030188080987514  11.673616748318732 
 -2.489385691033238  11.497903009974332  11.673616748318732 
  2.489410332587687  11.498293640123848  11.673616748318732 
  3.733670318127607   5.030130560905995  11.673616748318732 
  7.468132431545495  11.498293640123848  11.673616748318732 
 -4.979712416192225  11.498523296984764   5.002978606422314 
  8.713453708695440   5.030141478035986  11.673616748318732 
  0.000941034125746  11.498523296984764   5.002978606422314 
  1.238124737463832   5.025513646381362   5.002978606422314 
 -0.002604136864714   7.185497757259340   5.002978606422314 
  6.260562552505020   5.008947518041975   5.002978606422314 
  4.978771382066570  11.502227863310617   5.002978606422314 
 11.203402712860317   5.028577579693830   5.002978606422314 
 -2.489385691033241   7.186162185014720  11.673616748318732 
  3.733909405497260   0.718336152375267  11.673616748318732 
  7.468571427426760   7.186476721756498  11.673616748318732 
  8.713133867780824   0.718488264907070  11.673616748318732 
 13.691481097035522   0.718704696031071  11.673616748318732 
 -0.000191081423734   1.436854602857077   1.666411157820771 
  3.732341928269986   7.906742897790404   1.664695330248963 
  4.978771382066505   1.434885399076148   1.665438984938456 
  8.714895557013723   7.906042293471250   1.665438984938456 
  9.957733845556756   1.436854602857077   1.666411157820771 
 -4.977870735532778  10.061096012153843   8.339496754275757 
 -0.000900646533820  10.061096012153843   8.339496754275757 
  1.243564980458602   3.592467573892305   8.340507681671575 
  4.978771382066457  10.062034838233897   8.340507681671575 
  6.224225483780310   3.590673973101116   8.341261882595706 
 11.202671408259432   3.593149713708959   8.339546055023829 
 -2.489385691033300  10.060732491844131   1.666621826409001 
 -1.245128644126333   3.593149713708959   1.666411157820771 
  3.733317280352761   3.590673973101115   1.664695330248963 
  2.488222667102176  10.061766250805196   1.665795037337606 
  7.469320097030930  10.061766250805196   1.665795037337606 
  8.713977783674439   3.592467573892304   1.665449531173025 
 -6.223090676451837  12.216388070250204   8.339493457285052 
 -1.244828350960571  12.215641997163514   8.339496754275757 
 -0.001476773487279   5.749480324128477   8.340162175507007 
  4.978771382066590   5.748989995339477   8.346066901183903 
  3.733833819363841  12.216965669452549   8.339546055023829 
  9.959019537620351   5.749480324128477   8.340162175507007 
 -2.489385691033242   5.749421335031937   1.666463755559575 
 -3.733943031106040  12.215641997163514   1.666460458568857 
  1.244319294385286  12.216388070250204   1.666463755559575 
  2.486887826556271   5.749553115126975   1.664695330248963 
  6.223708944769116  12.216965669452549   1.666411157820771 
  7.470654937576830   5.749553115126975   1.664695330248963 
 -1.245457986606548   7.905459466215065   8.339496754275757 
 -0.000191081423734   1.436854602857078   8.339546055023829 
  3.732341928269987   7.906742897790405   8.341261882595706 
  4.978771382066506   1.434885399076149   8.340518227906159 
  8.714895557013723   7.906042293471251   8.340518227906159 
 -3.733313395460038   7.905459466215064   1.666460458568857 
  9.957733845556756   1.436854602857078   8.339546055023829 
  2.489071941477080   1.435723411084797   1.665795037337606 
  1.242647207119215   7.906042293471250   1.665438984938456 
  6.225200835862998   7.906742897790404   1.664695330248963 
  7.468470822655958   1.435723411084797   1.665795037337606 
  1.242647207119215   7.906042293471251   8.340518227906159 
 12.446928455166319   1.437247498834911   1.666594051165202 
 -2.489385691033300  10.060732491844131   8.339335386435639 
 -1.245128644126333   3.593149713708959   8.339546055023829 
  3.733317280352762   3.590673973101116   8.341261882595706 
  2.488222667102176  10.061766250805196   8.340162175507007 
  7.469320097030931  10.061766250805196   8.340162175507007 
  8.713977783674439   3.592467573892305   8.340507681671575 
 -4.977870735532779  10.061096012153843   1.666460458568857 
 -0.000900646533821  10.061096012153843   1.666460458568857 
  1.243564980458601   3.592467573892304   1.665449531173025 
  4.978771382066456  10.062034838233897   1.665449531173025 
  6.224225483780309   3.590673973101115   1.664695330248963 
 11.202671408259432   3.593149713708959   1.666411157820771 
 -2.489385691033242   5.749421335031938   8.339493457285052 
 -3.733943031106040  12.215641997163514   8.339496754275757 
  1.244319294385286  12.216388070250204   8.339493457285052 
  2.486887826556272   5.749553115126976   8.341261882595706 
  6.223708944769117  12.216965669452549   8.339546055023829 
 -6.223090676451838  12.216388070250204   1.666463755559575 
  7.470654937576831   5.749553115126976   8.341261882595706 
 -1.244828350960572  12.215641997163514   1.666460458568857 
 -0.001476773487280   5.749480324128476   1.665795037337606 
 -1.245457986606548   7.905459466215064   1.666460458568857 
  4.978771382066589   5.748989995339476   1.659890311660659 
  3.733833819363841  12.216965669452549   1.666411157820771 
  9.959019537620351   5.749480324128476   1.665795037337606 
 -3.733313395460038   7.905459466215065   8.339496754275757 
  2.489071941477081   1.435723411084797   8.340162175507007 
  6.225200835862999   7.906742897790405   8.341261882595706 
  7.468470822655958   1.435723411084797   8.340162175507007 
 12.446928455166319   1.437247498834912   8.339363161679453 
  4.978771382066589   5.748989995339477   5.002978606422314 
  1.244856744448399   0.718516457104749   1.669084189780325 
  4.978771382066587   7.185885500497218   1.677444248144589 
  6.223391654179220   0.718418585152002   1.669365542285093 
  9.957684154896910   7.186402926718590   1.669365542285093 
 11.202143293761619   0.718570450814574   1.668971728304384 
 -3.733984627900323   9.342162960610828   8.336988691000917 
  1.244478881348814   9.342148474147965   8.336591670559494 
  2.489587422303190   2.874455109367695   8.335953152688740 
  6.223599637501074   9.341953982173250   8.335953152688740 
  7.467955341830000   2.874455109367695   8.335953152688740 
 12.446928455166402   2.874601594875496   8.336985484540230 
 -1.244786754166202   9.342162960610828   1.668968521843738 
  0.000157688255603   2.874586039026512   1.669228978578021 
  4.978771382066535   2.874379435990670   1.670974136536802 
  3.733943126632135   9.341953982173250   1.670004060155888 
  8.713063882784231   9.342148474147965   1.669365542285093 
  9.957385075877587   2.874586039026512   1.669228978578021 
 -4.978635980441953  11.497901816514581   8.336939535810744 
 -0.000135401624479  11.497901816514581   8.336939535810744 
  1.244759166868737   5.030560894477511   8.335953152688740 
  6.223159392116858   5.030542242760606   8.328512964700051 
  4.978771382066600  11.497797907965365   8.336728234266527 
 11.202246578052325   5.030561832716892   8.336873023064289 
 -1.244703813919135   5.030561832716891   1.669084189780325 
 -2.489385691033240  11.497871554310763   1.668968521843738 
  2.489210823698994  11.497891696196790   1.669084189780325 
  3.734383372016332   5.030542242760605   1.677444248144589 
  7.468331940434125  11.497891696196790   1.669084189780325 
  8.712783597264483   5.030560894477510   1.670004060155888 
 -0.000141390763896   7.186402926718591   8.336591670559494 
  1.244856744448399   0.718516457104750   8.336873023064289 
  4.978771382066588   7.185885500497219   8.328512964700051 
  6.223391654179221   0.718418585152002   8.336591670559494 
  9.957684154896910   7.186402926718591   8.336591670559494 
 -2.489385691033196   7.186393842503051   1.669017677033897 
 11.202143293761619   0.718570450814574   8.336985484540230 
  3.734151109953832   0.718418585152002   1.669365542285093 
  2.489285611683457   7.186295275013936   1.670974136536802 
  7.468257152449614   7.186295275013936   1.670974136536802 
  8.712686019684728   0.718516457104749   1.669084189780325 
  2.489285611683458   7.186295275013937   8.334983076307825 
 13.691713616571183   0.718570450814574   1.668971728304384 
 -1.244786754166201   9.342162960610828   8.336988691000917 
  0.000157688255603   2.874586039026513   8.336728234266527 
  4.978771382066536   2.874379435990671   8.334983076307825 
  3.733943126632135   9.341953982173250   8.335953152688740 
  8.713063882784231   9.342148474147965   8.336591670559494 
  9.957385075877587   2.874586039026513   8.336728234266527 
 -3.733984627900323   9.342162960610828   1.668968521843738 
  1.244478881348813   9.342148474147965   1.669365542285093 
  2.489587422303190   2.874455109367694   1.670004060155888 
  6.223599637501073   9.341953982173250   1.670004060155888 
  7.467955341829999   2.874455109367694   1.670004060155888 
 12.446928455166402   2.874601594875495   1.668971728304384 
 -1.244703813919134   5.030561832716892   8.336873023064289 
 -2.489385691033239  11.497871554310763   8.336988691000917 
  2.489210823698995  11.497891696196790   8.336873023064289 
  3.734383372016332   5.030542242760606   8.328512964700051 
  7.468331940434126  11.497891696196790   8.336873023064289 
 -4.978635980441954  11.497901816514581   1.669017677033897 
  8.712783597264483   5.030560894477511   8.335953152688740 
 -0.000135401624480  11.497901816514581   1.669017677033897 
  1.244759166868737   5.030560894477510   1.670004060155888 
 -0.000141390763897   7.186402926718590   1.669365542285093 
  6.223159392116857   5.030542242760605   1.677444248144589 
  4.978771382066599  11.497797907965365   1.669228978578021 
 11.202246578052325   5.030561832716891   1.669084189780325 
 -2.489385691033196   7.186393842503052   8.336939535810744 
  3.734151109953832   0.718418585152002   8.336591670559494 
  7.468257152449615   7.186295275013937   8.334983076307825 
  8.712686019684728   0.718516457104750   8.336873023064289 
 13.691713616571183   0.718570450814574   8.336985484540230 
  0.000331991608681   1.437948126153533   5.002978606422314 
  3.739064879553014   7.892598746121635   5.002978606422314 
  4.978771382066482   1.441537553315351   5.002978606422314 
  8.709134622452716   7.902716216351643   5.002978606422314 
  9.957210772524387   1.437948126153533   5.002978606422314 
 -4.978858101296565  10.060738113507064  11.673616748318732 
  0.000086719229951  10.060738113507064  11.673616748318732 
  1.244668810754367   3.593104870610732  11.673616748318732 
  4.978771382066479  10.060760244797061  11.673616748318732 
  6.223470837554552   3.593194448855070  11.673616748318732 
 11.202255322400559   3.593082928683450  11.673616748318732 
 -2.489385691033300  10.060732491844131   5.002978606422314 
 -1.243920088655773   3.593055946594851   5.002978606422314 
  3.742204999371397   3.603568295534955   5.002978606422314 
  2.492428317034575  10.057309087252236   5.002978606422314 
  7.465114447098456  10.057309087252236   5.002978606422314 
  8.710073559904499   3.594721678536873   5.002978606422314 
 -6.223532175850450  12.216642970046825  11.673616748318732 
 -1.244644617398800  12.216676030321198  11.673616748318732 
  0.000015854567093   5.748915391242699  11.673616748318732 
  4.978771382066590   5.748989995339477  11.673616748318732 
  3.734099699822075  12.216638721041324  11.673616748318732 
  9.957526909565994   5.748915391242699  11.673616748318732 
 -2.489385691033241   5.748055923977047   5.002978606422314 
 -3.734475305684060  12.218409271217078   5.002978606422314 
  1.245501775045519  12.217070775777598   5.002978606422314 
  2.502498496857867   5.750802944361919   5.002978606422314 
  6.223023462330977  12.215965913270111   5.002978606422314 
  7.455044267275248   5.750802944361919   5.002978606422314 
 -1.244654354404571   7.904783331704229  11.673616748318732 
 -0.000040876023046   1.437248336293762  11.673616748318732 
  3.734147401189685   7.904829117110999  11.673616748318732 
  4.978771382066475   1.437357547362583  11.673616748318732 
  8.712754613795830   7.904806219327970  11.673616748318732 
 -3.735443787800649   7.903614865881930   5.002978606422314 
  9.957583640156100   1.437248336293762  11.673616748318732 
  2.490829133376596   1.441594192542183   5.002978606422314 
  1.248408141680238   7.902716216351643   5.002978606422314 
  6.218477884580074   7.892598746121635   5.002978606422314 
  7.466713630756458   1.441594192542183   5.002978606422314 
  1.244788150337196   7.904806219327970  11.673616748318732 
 12.446928455166319   1.437247498834912   5.002978606422314 
 -2.489385691033299  10.060732491844133  11.673616748318732 
 -1.244712558267531   3.593082928683450  11.673616748318732 
  3.734071926578578   3.593194448855070  11.673616748318732 
  2.489458227359863  10.060756063434702  11.673616748318732 
  7.468084536773182  10.060756063434702  11.673616748318732 
  8.712873953378658   3.593104870610732  11.673616748318732 
 -4.980533402451409  10.060173338433415   5.002978606422314 
  0.001762020384780  10.060173338433415   5.002978606422314 
  1.247469204228542   3.594721678536873   5.002978606422314 
  4.978771382066478  10.057526628944773   5.002978606422314 
  6.215337764761717   3.603568295534955   5.002978606422314 
 11.201462852788811   3.593055946594851   5.002978606422314 
 -2.489385691033248   5.748911535438660  11.673616748318732 
 -3.734126764667841  12.216676030321198  11.673616748318732 
  1.244760793783944  12.216642970046825  11.673616748318732 
  2.489447945701712   5.748946420052452  11.673616748318732 
  6.223443064311019  12.216638721041324  11.673616748318732 
 -6.224273157111951  12.217070775777598   5.002978606422314 
  7.468094818431331   5.748946420052452  11.673616748318732 
 -1.244296076382583  12.218409271217078   5.002978606422314 
  0.004486068344641   5.748066706224088   5.002978606422314 
 -1.243327594265938   7.903614865881930   5.002978606422314 
  3.734519301802099  12.215965913270111   5.002978606422314 
  9.953056695788385   5.748066706224088   5.002978606422314 
 -3.734117027662045   7.904783331704229  11.673616748318732 
  2.489329009273750   1.437298531341174  11.673616748318732 
  6.223395362943331   7.904829117110999  11.673616748318732 
  7.468213754859334   1.437298531341174  11.673616748318732 
 12.446928455166319   1.437247498834912  11.673616748318732 
Generated by cif2cell 2.0.0.  :  Failed to get author information, No journal information. Species order: B O N 
 1.0
 14.936314146199660   0.000000000000000   0.000000000000000
 -7.468157073099825  12.935227489513863   0.000000000000000
  0.000000000000001   0.000000000000001  13.341276283792837
 B O N 
 144   1 143
Cartesian
  1.242560263518844   0.718507341502295   5.002978606422314 
  4.978771382066618   7.229074949934481   5.002978606422314 
  6.225406926976026   0.716738369195172   5.002978606422314 
  9.960146900997817   7.185497757259340   5.002978606422314 
 11.203122023525973   0.719135520707513   5.002978606422314 
 -3.734011869304035   9.342147232778997  11.673616748318732 
  1.244528344698328   9.342399012735935  11.673616748318732 
  2.488889141294536   2.874084484065819  11.673616748318732 
  6.223571467923428   9.342744023916588  11.673616748318732 
  7.468653622838683   2.874084484065819  11.673616748318732 
 12.446928455166386   2.874333104442504  11.673616748318732 
 -1.244783888088747   9.342161305880195   5.002978606422314 
 -0.003678765611015   2.872371061353913   5.002978606422314 
  4.978771382066542   2.864900583766009   5.002978606422314 
  3.734996957000159   9.350223190625522   5.002978606422314 
  8.713511356088310   9.344733859563933   5.002978606422314 
  9.961221529744162   2.872371061353913   5.002978606422314 
 -4.978836601711871  11.498017645258750  11.673616748318732 
  0.000065219645408  11.498017645258750  11.673616748318732 
  1.244089055437693   5.030141478035986  11.673616748318732 
  6.223872446005614   5.030130560905995  11.673616748318732 
  4.978771382066577  11.498456929945895  11.673616748318732 
 11.202494917259745   5.030188080987514  11.673616748318732 
 -1.245859948727216   5.028577579693830   5.002978606422314 
 -2.489385691033232  11.497874863771887   5.002978606422314 
  2.490351169820551  11.499885064822317   5.002978606422314 
  3.696980211628200   5.008947518041975   5.002978606422314 
  7.467191594312570  11.499885064822317   5.002978606422314 
  8.719418026669269   5.025513646381362   5.002978606422314 
 -0.000333631870947   7.186234820907372  11.673616748318732 
  1.244408896352364   0.718488264907070  11.673616748318732 
  4.978771382066611   7.186708864206429  11.673616748318732 
  6.223633358635780   0.718336152375267  11.673616748318732 
  9.957876396003947   7.186234820907372  11.673616748318732 
 -2.489385691033241   7.185150881562762   5.002978606422314 
 11.202375813297246   0.718704696031071  11.673616748318732 
  3.732135837157026   0.716738369195172   5.002978606422314 
  2.481076684858202   7.191034701126250   5.002978606422314 
  7.476466079274871   7.191034701126250   5.002978606422314 
  8.714982500614358   0.718507341502295   5.002978606422314 
  2.488971336706388   7.186476721756498  11.673616748318732 
 13.690734886806741   0.719135520707513   5.002978606422314 
 -1.244759512762429   9.342147232778997  11.673616748318732 
 -0.000413041521177   2.874256528036281  11.673616748318732 
  4.978771382066514   2.874016542505436  11.673616748318732 
  3.733971296209827   9.342744023916588  11.673616748318732 
  8.713014419434703   9.342399012735935  11.673616748318732 
  9.957955805654336   2.874256528036281  11.673616748318732 
 -3.733987493977688   9.342161305880195   5.002978606422314 
  1.244031408044780   9.344733859563933   5.002978606422314 
  2.481899162530255   2.871233149011533   5.002978606422314 
  6.222545807132977   9.350223190625522   5.002978606422314 
  7.475643601602874   2.871233149011533   5.002978606422314 
 12.446928455166351   2.873471455089630   5.002978606422314 
 -1.244952153126524   5.030188080987514  11.673616748318732 
 -2.489385691033238  11.497903009974332  11.673616748318732 
  2.489410332587687  11.498293640123848  11.673616748318732 
  3.733670318127607   5.030130560905995  11.673616748318732 
  7.468132431545495  11.498293640123848  11.673616748318732 
 -4.979712416192225  11.498523296984764   5.002978606422314 
  8.713453708695440   5.030141478035986  11.673616748318732 
  0.000941034125746  11.498523296984764   5.002978606422314 
  1.238124737463832   5.025513646381362   5.002978606422314 
 -0.002604136864714   7.185497757259340   5.002978606422314 
  6.260562552505020   5.008947518041975   5.002978606422314 
  4.978771382066570  11.502227863310617   5.002978606422314 
 11.203402712860317   5.028577579693830   5.002978606422314 
 -2.489385691033241   7.186162185014720  11.673616748318732 
  3.733909405497260   0.718336152375267  11.673616748318732 
  7.468571427426760   7.186476721756498  11.673616748318732 
  8.713133867780824   0.718488264907070  11.673616748318732 
 13.691481097035522   0.718704696031071  11.673616748318732 
 -0.000191081423734   1.436854602857077   1.666411157820771 
  3.732341928269986   7.906742897790404   1.664695330248963 
  4.978771382066505   1.434885399076148   1.665438984938456 
  8.714895557013723   7.906042293471250   1.665438984938456 
  9.957733845556756   1.436854602857077   1.666411157820771 
 -4.977870735532778  10.061096012153843   8.339496754275757 
 -0.000900646533820  10.061096012153843   8.339496754275757 
  1.243564980458602   3.592467573892305   8.340507681671575 
  4.978771382066457  10.062034838233897   8.340507681671575 
  6.224225483780310   3.590673973101116   8.341261882595706 
 11.202671408259432   3.593149713708959   8.339546055023829 
 -2.489385691033300  10.060732491844131   1.666621826409001 
 -1.245128644126333   3.593149713708959   1.666411157820771 
  3.733317280352761   3.590673973101115   1.664695330248963 
  2.488222667102176  10.061766250805196   1.665795037337606 
  7.469320097030930  10.061766250805196   1.665795037337606 
  8.713977783674439   3.592467573892304   1.665449531173025 
 -6.223090676451837  12.216388070250204   8.339493457285052 
 -1.244828350960571  12.215641997163514   8.339496754275757 
 -0.001476773487279   5.749480324128477   8.340162175507007 
  4.978771382066590   5.748989995339477   8.346066901183903 
  3.733833819363841  12.216965669452549   8.339546055023829 
  9.959019537620351   5.749480324128477   8.340162175507007 
 -2.489385691033242   5.749421335031937   1.666463755559575 
 -3.733943031106040  12.215641997163514   1.666460458568857 
  1.244319294385286  12.216388070250204   1.666463755559575 
  2.486887826556271   5.749553115126975   1.664695330248963 
  6.223708944769116  12.216965669452549   1.666411157820771 
  7.470654937576830   5.749553115126975   1.664695330248963 
 -1.245457986606548   7.905459466215065   8.339496754275757 
 -0.000191081423734   1.436854602857078   8.339546055023829 
  3.732341928269987   7.906742897790405   8.341261882595706 
  4.978771382066506   1.434885399076149   8.340518227906159 
  8.714895557013723   7.906042293471251   8.340518227906159 
 -3.733313395460038   7.905459466215064   1.666460458568857 
  9.957733845556756   1.436854602857078   8.339546055023829 
  2.489071941477080   1.435723411084797   1.665795037337606 
  1.242647207119215   7.906042293471250   1.665438984938456 
  6.225200835862998   7.906742897790404   1.664695330248963 
  7.468470822655958   1.435723411084797   1.665795037337606 
  1.242647207119215   7.906042293471251   8.340518227906159 
 12.446928455166319   1.437247498834911   1.666594051165202 
 -2.489385691033300  10.060732491844131   8.339335386435639 
 -1.245128644126333   3.593149713708959   8.339546055023829 
  3.733317280352762   3.590673973101116   8.341261882595706 
  2.488222667102176  10.061766250805196   8.340162175507007 
  7.469320097030931  10.061766250805196   8.340162175507007 
  8.713977783674439   3.592467573892305   8.340507681671575 
 -4.977870735532779  10.061096012153843   1.666460458568857 
 -0.000900646533821  10.061096012153843   1.666460458568857 
  1.243564980458601   3.592467573892304   1.665449531173025 
  4.978771382066456  10.062034838233897   1.665449531173025 
  6.224225483780309   3.590673973101115   1.664695330248963 
 11.202671408259432   3.593149713708959   1.666411157820771 
 -2.489385691033242   5.749421335031938   8.339493457285052 
 -3.733943031106040  12.215641997163514   8.339496754275757 
  1.244319294385286  12.216388070250204   8.339493457285052 
  2.486887826556272   5.749553115126976   8.341261882595706 
  6.223708944769117  12.216965669452549   8.339546055023829 
 -6.223090676451838  12.216388070250204   1.666463755559575 
  7.470654937576831   5.749553115126976   8.341261882595706 
 -1.244828350960572  12.215641997163514   1.666460458568857 
 -0.001476773487280   5.749480324128476   1.665795037337606 
 -1.245457986606548   7.905459466215064   1.666460458568857 
  4.978771382066589   5.748989995339476   1.659890311660659 
  3.733833819363841  12.216965669452549   1.666411157820771 
  9.959019537620351   5.749480324128476   1.665795037337606 
 -3.733313395460038   7.905459466215065   8.339496754275757 
  2.489071941477081   1.435723411084797   8.340162175507007 
  6.225200835862999   7.906742897790405   8.341261882595706 
  7.468470822655958   1.435723411084797   8.340162175507007 
 12.446928455166319   1.437247498834912   8.339363161679453 
  4.978771382066589   5.748989995339477   5.002978606422314 
  1.244856744448399   0.718516457104749   1.669084189780325 
  4.978771382066587   7.185885500497218   1.677444248144589 
  6.223391654179220   0.718418585152002   1.669365542285093 
  9.957684154896910   7.186402926718590   1.669365542285093 
 11.202143293761619   0.718570450814574   1.668971728304384 
 -3.733984627900323   9.342162960610828   8.336988691000917 
  1.244478881348814   9.342148474147965   8.336591670559494 
  2.489587422303190   2.874455109367695   8.335953152688740 
  6.223599637501074   9.341953982173250   8.335953152688740 
  7.467955341830000   2.874455109367695   8.335953152688740 
 12.446928455166402   2.874601594875496   8.336985484540230 
 -1.244786754166202   9.342162960610828   1.668968521843738 
  0.000157688255603   2.874586039026512   1.669228978578021 
  4.978771382066535   2.874379435990670   1.670974136536802 
  3.733943126632135   9.341953982173250   1.670004060155888 
  8.713063882784231   9.342148474147965   1.669365542285093 
  9.957385075877587   2.874586039026512   1.669228978578021 
 -4.978635980441953  11.497901816514581   8.336939535810744 
 -0.000135401624479  11.497901816514581   8.336939535810744 
  1.244759166868737   5.030560894477511   8.335953152688740 
  6.223159392116858   5.030542242760606   8.328512964700051 
  4.978771382066600  11.497797907965365   8.336728234266527 
 11.202246578052325   5.030561832716892   8.336873023064289 
 -1.244703813919135   5.030561832716891   1.669084189780325 
 -2.489385691033240  11.497871554310763   1.668968521843738 
  2.489210823698994  11.497891696196790   1.669084189780325 
  3.734383372016332   5.030542242760605   1.677444248144589 
  7.468331940434125  11.497891696196790   1.669084189780325 
  8.712783597264483   5.030560894477510   1.670004060155888 
 -0.000141390763896   7.186402926718591   8.336591670559494 
  1.244856744448399   0.718516457104750   8.336873023064289 
  4.978771382066588   7.185885500497219   8.328512964700051 
  6.223391654179221   0.718418585152002   8.336591670559494 
  9.957684154896910   7.186402926718591   8.336591670559494 
 -2.489385691033196   7.186393842503051   1.669017677033897 
 11.202143293761619   0.718570450814574   8.336985484540230 
  3.734151109953832   0.718418585152002   1.669365542285093 
  2.489285611683457   7.186295275013936   1.670974136536802 
  7.468257152449614   7.186295275013936   1.670974136536802 
  8.712686019684728   0.718516457104749   1.669084189780325 
  2.489285611683458   7.186295275013937   8.334983076307825 
 13.691713616571183   0.718570450814574   1.668971728304384 
 -1.244786754166201   9.342162960610828   8.336988691000917 
  0.000157688255603   2.874586039026513   8.336728234266527 
  4.978771382066536   2.874379435990671   8.334983076307825 
  3.733943126632135   9.341953982173250   8.335953152688740 
  8.713063882784231   9.342148474147965   8.336591670559494 
  9.957385075877587   2.874586039026513   8.336728234266527 
 -3.733984627900323   9.342162960610828   1.668968521843738 