 N B In 
 1.0
 14.936314146199660   0.000000000000000   0.000000000000000
 -7.468157073099825  12.935227489513863   0.000000000000000
  0.000000000000001   0.000000000000001  13.341276283792837
 N B In 
 143 144   1
Cartesian
  1.244297334081941   0.718655603577961   1.668290913310121 
  4.978771382066455   7.188818407240067   1.596146234427221 
  6.223575800459903   0.719004324573152   1.669893723457381 
  9.957268962819672   7.185950581650440   1.669893723457381 
 11.202454044418539   0.718749862789956   1.664081528015447 
 -3.734236610957828   9.342017478125040   8.338101200415718 
  1.245078219708085   9.342015079794100   8.336063489387486 
  2.488682529882894   2.874301442314181   8.350108252849218 
  6.223280270863278   9.342814475523625   8.350108252849218 
  7.468860234250432   2.874301442314181   8.350108252849218 
 12.446928455166326   2.874242770924654   8.341875684829875 
 -1.244534771109221   9.342017478125040   1.667856012428870 
 -0.000609376005156   2.874143174269155   1.664763332857966 
  4.978771382066669   2.874996148362036   1.649069619435190 
  3.734262493270374   9.342814475523637   1.655848959995984 
  8.712464544425661   9.342015079794100   1.669893723457381 
  9.958152140138194   2.874143174269155   1.664763332857966 
 -4.978983462459347  11.498102435350578   8.336826923773698 
  0.000212080393422  11.498102435350578   8.336826923773698 
  1.244173641086626   5.029854068180419   8.350108252849218 
  6.225699363862963   5.029075789389182   8.409810978417513 
  4.978771382066815  11.498683637479678   8.341193879986834 
 11.202405778854345   5.030007795891651   8.337666299535133 
 -1.244863014721633   5.030007795891650   1.668290913310121 
 -2.489385691033240  11.498162519282314   1.667856012428870 
  2.489611033262096  11.498306586548884   1.668290913310121 
  3.731843400270125   5.029075789389181   1.596146234427221 
  7.467931730869487  11.498306586548884   1.668290913310121 
  8.713369123047059   5.029854068180418   1.655848959995984 
  0.000273801315359   7.185950581650441   8.336063489387486 
  1.244297334081941   0.718655603577962   8.337666299535133 
  4.978771382066456   7.188818407240068   8.409810978417513 
  6.223575800459896   0.719004324573165   8.336063489387486 
  9.957268962819089   7.185950581650441   8.336063489387486 
 -2.489385691033257   7.185992604830309   1.669130289071384 
 11.202454044418555   0.718749862789957   8.341875684829875 
  3.733966963673748   0.719004324573152   1.669893723457381 
  2.489819700263873   7.185986918828513   1.649069619435190 
  7.467723063868430   7.185986918828500   1.649069619435190 
  8.713245430050529   0.718655603577961   1.668290913310121 
  2.489819700263874   7.185986918828514   8.356887593409198 
 13.691402865914213   0.718749862789956   1.664081528015447 
 -1.244534771109220   9.342017478125040   8.338101200415718 
 -0.000609376005171   2.874143174269156   8.341193879986834 
  4.978771382066670   2.874996148362037   8.356887593409198 
  3.734262493270359   9.342814475523637   8.350108252849218 
  8.712464544426229   9.342015079794100   8.336063489387312 
  9.958152140138264   2.874143174269195   8.341193879986834 
 -3.734236610957828   9.342017478125040   1.667856012428870 
  1.245078219708182   9.342015079793931   1.669893723457381 
  2.488682529882894   2.874301442314180   1.655848959995984 
  6.223280270863270   9.342814475523637   1.655848959996024 
  7.468860234250415   2.874301442314180   1.655848959995984 
 12.446928455166326   2.874242770924653   1.664081528015447 
 -1.244863014721670   5.030007795891715   8.337666299535133 
 -2.489385691033239  11.498162519282314   8.338101200415718 
  2.489611033261993  11.498306586549065   8.337666299535133 
  3.731843400270125   5.029075789389182   8.409810978417500 
  7.467931730869368  11.498306586549065   8.337666299535133 
 -4.978983462459348  11.498102435350578   1.669130289071384 
  8.713369123047059   5.029854068180419   8.350108252849218 
  0.000212080393421  11.498102435350578   1.669130289071397 
  1.244173641086626   5.029854068180418   1.655848959995984 
  0.000273801315358   7.185950581650440   1.669893723457381 
  6.225699363862947   5.029075789389181   1.596146234427221 
  4.978771382066814  11.498683637479678   1.664763332857966 
 11.202405778854345   5.030007795891650   1.668290913310121 
 -2.489385691033256   7.185992604830310   8.336826923773698 
  3.733966963673740   0.719004324573165   8.336063489387486 
  7.467723063868319   7.185986918828514   8.356887593409198 
  8.713245430050529   0.718655603577962   8.337666299535133 
 13.691402865914213   0.718749862789957   8.341875684829875 
 -0.017430314989229   1.421915606035596   5.002978606422314 
  3.637138826197593   8.091679941536418   5.002978606422314 
  4.978771382066609   1.393881399559082   5.002978606422314 
  8.750406062252157   7.926544293229901   5.002978606422314 
  9.974973079121954   1.421915606035596   5.002978606422314 
 -4.978646510018901  10.060784242372442  11.673616748318732 
 -0.000124872047698  10.060784242372442  11.673616748318732 
  1.244789017525718   3.593174272022651  11.673616748318732 
  4.978771382066726  10.060621441973236  11.673616748318732 
  6.223362408239187   3.592786499381809  11.673616748318732 
 11.202201115758577   3.593209812151408  11.673616748318732 
 -2.489385691033300  10.060732491844131   5.002978606422314 
 -1.266685811663367   3.585689597909936   5.002978606422314 
  3.620758653404244   3.415757146314630   5.002978606422314 
  2.437053612958336  10.135929282682067   5.002978606422314 
  7.520489151175353  10.135929282682067   5.002978606422314 
  8.777140513728533   3.556000554693269   5.002978606422314 
 -6.223377262440512  12.216553530748223  11.673616748318732 
 -1.244710464268114  12.216469722466419  11.673616748318732 
 -0.000091133152458   5.749134094733323  11.673616748318732 
  4.978771382066590   5.748989995339477  11.673616748318732 
  3.734016918836464  12.216528334977868  11.673616748318732 
  9.957633897285382   5.749134094733323  11.673616748318732 
 -2.489385691033174   5.757585515157897   5.002978606422314 
 -3.730691609957157  12.197385753840498   5.002978606422314 
  1.237248906994523  12.212305980187244   5.002978606422314 
  2.279126097535346   5.739532898167758   5.002978606422314 
  6.228026878741103  12.239364782072537   5.002978606422314 
  7.678416666596874   5.739532898167758   5.002978606422314 
 -1.244800098812404   7.904943510692918  11.673616748318732 
  0.000096111604763   1.437231838888832  11.673616748318732 
  3.733739891924273   7.904939189306334  11.673616748318732 
  4.978771382066505   1.436900459724295  11.673616748318732 
  8.713150463302256   7.905034763147165  11.673616748318732 
 -3.719128735539026   7.917403401189558   5.002978606422314 
  9.957446652528215   1.437231838888832  11.673616748318732 
  2.450429398922342   1.354328194370199   5.002978606422314 
  1.207136701880686   7.926544293230224   5.002978606422314 
  6.320403937934278   8.091679941536636   5.002978606422314 
  7.507113365211099   1.354328194370173   5.002978606422314 
  1.244392300830684   7.905034763147165  11.673616748318732 
 12.446928455166319   1.437247498834912   5.002978606422314 
 -2.489385691033299  10.060732491844133  11.673616748318732 
 -1.244658351625340   3.593209812151512  11.673616748318732 
  3.734180355893704   3.592786499381809  11.673616748318732 
  2.489215330721753  10.060739365772505  11.673616748318732 
  7.468327433411520  10.060739365772505  11.673616748318732 
  8.712753746607321   3.593174272022728  11.673616748318732 
 -4.960434654463527  10.067408320502780   5.002978606422314 
 -0.018336727604149  10.067408320502780   5.002978606422314 
  1.180402250404684   3.556000554693269   5.002978606422314 
  4.978771382067352  10.134968876631994   5.002978606422314 
  6.336784110728750   3.415757146314630   5.002978606422314 
 11.224228575797206   3.585689597909923   5.002978606422314 
 -2.489385691033256   5.749090414036858  11.673616748318732 
 -3.734060917797946  12.216469722466419  11.673616748318732 
  1.244605880373514  12.216553530748223  11.673616748318732 
  2.489148865751612   5.749244297330910  11.673616748318732 
  6.223525845296868  12.216528334977868  11.673616748318732 
 -6.216020289061719  12.212305980187399   5.002978606422314 
  7.468393898380521   5.749244297330910  11.673616748318732 
 -1.248079772109224  12.197385753840020   5.002978606422314 
 -0.091288370185992   5.756712508966486   5.002978606422314 
 -1.259642646527305   7.917403401189558   5.002978606422314 
  3.729515885391975  12.239364782072537   5.002978606422314 
 10.048831134319752   5.756712508966486   5.002978606422314 
 -3.733971283253776   7.904943510692918  11.673616748318732 
  2.489464918192834   1.437096525512721  11.673616748318732 
  6.223802872208056   7.904939189306334  11.673616748318732 
  7.468077845940893   1.437096525512721  11.673616748318732 
 12.446928455166319   1.437247498834912  11.673616748318732 
  1.216563820629321   0.686492222539484   5.002978606422314 
  4.978771382066067   7.631110747544390   5.002978606422314 
  6.231326797298365   0.688861750542872   5.002978606422314 
  9.987248696082876   7.194309308499933   5.002978606422314 
 11.210172975707778   0.723206389847325   5.002978606422314 
 -3.734210240014654   9.342032703395882  11.673616748318732 
  1.244950281435573   9.341681551559589  11.673616748318732 
  2.490334838335073   2.875210910171415  11.673616748318732 
  6.223318802821436   9.340928800499913  11.673616748318732 
  7.467207925797468   2.875210910171428  11.673616748318732 
 12.446928455166447   2.874723452358925  11.673616748318732 
 -1.253188488884336   9.347013704411754   5.002978606422314 
 -0.038750644365880   2.852122302713677   5.002978606422314 
  4.978771382066295   2.830684155523044   5.002978606422314 
  3.680090336076698   9.476071025177838   5.002978606422314 
  8.734693280851367   9.363798926976454   5.002978606422314 
  9.996293408498500   2.852122302713677   5.002978606422314 
 -4.978722622570042  11.497951839370343  11.673616748318732 
 -0.000048759496182  11.497951839370343  11.673616748318732 
  1.245787417580744   5.030830275346729  11.673616748318732 
  6.222618360134222   5.030854607721293  11.673616748318732 
  4.978771382066561  11.497151094072587  11.673616748318732 
 11.201839479952611   5.030633166722837  11.673616748318732 
 -1.286584076498930   5.022071559224890   5.002978606422314 
 -2.489385691033231  11.488170066708150   5.002978606422314 
  2.475623484938137  11.538406204254612   5.002978606422314 
  3.348806997667297   4.807929619237434   5.002978606422314 
  7.481919279194745  11.538406204254612   5.002978606422314 
  8.855858758864992   5.010140257660663   5.002978606422314 
  0.000498676102059   7.186228143562288  11.673616748318732 
  1.245122070559552   0.718833347398286  11.673616748318732 
  4.978771382066358   7.185260770575834  11.673616748318732 
  6.223222987399554   0.719060290896516  11.673616748318732 
  9.957044088030656   7.186228143562288  11.673616748318732 
 -2.489385691032897   7.192363872013056   5.002978606422314 
 11.202037762085755   0.718509522072900  11.673616748318732 
  3.726215966834553   0.688861750542872   5.002978606422314 
  2.451444388772679   7.208142915247906   5.002978606422314 
  7.506098375360438   7.208142915247906   5.002978606422314 
  8.740978943503986   0.686492222539484   5.002978606422314 
  2.490045956398017   7.185856289788509  11.673616748318732 
 13.683683934625892   0.723206389847325   5.002978606422314 
 -1.244561142051616   9.342032703395882  11.673616748318732 
  0.000717845518148   2.874909445972781  11.673616748318732 
  4.978771382066827   2.875257406441620  11.673616748318732 
  3.734223961312163   9.340928800499913  11.673616748318732 
  8.712592482697726   9.341681551559589  11.673616748318732 
  9.956824918614950   2.874909445972781  11.673616748318732 
 -3.725582893182488   9.347013704411754   5.002978606422314 
  1.222849483281380   9.363798926976454   5.002978606422314 
  2.400365051258665   2.760758703179915   5.002978606422314 
  6.277452428056736   9.476071025177838   5.002978606422314 
  7.557177712874717   2.760758703180018   5.002978606422314 
 12.446928455166724   2.865329716809826   5.002978606422314 
 -1.244296715819240   5.030633166722837  11.673616748318732 
 -2.489385691033231  11.498132068741066  11.673616748318732 
  2.489352595688635  11.497503471896920  11.673616748318732 
  3.734924403999359   5.030854607721293  11.673616748318732 
  7.468190168445984  11.497503471896920  11.673616748318732 
 -4.973465783224185  11.494916801758855   5.002978606422314 
  8.711755346552401   5.030830275346729  11.673616748318732 
 -0.005305598841508  11.494916801758867   5.002978606422314 
  1.101684005269013   5.010140257660702   5.002978606422314 
 -0.029705931950924   7.194309308499933   5.002978606422314 
  6.608735766465713   4.807929619237021   5.002978606422314 
  4.978771382066187  11.542725380590454   5.002978606422314 
 11.244126840632314   5.022071559224890   5.002978606422314 
 -2.489385691033143   7.186293796790797  11.673616748318732 
  3.734319776733112   0.719060290896516  11.673616748318732 
  7.467496807734699   7.185856289788509  11.673616748318732 
  8.712420693574055   0.718833347398286  11.673616748318732 
 13.691819148247497   0.718509522072900  11.673616748318732 
 -0.000101206365624   1.437663838131544   1.667835488905076 
  3.737154060959020   7.902599736349648   1.640684238082905 
  4.978771382066540   1.440796605296477   1.668337350278035 
  8.709776302259879   7.903086690360989   1.668337350278035 
  9.957643970498543   1.437663838131544   1.667835488905076 
 -4.980094134789492  10.060288761113846   8.334825277502045 
  0.001322752723327  10.060288761113846   8.334825277502045 
  1.245624291665071   3.593656517771853   8.343493969746042 
  4.978771382066561  10.059656950474803   8.343493969746042 
  6.223043467065398   3.596912982975815   8.365272974761924 
 11.201925652424364   3.592822930155112   8.338121723939725 
 -2.489385691033300  10.060732491844131   1.668481300028656 
 -1.244382888291906   3.592822930155111   1.667835488905076 
  3.734499297067224   3.596912982975814   1.640684238082905 
  2.491116361982469  10.059690504860495   1.668741558349144 
  7.466426402151443  10.059690504860495   1.668741558349144 
  8.711918472467753   3.593656517771968   1.662463243098639 
 -6.224150393731475  12.216999898306781   8.335052138041075 
 -1.244415751239889  12.217971142922995   8.334825277502045 
  0.001767722671825   5.748012183824700   8.337215654495164 
  4.978771382066590   5.748989995339477   8.369994052579628 
  3.734489700140429  12.216483217731255   8.338121723939725 
  9.955775041460516   5.748012183824700   8.337215654495164 
 -2.489385691032950   5.748197678918018   1.670905074804180 
 -3.734355630827349  12.217971142922995   1.671131935342876 
  1.245379011665282  12.216999898306781   1.670905074804180 
  2.492881975959424   5.747457266692099   1.640684238082905 
  6.223053063992427  12.216483217731255   1.667835488905076 
  7.464660788173962   5.747457266692099   1.640684238082905 
 -1.243647187070777   7.903937571495774   8.334825277502045 
 -0.000101206365638   1.437663838131571   8.338121723939725 
  3.737154060959021   7.902599736349649   8.365272974761924 
  4.978771382066557   1.440796605296477   8.337619862566459 
  8.709776302259879   7.903086690360990   8.337619862566445 
 -3.735124194996137   7.903937571495773   1.671131935342876 
  9.957643970498633   1.437663838131545   8.338121723939725 
  2.489422742757146   1.439267297333118   1.668741558349144 
  1.247766461873121   7.903086690360989   1.668337350278035 
  6.220388703175174   7.902599736349648   1.640684238082905 
  7.468120021376862   1.439267297333118   1.668741558349144 
  1.247766461873121   7.903086690360990   8.337619862566459 
 12.446928455166319   1.437247498834911   1.665763179623587 
 -2.489385691033300  10.060732491844131   8.337475912816105 
 -1.244382888291891   3.592822930155112   8.338121723939725 
  3.734499297067224   3.596912982975815   8.365272974761924 
  2.491116361982469  10.059690504860495   8.337215654495164 
  7.466426402151444  10.059690504860495   8.337215654495164 
  8.711918472467818   3.593656517771853   8.343493969746042 
 -4.980094134789463  10.060288761113846   1.671131935342876 
  0.001322752723326  10.060288761113846   1.671131935342876 
  1.245624291665071   3.593656517771852   1.662463243098639 
  4.978771382066560  10.059656950474803   1.662463243098692 
  6.223043467065397   3.596912982975814   1.640684238082905 
 11.201925652424364   3.592822930155111   1.667835488905076 
 -2.489385691032950   5.748197678918019   8.335052138041075 
 -3.734355630827348  12.217971142922995   8.334825277502045 
  1.245379011665282  12.216999898306781   8.335052138041075 
  2.492881975959425   5.747457266692100   8.365272974761924 
  6.223053063992428  12.216483217731255   8.338121723939725 
 -6.224150393731476  12.216999898306781   1.670905074804180 
  7.464660788173963   5.747457266692100   8.365272974761924 
 -1.244415751239890  12.217971142922995   1.671131935342876 
  0.001767722671825   5.748012183824700   1.668741558349144 
 -1.243647187070777   7.903937571495773   1.671131935342876 
  4.978771382066589   5.748989995339476   1.635963160264840 
  3.734489700140428  12.216483217731255   1.667835488905076 
  9.955775041460516   5.748012183824700   1.668741558349144 
 -3.735124194996137   7.903937571495774   8.334825277502045 
  2.489422742757176   1.439267297333067   8.337215654495164 
  6.220388703175191   7.902599736349649   8.365272974761924 
  7.468120021376863   1.439267297333119   8.337215654495164 
 12.446928455166319   1.437247498834912   8.340194033221028 
  4.978771382066589   5.748989995339477   5.002978606422314 
Generated by cif2cell 2.0.0.  :  Failed to get author information, No journal information. Species order: N B In 
 1.0
 14.936314146199660   0.000000000000000   0.000000000000000
 -7.468157073099825  12.935227489513863   0.000000000000000
  0.000000000000001   0.000000000000001  13.341276283792837
 N B In 
 143 144   1
Cartesian
  1.244297334081941   0.718655603577961   1.668290913310121 
  4.978771382066455   7.188818407240067   1.596146234427221 
  6.223575800459903   0.719004324573152   1.669893723457381 
  9.957268962819672   7.185950581650440   1.669893723457381 
 11.202454044418539   0.718749862789956   1.664081528015447 
 -3.734236610957828   9.342017478125040   8.338101200415718 
  1.245078219708085   9.342015079794100   8.336063489387486 
  2.488682529882894   2.874301442314181   8.350108252849218 
  6.223280270863278   9.342814475523625   8.350108252849218 
  7.468860234250432   2.874301442314181   8.350108252849218 
 12.446928455166326   2.874242770924654   8.341875684829875 
 -1.244534771109221   9.342017478125040   1.667856012428870 
 -0.000609376005156   2.874143174269155   1.664763332857966 
  4.978771382066669   2.874996148362036   1.649069619435190 
  3.734262493270374   9.342814475523637   1.655848959995984 
  8.712464544425661   9.342015079794100   1.669893723457381 
  9.958152140138194   2.874143174269155   1.664763332857966 
 -4.978983462459347  11.498102435350578   8.336826923773698 
  0.000212080393422  11.498102435350578   8.336826923773698 
  1.244173641086626   5.029854068180419   8.350108252849218 
  6.225699363862963   5.029075789389182   8.409810978417513 
  4.978771382066815  11.498683637479678   8.341193879986834 
 11.202405778854345   5.030007795891651   8.337666299535133 
 -1.244863014721633   5.030007795891650   1.668290913310121 
 -2.489385691033240  11.498162519282314   1.667856012428870 
  2.489611033262096  11.498306586548884   1.668290913310121 
  3.731843400270125   5.029075789389181   1.596146234427221 
  7.467931730869487  11.498306586548884   1.668290913310121 
  8.713369123047059   5.029854068180418   1.655848959995984 
  0.000273801315359   7.185950581650441   8.336063489387486 
  1.244297334081941   0.718655603577962   8.337666299535133 
  4.978771382066456   7.188818407240068   8.409810978417513 
  6.223575800459896   0.719004324573165   8.336063489387486 
  9.957268962819089   7.185950581650441   8.336063489387486 
 -2.489385691033257   7.185992604830309   1.669130289071384 
 11.202454044418555   0.718749862789957   8.341875684829875 
  3.733966963673748   0.719004324573152   1.669893723457381 
  2.489819700263873   7.185986918828513   1.649069619435190 
  7.467723063868430   7.185986918828500   1.649069619435190 
  8.713245430050529   0.718655603577961   1.668290913310121 
  2.489819700263874   7.185986918828514   8.356887593409198 
 13.691402865914213   0.718749862789956   1.664081528015447 
 -1.244534771109220   9.342017478125040   8.338101200415718 
 -0.000609376005171   2.874143174269156   8.341193879986834 
  4.978771382066670   2.874996148362037   8.356887593409198 
  3.734262493270359   9.342814475523637   8.350108252849218 
  8.712464544426229   9.342015079794100   8.336063489387312 
  9.958152140138264   2.874143174269195   8.341193879986834 
 -3.734236610957828   9.342017478125040   1.667856012428870 
  1.245078219708182   9.342015079793931   1.669893723457381 
  2.488682529882894   2.874301442314180   1.655848959995984 
  6.223280270863270   9.342814475523637   1.655848959996024 
  7.468860234250415   2.874301442314180   1.655848959995984 
 12.446928455166326   2.874242770924653   1.664081528015447 
 -1.244863014721670   5.030007795891715   8.337666299535133 
 -2.489385691033239  11.498162519282314   8.338101200415718 
  2.489611033261993  11.498306586549065   8.337666299535133 
  3.731843400270125   5.029075789389182   8.409810978417500 
  7.467931730869368  11.498306586549065   8.337666299535133 
 -4.978983462459348  11.498102435350578   1.669130289071384 
  8.713369123047059   5.029854068180419   8.350108252849218 
  0.000212080393421  11.498102435350578   1.669130289071397 
  1.244173641086626   5.029854068180418   1.655848959995984 
  0.000273801315358   7.185950581650440   1.669893723457381 
  6.225699363862947   5.029075789389181   1.596146234427221 
  4.978771382066814  11.498683637479678   1.664763332857966 
 11.202405778854345   5.030007795891650   1.668290913310121 
 -2.489385691033256   7.185992604830310   8.336826923773698 
  3.733966963673740   0.719004324573165   8.336063489387486 
  7.467723063868319   7.185986918828514   8.356887593409198 
  8.713245430050529   0.718655603577962   8.337666299535133 
 13.691402865914213   0.718749862789957   8.341875684829875 
 -0.017430314989229   1.421915606035596   5.002978606422314 
  3.637138826197593   8.091679941536418   5.002978606422314 
  4.978771382066609   1.393881399559082   5.002978606422314 
  8.750406062252157   7.926544293229901   5.002978606422314 
  9.974973079121954   1.421915606035596   5.002978606422314 
 -4.978646510018901  10.060784242372442  11.673616748318732 
 -0.000124872047698  10.060784242372442  11.673616748318732 
  1.244789017525718   3.593174272022651  11.673616748318732 
  4.978771382066726  10.060621441973236  11.673616748318732 
  6.223362408239187   3.592786499381809  11.673616748318732 
 11.202201115758577   3.593209812151408  11.673616748318732 
 -2.489385691033300  10.060732491844131   5.002978606422314 
 -1.266685811663367   3.585689597909936   5.002978606422314 
  3.620758653404244   3.415757146314630   5.002978606422314 
  2.437053612958336  10.135929282682067   5.002978606422314 
  7.520489151175353  10.135929282682067   5.002978606422314 
  8.777140513728533   3.556000554693269   5.002978606422314 
 -6.223377262440512  12.216553530748223  11.673616748318732 
 -1.244710464268114  12.216469722466419  11.673616748318732 
 -0.000091133152458   5.749134094733323  11.673616748318732 
  4.978771382066590   5.748989995339477  11.673616748318732 
  3.734016918836464  12.216528334977868  11.673616748318732 
  9.957633897285382   5.749134094733323  11.673616748318732 
 -2.489385691033174   5.757585515157897   5.002978606422314 
 -3.730691609957157  12.197385753840498   5.002978606422314 
  1.237248906994523  12.212305980187244   5.002978606422314 
  2.279126097535346   5.739532898167758   5.002978606422314 
  6.228026878741103  12.239364782072537   5.002978606422314 
  7.678416666596874   5.739532898167758   5.002978606422314 
 -1.244800098812404   7.904943510692918  11.673616748318732 
  0.000096111604763   1.437231838888832  11.673616748318732 
  3.733739891924273   7.904939189306334  11.673616748318732 
  4.978771382066505   1.436900459724295  11.673616748318732 
  8.713150463302256   7.905034763147165  11.673616748318732 
 -3.719128735539026   7.917403401189558   5.002978606422314 
  9.957446652528215   1.437231838888832  11.673616748318732 
  2.450429398922342   1.354328194370199   5.002978606422314 
  1.207136701880686   7.926544293230224   5.002978606422314 
  6.320403937934278   8.091679941536636   5.002978606422314 
  7.507113365211099   1.354328194370173   5.002978606422314 
  1.244392300830684   7.905034763147165  11.673616748318732 
 12.446928455166319   1.437247498834912   5.002978606422314 
 -2.489385691033299  10.060732491844133  11.673616748318732 
 -1.244658351625340   3.593209812151512  11.673616748318732 
  3.734180355893704   3.592786499381809  11.673616748318732 
  2.489215330721753  10.060739365772505  11.673616748318732 
  7.468327433411520  10.060739365772505  11.673616748318732 
  8.712753746607321   3.593174272022728  11.673616748318732 
 -4.960434654463527  10.067408320502780   5.002978606422314 
 -0.018336727604149  10.067408320502780   5.002978606422314 
  1.180402250404684   3.556000554693269   5.002978606422314 
  4.978771382067352  10.134968876631994   5.002978606422314 
  6.336784110728750   3.415757146314630   5.002978606422314 
 11.224228575797206   3.585689597909923   5.002978606422314 
 -2.489385691033256   5.749090414036858  11.673616748318732 
 -3.734060917797946  12.216469722466419  11.673616748318732 
  1.244605880373514  12.216553530748223  11.673616748318732 
  2.489148865751612   5.749244297330910  11.673616748318732 
  6.223525845296868  12.216528334977868  11.673616748318732 
 -6.216020289061719  12.212305980187399   5.002978606422314 
  7.468393898380521   5.749244297330910  11.673616748318732 
 -1.248079772109224  12.197385753840020   5.002978606422314 
 -0.091288370185992   5.756712508966486   5.002978606422314 
 -1.259642646527305   7.917403401189558   5.002978606422314 
  3.729515885391975  12.239364782072537   5.002978606422314 
 10.048831134319752   5.756712508966486   5.002978606422314 
 -3.733971283253776   7.904943510692918  11.673616748318732 
  2.489464918192834   1.437096525512721  11.673616748318732 
  6.223802872208056   7.904939189306334  11.673616748318732 
  7.468077845940893   1.437096525512721  11.673616748318732 
 12.446928455166319   1.437247498834912  11.673616748318732 
  1.216563820629321   0.686492222539484   5.002978606422314 
  4.978771382066067   7.631110747544390   5.002978606422314 
  6.231326797298365   0.688861750542872   5.002978606422314 
  9.987248696082876   7.194309308499933   5.002978606422314 
 11.210172975707778   0.723206389847325   5.002978606422314 
 -3.734210240014654   9.342032703395882  11.673616748318732 
  1.244950281435573   9.341681551559589  11.673616748318732 
  2.490334838335073   2.875210910171415  11.673616748318732 
  6.223318802821436   9.340928800499913  11.673616748318732 
  7.467207925797468   2.875210910171428  11.673616748318732 
 12.446928455166447   2.874723452358925  11.673616748318732 
 -1.253188488884336   9.347013704411754   5.002978606422314 
 -0.038750644365880   2.852122302713677   5.002978606422314 
  4.978771382066295   2.830684155523044   5.002978606422314 
  3.680090336076698   9.476071025177838   5.002978606422314 
  8.734693280851367   9.363798926976454   5.002978606422314 
  9.996293408498500   2.852122302713677   5.002978606422314 
 -4.978722622570042  11.497951839370343  11.673616748318732 
 -0.000048759496182  11.497951839370343  11.673616748318732 
  1.245787417580744   5.030830275346729  11.673616748318732 
  6.222618360134222   5.030854607721293  11.673616748318732 
  4.978771382066561  11.497151094072587  11.673616748318732 
 11.201839479952611   5.030633166722837  11.673616748318732 
 -1.286584076498930   5.022071559224890   5.002978606422314 
 -2.489385691033231  11.488170066708150   5.002978606422314 
  2.475623484938137  11.538406204254612   5.002978606422314 
  3.348806997667297   4.807929619237434   5.002978606422314 
  7.481919279194745  11.538406204254612   5.002978606422314 
  8.855858758864992   5.010140257660663   5.002978606422314 
  0.000498676102059   7.186228143562288  11.673616748318732 
  1.245122070559552   0.718833347398286  11.673616748318732 
  4.978771382066358   7.185260770575834  11.673616748318732 
  6.223222987399554   0.719060290896516  11.673616748318732 
  9.957044088030656   7.186228143562288  11.673616748318732 
 -2.489385691032897   7.192363872013056   5.002978606422314 
 11.202037762085755   0.718509522072900  11.673616748318732 
  3.726215966834553   0.688861750542872   5.002978606422314 
  2.451444388772679   7.208142915247906   5.002978606422314 
  7.506098375360438   7.208142915247906   5.002978606422314 
  8.740978943503986   0.686492222539484   5.002978606422314 
  2.490045956398017   7.185856289788509  11.673616748318732 
 13.683683934625892   0.723206389847325   5.002978606422314 
 -1.244561142051616   9.342032703395882  11.673616748318732 
  0.000717845518148   2.874909445972781  11.673616748318732 
  4.978771382066827   2.875257406441620  11.673616748318732 
  3.734223961312163   9.340928800499913  11.673616748318732 
  8.712592482697726   9.341681551559589  11.673616748318732 
  9.956824918614950   2.874909445972781  11.673616748318732 
 -3.725582893182488   9.347013704411754   5.002978606422314 
  1.222849483281380   9.363798926976454   5.002978606422314 
  2.400365051258665   2.760758703179915   5.002978606422314 