Species order: X N B                    
   2.51242800000000     
     5.9449720136058266    0.0000000000000000    0.0000000000000000
    -2.9724860068029120    5.1484967885702053   -0.0000000000000001
     0.0000000000000000    0.0000000000000009    5.3101128803662583
   In   N    B 
     1   143   144
Direct
  0.5555555555555574  0.4444444444444429  0.3750000000000000
  0.1110858625509344  0.0555580181454522  0.1250473251451053
  0.6112108740672556  0.5557550814678591  0.1196396956688649
  0.4444666251539598  0.0555849771607047  0.1251674643366760
  0.9444150228393505  0.5555333748460037  0.1251674643366760
  0.7777972769899344  0.0555653051616314  0.1247318092075639
  0.1110970001413649  0.7222151667373676  0.6249852730015756
  0.4444666251539596  0.7222149813265626  0.6248325356633423
  0.2777232187762033  0.2222072587934210  0.6258852657892291
  0.7777927412065988  0.7222767812237953  0.6258852657892291
  0.6111507066838990  0.2222072587934206  0.6258852657892290
  0.9444346948383632  0.2222027230100666  0.6252681907924876
  0.2777848332626364  0.7222151667373676  0.1250147269984213
  0.1110567133974420  0.2221950233653893  0.1247829141264655
  0.4444638159898189  0.2222609653129557  0.1236065863832307
  0.6111507066838991  0.7222767812237956  0.1241147342108145
  0.9444150228393118  0.7222149813265626  0.1251674643366761
  0.7778049766346093  0.2221950233653893  0.1247829141264654
  0.1111016451259078  0.8888983548740593  0.6248897591530569
  0.4444633764148586  0.8888983548740593  0.6248897591530569
  0.2777232187762033  0.3888492933160965  0.6258852657892290
  0.6112108740672556  0.3887891259327347  0.6303603043311425
  0.7778049766346095  0.8889432866025174  0.6252170858735483
  0.9444419818545046  0.3888611777387986  0.6249526748549419
  0.1110858625509345  0.3888611777387986  0.1250473251451053
  0.2777848332626364  0.8889029998586011  0.1250147269984213
  0.6111388222611424  0.8889141374490831  0.1250473251451053
  0.4442449185321439  0.3887891259327347  0.1196396956688652
  0.9444419818545046  0.8889141374490831  0.1250473251451053
  0.7777927412065990  0.3888492933160966  0.1241147342108145
  0.2777850186734483  0.5555333748460037  0.6248325356633423
  0.1110858625509344  0.0555580181454522  0.6249526748549419
  0.6112108740672556  0.5557550814678591  0.6303603043311425
  0.4444666251539595  0.0555849771607062  0.6248325356633423
  0.9444150228393118  0.5555333748460038  0.6248325356633423
  0.1111016451259079  0.5555366235851470  0.1251102408469769
  0.7777972769899346  0.0555653051616314  0.6252681907924876
  0.2777850186734484  0.0555849771607047  0.1251674643366760
  0.4444638159898188  0.5555361840102105  0.1236065863832307
  0.7777390346870039  0.5555361840102103  0.1236065863832307
  0.6111388222611425  0.0555580181454522  0.1250473251451053
  0.4444638159898189  0.5555361840102105  0.6263934136167514
  0.9444346948383633  0.0555653051616314  0.1247318092075639
  0.2777848332626364  0.7222151667373676  0.6249852730015765
  0.1110567133974413  0.2221950233653893  0.6252170858735483
  0.4444638159898189  0.2222609653129557  0.6263934136167514
  0.6111507066838981  0.7222767812237956  0.6258852657892291
  0.9444150228393503  0.7222149813265626  0.6248325356633285
  0.7778049766346151  0.2221950233653918  0.6252170858735483
  0.1110970001413649  0.7222151667373676  0.1250147269984213
  0.4444666251539598  0.7222149813265500  0.1251674643366761
  0.2777232187762033  0.2222072587934206  0.1241147342108145
  0.7777927412065988  0.7222767812237956  0.1241147342108173
  0.6111507066838981  0.2222072587934206  0.1241147342108145
  0.9444346948383632  0.2222027230100666  0.1247318092075639
  0.1110858625509344  0.3888611777388035  0.6249526748549419
  0.2777848332626364  0.8889029998586012  0.6249852730015765
  0.6111388222611424  0.8889141374490966  0.6249526748549419
  0.4442449185321440  0.3887891259327347  0.6303603043311420
  0.9444419818545043  0.8889141374490966  0.6249526748549419
  0.1111016451259079  0.8888983548740593  0.1251102408469769
  0.7777927412065990  0.3888492933160965  0.6258852657892291
  0.4444633764148586  0.8888983548740591  0.1251102408469780
  0.2777232187762032  0.3888492933160966  0.1241147342108145
  0.2777850186734484  0.5555333748460037  0.1251674643366760
  0.6112108740672554  0.3887891259327347  0.1196396956688649
  0.7778049766346095  0.8889432866025174  0.1247829141264654
  0.9444419818545047  0.3888611777387986  0.1250473251451053
  0.1111016451259078  0.5555366235851468  0.6248897591530570
  0.2777850186734483  0.0555849771607061  0.6248325356633423
  0.7777390346869972  0.5555361840102105  0.6263934136167512
  0.6111388222611425  0.0555580181454522  0.6249526748549419
  0.9444346948383633  0.0555653051616314  0.6252681907924876
  0.0537959388812661  0.1099258290732263  0.3750000000000000
  0.5562866673337865  0.6255537405968358  0.3750000000000000
  0.3872126099324169  0.1077585531981598  0.3750000000000000
  0.8922414468018350  0.6127873900676019  0.3750000000000000
  0.7227965568586012  0.1099258290732263  0.3750000000000000
  0.0555659162260387  0.7777817785213569  0.8750000000000000
  0.3888825289619808  0.7777817785213569  0.8750000000000000
  0.2222308072951029  0.2777820703142255  0.8750000000000000
  0.7222179296857875  0.7777691927048851  0.8750000000000000
  0.5555358959097236  0.2777520922839864  0.8750000000000000
  0.8888900995321570  0.2777848178599331  0.8750000000000000
  0.2222222222222215  0.7777777777777786  0.3750000000000000
  0.0537959388812666  0.2772034431413536  0.3750000000000000
  0.3744462594031869  0.2640662600703134  0.3750000000000000
  0.5549585414224054  0.7835911112424505  0.3750000000000000
  0.8952992364867510  0.7835911112424505  0.3750000000000000
  0.7250917652916889  0.2749082347083565  0.3750000000000000
  0.0555594371532111  0.9444405628468271  0.8750000000000000
  0.3888825289619808  0.9444340837739330  0.8750000000000000
  0.2222216908107535  0.4444555845186292  0.8750000000000000
  0.5555555555555574  0.4444444444444429  0.8750000000000000
  0.7222151821400494  0.9444386150055251  0.8750000000000000
  0.8889005603745304  0.4444555845186292  0.8750000000000000
  0.0558878079193247  0.4451089491719695  0.3750000000000000
  0.2217061254884536  0.9429587352621736  0.3750000000000000
  0.5548910508279870  0.9441121920806834  0.3750000000000000
  0.3744462594031751  0.4437133326662092  0.3750000000000000
  0.8900741709267842  0.9462040611187207  0.3750000000000000
  0.7359337399296407  0.4437133326662091  0.3750000000000000
  0.2222182214786509  0.6111174710379990  0.8750000000000000
  0.0555613849944552  0.1111099004678460  0.8750000000000000
  0.5555358959097081  0.6111171369590979  0.8750000000000000
  0.3888754743930501  0.1110842821194400  0.8750000000000000
  0.8889157178805570  0.6111245256069516  0.8750000000000000
  0.0570412647378180  0.6120807235595905  0.3750000000000000
  0.7222151821400494  0.1111099004678460  0.8750000000000000
  0.2164088887575724  0.1047007635132900  0.3750000000000000
  0.3872126099324282  0.6127873900676265  0.3750000000000000
  0.7359337399296407  0.6255537405968530  0.3750000000000000
  0.5549585414224056  0.1047007635132885  0.3750000000000000
  0.3888754743930499  0.6111245256069516  0.8750000000000000
  0.8888888888888860  0.1111111111111143  0.3750000000000000
  0.2222222222222215  0.7777777777777786  0.8750000000000000
  0.0555613849944552  0.2777848178599411  0.8750000000000000
  0.3888828630409140  0.2777520922839864  0.8750000000000000
  0.5555444154814045  0.7777783091892582  0.8750000000000000
  0.8889005603745304  0.7777783091892582  0.8750000000000000
  0.7222179296857878  0.2777820703142319  0.8750000000000000
  0.0570412647378180  0.7782938745116057  0.3750000000000000
  0.3879192764403790  0.7782938745116057  0.3750000000000000
  0.2164831360833425  0.2749082347083565  0.3750000000000000
  0.7250917652916976  0.7835168639166228  0.3750000000000000
  0.5562866673337851  0.2640662600703134  0.3750000000000000
  0.8900741709268021  0.2772034431413535  0.3750000000000000
  0.0555594371532111  0.4444522076397533  0.8750000000000000
  0.2222182214786509  0.9444340837739329  0.8750000000000000
  0.5555477923602515  0.9444405628468271  0.8750000000000000
  0.3888828630409060  0.4444641040902928  0.8750000000000000
  0.8888900995321570  0.9444386150055251  0.8750000000000000
  0.0558878079193247  0.9441121920806945  0.3750000000000000
  0.7222479077159877  0.4444641040902928  0.8750000000000000
  0.3879192764403791  0.9429587352621372  0.3750000000000000
  0.2164088887575724  0.4450414585776129  0.3750000000000000
  0.2217061254884535  0.6120807235595905  0.3750000000000000
  0.7227965568586012  0.9462040611187207  0.3750000000000000
  0.8952992364867511  0.4450414585776129  0.3750000000000000
  0.0555659162260387  0.6111174710379991  0.8750000000000000
  0.2222216908107536  0.1110994396254514  0.8750000000000000
  0.7222479077160036  0.6111171369590975  0.8750000000000000
  0.5555444154814045  0.1110994396254514  0.8750000000000000
  0.8888888888888860  0.1111111111111143  0.8750000000000000
  0.1079858306622087  0.0530715229473930  0.3750000000000000
  0.6283073008855008  0.5899479351044007  0.3750000000000000
  0.4438204264802102  0.0532547070471939  0.3750000000000000
  0.9467452929527909  0.5561795735198400  0.3750000000000000
  0.7784863297431582  0.0559098315382242  0.3750000000000000
  0.1110993542199579  0.7222163437766470  0.8750000000000000
  0.4444451673240464  0.7221891968372853  0.8750000000000000
  0.2778689970413801  0.2222775681759174  0.8750000000000000
  0.7777224318241026  0.7221310029585704  0.8750000000000000
  0.6110752378011662  0.2222775681759176  0.8750000000000000
  0.9444532751623222  0.2222398836579687  0.8750000000000000
  0.2773985836747468  0.7226014163252295  0.3750000000000000
  0.1076519226315752  0.2204926279824452  0.3750000000000000
  0.4427509743379983  0.2188352820093640  0.3750000000000000
  0.6126747471799437  0.7325786139331335  0.3750000000000000
  0.9467452929527911  0.7238990527663595  0.3750000000000000
  0.7795073720175043  0.2204926279824452  0.3750000000000000
  0.1111132874399267  0.8888867125600483  0.8750000000000000
  0.4444400917868093  0.8888867125600483  0.8750000000000000
  0.2778689970413801  0.3889247621988129  0.8750000000000000
  0.6110733567075005  0.3889266432924839  0.8750000000000000
  0.7777457374983517  0.8888248083300374  0.8750000000000000
  0.9444282407881349  0.3889095240730006  0.8750000000000000
  0.1079858306622107  0.3882476410481461  0.3750000000000000
  0.2773985836747468  0.8881305006828220  0.3750000000000000
  0.6117523589518638  0.8920141693378325  0.3750000000000000
  0.4100520648956165  0.3716926991144964  0.3750000000000000
  0.9469284770526204  0.8920141693378325  0.3750000000000000
  0.7865705334198785  0.3873252528200384  0.3750000000000000
  0.2778108031626770  0.5555548326759550  0.8750000000000000
  0.1111479499515501  0.0555717592118905  0.8750000000000000
  0.6110733567075004  0.5554800467483605  0.8750000000000000
  0.4444451673240464  0.0555893038200860  0.8750000000000000
  0.9444106961799179  0.5555548326759550  0.8750000000000000
  0.1113479209331375  0.5560291751995586  0.3750000000000000
  0.7777601163420630  0.0555467248376857  0.8750000000000000
  0.2761009472336382  0.0532547070471942  0.3750000000000000
  0.4427509743379985  0.5572490256619989  0.3750000000000000
  0.7811647179906676  0.5572490256619989  0.3750000000000000
  0.6117523589518638  0.0530715229473930  0.3750000000000000
  0.4444739146943091  0.5555260853057153  0.8750000000000000
  0.9440901684617934  0.0559098315382242  0.3750000000000000
  0.2777836562233736  0.7222163437766470  0.8750000000000000
  0.1111751916699489  0.2222542625016349  0.8750000000000000
  0.4444739146943091  0.2222811627219152  0.8750000000000000
  0.6110752378011662  0.7221310029585704  0.8750000000000000
  0.9444106961799179  0.7221891968372852  0.8750000000000000
  0.7777457374983515  0.2222542625016349  0.8750000000000000
  0.1118694993171304  0.7226014163252295  0.3750000000000000
  0.4438204264802103  0.7238990527663594  0.3750000000000000
  0.2674213860668883  0.2134294665801557  0.3750000000000000
  0.7865705334198781  0.7325786139331336  0.3750000000000000
  0.6126747471799574  0.2134294665801641  0.3750000000000000
  0.9440901684617933  0.2215136702568737  0.3750000000000000
  0.1111479499515503  0.3889095240730006  0.8750000000000000
  0.2777836562233736  0.8889006457800759  0.8750000000000000
  0.6110904759270402  0.8888520500484077  0.8750000000000000
  0.4445199532516813  0.3889266432924840  0.8750000000000000
  0.9444282407881349  0.8888520500484077  0.8750000000000000
  0.1113479209331408  0.8886520790668264  0.3750000000000000
  0.7777224318241024  0.3889247621988125  0.8750000000000000
  0.4439708248004094  0.8886520790668265  0.3750000000000000
  0.2674213860668880  0.3873252528200407  0.3750000000000000
  0.2761009472336383  0.5561795735198398  0.3750000000000000
  0.6283073008855229  0.3716926991144637  0.3750000000000000
  0.7795073720175041  0.8923480773683906  0.3750000000000000
  0.9469284770526204  0.3882476410481461  0.3750000000000000
  0.1111132874399267  0.5555599082131701  0.8750000000000000
  0.2778108031626774  0.0555893038200859  0.8750000000000000
  0.7777188372780465  0.5555260853057152  0.8750000000000000
  0.6110904759270401  0.0555717592118904  0.8750000000000000
  0.9444532751623222  0.0555467248376857  0.8750000000000000
  0.0555648729305130  0.1111432975799617  0.1250131886505627
  0.5556740481486238  0.6109362779089902  0.1229780572100158
  0.3890260765210531  0.1113854863754414  0.1250508058441722
  0.8886145136245506  0.6109739234789452  0.1250508058441722
  0.7222450913161027  0.1111432975799616  0.1250131886505627
  0.0554498440149396  0.7777434737247084  0.6247397250611848
  0.3889602963764598  0.7777434737247084  0.6247397250611846
  0.2223053704598547  0.2778193518966021  0.6253894899007401
  0.7221806481033985  0.7776946295401312  0.6253894899007401
  0.5556740481486113  0.2780711035729137  0.6270219427899992
  0.8888567024199893  0.2777549086838781  0.6249868113494500
  0.2222222222222215  0.7777777777777786  0.1250615956477534
  0.0555648729305123  0.2777549086838781  0.1250131886505626
  0.3890637220909373  0.2780711035729137  0.1229780572100159
  0.5556311484677459  0.7776972235714863  0.1250811034006063
  0.8887327417704596  0.7776972235714863  0.1250811034006063
  0.7221806481033988  0.2778193518966107  0.1246105100992638
  0.0555249292514737  0.9444750707485181  0.6247567294717229
  0.3889602963764596  0.9445501559850941  0.6247397250611849
  0.2223027764284849  0.4443688515323297  0.6249188965993696
  0.5555555555555574  0.4444444444444429  0.6273758128184188
  0.7222450913161093  0.9444351270694492  0.6249868113494500
  0.8887327417704596  0.4443688515323297  0.6249188965993696
  0.0555249292514737  0.4443831918362381  0.1252432705283237
  0.2222565262752536  0.9445501559850937  0.1252602749388372
  0.5556168081637343  0.9444750707485181  0.1252432705283237
  0.3890637220909371  0.4443259518513584  0.1229780572100158
  0.8888567024199893  0.9444351270694492  0.1250131886505627
  0.7219288964271057  0.4443259518513583  0.1229780572100158
  0.2222565262752536  0.6110397036235520  0.6247397250611849
  0.0555648729305130  0.1111432975799645  0.6249868113494500
  0.5556740481486238  0.6109362779089901  0.6270219427899992
  0.3890260765210538  0.1113854863754413  0.6249491941558175
  0.8886145136245506  0.6109739234789451  0.6249491941558173
  0.0554498440149396  0.6110397036235520  0.1252602749388372
  0.7222450913161093  0.1111432975799617  0.6249868113494500
  0.2223027764284849  0.1112672582295039  0.1250811034006063
  0.3890260765210531  0.6109739234789452  0.1250508058441723
  0.7219288964271054  0.6109362779089901  0.1229780572100157
  0.5556311484677459  0.1112672582295039  0.1250811034006063
  0.3890260765210531  0.6109739234789451  0.6249491941558175
  0.8888888888888860  0.1111111111111143  0.1248578579882335
  0.2222222222222215  0.7777777777777786  0.6249384043522573
  0.0555648729305130  0.2777549086838782  0.6249868113494500
  0.3890637220909372  0.2780711035729137  0.6270219427899991
  0.5556311484677459  0.7776972235714863  0.6249188965993696
  0.8887327417704596  0.7776972235714863  0.6249188965993696
  0.7221806481033988  0.2778193518966021  0.6253894899007401
  0.0554498440149418  0.7777434737247084  0.1252602749388372
  0.3889602963764596  0.7777434737247084  0.1252602749388372
  0.2223053704598546  0.2778193518966021  0.1246105100992638
  0.7221806481033985  0.7776946295401312  0.1246105100992681
  0.5556740481486111  0.2780711035729137  0.1229780572100158
  0.8888567024199893  0.2777549086838782  0.1250131886505627
  0.0555249292514737  0.4443831918362381  0.6247567294717229
  0.2222565262752536  0.9445501559850937  0.6247397250611849
  0.5556168081637343  0.9444750707485181  0.6247567294717229
  0.3890637220909370  0.4443259518513583  0.6270219427899991
  0.8888567024199890  0.9444351270694492  0.6249868113494500
  0.0555249292514737  0.9444750707485181  0.1252432705283237
  0.7219288964271057  0.4443259518513583  0.6270219427899992
  0.3889602963764596  0.9445501559850942  0.1252602749388372
  0.2223027764284849  0.4443688515323297  0.1250811034006063
  0.2222565262752536  0.6110397036235520  0.1252602749388373
  0.5555555555555574  0.4444444444444429  0.1226241871815692
  0.7222450913161093  0.9444351270694492  0.1250131886505626
  0.8887327417704596  0.4443688515323297  0.1250811034006063
  0.0554498440149396  0.6110397036235520  0.6247397250611849
  0.2223027764284848  0.1112672582295002  0.6249188965993696
  0.7219288964271058  0.6109362779089901  0.6270219427899991
  0.5556311484677459  0.1112672582295039  0.6249188965993696
  0.8888888888888860  0.1111111111111143  0.6251421420117664
 
  0.00000000E+00  0.00000000E+00  0.00000000E+00
  0.00000000E+00  0.00000000E+00  0.00000000E+00
  0.00000000E+00  0.00000000E+00  0.00000000E+00
  0.00000000E+00  0.00000000E+00  0.00000000E+00
  0.00000000E+00  0.00000000E+00  0.00000000E+00
  0.00000000E+00  0.00000000E+00  0.00000000E+00
  0.00000000E+00  0.00000000E+00  0.00000000E+00
  0.00000000E+00  0.00000000E+00  0.00000000E+00
  0.00000000E+00  0.00000000E+00  0.00000000E+00
  0.00000000E+00  0.00000000E+00  0.00000000E+00
  0.00000000E+00  0.00000000E+00  0.00000000E+00
  0.00000000E+00  0.00000000E+00  0.00000000E+00
  0.00000000E+00  0.00000000E+00  0.00000000E+00
  0.00000000E+00  0.00000000E+00  0.00000000E+00
  0.00000000E+00  0.00000000E+00  0.00000000E+00
  0.00000000E+00  0.00000000E+00  0.00000000E+00
  0.00000000E+00  0.00000000E+00  0.00000000E+00
  0.00000000E+00  0.00000000E+00  0.00000000E+00
  0.00000000E+00  0.00000000E+00  0.00000000E+00
  0.00000000E+00  0.00000000E+00  0.00000000E+00
  0.00000000E+00  0.00000000E+00  0.00000000E+00
  0.00000000E+00  0.00000000E+00  0.00000000E+00
  0.00000000E+00  0.00000000E+00  0.00000000E+00
  0.00000000E+00  0.00000000E+00  0.00000000E+00
  0.00000000E+00  0.00000000E+00  0.00000000E+00
  0.00000000E+00  0.00000000E+00  0.00000000E+00
  0.00000000E+00  0.00000000E+00  0.00000000E+00
  0.00000000E+00  0.00000000E+00  0.00000000E+00
  0.00000000E+00  0.00000000E+00  0.00000000E+00
  0.00000000E+00  0.00000000E+00  0.00000000E+00
  0.00000000E+00  0.00000000E+00  0.00000000E+00
  0.00000000E+00  0.00000000E+00  0.00000000E+00
  0.00000000E+00  0.00000000E+00  0.00000000E+00
  0.00000000E+00  0.00000000E+00  0.00000000E+00
  0.00000000E+00  0.00000000E+00  0.00000000E+00
  0.00000000E+00  0.00000000E+00  0.00000000E+00
  0.00000000E+00  0.00000000E+00  0.00000000E+00
  0.00000000E+00  0.00000000E+00  0.00000000E+00
  0.00000000E+00  0.00000000E+00  0.00000000E+00
  0.00000000E+00  0.00000000E+00  0.00000000E+00
  0.00000000E+00  0.00000000E+00  0.00000000E+00
  0.00000000E+00  0.00000000E+00  0.00000000E+00
  0.00000000E+00  0.00000000E+00  0.00000000E+00
  0.00000000E+00  0.00000000E+00  0.00000000E+00
  0.00000000E+00  0.00000000E+00  0.00000000E+00
  0.00000000E+00  0.00000000E+00  0.00000000E+00
  0.00000000E+00  0.00000000E+00  0.00000000E+00
  0.00000000E+00  0.00000000E+00  0.00000000E+00
  0.00000000E+00  0.00000000E+00  0.00000000E+00
  0.00000000E+00  0.00000000E+00  0.00000000E+00
  0.00000000E+00  0.00000000E+00  0.00000000E+00
  0.00000000E+00  0.00000000E+00  0.00000000E+00
  0.00000000E+00  0.00000000E+00  0.00000000E+00
  0.00000000E+00  0.00000000E+00  0.00000000E+00
  0.00000000E+00  0.00000000E+00  0.00000000E+00
  0.00000000E+00  0.00000000E+00  0.00000000E+00
  0.00000000E+00  0.00000000E+00  0.00000000E+00
  0.00000000E+00  0.00000000E+00  0.00000000E+00
  0.00000000E+00  0.00000000E+00  0.00000000E+00
  0.00000000E+00  0.00000000E+00  0.00000000E+00
  0.00000000E+00  0.00000000E+00  0.00000000E+00
  0.00000000E+00  0.00000000E+00  0.00000000E+00
  0.00000000E+00  0.00000000E+00  0.00000000E+00
  0.00000000E+00  0.00000000E+00  0.00000000E+00
  0.00000000E+00  0.00000000E+00  0.00000000E+00
  0.00000000E+00  0.00000000E+00  0.00000000E+00
  0.00000000E+00  0.00000000E+00  0.00000000E+00
  0.00000000E+00  0.00000000E+00  0.00000000E+00
  0.00000000E+00  0.00000000E+00  0.00000000E+00
  0.00000000E+00  0.00000000E+00  0.00000000E+00
  0.00000000E+00  0.00000000E+00  0.00000000E+00
  0.00000000E+00  0.00000000E+00  0.00000000E+00
  0.00000000E+00  0.00000000E+00  0.00000000E+00
  0.00000000E+00  0.00000000E+00  0.00000000E+00
  0.00000000E+00  0.00000000E+00  0.00000000E+00
  0.00000000E+00  0.00000000E+00  0.00000000E+00
  0.00000000E+00  0.00000000E+00  0.00000000E+00
  0.00000000E+00  0.00000000E+00  0.00000000E+00
  0.00000000E+00  0.00000000E+00  0.00000000E+00
  0.00000000E+00  0.00000000E+00  0.00000000E+00
  0.00000000E+00  0.00000000E+00  0.00000000E+00
  0.00000000E+00  0.00000000E+00  0.00000000E+00
  0.00000000E+00  0.00000000E+00  0.00000000E+00
  0.00000000E+00  0.00000000E+00  0.00000000E+00
  0.00000000E+00  0.00000000E+00  0.00000000E+00
  0.00000000E+00  0.00000000E+00  0.00000000E+00
  0.00000000E+00  0.00000000E+00  0.00000000E+00
  0.00000000E+00  0.00000000E+00  0.00000000E+00
  0.00000000E+00  0.00000000E+00  0.00000000E+00
  0.00000000E+00  0.00000000E+00  0.00000000E+00
  0.00000000E+00  0.00000000E+00  0.00000000E+00
  0.00000000E+00  0.00000000E+00  0.00000000E+00
  0.00000000E+00  0.00000000E+00  0.00000000E+00
  0.00000000E+00  0.00000000E+00  0.00000000E+00
  0.00000000E+00  0.00000000E+00  0.00000000E+00
  0.00000000E+00  0.00000000E+00  0.00000000E+00
  0.00000000E+00  0.00000000E+00  0.00000000E+00
  0.00000000E+00  0.00000000E+00  0.00000000E+00
  0.00000000E+00  0.00000000E+00  0.00000000E+00
  0.00000000E+00  0.00000000E+00  0.00000000E+00
  0.00000000E+00  0.00000000E+00  0.00000000E+00
  0.00000000E+00  0.00000000E+00  0.00000000E+00
  0.00000000E+00  0.00000000E+00  0.00000000E+00
  0.00000000E+00  0.00000000E+00  0.00000000E+00
  0.00000000E+00  0.00000000E+00  0.00000000E+00
  0.00000000E+00  0.00000000E+00  0.00000000E+00
  0.00000000E+00  0.00000000E+00  0.00000000E+00
  0.00000000E+00  0.00000000E+00  0.00000000E+00
  0.00000000E+00  0.00000000E+00  0.00000000E+00
  0.00000000E+00  0.00000000E+00  0.00000000E+00
  0.00000000E+00  0.00000000E+00  0.00000000E+00
  0.00000000E+00  0.00000000E+00  0.00000000E+00
  0.00000000E+00  0.00000000E+00  0.00000000E+00
  0.00000000E+00  0.00000000E+00  0.00000000E+00
  0.00000000E+00  0.00000000E+00  0.00000000E+00
  0.00000000E+00  0.00000000E+00  0.00000000E+00
  0.00000000E+00  0.00000000E+00  0.00000000E+00
  0.00000000E+00  0.00000000E+00  0.00000000E+00
  0.00000000E+00  0.00000000E+00  0.00000000E+00
  0.00000000E+00  0.00000000E+00  0.00000000E+00
  0.00000000E+00  0.00000000E+00  0.00000000E+00
  0.00000000E+00  0.00000000E+00  0.00000000E+00
  0.00000000E+00  0.00000000E+00  0.00000000E+00
  0.00000000E+00  0.00000000E+00  0.00000000E+00
  0.00000000E+00  0.00000000E+00  0.00000000E+00
  0.00000000E+00  0.00000000E+00  0.00000000E+00
  0.00000000E+00  0.00000000E+00  0.00000000E+00
  0.00000000E+00  0.00000000E+00  0.00000000E+00
  0.00000000E+00  0.00000000E+00  0.00000000E+00
  0.00000000E+00  0.00000000E+00  0.00000000E+00
  0.00000000E+00  0.00000000E+00  0.00000000E+00
  0.00000000E+00  0.00000000E+00  0.00000000E+00
  0.00000000E+00  0.00000000E+00  0.00000000E+00
  0.00000000E+00  0.00000000E+00  0.00000000E+00
  0.00000000E+00  0.00000000E+00  0.00000000E+00
  0.00000000E+00  0.00000000E+00  0.00000000E+00
  0.00000000E+00  0.00000000E+00  0.00000000E+00
  0.00000000E+00  0.00000000E+00  0.00000000E+00
  0.00000000E+00  0.00000000E+00  0.00000000E+00
  0.00000000E+00  0.00000000E+00  0.00000000E+00
  0.00000000E+00  0.00000000E+00  0.00000000E+00
  0.00000000E+00  0.00000000E+00  0.00000000E+00
  0.00000000E+00  0.00000000E+00  0.00000000E+00
  0.00000000E+00  0.00000000E+00  0.00000000E+00
  0.00000000E+00  0.00000000E+00  0.00000000E+00
  0.00000000E+00  0.00000000E+00  0.00000000E+00
  0.00000000E+00  0.00000000E+00  0.00000000E+00
  0.00000000E+00  0.00000000E+00  0.00000000E+00
  0.00000000E+00  0.00000000E+00  0.00000000E+00
  0.00000000E+00  0.00000000E+00  0.00000000E+00
  0.00000000E+00  0.00000000E+00  0.00000000E+00
  0.00000000E+00  0.00000000E+00  0.00000000E+00
  0.00000000E+00  0.00000000E+00  0.00000000E+00
  0.00000000E+00  0.00000000E+00  0.00000000E+00
  0.00000000E+00  0.00000000E+00  0.00000000E+00
  0.00000000E+00  0.00000000E+00  0.00000000E+00
  0.00000000E+00  0.00000000E+00  0.00000000E+00
  0.00000000E+00  0.00000000E+00  0.00000000E+00
  0.00000000E+00  0.00000000E+00  0.00000000E+00
  0.00000000E+00  0.00000000E+00  0.00000000E+00
  0.00000000E+00  0.00000000E+00  0.00000000E+00
  0.00000000E+00  0.00000000E+00  0.00000000E+00
  0.00000000E+00  0.00000000E+00  0.00000000E+00
  0.00000000E+00  0.00000000E+00  0.00000000E+00
  0.00000000E+00  0.00000000E+00  0.00000000E+00
  0.00000000E+00  0.00000000E+00  0.00000000E+00
  0.00000000E+00  0.00000000E+00  0.00000000E+00
  0.00000000E+00  0.00000000E+00  0.00000000E+00
  0.00000000E+00  0.00000000E+00  0.00000000E+00
  0.00000000E+00  0.00000000E+00  0.00000000E+00
  0.00000000E+00  0.00000000E+00  0.00000000E+00
  0.00000000E+00  0.00000000E+00  0.00000000E+00
  0.00000000E+00  0.00000000E+00  0.00000000E+00
  0.00000000E+00  0.00000000E+00  0.00000000E+00
  0.00000000E+00  0.00000000E+00  0.00000000E+00
  0.00000000E+00  0.00000000E+00  0.00000000E+00
  0.00000000E+00  0.00000000E+00  0.00000000E+00
  0.00000000E+00  0.00000000E+00  0.00000000E+00
  0.00000000E+00  0.00000000E+00  0.00000000E+00
  0.00000000E+00  0.00000000E+00  0.00000000E+00
  0.00000000E+00  0.00000000E+00  0.00000000E+00
  0.00000000E+00  0.00000000E+00  0.00000000E+00
  0.00000000E+00  0.00000000E+00  0.00000000E+00
  0.00000000E+00  0.00000000E+00  0.00000000E+00
  0.00000000E+00  0.00000000E+00  0.00000000E+00
  0.00000000E+00  0.00000000E+00  0.00000000E+00
  0.00000000E+00  0.00000000E+00  0.00000000E+00
  0.00000000E+00  0.00000000E+00  0.00000000E+00
  0.00000000E+00  0.00000000E+00  0.00000000E+00
  0.00000000E+00  0.00000000E+00  0.00000000E+00
  0.00000000E+00  0.00000000E+00  0.00000000E+00
  0.00000000E+00  0.00000000E+00  0.00000000E+00
  0.00000000E+00  0.00000000E+00  0.00000000E+00
  0.00000000E+00  0.00000000E+00  0.00000000E+00
  0.00000000E+00  0.00000000E+00  0.00000000E+00
  0.00000000E+00  0.00000000E+00  0.00000000E+00
  0.00000000E+00  0.00000000E+00  0.00000000E+00
  0.00000000E+00  0.00000000E+00  0.00000000E+00
  0.00000000E+00  0.00000000E+00  0.00000000E+00
  0.00000000E+00  0.00000000E+00  0.00000000E+00
  0.00000000E+00  0.00000000E+00  0.00000000E+00
  0.00000000E+00  0.00000000E+00  0.00000000E+00
  0.00000000E+00  0.00000000E+00  0.00000000E+00
  0.00000000E+00  0.00000000E+00  0.00000000E+00
  0.00000000E+00  0.00000000E+00  0.00000000E+00
  0.00000000E+00  0.00000000E+00  0.00000000E+00
  0.00000000E+00  0.00000000E+00  0.00000000E+00
  0.00000000E+00  0.00000000E+00  0.00000000E+00
  0.00000000E+00  0.00000000E+00  0.00000000E+00
  0.00000000E+00  0.00000000E+00  0.00000000E+00
  0.00000000E+00  0.00000000E+00  0.00000000E+00
  0.00000000E+00  0.00000000E+00  0.00000000E+00
  0.00000000E+00  0.00000000E+00  0.00000000E+00
  0.00000000E+00  0.00000000E+00  0.00000000E+00
  0.00000000E+00  0.00000000E+00  0.00000000E+00
  0.00000000E+00  0.00000000E+00  0.00000000E+00
  0.00000000E+00  0.00000000E+00  0.00000000E+00
  0.00000000E+00  0.00000000E+00  0.00000000E+00
  0.00000000E+00  0.00000000E+00  0.00000000E+00
  0.00000000E+00  0.00000000E+00  0.00000000E+00
  0.00000000E+00  0.00000000E+00  0.00000000E+00
  0.00000000E+00  0.00000000E+00  0.00000000E+00
  0.00000000E+00  0.00000000E+00  0.00000000E+00
  0.00000000E+00  0.00000000E+00  0.00000000E+00
  0.00000000E+00  0.00000000E+00  0.00000000E+00
  0.00000000E+00  0.00000000E+00  0.00000000E+00
  0.00000000E+00  0.00000000E+00  0.00000000E+00
  0.00000000E+00  0.00000000E+00  0.00000000E+00
  0.00000000E+00  0.00000000E+00  0.00000000E+00
  0.00000000E+00  0.00000000E+00  0.00000000E+00
  0.00000000E+00  0.00000000E+00  0.00000000E+00
  0.00000000E+00  0.00000000E+00  0.00000000E+00
  0.00000000E+00  0.00000000E+00  0.00000000E+00
  0.00000000E+00  0.00000000E+00  0.00000000E+00
  0.00000000E+00  0.00000000E+00  0.00000000E+00
  0.00000000E+00  0.00000000E+00  0.00000000E+00
  0.00000000E+00  0.00000000E+00  0.00000000E+00
  0.00000000E+00  0.00000000E+00  0.00000000E+00
  0.00000000E+00  0.00000000E+00  0.00000000E+00
  0.00000000E+00  0.00000000E+00  0.00000000E+00
  0.00000000E+00  0.00000000E+00  0.00000000E+00
  0.00000000E+00  0.00000000E+00  0.00000000E+00
  0.00000000E+00  0.00000000E+00  0.00000000E+00
  0.00000000E+00  0.00000000E+00  0.00000000E+00
  0.00000000E+00  0.00000000E+00  0.00000000E+00
  0.00000000E+00  0.00000000E+00  0.00000000E+00
  0.00000000E+00  0.00000000E+00  0.00000000E+00