Species order: X N B                    
   2.51242800000000     
     5.9449720136058266    0.0000000000000000    0.0000000000000000
    -2.9724860068029120    5.1484967885702053   -0.0000000000000001
     0.0000000000000000    0.0000000000000009    5.3101128803662583
   Ge   N    B 
     1   144   143
Direct
  0.4444444444444429  0.3888888888888857  0.3750000000000000
  0.1111043850455874  0.0555355573321500  0.1248358116971244
  0.6111284899823868  0.5555576918606523  0.1268363175524148
  0.4444311722865799  0.0555355573321500  0.1248358116971244
  0.9444597766515804  0.5555661323060530  0.1249963850849260
  0.7777777777777786  0.0555555555555571  0.1251062882608049
  0.1111111111111143  0.7222222222222214  0.6247542461007514
  0.4444311722865799  0.7222289482877503  0.6251641883028893
  0.2777756414726713  0.2222048433509549  0.6231636824476411
  0.7777977760011484  0.7222289482877503  0.6251641883028893
  0.6111020190900638  0.2222313142432507  0.6249180067766056
  0.9444522916311294  0.2222315299899607  0.6251820752074883
  0.2777672010272620  0.7222269776788354  0.1249963850849260
  0.1111292951531776  0.2222313142432507  0.1250819932233321
  0.4444292018782796  0.2222048433509549  0.1268363175524148
  0.6111020190900638  0.7222040381801696  0.1250819932233321
  0.9444597766515804  0.7222269776788354  0.1249963850849260
  0.7777792383588531  0.2222315299899607  0.1248179247925508
  0.1111063556544927  0.8888735566817482  0.6250036149150473
  0.4444338954419081  0.8888836143876095  0.6252329739667022
  0.2777756414726713  0.3889041314550490  0.6231636824476412
  0.6111284899823868  0.3889041314550490  0.6231636824476411
  0.7777792383588531  0.8888810417021992  0.6251820752074883
  0.9444497189457191  0.3888994378914205  0.6252329739667022
  0.1111043850455874  0.3889021610467487  0.1248358116971244
  0.2777672010272620  0.8888735566817482  0.1249963850849260
  0.6111018033433990  0.8888810417021992  0.1248179247925508
  0.4444444444444429  0.3888888888888857  0.1334359839498608
  0.9444497189457191  0.8888836143876095  0.1247670260332693
  0.7777977760011484  0.3889021610467487  0.1248358116971244
  0.2777647239284990  0.5555686094048484  0.6247496606831464
  0.1111043850455874  0.0555355573321500  0.6251641883028893
  0.6111284899823868  0.5555576918606523  0.6231636824476412
  0.4444311722865799  0.0555355573321500  0.6251641883028893
  0.9444597766515804  0.5555661323060530  0.6250036149150473
  0.1111063556544927  0.5555661323060530  0.1249963850849246
  0.7777777777777786  0.0555555555555571  0.6248937117392369
  0.2777647239284990  0.0555294478570025  0.1252503393168359
  0.4444292018782796  0.5555576918606523  0.1268363175524148
  0.7778038854763376  0.5555686094048484  0.1252503393168359
  0.6111018033433990  0.0555540949744816  0.1248179247925508
  0.4444292018782796  0.5555576918606523  0.6231636824476412
  0.9444522916311294  0.0555540949744816  0.1248179247925508
  0.2777672010272620  0.7222269776788354  0.6250036149150473
  0.1111292951531776  0.2222313142432507  0.6249180067766056
  0.4444292018782796  0.2222048433509549  0.6231636824476412
  0.6111020190900638  0.7222040381801696  0.6249180067766056
  0.9444597766515804  0.7222269776788354  0.6250036149150473
  0.7777792383588531  0.2222315299899607  0.6251820752074883
  0.1111111111111143  0.7222222222222214  0.1252457538991889
  0.4444311722865799  0.7222289482877503  0.1248358116971244
  0.2777756414726713  0.2222048433509549  0.1268363175524148
  0.7777977760011484  0.7222289482877503  0.1248358116971244
  0.6111020190900638  0.2222313142432507  0.1250819932233321
  0.9444522916311294  0.2222315299899607  0.1248179247925508
  0.1111043850455874  0.3889021610467487  0.6251641883028893
  0.2777672010272620  0.8888735566817482  0.6250036149150473
  0.6111018033433990  0.8888810417021992  0.6251820752074883
  0.4444444444444429  0.3888888888888857  0.6165640160501418
  0.9444497189457191  0.8888836143876095  0.6252329739667022
  0.1111063556544927  0.8888735566817482  0.1249963850849246
  0.7777977760011484  0.3889021610467487  0.6251641883028893
  0.4444338954419081  0.8888836143876095  0.1247670260332693
  0.2777756414726713  0.3889041314550490  0.1268363175524148
  0.2777647239284990  0.5555686094048484  0.1252503393168359
  0.6111284899823868  0.3889041314550490  0.1268363175524148
  0.7777792383588531  0.8888810417021992  0.1248179247925508
  0.9444497189457191  0.3888994378914205  0.1247670260332693
  0.1111063556544927  0.5555661323060530  0.6250036149150473
  0.2777647239284990  0.0555294478570025  0.6247496606831464
  0.7778038854763376  0.5555686094048484  0.6247496606831464
  0.6111018033433990  0.0555540949744816  0.6251820752074883
  0.9444522916311294  0.0555540949744816  0.6251820752074883
  0.0545637651467474  0.1104520841650229  0.3750000000000000
  0.5560810320320656  0.6121620640640778  0.3750000000000000
  0.3879194491184116  0.1056969901141773  0.3750000000000000
  0.8907119761668196  0.6120226547500894  0.3750000000000000
  0.7223996244052387  0.1109337089281009  0.3750000000000000
  0.0555533688987398  0.7777799644345808  0.8750000000000000
  0.3888954107040495  0.7777789184779548  0.8750000000000000
  0.2222267980726359  0.2777800657029603  0.8750000000000000
  0.7222204233074163  0.7777802223197144  0.8750000000000000
  0.5555532676303399  0.2777800657029603  0.8750000000000000
  0.8888878650156415  0.2777757300313594  0.8750000000000000
  0.2218885832090909  0.7776109582712072  0.3750000000000000
  0.0545637651467474  0.2774450143150454  0.3750000000000000
  0.3792775170424932  0.2585550340850157  0.3750000000000000
  0.5558883190182732  0.7787695681866019  0.3750000000000000
  0.8903857308662925  0.7790179893838374  0.3750000000000000
  0.7228812491683112  0.2774450143150454  0.3750000000000000
  0.0555544148553588  0.9444498255593881  0.8750000000000000
  0.3888954107040495  0.9444498255593881  0.8750000000000000
  0.2222279085187701  0.4444345086466119  0.8750000000000000
  0.5555338971682542  0.4444336152507914  0.8750000000000000
  0.7222232043552345  0.9444464087105049  0.8750000000000000
  0.8888835077739405  0.4444379226292791  0.8750000000000000
  0.0543153439494953  0.4447010748157860  0.3750000000000000
  0.2213106785832593  0.9426213571665090  0.3750000000000000
  0.5558286554064321  0.9445809943699152  0.3750000000000000
  0.3792775170424932  0.4540558162908354  0.3750000000000000
  0.8887523389634134  0.9445809943699152  0.3750000000000000
  0.7276363432191632  0.4454138842149170  0.3750000000000000
  0.2222279153093319  0.6111054180240469  0.8750000000000000
  0.0555531110136328  0.1111129100259296  0.8750000000000000
  0.5555532676303399  0.6111065352607509  0.8750000000000000
  0.3888988246867167  0.1111267332055003  0.8750000000000000
  0.8888775027146874  0.6111054180240469  0.8750000000000000
  0.0557223750621242  0.6114447501242414  0.3750000000000000
  0.7222232043552345  0.1111101289780869  0.8750000000000000
  0.2177775409957586  0.1056969901141773  0.3750000000000000
  0.3879194491184116  0.6155557923375832  0.3750000000000000
  0.7276363432191632  0.6155557923375832  0.3750000000000000
  0.5558883190182732  0.1104520841650229  0.3750000000000000
  0.3888988246867167  0.6111054248145551  0.8750000000000000
  0.8885340845228883  0.1109337089281009  0.3750000000000000
  0.2222265955358541  0.7777799644345808  0.8750000000000000
  0.0555531110136328  0.2777735343210333  0.8750000000000000
  0.3888997180825372  0.2777994361650478  0.8750000000000000
  0.5555597990123012  0.7777802223197144  0.8750000000000000
  0.8888835077739405  0.7777789184779548  0.8750000000000000
  0.7222204233074163  0.2777735343210333  0.8750000000000000
  0.0557223750621242  0.7776109582712072  0.3750000000000000
  0.3886322585175426  0.7790179893838374  0.3750000000000000
  0.2211712692692373  0.2772523013012968  0.3750000000000000
  0.7228812491683112  0.7787695681866019  0.3750000000000000
  0.5560810320320656  0.2772523013012968  0.3750000000000000
  0.8887523389634134  0.2775046779269152  0.3750000000000000
  0.0555544148553588  0.4444379226292791  0.8750000000000000
  0.2222279153093319  0.9444558306186412  0.8750000000000000
  0.5555576033019340  0.9444454683176871  0.8750000000000000
  0.3888997180825372  0.4444336152507914  0.8750000000000000
  0.8888878650156415  0.9444454683176871  0.8750000000000000
  0.0543153439494953  0.9429476024670361  0.3750000000000000
  0.7222066001278384  0.4444345086466119  0.8750000000000000
  0.3886322585175426  0.9429476024670361  0.3750000000000000
  0.2177775409957586  0.4454138842149170  0.3750000000000000
  0.2213106785832593  0.6120226547500894  0.3750000000000000
  0.5747782992483421  0.4540558162908354  0.3750000000000000
  0.7223996244052387  0.9447992488104403  0.3750000000000000
  0.8903857308662925  0.4447010748157860  0.3750000000000000
  0.0555533688987398  0.6111067377974568  0.8750000000000000
  0.2222279085187701  0.1111267332055003  0.8750000000000000
  0.7222066001278384  0.6111054248145551  0.8750000000000000
  0.5555597990123012  0.1111129100259296  0.8750000000000000
  0.8888869246228237  0.1111101289780869  0.8750000000000000
  0.1076983818617225  0.0525486844954414  0.3750000000000000
  0.6191858693569278  0.5635395169483223  0.3750000000000000
  0.4448503026337140  0.0525486844954414  0.3750000000000000
  0.9453653066675151  0.5557852886838548  0.3750000000000000
  0.7777777777777786  0.0555555555555571  0.3750000000000000
  0.1111111111111143  0.7222222222222214  0.8750000000000000
  0.4444618530678615  0.7222672126696884  0.8750000000000000
  0.2777197006963604  0.2221793395361623  0.8750000000000000
  0.7778053596018054  0.7222672126696884  0.8750000000000000
  0.6111451450730577  0.2221881882602921  0.8750000000000000
  0.9444121679939503  0.2222014991489995  0.8750000000000000
  0.2775480446494931  0.7229133513170012  0.3750000000000000
  0.1092049695123274  0.2212691514228275  0.3750000000000000
  0.4443536475913436  0.2141474639763458  0.3750000000000000
  0.6120641819104858  0.7241283638210291  0.3750000000000000
  0.9453653066675151  0.7229133513170012  0.3750000000000000
  0.7780153477297312  0.2216547726262291  0.3750000000000000
  0.1110985065980828  0.8888774079105194  0.8750000000000000
  0.4444589179455410  0.8888961256394889  0.8750000000000000
  0.2777197006963604  0.3888736944935034  0.8750000000000000
  0.6111539937972230  0.3888736944935034  0.8750000000000000
  0.7777893311550357  0.8889211653393783  0.8750000000000000
  0.9444372076938397  0.3888744153877876  0.8750000000000000
  0.1076983818617225  0.3884830306996146  0.3750000000000000
  0.2775480446494931  0.8879680266658135  0.3750000000000000
  0.6116785607071090  0.8896939084368556  0.3750000000000000
  0.9442302135815758  0.8891031197517528  0.3750000000000000
  0.7807846488378914  0.3884830306996146  0.3750000000000000
  0.2777613833481065  0.5555719499852224  0.8750000000000000
  0.1110661206636571  0.0555279737315190  0.8750000000000000
  0.6111539937972230  0.5556136326369738  0.8750000000000000
  0.4444618530678615  0.0555279737315190  0.8750000000000000
  0.9444559254228092  0.5555544320208794  0.8750000000000000
  0.1104199820163178  0.5557852886838548  0.3750000000000000
  0.7777777777777786  0.0555555555555571  0.8750000000000000
  0.2761506633540179  0.0523013267080051  0.3750000000000000
  0.4443536475913436  0.5635395169483223  0.3750000000000000
  0.7810320066252998  0.5571826699793382  0.3750000000000000
  0.6116785607071090  0.0553179856036093  0.3750000000000000
  0.4444596388398252  0.5556136326369738  0.8750000000000000
  0.9436394248964730  0.0553179856036093  0.3750000000000000
  0.2777789013124595  0.7222348267352570  0.8750000000000000
  0.1110430431872643  0.2221881882602921  0.8750000000000000
  0.4444596388398252  0.2221793395361623  0.8750000000000000
  0.6111451450730577  0.7222902901460523  0.8750000000000000
  0.9444559254228092  0.7222348267352570  0.8750000000000000
  0.7777893311550357  0.2222014991489995  0.8750000000000000
  0.1111111111111143  0.7222222222222214  0.3750000000000000
  0.4448503026337140  0.7256349514715973  0.3750000000000000
  0.2697938163849771  0.2141474639763458  0.3750000000000000
  0.7807846488378914  0.7256349514715973  0.3750000000000000
  0.6120641819104858  0.2212691514228275  0.3750000000000000
  0.9436394248964730  0.2216547726262291  0.3750000000000000
  0.1110661206636571  0.3888714802654671  0.8750000000000000
  0.2777789013124595  0.8888774079105194  0.8750000000000000
  0.6111318341843388  0.8889211653393783  0.8750000000000000
  0.4444444444444429  0.3888888888888857  0.8750000000000000
  0.9444372076938397  0.8888961256394889  0.8750000000000000
  0.1104199820163178  0.8879680266658135  0.3750000000000000
  0.7778053596018054  0.3888714802654671  0.8750000000000000
  0.4448729061702046  0.8891031197517528  0.3750000000000000
  0.2697938163849771  0.3889796857419850  0.3750000000000000
  0.2761506633540179  0.5571826699793382  0.3750000000000000
  0.6191858693569278  0.3889796857419850  0.3750000000000000
  0.7780153477297312  0.8896939084368556  0.3750000000000000
  0.9442302135815758  0.3884604271631240  0.3750000000000000
  0.1110985065980828  0.5555544320208794  0.8750000000000000
  0.2777613833481065  0.0555227666962370  0.8750000000000000
  0.7778105666371227  0.5555719499852224  0.8750000000000000
  0.6111318341843388  0.0555440021782999  0.8750000000000000
  0.9444121679939503  0.0555440021782999  0.8750000000000000
  0.0554630077093379  0.1110237303712191  0.1246512116314828
  0.5556582350257600  0.6113164700514038  0.1258665051403077
  0.3887937858591918  0.1108539173334478  0.1251703468180002
  0.8890359848318522  0.6111846590826259  0.1248210804829851
  0.7222345178574181  0.1110988154759165  0.1247923823256557
  0.0555744497254900  0.7777588836078401  0.6250691804306899
  0.3888423956938779  0.7778218368231909  0.6253712188265153
  0.2220168632818982  0.2776750983076338  0.6241334948596324
  0.7223096029620719  0.7778703256240086  0.6253487883685744
  0.5556582350257600  0.2776750983076338  0.6241334948596324
  0.8888935574980472  0.2777871149961283  0.6253701846326841
  0.2221844338823642  0.7777588836078401  0.1249308195693279
  0.0554630077093379  0.2777726106714334  0.1246512116314828
  0.3886517247394830  0.2773034494789642  0.1281390750146133
  0.5555607226618776  0.7778703256240086  0.1246512116314828
  0.8889794411292634  0.7778218368231909  0.1246287811734731
  0.7223096029620719  0.2777726106714334  0.1246512116314828
  0.0555114965101835  0.9443538922040652  0.6253712188265153
  0.3888423956938779  0.9443538922040652  0.6253712188265153
  0.2220601314742420  0.4445395474741368  0.6248296531820051
  0.5560298838543626  0.4446816085938456  0.6218609249854574
  0.7222345178574181  0.9444690357148297  0.6252076176743752
  0.8889794411292634  0.4444909376394507  0.6253712188265153
  0.0555114965101835  0.4444909376394507  0.1246287811734731
  0.2221486742507447  0.9442973485014764  0.1248210804829851
  0.5555462183372193  0.9444397758352814  0.1246298153673031
  0.3886517247394830  0.4446816085938456  0.1281390750146128
  0.8888935574980472  0.9444397758352814  0.1246298153673041
  0.7224794159998845  0.4445395474741368  0.1251703468180002
  0.2221486742507447  0.6111846590826259  0.6251789195169969
  0.0554630077093379  0.1110237303712191  0.6253487883685744
  0.5556582350257600  0.6113164700514038  0.6241334948596324
  0.3887937858591918  0.1108539173334478  0.6248296531820051
  0.8890359848318522  0.6111846590826259  0.6251789195169969
  0.0555744497254900  0.6111488994509676  0.1249308195693279
  0.7222345178574181  0.1110988154759165  0.6252076176743752
  0.2220601314742420  0.1108539173334478  0.1251703468180002
  0.3887937858591918  0.6112732018591068  0.1251703468180002
  0.7224794159998845  0.6112732018591068  0.1251703468180002
  0.5555607226618776  0.1110237303712191  0.1246512116314828
  0.3887937858591918  0.6112732018591068  0.6248296531820051
  0.8888642976184989  0.1110988154759165  0.1247923823256557
  0.2221844338823642  0.7777588836078401  0.6250691804306899
  0.0554630077093379  0.2777726106714334  0.6253487883685744
  0.3886517247394830  0.2773034494789642  0.6218609249854574
  0.5555607226618776  0.7778703256240086  0.6253487883685744
  0.8889794411292634  0.7778218368231909  0.6253712188265153
  0.7223096029620719  0.2777726106714334  0.6253487883685744
  0.0555744497254900  0.7777588836078401  0.1249308195693279
  0.3888423956938779  0.7778218368231909  0.1246287811734731
  0.2220168632818982  0.2776750983076338  0.1258665051403077
  0.7223096029620719  0.7778703256240086  0.1246512116314828
  0.5556582350257600  0.2776750983076338  0.1258665051403076
  0.8888935574980472  0.2777871149961283  0.1246298153673041
  0.0555114965101835  0.4444909376394507  0.6253712188265153
  0.2221486742507447  0.9442973485014764  0.6251789195169969
  0.5555462183372193  0.9444397758352814  0.6253701846326841
  0.3886517247394830  0.4446816085938456  0.6218609249854574
  0.8888935574980472  0.9444397758352814  0.6253701846326841
  0.0555114965101835  0.9443538922040652  0.1246287811734731
  0.7224794159998845  0.4445395474741368  0.6248296531820051
  0.3888423956938779  0.9443538922040652  0.1246287811734731
  0.2220601314742420  0.4445395474741368  0.1251703468180002
  0.2221486742507447  0.6111846590826259  0.1248210804829851
  0.5560298838543626  0.4446816085938456  0.1281390750146133
  0.7222345178574181  0.9444690357148297  0.1247923823256557
  0.8889794411292634  0.4444909376394507  0.1246287811734731
  0.0555744497254900  0.6111488994509676  0.6250691804306899
  0.2220601314742420  0.1108539173334478  0.6248296531820051
  0.7224794159998845  0.6112732018591068  0.6248296531820051
  0.5555607226618776  0.1110237303712191  0.6253487883685744
  0.8888642976184989  0.1110988154759165  0.6252076176743752
 
  0.00000000E+00  0.00000000E+00  0.00000000E+00
  0.00000000E+00  0.00000000E+00  0.00000000E+00
  0.00000000E+00  0.00000000E+00  0.00000000E+00
  0.00000000E+00  0.00000000E+00  0.00000000E+00
  0.00000000E+00  0.00000000E+00  0.00000000E+00
  0.00000000E+00  0.00000000E+00  0.00000000E+00
  0.00000000E+00  0.00000000E+00  0.00000000E+00
  0.00000000E+00  0.00000000E+00  0.00000000E+00
  0.00000000E+00  0.00000000E+00  0.00000000E+00
  0.00000000E+00  0.00000000E+00  0.00000000E+00
  0.00000000E+00  0.00000000E+00  0.00000000E+00
  0.00000000E+00  0.00000000E+00  0.00000000E+00
  0.00000000E+00  0.00000000E+00  0.00000000E+00
  0.00000000E+00  0.00000000E+00  0.00000000E+00
  0.00000000E+00  0.00000000E+00  0.00000000E+00
  0.00000000E+00  0.00000000E+00  0.00000000E+00
  0.00000000E+00  0.00000000E+00  0.00000000E+00
  0.00000000E+00  0.00000000E+00  0.00000000E+00
  0.00000000E+00  0.00000000E+00  0.00000000E+00
  0.00000000E+00  0.00000000E+00  0.00000000E+00
  0.00000000E+00  0.00000000E+00  0.00000000E+00
  0.00000000E+00  0.00000000E+00  0.00000000E+00
  0.00000000E+00  0.00000000E+00  0.00000000E+00
  0.00000000E+00  0.00000000E+00  0.00000000E+00
  0.00000000E+00  0.00000000E+00  0.00000000E+00
  0.00000000E+00  0.00000000E+00  0.00000000E+00
  0.00000000E+00  0.00000000E+00  0.00000000E+00
  0.00000000E+00  0.00000000E+00  0.00000000E+00
  0.00000000E+00  0.00000000E+00  0.00000000E+00
  0.00000000E+00  0.00000000E+00  0.00000000E+00
  0.00000000E+00  0.00000000E+00  0.00000000E+00
  0.00000000E+00  0.00000000E+00  0.00000000E+00
  0.00000000E+00  0.00000000E+00  0.00000000E+00
  0.00000000E+00  0.00000000E+00  0.00000000E+00
  0.00000000E+00  0.00000000E+00  0.00000000E+00
  0.00000000E+00  0.00000000E+00  0.00000000E+00
  0.00000000E+00  0.00000000E+00  0.00000000E+00
  0.00000000E+00  0.00000000E+00  0.00000000E+00
  0.00000000E+00  0.00000000E+00  0.00000000E+00
  0.00000000E+00  0.00000000E+00  0.00000000E+00
  0.00000000E+00  0.00000000E+00  0.00000000E+00
  0.00000000E+00  0.00000000E+00  0.00000000E+00
  0.00000000E+00  0.00000000E+00  0.00000000E+00
  0.00000000E+00  0.00000000E+00  0.00000000E+00
  0.00000000E+00  0.00000000E+00  0.00000000E+00
  0.00000000E+00  0.00000000E+00  0.00000000E+00
  0.00000000E+00  0.00000000E+00  0.00000000E+00
  0.00000000E+00  0.00000000E+00  0.00000000E+00
  0.00000000E+00  0.00000000E+00  0.00000000E+00
  0.00000000E+00  0.00000000E+00  0.00000000E+00
  0.00000000E+00  0.00000000E+00  0.00000000E+00
  0.00000000E+00  0.00000000E+00  0.00000000E+00
  0.00000000E+00  0.00000000E+00  0.00000000E+00
  0.00000000E+00  0.00000000E+00  0.00000000E+00
  0.00000000E+00  0.00000000E+00  0.00000000E+00
  0.00000000E+00  0.00000000E+00  0.00000000E+00
  0.00000000E+00  0.00000000E+00  0.00000000E+00
  0.00000000E+00  0.00000000E+00  0.00000000E+00
  0.00000000E+00  0.00000000E+00  0.00000000E+00
  0.00000000E+00  0.00000000E+00  0.00000000E+00
  0.00000000E+00  0.00000000E+00  0.00000000E+00
  0.00000000E+00  0.00000000E+00  0.00000000E+00
  0.00000000E+00  0.00000000E+00  0.00000000E+00
  0.00000000E+00  0.00000000E+00  0.00000000E+00
  0.00000000E+00  0.00000000E+00  0.00000000E+00
  0.00000000E+00  0.00000000E+00  0.00000000E+00
  0.00000000E+00  0.00000000E+00  0.00000000E+00
  0.00000000E+00  0.00000000E+00  0.00000000E+00
  0.00000000E+00  0.00000000E+00  0.00000000E+00
  0.00000000E+00  0.00000000E+00  0.00000000E+00
  0.00000000E+00  0.00000000E+00  0.00000000E+00
  0.00000000E+00  0.00000000E+00  0.00000000E+00
  0.00000000E+00  0.00000000E+00  0.00000000E+00
  0.00000000E+00  0.00000000E+00  0.00000000E+00
  0.00000000E+00  0.00000000E+00  0.00000000E+00
  0.00000000E+00  0.00000000E+00  0.00000000E+00
  0.00000000E+00  0.00000000E+00  0.00000000E+00
  0.00000000E+00  0.00000000E+00  0.00000000E+00
  0.00000000E+00  0.00000000E+00  0.00000000E+00
  0.00000000E+00  0.00000000E+00  0.00000000E+00
  0.00000000E+00  0.00000000E+00  0.00000000E+00
  0.00000000E+00  0.00000000E+00  0.00000000E+00
  0.00000000E+00  0.00000000E+00  0.00000000E+00
  0.00000000E+00  0.00000000E+00  0.00000000E+00
  0.00000000E+00  0.00000000E+00  0.00000000E+00
  0.00000000E+00  0.00000000E+00  0.00000000E+00
  0.00000000E+00  0.00000000E+00  0.00000000E+00
  0.00000000E+00  0.00000000E+00  0.00000000E+00
  0.00000000E+00  0.00000000E+00  0.00000000E+00
  0.00000000E+00  0.00000000E+00  0.00000000E+00
  0.00000000E+00  0.00000000E+00  0.00000000E+00
  0.00000000E+00  0.00000000E+00  0.00000000E+00
  0.00000000E+00  0.00000000E+00  0.00000000E+00
  0.00000000E+00  0.00000000E+00  0.00000000E+00
  0.00000000E+00  0.00000000E+00  0.00000000E+00
  0.00000000E+00  0.00000000E+00  0.00000000E+00
  0.00000000E+00  0.00000000E+00  0.00000000E+00
  0.00000000E+00  0.00000000E+00  0.00000000E+00
  0.00000000E+00  0.00000000E+00  0.00000000E+00
  0.00000000E+00  0.00000000E+00  0.00000000E+00
  0.00000000E+00  0.00000000E+00  0.00000000E+00
  0.00000000E+00  0.00000000E+00  0.00000000E+00
  0.00000000E+00  0.00000000E+00  0.00000000E+00
  0.00000000E+00  0.00000000E+00  0.00000000E+00
  0.00000000E+00  0.00000000E+00  0.00000000E+00
  0.00000000E+00  0.00000000E+00  0.00000000E+00
  0.00000000E+00  0.00000000E+00  0.00000000E+00
  0.00000000E+00  0.00000000E+00  0.00000000E+00
  0.00000000E+00  0.00000000E+00  0.00000000E+00
  0.00000000E+00  0.00000000E+00  0.00000000E+00
  0.00000000E+00  0.00000000E+00  0.00000000E+00
  0.00000000E+00  0.00000000E+00  0.00000000E+00
  0.00000000E+00  0.00000000E+00  0.00000000E+00
  0.00000000E+00  0.00000000E+00  0.00000000E+00
  0.00000000E+00  0.00000000E+00  0.00000000E+00
  0.00000000E+00  0.00000000E+00  0.00000000E+00
  0.00000000E+00  0.00000000E+00  0.00000000E+00
  0.00000000E+00  0.00000000E+00  0.00000000E+00
  0.00000000E+00  0.00000000E+00  0.00000000E+00
  0.00000000E+00  0.00000000E+00  0.00000000E+00
  0.00000000E+00  0.00000000E+00  0.00000000E+00
  0.00000000E+00  0.00000000E+00  0.00000000E+00
  0.00000000E+00  0.00000000E+00  0.00000000E+00
  0.00000000E+00  0.00000000E+00  0.00000000E+00
  0.00000000E+00  0.00000000E+00  0.00000000E+00
  0.00000000E+00  0.00000000E+00  0.00000000E+00
  0.00000000E+00  0.00000000E+00  0.00000000E+00
  0.00000000E+00  0.00000000E+00  0.00000000E+00
  0.00000000E+00  0.00000000E+00  0.00000000E+00
  0.00000000E+00  0.00000000E+00  0.00000000E+00
  0.00000000E+00  0.00000000E+00  0.00000000E+00
  0.00000000E+00  0.00000000E+00  0.00000000E+00
  0.00000000E+00  0.00000000E+00  0.00000000E+00
  0.00000000E+00  0.00000000E+00  0.00000000E+00
  0.00000000E+00  0.00000000E+00  0.00000000E+00
  0.00000000E+00  0.00000000E+00  0.00000000E+00
  0.00000000E+00  0.00000000E+00  0.00000000E+00
  0.00000000E+00  0.00000000E+00  0.00000000E+00
  0.00000000E+00  0.00000000E+00  0.00000000E+00
  0.00000000E+00  0.00000000E+00  0.00000000E+00
  0.00000000E+00  0.00000000E+00  0.00000000E+00
  0.00000000E+00  0.00000000E+00  0.00000000E+00
  0.00000000E+00  0.00000000E+00  0.00000000E+00
  0.00000000E+00  0.00000000E+00  0.00000000E+00
  0.00000000E+00  0.00000000E+00  0.00000000E+00
  0.00000000E+00  0.00000000E+00  0.00000000E+00
  0.00000000E+00  0.00000000E+00  0.00000000E+00
  0.00000000E+00  0.00000000E+00  0.00000000E+00
  0.00000000E+00  0.00000000E+00  0.00000000E+00
  0.00000000E+00  0.00000000E+00  0.00000000E+00
  0.00000000E+00  0.00000000E+00  0.00000000E+00
  0.00000000E+00  0.00000000E+00  0.00000000E+00
  0.00000000E+00  0.00000000E+00  0.00000000E+00
  0.00000000E+00  0.00000000E+00  0.00000000E+00
  0.00000000E+00  0.00000000E+00  0.00000000E+00
  0.00000000E+00  0.00000000E+00  0.00000000E+00
  0.00000000E+00  0.00000000E+00  0.00000000E+00
  0.00000000E+00  0.00000000E+00  0.00000000E+00
  0.00000000E+00  0.00000000E+00  0.00000000E+00
  0.00000000E+00  0.00000000E+00  0.00000000E+00
  0.00000000E+00  0.00000000E+00  0.00000000E+00
  0.00000000E+00  0.00000000E+00  0.00000000E+00
  0.00000000E+00  0.00000000E+00  0.00000000E+00
  0.00000000E+00  0.00000000E+00  0.00000000E+00
  0.00000000E+00  0.00000000E+00  0.00000000E+00
  0.00000000E+00  0.00000000E+00  0.00000000E+00
  0.00000000E+00  0.00000000E+00  0.00000000E+00
  0.00000000E+00  0.00000000E+00  0.00000000E+00
  0.00000000E+00  0.00000000E+00  0.00000000E+00
  0.00000000E+00  0.00000000E+00  0.00000000E+00
  0.00000000E+00  0.00000000E+00  0.00000000E+00
  0.00000000E+00  0.00000000E+00  0.00000000E+00
  0.00000000E+00  0.00000000E+00  0.00000000E+00
  0.00000000E+00  0.00000000E+00  0.00000000E+00
  0.00000000E+00  0.00000000E+00  0.00000000E+00
  0.00000000E+00  0.00000000E+00  0.00000000E+00
  0.00000000E+00  0.00000000E+00  0.00000000E+00
  0.00000000E+00  0.00000000E+00  0.00000000E+00
  0.00000000E+00  0.00000000E+00  0.00000000E+00
  0.00000000E+00  0.00000000E+00  0.00000000E+00
  0.00000000E+00  0.00000000E+00  0.00000000E+00
  0.00000000E+00  0.00000000E+00  0.00000000E+00
  0.00000000E+00  0.00000000E+00  0.00000000E+00
  0.00000000E+00  0.00000000E+00  0.00000000E+00
  0.00000000E+00  0.00000000E+00  0.00000000E+00
  0.00000000E+00  0.00000000E+00  0.00000000E+00
  0.00000000E+00  0.00000000E+00  0.00000000E+00
  0.00000000E+00  0.00000000E+00  0.00000000E+00
  0.00000000E+00  0.00000000E+00  0.00000000E+00
  0.00000000E+00  0.00000000E+00  0.00000000E+00
  0.00000000E+00  0.00000000E+00  0.00000000E+00
  0.00000000E+00  0.00000000E+00  0.00000000E+00
  0.00000000E+00  0.00000000E+00  0.00000000E+00
  0.00000000E+00  0.00000000E+00  0.00000000E+00
  0.00000000E+00  0.00000000E+00  0.00000000E+00
  0.00000000E+00  0.00000000E+00  0.00000000E+00
  0.00000000E+00  0.00000000E+00  0.00000000E+00
  0.00000000E+00  0.00000000E+00  0.00000000E+00
  0.00000000E+00  0.00000000E+00  0.00000000E+00
  0.00000000E+00  0.00000000E+00  0.00000000E+00
  0.00000000E+00  0.00000000E+00  0.00000000E+00
  0.00000000E+00  0.00000000E+00  0.00000000E+00
  0.00000000E+00  0.00000000E+00  0.00000000E+00
  0.00000000E+00  0.00000000E+00  0.00000000E+00
  0.00000000E+00  0.00000000E+00  0.00000000E+00
  0.00000000E+00  0.00000000E+00  0.00000000E+00
  0.00000000E+00  0.00000000E+00  0.00000000E+00
  0.00000000E+00  0.00000000E+00  0.00000000E+00
  0.00000000E+00  0.00000000E+00  0.00000000E+00
  0.00000000E+00  0.00000000E+00  0.00000000E+00
  0.00000000E+00  0.00000000E+00  0.00000000E+00
  0.00000000E+00  0.00000000E+00  0.00000000E+00
  0.00000000E+00  0.00000000E+00  0.00000000E+00
  0.00000000E+00  0.00000000E+00  0.00000000E+00
  0.00000000E+00  0.00000000E+00  0.00000000E+00
  0.00000000E+00  0.00000000E+00  0.00000000E+00
  0.00000000E+00  0.00000000E+00  0.00000000E+00
  0.00000000E+00  0.00000000E+00  0.00000000E+00
  0.00000000E+00  0.00000000E+00  0.00000000E+00
  0.00000000E+00  0.00000000E+00  0.00000000E+00
  0.00000000E+00  0.00000000E+00  0.00000000E+00
  0.00000000E+00  0.00000000E+00  0.00000000E+00
  0.00000000E+00  0.00000000E+00  0.00000000E+00
  0.00000000E+00  0.00000000E+00  0.00000000E+00
  0.00000000E+00  0.00000000E+00  0.00000000E+00
  0.00000000E+00  0.00000000E+00  0.00000000E+00
  0.00000000E+00  0.00000000E+00  0.00000000E+00
  0.00000000E+00  0.00000000E+00  0.00000000E+00
  0.00000000E+00  0.00000000E+00  0.00000000E+00
  0.00000000E+00  0.00000000E+00  0.00000000E+00
  0.00000000E+00  0.00000000E+00  0.00000000E+00
  0.00000000E+00  0.00000000E+00  0.00000000E+00
  0.00000000E+00  0.00000000E+00  0.00000000E+00
  0.00000000E+00  0.00000000E+00  0.00000000E+00
  0.00000000E+00  0.00000000E+00  0.00000000E+00
  0.00000000E+00  0.00000000E+00  0.00000000E+00
  0.00000000E+00  0.00000000E+00  0.00000000E+00
  0.00000000E+00  0.00000000E+00  0.00000000E+00
  0.00000000E+00  0.00000000E+00  0.00000000E+00
  0.00000000E+00  0.00000000E+00  0.00000000E+00
  0.00000000E+00  0.00000000E+00  0.00000000E+00
  0.00000000E+00  0.00000000E+00  0.00000000E+00
  0.00000000E+00  0.00000000E+00  0.00000000E+00
  0.00000000E+00  0.00000000E+00  0.00000000E+00
  0.00000000E+00  0.00000000E+00  0.00000000E+00
  0.00000000E+00  0.00000000E+00  0.00000000E+00
  0.00000000E+00  0.00000000E+00  0.00000000E+00