Species order:X N B                     
   2.51242800000000     
     5.9449720136058266    0.0000000000000000    0.0000000000000000
    -2.9724860068029120    5.1484967885702053   -0.0000000000000001
     0.0000000000000000    0.0000000000000009    5.3101128803662583
   Al   N    B 
     2   143   143
Direct
  0.4398775889319246  0.3866054611325579  0.3750000000000000
  0.5983129365308225  0.4658231349320753  0.3750000000000000
  0.1110449973136869  0.0555180997939663  0.1251772078689026
  0.6112172561642244  0.5558521010678662  0.1211920515015626
  0.4444441356544819  0.0555470405357505  0.1251598083775187
  0.9443683270757230  0.5555026391184215  0.1253415450041488
  0.7777844209602589  0.0555588771468007  0.1253142897076813
  0.1110363156553999  0.7221848244942509  0.6246637332009406
  0.4444441356544819  0.7222304284520373  0.6248401916223879
  0.2776232761991358  0.2221260398908287  0.6258840547562911
  0.7777773148966963  0.7223126319841923  0.6257003122604221
  0.6111505926447642  0.2221635729814299  0.6257492949519298
  0.9444288073514914  0.2221992806244005  0.6246970018691816
  0.2777573464462171  0.7222132707315343  0.1253262393505710
  0.1110163471716686  0.2221748402525042  0.1249396031545001
  0.4444310160062390  0.2221982791278347  0.1239420682068125
  0.6111505926447642  0.7223203529966361  0.1242507050481128
  0.9443683270757230  0.7221990212907656  0.1253415450041488
  0.7778060351198881  0.2221687735355198  0.1251103965575109
  0.1110662282324619  0.8888671973009283  0.6247116405231972
  0.4444475075177434  0.8888904204255619  0.6246944818076643
  0.2776232761991371  0.3888305696416740  0.6258840547562911
  0.6112172561642244  0.3886984884298100  0.6288079484984136
  0.7778060351198881  0.8889705949178319  0.6248896034425016
  0.9444275150550264  0.3888378770877736  0.6246740663268153
  0.1110449973136861  0.3888602308530373  0.1251772078689026
  0.2777573464462173  0.8888774090479400  0.1253262393505710
  0.6111355571512126  0.8889304206841526  0.1252835155158058
  0.4439323897509808  0.3886328615420996  0.1218735016535058
  0.9444275150550264  0.8889229713006367  0.1253259336731875
  0.7777773148966964  0.3887980162459952  0.1242996877395883
  0.2777588230714212  0.5555515900085461  0.6248910388970722
  0.1110449973136865  0.0555180997939663  0.6248227921309898
  0.6112172561642244  0.5558521010678589  0.6288079484984359
  0.4444441356544819  0.0555470405357503  0.6248401916223879
  0.9443683270757230  0.5555026391184201  0.6246584549959160
  0.1110662282324643  0.5555323642648230  0.1252883594767970
  0.7777844209602589  0.0555588771468009  0.6246857102921831
  0.2777588230714213  0.0555405663961712  0.1251089611029543
  0.4444310160062390  0.5555660702118084  0.1239420682068122
  0.7776782768890613  0.5555058051112458  0.1245816411924600
  0.6111355571512126  0.0555384698004429  0.1252835155158056
  0.4444310160062390  0.5555660702118084  0.6260579317931403
  0.9444288073514914  0.0555628600603818  0.1253029981309049
  0.2777573464462167  0.7222132707315343  0.6246737606494677
  0.1110163471716668  0.2221748402525042  0.6250603968455442
  0.4444310160062390  0.2221982791278347  0.6260579317931403
  0.6111505926447642  0.7223203529966361  0.6257492949519329
  0.9443683270757230  0.7221990212907656  0.6246584549959160
  0.7778060351198881  0.2221687735355210  0.6248896034425016
  0.1110363156554000  0.7221848244942481  0.1253362667991155
  0.4444441356544819  0.7222304284520373  0.1251598083775187
  0.2776232761991348  0.2221260398908287  0.1241159452437446
  0.7777773148966964  0.7223126319841923  0.1242996877395894
  0.6111505926447642  0.2221635729814298  0.1242507050481159
  0.9444288073514914  0.2221992806244004  0.1253029981309049
  0.1110449973136865  0.3888602308530355  0.6248227921309898
  0.2777573464462171  0.8888774090479419  0.6246737606494677
  0.6111355571512124  0.8889304206841526  0.6247164844842706
  0.4439323897509808  0.3886328615420981  0.6281264983465922
  0.9444275150550264  0.8889229713006367  0.6246740663268153
  0.1110662282324643  0.8888671973009200  0.1252883594767963
  0.7777773148967034  0.3887980162459952  0.6257003122604221
  0.4444475075177434  0.8888904204255619  0.1253055181923401
  0.2776232761991348  0.3888305696416740  0.1241159452437447
  0.2777588230714212  0.5555515900085461  0.1251089611029543
  0.6112172561642244  0.3886984884298100  0.1211920515015624
  0.7778060351198881  0.8889705949178319  0.1251103965575109
  0.9444275150550264  0.3888378770877736  0.1253259336731875
  0.1110662282324619  0.5555323642648230  0.6247116405231972
  0.2777588230714212  0.0555405663961712  0.6248910388970722
  0.7776782768890613  0.5555058051112458  0.6254183588074957
  0.6111355571512126  0.0555384698004429  0.6247164844842706
  0.9444288073514914  0.0555628600603818  0.6246970018691816
  0.0566755033874941  0.1117874255862450  0.3750000000000000
  0.5523574115011904  0.6297676082696791  0.3750000000000000
  0.3848566011108078  0.0994899044415685  0.3750000000000000
  0.8893025081314820  0.6113179207324276  0.3750000000000000
  0.7237501771614435  0.1099758854201222  0.3750000000000000
  0.0555115125949051  0.7777467236240759  0.8750000000000000
  0.3888398042482434  0.7777552496333890  0.8750000000000000
  0.2222187045557315  0.2777760189444773  0.8750000000000000
  0.7221768732150697  0.7777378891985663  0.8750000000000000
  0.5555074351933491  0.2777386162003627  0.8750000000000000
  0.8888639568456185  0.2777662749067470  0.8750000000000000
  0.2192425014892185  0.7762879174112682  0.3750000000000000
  0.0566755033874932  0.2782214111345873  0.3750000000000000
  0.3797861359080189  0.2550274520958766  0.3750000000000000
  0.5545063650594750  0.7860874412250750  0.3750000000000000
  0.8916521623753828  0.7812626746865822  0.3750000000000000
  0.7241806083323238  0.2737351077347042  0.3750000000000000
  0.0555197129313410  0.9444296753984374  0.8750000000000000
  0.3888398042482434  0.9444178879482522  0.8750000000000000
  0.2221936259145622  0.4444452889966181  0.8750000000000000
  0.5555171403823447  0.4444252368578347  0.8750000000000000
  0.7221714821316249  0.9444236342779274  0.8750000000000000
  0.8888674153580515  0.4444314426125870  0.8750000000000000
  0.0546261301375254  0.4447130061913294  0.3750000000000000
  0.2189618299762511  0.9400462624472270  0.3750000000000000
  0.5547029355838976  0.9440181344585371  0.3750000000000000
  0.3797861359080190  0.4580920171454841  0.3750000000000000
  0.8907300583625904  0.9468831564845397  0.3750000000000000
  0.7289930610509389  0.4411814627522158  0.3750000000000000
  0.2221977675655706  0.6111129637921313  0.8750000000000000
  0.0555214194271845  0.1110848018183344  0.8750000000000000
  0.5555074351933491  0.6111021523263456  0.8750000000000000
  0.3888429533824379  0.1110596758994540  0.8750000000000000
  0.8888772126767109  0.6111052730048682  0.8750000000000000
  0.0539094290193856  0.6107212387708212  0.3750000000000000
  0.7221714821316249  0.1110811811869963  0.8750000000000000
  0.2174565720087498  0.1041598121992381  0.3750000000000000
  0.3848566011108090  0.6187000300025791  0.3750000000000000
  0.7289930610509390  0.6211449316321263  0.3750000000000000
  0.5545063650594750  0.1017522571675362  0.3750000000000000
  0.3888429533824379  0.6111166108163150  0.8750000000000000
  0.8908108372057756  0.1120720852695390  0.3750000000000000
  0.2221762343746103  0.7777547838539809  0.8750000000000000
  0.0555214194271843  0.2777699509421601  0.8750000000000000
  0.3888542523673628  0.2777415097276361  0.8750000000000000
  0.5555118668939010  0.7777631935695014  0.8750000000000000
  0.8888674153580515  0.7777693060788874  0.8750000000000000
  0.7221768732150697  0.2777723173498617  0.8750000000000000
  0.0539094290193856  0.7765215235817946  0.3750000000000000
  0.3859725881443642  0.7794118321858527  0.3750000000000000
  0.2237735555468741  0.2785534444401465  0.3750000000000000
  0.7241806083323366  0.7837788339306843  0.3750000000000000
  0.5523574115011838  0.2559231365648301  0.3750000000000000
  0.8907300583625922  0.2771802352114864  0.3750000000000000
  0.0555197129313410  0.4444233708661370  0.8750000000000000
  0.2221977675655691  0.9444181371068348  0.8750000000000000
  0.5555244396166997  0.9444288864749469  0.8750000000000000
  0.3888542523673628  0.4444460759731405  0.8750000000000000
  0.8888639568456683  0.9444310152721839  0.8750000000000000
  0.0546261301375256  0.9432464572795322  0.3750000000000000
  0.7222098863442075  0.4444482796273591  0.8750000000000000
  0.3859725881443642  0.9398940892918762  0.3750000000000000
  0.2174565720087489  0.4466300931428144  0.3750000000000000
  0.2189618299762511  0.6122489008623436  0.3750000000000000
  0.7237501771614435  0.9471076250746635  0.3750000000000000
  0.8916521623753828  0.4437228210221790  0.3750000000000000
  0.0555115125949052  0.6110981223040187  0.8750000000000000
  0.2221936259145596  0.1110816702512089  0.8750000000000000
  0.7222098863442075  0.6110949400501302  0.8750000000000000
  0.5555118668939010  0.1110820066578159  0.8750000000000000
  0.8888508076433052  0.1110920704883840  0.8750000000000000
  0.1088397611705717  0.0529876436226141  0.3750000000000000
  0.6166054194335531  0.5888328721954027  0.3750000000000000
  0.4429842196667056  0.0486142594717087  0.3750000000000000
  0.9438865211618485  0.5548026996542810  0.3750000000000000
  0.7801596348376557  0.0567464840854681  0.3750000000000000
  0.1109480590120649  0.7221406961726303  0.8750000000000000
  0.4443240321833112  0.7221246952789506  0.8750000000000000
  0.2778945483791813  0.2223407602032715  0.8750000000000000
  0.7775906381191338  0.7220604571935882  0.8750000000000000
  0.6110660021011329  0.2223489658271101  0.8750000000000000
  0.9444539749456953  0.2222918361788670  0.8750000000000000
  0.2752776954498843  0.7224534760403080  0.3750000000000000
  0.1131292651908069  0.2232312992620811  0.3750000000000000
  0.4410397671932441  0.2082490771908089  0.3750000000000000
  0.6121270489619204  0.7356207604224391  0.3750000000000000
  0.9438865211618485  0.7224171548407879  0.3750000000000000
  0.7800831407434615  0.2203946233278605  0.3750000000000000
  0.1110620369438230  0.8888635662481450  0.8750000000000000
  0.4443872390917921  0.8888602862125142  0.8750000000000000
  0.2778945483791786  0.3888871215092594  0.8750000000000000
  0.6110284284500416  0.3888929250342961  0.8750000000000000
  0.7776933140948212  0.8888001811509244  0.8750000000000000
  0.9444386095725452  0.3888425074635500  0.8750000000000000
  0.1088397611705709  0.3891854508813247  0.3750000000000000
  0.2752776954498843  0.8861575527428800  0.3750000000000000
  0.6125504756407441  0.8936478941625789  0.3750000000000000
  0.9454058662283237  0.8907706891440647  0.3750000000000000
  0.7823804183131320  0.3860130352198625  0.3750000000000000
  0.2778205193851384  0.5556212618375553  0.8750000000000000
  0.1110409718696342  0.0555172199923354  0.8750000000000000
  0.6110284284500416  0.5554688367490161  0.8750000000000000
  0.4443240321833112  0.0555326702377150  0.8750000000000000
  0.9444026278688478  0.5555947244266123  0.8750000000000000
  0.1089513512857485  0.5555135604507356  0.3750000000000000
  0.7776192551960958  0.0554762942647393  0.8750000000000000
  0.2745162578375982  0.0497673193038817  0.3750000000000000
  0.4410397671932441  0.5661240233358080  0.3750000000000000
  0.7795480972139327  0.5564407152736113  0.3750000000000000
  0.6125504756407401  0.0522359148114159  0.3750000000000000
  0.4444347852348638  0.5554998992165865  0.8750000000000000
  0.9464196349568157  0.0572331691334983  0.3750000000000000
  0.2777750513579695  0.7221588370320522  0.8750000000000000
  0.1111400443817381  0.2222366888575309  0.8750000000000000
  0.4444347852348621  0.2222682193515898  0.8750000000000000
  0.6110660021011329  0.7220503696073377  0.8750000000000000
  0.9444026278688398  0.7221412367755916  0.8750000000000000
  0.7776933140948212  0.2222264662771463  0.8750000000000000
  0.1089004307364877  0.7211168820349311  0.3750000000000000
  0.4429842196667056  0.7277032935283588  0.3750000000000000
  0.2735770523865113  0.2141271844382603  0.3750000000000000
  0.7823804183131320  0.7297007164265082  0.3750000000000000
  0.6121270489619204  0.2098396218727920  0.3750000000000000
  0.9464196349568200  0.2225197991566077  0.3750000000000000
  0.1110409718696342  0.3888570852106276  0.8750000000000000
  0.2777750513579660  0.8889495476592316  0.8750000000000000
  0.6110880071163707  0.8889002027257653  0.8750000000000000
  0.4444440541864411  0.3888886937599377  0.8750000000000000
  0.9444386095725418  0.8889294354422975  0.8750000000000000
  0.1089513512857485  0.8867711241683338  0.3750000000000000
  0.7775906381191338  0.3888635142587747  0.8750000000000000
  0.4434378909678922  0.8883856121505457  0.3750000000000000
  0.2735770523865056  0.3927832012815835  0.3750000000000000
  0.2745162578375979  0.5580822718669713  0.3750000000000000
  0.6166054194335531  0.3611058805715234  0.3750000000000000
  0.7800831407434615  0.8930218507489240  0.3750000000000000
  0.9454058662283237  0.3879685104175255  0.3750000000000000
  0.1110620369438230  0.5555318040290994  0.8750000000000000
  0.2778205193851387  0.0555325908808865  0.8750000000000000
  0.7776471949481142  0.5554902641405892  0.8750000000000000
  0.6110880071163707  0.0555211377239430  0.8750000000000000
  0.9444539749456953  0.0554954721001438  0.8750000000000000
  0.0555355532894503  0.1110826411545139  0.1252610110378230
  0.5557323259495218  0.6109155124311484  0.1235821093387055
  0.3889963820308816  0.1113466175894363  0.1250433669564766
  0.8886220756897951  0.6109777045116431  0.1252836873637616
  0.7222055887257735  0.1110702751992733  0.1253397708456508
  0.0553920556715017  0.7776677854143944  0.6246110178917578
  0.3889046120643558  0.7776731174049205  0.6246240982863210
  0.2223329894517607  0.2778331613925330  0.6253968329220198
  0.7221135057859640  0.7776492267830458  0.6253076559560286
  0.5557323259495218  0.2781501468517668  0.6264178906613419
  0.8889198381671846  0.2777740661483742  0.6246583173074182
  0.2222040760571982  0.7777687046953089  0.1253736350527185
  0.0555355532894488  0.2777862454682951  0.1252610110378230
  0.3889657370981978  0.2780134929154799  0.1235823916492365
  0.5556126382966248  0.7776972793125353  0.1250918055857788
  0.8887182022751630  0.7777075131774100  0.1251362838532164
  0.7221135057859640  0.2777976123363647  0.1246923440438756
  0.0554788061310177  0.9444887145915944  0.6246220828495507
  0.3889046120643553  0.9445648279927104  0.6246240982863210
  0.2222706712311080  0.4443890426101814  0.6249665806298833
  0.5555062813396402  0.4444198073364846  0.6220555491828013
  0.7222055887257735  0.9444686468598895  0.6246602291543681
  0.8887182022751630  0.4443440224310657  0.6248637161467809
  0.0554788061310172  0.4443234248727793  0.1253779171504823
  0.2223108890805429  0.9445678601860567  0.1253494017374102
  0.5556505623509663  0.9444919478421603  0.1254190033597127
  0.3889657370981978  0.4442855775161184  0.1235823916492363
  0.8889198381671846  0.9444791053522253  0.1253416826925382
  0.7217318582191904  0.4441287523696365  0.1235648623103057
  0.2223108890805408  0.6110763622279569  0.6246505982625871
  0.0555355532894503  0.1110826411545139  0.6247389889622389
  0.5557323259495218  0.6109155124311491  0.6264178906613419
  0.3889963820308816  0.1113466175894363  0.6249566330435663
  0.8886220756897951  0.6109777045116428  0.6247163126362466
  0.0553920556715016  0.6110576035905377  0.1253889821083117
  0.7222055887257735  0.1110702751992738  0.6246602291543681
  0.2222706712311080  0.1112149619542261  0.1250334193701252
  0.3889963820308816  0.6109830977747388  0.1250433669564776
  0.7217318582191904  0.6109364391829359  0.1235648623103058
  0.5556126382966248  0.1112486923174509  0.1250918055857788
  0.3889963820308810  0.6109830977747388  0.6249566330435663
  0.8888999121495582  0.1111166227414745  0.1254044937930248
  0.2222040760571999  0.7777687046953089  0.6246263649472779
  0.0555355532894487  0.2777862454682951  0.6247389889622389
  0.3889657370981989  0.2780134929154799  0.6264176083508284
  0.5556126382966248  0.7776972793125353  0.6249081944141905
  0.8887182022751630  0.7777075131774100  0.6248637161467924
  0.7221135057859640  0.2777976123363647  0.6253076559560286
  0.0553920556715015  0.7776677854143944  0.1253889821083117
  0.3889046120643558  0.7776731174049205  0.1253759017137166
  0.2223329894517607  0.2778331613925330  0.1246031670780318
  0.7221135057859640  0.7776492267830458  0.1246923440438754
  0.5557323259495216  0.2781501468517669  0.1235821093387050
  0.8889198381671846  0.2777740661483742  0.1253416826925382
  0.0554788061310167  0.4443234248727793  0.6246220828495507
  0.2223108890805429  0.9445678601860567  0.6246505982625871
  0.5556505623509663  0.9444919478421603  0.6245809966404025
  0.3889657370981978  0.4442855775161184  0.6264176083508284
  0.8889198381671846  0.9444791053522253  0.6246583173074182
  0.0554788061310167  0.9444887145915944  0.1253779171504823
  0.7217318582191904  0.4441287523696365  0.6264351376896992
  0.3889046120643558  0.9445648279927104  0.1253759017137166
  0.2222706712311080  0.4443890426101814  0.1250334193701252
  0.2223108890805430  0.6110763622279569  0.1253494017374102
  0.5555062813396405  0.4444198073364844  0.1279444508171925
  0.7222055887257733  0.9444686468598895  0.1253397708456508
  0.8887182022751656  0.4443440224310657  0.1251362838532164
  0.0553920556715014  0.6110576035905377  0.6246110178917578
  0.2222706712311081  0.1112149619542265  0.6249665806298833
  0.7217318582191929  0.6109364391829364  0.6264351376896992
  0.5556126382966248  0.1112486923174509  0.6249081944141905
  0.8888999121495582  0.1111166227414745  0.6245955062068569
 
  0.00000000E+00  0.00000000E+00  0.00000000E+00
  0.00000000E+00  0.00000000E+00  0.00000000E+00
  0.00000000E+00  0.00000000E+00  0.00000000E+00
  0.00000000E+00  0.00000000E+00  0.00000000E+00
  0.00000000E+00  0.00000000E+00  0.00000000E+00
  0.00000000E+00  0.00000000E+00  0.00000000E+00
  0.00000000E+00  0.00000000E+00  0.00000000E+00
  0.00000000E+00  0.00000000E+00  0.00000000E+00
  0.00000000E+00  0.00000000E+00  0.00000000E+00
  0.00000000E+00  0.00000000E+00  0.00000000E+00
  0.00000000E+00  0.00000000E+00  0.00000000E+00
  0.00000000E+00  0.00000000E+00  0.00000000E+00
  0.00000000E+00  0.00000000E+00  0.00000000E+00
  0.00000000E+00  0.00000000E+00  0.00000000E+00
  0.00000000E+00  0.00000000E+00  0.00000000E+00
  0.00000000E+00  0.00000000E+00  0.00000000E+00
  0.00000000E+00  0.00000000E+00  0.00000000E+00
  0.00000000E+00  0.00000000E+00  0.00000000E+00
  0.00000000E+00  0.00000000E+00  0.00000000E+00
  0.00000000E+00  0.00000000E+00  0.00000000E+00
  0.00000000E+00  0.00000000E+00  0.00000000E+00
  0.00000000E+00  0.00000000E+00  0.00000000E+00
  0.00000000E+00  0.00000000E+00  0.00000000E+00
  0.00000000E+00  0.00000000E+00  0.00000000E+00
  0.00000000E+00  0.00000000E+00  0.00000000E+00
  0.00000000E+00  0.00000000E+00  0.00000000E+00
  0.00000000E+00  0.00000000E+00  0.00000000E+00
  0.00000000E+00  0.00000000E+00  0.00000000E+00
  0.00000000E+00  0.00000000E+00  0.00000000E+00
  0.00000000E+00  0.00000000E+00  0.00000000E+00
  0.00000000E+00  0.00000000E+00  0.00000000E+00
  0.00000000E+00  0.00000000E+00  0.00000000E+00
  0.00000000E+00  0.00000000E+00  0.00000000E+00
  0.00000000E+00  0.00000000E+00  0.00000000E+00
  0.00000000E+00  0.00000000E+00  0.00000000E+00
  0.00000000E+00  0.00000000E+00  0.00000000E+00
  0.00000000E+00  0.00000000E+00  0.00000000E+00
  0.00000000E+00  0.00000000E+00  0.00000000E+00
  0.00000000E+00  0.00000000E+00  0.00000000E+00
  0.00000000E+00  0.00000000E+00  0.00000000E+00
  0.00000000E+00  0.00000000E+00  0.00000000E+00
  0.00000000E+00  0.00000000E+00  0.00000000E+00
  0.00000000E+00  0.00000000E+00  0.00000000E+00
  0.00000000E+00  0.00000000E+00  0.00000000E+00
  0.00000000E+00  0.00000000E+00  0.00000000E+00
  0.00000000E+00  0.00000000E+00  0.00000000E+00
  0.00000000E+00  0.00000000E+00  0.00000000E+00
  0.00000000E+00  0.00000000E+00  0.00000000E+00
  0.00000000E+00  0.00000000E+00  0.00000000E+00
  0.00000000E+00  0.00000000E+00  0.00000000E+00
  0.00000000E+00  0.00000000E+00  0.00000000E+00
  0.00000000E+00  0.00000000E+00  0.00000000E+00
  0.00000000E+00  0.00000000E+00  0.00000000E+00
  0.00000000E+00  0.00000000E+00  0.00000000E+00
  0.00000000E+00  0.00000000E+00  0.00000000E+00
  0.00000000E+00  0.00000000E+00  0.00000000E+00
  0.00000000E+00  0.00000000E+00  0.00000000E+00
  0.00000000E+00  0.00000000E+00  0.00000000E+00
  0.00000000E+00  0.00000000E+00  0.00000000E+00
  0.00000000E+00  0.00000000E+00  0.00000000E+00
  0.00000000E+00  0.00000000E+00  0.00000000E+00
  0.00000000E+00  0.00000000E+00  0.00000000E+00
  0.00000000E+00  0.00000000E+00  0.00000000E+00
  0.00000000E+00  0.00000000E+00  0.00000000E+00
  0.00000000E+00  0.00000000E+00  0.00000000E+00
  0.00000000E+00  0.00000000E+00  0.00000000E+00
  0.00000000E+00  0.00000000E+00  0.00000000E+00
  0.00000000E+00  0.00000000E+00  0.00000000E+00
  0.00000000E+00  0.00000000E+00  0.00000000E+00
  0.00000000E+00  0.00000000E+00  0.00000000E+00
  0.00000000E+00  0.00000000E+00  0.00000000E+00
  0.00000000E+00  0.00000000E+00  0.00000000E+00
  0.00000000E+00  0.00000000E+00  0.00000000E+00
  0.00000000E+00  0.00000000E+00  0.00000000E+00
  0.00000000E+00  0.00000000E+00  0.00000000E+00
  0.00000000E+00  0.00000000E+00  0.00000000E+00
  0.00000000E+00  0.00000000E+00  0.00000000E+00
  0.00000000E+00  0.00000000E+00  0.00000000E+00
  0.00000000E+00  0.00000000E+00  0.00000000E+00
  0.00000000E+00  0.00000000E+00  0.00000000E+00
  0.00000000E+00  0.00000000E+00  0.00000000E+00
  0.00000000E+00  0.00000000E+00  0.00000000E+00
  0.00000000E+00  0.00000000E+00  0.00000000E+00
  0.00000000E+00  0.00000000E+00  0.00000000E+00
  0.00000000E+00  0.00000000E+00  0.00000000E+00
  0.00000000E+00  0.00000000E+00  0.00000000E+00
  0.00000000E+00  0.00000000E+00  0.00000000E+00
  0.00000000E+00  0.00000000E+00  0.00000000E+00
  0.00000000E+00  0.00000000E+00  0.00000000E+00
  0.00000000E+00  0.00000000E+00  0.00000000E+00
  0.00000000E+00  0.00000000E+00  0.00000000E+00
  0.00000000E+00  0.00000000E+00  0.00000000E+00
  0.00000000E+00  0.00000000E+00  0.00000000E+00
  0.00000000E+00  0.00000000E+00  0.00000000E+00
  0.00000000E+00  0.00000000E+00  0.00000000E+00
  0.00000000E+00  0.00000000E+00  0.00000000E+00
  0.00000000E+00  0.00000000E+00  0.00000000E+00
  0.00000000E+00  0.00000000E+00  0.00000000E+00
  0.00000000E+00  0.00000000E+00  0.00000000E+00
  0.00000000E+00  0.00000000E+00  0.00000000E+00
  0.00000000E+00  0.00000000E+00  0.00000000E+00
  0.00000000E+00  0.00000000E+00  0.00000000E+00
  0.00000000E+00  0.00000000E+00  0.00000000E+00
  0.00000000E+00  0.00000000E+00  0.00000000E+00
  0.00000000E+00  0.00000000E+00  0.00000000E+00
  0.00000000E+00  0.00000000E+00  0.00000000E+00
  0.00000000E+00  0.00000000E+00  0.00000000E+00
  0.00000000E+00  0.00000000E+00  0.00000000E+00
  0.00000000E+00  0.00000000E+00  0.00000000E+00
  0.00000000E+00  0.00000000E+00  0.00000000E+00
  0.00000000E+00  0.00000000E+00  0.00000000E+00
  0.00000000E+00  0.00000000E+00  0.00000000E+00
  0.00000000E+00  0.00000000E+00  0.00000000E+00
  0.00000000E+00  0.00000000E+00  0.00000000E+00
  0.00000000E+00  0.00000000E+00  0.00000000E+00
  0.00000000E+00  0.00000000E+00  0.00000000E+00
  0.00000000E+00  0.00000000E+00  0.00000000E+00
  0.00000000E+00  0.00000000E+00  0.00000000E+00
  0.00000000E+00  0.00000000E+00  0.00000000E+00
  0.00000000E+00  0.00000000E+00  0.00000000E+00
  0.00000000E+00  0.00000000E+00  0.00000000E+00
  0.00000000E+00  0.00000000E+00  0.00000000E+00
  0.00000000E+00  0.00000000E+00  0.00000000E+00
  0.00000000E+00  0.00000000E+00  0.00000000E+00
  0.00000000E+00  0.00000000E+00  0.00000000E+00
  0.00000000E+00  0.00000000E+00  0.00000000E+00
  0.00000000E+00  0.00000000E+00  0.00000000E+00
  0.00000000E+00  0.00000000E+00  0.00000000E+00
  0.00000000E+00  0.00000000E+00  0.00000000E+00
  0.00000000E+00  0.00000000E+00  0.00000000E+00
  0.00000000E+00  0.00000000E+00  0.00000000E+00
  0.00000000E+00  0.00000000E+00  0.00000000E+00
  0.00000000E+00  0.00000000E+00  0.00000000E+00
  0.00000000E+00  0.00000000E+00  0.00000000E+00
  0.00000000E+00  0.00000000E+00  0.00000000E+00
  0.00000000E+00  0.00000000E+00  0.00000000E+00
  0.00000000E+00  0.00000000E+00  0.00000000E+00
  0.00000000E+00  0.00000000E+00  0.00000000E+00
  0.00000000E+00  0.00000000E+00  0.00000000E+00
  0.00000000E+00  0.00000000E+00  0.00000000E+00
  0.00000000E+00  0.00000000E+00  0.00000000E+00
  0.00000000E+00  0.00000000E+00  0.00000000E+00
  0.00000000E+00  0.00000000E+00  0.00000000E+00
  0.00000000E+00  0.00000000E+00  0.00000000E+00
  0.00000000E+00  0.00000000E+00  0.00000000E+00
  0.00000000E+00  0.00000000E+00  0.00000000E+00
  0.00000000E+00  0.00000000E+00  0.00000000E+00
  0.00000000E+00  0.00000000E+00  0.00000000E+00
  0.00000000E+00  0.00000000E+00  0.00000000E+00
  0.00000000E+00  0.00000000E+00  0.00000000E+00
  0.00000000E+00  0.00000000E+00  0.00000000E+00
  0.00000000E+00  0.00000000E+00  0.00000000E+00
  0.00000000E+00  0.00000000E+00  0.00000000E+00
  0.00000000E+00  0.00000000E+00  0.00000000E+00
  0.00000000E+00  0.00000000E+00  0.00000000E+00
  0.00000000E+00  0.00000000E+00  0.00000000E+00
  0.00000000E+00  0.00000000E+00  0.00000000E+00
  0.00000000E+00  0.00000000E+00  0.00000000E+00
  0.00000000E+00  0.00000000E+00  0.00000000E+00
  0.00000000E+00  0.00000000E+00  0.00000000E+00
  0.00000000E+00  0.00000000E+00  0.00000000E+00
  0.00000000E+00  0.00000000E+00  0.00000000E+00
  0.00000000E+00  0.00000000E+00  0.00000000E+00
  0.00000000E+00  0.00000000E+00  0.00000000E+00
  0.00000000E+00  0.00000000E+00  0.00000000E+00
  0.00000000E+00  0.00000000E+00  0.00000000E+00
  0.00000000E+00  0.00000000E+00  0.00000000E+00
  0.00000000E+00  0.00000000E+00  0.00000000E+00
  0.00000000E+00  0.00000000E+00  0.00000000E+00
  0.00000000E+00  0.00000000E+00  0.00000000E+00
  0.00000000E+00  0.00000000E+00  0.00000000E+00
  0.00000000E+00  0.00000000E+00  0.00000000E+00
  0.00000000E+00  0.00000000E+00  0.00000000E+00
  0.00000000E+00  0.00000000E+00  0.00000000E+00
  0.00000000E+00  0.00000000E+00  0.00000000E+00
  0.00000000E+00  0.00000000E+00  0.00000000E+00
  0.00000000E+00  0.00000000E+00  0.00000000E+00
  0.00000000E+00  0.00000000E+00  0.00000000E+00
  0.00000000E+00  0.00000000E+00  0.00000000E+00
  0.00000000E+00  0.00000000E+00  0.00000000E+00
  0.00000000E+00  0.00000000E+00  0.00000000E+00
  0.00000000E+00  0.00000000E+00  0.00000000E+00
  0.00000000E+00  0.00000000E+00  0.00000000E+00
  0.00000000E+00  0.00000000E+00  0.00000000E+00
  0.00000000E+00  0.00000000E+00  0.00000000E+00
  0.00000000E+00  0.00000000E+00  0.00000000E+00
  0.00000000E+00  0.00000000E+00  0.00000000E+00
  0.00000000E+00  0.00000000E+00  0.00000000E+00
  0.00000000E+00  0.00000000E+00  0.00000000E+00
  0.00000000E+00  0.00000000E+00  0.00000000E+00
  0.00000000E+00  0.00000000E+00  0.00000000E+00
  0.00000000E+00  0.00000000E+00  0.00000000E+00
  0.00000000E+00  0.00000000E+00  0.00000000E+00
  0.00000000E+00  0.00000000E+00  0.00000000E+00
  0.00000000E+00  0.00000000E+00  0.00000000E+00
  0.00000000E+00  0.00000000E+00  0.00000000E+00
  0.00000000E+00  0.00000000E+00  0.00000000E+00
  0.00000000E+00  0.00000000E+00  0.00000000E+00
  0.00000000E+00  0.00000000E+00  0.00000000E+00
  0.00000000E+00  0.00000000E+00  0.00000000E+00
  0.00000000E+00  0.00000000E+00  0.00000000E+00
  0.00000000E+00  0.00000000E+00  0.00000000E+00
  0.00000000E+00  0.00000000E+00  0.00000000E+00
  0.00000000E+00  0.00000000E+00  0.00000000E+00
  0.00000000E+00  0.00000000E+00  0.00000000E+00
  0.00000000E+00  0.00000000E+00  0.00000000E+00
  0.00000000E+00  0.00000000E+00  0.00000000E+00
  0.00000000E+00  0.00000000E+00  0.00000000E+00
  0.00000000E+00  0.00000000E+00  0.00000000E+00
  0.00000000E+00  0.00000000E+00  0.00000000E+00
  0.00000000E+00  0.00000000E+00  0.00000000E+00
  0.00000000E+00  0.00000000E+00  0.00000000E+00
  0.00000000E+00  0.00000000E+00  0.00000000E+00
  0.00000000E+00  0.00000000E+00  0.00000000E+00
  0.00000000E+00  0.00000000E+00  0.00000000E+00
  0.00000000E+00  0.00000000E+00  0.00000000E+00
  0.00000000E+00  0.00000000E+00  0.00000000E+00
  0.00000000E+00  0.00000000E+00  0.00000000E+00
  0.00000000E+00  0.00000000E+00  0.00000000E+00
  0.00000000E+00  0.00000000E+00  0.00000000E+00
  0.00000000E+00  0.00000000E+00  0.00000000E+00
  0.00000000E+00  0.00000000E+00  0.00000000E+00
  0.00000000E+00  0.00000000E+00  0.00000000E+00
  0.00000000E+00  0.00000000E+00  0.00000000E+00
  0.00000000E+00  0.00000000E+00  0.00000000E+00
  0.00000000E+00  0.00000000E+00  0.00000000E+00
  0.00000000E+00  0.00000000E+00  0.00000000E+00
  0.00000000E+00  0.00000000E+00  0.00000000E+00
  0.00000000E+00  0.00000000E+00  0.00000000E+00
  0.00000000E+00  0.00000000E+00  0.00000000E+00
  0.00000000E+00  0.00000000E+00  0.00000000E+00
  0.00000000E+00  0.00000000E+00  0.00000000E+00
  0.00000000E+00  0.00000000E+00  0.00000000E+00
  0.00000000E+00  0.00000000E+00  0.00000000E+00
  0.00000000E+00  0.00000000E+00  0.00000000E+00
  0.00000000E+00  0.00000000E+00  0.00000000E+00
  0.00000000E+00  0.00000000E+00  0.00000000E+00
  0.00000000E+00  0.00000000E+00  0.00000000E+00
  0.00000000E+00  0.00000000E+00  0.00000000E+00
  0.00000000E+00  0.00000000E+00  0.00000000E+00
  0.00000000E+00  0.00000000E+00  0.00000000E+00
  0.00000000E+00  0.00000000E+00  0.00000000E+00
  0.00000000E+00  0.00000000E+00  0.00000000E+00
  0.00000000E+00  0.00000000E+00  0.00000000E+00
  0.00000000E+00  0.00000000E+00  0.00000000E+00
  0.00000000E+00  0.00000000E+00  0.00000000E+00
  0.00000000E+00  0.00000000E+00  0.00000000E+00