 N Ga B 
 1.0
 17.527899999999772   0.000000000000000   0.000000000000000
 -8.763949999999658  15.179606674993195   0.000000000000000
  0.000000000000001   0.000000000000002  15.000000000000000
 N Ga B 
  49   1  47
Cartesian
  8.764856528981582  13.776842580671548   1.665369627513780 
 16.285256110877796   0.776648848104500   1.665153287905920 
 15.026716422623890   2.932602547226517   1.665765547204245 
 13.753361365457772   5.084690315830019   1.665090875896245 
 12.443281677504954   7.232372424794198   1.664712842771385 
 11.198265953754429   9.377831955363172   1.665392259507675 
  9.979463530914416  11.555535793092496   1.665627751367370 
 -6.278669084472300  13.714948237063897   1.664832640649100 
  1.261426236483339   0.741594559161490   1.664530999953360 
  0.014273863471916   2.913358098901402   1.664549859147390 
 -1.244886152915700   5.082584330757729   1.664709062019510 
 -2.531414588050058   7.236113201734349   1.665541323155565 
 -3.796614409042303   9.382782308339538   1.665608972250495 
 -5.043641007147540  11.537445757885928   1.664706135345135 
 -3.776137751530206  13.691948503446778   1.664825866719015 
  3.745816494325263   0.680462044463494   1.665628800916395 
  2.536719674723550   2.896581040008019   1.665070539631965 
  1.278502529550379   5.044177289394881   1.664877731219640 
  0.008111146957162   7.234527001070663   1.666072120140360 
 -1.264286210152334   9.388655743791841   1.667046346293330 
 -2.527973408169248  11.537439819294990   1.665565416964320 
 -1.264189625351712  13.697472440062915   1.664740450177515 
  6.254764086471625   0.657449642076475   1.665040600405020 
  5.011252385168018   2.802586778420803   1.665184575716145 
  3.861214716306925   5.076231071747982   1.665651608135280 
  2.490541873110254   7.152746358759525   1.668828552658395 
  1.266155639508233   9.406907653391006   1.667032091621460 
 -0.012808813556093  11.556692574889208   1.666072339532760 
  1.240511759875087  13.748292939733144   1.664921433681735 
  8.771817247289448   0.677635460494884   1.665000347600085 
  7.544307006579637   2.775338338871723   1.664201960774835 
  6.333336830146646   4.821704267243464   1.662319224315675 
  5.810446695352042   7.051931756658344   1.665823320280275 
  3.769934701302023   9.659029038073927   1.665203096007975 
  2.478460244976220  11.646831909785471   1.664607093473610 
  3.743931293356842  13.815958095852462   1.664324813207295 
 11.266597136256504   0.744859756015415   1.665397373314500 
 10.022767605245036   2.863206833480729   1.665234322986045 
  8.768664891733806   4.982027826212794   1.663988142117255 
  7.193612112881461   7.031426995078178   1.665140413814010 
  6.214809635628531   9.708055450051269   1.658680790556090 
  5.005489761269732  11.754705755458717   1.663457646740835 
  6.267636678037416  13.832990647862472   1.664777176538325 
 13.772110559743803   0.781978706767432   1.665399411766275 
 12.512798710720004   2.920849973935310   1.666218818169375 
 11.234033903161889   5.069373143183230   1.664643420179220 
  9.854210806426462   7.214898048572114   1.665358685858520 
  8.674524452226681   9.378541236003578   1.666925861169030 
  7.504326290175368  11.655290826278616   1.665670632549225 
  4.128493621884193   7.940664894911967   1.669297695704265 
  7.523610094388891  14.523235340671947   1.665586667843040 
 15.029100752644126   1.493476337158270   1.665721537588245 
 13.767653432754098   3.642367946978732   1.666240182324480 
 12.491675004873937   5.792151473180438   1.664889599529090 
 11.168855287003627   7.940178460053509   1.665484082819490 
  9.961349803406776  10.110130424204755   1.666331247722370 
  8.762734878079520  12.339027906319092   1.666001968804950 
 -7.507728078106918  14.476198275347157   1.665041188132770 
  0.012967976597983   1.474434781978900   1.664940974311080 
 -1.242040127876645   3.640861660692529   1.665357589184940 
 -2.511429884490557   5.796879431953445   1.665264817603110 
 -3.803355571028378   7.945116777548065   1.665612085780110 
 -5.052071177177103  10.098068764371892   1.665245052917445 
 -6.286783000225027  12.270344779684180   1.665049887498735 
 -5.023067492828943  14.417119917925760   1.665461958141495 
  2.518229459781463   1.441151475393355   1.665312220386615 
  1.270910685037808   3.607840754846711   1.664815079794275 
  0.017256737023758   5.789771458848695   1.665266578081395 
 -1.263625050750120   7.948614925758332   1.666596749504535 
 -2.528544843150052  10.098909635290799   1.666529822415690 
 -3.781659190171915  12.252139508115221   1.665208819988505 
 -2.518465837908206  14.399541478779316   1.665078602140725 
  5.000363022019737   1.363972990711759   1.665659459395935 
  3.802356811711121   3.587260283591429   1.665452519064690 
  2.526279546589650   5.744093254513567   1.666942723730835 
  1.269755747694148   7.952171180870556   1.667638693672725 
 -0.006984264254528  10.112774201539695   1.667294945029710 
 -1.271574217487131  12.258360605173525   1.665610784435520 
 -0.013565652818189  14.425953723068488   1.665084266797785 
  7.520220354370946   1.348902002235889   1.664914961807850 
  6.289173821322239   3.419367478238981   1.663977664703745 
  5.210277540744761   5.624753892712916   1.664595862860000 
  2.471457954416201  10.216717354089962   1.665808673191890 
  1.221381783639119  12.317805690192447   1.665455463939960 
  2.484986095362082  14.492364786421692   1.665022235768760 
 10.012888675576672   1.422282414232424   1.665676141979250 
  8.772108946491318   3.526777681066887   1.664714631341895 
  7.513412434463994   5.579089541098855   1.663703756951985 
  4.971811816400926  10.353676228275733   1.663637557066365 
  3.723192387909202  12.395007156082270   1.664166181932585 
  5.003292014202156  14.529436795725591   1.664930657905635 
 12.514237928644198   1.478896060829798   1.665994592195790 
 11.257669134930312   3.616432161896801   1.665707338299195 
  9.979448446118464   5.762122541589495   1.664808684417390 
  8.590192639394036   7.953849834241900   1.666323889301145 
  7.502152822808698  10.213166309310591   1.665307737090900 
  6.269371413979957  12.413141579002811   1.664751653811945 
