B C N                                   
   1.0000000000000000     
     8.7639499999999995  -15.1796066749929999    0.0000000000000000
     8.7639499999999995   15.1796066749929999    0.0000000000000000
     0.0000000000000000    0.0000000000000000   15.0000000000000000
   B    C    N 
    47     4    47
Selective dynamics
Direct
  0.9045714892045819  0.9522297897320721  0.1110083928378098   T   T   T
  0.9046628633670258  0.0952661278301269  0.1110545404068390   T   T   T
  0.9045988406514240  0.2381602918036217  0.1110532814651619   T   T   T
  0.9044020870107791  0.3810615394176831  0.1109818374539913   T   T   T
  0.9055712291956965  0.5241307132662761  0.1110251137893486   T   T   T
  0.9045165162043899  0.6661713838435084  0.1110672469951144   T   T   T
  0.9049045370182118  0.8095524370757439  0.1110495579572631   T   T   T
  0.0474677836948293  0.9521654763470977  0.1110035607370405   T   T   T
  0.0473926672453178  0.0949812906698532  0.1110127043586835   T   T   T
  0.0476192937584233  0.2381051422010802  0.1110036086440298   T   T   T
  0.0474876528853806  0.3809288924865005  0.1110083762128494   T   T   T
  0.0475779812562405  0.5238814813610648  0.1110234527846540   T   T   T
  0.0477281226842147  0.6667828091943866  0.1110237700293202   T   T   T
  0.0475009278252759  0.8093624257257602  0.1109901253427195   T   T   T
  0.1904722637490027  0.9522235061015629  0.1109956455758800   T   T   T
  0.1901365316347618  0.0945439409500864  0.1110568109718737   T   T   T
  0.1902614684182934  0.2375146004660905  0.1110085436261440   T   T   T
  0.1908983829616290  0.3810900805930743  0.1109682707522825   T   T   T
  0.1898565193566433  0.5239775540421486  0.1110703077949668   T   T   T
  0.1902947893082557  0.6668333593455104  0.1110876119465544   T   T   T
  0.1903961467700366  0.8095404152660852  0.1109929404604671   T   T   T
  0.3332268147554673  0.9520589750710395  0.1110316358857341   T   T   T
  0.3337530877417600  0.0948341972754126  0.1110965428722090   T   T   T
  0.3328285479711628  0.2359265700332004  0.1110850250979351   T   T   T
  0.3336603805986637  0.3782906765883249  0.1108867872735694   T   T   T
  0.3322192034205833  0.5260869776094693  0.1108772037358007   T   T   T
  0.3331599625219266  0.6678336673883020  0.1111302113170758   T   T   T
  0.3333272799830268  0.8098865807133188  0.1110913482696480   T   T   T
  0.4762233852472778  0.9521501372357111  0.1110184357583513   T   T   T
  0.4758972204679616  0.0942924418586902  0.1110328491981186   T   T   T
  0.4772943788424528  0.2377465105917161  0.1110787803722637   T   T   T
  0.4752348386584344  0.3806249368512507  0.1110537578035729   T   T   T
  0.4761951823612962  0.6667671153998850  0.1110534954445373   T   T   T
  0.4763252874955947  0.8095876838265331  0.1110937226911669   T   T   T
  0.6191443142143732  0.9525593168467519  0.1110053210568795   T   T   T
  0.6189489172195136  0.0955659330960273  0.1109799173474275   T   T   T
  0.6178479169562727  0.2379612138066694  0.1110166619401877   T   T   T
  0.6200299200230470  0.5244718749342560  0.1110633711810898   T   T   T
  0.6190521754549411  0.6662138300699301  0.1110197081661797   T   T   T
  0.6191955758349599  0.8095697060556388  0.1110049148380283   T   T   T
  0.7618445386159745  0.9524090005546885  0.1109977404642354   T   T   T
  0.7618181487003416  0.0953845473228423  0.1110513919560978   T   T   T
  0.7616494057999698  0.2383191697730506  0.1110419705466596   T   T   T
  0.7620104793358580  0.3821461508826205  0.1110169903861905   T   T   T
  0.7622125448607961  0.5225934425217199  0.1110697022182005   T   T   T
  0.7627386667331435  0.6670473117338424  0.1110682354401005   T   T   T
  0.7616946886395628  0.8093257046098713  0.1110057065088425   T   T   T
  0.3842870219160327  0.4786370925865289  0.1106804239360883   T   T   T
  0.4780050451674113  0.5267386445415203  0.1109950383323009   T   T   T
  0.5230361326049664  0.4787364026676573  0.1110318438788979   T   T   T
  0.6187491568717457  0.3812768468477898  0.1110848119075037   T   T   T
  0.9523096353377252  0.9046466950966733  0.1110055650625548   T   T   T
  0.9520996024432683  0.0474712848221851  0.1110071022675494   T   T   T
  0.9521231800410037  0.1905543647700083  0.1110356734558354   T   T   T
  0.9517664101162265  0.3333498264400793  0.1109818061228119   T   T   T
  0.9521113803573662  0.4760245380310418  0.1109730373550751   T   T   T
  0.9524408890025824  0.6189044876718105  0.1110279464370857   T   T   T
  0.9521672275284440  0.7614795268069340  0.1110299607513468   T   T   T
  0.0951518862771112  0.9045637053735699  0.1109616665983772   T   T   T
  0.0949325328581976  0.0471781426141899  0.1110059015653160   T   T   T
  0.0948821299083100  0.1900752905627404  0.1109884997804466   T   T   T
  0.0951421100808960  0.3333179087400745  0.1109770102229756   T   T   T
  0.0945439051191268  0.4761085667063046  0.1110235040282902   T   T   T
  0.0949635074639459  0.6190236857314890  0.1110307078437078   T   T   T
  0.0951665494681404  0.7618907420678810  0.1109690640261479   T   T   T
  0.2380642241166139  0.9046585849530799  0.1109744238166742   T   T   T
  0.2383423100679731  0.0473404778913388  0.1110400956273501   T   T   T
  0.2376116788405370  0.1891977918984581  0.1110509819827676   T   T   T
  0.2380358210083684  0.3324266232688489  0.1109433680733096   T   T   T
  0.2370054359092565  0.4765425510417595  0.1109768258169728   T   T   T
  0.2376246777126345  0.6194155719936412  0.1111032029013680   T   T   T
  0.2379920460310625  0.7621299046766374  0.1110437346724844   T   T   T
  0.3811334694313395  0.9050167977312243  0.1110293769884137   T   T   T
  0.3811531367183184  0.0471478969793325  0.1110398534218550   T   T   T
  0.3822329664503938  0.1898429151375089  0.1110838930160138   T   T   T
  0.3804307070484578  0.3290579416495173  0.1110091076680390   T   T   T
  0.3805606080590654  0.6210607104431001  0.1110428051229427   T   T   T
  0.3810830103242792  0.7629492931508052  0.1111127320132286   T   T   T
  0.5240393785783312  0.9050010881928483  0.1110199383828995   T   T   T
  0.5240238295229432  0.0476775282291703  0.1109725817020732   T   T   T
  0.5239829588049143  0.1900122280196192  0.1110202992098061   T   T   T
  0.5283318827582997  0.3346705411767094  0.1110748376646790   T   T   T
  0.5241939815702086  0.6193258878087261  0.1109928175720113   T   T   T
  0.5241456479164496  0.7621877669059850  0.1110445475864931   T   T   T
  0.6667803608389941  0.9050786178439058  0.1109740870625571   T   T   T
  0.6666397986525606  0.0482013430914195  0.1109788407752274   T   T   T
  0.6664046953386968  0.1917434916223068  0.1109891252394612   T   T   T
  0.6642498067204202  0.3357036332311091  0.1110298077177993   T   T   T
  0.6658104289291525  0.4716503841660438  0.1110673732788830   T   T   T
  0.6686617006032383  0.6193580010558536  0.1110253056051471   T   T   T
  0.6666831394488457  0.7618020439807285  0.1109871005439275   T   T   T
  0.8093806269536288  0.9046872287105279  0.1109757437715790   T   T   T
  0.8093798499842497  0.0478266518433162  0.1110328850283413   T   T   T
  0.8091139360693645  0.1908391151413131  0.1110564900368733   T   T   T
  0.8082018458189454  0.3335730746928888  0.1109911584291822   T   T   T
  0.8099839842092150  0.4760393410533144  0.1110139018312994   T   T   T
  0.8091215127482067  0.6177815631892836  0.1110628284967456   T   T   T
  0.8099551498907365  0.7620025930740603  0.1110332374582061   T   T   T

  0.00000000E+00  0.00000000E+00  0.00000000E+00
  0.00000000E+00  0.00000000E+00  0.00000000E+00
  0.00000000E+00  0.00000000E+00  0.00000000E+00
  0.00000000E+00  0.00000000E+00  0.00000000E+00
  0.00000000E+00  0.00000000E+00  0.00000000E+00
  0.00000000E+00  0.00000000E+00  0.00000000E+00
  0.00000000E+00  0.00000000E+00  0.00000000E+00
  0.00000000E+00  0.00000000E+00  0.00000000E+00
  0.00000000E+00  0.00000000E+00  0.00000000E+00
  0.00000000E+00  0.00000000E+00  0.00000000E+00
  0.00000000E+00  0.00000000E+00  0.00000000E+00
  0.00000000E+00  0.00000000E+00  0.00000000E+00
  0.00000000E+00  0.00000000E+00  0.00000000E+00
  0.00000000E+00  0.00000000E+00  0.00000000E+00
  0.00000000E+00  0.00000000E+00  0.00000000E+00
  0.00000000E+00  0.00000000E+00  0.00000000E+00
  0.00000000E+00  0.00000000E+00  0.00000000E+00
  0.00000000E+00  0.00000000E+00  0.00000000E+00
  0.00000000E+00  0.00000000E+00  0.00000000E+00
  0.00000000E+00  0.00000000E+00  0.00000000E+00
  0.00000000E+00  0.00000000E+00  0.00000000E+00
  0.00000000E+00  0.00000000E+00  0.00000000E+00
  0.00000000E+00  0.00000000E+00  0.00000000E+00
  0.00000000E+00  0.00000000E+00  0.00000000E+00
  0.00000000E+00  0.00000000E+00  0.00000000E+00
  0.00000000E+00  0.00000000E+00  0.00000000E+00
  0.00000000E+00  0.00000000E+00  0.00000000E+00
  0.00000000E+00  0.00000000E+00  0.00000000E+00
  0.00000000E+00  0.00000000E+00  0.00000000E+00
  0.00000000E+00  0.00000000E+00  0.00000000E+00
  0.00000000E+00  0.00000000E+00  0.00000000E+00
  0.00000000E+00  0.00000000E+00  0.00000000E+00
  0.00000000E+00  0.00000000E+00  0.00000000E+00
  0.00000000E+00  0.00000000E+00  0.00000000E+00
  0.00000000E+00  0.00000000E+00  0.00000000E+00
  0.00000000E+00  0.00000000E+00  0.00000000E+00
  0.00000000E+00  0.00000000E+00  0.00000000E+00
  0.00000000E+00  0.00000000E+00  0.00000000E+00
  0.00000000E+00  0.00000000E+00  0.00000000E+00
  0.00000000E+00  0.00000000E+00  0.00000000E+00
  0.00000000E+00  0.00000000E+00  0.00000000E+00
  0.00000000E+00  0.00000000E+00  0.00000000E+00
  0.00000000E+00  0.00000000E+00  0.00000000E+00
  0.00000000E+00  0.00000000E+00  0.00000000E+00
  0.00000000E+00  0.00000000E+00  0.00000000E+00
  0.00000000E+00  0.00000000E+00  0.00000000E+00
  0.00000000E+00  0.00000000E+00  0.00000000E+00
  0.00000000E+00  0.00000000E+00  0.00000000E+00
  0.00000000E+00  0.00000000E+00  0.00000000E+00
  0.00000000E+00  0.00000000E+00  0.00000000E+00
  0.00000000E+00  0.00000000E+00  0.00000000E+00
  0.00000000E+00  0.00000000E+00  0.00000000E+00
  0.00000000E+00  0.00000000E+00  0.00000000E+00
  0.00000000E+00  0.00000000E+00  0.00000000E+00
  0.00000000E+00  0.00000000E+00  0.00000000E+00
  0.00000000E+00  0.00000000E+00  0.00000000E+00
  0.00000000E+00  0.00000000E+00  0.00000000E+00
  0.00000000E+00  0.00000000E+00  0.00000000E+00
  0.00000000E+00  0.00000000E+00  0.00000000E+00
  0.00000000E+00  0.00000000E+00  0.00000000E+00
  0.00000000E+00  0.00000000E+00  0.00000000E+00
  0.00000000E+00  0.00000000E+00  0.00000000E+00
  0.00000000E+00  0.00000000E+00  0.00000000E+00
  0.00000000E+00  0.00000000E+00  0.00000000E+00
  0.00000000E+00  0.00000000E+00  0.00000000E+00
  0.00000000E+00  0.00000000E+00  0.00000000E+00
  0.00000000E+00  0.00000000E+00  0.00000000E+00
  0.00000000E+00  0.00000000E+00  0.00000000E+00
  0.00000000E+00  0.00000000E+00  0.00000000E+00
  0.00000000E+00  0.00000000E+00  0.00000000E+00
  0.00000000E+00  0.00000000E+00  0.00000000E+00
  0.00000000E+00  0.00000000E+00  0.00000000E+00
  0.00000000E+00  0.00000000E+00  0.00000000E+00
  0.00000000E+00  0.00000000E+00  0.00000000E+00
  0.00000000E+00  0.00000000E+00  0.00000000E+00
  0.00000000E+00  0.00000000E+00  0.00000000E+00
  0.00000000E+00  0.00000000E+00  0.00000000E+00
  0.00000000E+00  0.00000000E+00  0.00000000E+00
  0.00000000E+00  0.00000000E+00  0.00000000E+00
  0.00000000E+00  0.00000000E+00  0.00000000E+00
  0.00000000E+00  0.00000000E+00  0.00000000E+00
  0.00000000E+00  0.00000000E+00  0.00000000E+00
  0.00000000E+00  0.00000000E+00  0.00000000E+00
  0.00000000E+00  0.00000000E+00  0.00000000E+00
  0.00000000E+00  0.00000000E+00  0.00000000E+00
  0.00000000E+00  0.00000000E+00  0.00000000E+00
  0.00000000E+00  0.00000000E+00  0.00000000E+00
  0.00000000E+00  0.00000000E+00  0.00000000E+00
  0.00000000E+00  0.00000000E+00  0.00000000E+00
  0.00000000E+00  0.00000000E+00  0.00000000E+00
  0.00000000E+00  0.00000000E+00  0.00000000E+00
  0.00000000E+00  0.00000000E+00  0.00000000E+00
  0.00000000E+00  0.00000000E+00  0.00000000E+00
  0.00000000E+00  0.00000000E+00  0.00000000E+00
  0.00000000E+00  0.00000000E+00  0.00000000E+00
  0.00000000E+00  0.00000000E+00  0.00000000E+00
  0.00000000E+00  0.00000000E+00  0.00000000E+00
  0.00000000E+00  0.00000000E+00  0.00000000E+00
