 N B C 
 1.0
 14.936314146199660   0.000000000000000   0.000000000000000
 -7.468157073099825  12.935227489513863   0.000000000000000
  0.000000000000001   0.000000000000001  13.341276283792837
 N B C 
 142 142   4
Cartesian
  1.244846446101345   0.718595599523415   1.669782885125339 
  4.978327611251804   7.186523529223699   1.657488628030080 
  6.223264990942581   0.718779865757575   1.670014376488728 
  9.957386065518751   7.186385584807699   1.670142577746930 
 11.202252310563354   0.718678510536634   1.669207126738726 
 -3.734273116416464   9.342149198261897   8.336401045401653 
  1.244474101276121   9.342144579539125   8.335311453873384 
  2.489528483272876   2.874674088653939   8.333396303421814 
  6.223335355065903   9.342094187043511   8.335749435962857 
  7.467924453054691   2.874774062101710   8.335278196671663 
 12.447056549480104   2.874624741600305   8.336864019724228 
 -1.244952707315637   9.342241281090189   1.669274767231870 
  0.000211116368266   2.874578925505105   1.670096549888853 
  4.978558525373574   2.874889848608257   1.673113658415708 
  3.734036009224700   9.341959421194030   1.671672159755201 
  8.712656433899586   9.342048347789081   1.671594384578031 
  9.957512738432888   2.874651271706197   1.669034923904174 
 -4.978796832458298  11.497916182793439   8.336203718463677 
 -0.000241454388928  11.498095814794480   8.336711713360076 
  1.244895526984752   5.030585142628196   8.332913563344691 
  6.223225404293285   5.030810385626210   8.335892056682191 
  4.978804769150245  11.497971086376893   8.335904253481065 
 11.202187589868707   5.030582175238864   8.336904442835412 
 -1.244698376220924   5.030591935007174   1.669786983784370 
 -2.489506997555132  11.498037853746489   1.669269019749344 
  2.489237272106950  11.497951423104036   1.670261046646624 
  3.733926557043611   5.030571751160874   1.667532633838574 
  7.468262502520824  11.497962334338409   1.669997096779339 
  8.712795787163843   5.030564868698318   1.669998592633174 
 -0.000190724070473   7.186387355014007   8.335273710009414 
  1.244846446101345   0.718595599523416   8.336174327719275 
  4.978327611251805   7.186523529223700   8.348468584814562 
  6.223264990942582   0.718779865757576   8.335942836355899 
  9.957386065518751   7.186385584807700   8.335814635097698 
 -2.489592859299150   7.186407001028062   1.669180663988127 
 11.202252310563354   0.718678510536635   8.336750086105901 
  3.734088579754903   0.718659694504556   1.670568735116799 
  2.489267101494208   7.186150554807572   1.672319020186865 
  7.467873599784843   7.186320014117663   1.671081385757047 
  8.712624961797978   0.718736010964964   1.669351294842735 
  2.489267101494208   7.186150554807573   8.333638192657762 
 13.691832360983639   0.718612289781358   1.669222628942234 
 -1.244952707315636   9.342241281090189   8.336682445612757 
  0.000211116368267   2.874578925505106   8.335860662955762 
  4.978558525373575   2.874889848608258   8.332843554428921 
  3.734036009224700   9.341959421194030   8.334285053089427 
  8.712656433899586   9.342048347789081   8.334362828266597 
  9.957512738432888   2.874651271706198   8.336922288940466 
 -3.734273116416464   9.342149198261897   1.669556167442974 
  1.244474101276120   9.342144579539125   1.670645758971244 
  2.489528483272876   2.874674088653939   1.672560909422813 
  6.223335355065903   9.342094187043511   1.670207776881771 
  7.467924453054690   2.874774062101709   1.670679016172965 
 12.447056549480104   2.874624741600304   1.669093193120400 
 -1.244698376220924   5.030591935007175   8.336170229060270 
 -2.489506997555132  11.498037853746489   8.336688193095283 
  2.489237272106950  11.497951423104036   8.335696166198018 
  3.733926557043612   5.030571751160875   8.338424579006054 
  7.468262502520825  11.497962334338409   8.335960116065289 
 -4.978796832458299  11.497916182793439   1.669753494380951 
  8.712795787163843   5.030564868698319   8.335958620211455 
 -0.000241454388928  11.498095814794480   1.669245499484564 
  1.244895526984752   5.030585142628195   1.673043649499950 
 -0.000190724070474   7.186387355014006   1.670683502835200 
  6.223225404293284   5.030810385626209   1.670065156162437 
  4.978804769150244  11.497971086376893   1.670052959363563 
 11.202187589868707   5.030582175238863   1.669052770009216 
 -2.489592859299150   7.186407001028063   8.336776548856500 
  3.734088579754903   0.718659694504556   8.335388477727841 
  7.467873599784844   7.186320014117664   8.334875827087581 
  8.712624961797978   0.718736010964965   8.336605918001894 
 13.691832360983639   0.718612289781359   8.336734583902407 
  0.001880493675312   1.440192733561564   5.002978606422314 
  3.739901778524700   7.887639562506860   5.002978606422314 
  4.971107539158717   1.467444299699869   5.002978606422314 
  8.713687994432691   7.889635139897455   5.002978606422314 
  9.959785011476283   1.432043411394166   5.002978606422314 
 -4.978801129240893  10.060749469811054  11.673616748318732 
  0.000060493313938  10.060788426991115  11.673616748318732 
  1.244694300485908   3.593154159832374  11.673616748318732 
  4.978747065461622  10.060751999595910  11.673616748318732 
  6.223467084767043   3.593113243772767  11.673616748318732 
 11.202251268062621   3.593119916090664  11.673616748318732 
 -2.489838767103248  10.063422115112330   5.002978606422314 
 -1.241444933071285   3.593401383111122   5.002978606422314 
  3.719792055608144   3.667660557452411   5.002978606422314 
  2.492549654231468  10.050591171700702   5.002978606422314 
  7.460104156721777  10.070370459567757   5.002978606422314 
  8.728327561117307   3.575485624235090   5.002978606422314 
 -6.223522901737167  12.216671765105930  11.673616748318732 
 -1.244632171545473  12.216668724228066  11.673616748318732 
  0.000046272340837   5.748976747243967  11.673616748318732 
  4.978763281725009   5.748956012025523  11.673616748318732 
  3.734077645917980  12.216633585942510  11.673616748318732 
  9.957566246564355   5.748972050504427  11.673616748318732 
 -2.476906416949519   5.748065414760536   5.002978606422314 
 -3.735133995683954  12.227391830224260   5.002978606422314 
  1.244693152040335  12.211209975888803   5.002978606422314 
  2.518706282138630   5.710501827718000   5.002978606422314 
  6.223052992302360  12.224314633448623   5.002978606422314 
  7.503755817488217   5.710667428531028   5.002978606422314 
 -1.244658675756470   7.904836768303532  11.673616748318732 
 -0.000032486085841   1.437253023152599  11.673616748318732 
  3.734044460906111   7.904865930292056  11.673616748318732 
  4.978813539185200   1.437305176780756  11.673616748318732 
  8.712857753066384   7.904831670676831  11.673616748318732 
 -3.727424882349173   7.903690559556343   5.002978606422314 
  9.957541310308796   1.437239398786119  11.673616748318732 
  2.495791854451028   1.460885505610968   5.002978606422314 
  1.260001393577323   7.888681439454838   5.002978606422314 
  7.470391501790089   1.432662747367754   5.002978606422314 
  1.244764076553352   7.904864214402257  11.673616748318732 
 12.449007759440329   1.438058206469603   5.002978606422314 
 -2.489363754133409  10.060757138395401  11.673616748318732 
 -1.244687808503494   3.593104358397532  11.673616748318732 
  3.734091345137861   3.593167262189070  11.673616748318732 
  2.489430607908959  10.060754671789301  11.673616748318732 
  7.468124811212690  10.060773596729630  11.673616748318732 
  8.712851170117457   3.593098560656183  11.673616748318732 
 -4.985838135593349  10.059306572280924   5.002978606422314 
  0.003793375827880  10.056707140779858   5.002978606422314 
  1.239211221693379   3.592046362121067   5.002978606422314 
  4.964233450389131  10.089111248674609   5.002978606422314 
  6.236563952907128   3.591095739357475   5.002978606422314 
 11.210599505565831   3.589309626488681   5.002978606422314 
 -2.489381843459217   5.748966835055653  11.673616748318732 
 -3.734085454052854  12.216673768910699  11.673616748318732 
  1.244718527439246  12.216646583777408  11.673616748318732 
  2.489422231253422   5.749029432057227  11.673616748318732 
  6.223447625494852  12.216642226434733  11.673616748318732 
 -6.220283962026610  12.228138359510437   5.002978606422314 
  7.468135637386113   5.748961849148352  11.673616748318732 
 -1.247836381450207  12.224321400013572   5.002978606422314 
  0.014042386411941   5.746459336621338   5.002978606422314 
 -1.235493695869380   7.903270074075866   5.002978606422314 
  3.727382251755280  12.223819430108099   5.002978606422314 
  9.975311651393355   5.741553268740810   5.002978606422314 
 -3.734064937813562   7.904814719268583  11.673616748318732 
  2.489348629491332   1.437311133499452  11.673616748318732 
  6.223452103800832   7.904847263781352  11.673616748318732 
  7.468186297834789   1.437236415941338  11.673616748318732 
 12.446942989506008   1.437239626177989  11.673616748318732 
  1.247302946993942   0.728241244529745   5.002978606422314 
  6.221263365739300   0.727590352182374   5.002978606422314 
  9.969139799390721   7.179244535548208   5.002978606422314 
 11.202198337271914   0.722576999267598   5.002978606422314 
 -3.734058723033377   9.342075431236069  11.673616748318732 
  1.244546911572384   9.342474156795985  11.673616748318732 
  2.489223907167589   2.874220695707564  11.673616748318732 
  6.223610723424776   9.342410917603248  11.673616748318732 
  7.468546970557383   2.874290130180178  11.673616748318732 
 12.446698708424716   2.874395214292402  11.673616748318732 
 -1.244660608043674   9.342986217574817   5.002978606422314 
 -0.011618412644834   2.867879697562291   5.002978606422314 
  4.992715057273237   2.900261361006469   5.002978606422314 
  3.739077751730508   9.358106719612127   5.002978606422314 
  8.705389773109069   9.336851174532740   5.002978606422314 
  9.970838575334355   2.863879047558941   5.002978606422314 
 -4.978790327598409  11.497917409653008  11.673616748318732 
  0.000048356230670  11.498132080402860  11.673616748318732 
  1.244329642018132   5.030311041208271  11.673616748318732 
  6.223849240476388   5.030263543036307  11.673616748318732 
  4.978738629981700  11.498314628731096  11.673616748318732 
 11.202199530031073   5.030264802150536  11.673616748318732 
 -1.240612317527792   5.027481415275641   5.002978606422314 
 -2.490840363692291  11.502325221976774   5.002978606422314 
  2.488670168654462  11.498366997302103   5.002978606422314 
  7.470020830921937  11.510222152934206   5.002978606422314 
  8.746994102669094   5.004400010008187   5.002978606422314 
 -0.000327713169391   7.186379777665922  11.673616748318732 
  1.244467541196130   0.718447714127718  11.673616748318732 
  4.978935488823752   7.186373557073874  11.673616748318732 
  6.223721457002383   0.718460469280737  11.673616748318732 
  9.957721210979013   7.186171652988112  11.673616748318732 
 -2.483157892439077   7.185421991619051   5.002978606422314 
 11.202194244797797   0.718749797679726  11.673616748318732 
  3.734596957947771   0.728868788640155   5.002978606422314 
  2.493531214661993   7.177293809350100   5.002978606422314 
  7.498657187328968   7.131129763708046   5.002978606422314 
  8.716739108294711   0.712898316370337   5.002978606422314 
  2.489236819390105   7.186544171379015  11.673616748318732 
 13.691186667494076   0.723103352589188   5.002978606422314 
 -1.244802446277373   9.342227123309582  11.673616748318732 
 -0.000409757784819   2.874272005729896  11.673616748318732 
  4.979069772113625   2.874222658203297  11.673616748318732 
  3.734064653733644   9.342536353685039  11.673616748318732 
  8.712995247787912   9.342161998701149  11.673616748318732 
  9.957685123897637   2.874415992720146  11.673616748318732 
 -3.735060647737409   9.342244992114638   5.002978606422314 
  1.245743917563377   9.337549733781069   5.002978606422314 
  2.473453146041901   2.887568987074405   5.002978606422314 
  6.201000002837624   9.390799613522697   5.002978606422314 
  7.486612681711079   2.861959826696127   5.002978606422314 
 12.449150845683675   2.872282736064591   5.002978606422314 
 -1.245080707282030   5.030265314120916  11.673616748318732 
 -2.489325039788605  11.497927378591243  11.673616748318732 
  2.489368602167821  11.498325647113303  11.673616748318732 
  3.734213525729095   5.030333993824894  11.673616748318732 
  7.468117069351650  11.498102339489627  11.673616748318732 
 -4.979904333075196  11.501476814292543   5.002978606422314 
  8.713175380437672   5.030238522027680  11.673616748318732 
 -0.002125017112185  11.498819552988236   5.002978606422314 
  1.228511950921890   5.008776231699468   5.002978606422314 
  0.002686495313421   7.184489081973541   5.002978606422314 
  6.259544372143445   5.014345562049796   5.002978606422314 
  4.971268954729172  11.525350495000094   5.002978606422314 
 11.217307507165973   5.025081110634837   5.002978606422314 
 -2.489555538608183   7.186213057055579  11.673616748318732 
  3.734125193253352   0.718386797291756  11.673616748318732 
  7.468524680490736   7.186234983573692  11.673616748318732 
  8.713016086374989   0.718645293778063  11.673616748318732 
 13.691404956464977   0.718625444388212  11.673616748318732 
 -0.000238838877026   1.436553362057932   1.665975745707363 
  3.734507813457410   7.905618632815666   1.658412812169460 
  4.979036904138335   1.435988644843828   1.666675136522263 
  8.713709934359130   7.905213902884982   1.667833936678546 
  9.957546469023262   1.437429747022694   1.666469764289359 
 -4.978432955471009  10.060691459145184   8.338485564002925 
 -0.001111656432379  10.061368726626560   8.339611935090836 
  1.243672731229910   3.592269682338261   8.341030067217515 
  4.979149305060106  10.061819127678177   8.340509595698043 
  6.224552595754231   3.592915891003246   8.339944337082830 
 11.202123645128648   3.593347025420373   8.339580383984387 
 -2.489900998673653  10.060801929028280   1.666602879409537 
 -1.245566511370436   3.593111372846607   1.665917694405796 
  3.734233097719968   3.592504084405594   1.661527984889127 
  2.488589070334840  10.061776963329988   1.666478904870289 
  7.468938060528658  10.061211913167670   1.667434683181077 
  8.713538312124150   3.593228763710481   1.666595546212156 
 -6.223224229582033  12.216050280840316   8.339228286486280 
 -1.245006709197188  12.216272753762066   8.339522995486991 
 -0.001735266800878   5.749569357057864   8.340098651818979 
  4.979635692261868   5.749786971969168   8.347653653056442 
  3.733953277374747  12.217206329262368   8.339392364984965 
  9.957916216622115   5.749293906014862   8.339111291248114 
 -2.490209480839152   5.749462383123455   1.666275892065283 
 -3.734044967421593  12.215697296814486   1.666638218833036 
  1.244184947861472  12.216961806060356   1.666540595909767 
  2.488894380766454   5.749100636795312   1.659757729757060 
  6.223810057387166  12.216815268272052   1.666438045749706 
  7.469420465551472   5.749100296801253   1.666406031801297 
 -1.246065108621888   7.905558999984469   8.339697895745941 
 -0.000238838877026   1.436553362057933   8.339981467137266 
  3.734507813457410   7.905618632815667   8.347544400675154 
  4.979036904138336   1.435988644843829   8.339282076322364 
  8.713709934359130   7.905213902884983   8.338123276166082 
 -3.734322935799375   7.905200804408467   1.666958925081149 
  9.957546469023262   1.437429747022694   8.339487448555269 
  2.489251156680934   1.435726879286554   1.666197753896026 
  1.243129262087342   7.905906530940073   1.665834662106124 
  6.223934375183371   7.905234621021267   1.660448991323784 
  7.468380744183232   1.436951284280747   1.666623626860276 
  1.243129262087342   7.905906530940074   8.340122550738505 
 12.446784203452285   1.437326841923659   1.666331633282383 
 -2.489900998673652  10.060801929028280   8.339354333435091 
 -1.245566511370436   3.593111372846608   8.340039518438845 
  3.734233097719969   3.592504084405595   8.344429227955500 
  2.488589070334841  10.061776963329988   8.339478307974352 
  7.468938060528659  10.061211913167670   8.338522529663551 
  8.713538312124150   3.593228763710482   8.339361666632470 
 -4.978432955471010  10.060691459145184   1.667471648841690 
 -0.001111656432379  10.061368726626560   1.666345277753778 
  1.243672731229909   3.592269682338260   1.664927145627112 
  4.979149305060105  10.061819127678177   1.665447617146584 
  6.224552595754230   3.592915891003245   1.666012875761784 
 11.202123645128648   3.593347025420372   1.666376828860254 
 -2.490209480839151   5.749462383123456   8.339681320779345 
 -3.734044967421593  12.215697296814486   8.339318994011578 
  1.244184947861472  12.216961806060356   8.339416616934875 
  2.488894380766455   5.749100636795313   8.346199483087569 
  6.223810057387167  12.216815268272052   8.339519167094934 
 -6.223224229582034  12.216050280840316   1.666728926358348 
  7.469420465551472   5.749100296801254   8.339551181043330 
 -1.245006709197188  12.216272753762066   1.666434217357649 
 -0.001735266800879   5.749569357057863   1.665858561025649 
 -1.246065108621888   7.905558999984468   1.666259317098688 
  4.979635692261867   5.749786971969167   1.658303559788186 
  3.733953277374747  12.217206329262368   1.666564847859662 
  9.957916216622115   5.749293906014861   1.666845921596527 
 -3.734322935799374   7.905200804408468   8.338998287763479 
  2.489251156680935   1.435726879286555   8.339759458948588 
  6.223934375183372   7.905234621021268   8.345508221520845 
  7.468380744183233   1.436951284280747   8.339333585984365 
 12.446784203452285   1.437326841923660   8.339625579562245 
  6.147227802610818   7.860862200538418   5.002978606422314 
  4.910868543618394   7.169560416645433   5.002978606422314 
  3.698097697489367   5.033668588585953   5.002978606422314 
  4.910887310263835   5.768966183361357   5.002978606422314 
Generated by cif2cell 2.0.0.  :  Failed to get author information, No journal information. Species order: N B C 
 1.0
 14.936314146199660   0.000000000000000   0.000000000000000
 -7.468157073099825  12.935227489513863   0.000000000000000
  0.000000000000001   0.000000000000001  13.341276283792837
 N B C 
 142 142   4
Cartesian
  1.244846446101345   0.718595599523415   1.669782885125339 
  4.978327611251804   7.186523529223699   1.657488628030080 
  6.223264990942581   0.718779865757575   1.670014376488728 
  9.957386065518751   7.186385584807699   1.670142577746930 
 11.202252310563354   0.718678510536634   1.669207126738726 
 -3.734273116416464   9.342149198261897   8.336401045401653 
  1.244474101276121   9.342144579539125   8.335311453873384 
  2.489528483272876   2.874674088653939   8.333396303421814 
  6.223335355065903   9.342094187043511   8.335749435962857 
  7.467924453054691   2.874774062101710   8.335278196671663 
 12.447056549480104   2.874624741600305   8.336864019724228 
 -1.244952707315637   9.342241281090189   1.669274767231870 
  0.000211116368266   2.874578925505105   1.670096549888853 
  4.978558525373574   2.874889848608257   1.673113658415708 
  3.734036009224700   9.341959421194030   1.671672159755201 
  8.712656433899586   9.342048347789081   1.671594384578031 
  9.957512738432888   2.874651271706197   1.669034923904174 
 -4.978796832458298  11.497916182793439   8.336203718463677 
 -0.000241454388928  11.498095814794480   8.336711713360076 
  1.244895526984752   5.030585142628196   8.332913563344691 
  6.223225404293285   5.030810385626210   8.335892056682191 
  4.978804769150245  11.497971086376893   8.335904253481065 
 11.202187589868707   5.030582175238864   8.336904442835412 
 -1.244698376220924   5.030591935007174   1.669786983784370 
 -2.489506997555132  11.498037853746489   1.669269019749344 
  2.489237272106950  11.497951423104036   1.670261046646624 
  3.733926557043611   5.030571751160874   1.667532633838574 
  7.468262502520824  11.497962334338409   1.669997096779339 
  8.712795787163843   5.030564868698318   1.669998592633174 
 -0.000190724070473   7.186387355014007   8.335273710009414 
  1.244846446101345   0.718595599523416   8.336174327719275 
  4.978327611251805   7.186523529223700   8.348468584814562 
  6.223264990942582   0.718779865757576   8.335942836355899 
  9.957386065518751   7.186385584807700   8.335814635097698 
 -2.489592859299150   7.186407001028062   1.669180663988127 
 11.202252310563354   0.718678510536635   8.336750086105901 
  3.734088579754903   0.718659694504556   1.670568735116799 
  2.489267101494208   7.186150554807572   1.672319020186865 
  7.467873599784843   7.186320014117663   1.671081385757047 
  8.712624961797978   0.718736010964964   1.669351294842735 
  2.489267101494208   7.186150554807573   8.333638192657762 
 13.691832360983639   0.718612289781358   1.669222628942234 
 -1.244952707315636   9.342241281090189   8.336682445612757 
  0.000211116368267   2.874578925505106   8.335860662955762 
  4.978558525373575   2.874889848608258   8.332843554428921 
  3.734036009224700   9.341959421194030   8.334285053089427 
  8.712656433899586   9.342048347789081   8.334362828266597 
  9.957512738432888   2.874651271706198   8.336922288940466 
 -3.734273116416464   9.342149198261897   1.669556167442974 
  1.244474101276120   9.342144579539125   1.670645758971244 
  2.489528483272876   2.874674088653939   1.672560909422813 
  6.223335355065903   9.342094187043511   1.670207776881771 
  7.467924453054690   2.874774062101709   1.670679016172965 
 12.447056549480104   2.874624741600304   1.669093193120400 
 -1.244698376220924   5.030591935007175   8.336170229060270 
 -2.489506997555132  11.498037853746489   8.336688193095283 
  2.489237272106950  11.497951423104036   8.335696166198018 
  3.733926557043612   5.030571751160875   8.338424579006054 
  7.468262502520825  11.497962334338409   8.335960116065289 
 -4.978796832458299  11.497916182793439   1.669753494380951 
  8.712795787163843   5.030564868698319   8.335958620211455 
 -0.000241454388928  11.498095814794480   1.669245499484564 
  1.244895526984752   5.030585142628195   1.673043649499950 
 -0.000190724070474   7.186387355014006   1.670683502835200 
  6.223225404293284   5.030810385626209   1.670065156162437 
  4.978804769150244  11.497971086376893   1.670052959363563 
 11.202187589868707   5.030582175238863   1.669052770009216 
 -2.489592859299150   7.186407001028063   8.336776548856500 
  3.734088579754903   0.718659694504556   8.335388477727841 
  7.467873599784844   7.186320014117664   8.334875827087581 
  8.712624961797978   0.718736010964965   8.336605918001894 
 13.691832360983639   0.718612289781359   8.336734583902407 
  0.001880493675312   1.440192733561564   5.002978606422314 
  3.739901778524700   7.887639562506860   5.002978606422314 
  4.971107539158717   1.467444299699869   5.002978606422314 
  8.713687994432691   7.889635139897455   5.002978606422314 
  9.959785011476283   1.432043411394166   5.002978606422314 
 -4.978801129240893  10.060749469811054  11.673616748318732 
  0.000060493313938  10.060788426991115  11.673616748318732 
  1.244694300485908   3.593154159832374  11.673616748318732 
  4.978747065461622  10.060751999595910  11.673616748318732 
  6.223467084767043   3.593113243772767  11.673616748318732 
 11.202251268062621   3.593119916090664  11.673616748318732 
 -2.489838767103248  10.063422115112330   5.002978606422314 
 -1.241444933071285   3.593401383111122   5.002978606422314 
  3.719792055608144   3.667660557452411   5.002978606422314 
  2.492549654231468  10.050591171700702   5.002978606422314 
  7.460104156721777  10.070370459567757   5.002978606422314 
  8.728327561117307   3.575485624235090   5.002978606422314 
 -6.223522901737167  12.216671765105930  11.673616748318732 
 -1.244632171545473  12.216668724228066  11.673616748318732 
  0.000046272340837   5.748976747243967  11.673616748318732 
  4.978763281725009   5.748956012025523  11.673616748318732 
  3.734077645917980  12.216633585942510  11.673616748318732 
  9.957566246564355   5.748972050504427  11.673616748318732 
 -2.476906416949519   5.748065414760536   5.002978606422314 
 -3.735133995683954  12.227391830224260   5.002978606422314 
  1.244693152040335  12.211209975888803   5.002978606422314 
  2.518706282138630   5.710501827718000   5.002978606422314 
  6.223052992302360  12.224314633448623   5.002978606422314 
  7.503755817488217   5.710667428531028   5.002978606422314 
 -1.244658675756470   7.904836768303532  11.673616748318732 
 -0.000032486085841   1.437253023152599  11.673616748318732 
  3.734044460906111   7.904865930292056  11.673616748318732 
  4.978813539185200   1.437305176780756  11.673616748318732 
  8.712857753066384   7.904831670676831  11.673616748318732 
 -3.727424882349173   7.903690559556343   5.002978606422314 
  9.957541310308796   1.437239398786119  11.673616748318732 
  2.495791854451028   1.460885505610968   5.002978606422314 
  1.260001393577323   7.888681439454838   5.002978606422314 
  7.470391501790089   1.432662747367754   5.002978606422314 
  1.244764076553352   7.904864214402257  11.673616748318732 
 12.449007759440329   1.438058206469603   5.002978606422314 
 -2.489363754133409  10.060757138395401  11.673616748318732 
 -1.244687808503494   3.593104358397532  11.673616748318732 
  3.734091345137861   3.593167262189070  11.673616748318732 
  2.489430607908959  10.060754671789301  11.673616748318732 
  7.468124811212690  10.060773596729630  11.673616748318732 
  8.712851170117457   3.593098560656183  11.673616748318732 
 -4.985838135593349  10.059306572280924   5.002978606422314 
  0.003793375827880  10.056707140779858   5.002978606422314 
  1.239211221693379   3.592046362121067   5.002978606422314 
  4.964233450389131  10.089111248674609   5.002978606422314 
  6.236563952907128   3.591095739357475   5.002978606422314 
 11.210599505565831   3.589309626488681   5.002978606422314 
 -2.489381843459217   5.748966835055653  11.673616748318732 
 -3.734085454052854  12.216673768910699  11.673616748318732 
  1.244718527439246  12.216646583777408  11.673616748318732 
  2.489422231253422   5.749029432057227  11.673616748318732 
  6.223447625494852  12.216642226434733  11.673616748318732 
 -6.220283962026610  12.228138359510437   5.002978606422314 
  7.468135637386113   5.748961849148352  11.673616748318732 
 -1.247836381450207  12.224321400013572   5.002978606422314 
  0.014042386411941   5.746459336621338   5.002978606422314 
 -1.235493695869380   7.903270074075866   5.002978606422314 
  3.727382251755280  12.223819430108099   5.002978606422314 
  9.975311651393355   5.741553268740810   5.002978606422314 
 -3.734064937813562   7.904814719268583  11.673616748318732 
  2.489348629491332   1.437311133499452  11.673616748318732 
  6.223452103800832   7.904847263781352  11.673616748318732 
  7.468186297834789   1.437236415941338  11.673616748318732 
 12.446942989506008   1.437239626177989  11.673616748318732 
  1.247302946993942   0.728241244529745   5.002978606422314 
  6.221263365739300   0.727590352182374   5.002978606422314 
  9.969139799390721   7.179244535548208   5.002978606422314 
 11.202198337271914   0.722576999267598   5.002978606422314 
 -3.734058723033377   9.342075431236069  11.673616748318732 
  1.244546911572384   9.342474156795985  11.673616748318732 
  2.489223907167589   2.874220695707564  11.673616748318732 
  6.223610723424776   9.342410917603248  11.673616748318732 
  7.468546970557383   2.874290130180178  11.673616748318732 
 12.446698708424716   2.874395214292402  11.673616748318732 
 -1.244660608043674   9.342986217574817   5.002978606422314 
 -0.011618412644834   2.867879697562291   5.002978606422314 
  4.992715057273237   2.900261361006469   5.002978606422314 
  3.739077751730508   9.358106719612127   5.002978606422314 
  8.705389773109069   9.336851174532740   5.002978606422314 
  9.970838575334355   2.863879047558941   5.002978606422314 
 -4.978790327598409  11.497917409653008  11.673616748318732 
  0.000048356230670  11.498132080402860  11.673616748318732 
  1.244329642018132   5.030311041208271  11.673616748318732 
  6.223849240476388   5.030263543036307  11.673616748318732 
  4.978738629981700  11.498314628731096  11.673616748318732 
 11.202199530031073   5.030264802150536  11.673616748318732 
 -1.240612317527792   5.027481415275641   5.002978606422314 
 -2.490840363692291  11.502325221976774   5.002978606422314 
  2.488670168654462  11.498366997302103   5.002978606422314 
  7.470020830921937  11.510222152934206   5.002978606422314 
  8.746994102669094   5.004400010008187   5.002978606422314 
 -0.000327713169391   7.186379777665922  11.673616748318732 
  1.244467541196130   0.718447714127718  11.673616748318732 
  4.978935488823752   7.186373557073874  11.673616748318732 
  6.223721457002383   0.718460469280737  11.673616748318732 
  9.957721210979013   7.186171652988112  11.673616748318732 
 -2.483157892439077   7.185421991619051   5.002978606422314 
 11.202194244797797   0.718749797679726  11.673616748318732 
  3.734596957947771   0.728868788640155   5.002978606422314 
  2.493531214661993   7.177293809350100   5.002978606422314 
  7.498657187328968   7.131129763708046   5.002978606422314 
  8.716739108294711   0.712898316370337   5.002978606422314 
  2.489236819390105   7.186544171379015  11.673616748318732 
 13.691186667494076   0.723103352589188   5.002978606422314 
 -1.244802446277373   9.342227123309582  11.673616748318732 
 -0.000409757784819   2.874272005729896  11.673616748318732 
  4.979069772113625   2.874222658203297  11.673616748318732 
  3.734064653733644   9.342536353685039  11.673616748318732 
  8.712995247787912   9.342161998701149  11.673616748318732 
  9.957685123897637   2.874415992720146  11.673616748318732 
 -3.735060647737409   9.342244992114638   5.002978606422314 
  1.245743917563377   9.337549733781069   5.002978606422314 
  2.473453146041901   2.887568987074405   5.002978606422314 
  6.201000002837624   9.390799613522697   5.002978606422314 
  7.486612681711079   2.861959826696127   5.002978606422314 
 12.449150845683675   2.872282736064591   5.002978606422314 