 Ga N B 
 1.0
 17.527899999999772   0.000000000000000   0.000000000000000
 -8.763949999999658  15.179606674993195   0.000000000000000
  0.000000000000001   0.000000000000002  15.000000000000000
 Ga N B 
   1  47  49
Cartesian
  4.905068642918102   7.448322288610266   3.336395265911565 
  8.759005305659475  13.722301328580853   1.578769353820665 
 16.277127779991890   0.700089834128242   1.630456807732620 
 15.035876559233188   2.867274129635528   1.643777175776505 
 13.785216216451666   5.033786286017619   1.616785076526480 
 12.534634598923073   7.203725058440006   1.575512982279705 
 11.280999564764386   9.381783649033649   1.551950339157810 
 10.017666275456559  11.559519147529445   1.531888331819370 
 -6.268937804392404  13.739703031360810   1.614428582052165 
  1.250589368404596   0.730084564167198   1.612042252127895 
  0.020547369038300   2.911191033611941   1.614536624775960 
 -1.236621579806081   5.055866538258046   1.614032966896260 
 -2.507857529199767   7.213830540699250   1.610418217986045 
 -3.777071781283424   9.386761342605308   1.617018876408570 
 -5.021184344308416  11.565837470017941   1.620745743185955 
 -3.771620754740657  13.744044325331830   1.655715196349160 
  3.749797243477072   0.738141761745239   1.621200798104985 
  2.509094844720743   2.916516637468008   1.571583206863590 
  1.302515927469751   5.140858896520222   1.596253425794490 
 -0.009863112036550   7.237268824824536   1.607988685749180 
 -1.314742374274160   9.395748983312329   1.621238403966540 
 -2.534797464991944  11.570939964538553   1.655531521999680 
 -1.271148457856016  13.740438473062609   1.671703744728525 
  6.254352769142145   0.730395841364052   1.650721073179830 
  5.011451605519040   2.906738611272623   1.653770625839070 
  3.772269154553687   5.090498624097990   1.688008065235620 
  2.581009888855461   7.436087539104642   1.653246496176765 
  1.120021181884223   9.417948216065671   1.635301263714345 
 -0.048108175521650  11.574868503561762   1.669953738642525 
  1.241393091277904  13.705867229539605   1.679879678710200 
  8.766279548758073   0.706747274108622   1.651840840405590 
  7.523354109592360   2.881718915120684   1.662739778092155 
  6.276842221401859   5.044532656593867   1.948687341136350 
  2.462434982076086  11.503407036447234   1.728901256187600 
  3.752254648963620  13.654473500745311   1.664803701207225 
 11.275978498277723   0.678837409875168   1.663061373920415 
 10.032455768287324   2.862752451296418   1.636906012700220 
  8.781288495438501   5.040469305330065   1.700395686229005 
  7.610542394089578   7.217346892084880   1.932910229569680 
  6.356960108405920   9.355484803576484   1.608420212567910 
  4.974109103634087  11.405943343055116   1.598719098254790 
  6.244183023274228  13.663440324413092   1.607263365756435 
 13.775628444543662   0.673832773169214   1.658559318705270 
 12.533705449156853   2.854452188922295   1.643574485358015 
 11.286468107132981   5.027398171441710   1.600835908151340 
 10.057345502897338   7.198318564979722   1.554708014217285 
  8.811250412055237   9.375189787153138   1.524640943104455 
  7.517709823034973  11.540520122930324   1.465257759036585 
  7.493911322725157  14.418216065267170   1.604778416062515 
 15.024725396710259   1.414407616900182   1.646778270877830 
 13.783935316124342   3.585957515051255   1.636504620261510 
 12.534377844767116   5.756317447469322   1.594627537358505 
 11.290829433268629   7.932014932970899   1.549095923441835 
 10.034323312364155  10.108023568256071   1.526037876234240 
  8.757050678947500  12.274475931278248   1.519797385219140 
 -7.521991568643519  14.459500336140717   1.604038018291845 
  0.001645153051484   1.453080083819740   1.618679322347580 
 -1.240047240180833   3.610727377697631   1.625392458599310 
 -2.492582642745555   5.768335768674977   1.614017576661390 
 -3.754356625022856   7.937655097614480   1.600904808358905 
 -5.015715656893004  10.115344588905849   1.597754807700705 
 -6.270023999697949  12.290142778202844   1.591052190554745 
 -5.019928712685211  14.470657089092587   1.633129604389095 
  2.500358609383911   1.468595411990285   1.600268288364525 
  1.278950878243795   3.675670408559025   1.593238659874545 
  0.019241372349587   5.802099594088082   1.603807548090255 
 -1.263709185289056   7.950503620026586   1.612552453548285 
 -2.542048086819961  10.119737783328796   1.634165301038760 
 -3.776646821364724  12.296148755761140   1.648594792951020 
 -2.517400740214751  14.466709520699977   1.660836763386090 
  5.004754872791016   1.465205401390774   1.638251076858135 
  3.759637951993093   3.650742997500631   1.608698135044575 
  2.580673238320764   5.944577706031588   1.648142968901820 
  1.237056748719522   7.988154104843321   1.629300944026485 
 -0.085091811161557  10.134332523575670   1.635421245717660 
 -1.282961951097293  12.297081202611375   1.667976082423050 
 -0.004023688501336  14.440090480556503   1.668151904050005 
  7.515982330788510   1.440063733325490   1.649608442024040 
  6.273304757402148   3.619953206397949   1.735229097705930 
  4.979902913061755   5.700122246303576   2.184718191430230 
  3.551087287534487   8.842749372055559   1.793565805180110 
  2.397411944216148  10.041803971645120   1.758777827094855 
  1.231624739886493  12.253389368086083   1.693733910621825 
  2.508348881118032  14.400718924698719   1.673689269605115 
 10.026769200997833   1.414338883570724   1.650346413019995 
  8.778330840899557   3.596720132235674   1.665629178842205 
  7.535928892367286   5.774715450158649   1.893664901558280 
  6.492952517588991   8.081089830522732   2.243971274580060 
  5.006535073457297   9.872217827369623   1.617599224112265 
  3.740883352804928  12.176136909588754   1.669100948800305 
  4.998726062326931  14.391343807496749   1.646324107911555 
 12.528130553499429   1.402606001376168   1.658085720667350 
 11.283687453831643   3.581576835359650   1.628597119846605 
 10.035526668865984   5.755639242215987   1.617246595941045 
  8.818882059058588   7.928324500755976   1.641065888571795 
  7.555938900446935  10.097230773650866   1.491750207623400 
  6.221023329959145  12.186912844068027   1.556383353286980 
