 N Al B 
 1.0
 17.527899999999772   0.000000000000000   0.000000000000000
 -8.763949999999658  15.179606674993195   0.000000000000000
  0.000000000000001   0.000000000000002  15.000000000000000
 N Al B 
  49   1  47
Cartesian
  8.804706889561416  13.725812259168826   1.660071871425045 
 16.347888617241871   0.742245361903084   1.661221812867405 
 15.098917655718276   2.894359706323863   1.661604949592520 
 13.845081769833616   5.051137507338656   1.660207329120060 
 12.580647368152999   7.217094234099536   1.660412167517835 
 11.317740749400199   9.389367758367451   1.661236644620805 
 10.044005621700549  11.557672148397982   1.661145785261130 
 -6.229049708799061  13.758416909466483   1.660252759017615 
  1.315724351053027   0.761878906354923   1.660625766862455 
  0.078137415046436   2.926282328109554   1.662141226943340 
 -1.195029072402921   5.070335168300954   1.661400986164515 
 -2.488850677564543   7.232945062041505   1.660018542224565 
 -3.751082528412760   9.409882727697129   1.660729858600545 
 -4.994666515516819  11.586090323423431   1.660978812802230 
 -3.740518519070847  13.771929774606091   1.660404132221280 
  3.799702359559921   0.772652502899487   1.660394240090715 
  2.597239296633048   2.984736582870401   1.661369249370870 
  1.323006293246249   5.115124632268034   1.661065895708775 
 -0.033964867340056   7.245834221326730   1.659472801126200 
 -1.302831036951115   9.422835657996989   1.660181221761375 
 -2.511939630325020  11.600337464559741   1.661344374976140 
 -1.243731095220613  13.771614362165137   1.661262985221630 
  6.293545022141807   0.759851590298197   1.660981556839035 
  5.071638851674729   2.951049627449569   1.661699600400135 
  3.913674422387288   5.249828274795770   1.661716056283320 
  2.403967914697024   7.295947774769928   1.661457189426120 
  1.113986681863350   9.438491431317230   1.660362103602870 
 -0.026608556031763  11.610450637445391   1.661269219369860 
  1.269250495164958  13.755665211269022   1.660960642492455 
  8.811388952564842   0.729988804573316   1.661089777518180 
  7.592283830513558   2.883189172145948   1.661599590251445 
  6.398132428615412   5.044567489259967   1.662581688141285 
  3.571329149048137   7.958096276307480   1.665634262357055 
  3.454410662157119   9.294282390139509   1.660050250395615 
  2.485918997925854  11.587292251413540   1.659363381687300 
  3.774695223712637  13.774228033819282   1.660595811101850 
 11.323742630708233   0.727946338034829   1.660624633416540 
 10.107858460569089   2.863272557748467   1.660287149335005 
  8.912031437125258   4.990871562372199   1.661442031509345 
  7.695226410785497   7.100577066955819   1.661432076216060 
  6.439695220669825   9.076944040881715   1.660404158038575 
  5.018765227923494  11.711544388453994   1.658869161153960 
  6.323582808586759  13.759223092080582   1.660210594211400 
 13.837664562976936   0.726324210028192   1.660727327679240 
 12.602400960826154   2.878190675990998   1.660128799191570 
 11.371549144128924   5.030760260672749   1.659774113972565 
 10.126767760581135   7.187212244938019   1.660807704620895 
  8.860720949175088   9.341297486784233   1.661701580845725 
  7.524672279526230  11.492312001199458   1.660619907129480 
  5.015064720392670   9.994015931945635   1.659986435551995 
  7.572246128737707  14.474387978230155   1.660701349827630 
 15.092006711642250   1.450499509462583   1.661634699587025 
 13.847444527544122   3.607669617298995   1.660898093509470 
 12.599665329503351   5.770713814574512   1.660130246813280 
 11.338928712715687   7.938765610406639   1.661144458071735 
 10.070272134690407  10.104160420823263   1.661826747355470 
  8.776452151917322  12.254092019560403   1.660848628649475 
 -7.474686054542564  14.479127056051677   1.660402001869830 
  0.068380888323521   1.478957352030980   1.661866095203550 
 -1.182046099491847   3.627447481371405   1.662371979127125 
 -2.448965292386716   5.787187221332325   1.660716775289085 
 -3.727469426878529   7.960792851525243   1.660525508403465 
 -4.988553786343527  10.135535289018092   1.661214177781860 
 -6.244076125042258  12.305359427021015   1.661183201292675 
 -4.983423750179730  14.500625534757113   1.660385723109135 
  2.567920891102425   1.520144433180456   1.660942976089215 
  1.329913219305671   3.671021309021543   1.661780843621310 
  0.045525407215111   5.805402126485957   1.660897539869220 
 -1.270817219328764   7.974723691181500   1.660072388027550 
 -2.528708458628650  10.152873715292221   1.661204465759025 
 -3.753969408830823  12.324652823227952   1.661208905807385 
 -2.489025105075712  14.498308126191660   1.661014770545805 
  5.050179957757078   1.503676070228213   1.661273289456690 
  3.864166885974189   3.759766900444758   1.661856346058220 
  2.584417888079463   5.856856372799466   1.661693824924845 
  1.162403891610384   8.004322127386434   1.660503543294375 
 -0.088425332729120  10.170969534999792   1.660861729148175 
 -1.265034222481645  12.332243696048142   1.662022454492535 
  0.021628905258435  14.474974290704225   1.661442340862325 
  7.563212778349218   1.454791470281568   1.661556449702565 
  6.347007672110013   3.625465543771904   1.662356676598245 
  5.291316859442230   5.986596233185908   1.662291512908080 
  2.343121745762554  10.137990045815677   1.660157075543955 
  1.243691575655740  12.315484870965436   1.661123786654565 
  2.528693178194024  14.476564753961336   1.661205355838625 
 10.076129592589389   1.435226566888096   1.661015512442775 
  8.862854947443212   3.570333194482803   1.661226611545920 
  7.681443867624781   5.689166071076649   1.662528526195845 
  6.363383127032352   7.604047170943302   1.661385667810575 
  3.750243043124794  12.341570553970943   1.660031711147175 
  5.056584528216588  14.463651726919412   1.660902578454435 
 12.585422410509993   1.438925394869107   1.660783560217860 
 11.354835172123311   3.591334779063033   1.660187706652995 
 10.130347164124268   5.745031357302418   1.660759021601505 
  8.876432754864039   7.890321312286956   1.661419550564040 
  7.578254046184551   9.975846781815925   1.661506288923900 
  6.305763797001358  12.314089708384250   1.660239040233825 
