B Al N                                  
   1.0000000000000000     
     8.7639499999999995  -15.1796066749929999    0.0000000000000000
     8.7639499999999995   15.1796066749929999    0.0000000000000000
     0.0000000000000000    0.0000000000000000   15.0000000000000000
   B    Al   N 
    47     1    49
Selective dynamics
Direct
  0.9087818805632095  0.9535417015827679  0.1107134233218423   T   T   T
  0.9088055610706404  0.0955558032904852  0.1107756466391345   T   T   T
  0.9088557985976115  0.2376655531689267  0.1107265395672985   T   T   T
  0.9089159855866554  0.3801622754877542  0.1106753497875520   T   T   T
  0.9084018721533873  0.5229888876821106  0.1107429638714495   T   T   T
  0.9073483916263716  0.6656404633638366  0.1107884498236978   T   T   T
  0.9043499493998095  0.8072733557548454  0.1107232419099648   T   T   T
  0.0504819087796825  0.9538539018869648  0.1106934667913222   T   T   T
  0.0526165321366831  0.0974305450527518  0.1107910730135700   T   T   T
  0.0520462622646806  0.2389684765249706  0.1108247986084747   T   T   T
  0.0509056308913314  0.3812475082681890  0.1107144516859386   T   T   T
  0.0495607841733620  0.5244399951837889  0.1107017005602307   T   T   T
  0.0492472139361725  0.6677073725312866  0.1107476118521235   T   T   T
  0.0490889640300999  0.8106507428346483  0.1107455467528446   T   T   T
  0.1933212938075872  0.9552701756525327  0.1106923815406090   T   T   T
  0.1965766970832949  0.1001438618093272  0.1107295317392813   T   T   T
  0.1967935896639119  0.2418390270328395  0.1107853895747538   T   T   T
  0.1938210446029324  0.3824474672357450  0.1107265026579475   T   T   T
  0.1901763274829072  0.5253577290852348  0.1106714925351701   T   T   T
  0.1901571730751220  0.6688495909461217  0.1107469643839352   T   T   T
  0.1917897875004027  0.8119217504845843  0.1107472603871587   T   T   T
  0.3355551431931360  0.9551175097360133  0.1107343180363869   T   T   T
  0.3376518431573309  0.0990589613040082  0.1107515526304459   T   T   T
  0.3443007615308288  0.2476853966604137  0.1107904230705483   T   T   T
  0.3403645326319846  0.3858371628593004  0.1107795883283225   T   T   T
  0.3299711560733080  0.5273076107151516  0.1107002362196250   T   T   T
  0.3299760191593037  0.6700417048193610  0.1107241152765450   T   T   T
  0.3340383043686723  0.8124218209398149  0.1108014969661686   T   T   T
  0.4780241334392172  0.9535803265937205  0.1107628227241552   T   T   T
  0.4794149342095247  0.0958385484834851  0.1107704299801705   T   T   T
  0.4815278030879040  0.2388379107177051  0.1108237784398831   T   T   T
  0.4990717545285918  0.3943841471892812  0.1108194341938724   T   T   T
  0.4676140911207776  0.6678690866553840  0.1106771383695974   T   T   T
  0.4766138602518419  0.8113177854109948  0.1107415857769714   T   T   T
  0.6211093020746635  0.9536851029091515  0.1107470237225747   T   T   T
  0.6221371663080263  0.0945496545211857  0.1107343674961853   T   T   T
  0.6232456699533079  0.2352059095420797  0.1107484407697284   T   T   T
  0.6256360106016920  0.3747900846764988  0.1108352350797227   T   T   T
  0.6135122751788330  0.5009383532624841  0.1107590445207049   T   T   T
  0.6204766186869257  0.8130362543782103  0.1106687807431447   T   T   T
  0.7649049655816383  0.9528344203243921  0.1107268385636291   T   T   T
  0.7654189249471757  0.0947933253922569  0.1107189040145235   T   T   T
  0.7661096465386912  0.2365894489861440  0.1106791804435330   T   T   T
  0.7671907396074671  0.3784703701688635  0.1107172681067666   T   T   T
  0.7663160953968002  0.5197974810036043  0.1107613033709358   T   T   T
  0.7609475106008374  0.6571874354458787  0.1107670859282599   T   T   T
  0.7653687438291032  0.8112258750861060  0.1106826026822553   T   T   T
  0.6153111615759349  0.6583843801703848  0.1106657623701326   T   T   T
  0.9544388256573086  0.9042271353302357  0.1106714580950034   T   T   T
  0.9571268763937252  0.0488975358713246  0.1107481208578271   T   T   T
  0.9567590533547159  0.1906742228764080  0.1107736633061683   T   T   T
  0.9562672864067870  0.3327581284210661  0.1106804886080044   T   T   T
  0.9554731979859165  0.4754467219489254  0.1106941445011889   T   T   T
  0.9549743410342409  0.6185514525771901  0.1107491096413873   T   T   T
  0.9537269580373886  0.7613947051367301  0.1107430523507418   T   T   T
  0.0978084081666518  0.9063750599106123  0.1106835172678413   T   T   T
  0.1001600501330417  0.0501909517596420  0.1107083844574968   T   T   T
  0.1008464964374106  0.1927772168781093  0.1108094151295563   T   T   T
  0.0988327353474846  0.3340228292379802  0.1107600657443008   T   T   T
  0.0962518100307950  0.4764909405694297  0.1106679028149708   T   T   T
  0.0959450816963709  0.6199029348500129  0.1107153239067035   T   T   T
  0.0966782016993944  0.7632668336861651  0.1107319208534821   T   T   T
  0.2402289403498637  0.9072652585454605  0.1106936088147521   T   T   T
  0.2422305860998193  0.0509006932420946  0.1106929493393812   T   T   T
  0.2464914659607477  0.1966280580765925  0.1107579499580583   T   T   T
  0.2439667545241954  0.3369734632646753  0.1107377263805848   T   T   T
  0.2367322651798702  0.4773400507974605  0.1106315200750798   T   T   T
  0.2360491369030472  0.6207562461760037  0.1106787481174248   T   T   T
  0.2387917735455405  0.7642054048521607  0.1107562916650757   T   T   T
  0.3826650177118167  0.9072444798489027  0.1107508656814424   T   T   T
  0.3840874002216303  0.0500573965167339  0.1107321037892690   T   T   T
  0.3865510499532010  0.1944088335510771  0.1107799733600091   T   T   T
  0.3962062876921889  0.3458474509385223  0.1107810704188881   T   T   T
  0.3774716495674798  0.4806414244441018  0.1107638126284082   T   T   T
  0.3744488644092116  0.6217876150154897  0.1106908069068584   T   T   T
  0.3809177508378100  0.7648716390374192  0.1107512812913235   T   T   T
  0.5255100444304994  0.9061937839226120  0.1107307094994966   T   T   T
  0.5267515324363305  0.0480901001062101  0.1107393185012122   T   T   T
  0.5281233847281590  0.1899383319922054  0.1107733060167628   T   T   T
  0.5311882670761991  0.3323253096913477  0.1108387792094190   T   T   T
  0.4658822891738979  0.5242623505797159  0.1110422841571370   T   T   T
  0.5032244080596364  0.6122874320222577  0.1106700166930415   T   T   T
  0.5234994094248724  0.7633460141297590  0.1106242254458198   T   T   T
  0.6690618663340943  0.9074166629436372  0.1107063874067901   T   T   T
  0.6700188068695273  0.0479555467819888  0.1107083088944357   T   T   T
  0.6709856652849762  0.1886262680617020  0.1106858099556665   T   T   T
  0.6728422958341699  0.3287879369492580  0.1107628021006230   T   T   T
  0.6729126987142856  0.4677708203502584  0.1107621384144039   T   T   T
  0.6663816718541312  0.5979696467257629  0.1106936105359048   T   T   T
  0.6720958319720887  0.7715314789906601  0.1105912774102644   T   T   T
  0.8139864995030505  0.9064281694958182  0.1106807062807597   T   T   T
  0.8133893986818632  0.0478486844606278  0.1107151551786158   T   T   T
  0.8137954416894643  0.1896090417634150  0.1106752532794384   T   T   T
  0.8144763454182701  0.3314157190225755  0.1106516075981708   T   T   T
  0.8144904229781732  0.4734781604570947  0.1107205136413928   T   T   T
  0.8132133095094299  0.6153846859664054  0.1107801053897146   T   T   T
  0.8078413105409006  0.7570889185246042  0.1107079938086317   T   T   T

  0.00000000E+00  0.00000000E+00  0.00000000E+00
  0.00000000E+00  0.00000000E+00  0.00000000E+00
  0.00000000E+00  0.00000000E+00  0.00000000E+00
  0.00000000E+00  0.00000000E+00  0.00000000E+00
  0.00000000E+00  0.00000000E+00  0.00000000E+00
  0.00000000E+00  0.00000000E+00  0.00000000E+00
  0.00000000E+00  0.00000000E+00  0.00000000E+00
  0.00000000E+00  0.00000000E+00  0.00000000E+00
  0.00000000E+00  0.00000000E+00  0.00000000E+00
  0.00000000E+00  0.00000000E+00  0.00000000E+00
  0.00000000E+00  0.00000000E+00  0.00000000E+00
  0.00000000E+00  0.00000000E+00  0.00000000E+00
  0.00000000E+00  0.00000000E+00  0.00000000E+00
  0.00000000E+00  0.00000000E+00  0.00000000E+00
  0.00000000E+00  0.00000000E+00  0.00000000E+00
  0.00000000E+00  0.00000000E+00  0.00000000E+00
  0.00000000E+00  0.00000000E+00  0.00000000E+00
  0.00000000E+00  0.00000000E+00  0.00000000E+00
  0.00000000E+00  0.00000000E+00  0.00000000E+00
  0.00000000E+00  0.00000000E+00  0.00000000E+00
  0.00000000E+00  0.00000000E+00  0.00000000E+00
  0.00000000E+00  0.00000000E+00  0.00000000E+00
  0.00000000E+00  0.00000000E+00  0.00000000E+00
  0.00000000E+00  0.00000000E+00  0.00000000E+00
  0.00000000E+00  0.00000000E+00  0.00000000E+00
  0.00000000E+00  0.00000000E+00  0.00000000E+00
  0.00000000E+00  0.00000000E+00  0.00000000E+00
  0.00000000E+00  0.00000000E+00  0.00000000E+00
  0.00000000E+00  0.00000000E+00  0.00000000E+00
  0.00000000E+00  0.00000000E+00  0.00000000E+00
  0.00000000E+00  0.00000000E+00  0.00000000E+00
  0.00000000E+00  0.00000000E+00  0.00000000E+00
  0.00000000E+00  0.00000000E+00  0.00000000E+00
  0.00000000E+00  0.00000000E+00  0.00000000E+00
  0.00000000E+00  0.00000000E+00  0.00000000E+00
  0.00000000E+00  0.00000000E+00  0.00000000E+00
  0.00000000E+00  0.00000000E+00  0.00000000E+00
  0.00000000E+00  0.00000000E+00  0.00000000E+00
  0.00000000E+00  0.00000000E+00  0.00000000E+00
  0.00000000E+00  0.00000000E+00  0.00000000E+00
  0.00000000E+00  0.00000000E+00  0.00000000E+00
  0.00000000E+00  0.00000000E+00  0.00000000E+00
  0.00000000E+00  0.00000000E+00  0.00000000E+00
  0.00000000E+00  0.00000000E+00  0.00000000E+00
  0.00000000E+00  0.00000000E+00  0.00000000E+00
  0.00000000E+00  0.00000000E+00  0.00000000E+00
  0.00000000E+00  0.00000000E+00  0.00000000E+00
  0.00000000E+00  0.00000000E+00  0.00000000E+00
  0.00000000E+00  0.00000000E+00  0.00000000E+00
  0.00000000E+00  0.00000000E+00  0.00000000E+00
  0.00000000E+00  0.00000000E+00  0.00000000E+00
  0.00000000E+00  0.00000000E+00  0.00000000E+00
  0.00000000E+00  0.00000000E+00  0.00000000E+00
  0.00000000E+00  0.00000000E+00  0.00000000E+00
  0.00000000E+00  0.00000000E+00  0.00000000E+00
  0.00000000E+00  0.00000000E+00  0.00000000E+00
  0.00000000E+00  0.00000000E+00  0.00000000E+00
  0.00000000E+00  0.00000000E+00  0.00000000E+00
  0.00000000E+00  0.00000000E+00  0.00000000E+00
  0.00000000E+00  0.00000000E+00  0.00000000E+00
  0.00000000E+00  0.00000000E+00  0.00000000E+00
  0.00000000E+00  0.00000000E+00  0.00000000E+00
  0.00000000E+00  0.00000000E+00  0.00000000E+00
  0.00000000E+00  0.00000000E+00  0.00000000E+00
  0.00000000E+00  0.00000000E+00  0.00000000E+00
  0.00000000E+00  0.00000000E+00  0.00000000E+00
  0.00000000E+00  0.00000000E+00  0.00000000E+00
  0.00000000E+00  0.00000000E+00  0.00000000E+00
  0.00000000E+00  0.00000000E+00  0.00000000E+00
  0.00000000E+00  0.00000000E+00  0.00000000E+00
  0.00000000E+00  0.00000000E+00  0.00000000E+00
  0.00000000E+00  0.00000000E+00  0.00000000E+00
  0.00000000E+00  0.00000000E+00  0.00000000E+00
  0.00000000E+00  0.00000000E+00  0.00000000E+00
  0.00000000E+00  0.00000000E+00  0.00000000E+00
  0.00000000E+00  0.00000000E+00  0.00000000E+00
  0.00000000E+00  0.00000000E+00  0.00000000E+00
  0.00000000E+00  0.00000000E+00  0.00000000E+00
  0.00000000E+00  0.00000000E+00  0.00000000E+00
  0.00000000E+00  0.00000000E+00  0.00000000E+00
  0.00000000E+00  0.00000000E+00  0.00000000E+00
  0.00000000E+00  0.00000000E+00  0.00000000E+00
  0.00000000E+00  0.00000000E+00  0.00000000E+00
  0.00000000E+00  0.00000000E+00  0.00000000E+00
  0.00000000E+00  0.00000000E+00  0.00000000E+00
  0.00000000E+00  0.00000000E+00  0.00000000E+00
  0.00000000E+00  0.00000000E+00  0.00000000E+00
  0.00000000E+00  0.00000000E+00  0.00000000E+00
  0.00000000E+00  0.00000000E+00  0.00000000E+00
  0.00000000E+00  0.00000000E+00  0.00000000E+00
  0.00000000E+00  0.00000000E+00  0.00000000E+00
  0.00000000E+00  0.00000000E+00  0.00000000E+00
  0.00000000E+00  0.00000000E+00  0.00000000E+00
  0.00000000E+00  0.00000000E+00  0.00000000E+00
  0.00000000E+00  0.00000000E+00  0.00000000E+00
  0.00000000E+00  0.00000000E+00  0.00000000E+00
  0.00000000E+00  0.00000000E+00  0.00000000E+00
