 O N B 
 1.0
 14.936314146199660   0.000000000000000   0.000000000000000
 -7.468157073099825  12.935227489513863   0.000000000000000
  0.000000000000001   0.000000000000001  13.341276283792837
 O N B 
   2 143 143
Cartesian
  3.487727719989721   4.888135535665898   5.002978606422314 
  5.274441955548143   5.919695480530504   5.002978606422314 
  1.244566821388737   0.718546061267999   1.669715064830880 
  4.979237829232973   7.186261976582378   1.676582719020340 
  6.223103741370410   0.718756141403276   1.670296118818331 
  9.957855589400420   7.186399770542150   1.668907796026080 
 11.202007459216448   0.718492026703371   1.669313358113046 
 -3.733994020058591   9.342157538045639   8.336599716767271 
  1.244627257233227   9.341730356215811   8.335661094026310 
  2.489215632846835   2.874587400421759   8.330635645070872 
  6.223806338071892   9.342301567845826   8.337304008226225 
  7.467988763665580   2.874782069069900   8.335340129831639 
 12.446773024252865   2.874441800870389   8.337080732089815 
 -1.244776193988131   9.341992539787483   1.669389989430293 
 -0.000225624008469   2.874364733587675   1.670123348767371 
  4.978495592914411   2.874939310955761   1.675275993561604 
  3.734242992958055   9.341819446480789   1.670617083012976 
  8.713146866707046   9.342298518871248   1.668907796026080 
  9.957466750334085   2.874531502183301   1.668905310378795 
 -4.978746844936343  11.498015396066904   8.336500801729574 
 -0.000272168031302  11.497822854392821   8.336625413426511 
  1.244687839554072   5.030172769836416   8.330635645070872 
  6.223718653553710   5.030757959813652   8.329374493824275 
  4.978764989003171  11.497895908541164   8.337051902465832 
 11.202346562580104   5.030421908578100   8.337203772814794 
 -1.244823137491533   5.030295949900456   1.669715064830880 
 -2.489527999706518  11.497965910104849   1.669389989430293 
  2.489158906641981  11.497667766329284   1.669463048442870 
  3.733993400858967   5.030317092807933   1.675874515248607 
  7.468260754839227  11.498048247407215   1.668753440029834 
  8.713187965572327   5.030566109586539   1.668653204618376 
  0.000010707118636   7.186053893468794   8.334831644314992 
  1.244566821388737   0.718546061268000   8.336242148013747 
  4.979237829232974   7.186261976582379   8.329374493824275 
  6.223103741370411   0.718756141403277   8.335661094026310 
  9.957855589400420   7.186399770542151   8.337049416818546 
 -2.489342760502782   7.186241041258461   1.669456411115054 
 11.202007459216448   0.718492026703372   8.336643854731594 
  3.733924887234023   0.718724822407010   1.671125568529635 
  2.489632583050121   7.185776497119540   1.675275993561604 
  7.468644963503920   7.186519177830518   1.669666287296418 
  8.712466132202319   0.718583460548198   1.669463048442870 
  2.489632583050122   7.185776497119541   8.330681219283038 
 13.691497515446597   0.718515740697510   1.668876480754813 
 -1.244776193988131   9.341992539787483   8.336567223414320 
 -0.000225624008468   2.874364733587676   8.335833864077243 
  4.978495592914412   2.874939310955761   8.330681219283038 
  3.734242992958056   9.341819446480789   8.335340129831639 
  8.713146866707046   9.342298518871248   8.337049416818546 
  9.957466750334085   2.874531502183302   8.337051902465832 
 -3.733994020058591   9.342157538045639   1.669357496077343 
  1.244627257233226   9.341730356215811   1.670296118818331 
  2.489215632846834   2.874587400421758   1.675321567773742 
  6.223806338071891   9.342301567845826   1.668653204618376 
  7.467988763665579   2.874782069069899   1.670617083012976 
 12.446773024252865   2.874441800870388   1.668876480754813 
 -1.244823137491533   5.030295949900457   8.336242148013747 
 -2.489527999706518  11.497965910104849   8.336567223414320 
  2.489158906641981  11.497667766329284   8.336494164401744 
  3.733993400858968   5.030317092807934   8.330082697596021 
  7.468260754839227  11.498048247407215   8.337203772814794 
 -4.978746844936344  11.498015396066904   1.669456411115054 
  8.713187965572327   5.030566109586540   8.337304008226225 
 -0.000272168031302  11.497822854392821   1.669331799418103 
  1.244687839554072   5.030172769836415   1.675321567773742 
  0.000010707118635   7.186053893468793   1.671125568529635 
  6.223718653553709   5.030757959813651   1.676582719020340 
  4.978764989003170  11.497895908541164   1.668905310378795 
 11.202346562580104   5.030421908578099   1.668753440029834 
 -2.489342760502782   7.186241041258462   8.336500801729574 
  3.733924887234023   0.718724822407010   8.334831644314992 
  7.468644963503920   7.186519177830519   8.336290925548210 
  8.712466132202319   0.718583460548198   8.336494164401744 
 13.691497515446597   0.718515740697511   8.337080732089815 
 -0.041309565735997   1.405737300466671   5.002978606422314 
  3.784374429326998   7.843997529079465   5.002978606422314 
  4.949453247013661   1.501110241169551   5.002978606422314 
  8.772942465269255   7.939555691578173   5.002978606422314 
  9.936709020388571   1.433535585702029   5.002978606422314 
 -4.978740202192911  10.060802314432712  11.673616748318732 
  0.000113259453490  10.060799204297506  11.673616748318732 
  1.244747654760985   3.593150391219194  11.673616748318732 
  4.978764191578271  10.060799113864821  11.673616748318732 
  6.223491309237708   3.593114550158785  11.673616748318732 
 11.202307085081781   3.593112186651493  11.673616748318732 
 -2.462190034277116  10.076433911593076   5.002978606422314 
 -1.292636260649799   3.573098712924631   5.002978606422314 
  3.578089128852193   3.557487074576270   5.002978606422314 
  2.504770313618601  10.028470854863720   5.002978606422314 
  7.502061157868575  10.086897506480486   5.002978606422314 
  8.705351137069627   3.606659362336083   5.002978606422314 
 -6.223452416586574  12.216685780672947  11.673616748318732 
 -1.244578441110527  12.216668469433706  11.673616748318732 
  0.000091014786200   5.748984123307159  11.673616748318732 
  4.978775139319033   5.748992164590179  11.673616748318732 
  3.734092148479642  12.216653532906456  11.673616748318732 
  9.957615166295730   5.748967921273492  11.673616748318732 
 -2.491549677467434   5.749670153381191   5.002978606422314 
 -3.723044926493714  12.240471488833339   5.002978606422314 
  1.240930505944365  12.214431552331552   5.002978606422314 
  2.380533053610618   5.631715041807469   5.002978606422314 
  6.208711827768264  12.200385518966071   5.002978606422314 
  7.569786439724711   5.790583788276271   5.002978606422314 
 -1.244583624772132   7.904865167840802  11.673616748318732 
  0.000018084940162   1.437287194811551  11.673616748318732 
  3.734088442730543   7.904886795456826  11.673616748318732 
  4.978862987901690   1.437314764502599  11.673616748318732 
  8.712872568920247   7.904874320750871  11.673616748318732 
 -3.696708403351351   7.922193926939969   5.002978606422314 
  9.957592691936359   1.437234390706829  11.673616748318732 
  2.450370038994351   1.411076208498173   5.002978606422314 
  1.285340535207293   7.847539622677205   5.002978606422314 
  6.310300192218611   7.972077960391120   5.002978606422314 
  7.447909987199783   1.466701791311617   5.002978606422314 
  1.244796902211195   7.904906943738419  11.673616748318732 
 12.415808052928716   1.419280126225750   5.002978606422314 
 -2.489295137612131  10.060784772886221  11.673616748318732 
 -1.244649425322339   3.593114561116474  11.673616748318732 
  3.734145817859593   3.593165100344148  11.673616748318732 
  2.489419913871461  10.060804957629774  11.673616748318732 
  7.468174157479202  10.060806230989272  11.673616748318732 
  8.712904019734694   3.593079208931333  11.673616748318732 
 -4.945075771372021  10.084429634862817   5.002978606422314 
  0.023599421373427  10.049700618606323   5.002978606422314 
  1.155311571992524   3.541514444757539   5.002978606422314 
  4.986748508081540  10.047468048902694   5.002978606422314 
  6.195902651035343   3.667108125194358   5.002978606422314 
 11.180814018239172   3.588451904645893   5.002978606422314 
 -2.489308736311529   5.748959203674289  11.673616748318732 
 -3.734020527678350  12.216696365911311  11.673616748318732 
  1.244751262852544  12.216637467360991  11.673616748318732 
  2.489459474786175   5.749025086034429  11.673616748318732 
  6.223494283795240  12.216668919854174  11.673616748318732 
 -6.223957186657538  12.214389593850095   5.002978606422314 
  7.468142756319309   5.748950754328175  11.673616748318732 
 -1.242447017305193  12.242557375139342   5.002978606422314 
 -0.042172828300882   5.728287094696956   5.002978606422314 
 -1.218505963751239   7.902482755827488   5.002978606422314 
  3.720447053607955  12.200417145324169   5.002978606422314 
  9.997154373882955   5.765269286723124   5.002978606422314 
 -3.734002478477624   7.904853334860188  11.673616748318732 
  2.489426113097188   1.437329255968032  11.673616748318732 
  6.223423085480247   7.904868465401854  11.673616748318732 
  7.468236941730177   1.437240903789347  11.673616748318732 
 12.446970368427342   1.437271697467438  11.673616748318732 
  1.206519827331425   0.694526995397786   5.002978606422314 
  5.107203043902221   7.243072689972997   5.002978606422314 
  6.208517557307887   0.751458409644536   5.002978606422314 
 10.002501306981499   7.204628816238564   5.002978606422314 
 11.175042822380611   0.702923986367601   5.002978606422314 
 -3.734083673002813   9.342105776894160  11.673616748318732 
  1.244712234354903   9.342588126665165  11.673616748318732 
  2.489338621422343   2.874228997686163  11.673616748318732 
  6.223548212880556   9.342386416566137  11.673616748318732 
  7.468647414898144   2.874322994809416  11.673616748318732 
 12.446628489896542   2.874326379961024  11.673616748318732 
 -1.224044742071596   9.344649895943938   5.002978606422314 
 -0.085351435921056   2.825217323164958   5.002978606422314 
  4.963502603250857   2.939943313186701   5.002978606422314 
  3.753708524721227   9.310538195562479   5.002978606422314 
  8.751256542157421   9.371848321618454   5.002978606422314 
  9.938834560242654   2.870481727076725   5.002978606422314 
 -4.978804051458457  11.497828476051589  11.673616748318732 
  0.000191616092219  11.498090620281374  11.673616748318732 
  1.244438947968014   5.030458482434980  11.673616748318732 
  6.223932152779937   5.030417444796096  11.673616748318732 
  4.978729681454074  11.498172095190984  11.673616748318732 
 11.202133251871768   5.030284149933673  11.673616748318732 
 -1.284647755738973   5.009355819444307   5.002978606422314 
 -2.476860935809850  11.514591196043662   5.002978606422314 
  2.484108889239190  11.479798890643096   5.002978606422314 
  7.469567915448030  11.507085817495824   5.002978606422314 
  8.772327516288540   5.044221161492437   5.002978606422314 
 -0.000197810731605   7.186548503309428  11.673616748318732 
  1.244445055086162   0.718299690412128  11.673616748318732 
  4.979049684190522   7.186617129844744  11.673616748318732 
  6.223889080930995   0.718400848524728  11.673616748318732 
  9.957604465403097   7.186248556871636  11.673616748318732 
 -2.468432424043256   7.189344647342197   5.002978606422314 
 11.202196727956515   0.718601301061416  11.673616748318732 
  3.722589633249182   0.733896675574197   5.002978606422314 
  2.538431205497985   7.140290186076780   5.002978606422314 
  7.544332864457719   7.230217607820601   5.002978606422314 
  8.694466223219617   0.723144455030923   5.002978606422314 
  2.489436328939496   7.186766057551242  11.673616748318732 
 13.651912427363895   0.692177443191717   5.002978606422314 
 -1.244692286496835   9.342305856156791  11.673616748318732 
 -0.000459358362914   2.874229786995219  11.673616748318732 
  4.979254450331532   2.874274569694511  11.673616748318732 
  3.734174748602537   9.342619392310667  11.673616748318732 
  8.712890349828307   9.342156645945350  11.673616748318732 
  9.957688281214471   2.874362831623919  11.673616748318732 
 -3.703941282945590   9.359508493907724   5.002978606422314 
  1.265655160260267   9.312747216152760   5.002978606422314 
  2.358748093697566   2.806853702616376   5.002978606422314 
  6.265201735270492   9.386690395181530   5.002978606422314 
  7.450631171589761   2.907280339534120   5.002978606422314 
 12.404170845479072   2.853329257732608   5.002978606422314 
 -1.245097384062765   5.030313682617050  11.673616748318732 
 -2.489214706025630  11.497881917939228  11.673616748318732 
  2.489458659111254  11.498253262909676  11.673616748318732 
  3.734374834164398   5.030537313429494  11.673616748318732 
  7.468034796999395  11.497932394237109  11.673616748318732 
 -4.965603874994719  11.514572475600653   5.002978606422314 
  8.713132384123933   5.030300142253321  11.673616748318732 
  0.002648537279097  11.499509124389986   5.002978606422314 
  1.120794966987734   4.951051415466573   5.002978606422314 
  0.007482290391509   7.168651348975940   5.002978606422314 
  6.336900781891739   5.113173729822616   5.002978606422314 
  4.965941685835545  11.483784846147133   5.002978606422314 
 11.210826908169725   5.027035157827845   5.002978606422314 
 -2.489533241245570   7.186284958964694  11.673616748318732 
  3.734248972995869   0.718296935731217  11.673616748318732 
  7.468407395252184   7.186382017736437  11.673616748318732 
  8.713123063349409   0.718550305511229  11.673616748318732 
 13.691325290828813   0.718448280727871  11.673616748318732 
 -0.001025375083016   1.435915826268769   1.665059786636141 
  3.735218028379665   7.906030360138534   1.668133598509715 
  4.979174275260855   1.435932203749485   1.666290174679154 
  8.713890172521875   7.905461834464190   1.666186404785798 
  9.957522890604373   1.437222493996017   1.666627572875976 
 -4.978609968627743  10.060370648551014   8.339338304760593 
 -0.000645879728584  10.060980736792382   8.339590858797795 
  1.242988401187116   3.592134685694738   8.341792205129195 
  4.979529911636020  10.061323183814856   8.339793116885692 
  6.225046458127498   3.593521017685822   8.337823614334914 
 11.201821545916786   3.593270481870482   8.339870457079423 
 -2.489825402484252  10.060478624319542   1.666539271766270 
 -1.246358795329927   3.592896582499958   1.665059786636141 
  3.734525224627704   3.593039056005933   1.663870889888232 
  2.489391769031748  10.061286575318887   1.666367138795406 
  7.468871850128473  10.060861014019741   1.665885266663094 
  8.713740737653653   3.593480306978525   1.666164095958934 
 -6.223638235450398  12.215411778447780   8.340043626999037 
 -1.244800798949387  12.215920269369580   8.339590858797795 
 -0.002060032521054   5.749578043073251   8.340393545680550 
  4.980080680152900   5.749745918942058   8.334940270692044 
  3.734046944959874  12.216599031535129   8.339329639968666 
  9.958011456116465   5.749544749316534   8.340071946181533 
 -2.490504964034912   5.749435280930298   1.665913585845590 
 -3.734178149513507  12.215195245596741   1.666210225866861 
  1.244536134535095  12.216513262968999   1.666568191574745 
  2.489540020571350   5.749416684103061   1.663870889888232 
  6.223388601893670  12.216169282993285   1.666086755765191 
  7.470006669347548   5.749931559094678   1.667309010289660 
 -1.245962444016266   7.905479223484651   8.339746986977767 
 -0.001025375083016   1.435915826268770   8.340897426208487 
  3.735218028379665   7.906030360138534   8.337823614334914 
  4.979174275260856   1.435932203749485   8.339667038165473 
  8.713890172521875   7.905461834464191   8.339770808058843 
 -3.734311195314529   7.905181953376884   1.666618908084035 
  9.957522890604373   1.437222493996017   8.339329639968666 
  2.488864939048807   1.435169434472160   1.665563667164063 
  1.243755213156300   7.905867806875903   1.666290174679154 
  6.225204443838319   7.905992259051489   1.667309010289660 
  7.468639962464013   1.436975720798599   1.666367138795406 
  1.243755213156300   7.905867806875904   8.339667038165473 
 12.446295953901725   1.436882324059544   1.666209496070431 
 -2.489825402484251  10.060478624319542   8.339417941078359 
 -1.246358795329927   3.592896582499959   8.340897426208487 
  3.734525224627705   3.593039056005934   8.342086322956396 
  2.489391769031748  10.061286575318887   8.339590074049235 
  7.468871850128473  10.060861014019741   8.340071946181533 
  8.713740737653653   3.593480306978526   8.339793116885692 
 -4.978609968627744  10.060370648551014   1.666618908084035 
 -0.000645879728585  10.060980736792382   1.666366354046833 
  1.242988401187115   3.592134685694737   1.664165007715433 
  4.979529911636019  10.061323183814856   1.666164095958934 
  6.225046458127498   3.593521017685821   1.668133598509715 
 11.201821545916786   3.593270481870481   1.666086755765191 
 -2.490504964034911   5.749435280930299   8.340043626999037 
 -3.734178149513507  12.215195245596741   8.339746986977767 
  1.244536134535096  12.216513262968999   8.339389021269882 
  2.489540020571350   5.749416684103061   8.342086322956396 
  6.223388601893671  12.216169282993285   8.339870457079423 
 -6.223638235450399  12.215411778447780   1.665913585845590 
  7.470006669347549   5.749931559094679   8.338648202554968 
 -1.244800798949387  12.215920269369580   1.666366354046833 
 -0.002060032521054   5.749578043073250   1.665563667164063 
 -1.245962444016266   7.905479223484650   1.666210225866861 
  4.980080680152899   5.749745918942057   1.671016942152583 
  3.734046944959873  12.216599031535129   1.666627572875976 
  9.958011456116465   5.749544749316533   1.665885266663094 
 -3.734311195314528   7.905181953376885   8.339338304760593 
  2.488864939048807   1.435169434472161   8.340393545680550 
  6.225204443838320   7.905992259051490   8.338648202554968 
  7.468639962464014   1.436975720798599   8.339590074049235 
 12.446295953901725   1.436882324059545   8.339747716774196 
Generated by cif2cell 2.0.0.  :  Failed to get author information, No journal information. Species order: O N B 
 1.0
 14.936314146199660   0.000000000000000   0.000000000000000
 -7.468157073099825  12.935227489513863   0.000000000000000
  0.000000000000001   0.000000000000001  13.341276283792837
 O N B 
   2 143 143
Cartesian
  3.487727719989721   4.888135535665898   5.002978606422314 
  5.274441955548143   5.919695480530504   5.002978606422314 
  1.244566821388737   0.718546061267999   1.669715064830880 
  4.979237829232973   7.186261976582378   1.676582719020340 
  6.223103741370410   0.718756141403276   1.670296118818331 
  9.957855589400420   7.186399770542150   1.668907796026080 
 11.202007459216448   0.718492026703371   1.669313358113046 
 -3.733994020058591   9.342157538045639   8.336599716767271 
  1.244627257233227   9.341730356215811   8.335661094026310 
  2.489215632846835   2.874587400421759   8.330635645070872 
  6.223806338071892   9.342301567845826   8.337304008226225 
  7.467988763665580   2.874782069069900   8.335340129831639 
 12.446773024252865   2.874441800870389   8.337080732089815 
 -1.244776193988131   9.341992539787483   1.669389989430293 
 -0.000225624008469   2.874364733587675   1.670123348767371 
  4.978495592914411   2.874939310955761   1.675275993561604 
  3.734242992958055   9.341819446480789   1.670617083012976 
  8.713146866707046   9.342298518871248   1.668907796026080 
  9.957466750334085   2.874531502183301   1.668905310378795 
 -4.978746844936343  11.498015396066904   8.336500801729574 
 -0.000272168031302  11.497822854392821   8.336625413426511 
  1.244687839554072   5.030172769836416   8.330635645070872 
  6.223718653553710   5.030757959813652   8.329374493824275 
  4.978764989003171  11.497895908541164   8.337051902465832 
 11.202346562580104   5.030421908578100   8.337203772814794 
 -1.244823137491533   5.030295949900456   1.669715064830880 
 -2.489527999706518  11.497965910104849   1.669389989430293 
  2.489158906641981  11.497667766329284   1.669463048442870 
  3.733993400858967   5.030317092807933   1.675874515248607 
  7.468260754839227  11.498048247407215   1.668753440029834 
  8.713187965572327   5.030566109586539   1.668653204618376 
  0.000010707118636   7.186053893468794   8.334831644314992 
  1.244566821388737   0.718546061268000   8.336242148013747 
  4.979237829232974   7.186261976582379   8.329374493824275 
  6.223103741370411   0.718756141403277   8.335661094026310 
  9.957855589400420   7.186399770542151   8.337049416818546 
 -2.489342760502782   7.186241041258461   1.669456411115054 
 11.202007459216448   0.718492026703372   8.336643854731594 
  3.733924887234023   0.718724822407010   1.671125568529635 
  2.489632583050121   7.185776497119540   1.675275993561604 
  7.468644963503920   7.186519177830518   1.669666287296418 
  8.712466132202319   0.718583460548198   1.669463048442870 
  2.489632583050122   7.185776497119541   8.330681219283038 
 13.691497515446597   0.718515740697510   1.668876480754813 
 -1.244776193988131   9.341992539787483   8.336567223414320 
 -0.000225624008468   2.874364733587676   8.335833864077243 
  4.978495592914412   2.874939310955761   8.330681219283038 
  3.734242992958056   9.341819446480789   8.335340129831639 
  8.713146866707046   9.342298518871248   8.337049416818546 
  9.957466750334085   2.874531502183302   8.337051902465832 
 -3.733994020058591   9.342157538045639   1.669357496077343 
  1.244627257233226   9.341730356215811   1.670296118818331 
  2.489215632846834   2.874587400421758   1.675321567773742 
  6.223806338071891   9.342301567845826   1.668653204618376 
  7.467988763665579   2.874782069069899   1.670617083012976 
 12.446773024252865   2.874441800870388   1.668876480754813 
 -1.244823137491533   5.030295949900457   8.336242148013747 
 -2.489527999706518  11.497965910104849   8.336567223414320 
  2.489158906641981  11.497667766329284   8.336494164401744 
  3.733993400858968   5.030317092807934   8.330082697596021 
  7.468260754839227  11.498048247407215   8.337203772814794 
 -4.978746844936344  11.498015396066904   1.669456411115054 
  8.713187965572327   5.030566109586540   8.337304008226225 
 -0.000272168031302  11.497822854392821   1.669331799418103 
  1.244687839554072   5.030172769836415   1.675321567773742 
  0.000010707118635   7.186053893468793   1.671125568529635 
  6.223718653553709   5.030757959813651   1.676582719020340 
  4.978764989003170  11.497895908541164   1.668905310378795 
 11.202346562580104   5.030421908578099   1.668753440029834 
 -2.489342760502782   7.186241041258462   8.336500801729574 
  3.733924887234023   0.718724822407010   8.334831644314992 
  7.468644963503920   7.186519177830519   8.336290925548210 
  8.712466132202319   0.718583460548198   8.336494164401744 
 13.691497515446597   0.718515740697511   8.337080732089815 
 -0.041309565735997   1.405737300466671   5.002978606422314 
  3.784374429326998   7.843997529079465   5.002978606422314 
  4.949453247013661   1.501110241169551   5.002978606422314 
  8.772942465269255   7.939555691578173   5.002978606422314 
  9.936709020388571   1.433535585702029   5.002978606422314 
 -4.978740202192911  10.060802314432712  11.673616748318732 
  0.000113259453490  10.060799204297506  11.673616748318732 
  1.244747654760985   3.593150391219194  11.673616748318732 
  4.978764191578271  10.060799113864821  11.673616748318732 
  6.223491309237708   3.593114550158785  11.673616748318732 
 11.202307085081781   3.593112186651493  11.673616748318732 
 -2.462190034277116  10.076433911593076   5.002978606422314 
 -1.292636260649799   3.573098712924631   5.002978606422314 
  3.578089128852193   3.557487074576270   5.002978606422314 
  2.504770313618601  10.028470854863720   5.002978606422314 
  7.502061157868575  10.086897506480486   5.002978606422314 
  8.705351137069627   3.606659362336083   5.002978606422314 
 -6.223452416586574  12.216685780672947  11.673616748318732 
 -1.244578441110527  12.216668469433706  11.673616748318732 
  0.000091014786200   5.748984123307159  11.673616748318732 
  4.978775139319033   5.748992164590179  11.673616748318732 
  3.734092148479642  12.216653532906456  11.673616748318732 
  9.957615166295730   5.748967921273492  11.673616748318732 
 -2.491549677467434   5.749670153381191   5.002978606422314 
 -3.723044926493714  12.240471488833339   5.002978606422314 
  1.240930505944365  12.214431552331552   5.002978606422314 
  2.380533053610618   5.631715041807469   5.002978606422314 
  6.208711827768264  12.200385518966071   5.002978606422314 
  7.569786439724711   5.790583788276271   5.002978606422314 
 -1.244583624772132   7.904865167840802  11.673616748318732 
  0.000018084940162   1.437287194811551  11.673616748318732 
  3.734088442730543   7.904886795456826  11.673616748318732 
  4.978862987901690   1.437314764502599  11.673616748318732 
  8.712872568920247   7.904874320750871  11.673616748318732 
 -3.696708403351351   7.922193926939969   5.002978606422314 
  9.957592691936359   1.437234390706829  11.673616748318732 
  2.450370038994351   1.411076208498173   5.002978606422314 
  1.285340535207293   7.847539622677205   5.002978606422314 
  6.310300192218611   7.972077960391120   5.002978606422314 
  7.447909987199783   1.466701791311617   5.002978606422314 
  1.244796902211195   7.904906943738419  11.673616748318732 
 12.415808052928716   1.419280126225750   5.002978606422314 
 -2.489295137612131  10.060784772886221  11.673616748318732 
 -1.244649425322339   3.593114561116474  11.673616748318732 
  3.734145817859593   3.593165100344148  11.673616748318732 
  2.489419913871461  10.060804957629774  11.673616748318732 
  7.468174157479202  10.060806230989272  11.673616748318732 
  8.712904019734694   3.593079208931333  11.673616748318732 
 -4.945075771372021  10.084429634862817   5.002978606422314 
  0.023599421373427  10.049700618606323   5.002978606422314 
  1.155311571992524   3.541514444757539   5.002978606422314 
  4.986748508081540  10.047468048902694   5.002978606422314 
  6.195902651035343   3.667108125194358   5.002978606422314 
 11.180814018239172   3.588451904645893   5.002978606422314 
 -2.489308736311529   5.748959203674289  11.673616748318732 
 -3.734020527678350  12.216696365911311  11.673616748318732 
  1.244751262852544  12.216637467360991  11.673616748318732 
  2.489459474786175   5.749025086034429  11.673616748318732 
  6.223494283795240  12.216668919854174  11.673616748318732 
 -6.223957186657538  12.214389593850095   5.002978606422314 
  7.468142756319309   5.748950754328175  11.673616748318732 
 -1.242447017305193  12.242557375139342   5.002978606422314 
 -0.042172828300882   5.728287094696956   5.002978606422314 
 -1.218505963751239   7.902482755827488   5.002978606422314 
  3.720447053607955  12.200417145324169   5.002978606422314 
  9.997154373882955   5.765269286723124   5.002978606422314 
 -3.734002478477624   7.904853334860188  11.673616748318732 
  2.489426113097188   1.437329255968032  11.673616748318732 
  6.223423085480247   7.904868465401854  11.673616748318732 
  7.468236941730177   1.437240903789347  11.673616748318732 
 12.446970368427342   1.437271697467438  11.673616748318732 
  1.206519827331425   0.694526995397786   5.002978606422314 
  5.107203043902221   7.243072689972997   5.002978606422314 
  6.208517557307887   0.751458409644536   5.002978606422314 
 10.002501306981499   7.204628816238564   5.002978606422314 
 11.175042822380611   0.702923986367601   5.002978606422314 
 -3.734083673002813   9.342105776894160  11.673616748318732 
  1.244712234354903   9.342588126665165  11.673616748318732 
  2.489338621422343   2.874228997686163  11.673616748318732 
  6.223548212880556   9.342386416566137  11.673616748318732 
  7.468647414898144   2.874322994809416  11.673616748318732 
 12.446628489896542   2.874326379961024  11.673616748318732 
 -1.224044742071596   9.344649895943938   5.002978606422314 
 -0.085351435921056   2.825217323164958   5.002978606422314 
  4.963502603250857   2.939943313186701   5.002978606422314 
  3.753708524721227   9.310538195562479   5.002978606422314 
  8.751256542157421   9.371848321618454   5.002978606422314 
  9.938834560242654   2.870481727076725   5.002978606422314 
 -4.978804051458457  11.497828476051589  11.673616748318732 
  0.000191616092219  11.498090620281374  11.673616748318732 
  1.244438947968014   5.030458482434980  11.673616748318732 
  6.223932152779937   5.030417444796096  11.673616748318732 
  4.978729681454074  11.498172095190984  11.673616748318732 
 11.202133251871768   5.030284149933673  11.673616748318732 
 -1.284647755738973   5.009355819444307   5.002978606422314 
 -2.476860935809850  11.514591196043662   5.002978606422314 
  2.484108889239190  11.479798890643096   5.002978606422314 
  7.469567915448030  11.507085817495824   5.002978606422314 
  8.772327516288540   5.044221161492437   5.002978606422314 
 -0.000197810731605   7.186548503309428  11.673616748318732 
  1.244445055086162   0.718299690412128  11.673616748318732 
  4.979049684190522   7.186617129844744  11.673616748318732 
  6.223889080930995   0.718400848524728  11.673616748318732 
  9.957604465403097   7.186248556871636  11.673616748318732 
 -2.468432424043256   7.189344647342197   5.002978606422314 
 11.202196727956515   0.718601301061416  11.673616748318732 
  3.722589633249182   0.733896675574197   5.002978606422314 
  2.538431205497985   7.140290186076780   5.002978606422314 
  7.544332864457719   7.230217607820601   5.002978606422314 
  8.694466223219617   0.723144455030923   5.002978606422314 
  2.489436328939496   7.186766057551242  11.673616748318732 
 13.651912427363895   0.692177443191717   5.002978606422314 
 -1.244692286496835   9.342305856156791  11.673616748318732 
 -0.000459358362914   2.874229786995219  11.673616748318732 
  4.979254450331532   2.874274569694511  11.673616748318732 
  3.734174748602537   9.342619392310667  11.673616748318732 
  8.712890349828307   9.342156645945350  11.673616748318732 
  9.957688281214471   2.874362831623919  11.673616748318732 
 -3.703941282945590   9.359508493907724   5.002978606422314 
  1.265655160260267   9.312747216152760   5.002978606422314 