 N Se B 
 1.0
 14.936314146199660   0.000000000000000   0.000000000000000
 -7.468157073099825  12.935227489513863   0.000000000000000
  0.000000000000001   0.000000000000001  13.341276283792837
 N Se B 
 143   1 143
Cartesian
  1.244175347213350   0.718275804225275   1.666911634399829 
  4.977968675564375   7.186328756673485   1.656174444344885 
  6.223670255171562   0.718490960271230   1.666764704609111 
  9.956972293783778   7.185899142418601   1.667138159519015 
 11.202173161383303   0.718587694894011   1.665603023994940 
 -3.734370646140319   9.341940092875978   8.339703231765387 
  1.244680860536838   9.342353562125240   8.339192508235490 
  2.488428486482808   2.873821639094869   8.341693876245088 
  6.222785645912614   9.341864504412255   8.339268314361714 
  7.468241287022459   2.873983707650932   8.340944895308231 
 12.446552558179855   2.874260954242303   8.339972661418702 
 -1.244705960170509   9.342104827342482   1.666489172133835 
 -0.000710836206226   2.874084596194695   1.666757547028446 
  4.978855740738669   2.874121469727397   1.661939537936444 
  3.733677853366276   9.342437318832365   1.665012317536410 
  8.712271662225884   9.341783876489957   1.667138159519015 
  9.957472179551059   2.874197573722425   1.665981472376017 
 -4.979088050455822  11.497829499615531   8.339626866095537 
  0.000151843247785  11.498067657418897   8.339602809367312 
  1.243631097609744   5.029873961752104   8.341693876245088 
  6.223141909974799   5.029625450449746   8.349782768499743 
  4.978478513081492  11.498067574611426   8.339975740468624 
 11.201780681928733   5.030092298543426   8.339458069112142 
 -1.245252924043785   5.030092051841020   1.666911634399829 
 -2.489395638922550  11.497970590597614   1.666489172133835 
  2.489369286017293  11.498243554714891   1.665981338500859 
  3.731929735705946   5.029125635176318   1.638680010749268 
  7.467692363850171  11.497722985404955   1.666499143732498 
  8.712299111456165   5.029900695963922   1.666688898482914 
 -0.000174433210235   7.186192923594290   8.338906030644537 
  1.244175347213351   0.718275804225275   8.339045578444786 
  4.977968675564369   7.186328756673499   8.349782768499743 
  6.223670255171563   0.718490960271231   8.339192508235490 
  9.956972293783778   7.185899142418601   8.338819053325613 
 -2.489674354311862   7.186038496836330   1.666330346749090 
 11.202173161383303   0.718587694894012   8.340354188849702 
  3.733952720690159   0.718494971116194   1.667051182200077 
  2.489104385682226   7.186497314898646   1.661939537936444 
  7.467324908361777   7.185757043638857   1.667177010197679 
  8.713069969259122   0.718477760238834   1.665981338500859 
  2.489104385682226   7.186497314898647   8.344017674908184 
 13.691230664635981   0.718415234791654   1.665984551425927 
 -1.244705960170509   9.342104827342482   8.339468040710793 
 -0.000710836206225   2.874084596194696   8.339199665816182 
  4.978855740738670   2.874121469727398   8.344017674908184 
  3.733677853366276   9.342437318832365   8.340944895308231 
  8.712271662225884   9.341783876489957   8.338819053325613 
  9.957472179551059   2.874197573722426   8.339975740468624 
 -3.734370646140320   9.341940092875978   1.666253981079240 
  1.244680860536838   9.342353562125240   1.666764704609111 
  2.488428486482808   2.873821639094868   1.664263336599554 
  6.222785645912613   9.341864504412255   1.666688898482914 
  7.468241287022458   2.873983707650931   1.665012317536410 
 12.446552558179855   2.874260954242303   1.665984551425927 
 -1.245252924043785   5.030092051841021   8.339045578444786 
 -2.489395638922549  11.497970590597614   8.339468040710793 
  2.489369286017294  11.498243554714891   8.339975874343770 
  3.731929735705946   5.029125635176319   8.367277202095361 
  7.467692363850172  11.497722985404955   8.339458069112142 
 -4.979088050455823  11.497829499615531   1.666330346749090 
  8.712299111456165   5.029900695963923   8.339268314361714 
  0.000151843247784  11.498067657418897   1.666354403477316 
  1.243631097609743   5.029873961752103   1.664263336599554 
 -0.000174433210235   7.186192923594289   1.667051182200077 
  6.223141909974798   5.029625450449745   1.656174444344885 
  4.978478513081491  11.498067574611426   1.665981472376017 
 11.201780681928733   5.030092298543425   1.666499143732498 
 -2.489674354311861   7.186038496836331   8.339626866095537 
  3.733952720690159   0.718494971116195   8.338906030644537 
  7.467324908361771   7.185757043638871   8.338780202646962 
  8.713069969259122   0.718477760238835   8.339975874343770 
 13.691230664635981   0.718415234791655   8.339972661418702 
  0.030054155745143   1.456586398614070   5.002978606422314 
  3.673518405939346   8.030493548882742   5.002978606422314 
  5.014746221575109   1.351195782365545   5.002978606422314 
  8.686071564560052   7.889400753668944   5.002978606422314 
  9.988239768771956   1.438577389259658   5.002978606422314 
 -4.978794805989350  10.060683890860684  11.673616748318732 
 -0.000096731803290  10.060720576303964  11.673616748318732 
  1.244665991568529   3.593103242953038  11.673616748318732 
  4.978794877654244  10.060667471668493  11.673616748318732 
  6.223409758045306   3.593113481197742  11.673616748318732 
 11.202214190623264   3.593196459393790  11.673616748318732 
 -2.507813482644092  10.050093201397061   5.002978606422314 
 -1.212917789154060   3.609476959562209   5.002978606422314 
  3.816273355462210   3.455591721371048   5.002978606422314 
  2.465852101436516  10.119805504077707   5.002978606422314 
  7.466151089675550  10.070952185693741   5.002978606422314 
  8.752082616475661   3.573044896775420   5.002978606422314 
 -6.223461244086351  12.216507709910376  11.673616748318732 
 -1.244751530578781  12.216525925667545  11.673616748318732 
 -0.000119143071789   5.749044000395255  11.673616748318732 
  4.978804713694010   5.749009239363540  11.673616748318732 
  3.734050440925034  12.216555964402142  11.673616748318732 
  9.957540580703817   5.749059948322508  11.673616748318732 
 -2.488510041701809   5.755963702646591   5.002978606422314 
 -3.737360366592429  12.186860055816666   5.002978606422314 
  1.252694634705751  12.221223575238712   5.002978606422314 
  2.411381202512316   5.888936309435107   5.002978606422314 
  6.242618147446295  12.240911807272708   5.002978606422314 
  7.481693659025952   5.718545568695199   5.002978606422314 
 -1.244835815564320   7.904891203463346  11.673616748318732 
  0.000014310398695   1.437194589948328  11.673616748318732 
  3.734046741386931   7.904816704533008  11.673616748318732 
  4.978727965744489   1.437127619100554  11.673616748318732 
  8.712908702036085   7.904895182215028  11.673616748318732 
 -3.755304174114285   7.898847184849912   5.002978606422314 
  9.957487341355701   1.437247055157179  11.673616748318732 
  2.507159764517012   1.415363088837249   5.002978606422314 
  1.188157292769161   7.979042226738060   5.002978606422314 
  6.203866873668623   7.931806484206519   5.002978606422314 
  7.507549007573794   1.387330306285065   5.002978606422314 
  1.244567318460216   7.904883583821245  11.673616748318732 
 12.477390476678163   1.454834755154836   5.002978606422314 
 -2.489473372341605  10.060681869017172  11.673616748318732 
 -1.244731510757144   3.593157594699300  11.673616748318732 
  3.734068776893797   3.592992923136769  11.673616748318732 
  2.489314464304556  10.060684553060952  11.673616748318732 
  7.468216562445529  10.060695624447412  11.673616748318732 
  8.712805357286436   3.593171604950858  11.673616748318732 
 -4.994592528499080  10.045357579872816   5.002978606422314 
 -0.023997923408071  10.080109645548896   5.002978606422314 
  1.290704604674477   3.619683648622865   5.002978606422314 
  4.981003266674362  10.104745930005093   5.002978606422314 
  6.301984930195831   3.477855982876505   5.002978606422314 
 11.232863973272847   3.597552494682548   5.002978606422314 
 -2.489467363865483   5.749040594216529  11.673616748318732 
 -3.734124075563910  12.216464944467392  11.673616748318732 
  1.244603686760960  12.216552264264797  11.673616748318732 
  2.489271844467742   5.749044455204593  11.673616748318732 
  6.223520818901636  12.216546334522116  11.673616748318732 
 -6.216986995230913  12.213875221008665   5.002978606422314 
  7.468187901562971   5.749065309661762  11.673616748318732 
 -1.239910699859315  12.186132351934603   5.002978606422314 
 -0.010065418262928   5.775324999503988   5.002978606422314 
 -1.272092546726331   7.916890937543998   5.002978606422314 
  3.750578757761445  12.242523180721388   5.002978606422314 
  9.965390286913605   5.742142915809744   5.002978606422314 
 -3.734132338197626   7.904865258371341  11.673616748318732 
  2.489372889247591   1.437117315380160  11.673616748318732 
  6.223544865931089   7.904850284662958  11.673616748318732 
  7.468079943531409   1.437209784069974  11.673616748318732 
 12.446935987306096   1.437251847517840  11.673616748318732 
  4.539183581182431   5.495193860166523   5.002978606422314 
  1.267113524830068   0.721207956840454   5.002978606422314 
  4.898012278708211   7.338319195292349   5.002978606422314 
  6.251978675564422   0.673345846081581   5.002978606422314 
  9.939407276720351   7.177908038967144   5.002978606422314 
 11.234036741791288   0.736984141619914   5.002978606422314 
 -3.734069464211936   9.342113980343424  11.673616748318732 
  1.244732589212236   9.341471397342556  11.673616748318732 
  2.489761797273185   2.875040190511587  11.673616748318732 
  6.223309155906647   9.341586239213669  11.673616748318732 
  7.467347716881815   2.874837771588870  11.673616748318732 
 12.447312351982305   2.874748268829888  11.673616748318732 
 -1.261533864557642   9.346796222971676   5.002978606422314 
  0.053780005435812   2.905544898285104   5.002978606422314 
  5.012695904822309   2.780067192174751   5.002978606422314 
  3.708245517573704   9.429356226951791   5.002978606422314 
  8.696568655100931   9.330567677220865   5.002978606422314 
  9.995775384814237   2.872164951952611   5.002978606422314 
 -4.978714871926320  11.498220006173218  11.673616748318732 
 -0.000218184878041  11.497854021580871  11.673616748318732 
  1.245353049487628   5.030419367059352  11.673616748318732 
  6.222524416792745   5.030438285127414  11.673616748318732 
  4.978840421103963  11.497680913583187  11.673616748318732 
 11.202340863181121   5.030506468964000  11.673616748318732 
 -1.231244516582908   5.048491020066028   5.002978606422314 
 -2.493746723322030  11.481051500091304   5.002978606422314 
  2.496305671412820  11.533599707383450   5.002978606422314 
  7.476453450816459  11.508375671640579   5.002978606422314 
  8.733127314661971   5.011793046139895   5.002978606422314 
  0.000396879133910   7.185902540480924  11.673616748318732 
  1.245093766001784   0.719081211052171  11.673616748318732 
  4.978363864453272   7.185387574552355  11.673616748318732 
  6.222932142397133   0.718976841009571  11.673616748318732 
  9.957427517282653   7.186220141059662  11.673616748318732 
 -2.504578700982337   7.189671029720842   5.002978606422314 
 11.202278706559103   0.718648631429679  11.673616748318732 
  3.744622560093815   0.688939584855096   5.002978606422314 
  2.424571074028847   7.262830895439635   5.002978606422314 
  7.433905332173504   7.166462242330354   5.002978606422314 
  8.747157488347929   0.706806769867535   5.002978606422314 
  2.489492732328305   7.185415517434663  11.673616748318732 
 13.725148556822882   0.744107269916939   5.002978606422314 
 -1.244613875416325   9.341910705541292  11.673616748318732 
  0.000732538936213   2.874917929221725  11.673616748318732 
  4.978113049976150   2.874998686520369  11.673616748318732 
  3.733970709362665   9.341236432421537  11.673616748318732 
  8.712777266953061   9.342017612283854  11.673616748318732 
  9.957318275289186   2.874704325777841  11.673616748318732 
 -3.750660946487284   9.332534883585486   5.002978606422314 
  1.219738254988297   9.389441930421265   5.002978606422314 
  2.552091635406809   2.879991948165425   5.002978606422314 
  6.217518062765060   9.368956082415707   5.002978606422314 
  7.530799101626792   2.808499204717288   5.002978606422314 
 12.485761459366731   2.890788692956325   5.002978606422314 
 -1.244096211877088   5.030484722429656  11.673616748318732 
 -2.489517710956718  11.498147399234638  11.673616748318732 
  2.489264525273803  11.497596774403542  11.673616748318732 
  3.733923061889015   5.030276482584705  11.673616748318732 
  7.468331136582065  11.498001031389984  11.673616748318732 
 -4.983394358033006  11.483105690329859   5.002978606422314 
  8.712319881722202   5.030493201517208  11.673616748318732 
  0.003227257504922  11.499843248668151   5.002978606422314 
  1.280806316476048   5.081922711469923   5.002978606422314 
 -0.020435228829173   7.210210968702693   5.002978606422314 
  6.314791292522981   4.884385960267821   5.002978606422314 
  4.995869813624128  11.532255434300627   5.002978606422314 
 11.215386722310473   5.032353279303183   5.002978606422314 
 -2.489149576447824   7.186166425644209  11.673616748318732 
  3.733986897709234   0.719134933676389  11.673616748318732 
  7.467705947949365   7.185977036947323  11.673616748318732 
  8.712457460707085   0.718710424929315  11.673616748318732 
 13.692032588349695   0.718829578232409  11.673616748318732 
  0.000471434705334   1.438216965990640   1.670280992969118 
  3.733012353503618   7.902629830861787   1.666887360559395 
  4.978047377715766   1.439567161796066   1.671644426125991 
  8.711050550586577   7.903822377975458   1.669446863852626 
  9.957320135094312   1.437126095284356   1.668012867012425 
 -4.979277940104472  10.061001547075286   8.337512943708981 
  0.000796256299614  10.060279467752249   8.336726365668426 
  1.246065363222570   3.593911170554186   8.332491270250149 
  4.977575568329369  10.059906447267323   8.337580112549000 
  6.220998675949493   3.593311111849062   8.339069852285233 
 11.202254388649193   3.592694303657594   8.337543187652003 
 -2.489012071129472  10.060948201396181   1.668440247248495 
 -1.243617544978962   3.593042287940380   1.670280992969118 
  3.732905705963706   3.594984068488056   1.671580386307701 
  2.489395364810956  10.059897132897504   1.669074220396394 
  7.466848618956712  10.060310418280334   1.668920435144976 
  8.711536636159694   3.592496164301015   1.668377100295628 
 -6.223730477600712  12.217671302633374   8.336678121631763 
 -1.244687047738931  12.217519830325779   8.336726365668426 
  0.002056322211688   5.747893137094169   8.333161578428244 
  4.974444298734954   5.746491752613152   8.336301948273345 
  3.733862083471652  12.216471639468489   8.337944345832202 
  9.956523010633026   5.748067877593791   8.337036777699652 
 -2.488594279764880   5.748225634792029   1.669279091212851 
 -3.734195241170099  12.218316731878634   1.669684884827434 
  1.244734056352364  12.216627533183487   1.668433535778897 
  2.490414691459539   5.747041633557087   1.671580386307701 
  6.223106038290389  12.216832224901863   1.668414025192625 
  7.464806519968505   5.747304517708026   1.666969258004479 
 -1.243267703426883   7.903903678534915   8.336272328017193 
  0.000471434705334   1.438216965990641   8.335676219875523 
  3.733012353503618   7.902629830861787   8.339069852285233 
  4.978047377715767   1.439567161796067   8.334312786718623 
  8.711050550586577   7.903822377975459   8.336510348992002 
 -3.734098806903665   7.904288023846897   1.668444269135646 
  9.957320135094312   1.437126095284357   8.337944345832202 
  2.489463945034297   1.439576755231257   1.672795634416383 
  1.246339730393786   7.903074405951103   1.671644426125991 
  6.220329284571157   7.902802318279101   1.666969258004479 
  7.467438467919604   1.437673556045430   1.669074220396394 
  1.246339730393787   7.903074405951104   8.334312786718623 
 12.447149734111617   1.437375254293537   1.668237457579590 
 -2.489012071129472  10.060948201396181   8.337516965596146 
 -1.243617544978961   3.593042287940380   8.335676219875523 
  3.732905705963706   3.594984068488057   8.334376826536941 
  2.489395364810956  10.059897132897504   8.336882992448247 
  7.466848618956713  10.060310418280334   8.337036777699652 
  8.711536636159694   3.592496164301016   8.337580112549000 
 -4.979277940104473  10.061001547075286   1.668444269135646 
  0.000796256299614  10.060279467752249   1.669230847176189 
  1.246065363222570   3.593911170554185   1.673465942594466 
  4.977575568329368  10.059906447267323   1.668377100295628 
  6.220998675949492   3.593311111849061   1.666887360559395 
 11.202254388649193   3.592694303657593   1.668414025192625 
 -2.488594279764879   5.748225634792030   8.336678121631763 
 -3.734195241170099  12.218316731878634   8.336272328017193 
  1.244734056352364  12.216627533183487   8.337523677065731 
  2.490414691459539   5.747041633557088   8.334376826536941 
  6.223106038290390  12.216832224901863   8.337543187652003 
 -6.223730477600713  12.217671302633374   1.669279091212851 
  7.464806519968506   5.747304517708027   8.338987954840148 
 -1.244687047738932  12.217519830325779   1.669230847176189 
  0.002056322211688   5.747893137094168   1.672795634416383 
 -1.243267703426884   7.903903678534914   1.669684884827434 
  4.974444298734953   5.746491752613151   1.669655264571282 
  3.733862083471652  12.216471639468489   1.668012867012425 
  9.956523010633026   5.748067877593790   1.668920435144976 
 -3.734098806903664   7.904288023846898   8.337512943708981 
  2.489463945034298   1.439576755231258   8.333161578428244 
  6.220329284571158   7.902802318279102   8.338987954840148 
  7.467438467919605   1.437673556045431   8.336882992448247 
 12.447149734111617   1.437375254293537   8.337719755265036 
Generated by cif2cell 2.0.0.  :  Failed to get author information, No journal information. Species order: N Se B 
 1.0
 14.936314146199660   0.000000000000000   0.000000000000000
 -7.468157073099825  12.935227489513863   0.000000000000000
  0.000000000000001   0.000000000000001  13.341276283792837
 N Se B 
 143   1 143
Cartesian
  1.244175347213350   0.718275804225275   1.666911634399829 
  4.977968675564375   7.186328756673485   1.656174444344885 
  6.223670255171562   0.718490960271230   1.666764704609111 
  9.956972293783778   7.185899142418601   1.667138159519015 
 11.202173161383303   0.718587694894011   1.665603023994940 
 -3.734370646140319   9.341940092875978   8.339703231765387 
  1.244680860536838   9.342353562125240   8.339192508235490 
  2.488428486482808   2.873821639094869   8.341693876245088 
  6.222785645912614   9.341864504412255   8.339268314361714 
  7.468241287022459   2.873983707650932   8.340944895308231 
 12.446552558179855   2.874260954242303   8.339972661418702 
 -1.244705960170509   9.342104827342482   1.666489172133835 
 -0.000710836206226   2.874084596194695   1.666757547028446 
  4.978855740738669   2.874121469727397   1.661939537936444 
  3.733677853366276   9.342437318832365   1.665012317536410 
  8.712271662225884   9.341783876489957   1.667138159519015 
  9.957472179551059   2.874197573722425   1.665981472376017 
 -4.979088050455822  11.497829499615531   8.339626866095537 
  0.000151843247785  11.498067657418897   8.339602809367312 
  1.243631097609744   5.029873961752104   8.341693876245088 
  6.223141909974799   5.029625450449746   8.349782768499743 
  4.978478513081492  11.498067574611426   8.339975740468624 
 11.201780681928733   5.030092298543426   8.339458069112142 
 -1.245252924043785   5.030092051841020   1.666911634399829 
 -2.489395638922550  11.497970590597614   1.666489172133835 
  2.489369286017293  11.498243554714891   1.665981338500859 
  3.731929735705946   5.029125635176318   1.638680010749268 
  7.467692363850171  11.497722985404955   1.666499143732498 
  8.712299111456165   5.029900695963922   1.666688898482914 
 -0.000174433210235   7.186192923594290   8.338906030644537 
  1.244175347213351   0.718275804225275   8.339045578444786 
  4.977968675564369   7.186328756673499   8.349782768499743 
  6.223670255171563   0.718490960271231   8.339192508235490 
  9.956972293783778   7.185899142418601   8.338819053325613 
 -2.489674354311862   7.186038496836330   1.666330346749090 
 11.202173161383303   0.718587694894012   8.340354188849702 
  3.733952720690159   0.718494971116194   1.667051182200077 
  2.489104385682226   7.186497314898646   1.661939537936444 
  7.467324908361777   7.185757043638857   1.667177010197679 
  8.713069969259122   0.718477760238834   1.665981338500859 
  2.489104385682226   7.186497314898647   8.344017674908184 
 13.691230664635981   0.718415234791654   1.665984551425927 
 -1.244705960170509   9.342104827342482   8.339468040710793 
 -0.000710836206225   2.874084596194696   8.339199665816182 
  4.978855740738670   2.874121469727398   8.344017674908184 
  3.733677853366276   9.342437318832365   8.340944895308231 
  8.712271662225884   9.341783876489957   8.338819053325613 
  9.957472179551059   2.874197573722426   8.339975740468624 
 -3.734370646140320   9.341940092875978   1.666253981079240 
  1.244680860536838   9.342353562125240   1.666764704609111 
  2.488428486482808   2.873821639094868   1.664263336599554 
  6.222785645912613   9.341864504412255   1.666688898482914 
  7.468241287022458   2.873983707650931   1.665012317536410 
 12.446552558179855   2.874260954242303   1.665984551425927 
 -1.245252924043785   5.030092051841021   8.339045578444786 
 -2.489395638922549  11.497970590597614   8.339468040710793 
  2.489369286017294  11.498243554714891   8.339975874343770 
  3.731929735705946   5.029125635176319   8.367277202095361 
  7.467692363850172  11.497722985404955   8.339458069112142 
 -4.979088050455823  11.497829499615531   1.666330346749090 
  8.712299111456165   5.029900695963923   8.339268314361714 
  0.000151843247784  11.498067657418897   1.666354403477316 
  1.243631097609743   5.029873961752103   1.664263336599554 
 -0.000174433210235   7.186192923594289   1.667051182200077 
  6.223141909974798   5.029625450449745   1.656174444344885 
  4.978478513081491  11.498067574611426   1.665981472376017 
 11.201780681928733   5.030092298543425   1.666499143732498 
 -2.489674354311861   7.186038496836331   8.339626866095537 
  3.733952720690159   0.718494971116195   8.338906030644537 
  7.467324908361771   7.185757043638871   8.338780202646962 
  8.713069969259122   0.718477760238835   8.339975874343770 
 13.691230664635981   0.718415234791655   8.339972661418702 
  0.030054155745143   1.456586398614070   5.002978606422314 
  3.673518405939346   8.030493548882742   5.002978606422314 
  5.014746221575109   1.351195782365545   5.002978606422314 
  8.686071564560052   7.889400753668944   5.002978606422314 
  9.988239768771956   1.438577389259658   5.002978606422314 
 -4.978794805989350  10.060683890860684  11.673616748318732 
 -0.000096731803290  10.060720576303964  11.673616748318732 
  1.244665991568529   3.593103242953038  11.673616748318732 
  4.978794877654244  10.060667471668493  11.673616748318732 
  6.223409758045306   3.593113481197742  11.673616748318732 
 11.202214190623264   3.593196459393790  11.673616748318732 
 -2.507813482644092  10.050093201397061   5.002978606422314 
 -1.212917789154060   3.609476959562209   5.002978606422314 
  3.816273355462210   3.455591721371048   5.002978606422314 
  2.465852101436516  10.119805504077707   5.002978606422314 
  7.466151089675550  10.070952185693741   5.002978606422314 
  8.752082616475661   3.573044896775420   5.002978606422314 
 -6.223461244086351  12.216507709910376  11.673616748318732 
 -1.244751530578781  12.216525925667545  11.673616748318732 
 -0.000119143071789   5.749044000395255  11.673616748318732 
  4.978804713694010   5.749009239363540  11.673616748318732 
  3.734050440925034  12.216555964402142  11.673616748318732 
  9.957540580703817   5.749059948322508  11.673616748318732 
 -2.488510041701809   5.755963702646591   5.002978606422314 
 -3.737360366592429  12.186860055816666   5.002978606422314 
  1.252694634705751  12.221223575238712   5.002978606422314 
  2.411381202512316   5.888936309435107   5.002978606422314 
  6.242618147446295  12.240911807272708   5.002978606422314 
  7.481693659025952   5.718545568695199   5.002978606422314 
 -1.244835815564320   7.904891203463346  11.673616748318732 
  0.000014310398695   1.437194589948328  11.673616748318732 
  3.734046741386931   7.904816704533008  11.673616748318732 
  4.978727965744489   1.437127619100554  11.673616748318732 
  8.712908702036085   7.904895182215028  11.673616748318732 
 -3.755304174114285   7.898847184849912   5.002978606422314 
  9.957487341355701   1.437247055157179  11.673616748318732 
  2.507159764517012   1.415363088837249   5.002978606422314 
  1.188157292769161   7.979042226738060   5.002978606422314 
  6.203866873668623   7.931806484206519   5.002978606422314 
  7.507549007573794   1.387330306285065   5.002978606422314 
  1.244567318460216   7.904883583821245  11.673616748318732 
 12.477390476678163   1.454834755154836   5.002978606422314 
 -2.489473372341605  10.060681869017172  11.673616748318732 
 -1.244731510757144   3.593157594699300  11.673616748318732 
  3.734068776893797   3.592992923136769  11.673616748318732 
  2.489314464304556  10.060684553060952  11.673616748318732 
  7.468216562445529  10.060695624447412  11.673616748318732 
  8.712805357286436   3.593171604950858  11.673616748318732 
 -4.994592528499080  10.045357579872816   5.002978606422314 
 -0.023997923408071  10.080109645548896   5.002978606422314 
  1.290704604674477   3.619683648622865   5.002978606422314 
  4.981003266674362  10.104745930005093   5.002978606422314 
  6.301984930195831   3.477855982876505   5.002978606422314 
 11.232863973272847   3.597552494682548   5.002978606422314 
 -2.489467363865483   5.749040594216529  11.673616748318732 
 -3.734124075563910  12.216464944467392  11.673616748318732 
  1.244603686760960  12.216552264264797  11.673616748318732 
  2.489271844467742   5.749044455204593  11.673616748318732 
  6.223520818901636  12.216546334522116  11.673616748318732 
 -6.216986995230913  12.213875221008665   5.002978606422314 
  7.468187901562971   5.749065309661762  11.673616748318732 
 -1.239910699859315  12.186132351934603   5.002978606422314 
 -0.010065418262928   5.775324999503988   5.002978606422314 
 -1.272092546726331   7.916890937543998   5.002978606422314 
  3.750578757761445  12.242523180721388   5.002978606422314 
  9.965390286913605   5.742142915809744   5.002978606422314 
 -3.734132338197626   7.904865258371341  11.673616748318732 
  2.489372889247591   1.437117315380160  11.673616748318732 
  6.223544865931089   7.904850284662958  11.673616748318732 
  7.468079943531409   1.437209784069974  11.673616748318732 
 12.446935987306096   1.437251847517840  11.673616748318732 
  4.539183581182431   5.495193860166523   5.002978606422314 
  1.267113524830068   0.721207956840454   5.002978606422314 
  4.898012278708211   7.338319195292349   5.002978606422314 
  6.251978675564422   0.673345846081581   5.002978606422314 
  9.939407276720351   7.177908038967144   5.002978606422314 
 11.234036741791288   0.736984141619914   5.002978606422314 
 -3.734069464211936   9.342113980343424  11.673616748318732 
  1.244732589212236   9.341471397342556  11.673616748318732 
  2.489761797273185   2.875040190511587  11.673616748318732 
  6.223309155906647   9.341586239213669  11.673616748318732 
  7.467347716881815   2.874837771588870  11.673616748318732 
 12.447312351982305   2.874748268829888  11.673616748318732 
 -1.261533864557642   9.346796222971676   5.002978606422314 
  0.053780005435812   2.905544898285104   5.002978606422314 
  5.012695904822309   2.780067192174751   5.002978606422314 
  3.708245517573704   9.429356226951791   5.002978606422314 
  8.696568655100931   9.330567677220865   5.002978606422314 
  9.995775384814237   2.872164951952611   5.002978606422314 
 -4.978714871926320  11.498220006173218  11.673616748318732 
 -0.000218184878041  11.497854021580871  11.673616748318732 
  1.245353049487628   5.030419367059352  11.673616748318732 
  6.222524416792745   5.030438285127414  11.673616748318732 
  4.978840421103963  11.497680913583187  11.673616748318732 
 11.202340863181121   5.030506468964000  11.673616748318732 
 -1.231244516582908   5.048491020066028   5.002978606422314 
 -2.493746723322030  11.481051500091304   5.002978606422314 
  2.496305671412820  11.533599707383450   5.002978606422314 
  7.476453450816459  11.508375671640579   5.002978606422314 
  8.733127314661971   5.011793046139895   5.002978606422314 
  0.000396879133910   7.185902540480924  11.673616748318732 
  1.245093766001784   0.719081211052171  11.673616748318732 
  4.978363864453272   7.185387574552355  11.673616748318732 
  6.222932142397133   0.718976841009571  11.673616748318732 
  9.957427517282653   7.186220141059662  11.673616748318732 
 -2.504578700982337   7.189671029720842   5.002978606422314 
 11.202278706559103   0.718648631429679  11.673616748318732 
  3.744622560093815   0.688939584855096   5.002978606422314 
  2.424571074028847   7.262830895439635   5.002978606422314 
  7.433905332173504   7.166462242330354   5.002978606422314 
  8.747157488347929   0.706806769867535   5.002978606422314 
  2.489492732328305   7.185415517434663  11.673616748318732 
 13.725148556822882   0.744107269916939   5.002978606422314 
 -1.244613875416325   9.341910705541292  11.673616748318732 
  0.000732538936213   2.874917929221725  11.673616748318732 
  4.978113049976150   2.874998686520369  11.673616748318732 
  3.733970709362665   9.341236432421537  11.673616748318732 
  8.712777266953061   9.342017612283854  11.673616748318732 
  9.957318275289186   2.874704325777841  11.673616748318732 
 -3.750660946487284   9.332534883585486   5.002978606422314 
  1.219738254988297   9.389441930421265   5.002978606422314 
  2.552091635406809   2.879991948165425   5.002978606422314 
  6.217518062765060   9.368956082415707   5.002978606422314 