Species order: X N B                    
   2.51242800000000     
     5.9449720136058266    0.0000000000000000    0.0000000000000000
    -2.9724860068029120    5.1484967885702053   -0.0000000000000001
     0.0000000000000000    0.0000000000000009    5.3101128803662583
   Ge   N    B 
     1   144   143
Direct
  0.4444444444444429  0.3888888888888857  0.3750000000000000
  0.1111078372853072  0.0555566989266952  0.1251260461295210
  0.6111036094332899  0.5555572276373363  0.1246714884710582
  0.4444488616413890  0.0555566989266952  0.1251260461295210
  0.9444415013256044  0.5555565851212833  0.1250098963324437
  0.7777777777777786  0.0555555555555571  0.1249525022973297
  0.1111111111111143  0.7222222222222214  0.6250107267518148
  0.4444488616413890  0.7222254960480339  0.6248739538704731
  0.2777761056960005  0.2222297239000526  0.6253285115289490
  0.7777766344066386  0.7222254960480339  0.6248739538704731
  0.6111156961555262  0.2222176371778113  0.6248900799449361
  0.9444361185559969  0.2222192192346639  0.6250333199795978
  0.2777767482120537  0.7222182495376558  0.1250098963324437
  0.1111019410222965  0.2222176371778113  0.1251099200550692
  0.4444536182040549  0.2222297239000526  0.1246714884710582
  0.6111156961555262  0.7222313923110301  0.1251099200550692
  0.9444415013256044  0.7222182495376558  0.1250098963324437
  0.7777831006786695  0.2222192192346639  0.1249666800203963
  0.1111150837956863  0.8888918320077241  0.6249901036675587
  0.4444504444249442  0.8888918888791328  0.6250190122564541
  0.2777761056960005  0.3888797151292737  0.6253285115289490
  0.6111036094332899  0.3888797151292737  0.6253285115289490
  0.7777831006786695  0.8888972147773317  0.6250333199795978
  0.9444414444541958  0.3888828889083844  0.6250190122564541
  0.1111078372853072  0.3888844716919396  0.1251260461295210
  0.2777767482120537  0.8888918320077241  0.1250098963324437
  0.6111141140986689  0.8888972147773317  0.1249666800203963
  0.4444444444444429  0.3888888888888857  0.1208113018416327
  0.9444414444541958  0.8888918888791328  0.1249809877435427
  0.7777766344066386  0.3888844716919396  0.1251260461295210
  0.2777806206725010  0.5555527126608332  0.6248595815991747
  0.1111078372853072  0.0555566989266952  0.6248739538704731
  0.6111036094332899  0.5555572276373363  0.6253285115289490
  0.4444488616413890  0.0555566989266952  0.6248739538704731
  0.9444415013256044  0.5555565851212833  0.6249901036675587
  0.1111150837956863  0.5555565851212833  0.1250098963324437
  0.7777777777777786  0.0555555555555571  0.6250474977026701
  0.2777806206725010  0.0555612413450043  0.1251404184008287
  0.4444536182040549  0.5555572276373363  0.1246714884710574
  0.7777720919883337  0.5555527126608332  0.1251404184008287
  0.6111141140986689  0.0555502326546665  0.1249666800203963
  0.4444536182040549  0.5555572276373363  0.6253285115289490
  0.9444361185559969  0.0555502326546665  0.1249666800203963
  0.2777767482120537  0.7222182495376558  0.6249901036675587
  0.1111019410222965  0.2222176371778113  0.6248900799449361
  0.4444536182040549  0.2222297239000526  0.6253285115289490
  0.6111156961555262  0.7222313923110301  0.6248900799449361
  0.9444415013256044  0.7222182495376558  0.6249901036675587
  0.7777831006786695  0.2222192192346639  0.6250333199795978
  0.1111111111111143  0.7222222222222214  0.1249892732481905
  0.4444488616413890  0.7222254960480339  0.1251260461295210
  0.2777761056960005  0.2222297239000526  0.1246714884710574
  0.7777766344066386  0.7222254960480339  0.1251260461295210
  0.6111156961555262  0.2222176371778113  0.1251099200550692
  0.9444361185559969  0.2222192192346639  0.1249666800203963
  0.1111078372853072  0.3888844716919396  0.6248739538704731
  0.2777767482120537  0.8888918320077241  0.6249901036675587
  0.6111141140986689  0.8888972147773317  0.6250333199795978
  0.4444444444444429  0.3888888888888857  0.6291886981583646
  0.9444414444541958  0.8888918888791328  0.6250190122564541
  0.1111150837956863  0.8888918320077241  0.1250098963324437
  0.7777766344066386  0.3888844716919396  0.6248739538704731
  0.4444504444249442  0.8888918888791328  0.1249809877435427
  0.2777761056960005  0.3888797151292737  0.1246714884710582
  0.2777806206725010  0.5555527126608332  0.1251404184008287
  0.6111036094332899  0.3888797151292737  0.1246714884710582
  0.7777831006786695  0.8888972147773317  0.1249666800203963
  0.9444414444541958  0.3888828889083844  0.1249809877435427
  0.1111150837956863  0.5555565851212833  0.6249901036675587
  0.2777806206725010  0.0555612413450043  0.6248595815991747
  0.7777720919883337  0.5555527126608332  0.6248595815991747
  0.6111141140986689  0.0555502326546665  0.6250333199795978
  0.9444361185559969  0.0555502326546668  0.6250333199795978
  0.0545838448930358  0.1104532892596351  0.3750000000000000
  0.5559905849382162  0.6119811698764328  0.3750000000000000
  0.3876073829576379  0.1048510210391372  0.3750000000000000
  0.8911310086427698  0.6122321709880533  0.3750000000000000
  0.7223972361012293  0.1109360972321114  0.3750000000000000
  0.0555569815845379  0.7777763517487964  0.8750000000000000
  0.3888887057280335  0.7777785183758947  0.8750000000000000
  0.2222218992068545  0.2777776162700948  0.8750000000000000
  0.7222248492527745  0.7777756701786559  0.8750000000000000
  0.5555557170632417  0.2777776162700948  0.8750000000000000
  0.8888897478671037  0.2777794957342124  0.8750000000000000
  0.2217866839783596  0.7775600086558555  0.3750000000000000
  0.0545838448930358  0.2774638889667341  0.3750000000000000
  0.3780894907902148  0.2561789815804374  0.3750000000000000
  0.5558694443666007  0.7787494884402955  0.3750000000000000
  0.8906168511561791  0.7791516455785529  0.3750000000000000
  0.7228800440737032  0.2774638889667341  0.3750000000000000
  0.0555548149574369  0.9444435206854648  0.8750000000000000
  0.3888887057280335  0.9444435206854648  0.8750000000000000
  0.2222156492533643  0.4444478959521326  0.8750000000000000
  0.5555770713883520  0.4444552023608403  0.8750000000000000
  0.7222227309377398  0.9444454618755036  0.8750000000000000
  0.8888898126478638  0.4444446276052951  0.8750000000000000
  0.0541816877547819  0.4447985389109591  0.3750000000000000
  0.2211011623452795  0.9422023246905588  0.3750000000000000
  0.5558291644884039  0.9445812489108673  0.3750000000000000
  0.3780894907902148  0.4552438425431137  0.3750000000000000
  0.8887520844224613  0.9445812489108673  0.3750000000000000
  0.7284823122941906  0.4457259503756907  0.3750000000000000
  0.2222191927436675  0.6111141405896664  0.8750000000000000
  0.0555576631546720  0.1111084840805624  0.8750000000000000
  0.5555557170632417  0.6111114341264818  0.8750000000000000
  0.3888854373811960  0.1111010866345675  0.8750000000000000
  0.8888949478459965  0.6111141405896664  0.8750000000000000
  0.0557733246774889  0.6115466493549874  0.3750000000000000
  0.7222227309377398  0.1111106023955903  0.8750000000000000
  0.2172436380814947  0.1048510210391377  0.3750000000000000
  0.3876073829576379  0.6160896952518385  0.3750000000000000
  0.7284823122941885  0.6160896952518385  0.3750000000000000
  0.5558694443666007  0.1104532892596351  0.3750000000000000
  0.3888854373811960  0.6111176840799739  0.8750000000000000
  0.8885388611308858  0.1109360972321114  0.3750000000000000
  0.2222193701642576  0.7777763517487964  0.8750000000000000
  0.0555576631546720  0.2777825124074454  0.8750000000000000
  0.3888781309724883  0.2777562619449758  0.8750000000000000
  0.5555508209258871  0.7777756701786559  0.8750000000000000
  0.8888898126478638  0.7777785183758947  0.8750000000000000
  0.7222248492527745  0.2777825124074454  0.8750000000000000
  0.0557733246774889  0.7775600086558555  0.3750000000000000
  0.3885347944223695  0.7791516455785529  0.3750000000000000
  0.2213521634569026  0.2773427483951193  0.3750000000000000
  0.7228800440737032  0.7787494884402955  0.3750000000000000
  0.5559905849382162  0.2773427483951193  0.3750000000000000
  0.8887520844224613  0.2775041688449386  0.3750000000000000
  0.0555548149574372  0.4444446276052951  0.8750000000000000
  0.2222191927436675  0.9444383854873321  0.8750000000000000
  0.5555538375991115  0.9444435854662249  0.8750000000000000
  0.3888781309724883  0.4444552023608403  0.8750000000000000
  0.8888897478671037  0.9444435854662249  0.8750000000000000
  0.0541816877547819  0.9427164821771495  0.3750000000000000
  0.7222322466987683  0.4444478959521326  0.8750000000000000
  0.3885347944223695  0.9427164821771494  0.3750000000000000
  0.2172436380814947  0.4457259503756907  0.3750000000000000
  0.2211011623452795  0.6122321709880533  0.3750000000000000
  0.5771543517528990  0.4552438425431137  0.3750000000000000
  0.7223972361012293  0.9447944722024428  0.3750000000000000
  0.8906168511561791  0.4447985389109591  0.3750000000000000
  0.0555569815845379  0.6111139631690715  0.8750000000000000
  0.2222156492533643  0.1111010866345675  0.8750000000000000
  0.7222322466987683  0.6111176840799739  0.8750000000000000
  0.5555508209258871  0.1111084840805624  0.8750000000000000
  0.8888878714578250  0.1111106023955903  0.8750000000000000
  0.1078212112535801  0.0524658245618162  0.3750000000000000
  0.6193010502862433  0.5626291532867391  0.3750000000000000
  0.4446446133082397  0.0524658245618162  0.3750000000000000
  0.9454371879822678  0.5558682626804896  0.3750000000000000
  0.7777777777777786  0.0555555555555571  0.3750000000000000
  0.1111111111111143  0.7222222222222214  0.8750000000000000
  0.4444404887164234  0.7222200001403959  0.8750000000000000
  0.2777694791645477  0.2222344685950915  0.8750000000000000
  0.7777795114239744  0.7222200001403959  0.8750000000000000
  0.6110931267750722  0.2222402065582650  0.8750000000000000
  0.9444342645149444  0.2222393675846074  0.8750000000000000
  0.2774650706528377  0.7229022586351107  0.3750000000000000
  0.1100773059364051  0.2217053196348663  0.3750000000000000
  0.4433281030004800  0.2140322830470802  0.3750000000000000
  0.6116280136984666  0.7232560273969398  0.3750000000000000
  0.9454371879822678  0.7229022586351066  0.3750000000000000
  0.7779341977875985  0.2217872623729321  0.3750000000000000
  0.1111379742335442  0.8889009337026413  0.8750000000000000
  0.4444692264076590  0.8889012798704997  0.8750000000000000
  0.2777694791645481  0.3888683439027855  0.8750000000000000
  0.6110988647382394  0.3888683439027855  0.8750000000000000
  0.7778051030696590  0.8888990688183842  0.8750000000000000
  0.9444320534628289  0.3888641069256694  0.8750000000000000
  0.1078212112535801  0.3886887200250889  0.3750000000000000
  0.2774650706528377  0.8878961453510608  0.3750000000000000
  0.6115460709603966  0.8894802687479959  0.3750000000000000
  0.9442545420814935  0.8890787912518351  0.3750000000000000
  0.7808675087715082  0.3886887200250889  0.3750000000000000
  0.2777623232727099  0.5555710100606117  0.8750000000000000
  0.1111133331929418  0.0555538219093633  0.8750000000000000
  0.6110988647382394  0.5555638541687866  0.8750000000000000
  0.4444404887164234  0.0555538219093633  0.8750000000000000
  0.9444323996306873  0.5555703738642317  0.8750000000000000
  0.1104310746982249  0.5558682626804896  0.3750000000000000
  0.7777777777777786  0.0555555555555571  0.8750000000000000
  0.2760522804065059  0.0521045608130064  0.3750000000000000
  0.4433281030004800  0.5626291532867391  0.3750000000000000
  0.7812287725203239  0.5572810529268315  0.3750000000000000
  0.6115460709603966  0.0553991355457303  0.3750000000000000
  0.4444649894305431  0.5555638541687866  0.8750000000000000
  0.9438530645853327  0.0553991355457303  0.3750000000000000
  0.2777629594691053  0.7221953590997947  0.8750000000000000
  0.1111470797832003  0.2222402065582650  0.8750000000000000
  0.4444649894305431  0.2222344685950915  0.8750000000000000
  0.6110931267750722  0.7221862535501290  0.8750000000000000
  0.9444323996306873  0.7221953590997887  0.8750000000000000
  0.7778051030696590  0.2222393675846074  0.8750000000000000
  0.1111111111111143  0.7222222222222214  0.3750000000000000
  0.4446446133082397  0.7255121220797587  0.3750000000000000
  0.2707041800465989  0.2140322830470802  0.3750000000000000
  0.7808675087715082  0.7255121220797587  0.3750000000000000
  0.6116280136984666  0.2217053196348663  0.3750000000000000
  0.9438530645853327  0.2217872623729321  0.3750000000000000
  0.1111133331929418  0.3888928446169052  0.8750000000000000
  0.2777629594691053  0.8889009337026413  0.8750000000000000
  0.6110939657487270  0.8888990688183842  0.8750000000000000
  0.4444444444444429  0.3888888888888857  0.8750000000000000
  0.9444320534628289  0.8889012798704997  0.8750000000000000
  0.1104310746982249  0.8878961453510608  0.3750000000000000
  0.7777795114239744  0.3888928446169052  0.8750000000000000
  0.4448242491703304  0.8890787912518351  0.3750000000000000
  0.2707041800465989  0.3900052303328486  0.3750000000000000
  0.2760522804065059  0.5572810529268315  0.3750000000000000
  0.6193010502862433  0.3900052303328486  0.3750000000000000
  0.7779341977875985  0.8894802687479959  0.3750000000000000
  0.9442545420814935  0.3885090841629982  0.3750000000000000
  0.1111379742335442  0.5555703738642317  0.8750000000000000
  0.2777623232727126  0.0555246465454293  0.8750000000000000
  0.7778086867879158  0.5555710100606117  0.8750000000000000
  0.6110939657487270  0.0555282302636723  0.8750000000000000
  0.9444342645149444  0.0555282302636723  0.8750000000000000
  0.0555617439916259  0.1110977803115125  0.1250575857539179
  0.5555529043786048  0.6111058087572003  0.1248402061306781
  0.3889141538130145  0.1111165216902391  0.1250753518809588
  0.8888770270422532  0.6111051801878072  0.1250409337350077
  0.7222381496085245  0.1110951837248123  0.1249772756419407
  0.0555690090330059  0.7777643243003314  0.6250112199445482
  0.3889115628879065  0.7777653951923285  0.6249663620116674
  0.2222275245761342  0.2777804289547355  0.6251597938693112
  0.7222355530218182  0.7777715893417096  0.6249424142460845
  0.5555529043786048  0.2777804289547355  0.6251597938693112
  0.8888864462771657  0.2777728925543476  0.6250211542042374
  0.2221953152673248  0.7777643243003314  0.1249887800554580
  0.0555617439916259  0.2777972970134469  0.1250575857539179
  0.3889203012947825  0.2778406025895766  0.1233568867130057
  0.5555360363198867  0.7777715893417096  0.1250575857539179
  0.8888538323044225  0.7777653951923285  0.1250336379883271
  0.7222355530218182  0.2777972970134469  0.1250575857539179
  0.0555679381410037  0.9444795010289064  0.6249663620116674
  0.3889115628879065  0.9444795010289064  0.6249663620116674
  0.2222023678772130  0.4444191795203141  0.6249246481190418
  0.5554927307437636  0.4444130320385461  0.6266431132869935
  0.7222381496085245  0.9444762992170499  0.6250227243580578
  0.8888538323044225  0.4444217704454221  0.6249663620116674
  0.0555679381410037  0.4444217704454221  0.1250336379883271
  0.2222281531455367  0.9444563062910754  0.1250409337350077
  0.5555604407789841  0.9444468870561629  0.1249788457957699
  0.3889203012947825  0.4444130320385461  0.1233568867130057
  0.8888864462771657  0.9444468870561629  0.1249788457957699
  0.7222168116430936  0.4444191795203141  0.1250753518809588
  0.2222281531455368  0.6111051801878072  0.6249590662649946
  0.0555617439916259  0.1110977803115123  0.6249424142460845
  0.5555529043786048  0.6111058087572003  0.6251597938693112
  0.3889141538130145  0.1111165216902391  0.6249246481190418
  0.8888770270422532  0.6111051801878072  0.6249590662649946
  0.0555690090330059  0.6111380180660109  0.1249887800554580
  0.7222381496085245  0.1110951837248123  0.6250227243580578
  0.2222023678772130  0.1111165216902391  0.1250753518809588
  0.3889141538130145  0.6111309654561263  0.1250753518809588
  0.7222168116430936  0.6111309654561263  0.1250753518809588
  0.5555360363198867  0.1110977803115125  0.1250575857539179
  0.3889141538130145  0.6111309654561263  0.6249246481190418
  0.8888570341162787  0.1110951837248123  0.1249772756419407
  0.2221953152673251  0.7777643243003314  0.6250112199445482
  0.0555617439916259  0.2777972970134469  0.6249424142460845
  0.3889203012947825  0.2778406025895766  0.6266431132869935
  0.5555360363198867  0.7777715893417096  0.6249424142460845
  0.8888538323044225  0.7777653951923285  0.6249663620116674
  0.7222355530218182  0.2777972970134469  0.6249424142460845
  0.0555690090330059  0.7777643243003314  0.1249887800554580
  0.3889115628879065  0.7777653951923285  0.1250336379883271
  0.2222275245761342  0.2777804289547355  0.1248402061306781
  0.7222355530218182  0.7777715893417096  0.1250575857539179
  0.5555529043786048  0.2777804289547355  0.1248402061306781
  0.8888864462771657  0.2777728925543476  0.1249788457957699
  0.0555679381410037  0.4444217704454221  0.6249663620116674
  0.2222281531455367  0.9444563062910754  0.6249590662649946
  0.5555604407789841  0.9444468870561629  0.6250211542042374
  0.3889203012947825  0.4444130320385461  0.6266431132869935
  0.8888864462771657  0.9444468870561629  0.6250211542042374
  0.0555679381410037  0.9444795010289064  0.1250336379883271
  0.7222168116430936  0.4444191795203141  0.6249246481190418
  0.3889115628879065  0.9444795010289064  0.1250336379883271
  0.2222023678772130  0.4444191795203141  0.1250753518809588
  0.2222281531455368  0.6111051801878072  0.1250409337350077
  0.5554927307437636  0.4444130320385461  0.1233568867130057
  0.7222381496085245  0.9444762992170499  0.1249772756419407
  0.8888538323044225  0.4444217704454221  0.1250336379883271
  0.0555690090330059  0.6111380180660109  0.6250112199445482
  0.2222023678772130  0.1111165216902391  0.6249246481190418
  0.7222168116430936  0.6111309654561263  0.6249246481190418
  0.5555360363198867  0.1110977803115123  0.6249424142460845
  0.8888570341162787  0.1110951837248123  0.6250227243580578
 
  0.00000000E+00  0.00000000E+00  0.00000000E+00
  0.00000000E+00  0.00000000E+00  0.00000000E+00
  0.00000000E+00  0.00000000E+00  0.00000000E+00
  0.00000000E+00  0.00000000E+00  0.00000000E+00
  0.00000000E+00  0.00000000E+00  0.00000000E+00
  0.00000000E+00  0.00000000E+00  0.00000000E+00
  0.00000000E+00  0.00000000E+00  0.00000000E+00
  0.00000000E+00  0.00000000E+00  0.00000000E+00
  0.00000000E+00  0.00000000E+00  0.00000000E+00
  0.00000000E+00  0.00000000E+00  0.00000000E+00
  0.00000000E+00  0.00000000E+00  0.00000000E+00
  0.00000000E+00  0.00000000E+00  0.00000000E+00
  0.00000000E+00  0.00000000E+00  0.00000000E+00
  0.00000000E+00  0.00000000E+00  0.00000000E+00
  0.00000000E+00  0.00000000E+00  0.00000000E+00
  0.00000000E+00  0.00000000E+00  0.00000000E+00
  0.00000000E+00  0.00000000E+00  0.00000000E+00
  0.00000000E+00  0.00000000E+00  0.00000000E+00
  0.00000000E+00  0.00000000E+00  0.00000000E+00
  0.00000000E+00  0.00000000E+00  0.00000000E+00
  0.00000000E+00  0.00000000E+00  0.00000000E+00
  0.00000000E+00  0.00000000E+00  0.00000000E+00
  0.00000000E+00  0.00000000E+00  0.00000000E+00
  0.00000000E+00  0.00000000E+00  0.00000000E+00
  0.00000000E+00  0.00000000E+00  0.00000000E+00
  0.00000000E+00  0.00000000E+00  0.00000000E+00
  0.00000000E+00  0.00000000E+00  0.00000000E+00
  0.00000000E+00  0.00000000E+00  0.00000000E+00
  0.00000000E+00  0.00000000E+00  0.00000000E+00
  0.00000000E+00  0.00000000E+00  0.00000000E+00
  0.00000000E+00  0.00000000E+00  0.00000000E+00
  0.00000000E+00  0.00000000E+00  0.00000000E+00
  0.00000000E+00  0.00000000E+00  0.00000000E+00
  0.00000000E+00  0.00000000E+00  0.00000000E+00
  0.00000000E+00  0.00000000E+00  0.00000000E+00
  0.00000000E+00  0.00000000E+00  0.00000000E+00
  0.00000000E+00  0.00000000E+00  0.00000000E+00
  0.00000000E+00  0.00000000E+00  0.00000000E+00
  0.00000000E+00  0.00000000E+00  0.00000000E+00
  0.00000000E+00  0.00000000E+00  0.00000000E+00
  0.00000000E+00  0.00000000E+00  0.00000000E+00
  0.00000000E+00  0.00000000E+00  0.00000000E+00
  0.00000000E+00  0.00000000E+00  0.00000000E+00
  0.00000000E+00  0.00000000E+00  0.00000000E+00
  0.00000000E+00  0.00000000E+00  0.00000000E+00
  0.00000000E+00  0.00000000E+00  0.00000000E+00
  0.00000000E+00  0.00000000E+00  0.00000000E+00
  0.00000000E+00  0.00000000E+00  0.00000000E+00
  0.00000000E+00  0.00000000E+00  0.00000000E+00
  0.00000000E+00  0.00000000E+00  0.00000000E+00
  0.00000000E+00  0.00000000E+00  0.00000000E+00
  0.00000000E+00  0.00000000E+00  0.00000000E+00
  0.00000000E+00  0.00000000E+00  0.00000000E+00
  0.00000000E+00  0.00000000E+00  0.00000000E+00
  0.00000000E+00  0.00000000E+00  0.00000000E+00
  0.00000000E+00  0.00000000E+00  0.00000000E+00
  0.00000000E+00  0.00000000E+00  0.00000000E+00
  0.00000000E+00  0.00000000E+00  0.00000000E+00
  0.00000000E+00  0.00000000E+00  0.00000000E+00
  0.00000000E+00  0.00000000E+00  0.00000000E+00
  0.00000000E+00  0.00000000E+00  0.00000000E+00
  0.00000000E+00  0.00000000E+00  0.00000000E+00
  0.00000000E+00  0.00000000E+00  0.00000000E+00
  0.00000000E+00  0.00000000E+00  0.00000000E+00
  0.00000000E+00  0.00000000E+00  0.00000000E+00
  0.00000000E+00  0.00000000E+00  0.00000000E+00
  0.00000000E+00  0.00000000E+00  0.00000000E+00
  0.00000000E+00  0.00000000E+00  0.00000000E+00
  0.00000000E+00  0.00000000E+00  0.00000000E+00
  0.00000000E+00  0.00000000E+00  0.00000000E+00
  0.00000000E+00  0.00000000E+00  0.00000000E+00
  0.00000000E+00  0.00000000E+00  0.00000000E+00
  0.00000000E+00  0.00000000E+00  0.00000000E+00
  0.00000000E+00  0.00000000E+00  0.00000000E+00
  0.00000000E+00  0.00000000E+00  0.00000000E+00
  0.00000000E+00  0.00000000E+00  0.00000000E+00
  0.00000000E+00  0.00000000E+00  0.00000000E+00
  0.00000000E+00  0.00000000E+00  0.00000000E+00
  0.00000000E+00  0.00000000E+00  0.00000000E+00
  0.00000000E+00  0.00000000E+00  0.00000000E+00
  0.00000000E+00  0.00000000E+00  0.00000000E+00
  0.00000000E+00  0.00000000E+00  0.00000000E+00
  0.00000000E+00  0.00000000E+00  0.00000000E+00
  0.00000000E+00  0.00000000E+00  0.00000000E+00
  0.00000000E+00  0.00000000E+00  0.00000000E+00
  0.00000000E+00  0.00000000E+00  0.00000000E+00
  0.00000000E+00  0.00000000E+00  0.00000000E+00
  0.00000000E+00  0.00000000E+00  0.00000000E+00
  0.00000000E+00  0.00000000E+00  0.00000000E+00
  0.00000000E+00  0.00000000E+00  0.00000000E+00
  0.00000000E+00  0.00000000E+00  0.00000000E+00
  0.00000000E+00  0.00000000E+00  0.00000000E+00
  0.00000000E+00  0.00000000E+00  0.00000000E+00
  0.00000000E+00  0.00000000E+00  0.00000000E+00
  0.00000000E+00  0.00000000E+00  0.00000000E+00
  0.00000000E+00  0.00000000E+00  0.00000000E+00
  0.00000000E+00  0.00000000E+00  0.00000000E+00
  0.00000000E+00  0.00000000E+00  0.00000000E+00
  0.00000000E+00  0.00000000E+00  0.00000000E+00
  0.00000000E+00  0.00000000E+00  0.00000000E+00
  0.00000000E+00  0.00000000E+00  0.00000000E+00
  0.00000000E+00  0.00000000E+00  0.00000000E+00
  0.00000000E+00  0.00000000E+00  0.00000000E+00
  0.00000000E+00  0.00000000E+00  0.00000000E+00
  0.00000000E+00  0.00000000E+00  0.00000000E+00
  0.00000000E+00  0.00000000E+00  0.00000000E+00
  0.00000000E+00  0.00000000E+00  0.00000000E+00
  0.00000000E+00  0.00000000E+00  0.00000000E+00
  0.00000000E+00  0.00000000E+00  0.00000000E+00
  0.00000000E+00  0.00000000E+00  0.00000000E+00
  0.00000000E+00  0.00000000E+00  0.00000000E+00
  0.00000000E+00  0.00000000E+00  0.00000000E+00
  0.00000000E+00  0.00000000E+00  0.00000000E+00
  0.00000000E+00  0.00000000E+00  0.00000000E+00
  0.00000000E+00  0.00000000E+00  0.00000000E+00
  0.00000000E+00  0.00000000E+00  0.00000000E+00
  0.00000000E+00  0.00000000E+00  0.00000000E+00
  0.00000000E+00  0.00000000E+00  0.00000000E+00
  0.00000000E+00  0.00000000E+00  0.00000000E+00
  0.00000000E+00  0.00000000E+00  0.00000000E+00
  0.00000000E+00  0.00000000E+00  0.00000000E+00
  0.00000000E+00  0.00000000E+00  0.00000000E+00
  0.00000000E+00  0.00000000E+00  0.00000000E+00
  0.00000000E+00  0.00000000E+00  0.00000000E+00
  0.00000000E+00  0.00000000E+00  0.00000000E+00
  0.00000000E+00  0.00000000E+00  0.00000000E+00
  0.00000000E+00  0.00000000E+00  0.00000000E+00
  0.00000000E+00  0.00000000E+00  0.00000000E+00
  0.00000000E+00  0.00000000E+00  0.00000000E+00
  0.00000000E+00  0.00000000E+00  0.00000000E+00
  0.00000000E+00  0.00000000E+00  0.00000000E+00
  0.00000000E+00  0.00000000E+00  0.00000000E+00
  0.00000000E+00  0.00000000E+00  0.00000000E+00
  0.00000000E+00  0.00000000E+00  0.00000000E+00
  0.00000000E+00  0.00000000E+00  0.00000000E+00
  0.00000000E+00  0.00000000E+00  0.00000000E+00
  0.00000000E+00  0.00000000E+00  0.00000000E+00
  0.00000000E+00  0.00000000E+00  0.00000000E+00
  0.00000000E+00  0.00000000E+00  0.00000000E+00
  0.00000000E+00  0.00000000E+00  0.00000000E+00
  0.00000000E+00  0.00000000E+00  0.00000000E+00
  0.00000000E+00  0.00000000E+00  0.00000000E+00
  0.00000000E+00  0.00000000E+00  0.00000000E+00
  0.00000000E+00  0.00000000E+00  0.00000000E+00
  0.00000000E+00  0.00000000E+00  0.00000000E+00
  0.00000000E+00  0.00000000E+00  0.00000000E+00
  0.00000000E+00  0.00000000E+00  0.00000000E+00
  0.00000000E+00  0.00000000E+00  0.00000000E+00
  0.00000000E+00  0.00000000E+00  0.00000000E+00
  0.00000000E+00  0.00000000E+00  0.00000000E+00
  0.00000000E+00  0.00000000E+00  0.00000000E+00
  0.00000000E+00  0.00000000E+00  0.00000000E+00
  0.00000000E+00  0.00000000E+00  0.00000000E+00
  0.00000000E+00  0.00000000E+00  0.00000000E+00
  0.00000000E+00  0.00000000E+00  0.00000000E+00
  0.00000000E+00  0.00000000E+00  0.00000000E+00
  0.00000000E+00  0.00000000E+00  0.00000000E+00
  0.00000000E+00  0.00000000E+00  0.00000000E+00
  0.00000000E+00  0.00000000E+00  0.00000000E+00
  0.00000000E+00  0.00000000E+00  0.00000000E+00
  0.00000000E+00  0.00000000E+00  0.00000000E+00
  0.00000000E+00  0.00000000E+00  0.00000000E+00
  0.00000000E+00  0.00000000E+00  0.00000000E+00
  0.00000000E+00  0.00000000E+00  0.00000000E+00
  0.00000000E+00  0.00000000E+00  0.00000000E+00
  0.00000000E+00  0.00000000E+00  0.00000000E+00
  0.00000000E+00  0.00000000E+00  0.00000000E+00
  0.00000000E+00  0.00000000E+00  0.00000000E+00
  0.00000000E+00  0.00000000E+00  0.00000000E+00
  0.00000000E+00  0.00000000E+00  0.00000000E+00
  0.00000000E+00  0.00000000E+00  0.00000000E+00
  0.00000000E+00  0.00000000E+00  0.00000000E+00
  0.00000000E+00  0.00000000E+00  0.00000000E+00
  0.00000000E+00  0.00000000E+00  0.00000000E+00
  0.00000000E+00  0.00000000E+00  0.00000000E+00
  0.00000000E+00  0.00000000E+00  0.00000000E+00
  0.00000000E+00  0.00000000E+00  0.00000000E+00
  0.00000000E+00  0.00000000E+00  0.00000000E+00
  0.00000000E+00  0.00000000E+00  0.00000000E+00
  0.00000000E+00  0.00000000E+00  0.00000000E+00
  0.00000000E+00  0.00000000E+00  0.00000000E+00
  0.00000000E+00  0.00000000E+00  0.00000000E+00
  0.00000000E+00  0.00000000E+00  0.00000000E+00
  0.00000000E+00  0.00000000E+00  0.00000000E+00
  0.00000000E+00  0.00000000E+00  0.00000000E+00
  0.00000000E+00  0.00000000E+00  0.00000000E+00
  0.00000000E+00  0.00000000E+00  0.00000000E+00
  0.00000000E+00  0.00000000E+00  0.00000000E+00
  0.00000000E+00  0.00000000E+00  0.00000000E+00
  0.00000000E+00  0.00000000E+00  0.00000000E+00
  0.00000000E+00  0.00000000E+00  0.00000000E+00
  0.00000000E+00  0.00000000E+00  0.00000000E+00
  0.00000000E+00  0.00000000E+00  0.00000000E+00
  0.00000000E+00  0.00000000E+00  0.00000000E+00
  0.00000000E+00  0.00000000E+00  0.00000000E+00
  0.00000000E+00  0.00000000E+00  0.00000000E+00
  0.00000000E+00  0.00000000E+00  0.00000000E+00
  0.00000000E+00  0.00000000E+00  0.00000000E+00
  0.00000000E+00  0.00000000E+00  0.00000000E+00
  0.00000000E+00  0.00000000E+00  0.00000000E+00
  0.00000000E+00  0.00000000E+00  0.00000000E+00
  0.00000000E+00  0.00000000E+00  0.00000000E+00
  0.00000000E+00  0.00000000E+00  0.00000000E+00
  0.00000000E+00  0.00000000E+00  0.00000000E+00
  0.00000000E+00  0.00000000E+00  0.00000000E+00
  0.00000000E+00  0.00000000E+00  0.00000000E+00
  0.00000000E+00  0.00000000E+00  0.00000000E+00
  0.00000000E+00  0.00000000E+00  0.00000000E+00
  0.00000000E+00  0.00000000E+00  0.00000000E+00
  0.00000000E+00  0.00000000E+00  0.00000000E+00
  0.00000000E+00  0.00000000E+00  0.00000000E+00
  0.00000000E+00  0.00000000E+00  0.00000000E+00
  0.00000000E+00  0.00000000E+00  0.00000000E+00
  0.00000000E+00  0.00000000E+00  0.00000000E+00
  0.00000000E+00  0.00000000E+00  0.00000000E+00
  0.00000000E+00  0.00000000E+00  0.00000000E+00
  0.00000000E+00  0.00000000E+00  0.00000000E+00
  0.00000000E+00  0.00000000E+00  0.00000000E+00
  0.00000000E+00  0.00000000E+00  0.00000000E+00
  0.00000000E+00  0.00000000E+00  0.00000000E+00
  0.00000000E+00  0.00000000E+00  0.00000000E+00
  0.00000000E+00  0.00000000E+00  0.00000000E+00
  0.00000000E+00  0.00000000E+00  0.00000000E+00
  0.00000000E+00  0.00000000E+00  0.00000000E+00
  0.00000000E+00  0.00000000E+00  0.00000000E+00
  0.00000000E+00  0.00000000E+00  0.00000000E+00
  0.00000000E+00  0.00000000E+00  0.00000000E+00
  0.00000000E+00  0.00000000E+00  0.00000000E+00
  0.00000000E+00  0.00000000E+00  0.00000000E+00
  0.00000000E+00  0.00000000E+00  0.00000000E+00
  0.00000000E+00  0.00000000E+00  0.00000000E+00
  0.00000000E+00  0.00000000E+00  0.00000000E+00
  0.00000000E+00  0.00000000E+00  0.00000000E+00
  0.00000000E+00  0.00000000E+00  0.00000000E+00
  0.00000000E+00  0.00000000E+00  0.00000000E+00
  0.00000000E+00  0.00000000E+00  0.00000000E+00
  0.00000000E+00  0.00000000E+00  0.00000000E+00
  0.00000000E+00  0.00000000E+00  0.00000000E+00
  0.00000000E+00  0.00000000E+00  0.00000000E+00
  0.00000000E+00  0.00000000E+00  0.00000000E+00
  0.00000000E+00  0.00000000E+00  0.00000000E+00
  0.00000000E+00  0.00000000E+00  0.00000000E+00
  0.00000000E+00  0.00000000E+00  0.00000000E+00
  0.00000000E+00  0.00000000E+00  0.00000000E+00
  0.00000000E+00  0.00000000E+00  0.00000000E+00
  0.00000000E+00  0.00000000E+00  0.00000000E+00
  0.00000000E+00  0.00000000E+00  0.00000000E+00