 S B N 
 1.0
 14.936314146199660   0.000000000000000   0.000000000000000
 -7.468157073099825  12.935227489513863   0.000000000000000
  0.000000000000001   0.000000000000001  13.341276283792837
 S B N 
   1 143 144
Cartesian
  3.734078536549917   5.030366245922021   5.002978606422314 
  1.223225162833635   0.685735289955954   5.002978606422314 
  5.034599790231927   7.265420545381112   5.002978606422314 
  6.244931910266181   0.685735289955954   5.002978606422314 
  9.968089186570715   7.189475877565488   5.002978606422314 
 11.202235609649751   0.718623749417456   5.002978606422314 
 -3.734078536549858   9.342108742426666  11.673616748318732 
  1.244732339184252   9.341977579167288  11.673616748318732 
  2.489578114440753   2.874687013301655  11.673616748318732 
  6.223424733915587   9.341977579167288  11.673616748318732 
  7.467965423545376   2.874605646591627  11.673616748318732 
 12.446988274750058   2.874540788766052  11.673616748318732 
 -1.252770579019342   9.349623020481177   5.002978606422314 
 -0.010517243177549   2.868422864490018   5.002978606422314 
  5.019431711878052   2.786554652342354   5.002978606422314 
  3.734078536549950   9.354253008786129   5.002978606422314 
  8.720927652119148   9.349623020481177   5.002978606422314 
  9.962044976457690   2.869645407538413   5.002978606422314 
 -4.978769609227837  11.498023673822495  11.673616748318732 
 -0.000003381365538  11.497978038446664  11.673616748318732 
  1.244955347635565   5.030436881665205  11.673616748318732 
  6.223201725464361   5.030436881665205  11.673616748318732 
  4.978781128527435  11.497905289851678  11.673616748318732 
 11.202235609649740   5.030370150386614  11.673616748318732 
 -1.283908928243085   5.028218917088879   5.002978606422314 
 -2.486917002098307  11.487227329233354   5.002978606422314 
  2.491334453122763  11.504303815990882   5.002978606422314 
  7.464803680479527  11.499916072810985   5.002978606422314 
  8.752066001343039   5.028218917088879   5.002978606422314 
  0.000111259164518   7.186173258665802  11.673616748318732 
  1.244786689397525   0.718723533566594  11.673616748318732 
  4.978701303355137   7.185974842799308  11.673616748318732 
  6.223370383702307   0.718723533566594  11.673616748318732 
  9.957504047001716   7.186217187925924  11.673616748318732 
 -2.499932113470893   7.189475877565488   5.002978606422314 
 11.202235609649751   0.718623749417457  11.673616748318732 
  3.734078536549916   0.681439080340738   5.002978606422314 
  2.433557282867910   7.265420545381112   5.002978606422314 
  7.500359941151593   7.204829828712755   5.002978606422314 
  8.719300893030457   0.717149514236820   5.002978606422314 
  2.489455769744671   7.185974842799308  11.673616748318732 
 13.685170326269063   0.717149514236820   5.002978606422314 
 -1.244655901223900   9.342085365531579  11.673616748318732 
  0.000191649554563   2.874605646591627  11.673616748318732 
  4.978578958659082   2.874687013301655  11.673616748318732 
  3.734078536549980   9.341887444582891  11.673616748318732 
  8.712812974323754   9.342085365531579  11.673616748318732 
  9.957482944549447   2.874540788766052  11.673616748318732 
 -3.734078536549858   9.342108742426664   5.002978606422314 
  1.226944445473130   9.377144530721321   5.002978606422314 
  2.448725361221796   2.786554652342354   5.002978606422314 
  6.241212627626707   9.377144530721321   5.002978606422314 
  7.478674316277473   2.868422864490018   5.002978606422314 
 12.442426242841833   2.869645407538413   5.002978606422314 
 -1.244559507968089   5.030397625032249  11.673616748318732 
 -2.489387463871877  11.498023673822495  11.673616748318732 
  2.489375944572527  11.497905289851678  11.673616748318732 
  3.734078536549918   5.030366245922021  11.673616748318732 
  7.468160454465350  11.497978038446664  11.673616748318732 
 -4.981240071001424  11.487227329233354   5.002978606422314 
  8.712716581068028   5.030397625032249  11.673616748318732 
  0.003353392620312  11.499916072810985   5.002978606422314 
  1.148204107539841   5.039123540042689   5.002978606422314 
 -0.032202868051756   7.204829828712755   5.002978606422314 
  6.319952965560114   5.039123540042689   5.002978606422314 
  4.976822619977225  11.504303815990882   5.002978606422314 
 11.202235609649746   5.026494081657956   5.002978606422314 
 -2.489346973901895   7.186217187925924  11.673616748318732 
  3.734078536549917   0.718752220434615  11.673616748318732 
  7.468045813935335   7.186173258665802  11.673616748318732 
  8.712780352571986   0.718652659148427  11.673616748318732 
 13.691690866727505   0.718652659148427  11.673616748318732 
 -0.000068024349736   1.437393745488110   1.668209013963104 
  3.734078536549919   7.904341999674636   1.666002303006385 
  4.978664155767145   1.438167827442421   1.668966412416615 
  8.712490011327546   7.904653451021745   1.668020362178264 
  9.957572371521614   1.437230405001181   1.667527780266720 
 -4.978847927805455  10.060776685547102   8.338377834261699 
  0.000245440497118  10.060663140695468   8.338085144001171 
  1.245142523939681   3.593378369045791   8.339954909838269 
  4.978610716574773  10.060718279332480   8.337748198881510 
  6.223014549160152   3.593378369045791   8.339954909838269 
 11.202235609649694   3.592994285169060   8.338461306257098 
 -2.489309145294381  10.060776685547102   1.667579378582928 
 -1.244600204374611   3.592986712945665   1.668209013963104 
  3.734078536549849   3.595466004236965   1.647784272121062 
  2.489546356525035  10.060718279332480   1.668209013963104 
  7.467911632602616  10.060663140695468   1.667872068843457 
  8.712757277474413   3.592986712945665   1.668209013963104 
 -6.223526887975211  12.216850973376403   8.338085144001171 
 -1.244630185124608  12.216850973376403   8.338085144001171 
  0.000850641103607   5.748622691734894   8.336990800428012 
  4.976738597745693   5.747816366764595   8.358172940723566 
  3.734078536549945  12.216637927763868   8.338429432577907 
  9.957359984027967   5.748812113208147   8.338085144001171 
 -2.489202910928134   5.748812113208146   1.667872068843457 
 -3.734078536549911  12.217019325236617   1.668020362178264 
  1.244800632699589  12.216665971055479   1.667495906587529 
  2.491418475354142   5.747816366764594   1.647784272121062 
  6.223356440400251  12.216665971055479   1.667495906587529 
  7.467306431996235   5.748622691734907   1.668966412416615 
 -1.244332938227815   7.904653451021746   8.337936850666365 
 -0.000068024349736   1.437393745488111   8.337748198881510 
  3.734078536549919   7.904341999674637   8.339954909838269 
  4.978664155767146   1.438167827442421   8.336990800428012 
  8.712490011327546   7.904653451021746   8.337936850666365 
 -3.734078536549919   7.904772856185915   1.667579378582928 
  9.957572371521614   1.437230405001182   8.338429432577907 
  2.489492917332581   1.438167827442421   1.668966412416615 
  1.245436260320830   7.904308218588915   1.668966412416615 
  6.222720812778901   7.904308218588915   1.668966412416615 
  7.468225097449552   1.437393745488110   1.668209013963104 
  1.245436260320831   7.904308218588916   8.336990800428012 
 12.446898847777787   1.437230405001181   1.667527780266720 
 -2.489309145294381  10.060776685547102   8.338377834261699 
 -1.244600204374611   3.592986712945666   8.337748198881510 
  3.734078536549849   3.595466004236965   8.358172940723566 
  2.489546356525036  10.060718279332480   8.337748198881510 
  7.467911632602616  10.060663140695468   8.338085144001171 
  8.712757277474413   3.592986712945666   8.337748198881510 
 -4.978847927805456  10.060776685547102   1.667579378582928 
  0.000245440497118  10.060663140695468   1.667872068843457 
  1.245142523939681   3.593378369045790   1.666002303006385 
  4.978610716574772  10.060718279332480   1.668209013963104 
  6.223014549160151   3.593378369045790   1.666002303006385 
 11.202235609649694   3.592994285169059   1.667495906587529 
 -2.489202910928134   5.748812113208147   8.338085144001171 
 -3.734078536549910  12.217019325236617   8.337936850666365 
  1.244800632699590  12.216665971055479   8.338461306257098 
  2.491418475354143   5.747816366764595   8.358172940723566 
  6.223356440400252  12.216665971055479   8.338461306257098 
 -6.223526887975212  12.216850973376403   1.667872068843457 
  7.467306431996243   5.748622691734894   8.336990800428012 
 -1.244630185124608  12.216850973376403   1.667872068843457 
  0.000850641103607   5.748622691734893   1.668966412416615 
 -1.244332938227815   7.904653451021745   1.668020362178264 
  4.976738597745692   5.747816366764594   1.647784272121062 
  3.734078536549944  12.216637927763868   1.667527780266720 
  9.957359984027967   5.748812113208146   1.667872068843457 
 -3.734078536549919   7.904772856185916   8.338377834261699 
  2.489492917332581   1.438167827442421   8.336990800428012 
  6.222720812778902   7.904308218588916   8.336990800428012 
  7.468225097449553   1.437393745488111   8.337748198881510 
 12.446898847777787   1.437230405001182   8.338429432577907 
  1.244677178976492   0.718774594622234   1.669506608342140 
  4.978404014967233   7.186043249125403   1.665005183204654 
  6.223479894123338   0.718774594622234   1.669506608342140 
  9.957468496168518   7.186177056506077   1.668096085481697 
 11.202235609649751   0.718623749417456   1.667688994799884 
 -3.734078536549858   9.342108742426664   8.337936932930047 
  1.244831314566089   9.342046887446072   8.336450604502501 
  2.489370228630607   2.874910269434782   8.340952029639974 
  6.223325758533766   9.342046887446072   8.336450604502501 
  7.468286544421553   2.874420247367307   8.336690852302633 
 12.446841683985392   2.874454876042281   8.338343421867830 
 -1.244603370978226   9.342074643316849   1.668096085481697 
 -0.000129471321614   2.874420247367306   1.669266360541994 
  4.978786844469225   2.874910269434781   1.665005183204654 
  3.734078536549950   9.342258243031528   1.669266360541994 
  8.712760444078064   9.342074643316849   1.668096085481697 
  9.957629535314084   2.874454876042280   1.667613790976785 
 -4.978786588640321  11.498074527457103   8.337861127362931 
  0.000029463750022  11.497997001582947   8.338217697832535 
  1.245044750213331   5.030145219205969   8.340952029639974 
  6.223112322886594   5.030145219205969   8.340952029639974 
  4.978780021308444  11.498075197539722   8.338343421867830 
 11.202235609649755   5.030332224114019   8.338217697832535 
 -1.244570043007284   5.030277255697847   1.669506608342140 
 -2.489370484459394  11.498074527457103   1.668096085481697 
  2.489377051791502  11.498075197539722   1.667613790976785 
  3.734078536549917   5.030366245922020   1.607642259136103 
  7.468127609349834  11.497997001582947   1.667739515012091 
  8.712727116107239   5.030277255697847   1.669506608342140 
  0.000239005555803   7.186099504252414   8.336251639081013 
  1.244677178976492   0.718774594622234   8.336450604502501 
  4.978404014967234   7.186043249125404   8.340952029639974 
  6.223479894123339   0.718774594622234   8.336450604502501 
  9.957468496168518   7.186177056506078   8.337861127362931 
 -2.489311423068699   7.186177056506077   1.668096085481697 
 11.202235609649751   0.718623749417456   8.338268218044718 
  3.734078536549915   0.718899729261418   1.669705573763629 
  2.489753058132589   7.186043249125403   1.665005183204654 
  7.467918067544034   7.186099504252413   1.669705573763629 
  8.712928050555620   0.718568664184163   1.667613790976785 
  2.489753058132589   7.186043249125404   8.340952029639974 
 13.691543168743870   0.718568664184163   1.667613790976785 
 -1.244603370978225   9.342074643316849   8.337861127362931 
 -0.000129471321614   2.874420247367307   8.336690852302633 
  4.978786844469226   2.874910269434782   8.340952029639974 
  3.734078536549950   9.342258243031528   8.336690852302633 
  8.712760444078064   9.342074643316849   8.337861127362931 
  9.957629535314084   2.874454876042281   8.338343421867830 
 -3.734078536549859   9.342108742426664   1.668020279914567 
  1.244831314566088   9.342046887446072   1.669506608342140 
  2.489370228630607   2.874910269434781   1.665005183204654 
  6.223325758533765   9.342046887446072   1.669506608342140 
  7.468286544421552   2.874420247367306   1.669266360541994 
 12.446841683985392   2.874454876042280   1.667613790976785 
 -1.244570043007284   5.030277255697848   8.336450604502501 
 -2.489370484459394  11.498074527457103   8.337861127362931 
  2.489377051791502  11.498075197539722   8.338343421867830 
  3.734078536549917   5.030366245922021   8.398314953708539 
  7.468127609349835  11.497997001582947   8.338217697832535 
 -4.978786588640322  11.498074527457103   1.668096085481697 
  8.712727116107239   5.030277255697848   8.336450604502501 
  0.000029463750021  11.497997001582947   1.667739515012091 
  1.245044750213331   5.030145219205968   1.665005183204654 
  0.000239005555803   7.186099504252413   1.669705573763629 
  6.223112322886593   5.030145219205968   1.665005183204654 
  4.978780021308443  11.498075197539722   1.667613790976785 
 11.202235609649755   5.030332224114018   1.667739515012091 
 -2.489311423068698   7.186177056506078   8.337861127362931 
  3.734078536549915   0.718899729261418   8.336251639081013 
  7.467918067544034   7.186099504252414   8.336251639081013 
  8.712928050555620   0.718568664184164   8.338343421867830 
 13.691543168743870   0.718568664184164   8.338343421867830 
 -0.007954761639714   1.430126851818381   5.002978606422314 
  3.734078536549927   7.915251474580693   5.002978606422314 
  5.000683843764859   1.370320821434550   5.002978606422314 
  8.733841475864375   7.916980724819659   5.002978606422314 
  9.960770702009535   1.435383848033005   5.002978606422314 
 -4.978776199897963  10.060735273420397  11.673616748318732 
 -0.000008102366006  10.060743082410129  11.673616748318732 
  1.244686432626408   3.593115044603315  11.673616748318732 
  4.978792495946357  10.060717773140786  11.673616748318732 
  6.223470640473411   3.593115044603315  11.673616748318732 
 11.202235609649680   3.593155005007811  11.673616748318732 
 -2.493344561546817  10.058446836887448   5.002978606422314 
 -1.254836887544179   3.589790044934423   5.002978606422314 
  3.734078536549872   3.342943603248237   5.002978606422314 
  2.487196410645468  10.071181841013439   5.002978606422314 
  7.480805840527878  10.075206995188651   5.002978606422314 
  8.722993960644013   3.589790044934423   5.002978606422314 
 -6.223469348099353  12.216591427958633  11.673616748318732 
 -1.244687725000436  12.216591427958633  11.673616748318732 
 -0.000033362726862   5.749011701804276  11.673616748318732 
  4.978942079208452   5.749088547380282  11.673616748318732 
  3.734078536549898  12.216582768932652  11.673616748318732 
  9.957555987015263   5.748991716911230  11.673616748318732 
 -2.508245362350813   5.752706897586473   5.002978606422314 
 -3.734078536549909  12.192364777640764   5.002978606422314 
  1.247227157488364  12.218066925795474   5.002978606422314 
  2.272727661073292   5.874077567258952   5.002978606422314 
  6.220929915611475  12.218066925795474   5.002978606422314 
  7.537073506768623   5.763476585549416   5.002978606422314 
 -1.244714983994976   7.904874025248252  11.673616748318732 
  0.000023303710938   1.437236573030285  11.673616748318732 
  3.734078536549919   7.904868648559616  11.673616748318732 
  4.978769265079968   1.437207752633502  11.673616748318732 
  8.712872057094708   7.904874025248252  11.673616748318732 
 -3.734078536549911   7.909432553505185   5.002978606422314 
  9.957524602572489   1.437257984416792  11.673616748318732 
  2.467473229334868   1.370320821434550   5.002978606422314 
  1.197688873546164   7.957301330782267   5.002978606422314 
  6.270468199553584   7.957301330782267   5.002978606422314 
  7.476111834739561   1.430126851818381   5.002978606422314 
  1.244657365803183   7.904879283328455  11.673616748318732 
 12.443700517289836   1.435383848033005   5.002978606422314 
 -2.489380873201842  10.060735273420397  11.673616748318732 
 -1.244690655685512   3.593144391595176  11.673616748318732 
  3.734078536549858   3.592921643005605  11.673616748318732 
  2.489364577153455  10.060717773140786  11.673616748318732 
  7.468165175465757  10.060743082410129  11.673616748318732 
  8.712847728785345   3.593144391595176  11.673616748318732 
 -4.974812511553004  10.058446836887448   5.002978606422314 
 -0.012648767428100  10.075206995188651   5.002978606422314 
  1.235694641529071   3.587923631592770   5.002978606422314 
  4.980960662454385  10.071181841013439   5.002978606422314 
  6.232462431570749   3.587923631592770   5.002978606422314 
 11.202235609649701   3.590192375689056   5.002978606422314 
 -2.489398913915414   5.748991716911230  11.673616748318732 
 -3.734078536549916  12.216578176783594  11.673616748318732 
  1.244661445236326  12.216585611136106  11.673616748318732 
  2.489214993891384   5.749088547380282  11.673616748318732 
  6.223495627863486  12.216585611136106  11.673616748318732 
 -6.229675131472644  12.198412334504843   5.002978606422314 
  7.468190435826682   5.749011701804276  11.673616748318732 
 -1.238481941627146  12.198412334504843   5.002978606422314 
 -0.068916433668789   5.763476585549416   5.002978606422314 
 -1.265684402764629   7.916980724819659   5.002978606422314 
  5.195429412026559   5.874077567258952   5.002978606422314 
  3.734078536549914  12.220331041700220   5.002978606422314 
  9.976402435450662   5.752706897586473   5.002978606422314 
 -3.734078536549911   7.904855680439293  11.673616748318732 
  2.489387808019760   1.437207752633502  11.673616748318732 
  6.223499707296519   7.904879283328455  11.673616748318732 
  7.468133769388895   1.437236573030285  11.673616748318732 
 12.446946616726880   1.437257984416792  11.673616748318732 
Generated by cif2cell 2.0.0.  :  Failed to get author information, No journal information. Species order: S B N 
 1.0
 14.936314146199660   0.000000000000000   0.000000000000000
 -7.468157073099825  12.935227489513863   0.000000000000000
  0.000000000000001   0.000000000000001  13.341276283792837
 S B N 
   1 143 144
Cartesian
  3.734078536549917   5.030366245922021   5.002978606422314 
  1.223225162833635   0.685735289955954   5.002978606422314 
  5.034599790231927   7.265420545381112   5.002978606422314 
  6.244931910266181   0.685735289955954   5.002978606422314 
  9.968089186570715   7.189475877565488   5.002978606422314 
 11.202235609649751   0.718623749417456   5.002978606422314 
 -3.734078536549858   9.342108742426666  11.673616748318732 
  1.244732339184252   9.341977579167288  11.673616748318732 
  2.489578114440753   2.874687013301655  11.673616748318732 
  6.223424733915587   9.341977579167288  11.673616748318732 
  7.467965423545376   2.874605646591627  11.673616748318732 
 12.446988274750058   2.874540788766052  11.673616748318732 
 -1.252770579019342   9.349623020481177   5.002978606422314 
 -0.010517243177549   2.868422864490018   5.002978606422314 
  5.019431711878052   2.786554652342354   5.002978606422314 
  3.734078536549950   9.354253008786129   5.002978606422314 
  8.720927652119148   9.349623020481177   5.002978606422314 
  9.962044976457690   2.869645407538413   5.002978606422314 
 -4.978769609227837  11.498023673822495  11.673616748318732 
 -0.000003381365538  11.497978038446664  11.673616748318732 
  1.244955347635565   5.030436881665205  11.673616748318732 
  6.223201725464361   5.030436881665205  11.673616748318732 
  4.978781128527435  11.497905289851678  11.673616748318732 
 11.202235609649740   5.030370150386614  11.673616748318732 
 -1.283908928243085   5.028218917088879   5.002978606422314 
 -2.486917002098307  11.487227329233354   5.002978606422314 
  2.491334453122763  11.504303815990882   5.002978606422314 
  7.464803680479527  11.499916072810985   5.002978606422314 
  8.752066001343039   5.028218917088879   5.002978606422314 
  0.000111259164518   7.186173258665802  11.673616748318732 
  1.244786689397525   0.718723533566594  11.673616748318732 
  4.978701303355137   7.185974842799308  11.673616748318732 
  6.223370383702307   0.718723533566594  11.673616748318732 
  9.957504047001716   7.186217187925924  11.673616748318732 
 -2.499932113470893   7.189475877565488   5.002978606422314 
 11.202235609649751   0.718623749417457  11.673616748318732 
  3.734078536549916   0.681439080340738   5.002978606422314 
  2.433557282867910   7.265420545381112   5.002978606422314 
  7.500359941151593   7.204829828712755   5.002978606422314 
  8.719300893030457   0.717149514236820   5.002978606422314 
  2.489455769744671   7.185974842799308  11.673616748318732 
 13.685170326269063   0.717149514236820   5.002978606422314 
 -1.244655901223900   9.342085365531579  11.673616748318732 
  0.000191649554563   2.874605646591627  11.673616748318732 
  4.978578958659082   2.874687013301655  11.673616748318732 
  3.734078536549980   9.341887444582891  11.673616748318732 
  8.712812974323754   9.342085365531579  11.673616748318732 
  9.957482944549447   2.874540788766052  11.673616748318732 
 -3.734078536549858   9.342108742426664   5.002978606422314 
  1.226944445473130   9.377144530721321   5.002978606422314 
  2.448725361221796   2.786554652342354   5.002978606422314 
  6.241212627626707   9.377144530721321   5.002978606422314 
  7.478674316277473   2.868422864490018   5.002978606422314 
 12.442426242841833   2.869645407538413   5.002978606422314 
 -1.244559507968089   5.030397625032249  11.673616748318732 
 -2.489387463871877  11.498023673822495  11.673616748318732 
  2.489375944572527  11.497905289851678  11.673616748318732 
  3.734078536549918   5.030366245922021  11.673616748318732 
  7.468160454465350  11.497978038446664  11.673616748318732 
 -4.981240071001424  11.487227329233354   5.002978606422314 
  8.712716581068028   5.030397625032249  11.673616748318732 
  0.003353392620312  11.499916072810985   5.002978606422314 
  1.148204107539841   5.039123540042689   5.002978606422314 
 -0.032202868051756   7.204829828712755   5.002978606422314 
  6.319952965560114   5.039123540042689   5.002978606422314 
  4.976822619977225  11.504303815990882   5.002978606422314 
 11.202235609649746   5.026494081657956   5.002978606422314 
 -2.489346973901895   7.186217187925924  11.673616748318732 
  3.734078536549917   0.718752220434615  11.673616748318732 
  7.468045813935335   7.186173258665802  11.673616748318732 
  8.712780352571986   0.718652659148427  11.673616748318732 
 13.691690866727505   0.718652659148427  11.673616748318732 
 -0.000068024349736   1.437393745488110   1.668209013963104 
  3.734078536549919   7.904341999674636   1.666002303006385 
  4.978664155767145   1.438167827442421   1.668966412416615 
  8.712490011327546   7.904653451021745   1.668020362178264 
  9.957572371521614   1.437230405001181   1.667527780266720 
 -4.978847927805455  10.060776685547102   8.338377834261699 
  0.000245440497118  10.060663140695468   8.338085144001171 
  1.245142523939681   3.593378369045791   8.339954909838269 
  4.978610716574773  10.060718279332480   8.337748198881510 
  6.223014549160152   3.593378369045791   8.339954909838269 
 11.202235609649694   3.592994285169060   8.338461306257098 
 -2.489309145294381  10.060776685547102   1.667579378582928 
 -1.244600204374611   3.592986712945665   1.668209013963104 
  3.734078536549849   3.595466004236965   1.647784272121062 
  2.489546356525035  10.060718279332480   1.668209013963104 
  7.467911632602616  10.060663140695468   1.667872068843457 
  8.712757277474413   3.592986712945665   1.668209013963104 
 -6.223526887975211  12.216850973376403   8.338085144001171 
 -1.244630185124608  12.216850973376403   8.338085144001171 
  0.000850641103607   5.748622691734894   8.336990800428012 
  4.976738597745693   5.747816366764595   8.358172940723566 
  3.734078536549945  12.216637927763868   8.338429432577907 
  9.957359984027967   5.748812113208147   8.338085144001171 
 -2.489202910928134   5.748812113208146   1.667872068843457 
 -3.734078536549911  12.217019325236617   1.668020362178264 
  1.244800632699589  12.216665971055479   1.667495906587529 
  2.491418475354142   5.747816366764594   1.647784272121062 
  6.223356440400251  12.216665971055479   1.667495906587529 
  7.467306431996235   5.748622691734907   1.668966412416615 
 -1.244332938227815   7.904653451021746   8.337936850666365 
 -0.000068024349736   1.437393745488111   8.337748198881510 
  3.734078536549919   7.904341999674637   8.339954909838269 
  4.978664155767146   1.438167827442421   8.336990800428012 
  8.712490011327546   7.904653451021746   8.337936850666365 
 -3.734078536549919   7.904772856185915   1.667579378582928 
  9.957572371521614   1.437230405001182   8.338429432577907 
  2.489492917332581   1.438167827442421   1.668966412416615 
  1.245436260320830   7.904308218588915   1.668966412416615 
  6.222720812778901   7.904308218588915   1.668966412416615 
  7.468225097449552   1.437393745488110   1.668209013963104 
  1.245436260320831   7.904308218588916   8.336990800428012 
 12.446898847777787   1.437230405001181   1.667527780266720 
 -2.489309145294381  10.060776685547102   8.338377834261699 
 -1.244600204374611   3.592986712945666   8.337748198881510 
  3.734078536549849   3.595466004236965   8.358172940723566 
  2.489546356525036  10.060718279332480   8.337748198881510 
  7.467911632602616  10.060663140695468   8.338085144001171 
  8.712757277474413   3.592986712945666   8.337748198881510 
 -4.978847927805456  10.060776685547102   1.667579378582928 
  0.000245440497118  10.060663140695468   1.667872068843457 
  1.245142523939681   3.593378369045790   1.666002303006385 
  4.978610716574772  10.060718279332480   1.668209013963104 
  6.223014549160151   3.593378369045790   1.666002303006385 
 11.202235609649694   3.592994285169059   1.667495906587529 
 -2.489202910928134   5.748812113208147   8.338085144001171 
 -3.734078536549910  12.217019325236617   8.337936850666365 
  1.244800632699590  12.216665971055479   8.338461306257098 
  2.491418475354143   5.747816366764595   8.358172940723566 
  6.223356440400252  12.216665971055479   8.338461306257098 
 -6.223526887975212  12.216850973376403   1.667872068843457 
  7.467306431996243   5.748622691734894   8.336990800428012 
 -1.244630185124608  12.216850973376403   1.667872068843457 
  0.000850641103607   5.748622691734893   1.668966412416615 
 -1.244332938227815   7.904653451021745   1.668020362178264 
  4.976738597745692   5.747816366764594   1.647784272121062 
  3.734078536549944  12.216637927763868   1.667527780266720 
  9.957359984027967   5.748812113208146   1.667872068843457 
 -3.734078536549919   7.904772856185916   8.338377834261699 
  2.489492917332581   1.438167827442421   8.336990800428012 
  6.222720812778902   7.904308218588916   8.336990800428012 
  7.468225097449553   1.437393745488111   8.337748198881510 
 12.446898847777787   1.437230405001182   8.338429432577907 
  1.244677178976492   0.718774594622234   1.669506608342140 
  4.978404014967233   7.186043249125403   1.665005183204654 
  6.223479894123338   0.718774594622234   1.669506608342140 
  9.957468496168518   7.186177056506077   1.668096085481697 
 11.202235609649751   0.718623749417456   1.667688994799884 
 -3.734078536549858   9.342108742426664   8.337936932930047 
  1.244831314566089   9.342046887446072   8.336450604502501 
  2.489370228630607   2.874910269434782   8.340952029639974 
  6.223325758533766   9.342046887446072   8.336450604502501 
  7.468286544421553   2.874420247367307   8.336690852302633 
 12.446841683985392   2.874454876042281   8.338343421867830 
 -1.244603370978226   9.342074643316849   1.668096085481697 
 -0.000129471321614   2.874420247367306   1.669266360541994 
  4.978786844469225   2.874910269434781   1.665005183204654 
  3.734078536549950   9.342258243031528   1.669266360541994 
  8.712760444078064   9.342074643316849   1.668096085481697 
  9.957629535314084   2.874454876042280   1.667613790976785 
 -4.978786588640321  11.498074527457103   8.337861127362931 
  0.000029463750022  11.497997001582947   8.338217697832535 
  1.245044750213331   5.030145219205969   8.340952029639974 
  6.223112322886594   5.030145219205969   8.340952029639974 
  4.978780021308444  11.498075197539722   8.338343421867830 
 11.202235609649755   5.030332224114019   8.338217697832535 
 -1.244570043007284   5.030277255697847   1.669506608342140 
 -2.489370484459394  11.498074527457103   1.668096085481697 
  2.489377051791502  11.498075197539722   1.667613790976785 
  3.734078536549917   5.030366245922020   1.607642259136103 
  7.468127609349834  11.497997001582947   1.667739515012091 
  8.712727116107239   5.030277255697847   1.669506608342140 
  0.000239005555803   7.186099504252414   8.336251639081013 
  1.244677178976492   0.718774594622234   8.336450604502501 
  4.978404014967234   7.186043249125404   8.340952029639974 
  6.223479894123339   0.718774594622234   8.336450604502501 
  9.957468496168518   7.186177056506078   8.337861127362931 
 -2.489311423068699   7.186177056506077   1.668096085481697 
 11.202235609649751   0.718623749417456   8.338268218044718 
  3.734078536549915   0.718899729261418   1.669705573763629 
  2.489753058132589   7.186043249125403   1.665005183204654 
  7.467918067544034   7.186099504252413   1.669705573763629 
  8.712928050555620   0.718568664184163   1.667613790976785 
  2.489753058132589   7.186043249125404   8.340952029639974 
 13.691543168743870   0.718568664184163   1.667613790976785 
 -1.244603370978225   9.342074643316849   8.337861127362931 
 -0.000129471321614   2.874420247367307   8.336690852302633 
  4.978786844469226   2.874910269434782   8.340952029639974 
  3.734078536549950   9.342258243031528   8.336690852302633 
  8.712760444078064   9.342074643316849   8.337861127362931 
  9.957629535314084   2.874454876042281   8.338343421867830 
 -3.734078536549859   9.342108742426664   1.668020279914567 
  1.244831314566088   9.342046887446072   1.669506608342140 