Species order: X N B                    
   2.51242800000000     
     5.9449720136058266    0.0000000000000000    0.0000000000000000
    -2.9724860068029120    5.1484967885702053   -0.0000000000000001
     0.0000000000000000    0.0000000000000009    5.3101128803662583
   S    N    B 
     1   144   143
Direct
  0.4444444444444429  0.3888888888888857  0.3750000000000000
  0.1111158930123721  0.0555672171366848  0.1251384479886886
  0.6110790071712811  0.5555405388077536  0.1248010421032452
  0.4444513241243129  0.0555672171366848  0.1251384479886886
  0.9444371359701057  0.5555508832242542  0.1250327217575223
  0.7777777777777786  0.0555555555555571  0.1250022081340011
  0.1111111111111143  0.7222222222222214  0.6249729602751044
  0.4444513241243129  0.7222174403209640  0.6248615520113124
  0.2777927945255825  0.2222543261620542  0.6251989578967547
  0.7777661161966518  0.7222174403209640  0.6248615520113124
  0.6111168899273335  0.2222164434060014  0.6248795598686577
  0.9444370841671806  0.2222191204887969  0.6250034287946917
  0.2777824501090828  0.7222195860791887  0.1250327217575223
  0.1110995534786745  0.2222164434060014  0.1251204401313423
  0.4444615316364715  0.2222543261620542  0.1248010421032452
  0.6111168899273335  0.7222337798546619  0.1251204401313423
  0.9444371359701057  0.7222195860791887  0.1250327217575223
  0.7777820363216150  0.2222191204887969  0.1249965712053075
  0.1111137472541474  0.8888961973632229  0.6249672782424777
  0.4444470746114058  0.8888902039723668  0.6249940051059366
  0.2777927945255825  0.3888718016968571  0.6251989578967547
  0.6110790071712811  0.3888718016968571  0.6251989578967547
  0.7777820363216150  0.8888962491661480  0.6250034287946917
  0.9444431293609618  0.3888862587219228  0.6249940051059366
  0.1111158930123721  0.3888820092090157  0.1251384479886886
  0.2777824501090828  0.8888961973632229  0.1250327217575223
  0.6111142128445397  0.8888962491661480  0.1249965712053075
  0.4444444444444429  0.3888888888888857  0.1205013841958352
  0.9444431293609618  0.8888902039723668  0.1250059948940632
  0.7777661161966518  0.3888820092090157  0.1251384479886886
  0.2777884455392920  0.5555448877940435  0.6248466384890027
  0.1111158930123721  0.0555672171366848  0.6248615520113124
  0.6110790071712811  0.5555405388077536  0.6251989578967547
  0.4444513241243129  0.0555672171366848  0.6248615520113124
  0.9444371359701057  0.5555508832242542  0.6249672782424777
  0.1111137472541474  0.5555508832242542  0.1250327217575223
  0.7777777777777786  0.0555555555555571  0.6249977918659975
  0.2777884455392920  0.0555768910785840  0.1251533615109977
  0.4444615316364715  0.5555405388077536  0.1248010421032452
  0.7777564422547517  0.5555448877940435  0.1251533615109977
  0.6111142128445397  0.0555512970117206  0.1249965712053075
  0.4444615316364715  0.5555405388077536  0.6251989578967547
  0.9444370841671806  0.0555512970117206  0.1249965712053075
  0.2777824501090828  0.7222195860791887  0.6249672782424777
  0.1110995534786745  0.2222164434060014  0.6248795598686577
  0.4444615316364715  0.2222543261620542  0.6251989578967547
  0.6111168899273335  0.7222337798546619  0.6248795598686577
  0.9444371359701057  0.7222195860791887  0.6249672782424777
  0.7777820363216150  0.2222191204887969  0.6250034287946917
  0.1111111111111143  0.7222222222222214  0.1250270397248948
  0.4444513241243129  0.7222174403209640  0.1251384479886886
  0.2777927945255825  0.2222543261620543  0.1248010421032452
  0.7777661161966518  0.7222174403209640  0.1251384479886886
  0.6111168899273335  0.2222164434060014  0.1251204401313423
  0.9444370841671806  0.2222191204887969  0.1249965712053075
  0.1111158930123721  0.3888820092090157  0.6248615520113124
  0.2777824501090828  0.8888961973632229  0.6249672782424777
  0.6111142128445397  0.8888962491661480  0.6250034287946917
  0.4444444444444429  0.3888888888888857  0.6294986158041656
  0.9444431293609618  0.8888902039723668  0.6249940051059366
  0.1111137472541474  0.8888961973632229  0.1250327217575223
  0.7777661161966518  0.3888820092090157  0.6248615520113124
  0.4444470746114058  0.8888902039723668  0.1250059948940632
  0.2777927945255825  0.3888718016968571  0.1248010421032452
  0.2777884455392920  0.5555448877940435  0.1251533615109977
  0.6110790071712811  0.3888718016968571  0.1248010421032452
  0.7777820363216150  0.8888962491661480  0.1249965712053075
  0.9444431293609618  0.3888862587219228  0.1250059948940632
  0.1111137472541474  0.5555508832242542  0.6249672782424777
  0.2777884455392920  0.0555768910785840  0.6248466384890027
  0.7777564422547517  0.5555448877940435  0.6248466384890027
  0.6111142128445397  0.0555512970117206  0.6250034287946917
  0.9444370841671806  0.0555512970117206  0.6250034287946917
  0.0547477344965321  0.1105606262416133  0.3750000000000000
  0.5559571809230770  0.6119143618461533  0.3750000000000000
  0.3877689557279356  0.1059371257711103  0.3750000000000000
  0.8907627610318608  0.6120480471826014  0.3750000000000000
  0.7223662978330612  0.1109670355002744  0.3750000000000000
  0.0555553405167202  0.7777779928166153  0.8750000000000000
  0.3888887557971598  0.7777785965160660  0.8750000000000000
  0.2222216497570067  0.2777774915451715  0.8750000000000000
  0.7222230668772254  0.7777766399003538  0.8750000000000000
  0.5555558417881642  0.2777774915451715  0.8750000000000000
  0.8888902904073601  0.2777805808147293  0.8750000000000000
  0.2218688221821335  0.7776010777577338  0.3750000000000000
  0.0547477344965321  0.2775204415882547  0.3750000000000000
  0.3792185856784565  0.2584371713569203  0.3750000000000000
  0.5558128917450822  0.7785855988368037  0.3750000000000000
  0.8902952349006824  0.7788967765241295  0.3750000000000000
  0.7227727070917234  0.2775204415882547  0.3750000000000000
  0.0555547368172697  0.9444434926144284  0.8750000000000000
  0.3888887557971598  0.9444434926144284  0.8750000000000000
  0.2222208276014756  0.4444461225335852  0.8750000000000000
  0.5555707933302126  0.4444520633317706  0.8750000000000000
  0.7222214116000730  0.9444428232001487  0.8750000000000000
  0.8888898407189002  0.4444445775361688  0.8750000000000000
  0.0544365568092051  0.4447317917098859  0.3750000000000000
  0.2212852861507340  0.9425705723014678  0.3750000000000000
  0.5557817882523151  0.9445575607928220  0.3750000000000000
  0.3792185856784565  0.4541147476548721  0.3750000000000000
  0.8887757725405065  0.9445575607928220  0.3750000000000000
  0.7273962075622258  0.4455643776053930  0.3750000000000000
  0.2222212340945353  0.6111120992388002  0.8750000000000000
  0.0555566934329829  0.1111102664561105  0.8750000000000000
  0.5555558417881642  0.6111116835763284  0.8750000000000000
  0.3888872107997434  0.1111080384012263  0.8750000000000000
  0.8888908651442577  0.6111120992388002  0.8750000000000000
  0.0557322555756011  0.6114645111512022  0.3750000000000000
  0.7222214116000730  0.1111119217332614  0.8750000000000000
  0.2181681700431671  0.1059371257711103  0.3750000000000000
  0.3877689557279356  0.6151651632901685  0.3750000000000000
  0.7273962075622258  0.6151651632901685  0.3750000000000000
  0.5558128917450822  0.1105606262416133  0.3750000000000000
  0.3888872107997434  0.6111125057318600  0.8750000000000000
  0.8886007376672052  0.1109670355002744  0.3750000000000000
  0.2222226522998956  0.7777779928166153  0.8750000000000000
  0.0555566934329829  0.2777797603102080  0.8750000000000000
  0.3888812700015580  0.2777625400031236  0.8750000000000000
  0.5555535730231270  0.7777766399003538  0.8750000000000000
  0.8888898407189002  0.7777785965160660  0.8750000000000000
  0.7222230668772254  0.2777797603102080  0.8750000000000000
  0.0557322555756011  0.7776010777577338  0.3750000000000000
  0.3886015416234427  0.7788967765241295  0.3750000000000000
  0.2214189714871813  0.2773761524102590  0.3750000000000000
  0.7227727070917234  0.7785855988368037  0.3750000000000000
  0.5559571809230770  0.2773761524102590  0.3750000000000000
  0.8887757725405065  0.2775515450810198  0.3750000000000000
  0.0555547368172697  0.4444445775361688  0.8750000000000000
  0.2222212340945353  0.9444424681890708  0.8750000000000000
  0.5555527525186064  0.9444430429259685  0.8750000000000000
  0.3888812700015580  0.4444520633317706  0.8750000000000000
  0.8888902904073601  0.9444430429259685  0.8750000000000000
  0.0544365568092051  0.9430380984326462  0.3750000000000000
  0.7222252949321082  0.4444461225335852  0.8750000000000000
  0.3886015416234427  0.9430380984326462  0.3750000000000000
  0.2181681700431671  0.4455643776053930  0.3750000000000000
  0.2212852861507340  0.6120480471826014  0.3750000000000000
  0.5748961619764157  0.4541147476548721  0.3750000000000000
  0.7223662978330612  0.9447325956661234  0.3750000000000000
  0.8902952349006824  0.4447317917098859  0.3750000000000000
  0.0555553405167202  0.6111106810334405  0.8750000000000000
  0.2222208276014756  0.1111080384012263  0.8750000000000000
  0.7222252949321082  0.6111125057318600  0.8750000000000000
  0.5555535730231270  0.1111102664561105  0.8750000000000000
  0.8888905101331799  0.1111119217332614  0.8750000000000000
  0.1084025550905071  0.0530130058023217  0.3750000000000000
  0.6179096266686240  0.5616770598948442  0.3750000000000000
  0.4446104507118145  0.0530130058023217  0.3750000000000000
  0.9452757140494272  0.5558059093582814  0.3750000000000000
  0.7777777777777786  0.0555555555555571  0.3750000000000000
  0.1111111111111143  0.7222222222222214  0.8750000000000000
  0.4444420185798603  0.7222120822181516  0.8750000000000000
  0.2777980828999966  0.2222370666176581  0.8750000000000000
  0.7777700636382925  0.7222120822181516  0.8750000000000000
  0.6111025570348926  0.2222307762984425  0.8750000000000000
  0.9444502194358247  0.2222257622524493  0.8750000000000000
  0.2775274239750541  0.7228031380244829  0.3750000000000000
  0.1101722589440927  0.2217527961387108  0.3750000000000000
  0.4437674332262201  0.2154237066647125  0.3750000000000000
  0.6115805371946237  0.7231610743892439  0.3750000000000000
  0.9452757140494272  0.7228031380244829  0.3750000000000000
  0.7778917483424117  0.2218473088211810  0.3750000000000000
  0.1111129183383234  0.8888922659569415  0.8750000000000000
  0.4444441425970572  0.8888887379651935  0.8750000000000000
  0.2777980828999966  0.3888943496156676  0.8750000000000000
  0.6110962667156771  0.3888943496156676  0.8750000000000000
  0.7777755428166250  0.8888831138975039  0.8750000000000000
  0.9444445953681351  0.3888891907362714  0.8750000000000000
  0.1084025550905071  0.3887228826215141  0.3750000000000000
  0.2775274239750541  0.8880576192839014  0.3750000000000000
  0.6114860245121546  0.8893777728545573  0.3750000000000000
  0.9442947692931087  0.8890385640402199  0.3750000000000000
  0.7803203275310150  0.3887228826215141  0.3750000000000000
  0.2777827437135249  0.5555505896198101  0.8750000000000000
  0.1111212511151831  0.0555632696950434  0.8750000000000000
  0.6110962667156771  0.5555352504333395  0.8750000000000000
  0.4444420185798603  0.0555632696950434  0.8750000000000000
  0.9444410673763871  0.5555539857147106  0.8750000000000000
  0.1105301953088529  0.5558059093582814  0.3750000000000000
  0.7777777777777786  0.0555555555555571  0.8750000000000000
  0.2763404366445490  0.0526808732890979  0.3750000000000000
  0.4437674332262201  0.5616770598948442  0.3750000000000000
  0.7806524600442377  0.5569928966887874  0.3750000000000000
  0.6114860245121546  0.0554415849909245  0.3750000000000000
  0.4444389837176610  0.5555352504333395  0.8750000000000000
  0.9439555604787713  0.0554415849909245  0.3750000000000000
  0.2777793476186246  0.7222204149950109  0.8750000000000000
  0.1111282192635566  0.2222307762984425  0.8750000000000000
  0.4444389837176610  0.2222370666176581  0.8750000000000000
  0.6111025570348926  0.7222051140697785  0.8750000000000000
  0.9444410673763871  0.7222204149950109  0.8750000000000000
  0.7777755428166250  0.2222257622524493  0.8750000000000000
  0.1111111111111143  0.7222222222222214  0.3750000000000000
  0.4446104507118145  0.7249307782428295  0.3750000000000000
  0.2716562734384925  0.2154237066647125  0.3750000000000000
  0.7803203275310150  0.7249307782428295  0.3750000000000000
  0.6115805371946237  0.2217527961387108  0.3750000000000000
  0.9439555604787713  0.2218473088211810  0.3750000000000000
  0.1111212511151831  0.3888913147534683  0.8750000000000000
  0.2777793476186246  0.8888922659569415  0.8750000000000000
  0.6111075710808871  0.8888831138975039  0.8750000000000000
  0.4444444444444429  0.3888888888888857  0.8750000000000000
  0.9444445953681351  0.8888887379651935  0.8750000000000000
  0.1105301953088529  0.8880576192839014  0.3750000000000000
  0.7777700636382925  0.3888913147534683  0.8750000000000000
  0.4447437947471106  0.8890385640402199  0.3750000000000000
  0.2716562734384925  0.3895659001071085  0.3750000000000000
  0.2763404366445490  0.5569928966887874  0.3750000000000000
  0.6179096266686240  0.3895659001071085  0.3750000000000000
  0.7778917483424117  0.8893777728545573  0.3750000000000000
  0.9442947692931087  0.3885895385862180  0.3750000000000000
  0.1111129183383234  0.5555539857147106  0.8750000000000000
  0.2777827437135249  0.0555654874270496  0.8750000000000000
  0.7777678459062859  0.5555505896198101  0.8750000000000000
  0.6111075710808871  0.0555577905167116  0.8750000000000000
  0.9444502194358247  0.0555577905167116  0.8750000000000000
  0.0555566543001801  0.1111224171861955  0.1250411863510890
  0.5555354846322734  0.6110709692645464  0.1248757815644866
  0.3889172844934371  0.1111822601193752  0.1250979574153709
  0.8888567607225630  0.6110950470279533  0.1250270458909987
  0.7222235437168580  0.1111097896164790  0.1249901242426452
  0.0555521390170384  0.7777811943162980  0.6250060081876329
  0.3889026406479075  0.7777724163607705  0.6249840694874439
  0.2222623640687895  0.2777978487010625  0.6251242184355152
  0.7222109161471388  0.7777766790331556  0.6249588136489100
  0.5555354846322734  0.2777978487010625  0.6251242184355152
  0.8888840779213849  0.2777681558427774  0.6250122648600547
  0.2222290552992586  0.7777811943162980  0.1249939918123671
  0.0555566543001801  0.2777675704473207  0.1250411863510890
  0.3889796200782545  0.2779592401565169  0.1235102427286367
  0.5555657628860153  0.7777766790331556  0.1250411863510890
  0.8888697757128556  0.7777724163607705  0.1250159305125560
  0.7222109161471388  0.2777675704473207  0.1250411863510890
  0.0555609169725650  0.9444635576204730  0.6249840694874439
  0.3889026406479075  0.9444635576204730  0.6249840694874439
  0.2222649756259309  0.4444160488398915  0.6249020425846286
  0.5553740931768196  0.4443537132550741  0.6264897572713632
  0.7222235437168580  0.9444470874337133  0.6250098757573546
  0.8888697757128556  0.4444306926854211  0.6249840694874439
  0.0555609169725650  0.4444306926854211  0.1250159305125560
  0.2222382863053831  0.9444765726107656  0.1250270458909987
  0.5555651774905586  0.9444492554119437  0.1249877351399445
  0.3889796200782545  0.4443537132550741  0.1235102427286367
  0.8888840779213849  0.9444492554119437  0.1249877351399445
  0.7221510732139609  0.4444160488398917  0.1250979574153709
  0.2222382863053831  0.6110950470279533  0.6249729541090008
  0.0555566543001801  0.1111224171861955  0.6249588136489100
  0.5555354846322734  0.6110709692645464  0.6251242184355152
  0.3889172844934371  0.1111822601193752  0.6249020425846286
  0.8888567607225630  0.6110950470279533  0.6249729541090008
  0.0555521390170384  0.6111042780340772  0.1249939918123671
  0.7222235437168580  0.1111097896164790  0.6250098757573546
  0.2222649756259309  0.1111822601193752  0.1250979574153709
  0.3889172844934371  0.6110683577074049  0.1250979574153709
  0.7221510732139609  0.6110683577074049  0.1250979574153709
  0.5555657628860153  0.1111224171861955  0.1250411863510890
  0.3889172844934371  0.6110683577074049  0.6249020425846286
  0.8888862458996153  0.1111097896164790  0.1249901242426452
  0.2222290552992586  0.7777811943162980  0.6250060081876329
  0.0555566543001801  0.2777675704473207  0.6249588136489100
  0.3889796200782545  0.2779592401565169  0.6264897572713632
  0.5555657628860153  0.7777766790331556  0.6249588136489100
  0.8888697757128556  0.7777724163607705  0.6249840694874439
  0.7222109161471388  0.2777675704473207  0.6249588136489100
  0.0555521390170384  0.7777811943162980  0.1249939918123671
  0.3889026406479075  0.7777724163607705  0.1250159305125560
  0.2222623640687895  0.2777978487010625  0.1248757815644866
  0.7222109161471388  0.7777766790331556  0.1250411863510890
  0.5555354846322734  0.2777978487010625  0.1248757815644866
  0.8888840779213849  0.2777681558427774  0.1249877351399445
  0.0555609169725650  0.4444306926854211  0.6249840694874439
  0.2222382863053831  0.9444765726107656  0.6249729541090008
  0.5555651774905586  0.9444492554119437  0.6250122648600547
  0.3889796200782545  0.4443537132550741  0.6264897572713632
  0.8888840779213849  0.9444492554119437  0.6250122648600547
  0.0555609169725650  0.9444635576204730  0.1250159305125560
  0.7221510732139609  0.4444160488398915  0.6249020425846286
  0.3889026406479075  0.9444635576204730  0.1250159305125560
  0.2222649756259309  0.4444160488398915  0.1250979574153709
  0.2222382863053831  0.6110950470279533  0.1250270458909987
  0.5553740931768196  0.4443537132550741  0.1235102427286367
  0.7222235437168580  0.9444470874337133  0.1249901242426452
  0.8888697757128556  0.4444306926854211  0.1250159305125560
  0.0555521390170384  0.6111042780340772  0.6250060081876329
  0.2222649756259309  0.1111822601193752  0.6249020425846286
  0.7221510732139609  0.6110683577074049  0.6249020425846286
  0.5555657628860153  0.1111224171861955  0.6249588136489100
  0.8888862458996153  0.1111097896164790  0.6250098757573546
 
  0.00000000E+00  0.00000000E+00  0.00000000E+00
  0.00000000E+00  0.00000000E+00  0.00000000E+00
  0.00000000E+00  0.00000000E+00  0.00000000E+00
  0.00000000E+00  0.00000000E+00  0.00000000E+00
  0.00000000E+00  0.00000000E+00  0.00000000E+00
  0.00000000E+00  0.00000000E+00  0.00000000E+00
  0.00000000E+00  0.00000000E+00  0.00000000E+00
  0.00000000E+00  0.00000000E+00  0.00000000E+00
  0.00000000E+00  0.00000000E+00  0.00000000E+00
  0.00000000E+00  0.00000000E+00  0.00000000E+00
  0.00000000E+00  0.00000000E+00  0.00000000E+00
  0.00000000E+00  0.00000000E+00  0.00000000E+00
  0.00000000E+00  0.00000000E+00  0.00000000E+00
  0.00000000E+00  0.00000000E+00  0.00000000E+00
  0.00000000E+00  0.00000000E+00  0.00000000E+00
  0.00000000E+00  0.00000000E+00  0.00000000E+00
  0.00000000E+00  0.00000000E+00  0.00000000E+00
  0.00000000E+00  0.00000000E+00  0.00000000E+00
  0.00000000E+00  0.00000000E+00  0.00000000E+00
  0.00000000E+00  0.00000000E+00  0.00000000E+00
  0.00000000E+00  0.00000000E+00  0.00000000E+00
  0.00000000E+00  0.00000000E+00  0.00000000E+00
  0.00000000E+00  0.00000000E+00  0.00000000E+00
  0.00000000E+00  0.00000000E+00  0.00000000E+00
  0.00000000E+00  0.00000000E+00  0.00000000E+00
  0.00000000E+00  0.00000000E+00  0.00000000E+00
  0.00000000E+00  0.00000000E+00  0.00000000E+00
  0.00000000E+00  0.00000000E+00  0.00000000E+00
  0.00000000E+00  0.00000000E+00  0.00000000E+00
  0.00000000E+00  0.00000000E+00  0.00000000E+00
  0.00000000E+00  0.00000000E+00  0.00000000E+00
  0.00000000E+00  0.00000000E+00  0.00000000E+00
  0.00000000E+00  0.00000000E+00  0.00000000E+00
  0.00000000E+00  0.00000000E+00  0.00000000E+00
  0.00000000E+00  0.00000000E+00  0.00000000E+00
  0.00000000E+00  0.00000000E+00  0.00000000E+00
  0.00000000E+00  0.00000000E+00  0.00000000E+00
  0.00000000E+00  0.00000000E+00  0.00000000E+00
  0.00000000E+00  0.00000000E+00  0.00000000E+00
  0.00000000E+00  0.00000000E+00  0.00000000E+00
  0.00000000E+00  0.00000000E+00  0.00000000E+00
  0.00000000E+00  0.00000000E+00  0.00000000E+00
  0.00000000E+00  0.00000000E+00  0.00000000E+00
  0.00000000E+00  0.00000000E+00  0.00000000E+00
  0.00000000E+00  0.00000000E+00  0.00000000E+00
  0.00000000E+00  0.00000000E+00  0.00000000E+00
  0.00000000E+00  0.00000000E+00  0.00000000E+00
  0.00000000E+00  0.00000000E+00  0.00000000E+00
  0.00000000E+00  0.00000000E+00  0.00000000E+00
  0.00000000E+00  0.00000000E+00  0.00000000E+00
  0.00000000E+00  0.00000000E+00  0.00000000E+00
  0.00000000E+00  0.00000000E+00  0.00000000E+00
  0.00000000E+00  0.00000000E+00  0.00000000E+00
  0.00000000E+00  0.00000000E+00  0.00000000E+00
  0.00000000E+00  0.00000000E+00  0.00000000E+00
  0.00000000E+00  0.00000000E+00  0.00000000E+00
  0.00000000E+00  0.00000000E+00  0.00000000E+00
  0.00000000E+00  0.00000000E+00  0.00000000E+00
  0.00000000E+00  0.00000000E+00  0.00000000E+00
  0.00000000E+00  0.00000000E+00  0.00000000E+00
  0.00000000E+00  0.00000000E+00  0.00000000E+00
  0.00000000E+00  0.00000000E+00  0.00000000E+00
  0.00000000E+00  0.00000000E+00  0.00000000E+00
  0.00000000E+00  0.00000000E+00  0.00000000E+00
  0.00000000E+00  0.00000000E+00  0.00000000E+00
  0.00000000E+00  0.00000000E+00  0.00000000E+00
  0.00000000E+00  0.00000000E+00  0.00000000E+00
  0.00000000E+00  0.00000000E+00  0.00000000E+00
  0.00000000E+00  0.00000000E+00  0.00000000E+00
  0.00000000E+00  0.00000000E+00  0.00000000E+00
  0.00000000E+00  0.00000000E+00  0.00000000E+00
  0.00000000E+00  0.00000000E+00  0.00000000E+00
  0.00000000E+00  0.00000000E+00  0.00000000E+00
  0.00000000E+00  0.00000000E+00  0.00000000E+00
  0.00000000E+00  0.00000000E+00  0.00000000E+00
  0.00000000E+00  0.00000000E+00  0.00000000E+00
  0.00000000E+00  0.00000000E+00  0.00000000E+00
  0.00000000E+00  0.00000000E+00  0.00000000E+00
  0.00000000E+00  0.00000000E+00  0.00000000E+00
  0.00000000E+00  0.00000000E+00  0.00000000E+00
  0.00000000E+00  0.00000000E+00  0.00000000E+00
  0.00000000E+00  0.00000000E+00  0.00000000E+00
  0.00000000E+00  0.00000000E+00  0.00000000E+00
  0.00000000E+00  0.00000000E+00  0.00000000E+00
  0.00000000E+00  0.00000000E+00  0.00000000E+00
  0.00000000E+00  0.00000000E+00  0.00000000E+00
  0.00000000E+00  0.00000000E+00  0.00000000E+00
  0.00000000E+00  0.00000000E+00  0.00000000E+00
  0.00000000E+00  0.00000000E+00  0.00000000E+00
  0.00000000E+00  0.00000000E+00  0.00000000E+00
  0.00000000E+00  0.00000000E+00  0.00000000E+00
  0.00000000E+00  0.00000000E+00  0.00000000E+00
  0.00000000E+00  0.00000000E+00  0.00000000E+00
  0.00000000E+00  0.00000000E+00  0.00000000E+00
  0.00000000E+00  0.00000000E+00  0.00000000E+00
  0.00000000E+00  0.00000000E+00  0.00000000E+00
  0.00000000E+00  0.00000000E+00  0.00000000E+00
  0.00000000E+00  0.00000000E+00  0.00000000E+00
  0.00000000E+00  0.00000000E+00  0.00000000E+00
  0.00000000E+00  0.00000000E+00  0.00000000E+00
  0.00000000E+00  0.00000000E+00  0.00000000E+00
  0.00000000E+00  0.00000000E+00  0.00000000E+00
  0.00000000E+00  0.00000000E+00  0.00000000E+00
  0.00000000E+00  0.00000000E+00  0.00000000E+00
  0.00000000E+00  0.00000000E+00  0.00000000E+00
  0.00000000E+00  0.00000000E+00  0.00000000E+00
  0.00000000E+00  0.00000000E+00  0.00000000E+00
  0.00000000E+00  0.00000000E+00  0.00000000E+00
  0.00000000E+00  0.00000000E+00  0.00000000E+00
  0.00000000E+00  0.00000000E+00  0.00000000E+00
  0.00000000E+00  0.00000000E+00  0.00000000E+00
  0.00000000E+00  0.00000000E+00  0.00000000E+00
  0.00000000E+00  0.00000000E+00  0.00000000E+00
  0.00000000E+00  0.00000000E+00  0.00000000E+00
  0.00000000E+00  0.00000000E+00  0.00000000E+00
  0.00000000E+00  0.00000000E+00  0.00000000E+00
  0.00000000E+00  0.00000000E+00  0.00000000E+00
  0.00000000E+00  0.00000000E+00  0.00000000E+00
  0.00000000E+00  0.00000000E+00  0.00000000E+00
  0.00000000E+00  0.00000000E+00  0.00000000E+00
  0.00000000E+00  0.00000000E+00  0.00000000E+00
  0.00000000E+00  0.00000000E+00  0.00000000E+00
  0.00000000E+00  0.00000000E+00  0.00000000E+00
  0.00000000E+00  0.00000000E+00  0.00000000E+00
  0.00000000E+00  0.00000000E+00  0.00000000E+00
  0.00000000E+00  0.00000000E+00  0.00000000E+00
  0.00000000E+00  0.00000000E+00  0.00000000E+00
  0.00000000E+00  0.00000000E+00  0.00000000E+00
  0.00000000E+00  0.00000000E+00  0.00000000E+00
  0.00000000E+00  0.00000000E+00  0.00000000E+00
  0.00000000E+00  0.00000000E+00  0.00000000E+00
  0.00000000E+00  0.00000000E+00  0.00000000E+00
  0.00000000E+00  0.00000000E+00  0.00000000E+00
  0.00000000E+00  0.00000000E+00  0.00000000E+00
  0.00000000E+00  0.00000000E+00  0.00000000E+00
  0.00000000E+00  0.00000000E+00  0.00000000E+00
  0.00000000E+00  0.00000000E+00  0.00000000E+00
  0.00000000E+00  0.00000000E+00  0.00000000E+00
  0.00000000E+00  0.00000000E+00  0.00000000E+00
  0.00000000E+00  0.00000000E+00  0.00000000E+00
  0.00000000E+00  0.00000000E+00  0.00000000E+00
  0.00000000E+00  0.00000000E+00  0.00000000E+00
  0.00000000E+00  0.00000000E+00  0.00000000E+00
  0.00000000E+00  0.00000000E+00  0.00000000E+00
  0.00000000E+00  0.00000000E+00  0.00000000E+00
  0.00000000E+00  0.00000000E+00  0.00000000E+00
  0.00000000E+00  0.00000000E+00  0.00000000E+00
  0.00000000E+00  0.00000000E+00  0.00000000E+00
  0.00000000E+00  0.00000000E+00  0.00000000E+00
  0.00000000E+00  0.00000000E+00  0.00000000E+00
  0.00000000E+00  0.00000000E+00  0.00000000E+00
  0.00000000E+00  0.00000000E+00  0.00000000E+00
  0.00000000E+00  0.00000000E+00  0.00000000E+00
  0.00000000E+00  0.00000000E+00  0.00000000E+00
  0.00000000E+00  0.00000000E+00  0.00000000E+00
  0.00000000E+00  0.00000000E+00  0.00000000E+00
  0.00000000E+00  0.00000000E+00  0.00000000E+00
  0.00000000E+00  0.00000000E+00  0.00000000E+00
  0.00000000E+00  0.00000000E+00  0.00000000E+00
  0.00000000E+00  0.00000000E+00  0.00000000E+00
  0.00000000E+00  0.00000000E+00  0.00000000E+00
  0.00000000E+00  0.00000000E+00  0.00000000E+00
  0.00000000E+00  0.00000000E+00  0.00000000E+00
  0.00000000E+00  0.00000000E+00  0.00000000E+00
  0.00000000E+00  0.00000000E+00  0.00000000E+00
  0.00000000E+00  0.00000000E+00  0.00000000E+00
  0.00000000E+00  0.00000000E+00  0.00000000E+00
  0.00000000E+00  0.00000000E+00  0.00000000E+00
  0.00000000E+00  0.00000000E+00  0.00000000E+00
  0.00000000E+00  0.00000000E+00  0.00000000E+00
  0.00000000E+00  0.00000000E+00  0.00000000E+00
  0.00000000E+00  0.00000000E+00  0.00000000E+00
  0.00000000E+00  0.00000000E+00  0.00000000E+00
  0.00000000E+00  0.00000000E+00  0.00000000E+00
  0.00000000E+00  0.00000000E+00  0.00000000E+00
  0.00000000E+00  0.00000000E+00  0.00000000E+00
  0.00000000E+00  0.00000000E+00  0.00000000E+00
  0.00000000E+00  0.00000000E+00  0.00000000E+00
  0.00000000E+00  0.00000000E+00  0.00000000E+00
  0.00000000E+00  0.00000000E+00  0.00000000E+00
  0.00000000E+00  0.00000000E+00  0.00000000E+00
  0.00000000E+00  0.00000000E+00  0.00000000E+00
  0.00000000E+00  0.00000000E+00  0.00000000E+00
  0.00000000E+00  0.00000000E+00  0.00000000E+00
  0.00000000E+00  0.00000000E+00  0.00000000E+00
  0.00000000E+00  0.00000000E+00  0.00000000E+00
  0.00000000E+00  0.00000000E+00  0.00000000E+00
  0.00000000E+00  0.00000000E+00  0.00000000E+00
  0.00000000E+00  0.00000000E+00  0.00000000E+00
  0.00000000E+00  0.00000000E+00  0.00000000E+00
  0.00000000E+00  0.00000000E+00  0.00000000E+00
  0.00000000E+00  0.00000000E+00  0.00000000E+00
  0.00000000E+00  0.00000000E+00  0.00000000E+00
  0.00000000E+00  0.00000000E+00  0.00000000E+00
  0.00000000E+00  0.00000000E+00  0.00000000E+00
  0.00000000E+00  0.00000000E+00  0.00000000E+00
  0.00000000E+00  0.00000000E+00  0.00000000E+00
  0.00000000E+00  0.00000000E+00  0.00000000E+00
  0.00000000E+00  0.00000000E+00  0.00000000E+00
  0.00000000E+00  0.00000000E+00  0.00000000E+00
  0.00000000E+00  0.00000000E+00  0.00000000E+00
  0.00000000E+00  0.00000000E+00  0.00000000E+00
  0.00000000E+00  0.00000000E+00  0.00000000E+00
  0.00000000E+00  0.00000000E+00  0.00000000E+00
  0.00000000E+00  0.00000000E+00  0.00000000E+00
  0.00000000E+00  0.00000000E+00  0.00000000E+00
  0.00000000E+00  0.00000000E+00  0.00000000E+00
  0.00000000E+00  0.00000000E+00  0.00000000E+00
  0.00000000E+00  0.00000000E+00  0.00000000E+00
  0.00000000E+00  0.00000000E+00  0.00000000E+00
  0.00000000E+00  0.00000000E+00  0.00000000E+00
  0.00000000E+00  0.00000000E+00  0.00000000E+00
  0.00000000E+00  0.00000000E+00  0.00000000E+00
  0.00000000E+00  0.00000000E+00  0.00000000E+00
  0.00000000E+00  0.00000000E+00  0.00000000E+00
  0.00000000E+00  0.00000000E+00  0.00000000E+00
  0.00000000E+00  0.00000000E+00  0.00000000E+00
  0.00000000E+00  0.00000000E+00  0.00000000E+00
  0.00000000E+00  0.00000000E+00  0.00000000E+00
  0.00000000E+00  0.00000000E+00  0.00000000E+00
  0.00000000E+00  0.00000000E+00  0.00000000E+00
  0.00000000E+00  0.00000000E+00  0.00000000E+00
  0.00000000E+00  0.00000000E+00  0.00000000E+00
  0.00000000E+00  0.00000000E+00  0.00000000E+00
  0.00000000E+00  0.00000000E+00  0.00000000E+00
  0.00000000E+00  0.00000000E+00  0.00000000E+00
  0.00000000E+00  0.00000000E+00  0.00000000E+00
  0.00000000E+00  0.00000000E+00  0.00000000E+00
  0.00000000E+00  0.00000000E+00  0.00000000E+00
  0.00000000E+00  0.00000000E+00  0.00000000E+00
  0.00000000E+00  0.00000000E+00  0.00000000E+00
  0.00000000E+00  0.00000000E+00  0.00000000E+00
  0.00000000E+00  0.00000000E+00  0.00000000E+00
  0.00000000E+00  0.00000000E+00  0.00000000E+00
  0.00000000E+00  0.00000000E+00  0.00000000E+00
  0.00000000E+00  0.00000000E+00  0.00000000E+00
  0.00000000E+00  0.00000000E+00  0.00000000E+00
  0.00000000E+00  0.00000000E+00  0.00000000E+00
  0.00000000E+00  0.00000000E+00  0.00000000E+00
  0.00000000E+00  0.00000000E+00  0.00000000E+00
  0.00000000E+00  0.00000000E+00  0.00000000E+00
  0.00000000E+00  0.00000000E+00  0.00000000E+00
  0.00000000E+00  0.00000000E+00  0.00000000E+00
  0.00000000E+00  0.00000000E+00  0.00000000E+00
  0.00000000E+00  0.00000000E+00  0.00000000E+00
  0.00000000E+00  0.00000000E+00  0.00000000E+00
  0.00000000E+00  0.00000000E+00  0.00000000E+00