As B N                                  
   1.0000000000000000     
     8.7639499999999995  -15.1796066749929999    0.0000000000000000
     8.7639499999999995   15.1796066749929999    0.0000000000000000
     0.0000000000000000    0.0000000000000000   15.0000000000000000
   As   B    N 
     1    48    48
Selective dynamics
Direct
  0.4951212487162950  0.5048801532007104  0.1688387485015318   T   T   T
  0.9056463691440185  0.9528194098518257  0.1089104397395509   T   T   T
  0.9046852393145920  0.0953167818814046  0.1099531595026551   T   T   T
  0.9043371978640660  0.2381656365780801  0.1104075650501007   T   T   T
  0.9043697672778731  0.3810223250087245  0.1106720107528212   T   T   T
  0.9049998007262885  0.5238415412750018  0.1103542587359407   T   T   T
  0.9062514724274093  0.6669388460804825  0.1085104131810881   T   T   T
  0.9066525396819317  0.8103378794096331  0.1074574957834800   T   T   T
  0.0481715448942106  0.9518304763017852  0.1101425407440481   T   T   T
  0.0471826113441855  0.0943556520519779  0.1089104397395509   T   T   T
  0.0468942880846709  0.2374585618764219  0.1080955018317593   T   T   T
  0.0472481311149089  0.3804995112344977  0.1092917245541292   T   T   T
  0.0481646041032082  0.5233034796264671  0.1101808316518692   T   T   T
  0.0487324304233457  0.6661501498004133  0.1103864573489962   T   T   T
  0.0487366022953412  0.8090944556514057  0.1102887328778380   T   T   T
  0.1909075655445988  0.9512654189006615  0.1102887328778380   T   T   T
  0.1896641417863702  0.0933494815140581  0.1074574957834800   T   T   T
  0.1885543842952832  0.2358319320575659  0.1043434645387132   T   T   T
  0.1895594278622173  0.3796651959354006  0.1078591221986338   T   T   T
  0.1915119632898801  0.5226599197506081  0.1115188638443909   T   T   T
  0.1917794998433084  0.6655923022637603  0.1117250640983148   T   T   T
  0.1914598223982683  0.8085421987977351  0.1110657104649073   T   T   T
  0.3338518713965855  0.9512695907726645  0.1103864573489962   T   T   T
  0.3330631751165173  0.0937505487685890  0.1085104131810881   T   T   T
  0.3307613195111870  0.2344924620198558  0.1040626194866599   T   T   T
  0.3293838124443901  0.3772722816788817  0.1090937238466497   T   T   T
  0.3352405507598955  0.5211462950938923  0.1189505000890283   T   T   T
  0.3351813111565002  0.6648207100405068  0.1161953104949151   T   T   T
  0.3344097189332446  0.8082225213526961  0.1117250640983148   T   T   T
  0.4766985415705379  0.9518374170927945  0.1101808316518692   T   T   T
  0.4761604799219954  0.0950022204697141  0.1103542587359407   T   T   T
  0.4751863794254744  0.2378297424721296  0.1111320928632300   T   T   T
  0.4691846489708864  0.3757966174915500  0.1170799960071098   T   T   T
  0.4788557261031064  0.6647614704371032  0.1189505000890283   T   T   T
  0.4773421014463896  0.8084900579061234  0.1115188638443909   T   T   T
  0.6195025099615126  0.9527538900810940  0.1092917245541292   T   T   T
  0.6189796961872804  0.0956322539181253  0.1106720107528212   T   T   T
  0.6184889781350629  0.2387662935984404  0.1128184922910826   T   T   T
  0.6178047760912193  0.3821972451047849  0.1161467422256025   T   T   T
  0.6242054037044515  0.5308173722261047  0.1170799960071098   T   T   T
  0.6227297395171206  0.6706182087526164  0.1090937238466497   T   T   T
  0.6203368252606022  0.8104425933337933  0.1078591221986338   T   T   T
  0.7625434593195879  0.9531077331113322  0.1080955018317593   T   T   T
  0.7618363846179226  0.0956648233319221  0.1104075650501007   T   T   T
  0.7614592228695826  0.2385427983264148  0.1116276879976694   T   T   T
  0.7612357275975633  0.3815130430609399  0.1128184922910826   T   T   T
  0.7621722787238743  0.5248156417715174  0.1111320928632300   T   T   T
  0.7655095591761484  0.6692407016858110  0.1040626194866599   T   T   T
  0.7641700891384299  0.8114476369007209  0.1043434645387132   T   T   T
  0.9533615313420806  0.9050993775121393  0.1093505046923136   T   T   T
  0.9523853411784446  0.0476160607395608  0.1100058297256644   T   T   T
  0.9518485783949747  0.1903671242494188  0.1097901586210443   T   T   T
  0.9519053669606604  0.3333165580508363  0.1100459593065873   T   T   T
  0.9525426640557376  0.4761516884517003  0.1102716487091640   T   T   T
  0.9533259346092028  0.6189469717267061  0.1098150803634027   T   T   T
  0.9536473451564421  0.7620072717037346  0.1087044484376631   T   T   T
  0.0958651913525907  0.9041362105654154  0.1107050417997355   T   T   T
  0.0949020244058666  0.0466398705759182  0.1093505046923136   T   T   T
  0.0939234578117144  0.1891318692816144  0.1069183607157524   T   T   T
  0.0943652359192939  0.3325485032683260  0.1079615295945441   T   T   T
  0.0957839457752818  0.4756476546522733  0.1097781525784167   T   T   T
  0.0962928942745747  0.6184569093589789  0.1105565989278886   T   T   T
  0.0962438710715112  0.7612933891461442  0.1107535429520494   T   T   T
  0.2387080127718608  0.9037575308464881  0.1107535429520494   T   T   T
  0.2379941302142635  0.0463540567615718  0.1087044484376631   T   T   T
  0.2362546714925866  0.1880197123731557  0.1040963108753285   T   T   T
  0.2350821531822545  0.3303265757659378  0.1041252384167231   T   T   T
  0.2389498273221052  0.4747722092890647  0.1116637802275049   T   T   T
  0.2395197273048486  0.6179198320504703  0.1133573505812101   T   T   T
  0.2391337011345275  0.7608677007834791  0.1114970734432748   T   T   T
  0.3815444925590200  0.9037085076434173  0.1105565989278886   T   T   T
  0.3810544301912936  0.0466754673087959  0.1098150803634027   T   T   T
  0.3801840283983322  0.1890517228690881  0.1072430901195363   T   T   T
  0.3770187004193432  0.3292406146069033  0.1045343469485445   T   T   T
  0.3780506136023108  0.4693048776054457  0.1217712911274068   T   T   T
  0.3829621278621080  0.6170392740558834  0.1214407668607980   T   T   T
  0.3820815698675289  0.7604816746131570  0.1133573505812101   T   T   T
  0.5243537472647156  0.9042174561427174  0.1097781525784167   T   T   T
  0.5238497134652899  0.0474587378622673  0.1102716487091640   T   T   T
  0.5232935724544980  0.1907643645754011  0.1113463194859950   T   T   T
  0.5220202819718522  0.3343348810814656  0.1159389869444008   T   T   T
  0.5306965243115513  0.6219507883156887  0.1217712911274068   T   T   T
  0.5252291926279234  0.7610515745958929  0.1116637802275049   T   T   T
  0.6674528986486624  0.9056361659987044  0.1079615295945441   T   T   T
  0.6666848438661738  0.0480960349573379  0.1100459593065873   T   T   T
  0.6661812758171399  0.1911334812396780  0.1117649200203575   T   T   T
  0.6655145602255828  0.3344868416914057  0.1144417488902629   T   T   T
  0.6656665208355315  0.4779811199451523  0.1159389869444008   T   T   T
  0.6707607873101026  0.6229827014986627  0.1045343469485445   T   T   T
  0.6696748261510653  0.7649192487357510  0.1041252384167231   T   T   T
  0.8108695326363836  0.9060779441062837  0.1069183607157524   T   T   T
  0.8096342776685808  0.0481528235230378  0.1097901586210443   T   T   T
  0.8091172639211835  0.1908841379968144  0.1110215048364612   T   T   T
  0.8088679206783143  0.3338201260998621  0.1117649200203575   T   T   T
  0.8092370373426051  0.4767078294624919  0.1113463194859950   T   T   T
  0.8109496790489096  0.6198173735196678  0.1072430901195363   T   T   T
  0.8119816895448496  0.7637467304254181  0.1040963108753285   T   T   T

  0.00000000E+00  0.00000000E+00  0.00000000E+00
  0.00000000E+00  0.00000000E+00  0.00000000E+00
  0.00000000E+00  0.00000000E+00  0.00000000E+00
  0.00000000E+00  0.00000000E+00  0.00000000E+00
  0.00000000E+00  0.00000000E+00  0.00000000E+00
  0.00000000E+00  0.00000000E+00  0.00000000E+00
  0.00000000E+00  0.00000000E+00  0.00000000E+00
  0.00000000E+00  0.00000000E+00  0.00000000E+00
  0.00000000E+00  0.00000000E+00  0.00000000E+00
  0.00000000E+00  0.00000000E+00  0.00000000E+00
  0.00000000E+00  0.00000000E+00  0.00000000E+00
  0.00000000E+00  0.00000000E+00  0.00000000E+00
  0.00000000E+00  0.00000000E+00  0.00000000E+00
  0.00000000E+00  0.00000000E+00  0.00000000E+00
  0.00000000E+00  0.00000000E+00  0.00000000E+00
  0.00000000E+00  0.00000000E+00  0.00000000E+00
  0.00000000E+00  0.00000000E+00  0.00000000E+00
  0.00000000E+00  0.00000000E+00  0.00000000E+00
  0.00000000E+00  0.00000000E+00  0.00000000E+00
  0.00000000E+00  0.00000000E+00  0.00000000E+00
  0.00000000E+00  0.00000000E+00  0.00000000E+00
  0.00000000E+00  0.00000000E+00  0.00000000E+00
  0.00000000E+00  0.00000000E+00  0.00000000E+00
  0.00000000E+00  0.00000000E+00  0.00000000E+00
  0.00000000E+00  0.00000000E+00  0.00000000E+00
  0.00000000E+00  0.00000000E+00  0.00000000E+00
  0.00000000E+00  0.00000000E+00  0.00000000E+00
  0.00000000E+00  0.00000000E+00  0.00000000E+00
  0.00000000E+00  0.00000000E+00  0.00000000E+00
  0.00000000E+00  0.00000000E+00  0.00000000E+00
  0.00000000E+00  0.00000000E+00  0.00000000E+00
  0.00000000E+00  0.00000000E+00  0.00000000E+00
  0.00000000E+00  0.00000000E+00  0.00000000E+00
  0.00000000E+00  0.00000000E+00  0.00000000E+00
  0.00000000E+00  0.00000000E+00  0.00000000E+00
  0.00000000E+00  0.00000000E+00  0.00000000E+00
  0.00000000E+00  0.00000000E+00  0.00000000E+00
  0.00000000E+00  0.00000000E+00  0.00000000E+00
  0.00000000E+00  0.00000000E+00  0.00000000E+00
  0.00000000E+00  0.00000000E+00  0.00000000E+00
  0.00000000E+00  0.00000000E+00  0.00000000E+00
  0.00000000E+00  0.00000000E+00  0.00000000E+00
  0.00000000E+00  0.00000000E+00  0.00000000E+00
  0.00000000E+00  0.00000000E+00  0.00000000E+00
  0.00000000E+00  0.00000000E+00  0.00000000E+00
  0.00000000E+00  0.00000000E+00  0.00000000E+00
  0.00000000E+00  0.00000000E+00  0.00000000E+00
  0.00000000E+00  0.00000000E+00  0.00000000E+00
  0.00000000E+00  0.00000000E+00  0.00000000E+00
  0.00000000E+00  0.00000000E+00  0.00000000E+00
  0.00000000E+00  0.00000000E+00  0.00000000E+00
  0.00000000E+00  0.00000000E+00  0.00000000E+00
  0.00000000E+00  0.00000000E+00  0.00000000E+00
  0.00000000E+00  0.00000000E+00  0.00000000E+00
  0.00000000E+00  0.00000000E+00  0.00000000E+00
  0.00000000E+00  0.00000000E+00  0.00000000E+00
  0.00000000E+00  0.00000000E+00  0.00000000E+00
  0.00000000E+00  0.00000000E+00  0.00000000E+00
  0.00000000E+00  0.00000000E+00  0.00000000E+00
  0.00000000E+00  0.00000000E+00  0.00000000E+00
  0.00000000E+00  0.00000000E+00  0.00000000E+00
  0.00000000E+00  0.00000000E+00  0.00000000E+00
  0.00000000E+00  0.00000000E+00  0.00000000E+00
  0.00000000E+00  0.00000000E+00  0.00000000E+00
  0.00000000E+00  0.00000000E+00  0.00000000E+00
  0.00000000E+00  0.00000000E+00  0.00000000E+00
  0.00000000E+00  0.00000000E+00  0.00000000E+00
  0.00000000E+00  0.00000000E+00  0.00000000E+00
  0.00000000E+00  0.00000000E+00  0.00000000E+00
  0.00000000E+00  0.00000000E+00  0.00000000E+00
  0.00000000E+00  0.00000000E+00  0.00000000E+00
  0.00000000E+00  0.00000000E+00  0.00000000E+00
  0.00000000E+00  0.00000000E+00  0.00000000E+00
  0.00000000E+00  0.00000000E+00  0.00000000E+00
  0.00000000E+00  0.00000000E+00  0.00000000E+00
  0.00000000E+00  0.00000000E+00  0.00000000E+00
  0.00000000E+00  0.00000000E+00  0.00000000E+00
  0.00000000E+00  0.00000000E+00  0.00000000E+00
  0.00000000E+00  0.00000000E+00  0.00000000E+00
  0.00000000E+00  0.00000000E+00  0.00000000E+00
  0.00000000E+00  0.00000000E+00  0.00000000E+00
  0.00000000E+00  0.00000000E+00  0.00000000E+00
  0.00000000E+00  0.00000000E+00  0.00000000E+00
  0.00000000E+00  0.00000000E+00  0.00000000E+00
  0.00000000E+00  0.00000000E+00  0.00000000E+00
  0.00000000E+00  0.00000000E+00  0.00000000E+00
  0.00000000E+00  0.00000000E+00  0.00000000E+00
  0.00000000E+00  0.00000000E+00  0.00000000E+00
  0.00000000E+00  0.00000000E+00  0.00000000E+00
  0.00000000E+00  0.00000000E+00  0.00000000E+00
  0.00000000E+00  0.00000000E+00  0.00000000E+00
  0.00000000E+00  0.00000000E+00  0.00000000E+00
  0.00000000E+00  0.00000000E+00  0.00000000E+00
  0.00000000E+00  0.00000000E+00  0.00000000E+00
  0.00000000E+00  0.00000000E+00  0.00000000E+00
  0.00000000E+00  0.00000000E+00  0.00000000E+00
  0.00000000E+00  0.00000000E+00  0.00000000E+00
