 N C B 
 1.0
 17.527899999999772   0.000000000000000   0.000000000000000
 -8.763949999999658  15.179606674993195   0.000000000000000
  0.000000000000001   0.000000000000002  15.000000000000000
 N C B 
  48   3  47
Cartesian
  8.764103533678902  13.736418840220304   1.665016073380980 
 16.276952765738095   0.723864490713503   1.664952493922115 
 15.026453641913104   2.893109403087263   1.665086776354815 
 13.773522391014414   5.059868891664398   1.665020106787830 
 12.521946128190415   7.227531102372747   1.664407684546065 
 11.269257881804608   9.396425406511231   1.665059408546580 
 10.016166461135143  11.566794871215292   1.665192473689800 
 -6.260137010149824  13.735385923494476   1.664595715606260 
  1.254093923385133   0.727499253318312   1.664935867016640 
  0.006510576721499   2.897920680823176   1.664796251590515 
 -1.241526536810217   5.059868891664398   1.664761368469800 
 -2.498808682046251   7.227859227519787   1.665033724800270 
 -3.754681350606043   9.395944807754770   1.665072151508400 
 -5.007317273006994  11.565681845944015   1.664714341236375 
 -3.755364392947617  13.734681922385482   1.664692317481845 
  3.755668383805376   0.723861803733832   1.665139472772600 
  2.508887299601756   2.900132802467839   1.665076148478270 
  1.274932916394941   5.072986819888228   1.664548249003950 
  0.010389043916612   7.228092420116725   1.665145220439210 
 -1.250888663466687   9.395785013394621   1.665498520136040 
 -2.502691262191523  11.565262991781562   1.665131032508475 
 -1.250740615638421  13.734470997167174   1.665081654457485 
  6.260093229388785   0.724209313313934   1.665055817760870 
  5.006581719659565   2.888402702052451   1.665380735803320 
  3.785568437334214   5.059868891664398   1.665950951174790 
  2.520607002358599   7.251079760545043   1.665878758700100 
  1.249201802523292   9.396795809453687   1.665438853446465 
  0.001797045684207  11.564568577502301   1.665443706376395 
  1.253998576318304  13.729109234511442   1.664973118637415 
  8.760567477516789   0.726839300664880   1.664490358917780 
  7.500352320217089   2.906058893942297   1.664786330013930 
  6.212826761194870   5.082338786668489   1.665546710508360 
  3.752004859186981   9.344584496712866   1.665732632629275 
  2.511433651916644  11.548080735785410   1.665022673858700 
  3.759291291972133  13.728192048510913   1.664870845787145 
 11.268317113670989   0.722177809981407   1.664994251139435 
 10.010312169138276   2.894173126140495   1.665107137197180 
  8.743700628506872   5.062909371223096   1.664735124705285 
  7.516738602512336   7.233209126579014   1.664975738466360 
  6.266520529991478   9.398886662386554   1.664931121617630 
  5.000634894755612  11.546656379665478   1.664751021933900 
  6.257074000214567  13.728084435640685   1.664813058548460 
 13.771786140177319   0.721807308443307   1.665113488438965 
 12.518455356600487   2.892290199754870   1.665352421614485 
 11.261331148240997   5.059868891664398   1.665058306233210 
 10.017094803624936   7.227961342707967   1.665044177043015 
  8.766123955775718   9.398211310322008   1.665354943409595 
  7.512068807307837  11.566977951607884   1.665221980074225 
  4.990330951959534   5.796901398106792   1.667496675822405 
  3.759402113953107   7.928506208307460   1.667715709362690 
  4.952485404342749   7.196738617026238   1.668666782888175 
  7.509993369512140  14.455635922174142   1.665192923627130 
 15.024461196518008   1.446190981869500   1.665551093570970 
 13.772271461481328   3.614764265516158   1.665605179222170 
 12.517444872271083   5.781985609984875   1.665064942850415 
 11.270170485549841   7.950094215596777   1.665003724677135 
 10.018741713524900  10.119737783328796   1.665662687301210 
  8.764063408724926  12.291054682623249   1.665657614703330 
 -7.511468860491716  14.459993597250461   1.665140954963010 
  0.002031431601289   1.449367691465463   1.665231571613670 
 -1.247956361022383   3.616503140433367   1.665085617950220 
 -2.499631243149139   5.782681632817028   1.665369906633195 
 -3.752981036418930   7.950074264309523   1.665131474713920 
 -5.006715480915116  10.119737783328796   1.665262910951970 
 -6.259352981726769  12.289504563109102   1.665022606794135 
 -5.007986118477804  14.457349468106489   1.665032182827630 
  2.506282619267201   1.450776767809256   1.665442361055030 
  1.259948594564205   3.622442481910920   1.665132793660200 
  0.011427562725913   5.785418330124322   1.664921636441070 
 -1.246233246368715   7.950377259807734   1.665647537531565 
 -2.503573166749923  10.119737783328796   1.665756599667150 
 -3.755072025017310  12.288599576474212   1.665058978120170 
 -2.504405927899484  14.457496093227792   1.665273115482090 
  5.008572758064913   1.444635292954947   1.665665538331365 
  3.764154290303443   3.616847908744071   1.665844771967655 
  2.529528855864080   5.797351715303929   1.665488256277680 
  1.258758487761589   7.956657376262481   1.665836755164330 
  0.000000000000152  10.119737783328796   1.666017755846100 
 -1.252260348300898  12.288716330890189   1.665774067986750 
  0.000969075759551  14.457302937237841   1.665128800489665 
  7.507446808045343   1.454089618181747   1.664987049496035 
  6.243404515971656   3.628115986051919   1.665600114469170 
  2.508110145985897  10.098246059866426   1.665575094919995 
  1.257531096387691  12.280185540351102   1.665568444898940 
  2.504658790681500  14.454228605892386   1.665311905374705 
 10.013626718869405   1.447623754260968   1.665019520706900 
  8.756557654862174   3.619240625673406   1.665159878411475 
  7.487360709333769   5.792835933671761   1.665153338038260 
  6.273811246092029   7.959440895149596   1.666057484602515 
  5.004388533007538  10.093484196678300   1.665200491187160 
  3.757091168553489  12.279845109970848   1.665057198422130 
  5.006873153313649  14.453803081571680   1.665114783325680 
 12.518968458798108   1.445491206223155   1.665598416879255 
 11.264080533807441   3.615028008379981   1.665708624908925 
 10.004221367040902   5.782222421121893   1.665184454673090 
  8.769075104304587   7.952509458139087   1.665518828391090 
  7.515608359544466  10.123704326333353   1.665450578173125 
  6.253587958051590  12.279074233854530   1.665268947737400 
