B N Sn                                  
   1.0000000000000000     
     8.7639499999999995  -15.1796066749929999    0.0000000000000000
     8.7639499999999995   15.1796066749929999    0.0000000000000000
     0.0000000000000000    0.0000000000000000   15.0000000000000000
   B    N    Sn
    49    47     1
Selective dynamics
Direct
  0.9026492583792610  0.9495181364693532  0.1045441472175207   T   T   T
  0.9045448216387002  0.0931212048875135  0.1058843948415991   T   T   T
  0.9053817908107661  0.2361519443869538  0.1064798447860123   T   T   T
  0.9054824729661854  0.3791118903607866  0.1070542184251183   T   T   T
  0.9050807260303602  0.5222585492995632  0.1069359462012008   T   T   T
  0.9037873266675597  0.6650832012778900  0.1053104130005752   T   T   T
  0.9023380545285318  0.8071323371119533  0.1027113200630276   T   T   T
  0.0471199290735250  0.9523302559424240  0.1050257923978796   T   T   T
  0.0488373211185930  0.0959400945137770  0.1051648483544404   T   T   T
  0.0492760657169594  0.2381400925975054  0.1045279951696270   T   T   T
  0.0486133463105556  0.3802081174548265  0.1047413141192969   T   T   T
  0.0473354369584548  0.5229787286899940  0.1052861184397474   T   T   T
  0.0464855175228395  0.6661620020599452  0.1052954359746106   T   T   T
  0.0464664442806078  0.8091974687690021  0.1049187288874562   T   T   T
  0.1902478843688062  0.9532810653819157  0.1066545166506995   T   T   T
  0.1922572707058256  0.0976664809825568  0.1060783684677198   T   T   T
  0.1955446339722364  0.2430603735648224  0.1042916568036117   T   T   T
  0.1932985882187363  0.3828847881333547  0.1035317200645484   T   T   T
  0.1900201075560772  0.5241475787433961  0.1066247098017274   T   T   T
  0.1883996323153145  0.6669044562857287  0.1072859690147983   T   T   T
  0.1893216807613126  0.8099463973217749  0.1070186937412894   T   T   T
  0.3328361682065188  0.9529466109464902  0.1092104766408196   T   T   T
  0.3341926430469607  0.0967361964399256  0.1093901882954697   T   T   T
  0.3375449233120901  0.2429230441834194  0.1086710236746356   T   T   T
  0.3445236498359832  0.3937062428664780  0.1047919621919371   T   T   T
  0.3336487903498988  0.5269138540510604  0.1113760106502450   T   T   T
  0.3293247057567104  0.6680133818576336  0.1170676334993513   T   T   T
  0.3317579416165437  0.8101319081246221  0.1124997453992667   T   T   T
  0.4754197289199717  0.9510633699285056  0.1122022805676419   T   T   T
  0.4764258857350747  0.0943433529612255  0.1113949203065076   T   T   T
  0.4776502410607922  0.2377109604121277  0.1169574213663205   T   T   T
  0.4813543211414427  0.3820312651862520  0.1296989002457589   T   T   T
  0.4909399648071587  0.5800255195586436  0.1186388809990772   T   T   T
  0.4680001742450972  0.6636636395358405  0.1361180183885943   T   T   T
  0.4739918401101729  0.8076871685918477  0.1211149275931421   T   T   T
  0.6177375588067504  0.9487278700884542  0.1125565412090466   T   T   T
  0.6189910500934657  0.0925984005584752  0.1109852777989434   T   T   T
  0.6198859143218225  0.2356814026169178  0.1146978108878910   T   T   T
  0.6215483477455072  0.3783742789846524  0.1240786610763048   T   T   T
  0.6218239909909455  0.5198035865775968  0.1302062465336996   T   T   T
  0.6081123037466820  0.6522646258588876  0.0966956924179415   T   T   T
  0.6147237495947633  0.8028663342824481  0.1137857835509781   T   T   T
  0.7595814064353432  0.9479887875873090  0.1070419302514369   T   T   T
  0.7615700037353945  0.0921590782913522  0.1085664517604929   T   T   T
  0.7624687593312273  0.2355149146317957  0.1098781950085366   T   T   T
  0.7631460630973057  0.3786243576720649  0.1126832139004603   T   T   T
  0.7630741030373027  0.5214373470695074  0.1129997887796449   T   T   T
  0.7591887493529775  0.6620648776224592  0.1028832055082297   T   T   T
  0.7558248405724487  0.8024967618812416  0.1020333426747267   T   T   T
  0.9510474467216368  0.9029154070259787  0.1039666954845981   T   T   T
  0.9523494474836641  0.0459166525517907  0.1052977043046118   T   T   T
  0.9532885490319150  0.1889209269263897  0.1056004744360627   T   T   T
  0.9531516687905207  0.3316495317451292  0.1058802129600851   T   T   T
  0.9523847995098971  0.4745449769326116  0.1060221506100003   T   T   T
  0.9514884806220313  0.6176760563882289  0.1056194566297485   T   T   T
  0.9508968298383915  0.7604818285005701  0.1039075069812318   T   T   T
  0.0947073075573243  0.9048473316983702  0.1054395418315938   T   T   T
  0.0963170745935450  0.0484191138876555  0.1054740678310561   T   T   T
  0.0985811417374639  0.1923592885167328  0.1046343111216193   T   T   T
  0.0972694746233747  0.3335377111305639  0.1037849836424261   T   T   T
  0.0950299099432634  0.4755390256698612  0.1049763356745332   T   T   T
  0.0936678052117724  0.6184413318279463  0.1053030823001970   T   T   T
  0.0940335346391153  0.7616785357418183  0.1055108644763775   T   T   T
  0.2374981408137535  0.9054143653421297  0.1075196003816641   T   T   T
  0.2388835345116843  0.0491049193823283  0.1071817955503025   T   T   T
  0.2419049381877149  0.1941967534214751  0.1055679453160695   T   T   T
  0.2458142821693868  0.3400323050860128  0.1030243926742394   T   T   T
  0.2386496918357101  0.4775425128663436  0.1059595691357152   T   T   T
  0.2353287888998848  0.6193499814401425  0.1088168927842726   T   T   T
  0.2365681264389716  0.7622751567141797  0.1085744363314969   T   T   T
  0.3801156982159509  0.9050861177160390  0.1111003303582163   T   T   T
  0.3811473126900451  0.0482990891790349  0.1097915162931726   T   T   T
  0.3828745731662904  0.1926770624100185  0.1117712474194046   T   T   T
  0.3885265153865564  0.3407556427551138  0.1106956545090201   T   T   T
  0.3928770477706522  0.4916382827410064  0.1045142339895327   T   T   T
  0.3751175713835435  0.6204864645807476  0.1244224577540800   T   T   T
  0.3787959664754026  0.7625554938116023  0.1185059414933946   T   T   T
  0.5224757480104447  0.9026994489524598  0.1149998327257170   T   T   T
  0.5236584792716449  0.0462308742365244  0.1109614639267479   T   T   T
  0.5246432014357515  0.1895245829995849  0.1142815616604428   T   T   T
  0.5263662083352803  0.3329486945133853  0.1259418013493304   T   T   T
  0.5202952254984671  0.7582976409234997  0.1285244868186994   T   T   T
  0.6639834693136701  0.8993839240338586  0.1108314755870351   T   T   T
  0.6661170964654223  0.0443779244994575  0.1104469066591831   T   T   T
  0.6671117680926788  0.1879187155721231  0.1115137338149311   T   T   T
  0.6680723223584043  0.3307626388778767  0.1176141712960828   T   T   T
  0.6686874257532757  0.4729844527901308  0.1238294472926834   T   T   T
  0.6627232502222246  0.6111449749616867  0.1034554667124450   T   T   T
  0.6582850080279006  0.7511284578671211  0.1019622726364690   T   T   T
  0.8060764429530339  0.8993958653120043  0.1045345275940222   T   T   T
  0.8086763224407986  0.0441033399727504  0.1070046872336307   T   T   T
  0.8098398948506565  0.1877844831434844  0.1081320638367934   T   T   T
  0.8102869709041519  0.3309120276515157  0.1095950466763683   T   T   T
  0.8102240064209005  0.4738425166403255  0.1102825517678454   T   T   T
  0.8085414984405989  0.6162925565884121  0.1071496142397989   T   T   T
  0.8060861700038093  0.7574463782917576  0.1005622573401214   T   T   T
  0.5180310711618882  0.5037899097649364  0.2448666986352929   T   T   T

  0.00000000E+00  0.00000000E+00  0.00000000E+00
  0.00000000E+00  0.00000000E+00  0.00000000E+00
  0.00000000E+00  0.00000000E+00  0.00000000E+00
  0.00000000E+00  0.00000000E+00  0.00000000E+00
  0.00000000E+00  0.00000000E+00  0.00000000E+00
  0.00000000E+00  0.00000000E+00  0.00000000E+00
  0.00000000E+00  0.00000000E+00  0.00000000E+00
  0.00000000E+00  0.00000000E+00  0.00000000E+00
  0.00000000E+00  0.00000000E+00  0.00000000E+00
  0.00000000E+00  0.00000000E+00  0.00000000E+00
  0.00000000E+00  0.00000000E+00  0.00000000E+00
  0.00000000E+00  0.00000000E+00  0.00000000E+00
  0.00000000E+00  0.00000000E+00  0.00000000E+00
  0.00000000E+00  0.00000000E+00  0.00000000E+00
  0.00000000E+00  0.00000000E+00  0.00000000E+00
  0.00000000E+00  0.00000000E+00  0.00000000E+00
  0.00000000E+00  0.00000000E+00  0.00000000E+00
  0.00000000E+00  0.00000000E+00  0.00000000E+00
  0.00000000E+00  0.00000000E+00  0.00000000E+00
  0.00000000E+00  0.00000000E+00  0.00000000E+00
  0.00000000E+00  0.00000000E+00  0.00000000E+00
  0.00000000E+00  0.00000000E+00  0.00000000E+00
  0.00000000E+00  0.00000000E+00  0.00000000E+00
  0.00000000E+00  0.00000000E+00  0.00000000E+00
  0.00000000E+00  0.00000000E+00  0.00000000E+00
  0.00000000E+00  0.00000000E+00  0.00000000E+00
  0.00000000E+00  0.00000000E+00  0.00000000E+00
  0.00000000E+00  0.00000000E+00  0.00000000E+00
  0.00000000E+00  0.00000000E+00  0.00000000E+00
  0.00000000E+00  0.00000000E+00  0.00000000E+00
  0.00000000E+00  0.00000000E+00  0.00000000E+00
  0.00000000E+00  0.00000000E+00  0.00000000E+00
  0.00000000E+00  0.00000000E+00  0.00000000E+00
  0.00000000E+00  0.00000000E+00  0.00000000E+00
  0.00000000E+00  0.00000000E+00  0.00000000E+00
  0.00000000E+00  0.00000000E+00  0.00000000E+00
  0.00000000E+00  0.00000000E+00  0.00000000E+00
  0.00000000E+00  0.00000000E+00  0.00000000E+00
  0.00000000E+00  0.00000000E+00  0.00000000E+00
  0.00000000E+00  0.00000000E+00  0.00000000E+00
  0.00000000E+00  0.00000000E+00  0.00000000E+00
  0.00000000E+00  0.00000000E+00  0.00000000E+00
  0.00000000E+00  0.00000000E+00  0.00000000E+00
  0.00000000E+00  0.00000000E+00  0.00000000E+00
  0.00000000E+00  0.00000000E+00  0.00000000E+00
  0.00000000E+00  0.00000000E+00  0.00000000E+00
  0.00000000E+00  0.00000000E+00  0.00000000E+00
  0.00000000E+00  0.00000000E+00  0.00000000E+00
  0.00000000E+00  0.00000000E+00  0.00000000E+00
  0.00000000E+00  0.00000000E+00  0.00000000E+00
  0.00000000E+00  0.00000000E+00  0.00000000E+00
  0.00000000E+00  0.00000000E+00  0.00000000E+00
  0.00000000E+00  0.00000000E+00  0.00000000E+00
  0.00000000E+00  0.00000000E+00  0.00000000E+00
  0.00000000E+00  0.00000000E+00  0.00000000E+00
  0.00000000E+00  0.00000000E+00  0.00000000E+00
  0.00000000E+00  0.00000000E+00  0.00000000E+00
  0.00000000E+00  0.00000000E+00  0.00000000E+00
  0.00000000E+00  0.00000000E+00  0.00000000E+00
  0.00000000E+00  0.00000000E+00  0.00000000E+00
  0.00000000E+00  0.00000000E+00  0.00000000E+00
  0.00000000E+00  0.00000000E+00  0.00000000E+00
  0.00000000E+00  0.00000000E+00  0.00000000E+00
  0.00000000E+00  0.00000000E+00  0.00000000E+00
  0.00000000E+00  0.00000000E+00  0.00000000E+00
  0.00000000E+00  0.00000000E+00  0.00000000E+00
  0.00000000E+00  0.00000000E+00  0.00000000E+00
  0.00000000E+00  0.00000000E+00  0.00000000E+00
  0.00000000E+00  0.00000000E+00  0.00000000E+00
  0.00000000E+00  0.00000000E+00  0.00000000E+00
  0.00000000E+00  0.00000000E+00  0.00000000E+00
  0.00000000E+00  0.00000000E+00  0.00000000E+00
  0.00000000E+00  0.00000000E+00  0.00000000E+00
  0.00000000E+00  0.00000000E+00  0.00000000E+00
  0.00000000E+00  0.00000000E+00  0.00000000E+00
  0.00000000E+00  0.00000000E+00  0.00000000E+00
  0.00000000E+00  0.00000000E+00  0.00000000E+00
  0.00000000E+00  0.00000000E+00  0.00000000E+00
  0.00000000E+00  0.00000000E+00  0.00000000E+00
  0.00000000E+00  0.00000000E+00  0.00000000E+00
  0.00000000E+00  0.00000000E+00  0.00000000E+00
  0.00000000E+00  0.00000000E+00  0.00000000E+00
  0.00000000E+00  0.00000000E+00  0.00000000E+00
  0.00000000E+00  0.00000000E+00  0.00000000E+00
  0.00000000E+00  0.00000000E+00  0.00000000E+00
  0.00000000E+00  0.00000000E+00  0.00000000E+00
  0.00000000E+00  0.00000000E+00  0.00000000E+00
  0.00000000E+00  0.00000000E+00  0.00000000E+00
  0.00000000E+00  0.00000000E+00  0.00000000E+00
  0.00000000E+00  0.00000000E+00  0.00000000E+00
  0.00000000E+00  0.00000000E+00  0.00000000E+00
  0.00000000E+00  0.00000000E+00  0.00000000E+00
  0.00000000E+00  0.00000000E+00  0.00000000E+00
  0.00000000E+00  0.00000000E+00  0.00000000E+00
  0.00000000E+00  0.00000000E+00  0.00000000E+00
  0.00000000E+00  0.00000000E+00  0.00000000E+00
  0.00000000E+00  0.00000000E+00  0.00000000E+00
