B N S                                   
   1.0000000000000000     
     8.7639499999999995  -15.1796066749929999    0.0000000000000000
     8.7639499999999995   15.1796066749929999    0.0000000000000000
     0.0000000000000000    0.0000000000000000   15.0000000000000000
   B    N    S 
    48    49     1
Selective dynamics
Direct
  0.9056667559055342  0.9530683587910893  0.1110012489534764   T   T   T
  0.9046994902201241  0.0953025309758721  0.1109987675265381   T   T   T
  0.9043497428125068  0.2378892182517555  0.1110336679581487   T   T   T
  0.9046994902201241  0.3808256529352494  0.1109987675265381   T   T   T
  0.9056667559055342  0.5240288023624465  0.1110012489534764   T   T   T
  0.9055320045602203  0.6670731211236667  0.1110411982208647   T   T   T
  0.9055320045602203  0.8098892886845552  0.1110411982208647   T   T   T
  0.0478038491517406  0.9521981720442558  0.1110102363464832   T   T   T
  0.0469336624049142  0.0943352652904621  0.1110012489534764   T   T   T
  0.0462945541241281  0.2371714303158468  0.1109929760557477   T   T   T
  0.0462945541241281  0.3805535290552740  0.1109929760557477   T   T   T
  0.0469336624049142  0.5240288023624465  0.1110012489534764   T   T   T
  0.0478038491517406  0.6670377939114820  0.1110102363464832   T   T   T
  0.0479261674606830  0.8096791421323402  0.1109870882363522   T   T   T
  0.1903228790636633  0.9520758537353274  0.1109870882363522   T   T   T
  0.1901127325114482  0.0944700166357760  0.1110411982208647   T   T   T
  0.1877871507183798  0.2353511024193034  0.1110394514400024   T   T   T
  0.1874605523572168  0.3794454788021083  0.1110494857353460   T   T   T
  0.1877871507183798  0.5238664535470779  0.1110394514400024   T   T   T
  0.1901127325114482  0.6670731211236667  0.1110411982208647   T   T   T
  0.1903228790636633  0.8096791421323402  0.1109870882363522   T   T   T
  0.3329642272855162  0.9521981720442558  0.1110102363464832   T   T   T
  0.3329289000733314  0.0944700166357760  0.1110411982208647   T   T   T
  0.3327910105260702  0.2370104051021422  0.1110586209929621   T   T   T
  0.3271706137884578  0.3754715208269374  0.1110917662334373   T   T   T
  0.3271706137884578  0.5231294982085130  0.1110917662334373   T   T   T
  0.3327910105260702  0.6672110106709279  0.1110586209929621   T   T   T
  0.3329289000733314  0.8098892886845552  0.1110411982208647   T   T   T
  0.4759732188345516  0.9530683587910893  0.1110012489534764   T   T   T
  0.4759732188345516  0.0943352652904621  0.1110012489534764   T   T   T
  0.4761355676499201  0.2353511024193034  0.1110394514400024   T   T   T
  0.4768725229884851  0.3754715208269374  0.1110917662334373   T   T   T
  0.4768725229884851  0.6728314074085476  0.1110917662334373   T   T   T
  0.4761355676499201  0.8122148704776236  0.1110394514400024   T   T   T
  0.6194484921407222  0.9537074670718755  0.1109929760557477   T   T   T
  0.6191763682607543  0.0953025309758721  0.1109987675265381   T   T   T
  0.6194484921407222  0.2371714303158468  0.1109929760557477   T   T   T
  0.6205565423938950  0.3794454788021083  0.1110494857353460   T   T   T
  0.6245305003690589  0.5231294982085130  0.1110917662334373   T   T   T
  0.6245305003690589  0.6728314074085476  0.1110917662334373   T   T   T
  0.6205565423938950  0.8125414688387868  0.1110494857353460   T   T   T
  0.7628305908801567  0.9537074670718755  0.1109929760557477   T   T   T
  0.7621128029442479  0.0956522783834894  0.1110336679581487   T   T   T
  0.7621128029442479  0.2378892182517555  0.1110336679581487   T   T   T
  0.7628305908801567  0.3805535290552740  0.1109929760557477   T   T   T
  0.7646509187767002  0.5238664535470779  0.1110394514400024   T   T   T
  0.7629916160938685  0.6672110106709279  0.1110586209929621   T   T   T
  0.7646509187767002  0.8122148704776236  0.1110394514400024   T   T   T
  0.9527610048207243  0.9049804084806079  0.1110006972463469   T   T   T
  0.9523272557665640  0.0476741461514489  0.1109731827353553   T   T   T
  0.9517068532969489  0.1901426167788583  0.1109640615956843   T   T   T
  0.9517068532969489  0.3329912186360890  0.1109640615956843   T   T   T
  0.9523272557665640  0.4760800917331132  0.1109731827353553   T   T   T
  0.9527610048207243  0.6192092900151122  0.1110006972463469   T   T   T
  0.9528336505064731  0.7621311720907380  0.1109830108427224   T   T   T
  0.0953066191127927  0.9046947828052060  0.1109771678024947   T   T   T
  0.0950209934373906  0.0472403970972813  0.1110006972463469   T   T   T
  0.0934345184683770  0.1889772029264266  0.1109861077068727   T   T   T
  0.0931137611595425  0.3322712274167682  0.1109780750114986   T   T   T
  0.0934345184683770  0.4758860092159442  0.1109861077068727   T   T   T
  0.0950209934373906  0.6192092900151122  0.1110006972463469   T   T   T
  0.0953066191127927  0.7620422415385852  0.1109771678024947   T   T   T
  0.2379591603794205  0.9046947828052060  0.1109771678024947   T   T   T
  0.2378702298272677  0.0471677514115326  0.1109830108427224   T   T   T
  0.2373883772115368  0.1895563690267696  0.1110302347683471   T   T   T
  0.2332545240698710  0.3295856809899366  0.1110546292885637   T   T   T
  0.2332545240698710  0.4750975367539283  0.1110546292885637   T   T   T
  0.2373883772115368  0.6192607018597629  0.1110302347683471   T   T   T
  0.2378702298272677  0.7621311720907380  0.1109830108427224   T   T   T
  0.3807921119028864  0.9049804084806079  0.1110006972463469   T   T   T
  0.3807921119028864  0.0472403970972813  0.1110006972463469   T   T   T
  0.3807407000582355  0.1895563690267696  0.1110302347683471   T   T   T
  0.3805049644143989  0.3324372205857951  0.1110462982867847   T   T   T
  0.3638833046791042  0.4676559991765455  0.1111124917218756   T   T   T
  0.3805049644143989  0.6194964375036064  0.1110462982867847   T   T   T
  0.3807407000582355  0.7626130247064760  0.1110302347683471   T   T   T
  0.5241153927010523  0.9065668834496285  0.1109861077068727   T   T   T
  0.5239213101838835  0.0476741461514489  0.1109731827353553   T   T   T
  0.5241153927010523  0.1889772029264266  0.1109861077068727   T   T   T
  0.5249038651630683  0.3295856809899366  0.1110546292885637   T   T   T
  0.5323454027404514  0.4676559991765455  0.1111124917218756   T   T   T
  0.5323454027404514  0.6361180972388942  0.1111124917218756   T   T   T
  0.5249038651630754  0.7667468778481348  0.1110546292885637   T   T   T
  0.6677301745002213  0.9068876407584632  0.1109780750114986   T   T   T
  0.6670101832809077  0.0482945486210567  0.1109640615956843   T   T   T
  0.6670101832809077  0.1901426167788583  0.1109640615956843   T   T   T
  0.6677301745002213  0.3322712274167682  0.1109780750114986   T   T   T
  0.6704157209270601  0.4750975367539283  0.1110546292885637   T   T   T
  0.6675641813312018  0.6194964375036064  0.1110462982867847   T   T   T
  0.6704157209270601  0.7667468778481348  0.1110546292885637   T   T   T
  0.8110241989915719  0.9065668834496285  0.1109861077068727   T   T   T
  0.8098587851391404  0.0482945486210567  0.1109640615956843   T   T   T
  0.8095252739059973  0.1904761280120013  0.1110559473267207   T   T   T
  0.8098587851391404  0.3329912186360890  0.1109640615956843   T   T   T
  0.8110241989915719  0.4758860092159442  0.1109861077068727   T   T   T
  0.8104450328912292  0.6192607018597629  0.1110302347683471   T   T   T
  0.8104450328912292  0.7626130247064760  0.1110302347683471   T   T   T
  0.4761912123819982  0.5238108088150000  0.1110655440275115   T   T   T

  0.00000000E+00  0.00000000E+00  0.00000000E+00
  0.00000000E+00  0.00000000E+00  0.00000000E+00
  0.00000000E+00  0.00000000E+00  0.00000000E+00
  0.00000000E+00  0.00000000E+00  0.00000000E+00
  0.00000000E+00  0.00000000E+00  0.00000000E+00
  0.00000000E+00  0.00000000E+00  0.00000000E+00
  0.00000000E+00  0.00000000E+00  0.00000000E+00
  0.00000000E+00  0.00000000E+00  0.00000000E+00
  0.00000000E+00  0.00000000E+00  0.00000000E+00
  0.00000000E+00  0.00000000E+00  0.00000000E+00
  0.00000000E+00  0.00000000E+00  0.00000000E+00
  0.00000000E+00  0.00000000E+00  0.00000000E+00
  0.00000000E+00  0.00000000E+00  0.00000000E+00
  0.00000000E+00  0.00000000E+00  0.00000000E+00
  0.00000000E+00  0.00000000E+00  0.00000000E+00
  0.00000000E+00  0.00000000E+00  0.00000000E+00
  0.00000000E+00  0.00000000E+00  0.00000000E+00
  0.00000000E+00  0.00000000E+00  0.00000000E+00
  0.00000000E+00  0.00000000E+00  0.00000000E+00
  0.00000000E+00  0.00000000E+00  0.00000000E+00
  0.00000000E+00  0.00000000E+00  0.00000000E+00
  0.00000000E+00  0.00000000E+00  0.00000000E+00
  0.00000000E+00  0.00000000E+00  0.00000000E+00
  0.00000000E+00  0.00000000E+00  0.00000000E+00
  0.00000000E+00  0.00000000E+00  0.00000000E+00
  0.00000000E+00  0.00000000E+00  0.00000000E+00
  0.00000000E+00  0.00000000E+00  0.00000000E+00
  0.00000000E+00  0.00000000E+00  0.00000000E+00
  0.00000000E+00  0.00000000E+00  0.00000000E+00
  0.00000000E+00  0.00000000E+00  0.00000000E+00
  0.00000000E+00  0.00000000E+00  0.00000000E+00
  0.00000000E+00  0.00000000E+00  0.00000000E+00
  0.00000000E+00  0.00000000E+00  0.00000000E+00
  0.00000000E+00  0.00000000E+00  0.00000000E+00
  0.00000000E+00  0.00000000E+00  0.00000000E+00
  0.00000000E+00  0.00000000E+00  0.00000000E+00
  0.00000000E+00  0.00000000E+00  0.00000000E+00
  0.00000000E+00  0.00000000E+00  0.00000000E+00
  0.00000000E+00  0.00000000E+00  0.00000000E+00
  0.00000000E+00  0.00000000E+00  0.00000000E+00
  0.00000000E+00  0.00000000E+00  0.00000000E+00
  0.00000000E+00  0.00000000E+00  0.00000000E+00
  0.00000000E+00  0.00000000E+00  0.00000000E+00
  0.00000000E+00  0.00000000E+00  0.00000000E+00
  0.00000000E+00  0.00000000E+00  0.00000000E+00
  0.00000000E+00  0.00000000E+00  0.00000000E+00
  0.00000000E+00  0.00000000E+00  0.00000000E+00
  0.00000000E+00  0.00000000E+00  0.00000000E+00
  0.00000000E+00  0.00000000E+00  0.00000000E+00
  0.00000000E+00  0.00000000E+00  0.00000000E+00
  0.00000000E+00  0.00000000E+00  0.00000000E+00
  0.00000000E+00  0.00000000E+00  0.00000000E+00
  0.00000000E+00  0.00000000E+00  0.00000000E+00
  0.00000000E+00  0.00000000E+00  0.00000000E+00
  0.00000000E+00  0.00000000E+00  0.00000000E+00
  0.00000000E+00  0.00000000E+00  0.00000000E+00
  0.00000000E+00  0.00000000E+00  0.00000000E+00
  0.00000000E+00  0.00000000E+00  0.00000000E+00
  0.00000000E+00  0.00000000E+00  0.00000000E+00
  0.00000000E+00  0.00000000E+00  0.00000000E+00
  0.00000000E+00  0.00000000E+00  0.00000000E+00
  0.00000000E+00  0.00000000E+00  0.00000000E+00
  0.00000000E+00  0.00000000E+00  0.00000000E+00
  0.00000000E+00  0.00000000E+00  0.00000000E+00
  0.00000000E+00  0.00000000E+00  0.00000000E+00
  0.00000000E+00  0.00000000E+00  0.00000000E+00
  0.00000000E+00  0.00000000E+00  0.00000000E+00
  0.00000000E+00  0.00000000E+00  0.00000000E+00
  0.00000000E+00  0.00000000E+00  0.00000000E+00
  0.00000000E+00  0.00000000E+00  0.00000000E+00
  0.00000000E+00  0.00000000E+00  0.00000000E+00
  0.00000000E+00  0.00000000E+00  0.00000000E+00
  0.00000000E+00  0.00000000E+00  0.00000000E+00
  0.00000000E+00  0.00000000E+00  0.00000000E+00
  0.00000000E+00  0.00000000E+00  0.00000000E+00
  0.00000000E+00  0.00000000E+00  0.00000000E+00
  0.00000000E+00  0.00000000E+00  0.00000000E+00
  0.00000000E+00  0.00000000E+00  0.00000000E+00
  0.00000000E+00  0.00000000E+00  0.00000000E+00
  0.00000000E+00  0.00000000E+00  0.00000000E+00
  0.00000000E+00  0.00000000E+00  0.00000000E+00
  0.00000000E+00  0.00000000E+00  0.00000000E+00
  0.00000000E+00  0.00000000E+00  0.00000000E+00
  0.00000000E+00  0.00000000E+00  0.00000000E+00
  0.00000000E+00  0.00000000E+00  0.00000000E+00
  0.00000000E+00  0.00000000E+00  0.00000000E+00
  0.00000000E+00  0.00000000E+00  0.00000000E+00
  0.00000000E+00  0.00000000E+00  0.00000000E+00
  0.00000000E+00  0.00000000E+00  0.00000000E+00
  0.00000000E+00  0.00000000E+00  0.00000000E+00
  0.00000000E+00  0.00000000E+00  0.00000000E+00
  0.00000000E+00  0.00000000E+00  0.00000000E+00
  0.00000000E+00  0.00000000E+00  0.00000000E+00
  0.00000000E+00  0.00000000E+00  0.00000000E+00
  0.00000000E+00  0.00000000E+00  0.00000000E+00
  0.00000000E+00  0.00000000E+00  0.00000000E+00
  0.00000000E+00  0.00000000E+00  0.00000000E+00
  0.00000000E+00  0.00000000E+00  0.00000000E+00
