Species order: X N B                    
   2.51242800000000     
     5.9449720136058266    0.0000000000000000    0.0000000000000000
    -2.9724860068029120    5.1484967885702053   -0.0000000000000001
     0.0000000000000000    0.0000000000000009    5.3101128803662583
   In   N    B 
     1   144   143
Direct
  0.4444444444444429  0.3888888888888857  0.3750000000000000
  0.1110853059256087  0.0555306470985932  0.1246379261833790
  0.6111389180085357  0.5555968270768592  0.1247450010879433
  0.4444453411729823  0.0555306470985932  0.1246379261833790
  0.9444528513610810  0.5555631371475119  0.1251654170101429
  0.7777777777777786  0.0555555555555571  0.1250252219607021
  0.1111111111111143  0.7222222222222214  0.6247448584293982
  0.4444453411729823  0.7222480274077535  0.6253620738165611
  0.2777365062564884  0.2221944153248594  0.6252549989121253
  0.7778026862347933  0.7222480274077535  0.6253620738165611
  0.6111230665106455  0.2222102668228205  0.6255028644864565
  0.9444348207339489  0.2222190765298696  0.6250867212643070
  0.2777701961858392  0.7222230475468657  0.1251654170101429
  0.1110872003123117  0.2222102668228205  0.1244971355135402
  0.4444579090683353  0.2221944153248594  0.1247450010879433
  0.6111230665106455  0.7222461330209371  0.1244971355135402
  0.9444528513610810  0.7222230475468657  0.1251654170101429
  0.7777842557959905  0.2222190765298696  0.1249132787356072
  0.1111102857864994  0.8888804819722476  0.6248345829897763
  0.4444493960789679  0.8888913647060961  0.6249365545082637
  0.2777365062564901  0.3888754242649933  0.6252549989121253
  0.6111389180085357  0.3888754242649933  0.6252549989121253
  0.7777842557959905  0.8888985125993797  0.6250867212643070
  0.9444419686272325  0.3888839372543607  0.6249365545082637
  0.1110853059256087  0.3888879921603463  0.1246379261833790
  0.2777701961858392  0.8888804819722476  0.1251654170101429
  0.6111142568034292  0.8888985125993797  0.1249132787356072
  0.4444444444444429  0.3888888888888857  0.1294967288777089
  0.9444419686272325  0.8888913647060961  0.1250634454917215
  0.7778026862347933  0.3888879921603463  0.1246379261833790
  0.2777714884831392  0.5555618448501978  0.6252118087832949
  0.1110853059256087  0.0555306470985932  0.6253620738165611
  0.6111389180085357  0.5555968270768592  0.6252549989121253
  0.4444453411729823  0.0555306470985932  0.6253620738165611
  0.9444528513610810  0.5555631371475119  0.6248345829897763
  0.1111102857864994  0.5555631371475119  0.1251654170101429
  0.7777777777777786  0.0555555555555571  0.6249747780393489
  0.2777714884831392  0.0555429769663408  0.1247881912167158
  0.4444579090683353  0.5555968270768592  0.1247450010879433
  0.7777903563670574  0.5555618448501978  0.1247881912167160
  0.6111142568034292  0.0555490775373684  0.1249132787356072
  0.4444579090683353  0.5555968270768592  0.6252549989121253
  0.9444348207339489  0.0555490775373684  0.1249132787356072
  0.2777701961858392  0.7222230475468657  0.6248345829897763
  0.1110872003123117  0.2222102668228205  0.6255028644864565
  0.4444579090683353  0.2221944153248594  0.6252549989121253
  0.6111230665106455  0.7222461330209371  0.6255028644864565
  0.9444528513610810  0.7222230475468657  0.6248345829897763
  0.7777842557959905  0.2222190765298696  0.6250867212643070
  0.1111111111111143  0.7222222222222214  0.1252551415706208
  0.4444453411729823  0.7222480274077535  0.1246379261833790
  0.2777365062564901  0.2221944153248594  0.1247450010879433
  0.7778026862347933  0.7222480274077535  0.1246379261833790
  0.6111230665106455  0.2222102668228205  0.1244971355135402
  0.9444348207339489  0.2222190765298696  0.1249132787356072
  0.1110853059256087  0.3888879921603463  0.6253620738165611
  0.2777701961858392  0.8888804819722476  0.6248345829897763
  0.6111142568034292  0.8888985125993797  0.6250867212643070
  0.4444444444444429  0.3888888888888857  0.6205032711222221
  0.9444419686272325  0.8888913647060961  0.6249365545082637
  0.1111102857864994  0.8888804819722476  0.1251654170101429
  0.7778026862347933  0.3888879921603463  0.6253620738165611
  0.4444493960789679  0.8888913647060961  0.1250634454917215
  0.2777365062564884  0.3888754242649933  0.1247450010879433
  0.2777714884831392  0.5555618448501978  0.1247881912167158
  0.6111389180085357  0.3888754242649933  0.1247450010879433
  0.7777842557959905  0.8888985125993797  0.1249132787356072
  0.9444419686272325  0.3888839372543607  0.1250634454917215
  0.1111102857864994  0.5555631371475119  0.6248345829897763
  0.2777714884831392  0.0555429769663408  0.6252118087832949
  0.7777903563670574  0.5555618448501978  0.6252118087832949
  0.6111142568034292  0.0555490775373684  0.6250867212643070
  0.9444348207339489  0.0555490775373684  0.6250867212643070
  0.0539512523798226  0.1100826332435480  0.3750000000000000
  0.5562701114547771  0.6125402229093995  0.3750000000000000
  0.3872779834867475  0.1014738009412700  0.3750000000000000
  0.8921394982193215  0.6127364157763968  0.3750000000000000
  0.7225229231329851  0.1108104102003828  0.3750000000000000
  0.0555549264489152  0.7777784068843597  0.8750000000000000
  0.3888889367293821  0.7777809132581073  0.8750000000000000
  0.2222257667071203  0.2777795500202360  0.8750000000000000
  0.7222226209810276  0.7777795018706065  0.8750000000000000
  0.5555537833130106  0.2777795500202360  0.8750000000000000
  0.8888885398523662  0.2777770797049125  0.8750000000000000
  0.2215880064561937  0.7774606698948507  0.3750000000000000
  0.0539512523798226  0.2772019524695444  0.3750000000000000
  0.3725181507538766  0.2450363015077723  0.3750000000000000
  0.5561313808638148  0.7793820809534996  0.3750000000000000
  0.8915983769673311  0.7799833039973632  0.3750000000000000
  0.7232507000898118  0.2772019524695444  0.3750000000000000
  0.0555524200751020  0.9444413568045460  0.8750000000000000
  0.3888889367293821  0.9444413568045460  0.8750000000000000
  0.2222244123841083  0.4444438159624696  0.8750000000000000
  0.5555378921058691  0.4444356127196024  0.8750000000000000
  0.7222219237693108  0.9444438475387783  0.8750000000000000
  0.8888919765287826  0.4444443966039465  0.8750000000000000
  0.0533500293360412  0.4449484063033305  0.3750000000000000
  0.2205969175570205  0.9411938351140071  0.3750000000000000
  0.5560242007425200  0.9446787670380076  0.3750000000000000
  0.3725181507538766  0.4608151825794520  0.3750000000000000
  0.8886545662953210  0.9446787670380076  0.3750000000000000
  0.7318595323920748  0.4460553498465811  0.3750000000000000
  0.2222207051881625  0.6111126281452433  0.8750000000000000
  0.0555538314629159  0.1111107123522501  0.8750000000000000
  0.5555537833130106  0.6111075666261994  0.8750000000000000
  0.3888895173708590  0.1111139297550360  0.8750000000000000
  0.8888919229570363  0.6111126281452433  0.8750000000000000
  0.0558726634385644  0.6117453268771161  0.3750000000000000
  0.7222219237693108  0.1111114095639521  0.8750000000000000
  0.2141958174545280  0.1014738009412700  0.3750000000000000
  0.3872779834867475  0.6191375158787309  0.3750000000000000
  0.7318595323920748  0.6191375158787309  0.3750000000000000
  0.5561313808638148  0.1100826332435480  0.3750000000000000
  0.3888895173708590  0.6111089209491829  0.8750000000000000
  0.8882874870673996  0.1108104102003828  0.3750000000000000
  0.2222234804354959  0.7777784068843597  0.8750000000000000
  0.0555538314629159  0.2777764524440010  0.8750000000000000
  0.3888977206137262  0.2777954412276612  0.8750000000000000
  0.5555568808894040  0.7777795018706065  0.8750000000000000
  0.8888919765287826  0.7777809132581073  0.8750000000000000
  0.7222226209810276  0.2777764524440010  0.8750000000000000
  0.0558726634385644  0.7774606698948507  0.3750000000000000
  0.3883849270299981  0.7799833039973632  0.3750000000000000
  0.2207931104239726  0.2770632218786395  0.3750000000000000
  0.7232507000898118  0.7793820809534996  0.3750000000000000
  0.5562701114547771  0.2770632218786395  0.3750000000000000
  0.8886545662953210  0.2773091325908221  0.3750000000000000
  0.0555524200751020  0.4444443966039465  0.8750000000000000
  0.2222207051881625  0.9444414103762923  0.8750000000000000
  0.5555562536284312  0.9444447934809624  0.8750000000000000
  0.3888977206137262  0.4444356127196024  0.8750000000000000
  0.8888885398523662  0.9444447934809624  0.8750000000000000
  0.0533500293360412  0.9417349563659975  0.3750000000000000
  0.7222194035782206  0.4444438159624696  0.8750000000000000
  0.3883849270299981  0.9417349563659975  0.3750000000000000
  0.2141958174545280  0.4460553498465811  0.3750000000000000
  0.2205969175570203  0.6127364157763968  0.3750000000000000
  0.5882970318255683  0.4608151825794520  0.3750000000000000
  0.7225229231329851  0.9450458462659290  0.3750000000000000
  0.8915983769673311  0.4449484063033305  0.3750000000000000
  0.0555549264489151  0.6111098528978425  0.8750000000000000
  0.2222244123841083  0.1111139297550360  0.8750000000000000
  0.7222194035782206  0.6111089209491829  0.8750000000000000
  0.5555568808894040  0.1111107123522501  0.8750000000000000
  0.8888894857945503  0.1111114095639521  0.8750000000000000
  0.1058810044361188  0.0508080259863408  0.3750000000000000
  0.6229631054538586  0.5655142655329894  0.3750000000000000
  0.4449270215502449  0.0508080259863408  0.3750000000000000
  0.9458450168994568  0.5559344893096944  0.3750000000000000
  0.7777777777777786  0.0555555555555571  0.3750000000000000
  0.1111111111111143  0.7222222222222214  0.8750000000000000
  0.4444458602909377  0.7222340344329485  0.8750000000000000
  0.2777460347877322  0.2222116965680035  0.8750000000000000
  0.7777881741421051  0.7222340344329485  0.8750000000000000
  0.6111143323766611  0.2222190009565844  0.8750000000000000
  0.9444300932178922  0.2222252486304989  0.8750000000000000
  0.2773988440237001  0.7232438609232267  0.3750000000000000
  0.1097044205752297  0.2215188769542717  0.3750000000000000
  0.4425511600789603  0.2103702278795022  0.3750000000000000
  0.6118144563791575  0.7236289127582157  0.3750000000000000
  0.9458450168994568  0.7232438609232265  0.3750000000000000
  0.7780169676784561  0.2215046361414228  0.3750000000000000
  0.1111254982064107  0.8888902685541663  0.8750000000000000
  0.4444595077888823  0.8888964205610691  0.8750000000000000
  0.2777460347877322  0.3888676715530856  0.8750000000000000
  0.6111216367654584  0.3888676715530856  0.8750000000000000
  0.7777951554126559  0.8889032401154435  0.8750000000000000
  0.9444369127722595  0.3888738255444463  0.8750000000000000
  0.1058810044361189  0.3884063117830837  0.3750000000000000
  0.2773988440237001  0.8874883164338718  0.3750000000000000
  0.6118286971920066  0.8898456648702854  0.3750000000000000
  0.9441480956602081  0.8891852376731205  0.3750000000000000
  0.7825253073470771  0.3884063117830837  0.3750000000000000
  0.2777630103584302  0.5555703229749742  0.8750000000000000
  0.1110992989004306  0.0555451591912587  0.8750000000000000
  0.6111216367654584  0.5555872985456548  0.8750000000000000
  0.4444458602909377  0.0555451591912587  0.8750000000000000
  0.9444430647791623  0.5555685629855722  0.8750000000000000
  0.1100894724101799  0.5559344893096944  0.3750000000000000
  0.7777777777777786  0.0555555555555571  0.8750000000000000
  0.2753035936823986  0.0506071873647202  0.3750000000000000
  0.4425511600789603  0.5655142655329894  0.3750000000000000
  0.7827261459685385  0.5580297396509648  0.3750000000000000
  0.6118286971920064  0.0553163656549382  0.3750000000000000
  0.4444656617802430  0.5555872985456548  0.8750000000000000
  0.9434876684630432  0.0553163656549382  0.3750000000000000
  0.2777647703476339  0.7222078351269386  0.8750000000000000
  0.1111046685798656  0.2222190009565844  0.8750000000000000
  0.4444656617802430  0.2222116965680035  0.8750000000000000
  0.6111143323766611  0.7222286647534304  0.8750000000000000
  0.9444430647791623  0.7222078351269386  0.8750000000000000
  0.7777951554126559  0.2222252486304989  0.8750000000000000
  0.1111111111111143  0.7222222222222214  0.3750000000000000
  0.4449270215502449  0.7274523288972639  0.3750000000000000
  0.2678190678004919  0.2103702278795022  0.3750000000000000
  0.7825253073470771  0.7274523288972639  0.3750000000000000
  0.6118144563791573  0.2215188769542717  0.3750000000000000
  0.9434876684630432  0.2215046361414228  0.3750000000000000
  0.1110992989004306  0.3888874730423909  0.8750000000000000
  0.2777647703476339  0.8888902685541663  0.8750000000000000
  0.6111080847027651  0.8889032401154435  0.8750000000000000
  0.4444444444444429  0.3888888888888857  0.8750000000000000
  0.9444369127722595  0.8888964205610691  0.8750000000000000
  0.1100894724101801  0.8874883164338718  0.3750000000000000
  0.7777881741421051  0.3888874730423909  0.8750000000000000
  0.4450371420129972  0.8891852376731205  0.3750000000000000
  0.2678190678004920  0.3907821732543683  0.3750000000000000
  0.2753035936823986  0.5580297396509648  0.3750000000000000
  0.6229631054538586  0.3907821732543683  0.3750000000000000
  0.7780169676784561  0.8898456648702854  0.3750000000000000
  0.9441480956602081  0.3882961913203314  0.3750000000000000
  0.1111254982064107  0.5555685629855722  0.8750000000000000
  0.2777630103584302  0.0555260207168677  0.8750000000000000
  0.7778073126164683  0.5555703229749742  0.8750000000000000
  0.6111080847027651  0.0555381779207160  0.8750000000000000
  0.9444300932178922  0.0555381779207160  0.8750000000000000
  0.0555275994645641  0.1110610148090886  0.1245268340411730
  0.5556156207928826  0.6112312415860273  0.1245009090692012
  0.3888649970230821  0.1109778511776127  0.1244962348112553
  0.8889340391432129  0.6111336862383075  0.1249028456339416
  0.7222408829411678  0.1110924503920837  0.1248174314410696
  0.0555752234042542  0.7777581099291482  0.6249451572578246
  0.3888909143108212  0.7777827226577710  0.6251610917666348
  0.2221020917474000  0.2777177125403256  0.6254990909307774
  0.7222723185242109  0.7778057338688855  0.6254731659588401
  0.5556156207928826  0.2777177125403256  0.6254990909307774
  0.8888905702619039  0.2777811405237418  0.6251656908497786
  0.2221828865248140  0.7777581099291482  0.1250548427420840
  0.0555275994645641  0.2777999179888161  0.1245268340411730
  0.3887086017587237  0.2774172035175254  0.1258236426718896
  0.5555334153445158  0.7778057338688855  0.1245268340411730
  0.8888918083468231  0.7777827226577710  0.1248389082334095
  0.7222723185242109  0.2777999179888161  0.1245268340411730
  0.0555506106755795  0.9444415249865055  0.6251610917666348
  0.3888909143108212  0.9444415249865055  0.6251610917666348
  0.2221128541545888  0.4444683363102465  0.6255037651888328
  0.5559161298158882  0.4446247315746049  0.6241763573281591
  0.7222408829411678  0.9444817658825161  0.6251825685588576
  0.8888918083468231  0.4444424190225074  0.6251610917666348
  0.0555506106755796  0.4444424190225074  0.1248389082334095
  0.2221996470950689  0.9443992941901157  0.1249028456339416
  0.5555521928095316  0.9444427630714247  0.1248343091501605
  0.3887086017587237  0.4446247315746049  0.1258236426718895
  0.8888905702619039  0.9444427630714247  0.1248343091501605
  0.7223554821555827  0.4444683363102465  0.1244962348112553
  0.2221996470950689  0.6111336862383075  0.6250971543661068
  0.0555275994645641  0.1110610148090886  0.6254731659588401
  0.5556156207928826  0.6112312415860273  0.6254990909307774
  0.3888649970230821  0.1109778511776122  0.6255037651888328
  0.8889340391432129  0.6111336862383075  0.6250971543661068
  0.0555752234042542  0.6111504468086097  0.1250548427420840
  0.7222408829411678  0.1110924503920827  0.6251825685588576
  0.2221128541545888  0.1109778511776126  0.1244962348112553
  0.3888649970230821  0.6112204791787299  0.1244962348112553
  0.7223554821555827  0.6112204791787299  0.1244962348112553
  0.5555334153445158  0.1110610148090886  0.1245268340411730
  0.3888649970230821  0.6112204791787299  0.6255037651888328
  0.8888515674508125  0.1110924503920827  0.1248174314410696
  0.2221828865248140  0.7777581099291482  0.6249451572578246
  0.0555275994645641  0.2777999179888161  0.6254731659588401
  0.3887086017587237  0.2774172035175254  0.6241763573281591
  0.5555334153445158  0.7778057338688855  0.6254731659588401
  0.8888918083468231  0.7777827226577710  0.6251610917666348
  0.7222723185242109  0.2777999179888161  0.6254731659588401
  0.0555752234042542  0.7777581099291482  0.1250548427420840
  0.3888909143108212  0.7777827226577710  0.1248389082334095
  0.2221020917474000  0.2777177125403256  0.1245009090692012
  0.7222723185242109  0.7778057338688855  0.1245268340411730
  0.5556156207928826  0.2777177125403256  0.1245009090692012
  0.8888905702619039  0.2777811405237418  0.1248343091501605
  0.0555506106755796  0.4444424190225074  0.6251610917666348
  0.2221996470950689  0.9443992941901157  0.6250971543661068
  0.5555521928095316  0.9444427630714247  0.6251656908497786
  0.3887086017587237  0.4446247315746049  0.6241763573281591
  0.8888905702619039  0.9444427630714247  0.6251656908497786
  0.0555506106755795  0.9444415249865055  0.1248389082334095
  0.7223554821555827  0.4444683363102465  0.6255037651888328
  0.3888909143108212  0.9444415249865055  0.1248389082334095
  0.2221128541545888  0.4444683363102465  0.1244962348112553
  0.2221996470950689  0.6111336862383075  0.1249028456339416
  0.5559161298158882  0.4446247315746049  0.1258236426718895
  0.7222408829411678  0.9444817658825161  0.1248174314410696
  0.8888918083468231  0.4444424190225074  0.1248389082334095
  0.0555752234042542  0.6111504468086097  0.6249451572578246
  0.2221128541545888  0.1109778511776127  0.6255037651888328
  0.7223554821555827  0.6112204791787299  0.6255037651888328
  0.5555334153445158  0.1110610148090886  0.6254731659588401
  0.8888515674508125  0.1110924503920827  0.6251825685588576
 
  0.00000000E+00  0.00000000E+00  0.00000000E+00
  0.00000000E+00  0.00000000E+00  0.00000000E+00
  0.00000000E+00  0.00000000E+00  0.00000000E+00
  0.00000000E+00  0.00000000E+00  0.00000000E+00
  0.00000000E+00  0.00000000E+00  0.00000000E+00
  0.00000000E+00  0.00000000E+00  0.00000000E+00
  0.00000000E+00  0.00000000E+00  0.00000000E+00
  0.00000000E+00  0.00000000E+00  0.00000000E+00
  0.00000000E+00  0.00000000E+00  0.00000000E+00
  0.00000000E+00  0.00000000E+00  0.00000000E+00
  0.00000000E+00  0.00000000E+00  0.00000000E+00
  0.00000000E+00  0.00000000E+00  0.00000000E+00
  0.00000000E+00  0.00000000E+00  0.00000000E+00
  0.00000000E+00  0.00000000E+00  0.00000000E+00
  0.00000000E+00  0.00000000E+00  0.00000000E+00
  0.00000000E+00  0.00000000E+00  0.00000000E+00
  0.00000000E+00  0.00000000E+00  0.00000000E+00
  0.00000000E+00  0.00000000E+00  0.00000000E+00
  0.00000000E+00  0.00000000E+00  0.00000000E+00
  0.00000000E+00  0.00000000E+00  0.00000000E+00
  0.00000000E+00  0.00000000E+00  0.00000000E+00
  0.00000000E+00  0.00000000E+00  0.00000000E+00
  0.00000000E+00  0.00000000E+00  0.00000000E+00
  0.00000000E+00  0.00000000E+00  0.00000000E+00
  0.00000000E+00  0.00000000E+00  0.00000000E+00
  0.00000000E+00  0.00000000E+00  0.00000000E+00
  0.00000000E+00  0.00000000E+00  0.00000000E+00
  0.00000000E+00  0.00000000E+00  0.00000000E+00
  0.00000000E+00  0.00000000E+00  0.00000000E+00
  0.00000000E+00  0.00000000E+00  0.00000000E+00
  0.00000000E+00  0.00000000E+00  0.00000000E+00
  0.00000000E+00  0.00000000E+00  0.00000000E+00
  0.00000000E+00  0.00000000E+00  0.00000000E+00
  0.00000000E+00  0.00000000E+00  0.00000000E+00
  0.00000000E+00  0.00000000E+00  0.00000000E+00
  0.00000000E+00  0.00000000E+00  0.00000000E+00
  0.00000000E+00  0.00000000E+00  0.00000000E+00
  0.00000000E+00  0.00000000E+00  0.00000000E+00
  0.00000000E+00  0.00000000E+00  0.00000000E+00
  0.00000000E+00  0.00000000E+00  0.00000000E+00
  0.00000000E+00  0.00000000E+00  0.00000000E+00
  0.00000000E+00  0.00000000E+00  0.00000000E+00
  0.00000000E+00  0.00000000E+00  0.00000000E+00
  0.00000000E+00  0.00000000E+00  0.00000000E+00
  0.00000000E+00  0.00000000E+00  0.00000000E+00
  0.00000000E+00  0.00000000E+00  0.00000000E+00
  0.00000000E+00  0.00000000E+00  0.00000000E+00
  0.00000000E+00  0.00000000E+00  0.00000000E+00
  0.00000000E+00  0.00000000E+00  0.00000000E+00
  0.00000000E+00  0.00000000E+00  0.00000000E+00
  0.00000000E+00  0.00000000E+00  0.00000000E+00
  0.00000000E+00  0.00000000E+00  0.00000000E+00
  0.00000000E+00  0.00000000E+00  0.00000000E+00
  0.00000000E+00  0.00000000E+00  0.00000000E+00
  0.00000000E+00  0.00000000E+00  0.00000000E+00
  0.00000000E+00  0.00000000E+00  0.00000000E+00
  0.00000000E+00  0.00000000E+00  0.00000000E+00
  0.00000000E+00  0.00000000E+00  0.00000000E+00
  0.00000000E+00  0.00000000E+00  0.00000000E+00
  0.00000000E+00  0.00000000E+00  0.00000000E+00
  0.00000000E+00  0.00000000E+00  0.00000000E+00
  0.00000000E+00  0.00000000E+00  0.00000000E+00
  0.00000000E+00  0.00000000E+00  0.00000000E+00
  0.00000000E+00  0.00000000E+00  0.00000000E+00
  0.00000000E+00  0.00000000E+00  0.00000000E+00
  0.00000000E+00  0.00000000E+00  0.00000000E+00
  0.00000000E+00  0.00000000E+00  0.00000000E+00
  0.00000000E+00  0.00000000E+00  0.00000000E+00
  0.00000000E+00  0.00000000E+00  0.00000000E+00
  0.00000000E+00  0.00000000E+00  0.00000000E+00
  0.00000000E+00  0.00000000E+00  0.00000000E+00
  0.00000000E+00  0.00000000E+00  0.00000000E+00
  0.00000000E+00  0.00000000E+00  0.00000000E+00
  0.00000000E+00  0.00000000E+00  0.00000000E+00
  0.00000000E+00  0.00000000E+00  0.00000000E+00
  0.00000000E+00  0.00000000E+00  0.00000000E+00
  0.00000000E+00  0.00000000E+00  0.00000000E+00
  0.00000000E+00  0.00000000E+00  0.00000000E+00
  0.00000000E+00  0.00000000E+00  0.00000000E+00
  0.00000000E+00  0.00000000E+00  0.00000000E+00
  0.00000000E+00  0.00000000E+00  0.00000000E+00
  0.00000000E+00  0.00000000E+00  0.00000000E+00
  0.00000000E+00  0.00000000E+00  0.00000000E+00
  0.00000000E+00  0.00000000E+00  0.00000000E+00
  0.00000000E+00  0.00000000E+00  0.00000000E+00
  0.00000000E+00  0.00000000E+00  0.00000000E+00
  0.00000000E+00  0.00000000E+00  0.00000000E+00
  0.00000000E+00  0.00000000E+00  0.00000000E+00
  0.00000000E+00  0.00000000E+00  0.00000000E+00
  0.00000000E+00  0.00000000E+00  0.00000000E+00
  0.00000000E+00  0.00000000E+00  0.00000000E+00
  0.00000000E+00  0.00000000E+00  0.00000000E+00
  0.00000000E+00  0.00000000E+00  0.00000000E+00
  0.00000000E+00  0.00000000E+00  0.00000000E+00
  0.00000000E+00  0.00000000E+00  0.00000000E+00
  0.00000000E+00  0.00000000E+00  0.00000000E+00
  0.00000000E+00  0.00000000E+00  0.00000000E+00
  0.00000000E+00  0.00000000E+00  0.00000000E+00
  0.00000000E+00  0.00000000E+00  0.00000000E+00
  0.00000000E+00  0.00000000E+00  0.00000000E+00
  0.00000000E+00  0.00000000E+00  0.00000000E+00
  0.00000000E+00  0.00000000E+00  0.00000000E+00
  0.00000000E+00  0.00000000E+00  0.00000000E+00
  0.00000000E+00  0.00000000E+00  0.00000000E+00
  0.00000000E+00  0.00000000E+00  0.00000000E+00
  0.00000000E+00  0.00000000E+00  0.00000000E+00
  0.00000000E+00  0.00000000E+00  0.00000000E+00
  0.00000000E+00  0.00000000E+00  0.00000000E+00
  0.00000000E+00  0.00000000E+00  0.00000000E+00
  0.00000000E+00  0.00000000E+00  0.00000000E+00
  0.00000000E+00  0.00000000E+00  0.00000000E+00
  0.00000000E+00  0.00000000E+00  0.00000000E+00
  0.00000000E+00  0.00000000E+00  0.00000000E+00
  0.00000000E+00  0.00000000E+00  0.00000000E+00
  0.00000000E+00  0.00000000E+00  0.00000000E+00
  0.00000000E+00  0.00000000E+00  0.00000000E+00
  0.00000000E+00  0.00000000E+00  0.00000000E+00
  0.00000000E+00  0.00000000E+00  0.00000000E+00
  0.00000000E+00  0.00000000E+00  0.00000000E+00
  0.00000000E+00  0.00000000E+00  0.00000000E+00
  0.00000000E+00  0.00000000E+00  0.00000000E+00
  0.00000000E+00  0.00000000E+00  0.00000000E+00
  0.00000000E+00  0.00000000E+00  0.00000000E+00
  0.00000000E+00  0.00000000E+00  0.00000000E+00
  0.00000000E+00  0.00000000E+00  0.00000000E+00
  0.00000000E+00  0.00000000E+00  0.00000000E+00
  0.00000000E+00  0.00000000E+00  0.00000000E+00
  0.00000000E+00  0.00000000E+00  0.00000000E+00
  0.00000000E+00  0.00000000E+00  0.00000000E+00
  0.00000000E+00  0.00000000E+00  0.00000000E+00
  0.00000000E+00  0.00000000E+00  0.00000000E+00
  0.00000000E+00  0.00000000E+00  0.00000000E+00
  0.00000000E+00  0.00000000E+00  0.00000000E+00
  0.00000000E+00  0.00000000E+00  0.00000000E+00
  0.00000000E+00  0.00000000E+00  0.00000000E+00
  0.00000000E+00  0.00000000E+00  0.00000000E+00
  0.00000000E+00  0.00000000E+00  0.00000000E+00
  0.00000000E+00  0.00000000E+00  0.00000000E+00
  0.00000000E+00  0.00000000E+00  0.00000000E+00
  0.00000000E+00  0.00000000E+00  0.00000000E+00
  0.00000000E+00  0.00000000E+00  0.00000000E+00
  0.00000000E+00  0.00000000E+00  0.00000000E+00
  0.00000000E+00  0.00000000E+00  0.00000000E+00
  0.00000000E+00  0.00000000E+00  0.00000000E+00
  0.00000000E+00  0.00000000E+00  0.00000000E+00
  0.00000000E+00  0.00000000E+00  0.00000000E+00
  0.00000000E+00  0.00000000E+00  0.00000000E+00
  0.00000000E+00  0.00000000E+00  0.00000000E+00
  0.00000000E+00  0.00000000E+00  0.00000000E+00
  0.00000000E+00  0.00000000E+00  0.00000000E+00
  0.00000000E+00  0.00000000E+00  0.00000000E+00
  0.00000000E+00  0.00000000E+00  0.00000000E+00
  0.00000000E+00  0.00000000E+00  0.00000000E+00
  0.00000000E+00  0.00000000E+00  0.00000000E+00
  0.00000000E+00  0.00000000E+00  0.00000000E+00
  0.00000000E+00  0.00000000E+00  0.00000000E+00
  0.00000000E+00  0.00000000E+00  0.00000000E+00
  0.00000000E+00  0.00000000E+00  0.00000000E+00
  0.00000000E+00  0.00000000E+00  0.00000000E+00
  0.00000000E+00  0.00000000E+00  0.00000000E+00
  0.00000000E+00  0.00000000E+00  0.00000000E+00
  0.00000000E+00  0.00000000E+00  0.00000000E+00
  0.00000000E+00  0.00000000E+00  0.00000000E+00
  0.00000000E+00  0.00000000E+00  0.00000000E+00
  0.00000000E+00  0.00000000E+00  0.00000000E+00
  0.00000000E+00  0.00000000E+00  0.00000000E+00
  0.00000000E+00  0.00000000E+00  0.00000000E+00
  0.00000000E+00  0.00000000E+00  0.00000000E+00
  0.00000000E+00  0.00000000E+00  0.00000000E+00
  0.00000000E+00  0.00000000E+00  0.00000000E+00
  0.00000000E+00  0.00000000E+00  0.00000000E+00
  0.00000000E+00  0.00000000E+00  0.00000000E+00
  0.00000000E+00  0.00000000E+00  0.00000000E+00
  0.00000000E+00  0.00000000E+00  0.00000000E+00
  0.00000000E+00  0.00000000E+00  0.00000000E+00
  0.00000000E+00  0.00000000E+00  0.00000000E+00
  0.00000000E+00  0.00000000E+00  0.00000000E+00
  0.00000000E+00  0.00000000E+00  0.00000000E+00
  0.00000000E+00  0.00000000E+00  0.00000000E+00
  0.00000000E+00  0.00000000E+00  0.00000000E+00
  0.00000000E+00  0.00000000E+00  0.00000000E+00
  0.00000000E+00  0.00000000E+00  0.00000000E+00
  0.00000000E+00  0.00000000E+00  0.00000000E+00
  0.00000000E+00  0.00000000E+00  0.00000000E+00
  0.00000000E+00  0.00000000E+00  0.00000000E+00
  0.00000000E+00  0.00000000E+00  0.00000000E+00
  0.00000000E+00  0.00000000E+00  0.00000000E+00
  0.00000000E+00  0.00000000E+00  0.00000000E+00
  0.00000000E+00  0.00000000E+00  0.00000000E+00
  0.00000000E+00  0.00000000E+00  0.00000000E+00
  0.00000000E+00  0.00000000E+00  0.00000000E+00
  0.00000000E+00  0.00000000E+00  0.00000000E+00
  0.00000000E+00  0.00000000E+00  0.00000000E+00
  0.00000000E+00  0.00000000E+00  0.00000000E+00
  0.00000000E+00  0.00000000E+00  0.00000000E+00
  0.00000000E+00  0.00000000E+00  0.00000000E+00
  0.00000000E+00  0.00000000E+00  0.00000000E+00
  0.00000000E+00  0.00000000E+00  0.00000000E+00
  0.00000000E+00  0.00000000E+00  0.00000000E+00
  0.00000000E+00  0.00000000E+00  0.00000000E+00
  0.00000000E+00  0.00000000E+00  0.00000000E+00
  0.00000000E+00  0.00000000E+00  0.00000000E+00
  0.00000000E+00  0.00000000E+00  0.00000000E+00
  0.00000000E+00  0.00000000E+00  0.00000000E+00
  0.00000000E+00  0.00000000E+00  0.00000000E+00
  0.00000000E+00  0.00000000E+00  0.00000000E+00
  0.00000000E+00  0.00000000E+00  0.00000000E+00
  0.00000000E+00  0.00000000E+00  0.00000000E+00
  0.00000000E+00  0.00000000E+00  0.00000000E+00
  0.00000000E+00  0.00000000E+00  0.00000000E+00
  0.00000000E+00  0.00000000E+00  0.00000000E+00
  0.00000000E+00  0.00000000E+00  0.00000000E+00
  0.00000000E+00  0.00000000E+00  0.00000000E+00
  0.00000000E+00  0.00000000E+00  0.00000000E+00
  0.00000000E+00  0.00000000E+00  0.00000000E+00
  0.00000000E+00  0.00000000E+00  0.00000000E+00
  0.00000000E+00  0.00000000E+00  0.00000000E+00
  0.00000000E+00  0.00000000E+00  0.00000000E+00
  0.00000000E+00  0.00000000E+00  0.00000000E+00
  0.00000000E+00  0.00000000E+00  0.00000000E+00
  0.00000000E+00  0.00000000E+00  0.00000000E+00
  0.00000000E+00  0.00000000E+00  0.00000000E+00
  0.00000000E+00  0.00000000E+00  0.00000000E+00
  0.00000000E+00  0.00000000E+00  0.00000000E+00
  0.00000000E+00  0.00000000E+00  0.00000000E+00
  0.00000000E+00  0.00000000E+00  0.00000000E+00
  0.00000000E+00  0.00000000E+00  0.00000000E+00
  0.00000000E+00  0.00000000E+00  0.00000000E+00
  0.00000000E+00  0.00000000E+00  0.00000000E+00
  0.00000000E+00  0.00000000E+00  0.00000000E+00
  0.00000000E+00  0.00000000E+00  0.00000000E+00
  0.00000000E+00  0.00000000E+00  0.00000000E+00
  0.00000000E+00  0.00000000E+00  0.00000000E+00
  0.00000000E+00  0.00000000E+00  0.00000000E+00
  0.00000000E+00  0.00000000E+00  0.00000000E+00
  0.00000000E+00  0.00000000E+00  0.00000000E+00
  0.00000000E+00  0.00000000E+00  0.00000000E+00
  0.00000000E+00  0.00000000E+00  0.00000000E+00
  0.00000000E+00  0.00000000E+00  0.00000000E+00
  0.00000000E+00  0.00000000E+00  0.00000000E+00
  0.00000000E+00  0.00000000E+00  0.00000000E+00
  0.00000000E+00  0.00000000E+00  0.00000000E+00
  0.00000000E+00  0.00000000E+00  0.00000000E+00
  0.00000000E+00  0.00000000E+00  0.00000000E+00
  0.00000000E+00  0.00000000E+00  0.00000000E+00
  0.00000000E+00  0.00000000E+00  0.00000000E+00
  0.00000000E+00  0.00000000E+00  0.00000000E+00