 C B N 
 1.0
 17.527899999999999   0.000000000000000   0.000000000000000
 -8.763949999999996  15.179606674993002   0.000000000000000
  0.000000000000001   0.000000000000002  15.000000000000000
 C B N 
   4  47  47
Cartesian
  2.578054646863927   7.277445844100862   1.662222220891350 
  3.765760093552677   7.983715795940771   1.667067145322430 
  5.036599899012879   7.294302572739465   1.669430303484990 
  6.245000721518042   7.964104429797684   1.667472767016045 
  7.509720119996038  14.452434586590485   1.665215381147535 
 15.023289804296098   1.445283789911597   1.665543467699295 
 13.771461102241544   3.615075734125453   1.665610165888200 
 12.516166497238856   5.783297738697817   1.664970649807755 
 11.257574864864793   7.951856015805477   1.665053013691020 
 10.022187705640718  10.123203747559055   1.665861277492485 
  8.762649397424727  12.283358933174707   1.665509508916815 
 -7.514923993071472  14.452920225736984   1.665135591952560 
 -0.001625723461373   1.444094484898705   1.665152820553320 
 -1.248433096282924   3.617252019215437   1.665051566263110 
 -2.500535268861264   5.783588127299737   1.665327129770100 
 -3.761107969059382   7.950499891391829   1.665164588316300 
 -5.007994067741848  10.119737783328667   1.665282893580480 
 -6.259129893069499  12.288819853080280   1.665016620401025 
 -5.008765500231521  14.453511264957958   1.664984572431345 
  2.502158226706810   1.438331830744926   1.665595770727560 
  1.255530268380608   3.614262443557747   1.665082615355160 
  0.016644227601515   5.790821176625360   1.664994201163500 
 -1.253504852227707   7.952284822954265   1.665865245777195 
 -2.507222124735075  10.119737783328667   1.665781906545735 
 -3.757173979223805  12.288655839444750   1.664995791071820 
 -2.502854475149227  14.454808898238197   1.665272605129335 
  5.014992255661053   1.433516396959425   1.665968059892940 
  3.764040431447974   3.589673179804510   1.665668374910235 
  2.542573952158294   5.764262117100782   1.664219864809770 
  1.247658125140694   7.984286346825810   1.664311528306605 
 -0.013364557230409  10.136705008334959   1.666123398971370 
 -1.255574125697007  12.294455961704722   1.665818362589850 
  0.002550664430467  14.456504206077319   1.665184804274130 
  7.515953393274102   1.441028837397151   1.665015146224920 
  6.264212081673048   3.599659293289819   1.665375791186190 
  5.011426515372605   5.759728513917564   1.666785811124130 
  2.489759884901208  10.119737783328667   1.665843001189080 
  1.252611482766184  12.289308902565681   1.665820055036670 
  2.505898121978168  14.454925822646217   1.665330225474510 
 10.016202781066513   1.448390110055569   1.665027256918800 
  8.758611838254275   3.621825784818213   1.665137451241005 
  7.485701470259016   5.789259578653040   1.665115444412265 
  5.009701225777185  10.098903863201787   1.665697175837325 
  3.758270794762967  12.279961975314013   1.664927641375710 
  5.007785647958908  14.452769145182351   1.665061120566285 
 12.519558928693625   1.445689917417192   1.665636340400100 
 11.264479029257707   3.616682336835435   1.665702427087665 
 10.005843743180293   5.786373062403032   1.665186195229860 
  8.748466336361517   7.964633902088469   1.665336953398665 
  7.523495376211423  10.112515818839283   1.665686513821485 
  6.257907622500081  12.279421736303323   1.665035630635005 
  8.760067535776818  13.725987531736887   1.665027934174995 
 16.273091499841279   0.717408804361648   1.665070587316125 
 15.023336420462305   2.891228176078104   1.665263589531990 
 13.769834433595985   5.059868891664333   1.665027745098450 
 12.508533872467948   7.229451145250365   1.664669114845110 
 11.264730479115030   9.396626519936394   1.665232507104540 
 10.014816331080938  11.564052064896092   1.665377686094445 
 -6.262437593588429  13.730777170337515   1.664659496946750 
  1.248337181399790   0.715563309665112   1.665072121939200 
  0.000078283059813   2.887654436555567   1.664769424690365 
 -1.246059631912578   5.063475992116310   1.664909410626315 
 -2.510552223340952   7.229884404660048   1.665232269290280 
 -3.761026941158114   9.397088868744284   1.665183891446085 
 -5.010298461563011  11.564477477433309   1.664771746711740 
 -3.756347372795356  13.732510175979428   1.664782372099620 
  3.756278651176427   0.715337796385910   1.665366314314125 
  2.505421641070092   2.878111581741609   1.665244699687170 
  1.265695009696181   5.055029467418431   1.664616979371990 
 -0.003415934527835   7.239984855732211   1.665048624611640 
 -1.259018710919151   9.403207415894927   1.665728264682450 
 -2.507124020961350  11.567688876900508   1.665272340248310 
 -1.250959490143427  13.736988469961064   1.665211753037760 
  6.265055946041948   0.717222333309528   1.665163858540110 
  5.017990723159939   2.872889205374914   1.665578165859060 
  3.778547236855481   5.020936631853973   1.665252113349525 
  1.236037829907298   9.428023954270881   1.665533898641250 
 -0.004809425049767  11.578361739658341   1.665761661015045 
  1.255143459353818  13.733974768966085   1.665225012176580 
  8.768063194177415   0.721950060220342   1.664592749489850 
  7.517094822010757   2.887007470092685   1.664944789821315 
  6.265429843710976   5.046804350980784   1.665036642964695 
  3.760405351926218   9.385375505501214   1.666205304067710 
  2.508930033321223  11.563434542041632   1.665183855688320 
  3.760312408743543  13.726423422381929   1.664819303820465 
 11.268137967535033   0.722488100191088   1.665106630990860 
 10.012493427224596   2.897328240255196   1.665129798946875 
  8.748870352500550   5.077405325116351   1.664774916369000 
  7.461769792718206   7.266941804571346   1.665466647342450 
  6.275891922430401   9.359939495436482   1.665586779322155 
  5.012574089791326  11.543327825256149   1.664685175078815 
  6.258202113284256  13.723637957562229   1.664841214767945 
 13.770846345040605   0.719204285407298   1.665224182909485 
 12.516829896866767   2.892316447852523   1.665479765272215 
 11.258811765836777   5.064339637341640   1.665155347345875 
  9.992829235005038   7.233492297458186   1.664824260649500 
  8.766687545221005   9.400047111130021   1.665447563629095 
  7.507648290668789  11.551836559034726   1.665167092761135 
