 P B N 
 1.0
 17.527899999999772   0.000000000000000   0.000000000000000
 -8.763949999999658  15.179606674993195   0.000000000000000
  0.000000000000001   0.000000000000002  15.000000000000000
 P B N 
   1  47  49
Cartesian
  3.857085279037673   7.916903142935992   1.642666550033205 
  7.515572410626730  14.475835173808294   1.665205054989360 
 15.020841811079055   1.456921501582702   1.665713619443460 
 13.765787386166918   3.621686972694945   1.666676619163860 
 12.512161336462272   5.788065686629819   1.665204031811400 
 11.264511975422044   7.957747967285559   1.665610485689115 
 10.010691512828366  10.128815526552010   1.666283279536200 
  8.768205938606817  12.309132924604691   1.666049463539460 
 -7.512367882929110  14.460175351823221   1.665284940550440 
 -0.004694060718693   1.445662404887702   1.664538537969975 
 -1.260560804603210   3.615260158627223   1.663410975422700 
 -2.515061883391806   5.786019699989589   1.663367626809120 
 -3.766764003260792   7.954823112466745   1.664376719526150 
 -5.012537153105070  10.119737783328796   1.665989194404870 
 -6.262431100606771  12.289914982388547   1.665212630998815 
 -5.010765831340065  14.447514579521604   1.665349962248640 
  2.497684311059607   1.428240480849580   1.664512982683590 
  1.238515408251977   3.591497496965275   1.662367608810525 
 -0.017356274966312   5.775404050780235   1.663852028946795 
 -1.275333053445459   7.955312119464637   1.662615678257520 
 -2.511093994432649  10.119737783328796   1.664711049379590 
 -3.760031927491678  12.285017395369103   1.665424524228825 
 -2.505657292695735  14.447193621405377   1.666237483461750 
  5.005024579215331   1.422976784282575   1.666401379956210 
  3.744015314260444   3.568929750403010   1.661521355882325 
  2.482650751904214   5.714628828765666   1.674222176578545 
  1.192262394568155   7.962975943162154   1.676817462352545 
 -0.012924269828139  10.128173319148804   1.662451075337505 
 -1.256533641746825  12.288146693741588   1.664785109852190 
 -0.001084066216096  14.455404411543002   1.664504694935880 
  7.514468837314767   1.428930019772171   1.666445931489465 
  6.265429104012778   3.570337348691439   1.665172555622430 
  5.015879933929455   5.686056686516716   1.664334851973825 
  2.478080421723214  10.163193114618821   1.674844586566665 
  1.246306457338157  12.301984065018836   1.663812496593420 
  2.503383408443151  14.468911231022972   1.663803061919805 
 10.015073427950131   1.446817887624195   1.665022543564260 
  8.765071964609595   3.606110963277308   1.665656823055980 
  7.499013003556661   5.764431691711656   1.663943777853510 
  5.129402116396746  10.185225336775774   1.671842932546170 
  3.767935517713338  12.317320460384355   1.665254245434300 
  5.010644413282112  14.477321572509737   1.663624356930300 
 12.517137721305035   1.456688245525051   1.665962700687030 
 11.263909050666896   3.620461104958929   1.666552025277015 
 10.009675636220384   5.789181008123142   1.665329945337405 
  8.762086882286486   7.984506656265384   1.664974552500615 
  7.490808691885494  10.142958197292874   1.664002464883410 
  6.278447048815634  12.326745169426543   1.665482290951965 
  8.767853226568626  13.757069468890000   1.665299314329120 
 16.272720649202771   0.739320664354664   1.665203772374205 
 15.017691230571542   2.900668501385437   1.665626469895785 
 13.766263032152096   5.064799218126093   1.665182439509505 
 12.518573553522646   7.231147180053740   1.664682778283355 
 11.272007087923200   9.403343412243599   1.666056504858690 
 10.022123524966265  11.580721855918203   1.665739733290035 
 -6.260008013328142  13.736136221847589   1.664578078772400 
  1.246550499987454   0.722972808916901   1.664863716695760 
 -0.011952911721625   2.888151449977990   1.662333090233355 
 -1.262475999065804   5.059868891664398   1.661269663327605 
 -2.515640634431421   7.230564808938997   1.662166998146460 
 -3.758306669046601   9.399047427114203   1.665319823814135 
 -5.006960632411483  11.567455230014218   1.665100659681930 
 -3.756611903931840  13.728034881374198   1.665417613047885 
  3.751400816305522   0.709318409602797   1.665364057930215 
  2.488471982139477   2.867807370188957   1.661947695823140 
  1.228463167429541   5.037153597025172   1.664736466416135 
 -0.027517298872889   7.226138028260577   1.665284769753315 
 -1.258467778056603   9.399143094149004   1.661880902456760 
 -2.505671046702962  11.564814319854191   1.664999316727860 
 -1.252194133453735  13.729764957243228   1.665309724057170 
  6.260087581465572   0.707361058584546   1.666674519874155 
  5.001453289058776   2.859126760244208   1.663918576526505 
  3.732414595095418   5.006231878002588   1.661596954304040 
  2.423710688966819   7.187307183545332   1.691675104317300 
  1.244573672211610   9.402662361343431   1.665623221180050 
 -0.002996401601067  11.569030970099824   1.662301347635925 
  1.250199693166031  13.741416789065397   1.662965675193735 
  8.766684433946084   0.715190154607680   1.664835430644000 
  7.519222510343500   2.863132833335437   1.665970541937030 
  6.263837892810030   4.992965186184563   1.664197070076435 
  5.100159279918056   7.091717036413451   1.661429974759185 
  3.768519328416563   9.491102011164061   1.683386951746065 
  2.498367984223298  11.589808652830602   1.666802713886325 
  3.753689694789513  13.759537284798213   1.662398757690195 
 11.266760510853432   0.731296780027318   1.664582388527550 
 10.018271387369106   2.887320519720683   1.665583807104480 
  8.770763066699869   5.041263979953627   1.664453866960995 
  7.633526456622639   7.156737837685638   1.663738149871155 
  6.286508782648930   9.473580424735488   1.661403853011165 
  5.015905385703761  11.632127864500392   1.667233331188875 
  6.264045150502332  13.772709766627283   1.663924707173355 
 13.768905071484085   0.741565356728814   1.665056447001660 
 12.516890372516395   2.899540241384626   1.666949972914350 
 11.267843571445386   5.059868891664398   1.665657802458360 
 10.026952180245846   7.232492384429891   1.665189793559175 
  8.775546460456461   9.424528270621474   1.665144990127470 
  7.527684526021994  11.615440814795695   1.665551709755535 
