As B N                                  
   1.0000000000000000     
     8.7639499999999995  -15.1796066749929999    0.0000000000000000
     8.7639499999999995   15.1796066749929999    0.0000000000000000
     0.0000000000000000    0.0000000000000000   15.0000000000000000
   As   B    N 
     1    48    48
Selective dynamics
Direct
  0.4889846943252977  0.5110167075916950  0.1115823439250245   T   T   T
  0.9060118328732264  0.9529032029974631  0.1110053964911736   T   T   T
  0.9048782458451118  0.0951237753508781  0.1110190669891361   T   T   T
  0.9045966770142760  0.2378675286501111  0.1110083586942888   T   T   T
  0.9050461039142488  0.3808189914780049  0.1109662862225700   T   T   T
  0.9062617872831075  0.5239399116754451  0.1110377704829599   T   T   T
  0.9068574791793489  0.6671564881247490  0.1110991948890443   T   T   T
  0.9068431821052833  0.8102837472783118  0.1110423731356395   T   T   T
  0.0482407528652486  0.9517612683307596  0.1110169532711383   T   T   T
  0.0470988181985241  0.0939901883227612  0.1110053964911736   T   T   T
  0.0466793031236102  0.2371163917618797  0.1109792846674134   T   T   T
  0.0469748991170321  0.3804661133364413  0.1109939802511236   T   T   T
  0.0479747060113183  0.5236291114509110  0.1110004020051440   T   T   T
  0.0487536144107444  0.6665301623508643  0.1110767910526314   T   T   T
  0.0487942479504293  0.8092666607994267  0.1110788159158706   T   T   T
  0.1907353603965677  0.9512077732455932  0.1110788159158706   T   T   T
  0.1897182739176798  0.0931588390907177  0.1110423731356395   T   T   T
  0.1877786859947397  0.2348876308135259  0.1109934337179814   T   T   T
  0.1883183726364082  0.3794847560962394  0.1109916249643102   T   T   T
  0.1896691915004439  0.5233398234990516  0.1110372046363848   T   T   T
  0.1910202759600434  0.6662974972325241  0.1110416168815665   T   T   T
  0.1911251409034215  0.8088768802926087  0.1110220397268405   T   T   T
  0.3334718588461352  0.9512484067852642  0.1110767910526314   T   T   T
  0.3328455330722291  0.0931445420166558  0.1110991948890443   T   T   T
  0.3308753752426025  0.2338595414387628  0.1110346979828807   T   T   T
  0.3269011204012090  0.3755874669116941  0.1110392464861648   T   T   T
  0.3309479527111213  0.5230806965634530  0.1110036353171251   T   T   T
  0.3336315972844442  0.6663704239125610  0.1110924211076066   T   T   T
  0.3337045239644832  0.8089817452359745  0.1110416168815665   T   T   T
  0.4763729097460602  0.9520273151846576  0.1110004020051440   T   T   T
  0.4760621095215573  0.0937402339128937  0.1110377704829599   T   T   T
  0.4754657137629039  0.2346290726616009  0.1109699937988188   T   T   T
  0.4704411757109052  0.3683659515555380  0.1112410734781743   T   T   T
  0.4769213246335504  0.6690540684858648  0.1110036353171251   T   T   T
  0.4766621976979390  0.8103328296955775  0.1110372046363848   T   T   T
  0.6195359078595367  0.9530271220789492  0.1109939802511236   T   T   T
  0.6191830297179928  0.0949559172817469  0.1109662862225700   T   T   T
  0.6192887389918905  0.2371628159332606  0.1109504041425922   T   T   T
  0.6202157713242683  0.3797862498717620  0.1109561924420341   T   T   T
  0.6316360696404649  0.5295608454860725  0.1112410734781743   T   T   T
  0.6244145542843350  0.6731009007957726  0.1110392464861648   T   T   T
  0.6205172650997923  0.8116836485596084  0.1109916249643102   T   T   T
  0.7628856294341302  0.9533227180723937  0.1109792846674134   T   T   T
  0.7621344925458874  0.0954053441817134  0.1110083586942888   T   T   T
  0.7621180145412055  0.2378840066547725  0.1110079688192932   T   T   T
  0.7628392052627423  0.3807132822040752  0.1109504041425922   T   T   T
  0.7653729485344021  0.5245363074340879  0.1109699937988188   T   T   T
  0.7661424797572214  0.6691266459544039  0.1110346979828807   T   T   T
  0.7651143903824740  0.8122233352012569  0.1109934337179814   T   T   T
  0.9533400673112303  0.9048941879417117  0.1109941093152388   T   T   T
  0.9525426549745121  0.0474587469434950  0.1109979173241539   T   T   T
  0.9519872018156229  0.1901005794445546  0.1109887417264289   T   T   T
  0.9520839403236120  0.3330038719770959  0.1109630848630469   T   T   T
  0.9528582161415078  0.4759694309530202  0.1109724572646253   T   T   T
  0.9534300782559803  0.6189557589253479  0.1110892940882853   T   T   T
  0.9535833410200908  0.7619424334358461  0.1110761372049562   T   T   T
  0.0958121220862685  0.9041892798317304  0.1110296324192651   T   T   T
  0.0951072139762883  0.0466613346067832  0.1109941093152388   T   T   T
  0.0937878662874995  0.1887839569739366  0.1109638082212904   T   T   T
  0.0939904387865319  0.3323166224617486  0.1109758100122352   T   T   T
  0.0948979049482045  0.4756465036383569  0.1109867463542836   T   T   T
  0.0958754065935958  0.6186959463772644  0.1110114729180190   T   T   T
  0.0960365689394325  0.7614970383805677  0.1110397023622779   T   T   T
  0.2385043635374409  0.9039648329785723  0.1110397023622779   T   T   T
  0.2380589684821358  0.0464180608979244  0.1110761372049562   T   T   T
  0.2368140253718682  0.1883964072817661  0.1109965926232768   T   T   T
  0.2340545165264078  0.3295687883720769  0.1109728445013676   T   T   T
  0.2364432423196250  0.4749824992370226  0.1109947256512459   T   T   T
  0.2384900264037745  0.6185054592756630  0.1110477237682125   T   T   T
  0.2386637311908337  0.7613376707271775  0.1110070478936675   T   T   T
  0.3813054555407420  0.9041259953244021  0.1110114729180190   T   T   T
  0.3810456429926523  0.0465713236620484  0.1110892940882853   T   T   T
  0.3805952123203867  0.1888521929843290  0.1110151571091915   T   T   T
  0.3784251373369836  0.3305242258041689  0.1111023753009327   T   T   T
  0.3715828206103912  0.4691767843059467  0.1109513681371027   T   T   T
  0.3815940687981023  0.6184073331199008  0.1110411605239136   T   T   T
  0.3814959426423293  0.7615113755142339  0.1110477237682125   T   T   T
  0.5243548982786197  0.9051034969698086  0.1109867463542836   T   T   T
  0.5240319709639876  0.0471431857764849  0.1109724572646253   T   T   T
  0.5239574170493775  0.1892477476058771  0.1109636214079940   T   T   T
  0.5243134321255680  0.3314419924847380  0.1109538113042209   T   T   T
  0.5308246176110412  0.6284185813076213  0.1109513681371027   T   T   T
  0.5250189026799632  0.7635581595984026  0.1109947256512459   T   T   T
  0.6676847794552380  0.9060109631314532  0.1109758100122352   T   T   T
  0.6669975299398873  0.0479174615944078  0.1109630848630469   T   T   T
  0.6668301425508905  0.1902778639553276  0.1109611485613343   T   T   T
  0.6670554766776949  0.3329459252393085  0.1109229359087001   T   T   T
  0.6685594094322377  0.4756879697914534  0.1109538113042209   T   T   T
  0.6694771761128140  0.6215762645810308  0.1111023753009327   T   T   T
  0.6704326135449223  0.7659468853916066  0.1109728445013676   T   T   T
  0.8112174449440710  0.9062135356304623  0.1109638082212904   T   T   T
  0.8099008224734451  0.0480142001024065  0.1109887417264289   T   T   T
  0.8095349131948569  0.1904664887231419  0.1110155301523886   T   T   T
  0.8097235379626585  0.3331712593661120  0.1109611485613343   T   T   T
  0.8107536543121410  0.4760439848676241  0.1109636214079940   T   T   T
  0.8111492089336984  0.6194061895975825  0.1110151571091915   T   T   T
  0.8116049946362369  0.7631873765461776  0.1109965926232768   T   T   T

  0.00000000E+00  0.00000000E+00  0.00000000E+00
  0.00000000E+00  0.00000000E+00  0.00000000E+00
  0.00000000E+00  0.00000000E+00  0.00000000E+00
  0.00000000E+00  0.00000000E+00  0.00000000E+00
  0.00000000E+00  0.00000000E+00  0.00000000E+00
  0.00000000E+00  0.00000000E+00  0.00000000E+00
  0.00000000E+00  0.00000000E+00  0.00000000E+00
  0.00000000E+00  0.00000000E+00  0.00000000E+00
  0.00000000E+00  0.00000000E+00  0.00000000E+00
  0.00000000E+00  0.00000000E+00  0.00000000E+00
  0.00000000E+00  0.00000000E+00  0.00000000E+00
  0.00000000E+00  0.00000000E+00  0.00000000E+00
  0.00000000E+00  0.00000000E+00  0.00000000E+00
  0.00000000E+00  0.00000000E+00  0.00000000E+00
  0.00000000E+00  0.00000000E+00  0.00000000E+00
  0.00000000E+00  0.00000000E+00  0.00000000E+00
  0.00000000E+00  0.00000000E+00  0.00000000E+00
  0.00000000E+00  0.00000000E+00  0.00000000E+00
  0.00000000E+00  0.00000000E+00  0.00000000E+00
  0.00000000E+00  0.00000000E+00  0.00000000E+00
  0.00000000E+00  0.00000000E+00  0.00000000E+00
  0.00000000E+00  0.00000000E+00  0.00000000E+00
  0.00000000E+00  0.00000000E+00  0.00000000E+00
  0.00000000E+00  0.00000000E+00  0.00000000E+00
  0.00000000E+00  0.00000000E+00  0.00000000E+00
  0.00000000E+00  0.00000000E+00  0.00000000E+00
  0.00000000E+00  0.00000000E+00  0.00000000E+00
  0.00000000E+00  0.00000000E+00  0.00000000E+00
  0.00000000E+00  0.00000000E+00  0.00000000E+00
  0.00000000E+00  0.00000000E+00  0.00000000E+00
  0.00000000E+00  0.00000000E+00  0.00000000E+00
  0.00000000E+00  0.00000000E+00  0.00000000E+00
  0.00000000E+00  0.00000000E+00  0.00000000E+00
  0.00000000E+00  0.00000000E+00  0.00000000E+00
  0.00000000E+00  0.00000000E+00  0.00000000E+00
  0.00000000E+00  0.00000000E+00  0.00000000E+00
  0.00000000E+00  0.00000000E+00  0.00000000E+00
  0.00000000E+00  0.00000000E+00  0.00000000E+00
  0.00000000E+00  0.00000000E+00  0.00000000E+00
  0.00000000E+00  0.00000000E+00  0.00000000E+00
  0.00000000E+00  0.00000000E+00  0.00000000E+00
  0.00000000E+00  0.00000000E+00  0.00000000E+00
  0.00000000E+00  0.00000000E+00  0.00000000E+00
  0.00000000E+00  0.00000000E+00  0.00000000E+00
  0.00000000E+00  0.00000000E+00  0.00000000E+00
  0.00000000E+00  0.00000000E+00  0.00000000E+00
  0.00000000E+00  0.00000000E+00  0.00000000E+00
  0.00000000E+00  0.00000000E+00  0.00000000E+00
  0.00000000E+00  0.00000000E+00  0.00000000E+00
  0.00000000E+00  0.00000000E+00  0.00000000E+00
  0.00000000E+00  0.00000000E+00  0.00000000E+00
  0.00000000E+00  0.00000000E+00  0.00000000E+00
  0.00000000E+00  0.00000000E+00  0.00000000E+00
  0.00000000E+00  0.00000000E+00  0.00000000E+00
  0.00000000E+00  0.00000000E+00  0.00000000E+00
  0.00000000E+00  0.00000000E+00  0.00000000E+00
  0.00000000E+00  0.00000000E+00  0.00000000E+00
  0.00000000E+00  0.00000000E+00  0.00000000E+00
  0.00000000E+00  0.00000000E+00  0.00000000E+00
  0.00000000E+00  0.00000000E+00  0.00000000E+00
  0.00000000E+00  0.00000000E+00  0.00000000E+00
  0.00000000E+00  0.00000000E+00  0.00000000E+00
  0.00000000E+00  0.00000000E+00  0.00000000E+00
  0.00000000E+00  0.00000000E+00  0.00000000E+00
  0.00000000E+00  0.00000000E+00  0.00000000E+00
  0.00000000E+00  0.00000000E+00  0.00000000E+00
  0.00000000E+00  0.00000000E+00  0.00000000E+00
  0.00000000E+00  0.00000000E+00  0.00000000E+00
  0.00000000E+00  0.00000000E+00  0.00000000E+00
  0.00000000E+00  0.00000000E+00  0.00000000E+00
  0.00000000E+00  0.00000000E+00  0.00000000E+00
  0.00000000E+00  0.00000000E+00  0.00000000E+00
  0.00000000E+00  0.00000000E+00  0.00000000E+00
  0.00000000E+00  0.00000000E+00  0.00000000E+00
  0.00000000E+00  0.00000000E+00  0.00000000E+00
  0.00000000E+00  0.00000000E+00  0.00000000E+00
  0.00000000E+00  0.00000000E+00  0.00000000E+00
  0.00000000E+00  0.00000000E+00  0.00000000E+00
  0.00000000E+00  0.00000000E+00  0.00000000E+00
  0.00000000E+00  0.00000000E+00  0.00000000E+00
  0.00000000E+00  0.00000000E+00  0.00000000E+00
  0.00000000E+00  0.00000000E+00  0.00000000E+00
  0.00000000E+00  0.00000000E+00  0.00000000E+00
  0.00000000E+00  0.00000000E+00  0.00000000E+00
  0.00000000E+00  0.00000000E+00  0.00000000E+00
  0.00000000E+00  0.00000000E+00  0.00000000E+00
  0.00000000E+00  0.00000000E+00  0.00000000E+00
  0.00000000E+00  0.00000000E+00  0.00000000E+00
  0.00000000E+00  0.00000000E+00  0.00000000E+00
  0.00000000E+00  0.00000000E+00  0.00000000E+00
  0.00000000E+00  0.00000000E+00  0.00000000E+00
  0.00000000E+00  0.00000000E+00  0.00000000E+00
  0.00000000E+00  0.00000000E+00  0.00000000E+00
  0.00000000E+00  0.00000000E+00  0.00000000E+00
  0.00000000E+00  0.00000000E+00  0.00000000E+00
  0.00000000E+00  0.00000000E+00  0.00000000E+00
  0.00000000E+00  0.00000000E+00  0.00000000E+00
