 Ge N B 
 1.0
 17.527899999999772   0.000000000000000   0.000000000000000
 -8.763949999999658  15.179606674993195   0.000000000000000
  0.000000000000001   0.000000000000002  15.000000000000000
 Ge N B 
   1  49  48
Cartesian
  3.756250917703714   7.951082058550305   1.665225238853265 
  8.769936764352106  13.737462914194310   1.665126559323675 
 16.275156868314596   0.723288963030796   1.665346445692095 
 15.016104189742361   2.886639058323528   1.665405519238830 
 13.763789800464634   5.055413942090636   1.664879540738205 
 12.519910152854925   7.227414037432171   1.664386491202380 
 11.273993949254638   9.400260698245003   1.665486510574965 
 10.023333326869070  11.569668940961423   1.665516753522435 
 -6.257834813200754  13.732718131791257   1.664095804176855 
  1.251941344075126   0.715913281319773   1.665126656778630 
 -0.017837818725806   2.866952433678573   1.665013469620125 
 -1.277341370784504   5.045224669453855   1.664804616406140 
 -2.534137893203889   7.225016062258621   1.665088635361950 
 -3.762074054640934   9.400324299169446   1.665126149270820 
 -5.008004749021657  11.568047929914417   1.664519573402925 
 -3.758260736423350  13.732668013595582   1.664519586782955 
  3.756004256421221   0.714337765022448   1.665516642177480 
  2.499964390092415   2.874501981186600   1.665766761002880 
  1.201883013103344   4.999077003718663   1.664978921916615 
 -0.077641979189892   7.215077529449758   1.665615174480435 
 -1.268690428578408   9.401646374937028   1.666022316214380 
 -2.511330831831589  11.569671852735921   1.665505460852865 
 -1.257991631567939  13.737520906392492   1.665126211520865 
  6.260097336736236   0.715937741981071   1.665486626794950 
  5.012108845807231   2.874598188599098   1.665819819564735 
  3.755925570612793   5.043387186091898   1.665299061289560 
  2.286640944649223   7.102961643565253   1.664026954003350 
  1.237510212919431   9.405279123648572   1.665573851591805 
 -0.012444299332148  11.577527537978908   1.666022385529395 
  1.239849980028310  13.761750655376620   1.665088842031935 
  8.764795420136702   0.723364635669265   1.664386497877470 
  7.529965049428172   2.867144860775810   1.664873531306310 
  6.310003102593054   4.999223533109020   1.665400712923425 
  5.225500249641117   7.102809964974466   1.665649969393485 
  3.755939588455062   9.647862240019178   1.664026977673380 
  2.476703556324019  11.639336014975951   1.665615132240420 
  3.756002653962859  13.763230942623377   1.664804583211140 
 11.267742768857969   0.732133195245538   1.664879518718280 
 10.023861329508030   2.886683305084866   1.665121980668040 
  8.789185754451083   5.045317344319975   1.664763082000140 
  7.589511102140453   7.215397971991312   1.665400406938425 
  6.274225091887264   9.405211845599590   1.665299100814530 
  5.035577632934110  11.639233629082392   1.664978814951630 
  6.272192437966930  13.761604495860212   1.665013475260200 
 13.772114601059002   0.731985394696401   1.665405664543815 
 12.519951749582713   2.891357015515196   1.665748809668385 
 11.275955286586438   5.055372047165508   1.665121891568115 
 10.045930018027040   7.224919854052518   1.664873223641280 
  8.780544603670000   9.401719860455113   1.665820049859780 
  7.524554762416947  11.577348694639218   1.665766930442805 
  7.524593154780508  14.468473345113399   1.665459751503315 
 15.023699548310585   1.445818480952588   1.665812983127040 
 13.767107344558884   3.611424063500549   1.665703100811135 
 12.519834599628167   5.782370660502120   1.664857031444730 
 11.284351092144536   7.956136288810713   1.665290686226730 
 10.031421188317875  10.128751845860208   1.666203121983450 
  8.779658497038829  12.297151563286473   1.665859487521800 
 -7.506374647772821  14.453562646860645   1.664905207816740 
 -0.003803905243627   1.428907293342577   1.665459744408285 
 -1.266481118982799   3.598262067940665   1.665131536067025 
 -2.525189483441728   5.777990256875934   1.665009482815500 
 -3.772534077751902   7.956332597036675   1.664916439717530 
 -5.007936699442334  10.126324304103004   1.665310348782570 
 -6.254593919791615  12.291496734719351   1.664734394591700 
 -5.008080165911226  14.450522295587378   1.664734371701730 
  2.504148406027261   1.427649596596419   1.665859425661845 
  1.227566748496386   3.561435122363455   1.665544949980635 
 -0.043399975461049   5.757370160935260   1.665300766976085 
 -1.309785487267944   7.956034980471755   1.666057479920235 
 -2.519541358114185  10.128705831741849   1.665959345735370 
 -3.761375800725776  12.291386262711855   1.664834850939285 
 -2.509657128365412  14.453471092325472   1.665310384992525 
  5.007918980860927   1.427791578219648   1.666203056328450 
  3.756038241798791   3.581547372689588   1.665897992407695 
  2.439688733659556   5.672380123008254   1.664934366081570 
  1.124205075616084   7.950772597926584   1.665528895921710 
 -0.028550020762620  10.136238377127938   1.666180414400940 
 -1.267522532676021  12.297265306330836   1.665959398730415 
 -0.012687467147749  14.468574722346169   1.664916519382560 
  7.515923955092628   1.429031487072758   1.665290816621730 
  6.284474950189561   3.561690110489040   1.665432764419275 
  5.072111640087142   5.672416464746178   1.665931365652605 
  2.440496488018643  10.230658415173757   1.665528903631815 
  1.218944138695861  12.335922299268308   1.666057565975235 
  2.497484631386822  14.477515357372715   1.665009514420515 
 10.016201904158951   1.445952142561873   1.664857047734745 
  8.778724938037701   3.598424178748806   1.664981910071595 
  7.555255874602780   5.757726320070734   1.665310892430600 
  6.387561950193782   7.950846218959741   1.665931286782575 
  5.071382885304176  10.230610358144098   1.664934361776540 
  3.756236240883861  12.338533934640104   1.665300701756040 
  5.014538518150223  14.477306565218862   1.665131569456950 
 12.519933719518574   1.451255395354198   1.665703136856120 
 11.272808934723658   3.611395766317302   1.665798154971765 
 10.037002274685202   5.777822423194277   1.664981783966595 
  8.821689322932635   7.956272207786092   1.665432644959320 
  7.540272457852685  10.136033963676883   1.665898121827695 
  6.293454335988922  12.335811183330119   1.665544987090575 
