 N B C 
 1.0
 17.527899999999772   0.000000000000000   0.000000000000000
 -8.763949999999658  15.179606674993195   0.000000000000000
  0.000000000000001   0.000000000000002  15.000000000000000
 N B C 
  47  46   3
Cartesian
  8.748020671018104  13.738556462330772   1.663829760296295 
 16.280201199128829   0.749179131554704   1.663918474297935 
 15.040837598429555   2.925967498837803   1.665514258392720 
 13.791676248312804   5.087223294036744   1.665728014882095 
 12.525152580047408   7.241990559426352   1.664886265123305 
 11.231640319480242   9.394380803694387   1.664129509098105 
  9.977048493301211  11.552133180233243   1.664358946360650 
 -6.273602997485629  13.710635264002821   1.664262204418140 
  1.252132289620784   0.714044295488032   1.664127459207120 
  0.013924414408523   2.896088135650044   1.664432313761490 
 -1.216196420535845   5.082802180360763   1.664773136721750 
 -2.469836581465907   7.246333928368665   1.664602633842375 
 -3.742571784044085   9.398075331369226   1.664493340648395 
 -5.019793234824105  11.548723240239738   1.664017053310140 
 -3.757118348273669  13.707583909353771   1.664890899058605 
  3.752713767421241   0.688750498620842   1.666096732229265 
  2.517309399386491   2.871079185662847   1.665488567296065 
  1.287425256524792   5.039166725473859   1.664243398847940 
  0.063574372705805   7.247000439110057   1.663730565757380 
 -1.185713621183496   9.403442264488785   1.664705142124305 
 -2.489100028278437  11.552725900978277   1.664699399266230 
 -1.242979011732376  13.720059388512313   1.664446132306050 
  6.262554418279420   0.693235034734577   1.665290418642150 
  5.010721290550692   2.838764932463772   1.666932322780590 
  3.823095977323618   5.016819407027114   1.667949926399910 
  2.534915794235992   7.177080649434054   1.667332959752055 
  1.404803959261471   9.422663369336801   1.665321947795700 
  0.033095697668569  11.565171865741306   1.665225504504915 
  1.257013375390581  13.756941286545739   1.663648842597330 
  8.764178842438351   0.726539423716206   1.663565593126920 
  7.505567612052642   2.876093099682850   1.665440882671875 
  6.213259388285342   5.015524628207506   1.668017910800445 
  2.528568092924194  11.610007480691531   1.665283461431340 
  3.746307717148483  13.821919564393903   1.663394611774755 
 11.266179731926412   0.766243171056110   1.662857673770025 
 10.019407595041915   2.902053928361835   1.664313107209035 
  8.763185047158554   5.031898727958454   1.665833580100290 
  7.486004427253892   7.162725860191992   1.664229097421865 
  6.032843081650509   9.513218062384279   1.667326273116150 
  4.958165832198357  11.687814240196781   1.664933637086415 
  6.251369894982694  13.789510704327938   1.664137396226835 
 13.777704084942615   0.776759589511290   1.663702576416135 
 12.529023642049108   2.926882004375297   1.665107045824005 
 11.272407265644983   5.076668605128069   1.665510595499505 
  9.995644069344728   7.230529293298265   1.664676516696765 
  8.662028948546192   9.391363253037930   1.664914694046180 
  7.460225735014477  11.585400380722877   1.665764055026850 
  7.506286481077737  14.477539305255940   1.664067999383865 
 15.033625283007108   1.480542613795069   1.664815836877830 
 13.783158951143136   3.645829654270517   1.666057571479425 
 12.521740340208193   5.802454147968372   1.665662182616490 
 11.235999435411269   7.948192147387126   1.664744147713650 
  9.920945924472544  10.089725415332527   1.664576244331605 
  8.715453136950522  12.273903600489151   1.664971453895160 
 -7.526397827223579  14.438546758403829   1.664085231976800 
  0.005192225763055   1.447924800365459   1.664290538660880 
 -1.232033989771307   3.635432604483136   1.665341300955120 
 -2.479693191522815   5.803940308444121   1.665319971590520 
 -3.746566366420802   7.956338141536593   1.664966105476545 
 -5.033873748620342  10.100885005054119   1.664389423936500 
 -6.294104719047271  12.255451435143872   1.664275532246250 
 -5.018748162285936  14.418836030958383   1.665434396239080 
  2.505972345135878   1.418471086448336   1.665722113234755 
  1.266674381226023   3.596784222937198   1.664736347799135 
  0.043837960367532   5.796141633443798   1.664363735326935 
 -1.206694542820937   7.962454156703417   1.664436474883110 
 -2.472966912973336  10.108952223193759   1.664905895007720 
 -3.761068710363226  12.259619379139666   1.664670913974270 
 -2.501182013168666  14.427232130115872   1.665072967108260 
  5.008400775402937   1.395444457261400   1.666459282566960 
  3.779925126290859   3.560238515245263   1.666971507245145 
  2.544296212845421   5.731980759595545   1.666695648370365 
  1.320508360042878   7.984412557490498   1.665280798978890 
  0.099446604964704  10.119737783328796   1.665343495748430 
 -1.232893292521680  12.272828147052287   1.665067555399755 
  0.004480097185601  14.460920798318165   1.664039758418115 
  7.510741172095276   1.434764649065520   1.665062549712420 
  6.250481367026765   3.570609539796065   1.666966288186215 
  2.727215445816029  10.172310322670240   1.666561725498990 
  1.274799748946790  12.305644718942302   1.665052822774365 
  2.498245175790913  14.508181655121474   1.663374430564320 
 10.013628416736912   1.468604600475993   1.663603356756135 
  8.765824472260665   3.618759247047726   1.665377868632265 
  7.522928554606265   5.820897564275721   1.666213048621995 
  4.886133427976628  10.228663062760006   1.666672285398105 
  3.749960354537737  12.389939471729972   1.664745344408550 
  5.010840095444124  14.512957911838569   1.663740197959650 
 12.522900818544876   1.486914223496235   1.663992762898485 
 11.268439236106429   3.641271657120245   1.665388157903490 
  9.997052365519655   5.796164717233301   1.665513828622500 
  8.654466335208319   7.919992336248584   1.664789799015660 
  7.326376218276641  10.088138200514097   1.666437821541975 
  6.235345981080011  12.331132968543985   1.665324900677745 
  5.056803013022733   5.705906511944763   1.670996458777905 
  3.793555228169947   7.656647704629277   1.674006804496395 
  4.908891413811553   7.083837758129339   1.675962809177730 
