 N B O 
 1.0
 17.527899999999772   0.000000000000000   0.000000000000000
 -8.763949999999658  15.179606674993195   0.000000000000000
  0.000000000000001   0.000000000000002  15.000000000000000
 N B O 
  48  49   1
Cartesian
  8.761782270516877  13.734392862203007   1.664779130879220 
 16.274370687255253   0.723739673192763   1.665060505228380 
 15.022638327150514   2.890598419597836   1.665405513001890 
 13.770905315729738   5.059868891664398   1.665060505228380 
 12.519246759555127   7.226273459552703   1.664779130879220 
 11.266602872637751   9.395512491628207   1.665438620615175 
 10.014076435707514  11.564951918214669   1.665438620615175 
 -6.261340492577759  13.734738589249154   1.664795006825655 
  1.250520297374058   0.724505495759996   1.664779130879220 
 -0.002627578590498   2.891217920690819   1.664588323831545 
 -1.254698800460394   5.059868891664398   1.664588323831545 
 -2.503277186730016   7.226273459552703   1.664779130879220 
 -3.755980213587302   9.395327294772594   1.664795006825655 
 -5.008505984364259  11.565122066832004   1.664697946774185 
 -3.755980213587176  13.734560339607032   1.664697946774185 
  3.755458349473476   0.724707407688011   1.665438620615175 
  2.503154622105841   2.894740563988017   1.664929588642920 
  1.248239557026427   5.059868891664398   1.663921830769365 
  0.002518676905226   7.225969072308657   1.664929588642920 
 -1.250633299829998   9.395512491628207   1.665438620615175 
 -2.503454442810281  11.565122066832004   1.664697946774185 
 -1.250619934596698  13.734738589249154   1.664795006825655 
  6.260511223333896   0.724707407688011   1.665438620615175 
  5.007984786403719   2.895029915259258   1.666101207460245 
  3.756251210970011   5.069023046990440   1.666082553718005 
  2.512050836620882   7.224041310159422   1.666082553718005 
  1.255184344596937   9.395070951135759   1.666101207460245 
  0.001893137100183  11.564951918214669   1.665438620615175 
  1.254187302290866  13.734392862203007   1.664779130879220 
  8.765449275433191   0.724505495759996   1.664779130879220 
  7.512814950701594   2.894740563988017   1.664929588642920 
  6.259718361837491   5.069023046990440   1.666082553718005 
  3.763784412045882   9.392107460365724   1.666082553718005 
  2.507348841194323  11.564462181219032   1.664929588642920 
  3.754613313430675  13.736294545021435   1.664588323831545 
 11.267415371525475   0.723739673192763   1.665060505228380 
 10.016021221869858   2.891217920690819   1.664588323831545 
  8.763949999999962   5.059868891664398   1.663921830769365 
  7.503918736186684   7.224041310159422   1.666082553718005 
  6.252185160744204   9.392107460365724   1.666082553718005 
  5.006082492173983  11.568686343331455   1.663921830769365 
  6.258780329849009  13.736294545021435   1.664588323831545 
 13.771949786403447   0.724342322580017   1.665405513001890 
 12.521261245656584   2.890598419597836   1.665405513001890 
 11.268117016418296   5.059868891664398   1.664588323831545 
 10.013450895919902   7.225969072308657   1.664929588642920 
  8.760785228210697   9.395070951135759   1.666101207460245 
  7.508620731613249  11.564462181219032   1.664929588642920 
  7.513743830592992  14.453359298034599   1.664965598042055 
 15.025212768046760   1.444947601039025   1.665827828123805 
 13.771940213584786   3.615679341098871   1.665827828123805 
 12.517855737351436   5.785983228768299   1.664965598042055 
 11.264449617042253   7.952681450593858   1.665310753518645 
 10.013522522964475  10.119737783328796   1.666056131042040 
  8.763456472865050  12.284528645690360   1.665310753518645 
 -7.510047645113944  14.455686266835979   1.664967380024475 
  0.003863306835182   1.445864672114145   1.664965598042055 
 -1.249379427510510   3.615717013182533   1.664738451266475 
 -2.501905310163898   5.785983228768299   1.664965598042055 
 -3.755989786406028   7.953467321000418   1.664967380024475 
 -5.008498150882121  10.119737783328796   1.665205485569760 
 -6.259899251247749  12.287228069809737   1.665205485569760 
 -5.007033562511539  14.457255097760623   1.665205485569760 
  2.506982069407706   1.447997102648034   1.665310753518645 
  1.252341334195991   3.615332758308242   1.664839855542270 
  0.001148178860119   5.782462873432467   1.664839855542270 
 -1.248499189872232   7.952681450593858   1.665310753518645 
 -2.502766773409746  10.119737783328796   1.665205485569760 
 -3.755989786406033  12.288279951557490   1.664658406390680 
 -2.504266789101640  14.457255097760623   1.665205485569760 
  5.006743547821542   1.447803578034192   1.666056131042040 
  3.755153372622590   3.615621351732884   1.665873621787860 
  2.495868132789337   5.778036700293288   1.664206837910475 
  1.252221716870181   7.950826147368702   1.665873621787860 
  0.000000000000152  10.119737783328796   1.666056131042040 
 -1.251401100365475  12.287228069809737   1.665205485569760 
 -0.001931927680495  14.455686266835979   1.664967380024475 
  7.508968357779685   1.447997102648034   1.665310753518645 
  6.259632233701575   3.615621351732884   1.665873621787860 
  5.007975213602481   5.743921159647045   1.669339005625845 
  3.722376748323665   7.970643019642604   1.669339005625845 
  2.504478861079137  10.119737783328796   1.665873621787860 
  1.252493954322544  12.284528645690360   1.665310753518645 
  2.502206596594824  14.453359298034599   1.664965598042055 
 10.012087120352348   1.445864672114145   1.664965598042055 
  8.763609092991466   3.615332758308242   1.664839855542270 
  7.520082294415765   5.778036700293288   1.664206837910475 
  6.293573678863940   7.970643019642604   1.669339005625845 
  5.007975213593888  10.129133798330466   1.664206837910475 
  3.756782058257937  12.287411567176440   1.664839855542270 
  5.007975213593891  14.453773172552083   1.664738451266475 
 12.518667659122869   1.444947601039025   1.665827828123805 
 11.265329854697965   3.615717013182533   1.664738451266475 
 10.014802248327438   5.782462873432467   1.664839855542270 
  8.762563889436674   7.950826147368702   1.665873621787860 
  7.510342172566646  10.119737783328796   1.665873621787860 
  6.259168368929780  12.287411567176440   1.664839855542270 
  5.007984786403784   7.228390605833453   1.667307468565920 
