 N Ge B 
 1.0
 17.527899999999772   0.000000000000000   0.000000000000000
 -8.763949999999658  15.179606674993195   0.000000000000000
  0.000000000000001   0.000000000000002  15.000000000000000
 N Ge B 
  47   1  49
Cartesian
  8.760694087074345  13.717059526955257   1.560001082794110 
 16.284795636125029   0.700399795502962   1.599043069440825 
 15.042884450431847   2.867878794470361   1.602543438700440 
 13.790038350733063   5.035689711606673   1.591308741695940 
 12.530864548233428   7.206743314116483   1.588640247412065 
 11.270519257055604   9.381861079844247   1.582558721832510 
 10.010745230651128  11.553017475638507   1.543268357951175 
 -6.266844431370685  13.740180781525853   1.577644566867525 
  1.260172846642191   0.736181618325860   1.588266424537650 
  0.030719918195595   2.915683046417112   1.599691840672215 
 -1.230981774836491   5.059868891664398   1.571264122254765 
 -2.508804471117213   7.218180561275853   1.555545439380630 
 -3.776591549716904   9.390079924095604   1.559155095769575 
 -5.022361462213146  11.566503694520101   1.581894100818180 
 -3.769549392191787  13.746398780646798   1.603101049541775 
  3.755420389278835   0.745591207391861   1.626838514982090 
  2.526936711341721   2.938411952321863   1.639514430576810 
  1.310832345829338   5.146711173942531   1.620595402942800 
 -0.014155734033952   7.241528264143775   1.551665321635335 
 -1.303498696880210   9.400877888753648   1.551134524500990 
 -2.531788137467087  11.572557579427491   1.595367307459950 
 -1.267836295343068  13.739018239872456   1.641803026105365 
  6.256649072245317   0.733720687660996   1.665225931893525 
  5.016628471102258   2.919693664227674   1.757240362226145 
  3.796608882342956   5.143426018684077   1.807813287690615 
  2.552533619689886   7.430101923486318   1.670236262373735 
  1.146836000391848   9.419890990843827   1.618893409400745 
 -0.040646916309042  11.572580378405524   1.671427993163835 
  1.247152061599887  13.699228683947389   1.704935861866905 
  8.770790632561543   0.702635360560772   1.667156461948695 
  7.529138498655858   2.879583169356781   1.744248182610585 
  6.299172690073888   5.054984023320780   1.972516838159280 
  2.473496815085496  11.493426189938587   1.815039075431670 
  3.755488197984362  13.653094815526197   1.698592553243895 
 11.281486156599044   0.674706356568555   1.668575304365700 
 10.036221269288035   2.856230412247235   1.678264013163720 
  8.798960921529122   5.027168750303406   1.742909821607025 
  7.572544054617291   7.186964070351117   1.758367536052215 
  6.298051715706055   9.323739338922271   1.564059169631340 
  4.969841900698113  11.410824328368255   1.663735665277065 
  6.248159367140421  13.661061894103224   1.615327971507345 
 13.781557342974958   0.671457021606100   1.634904651030990 
 12.540045248812209   2.852839917626838   1.640335423785585 
 11.293152558322435   5.027368861143295   1.640711445930735 
 10.047161491899349   7.198449381493103   1.614794369759490 
  8.785019817935352   9.365763894788749   1.537943991590355 
  7.505583756385435  11.521810004616011   1.517542912577460 
  4.795433913517718   7.602986917105688   3.304971295680270 
  7.501296644473591  14.420798547138544   1.589259687514905 
 15.031568536015623   1.415336812836154   1.612756162836990 
 13.790184658420980   3.586410093159213   1.611072829129695 
 12.540389897513553   5.758058026135854   1.604696005442355 
 11.287256895502008   7.932980697422868   1.590562790443710 
 10.025351174452808  10.105117455694717   1.550519857132680 
  8.755943572243783  12.268965117064370   1.536027018444915 
 -7.516818087817286  14.461958322751119   1.574314900219740 
  0.009725253695672   1.455928506640596   1.594898561926245 
 -1.233886035409116   3.612429685150608   1.590549420290085 
 -2.489752289991393   5.771200981734311   1.569971968622355 
 -3.756825003732605   7.941191983674985   1.565596201663125 
 -5.019399043057779  10.119737783328796   1.574927307083835 
 -6.269736430808117  12.290143588283822   1.567866160418385 
 -5.016851471244486  14.473274638120099   1.600936344758025 
  2.509942341511420   1.478897385233373   1.616884990347810 
  1.285202249425391   3.679337366408157   1.619559766018530 
  0.019759245163196   5.804676437986723   1.576036309411785 
 -1.269539928719617   7.955411335878106   1.545978831701055 
 -2.539697788276048  10.124732225410201   1.566698670409080 
 -3.775558290187358  12.298060016545806   1.592106870748500 
 -2.515455533460924  14.466906086905846   1.633011858843045 
  5.008247803546871   1.467633745856446   1.680547283001345 
  3.774387568001832   3.672384680569579   1.724607967926765 
  2.569098820668023   5.947746012134527   1.701261027567855 
  1.216832466759790   7.989133993084498   1.599599254490835 
 -0.074219870700001  10.138239238357126   1.601880321750600 
 -1.281652291454875  12.297172152003361   1.634977852549005 
 -0.001322216990374  14.436131647484601   1.669195847647845 
  7.521064151225771   1.434325094332349   1.688877466946865 
  6.282358848151790   3.610074074162818   1.823134326263805 
  5.059221541034736   5.770479397216278   2.105947402891890 
  3.519277092536739   8.710867541141683   1.973621878710285 
  2.409596876823660  10.040813255460908   1.845324531251115 
  1.232707123776795  12.250871400297294   1.732205826643245 
  2.509509049421879  14.401698288184427   1.695937142835000 
 10.032683772339892   1.408301350890892   1.672060868534835 
  8.791850173569749   3.582073290483707   1.727685047073780 
  7.562404005223634   5.747993220266356   1.846816490010645 
  6.374172677765164   7.930013700180172   1.894372609030020 
  4.990792229806962   9.929066188485766   1.633990441499970 
  3.735728152527920  12.190424258499101   1.736900604293940 
  5.003368854992045  14.394101210903900   1.650481997523480 
 12.533767373439204   1.401447688240424   1.649729858848725 
 11.291656055971465   3.578830866403854   1.654698026383695 
 10.048168917359165   5.752043179742978   1.664438680326540 
  8.808156139397553   7.922623492969274   1.618978912700970 
  7.535785117511688  10.082271206977355   1.518040095934125 
  6.227985873700993  12.195876094416596   1.598003409283275 
