 Se N B 
 1.0
 14.936314146199660   0.000000000000000   0.000000000000000
 -7.468157073099825  12.935227489513863   0.000000000000000
  0.000000000000001   0.000000000000001  13.341276283792837
 Se N B 
   1 143 143
Cartesian
  4.647927607821094   5.557977253219129   5.002978606422314 
  1.242784195376930   0.717592140600133   1.669084005061817 
  4.976973466242687   7.186321380415230   1.665362188639623 
  6.222912349585221   0.718036251858217   1.667627315574839 
  9.956098226740210   7.185278482032137   1.665983709605589 
 11.201060129426319   0.717945085594029   1.664374569911474 
 -3.735257874087205   9.341427851582061   8.339835574787472 
  1.243908118706730   9.341924550840226   8.338329897269801 
  2.486716731433217   2.872890225986415   8.331057308578259 
  6.221785901070034   9.341613283291110   8.341267686638052 
  7.467630545278209   2.873255244665834   8.341597506276718 
 12.445219140419576   2.873393953397003   8.340425853004479 
 -1.245500599736194   9.341589323678360   1.666931095792973 
 -0.002398153869306   2.873110422887716   1.669951841513998 
  4.978005683474262   2.873597794581497   1.671753868644239 
  3.732741615043362   9.342272632459203   1.664359706567922 
  8.711297121042328   9.341337242418797   1.665983709605589 
  9.956567609031440   2.873407954136098   1.664065621583568 
 -4.980110357531318  11.497367533437931   8.339060947104292 
 -0.000642256074756  11.497609183961325   8.339911190341246 
  1.241968592671617   5.028857244948317   8.331057308578259 
  6.222637917286915   5.028767262024222   8.340595024205005 
  4.977342397200619  11.497679003355046   8.341891591261099 
 11.200791332013170   5.029298486330886   8.340437446841397 
 -1.246540570029004   5.029229110822716   1.669084005061817 
 -2.490239397974192  11.497540164378812   1.666931095792973 
  2.488428268097391  11.497833946472230   1.664764516374592 
  3.730144682068899   5.028095033978435   1.658761800413621 
  7.466510227350494  11.497263089351113   1.665519766003178 
  8.711581675161959   5.029160502093581   1.664689526206603 
 -0.001070021694931   7.185563157873344   8.334665582945505 
  1.242784195376930   0.717592140600134   8.336873207782798 
  4.976973466242688   7.186321380415231   8.340595024205005 
  6.222912349585222   0.718036251858218   8.338329897269801 
  9.956098226740210   7.185278482032138   8.339973503239014 
 -2.490585582295077   7.185384136027242   1.666896265740283 
 11.201060129426319   0.717945085594030   8.341582642933194 
  3.732959533335062   0.718034251597544   1.671291629899070 
  2.488225841070356   7.186022981285923   1.671753868644239 
  7.466501965250716   7.185281917212277   1.667534793858725 
  8.712244729155419   0.717867618936128   1.664764516374592 
  2.488225841070357   7.186022981285924   8.334203344200429 
 13.689813110998694   0.717693961560071   1.665531359840175 
 -1.245500599736193   9.341589323678360   8.339026117051707 
 -0.002398153869306   2.873110422887716   8.336005371330669 
  4.978005683474263   2.873597794581498   8.334203344200429 
  3.732741615043362   9.342272632459203   8.341597506276718 
  8.711297121042328   9.341337242418797   8.339973503239014 
  9.956567609031440   2.873407954136098   8.341891591261099 
 -3.735257874087205   9.341427851582061   1.666121638057250 
  1.243908118706729   9.341924550840226   1.667627315574839 
  2.486716731433217   2.872890225986414   1.674899904266328 
  6.221785901070033   9.341613283291110   1.664689526206603 
  7.467630545278208   2.873255244665833   1.664359706567922 
 12.445219140419576   2.873393953397002   1.665531359840175 
 -1.246540570029003   5.029229110822717   8.336873207782798 
 -2.490239397974192  11.497540164378812   8.339026117051707 
  2.488428268097392  11.497833946472230   8.341192696470063 
  3.730144682068899   5.028095033978436   8.347195412430953 
  7.466510227350495  11.497263089351113   8.340437446841397 
 -4.980110357531319  11.497367533437931   1.666896265740283 
  8.711581675161959   5.029160502093582   8.341267686638052 
 -0.000642256074756  11.497609183961325   1.666046022503394 
  1.241968592671616   5.028857244948316   1.674899904266328 
 -0.001070021694931   7.185563157873343   1.671291629899070 
  6.222637917286914   5.028767262024221   1.665362188639623 
  4.977342397200618  11.497679003355046   1.664065621583568 
 11.200791332013170   5.029298486330885   1.665519766003178 
 -2.490585582295077   7.185384136027243   8.339060947104292 
  3.732959533335062   0.718034251597545   8.334665582945505 
  7.466501965250717   7.185281917212278   8.338422418985916 
  8.712244729155419   0.717867618936129   8.341192696470063 
 13.689813110998694   0.717693961560072   8.340425853004479 
  0.013015891757928   1.443043129579957   5.002978606422314 
  3.692933965533832   8.019926370924665   5.002978606422314 
  5.015872832386326   1.350144373660917   5.002978606422314 
  8.715441759825065   7.906357643811350   5.002978606422314 
  9.982862379888154   1.436798497330436   5.002978606422314 
 -4.978744662445460  10.060691806938529  11.673616748318732 
 -0.000129655806434  10.060701129289239  11.673616748318732 
  1.244720646633994   3.593134798069736  11.673616748318732 
  4.978834073480909  10.060622309717502  11.673616748318732 
  6.223365123590772   3.593137567404177  11.673616748318732 
 11.202236703905413   3.593254345966200  11.673616748318732 
 -2.500199159222731  10.054489333074082   5.002978606422314 
 -1.233165736181504   3.601493024629965   5.002978606422314 
  3.769066024367013   3.406104198328781   5.002978606422314 
  2.469778759154411  10.114549114632046   5.002978606422314 
  7.483794190242378  10.085508687375496   5.002978606422314 
  8.756036394333462   3.577345269639704   5.002978606422314 
 -6.223411147567624  12.216493090691657  11.673616748318732 
 -1.244784834189110  12.216507136151753  11.673616748318732 
 -0.000103246336512   5.749072627028566  11.673616748318732 
  4.978785370724998   5.748998071695176  11.673616748318732 
  3.734070374423187  12.216541828900107  11.673616748318732 
  9.957563228354623   5.749132756246843  11.673616748318732 
 -2.496697966270768   5.758161441981391   5.002978606422314 
 -3.733289656779465  12.186786088807070   5.002978606422314 
  1.252012996219059  12.220830031074895   5.002978606422314 
  2.344920084839740   5.872797322982949   5.002978606422314 
  6.237737651881730  12.236438956795492   5.002978606422314 
  7.542634291643161   5.740484220996040   5.002978606422314 
 -1.244858702659119   7.904901683320250  11.673616748318732 
  0.000091109236242   1.437214294893327  11.673616748318732 
  3.734045283426324   7.904766006858266  11.673616748318732 
  4.978687878271974   1.437113903377413  11.673616748318732 
  8.712981493864991   7.904937208597103  11.673616748318732 
 -3.742124876339851   7.906981754802138   5.002978606422314 
  9.957485066400928   1.437271385823969  11.673616748318732 
  2.483325439608504   1.383667135381524   5.002978606422314 
  1.187810051526802   7.980543604673065   5.002978606422314 
  6.253336620194571   7.973613294025260   5.002978606422314 
  7.504960169640593   1.393359086343597   5.002978606422314 
  1.244535396559265   7.904855724913282  11.673616748318732 
 12.465844607169469   1.448168744285954   5.002978606422314 
 -2.489480641501822  10.060677672165461  11.673616748318732 
 -1.244676046355414   3.593214251971085  11.673616748318732 
  3.734073356090577   3.593001642734490  11.673616748318732 
  2.489295197982305  10.060635611718217  11.673616748318732 
  7.468290939782981  10.060678833926218  11.673616748318732 
  8.712785843802969   3.593228130507891  11.673616748318732 
 -4.980958135384353  10.052703901573363   5.002978606422314 
 -0.021279101661377  10.081832196547412   5.002978606422314 
  1.257492541735130   3.600508655144456   5.002978606422314 
  4.986704387749509  10.106019815638701   5.002978606422314 
  6.302541265435107   3.499953939692994   5.002978606422314 
 11.226550123349938   3.595562286779236   5.002978606422314 
 -2.489454976220899   5.749091288683723  11.673616748318732 
 -3.734126443288965  12.216439883733361  11.673616748318732 
  1.244572291331780  12.216534138105317  11.673616748318732 
  2.489281685459277   5.749044061106461  11.673616748318732 
  6.223582206784902  12.216536888310264  11.673616748318732 
 -6.219177659420582  12.205685400660315   5.002978606422314 
  7.468187255429806   5.749116526483387  11.673616748318732 
 -1.237059516061925  12.187625645136320   5.002978606422314 
 -0.049432081607008   5.770531845379031   5.002978606422314 
 -1.270121249129164   7.920453259158193   5.002978606422314 
  3.746349497718206  12.238755671306675   5.002978606422314 
  9.986818137443674   5.750144038261223   5.002978606422314 
 -3.734100410901192   7.904904725915303  11.673616748318732 
  2.489405629006893   1.437116769040105  11.673616748318732 
  6.223588897933126   7.904824116684424  11.673616748318732 
  7.468027925924171   1.437217569616846  11.673616748318732 
 12.446991384740429   1.437283831241413  11.673616748318732 
  1.252472939578105   0.707237610661465   5.002978606422314 
  4.962100550720121   7.361219388237248   5.002978606422314 
  6.247542147724014   0.678691327012322   5.002978606422314 
  9.958042304657376   7.185754092785067   5.002978606422314 
 11.225520353262217   0.732067202410124   5.002978606422314 
 -3.734025792538828   9.342139194195571  11.673616748318732 
  1.244868061612199   9.340945226878647  11.673616748318732 
  2.490175522559371   2.875575668038670  11.673616748318732 
  6.223192341238464   9.341044140594635  11.673616748318732 
  7.466700132270245   2.875222171613555  11.673616748318732 
 12.447624857861335   2.874995408558774  11.673616748318732 
 -1.255914068527973   9.348021829580969   5.002978606422314 
  0.037290074548823   2.896024432248574   5.002978606422314 
  4.979232427948531   2.797295332003884   5.002978606422314 
  3.714097749282908   9.411766237133801   5.002978606422314 
  8.712681050995208   9.342783057905626   5.002978606422314 
  9.989899059164527   2.871459634551654   5.002978606422314 
 -4.978631673773391  11.498413479032402  11.673616748318732 
 -0.000329699671619  11.497789638484832  11.673616748318732 
  1.246023649272330   5.030509924903835  11.673616748318732 
  6.221833850984810   5.030561683191832  11.673616748318732 
  4.978919545973483  11.497327603699317  11.673616748318732 
 11.202345581730368   5.030664711755776  11.673616748318732 
 -1.250663483899543   5.042797074401025   5.002978606422314 
 -2.489875418848511  11.485305582912453   5.002978606422314 
  2.494466445599844  11.526183807270220   5.002978606422314 
  7.477963386830531  11.512229883766649   5.002978606422314 
  8.762415532696034   5.018866827976209   5.002978606422314 
  0.000832935965357   7.185644328632022  11.673616748318732 
  1.245494142320960   0.719479275566782  11.673616748318732 
  4.978125447407836   7.184727827987543  11.673616748318732 
  6.222544201608662   0.719357248781380  11.673616748318732 
  9.957287701479622   7.186209903325771  11.673616748318732 
 -2.497750501085919   7.191760733779998   5.002978606422314 
 11.202297596651201   0.718659537629403  11.673616748318732 
  3.740564530170098   0.692875240209635   5.002978606422314 
  2.422759342343938   7.225236604453452   5.002978606422314 
  7.466695083409440   7.185393414033031   5.002978606422314 
  8.739815517551486   0.708921903646764   5.002978606422314 
  2.489753053606439   7.184812961830199  11.673616748318732 
 13.714316225550196   0.737577177757204   5.002978606422314 
 -1.244483951492396   9.341758581757638  11.673616748318732 
  0.001406484437316   2.875307031838197  11.673616748318732 
  4.977721382154535   2.875525409162649  11.673616748318732 
  3.733979817243457   9.340483407684502  11.673616748318732 
  8.712698492913933   9.341901647113501  11.673616748318732 
  9.957051862389106   2.874949504866849  11.673616748318732 
 -3.739772823890930   9.338821144097478   5.002978606422314 
  1.222149313349546   9.382927044141528   5.002978606422314 
  2.533127936682507   2.852609792926712   5.002978606422314 
  6.238288246553148   9.390783532346664   5.002978606422314 
  7.518491839446705   2.822362380955286   5.002978606422314 
 12.474690068030990   2.884672664971863   5.002978606422314 
 -1.243551289735509   5.030632426235844  11.673616748318732 
 -2.489584492055856  11.498335978545041  11.673616748318732 
  2.489216875913138  11.497241483974006  11.673616748318732 
  3.733972477012674   5.030305012419634  11.673616748318732 
  7.468470538134398  11.497925996377498  11.673616748318732 
 -4.978170521283155  11.487974232872659   5.002978606422314 
  8.711792003212691   5.030663086356507  11.673616748318732 
  0.003517434917386  11.500010782675401   5.002978606422314 
  1.247610825066825   5.079190744244280   5.002978606422314 
 -0.019055866273483   7.204728784022206   5.002978606422314 
  6.366667577370739   4.928437935442409   5.002978606422314 
  4.992320828012335  11.527519045707509   5.002978606422314 
 11.219479535930290   5.031733816186372   5.002978606422314 
 -2.488940424960326   7.186141740928536  11.673616748318732 
  3.733981308104250   0.719641675894369  11.673616748318732 
  7.467285584819977   7.185734340181360  11.673616748318732 
  8.712125945489078   0.718846804587234  11.673616748318732 
 13.692402870572710   0.718976646398039  11.673616748318732 
 -0.000287356852304   1.438299856770563   1.675541346973593 
  3.732120969214166   7.900451940557925   1.679846262705740 
  4.976752446116384   1.441253308019661   1.682042551398751 
  8.708945138347929   7.902606817652729   1.670957371198573 
  9.956091066071979   1.436612308439388   1.669142289731763 
 -4.980525525489613  10.060751982370595   8.335506257278666 
  0.000799657443115  10.059360256183254   8.333529748388026 
  1.245941987396620   3.593839939487853   8.316214856050959 
  4.976101768327847  10.058567172205564   8.335923862083039 
  6.218666875474966   3.593628095561794   8.326110950138915 
 11.201185276918924   3.591817310107932   8.336042380688820 
 -2.489469388617021  10.060684169021664   1.671004278465140 
 -1.243925155236606   3.592343709785288   1.675541346973593 
  3.731350045554302   3.596018946734677   1.700626484710056 
  2.488921801708667  10.058502483416493   1.672181411762203 
  7.465046460859202  10.059501305987606   1.669854263136450 
  8.709639889932788   3.591889453590491   1.670033350761550 
 -6.224875576340530  12.218048845392913   8.333282911071903 
 -1.245481407737413  12.217982381587003   8.333529748388026 
  0.002915985361764   5.746379524846017   8.321875832034666 
  4.971485256803933   5.744783348957734   8.301259324559819 
  3.732802596500584  12.215664127894680   8.336814923112852 
  9.954921219784262   5.746911719046063   8.336102949708218 
 -2.488839867514043   5.747045178813788   1.672674301772779 
 -3.735088976792913  12.219283085070446   1.674282153929029 
  1.243935434703088  12.216166448759287   1.670263558594594 
  2.490533092106213   5.745176952999611   1.700626484710056 
  6.221811983732300  12.216344843758781   1.669914832155835 
  7.461850319585162   5.745868852975710   1.674059747419139 
 -1.242877684825168   7.902646504185411   8.331675058915639 
 -0.000287356852304   1.438299856770564   8.330415865871036 
  3.732120969214166   7.900451940557926   8.326110950138915 
  4.976752446116385   1.441253308019661   8.323914661445876 
  8.708945138347929   7.902606817652730   8.334999841646068 
 -3.734938728970399   7.903332365562345   1.670450955566027 
  9.956091066071979   1.436612308439389   8.336814923112852 
  2.488582949950940   1.441078051482022   1.684081380809963 
  1.247152510058246   7.901109889178037   1.682042551398751 
  6.217607862249982   7.900960006014610   1.674059747419139 
  7.465993884488514   1.437960763109086   1.672181411762203 
  1.247152510058247   7.901109889178038   8.323914661445876 
 12.446182536571206   1.436816842533246   1.670175063069500 
 -2.489469388617021  10.060684169021664   8.334952934379528 
 -1.243925155236605   3.592343709785289   8.330415865871036 
  3.731350045554303   3.596018946734678   8.305330728134544 
  2.488921801708667  10.058502483416493   8.333775801082465 
  7.465046460859203  10.059501305987606   8.336102949708218 
  8.709639889932788   3.591889453590492   8.335923862083039 
 -4.980525525489614  10.060751982370595   1.670450955566027 
  0.000799657443115  10.059360256183254   1.672427464456562 
  1.245941987396619   3.593839939487852   1.689742356793695 
  4.976101768327846  10.058567172205564   1.670033350761550 
  6.218666875474965   3.593628095561793   1.679846262705740 
 11.201185276918924   3.591817310107931   1.669914832155835 
 -2.488839867514042   5.747045178813789   8.333282911071903 
 -3.735088976792913  12.219283085070446   8.331675058915639 
  1.243935434703089  12.216166448759287   8.335693654250008 
  2.490533092106213   5.745176952999612   8.305330728134544 
  6.221811983732301  12.216344843758781   8.336042380688820 
 -6.224875576340531  12.218048845392913   1.672674301772779 
  7.461850319585163   5.745868852975711   8.331897465425541 
 -1.245481407737413  12.217982381587003   1.672427464456562 
  0.002915985361763   5.746379524846016   1.684081380809963 
 -1.242877684825169   7.902646504185410   1.674282153929029 
  4.971485256803932   5.744783348957733   1.704697888284821 
  3.732802596500584  12.215664127894680   1.669142289731763 
  9.954921219784262   5.746911719046062   1.669854263136450 
 -3.734938728970399   7.903332365562346   8.335506257278666 
  2.488582949950940   1.441078051482023   8.321875832034666 
  6.217607862249983   7.900960006014611   8.331897465425541 
  7.465993884488515   1.437960763109087   8.333775801082465 
 12.446182536571206   1.436816842533247   8.335782149775156 
Generated by cif2cell 2.0.0.  :  Failed to get author information, No journal information. Species order: Se N B 
 1.0
 14.936314146199660   0.000000000000000   0.000000000000000
 -7.468157073099825  12.935227489513863   0.000000000000000
  0.000000000000001   0.000000000000001  13.341276283792837
 Se N B 
   1 143 143
Cartesian
  4.647927607821094   5.557977253219129   5.002978606422314 
  1.242784195376930   0.717592140600133   1.669084005061817 
  4.976973466242687   7.186321380415230   1.665362188639623 
  6.222912349585221   0.718036251858217   1.667627315574839 
  9.956098226740210   7.185278482032137   1.665983709605589 
 11.201060129426319   0.717945085594029   1.664374569911474 
 -3.735257874087205   9.341427851582061   8.339835574787472 
  1.243908118706730   9.341924550840226   8.338329897269801 
  2.486716731433217   2.872890225986415   8.331057308578259 
  6.221785901070034   9.341613283291110   8.341267686638052 
  7.467630545278209   2.873255244665834   8.341597506276718 
 12.445219140419576   2.873393953397003   8.340425853004479 
 -1.245500599736194   9.341589323678360   1.666931095792973 
 -0.002398153869306   2.873110422887716   1.669951841513998 
  4.978005683474262   2.873597794581497   1.671753868644239 
  3.732741615043362   9.342272632459203   1.664359706567922 
  8.711297121042328   9.341337242418797   1.665983709605589 
  9.956567609031440   2.873407954136098   1.664065621583568 
 -4.980110357531318  11.497367533437931   8.339060947104292 
 -0.000642256074756  11.497609183961325   8.339911190341246 
  1.241968592671617   5.028857244948317   8.331057308578259 
  6.222637917286915   5.028767262024222   8.340595024205005 
  4.977342397200619  11.497679003355046   8.341891591261099 
 11.200791332013170   5.029298486330886   8.340437446841397 
 -1.246540570029004   5.029229110822716   1.669084005061817 
 -2.490239397974192  11.497540164378812   1.666931095792973 
  2.488428268097391  11.497833946472230   1.664764516374592 
  3.730144682068899   5.028095033978435   1.658761800413621 
  7.466510227350494  11.497263089351113   1.665519766003178 
  8.711581675161959   5.029160502093581   1.664689526206603 
 -0.001070021694931   7.185563157873344   8.334665582945505 
  1.242784195376930   0.717592140600134   8.336873207782798 
  4.976973466242688   7.186321380415231   8.340595024205005 
  6.222912349585222   0.718036251858218   8.338329897269801 
  9.956098226740210   7.185278482032138   8.339973503239014 
 -2.490585582295077   7.185384136027242   1.666896265740283 
 11.201060129426319   0.717945085594030   8.341582642933194 
  3.732959533335062   0.718034251597544   1.671291629899070 
  2.488225841070356   7.186022981285923   1.671753868644239 
  7.466501965250716   7.185281917212277   1.667534793858725 
  8.712244729155419   0.717867618936128   1.664764516374592 
  2.488225841070357   7.186022981285924   8.334203344200429 
 13.689813110998694   0.717693961560071   1.665531359840175 
 -1.245500599736193   9.341589323678360   8.339026117051707 
 -0.002398153869306   2.873110422887716   8.336005371330669 
  4.978005683474263   2.873597794581498   8.334203344200429 
  3.732741615043362   9.342272632459203   8.341597506276718 
  8.711297121042328   9.341337242418797   8.339973503239014 
  9.956567609031440   2.873407954136098   8.341891591261099 
 -3.735257874087205   9.341427851582061   1.666121638057250 
  1.243908118706729   9.341924550840226   1.667627315574839 
  2.486716731433217   2.872890225986414   1.674899904266328 
  6.221785901070033   9.341613283291110   1.664689526206603 
  7.467630545278208   2.873255244665833   1.664359706567922 
 12.445219140419576   2.873393953397002   1.665531359840175 
 -1.246540570029003   5.029229110822717   8.336873207782798 
 -2.490239397974192  11.497540164378812   8.339026117051707 
  2.488428268097392  11.497833946472230   8.341192696470063 
  3.730144682068899   5.028095033978436   8.347195412430953 
  7.466510227350495  11.497263089351113   8.340437446841397 
 -4.980110357531319  11.497367533437931   1.666896265740283 
  8.711581675161959   5.029160502093582   8.341267686638052 
 -0.000642256074756  11.497609183961325   1.666046022503394 
  1.241968592671616   5.028857244948316   1.674899904266328 
 -0.001070021694931   7.185563157873343   1.671291629899070 
  6.222637917286914   5.028767262024221   1.665362188639623 
  4.977342397200618  11.497679003355046   1.664065621583568 
 11.200791332013170   5.029298486330885   1.665519766003178 
 -2.490585582295077   7.185384136027243   8.339060947104292 
  3.732959533335062   0.718034251597545   8.334665582945505 
  7.466501965250717   7.185281917212278   8.338422418985916 
  8.712244729155419   0.717867618936129   8.341192696470063 
 13.689813110998694   0.717693961560072   8.340425853004479 
  0.013015891757928   1.443043129579957   5.002978606422314 
  3.692933965533832   8.019926370924665   5.002978606422314 
  5.015872832386326   1.350144373660917   5.002978606422314 
  8.715441759825065   7.906357643811350   5.002978606422314 
  9.982862379888154   1.436798497330436   5.002978606422314 
 -4.978744662445460  10.060691806938529  11.673616748318732 
 -0.000129655806434  10.060701129289239  11.673616748318732 
  1.244720646633994   3.593134798069736  11.673616748318732 
  4.978834073480909  10.060622309717502  11.673616748318732 
  6.223365123590772   3.593137567404177  11.673616748318732 
 11.202236703905413   3.593254345966200  11.673616748318732 
 -2.500199159222731  10.054489333074082   5.002978606422314 
 -1.233165736181504   3.601493024629965   5.002978606422314 
  3.769066024367013   3.406104198328781   5.002978606422314 
  2.469778759154411  10.114549114632046   5.002978606422314 
  7.483794190242378  10.085508687375496   5.002978606422314 
  8.756036394333462   3.577345269639704   5.002978606422314 
 -6.223411147567624  12.216493090691657  11.673616748318732 
 -1.244784834189110  12.216507136151753  11.673616748318732 
 -0.000103246336512   5.749072627028566  11.673616748318732 
  4.978785370724998   5.748998071695176  11.673616748318732 
  3.734070374423187  12.216541828900107  11.673616748318732 
  9.957563228354623   5.749132756246843  11.673616748318732 
 -2.496697966270768   5.758161441981391   5.002978606422314 
 -3.733289656779465  12.186786088807070   5.002978606422314 
  1.252012996219059  12.220830031074895   5.002978606422314 
  2.344920084839740   5.872797322982949   5.002978606422314 
  6.237737651881730  12.236438956795492   5.002978606422314 
  7.542634291643161   5.740484220996040   5.002978606422314 
 -1.244858702659119   7.904901683320250  11.673616748318732 
  0.000091109236242   1.437214294893327  11.673616748318732 
  3.734045283426324   7.904766006858266  11.673616748318732 
  4.978687878271974   1.437113903377413  11.673616748318732 
  8.712981493864991   7.904937208597103  11.673616748318732 
 -3.742124876339851   7.906981754802138   5.002978606422314 
  9.957485066400928   1.437271385823969  11.673616748318732 
  2.483325439608504   1.383667135381524   5.002978606422314 
  1.187810051526802   7.980543604673065   5.002978606422314 
  6.253336620194571   7.973613294025260   5.002978606422314 
  7.504960169640593   1.393359086343597   5.002978606422314 
  1.244535396559265   7.904855724913282  11.673616748318732 
 12.465844607169469   1.448168744285954   5.002978606422314 
 -2.489480641501822  10.060677672165461  11.673616748318732 
 -1.244676046355414   3.593214251971085  11.673616748318732 
  3.734073356090577   3.593001642734490  11.673616748318732 
  2.489295197982305  10.060635611718217  11.673616748318732 
  7.468290939782981  10.060678833926218  11.673616748318732 
  8.712785843802969   3.593228130507891  11.673616748318732 
 -4.980958135384353  10.052703901573363   5.002978606422314 
 -0.021279101661377  10.081832196547412   5.002978606422314 
  1.257492541735130   3.600508655144456   5.002978606422314 
  4.986704387749509  10.106019815638701   5.002978606422314 
  6.302541265435107   3.499953939692994   5.002978606422314 
 11.226550123349938   3.595562286779236   5.002978606422314 
 -2.489454976220899   5.749091288683723  11.673616748318732 
 -3.734126443288965  12.216439883733361  11.673616748318732 
  1.244572291331780  12.216534138105317  11.673616748318732 
  2.489281685459277   5.749044061106461  11.673616748318732 
  6.223582206784902  12.216536888310264  11.673616748318732 
 -6.219177659420582  12.205685400660315   5.002978606422314 
  7.468187255429806   5.749116526483387  11.673616748318732 
 -1.237059516061925  12.187625645136320   5.002978606422314 
 -0.049432081607008   5.770531845379031   5.002978606422314 
 -1.270121249129164   7.920453259158193   5.002978606422314 
  3.746349497718206  12.238755671306675   5.002978606422314 
  9.986818137443674   5.750144038261223   5.002978606422314 
 -3.734100410901192   7.904904725915303  11.673616748318732 
  2.489405629006893   1.437116769040105  11.673616748318732 
  6.223588897933126   7.904824116684424  11.673616748318732 
  7.468027925924171   1.437217569616846  11.673616748318732 
 12.446991384740429   1.437283831241413  11.673616748318732 
  1.252472939578105   0.707237610661465   5.002978606422314 
  4.962100550720121   7.361219388237248   5.002978606422314 
  6.247542147724014   0.678691327012322   5.002978606422314 
  9.958042304657376   7.185754092785067   5.002978606422314 
 11.225520353262217   0.732067202410124   5.002978606422314 
 -3.734025792538828   9.342139194195571  11.673616748318732 
  1.244868061612199   9.340945226878647  11.673616748318732 
  2.490175522559371   2.875575668038670  11.673616748318732 
  6.223192341238464   9.341044140594635  11.673616748318732 
  7.466700132270245   2.875222171613555  11.673616748318732 
 12.447624857861335   2.874995408558774  11.673616748318732 
 -1.255914068527973   9.348021829580969   5.002978606422314 
  0.037290074548823   2.896024432248574   5.002978606422314 
  4.979232427948531   2.797295332003884   5.002978606422314 
  3.714097749282908   9.411766237133801   5.002978606422314 
  8.712681050995208   9.342783057905626   5.002978606422314 
  9.989899059164527   2.871459634551654   5.002978606422314 
 -4.978631673773391  11.498413479032402  11.673616748318732 
 -0.000329699671619  11.497789638484832  11.673616748318732 
  1.246023649272330   5.030509924903835  11.673616748318732 
  6.221833850984810   5.030561683191832  11.673616748318732 
  4.978919545973483  11.497327603699317  11.673616748318732 
 11.202345581730368   5.030664711755776  11.673616748318732 
 -1.250663483899543   5.042797074401025   5.002978606422314 
 -2.489875418848511  11.485305582912453   5.002978606422314 
  2.494466445599844  11.526183807270220   5.002978606422314 
  7.477963386830531  11.512229883766649   5.002978606422314 
  8.762415532696034   5.018866827976209   5.002978606422314 
  0.000832935965357   7.185644328632022  11.673616748318732 
  1.245494142320960   0.719479275566782  11.673616748318732 
  4.978125447407836   7.184727827987543  11.673616748318732 
  6.222544201608662   0.719357248781380  11.673616748318732 
  9.957287701479622   7.186209903325771  11.673616748318732 
 -2.497750501085919   7.191760733779998   5.002978606422314 
 11.202297596651201   0.718659537629403  11.673616748318732 
  3.740564530170098   0.692875240209635   5.002978606422314 
  2.422759342343938   7.225236604453452   5.002978606422314 
  7.466695083409440   7.185393414033031   5.002978606422314 
  8.739815517551486   0.708921903646764   5.002978606422314 
  2.489753053606439   7.184812961830199  11.673616748318732 
 13.714316225550196   0.737577177757204   5.002978606422314 
 -1.244483951492396   9.341758581757638  11.673616748318732 
  0.001406484437316   2.875307031838197  11.673616748318732 
  4.977721382154535   2.875525409162649  11.673616748318732 
  3.733979817243457   9.340483407684502  11.673616748318732 
  8.712698492913933   9.341901647113501  11.673616748318732 
  9.957051862389106   2.874949504866849  11.673616748318732 
 -3.739772823890930   9.338821144097478   5.002978606422314 
  1.222149313349546   9.382927044141528   5.002978606422314 
  2.533127936682507   2.852609792926712   5.002978606422314 
  6.238288246553148   9.390783532346664   5.002978606422314 