Species order:X N B                     
   2.51242800000000     
     5.9449720136058266    0.0000000000000000    0.0000000000000000
    -2.9724860068029120    5.1484967885702053   -0.0000000000000001
     0.0000000000000000    0.0000000000000009    5.3101128803662583
   Al   N    B 
     2   143   143
Direct
  0.4667815070454496  0.4000574201893893  0.3750000000000000
  0.6357492310370717  0.4845412821852002  0.3750000000000000
  0.1111374367573012  0.0555555582840612  0.1249839758423144
  0.6112167666933521  0.5556781635912512  0.1237557034238885
  0.4444619220928273  0.0555230902886352  0.1250390226552444
  0.9444498531032223  0.5555628258595360  0.1254148125324260
  0.7778081232731411  0.0555707283032392  0.1250425799798233
  0.1111199197307166  0.7222266265320242  0.6248021894539821
  0.4444619220928273  0.7222721651375296  0.6249609773447556
  0.2778158097727168  0.2222184335213918  0.6249132279346216
  0.7778150097304822  0.7222845555376401  0.6250906914460398
  0.6111305992089566  0.2221799340591738  0.6251064595527396
  0.9444794426401358  0.2222393837354447  0.6249415287842042
  0.2777883998452620  0.7222404250576412  0.1251314865374248
  0.1111590116624098  0.2222461724978693  0.1249811038374577
  0.4444952230077094  0.2221868185334471  0.1248784218384644
  0.6111305992089566  0.7222839984831155  0.1248935404472567
  0.9444498531032223  0.7222203605770181  0.1254148125324260
  0.7778006597074785  0.2222089244792646  0.1250760930950016
  0.1111233319951243  0.8888837257018684  0.6248816757946635
  0.4444565454189942  0.8888949393761610  0.6248664653785237
  0.2778158097727168  0.3889307095846536  0.6249132279346216
  0.6112167666933521  0.3888719364354321  0.6262442965761083
  0.7778006597074785  0.8889250685615365  0.6249239069050000
  0.9444712154426743  0.3888985653577485  0.6248337301617269
  0.1111374367573012  0.3889152118065687  0.1249839758423144
  0.2777883998452620  0.8888813081209478  0.1251314865374248
  0.6111308629441636  0.8889243445849109  0.1250745379118627
  0.4445153674194907  0.3889243503764127  0.1274263845360842
  0.9444712154426743  0.8889059834182543  0.1251662698382707
  0.7778150097304822  0.3888637875261747  0.1249093085539573
  0.2777968818340820  0.5555942311289719  0.6249874017908903
  0.1111374367573012  0.0555555582840612  0.6250160241576825
  0.6112167666933521  0.5556781635912512  0.6262442965761083
  0.4444619220928273  0.0555230902886352  0.6249609773447556
  0.9444498531032223  0.5555628258595360  0.6245851874675734
  0.1111233319951243  0.5555729396265846  0.1251183242053314
  0.7778081232731411  0.0555707283032392  0.6249574200201758
  0.2777968818340820  0.0555359840384470  0.1250125982091126
  0.4444952230077094  0.5556417378075987  0.1248784218384644
  0.7777461127341230  0.5555397230337278  0.1257640991498949
  0.6111308629441636  0.0555398516925758  0.1250745379118627
  0.4444952230077094  0.5556417378075987  0.6251215781615398
  0.9444794426401358  0.0555733922380287  0.1250584712157992
  0.2777883998452620  0.7222404250576412  0.6248685134625721
  0.1111590116624098  0.2222461724978693  0.6250188961625430
  0.4444952230077094  0.2221868185334471  0.6251215781615398
  0.6111305992089566  0.7222839984831155  0.6251064595527396
  0.9444498531032223  0.7222203605770181  0.6245851874675734
  0.7778006597074785  0.2222089244792646  0.6249239069050000
  0.1111199197307166  0.7222266265320242  0.1251978105460126
  0.4444619220928273  0.7222721651375296  0.1250390226552444
  0.2778158097727168  0.2222184335213918  0.1250867720653834
  0.7778150097304822  0.7222845555376401  0.1249093085539573
  0.6111305992089566  0.2221799340591738  0.1248935404472567
  0.9444794426401358  0.2222393837354447  0.1250584712157992
  0.1111374367573012  0.3889152118065687  0.6250160241576825
  0.2777883998452620  0.8888813081209478  0.6248685134625721
  0.6111308629441636  0.8889243445849109  0.6249254620881365
  0.4445153674194907  0.3889243503764127  0.6225736154639184
  0.9444712154426743  0.8889059834182543  0.6248337301617269
  0.1111233319951243  0.8888837257018684  0.1251183242053314
  0.7778150097304822  0.3888637875261747  0.6250906914460398
  0.4444565454189942  0.8888949393761610  0.1251335346214773
  0.2778158097727168  0.3889307095846536  0.1250867720653834
  0.2777968818340820  0.5555942311289719  0.1250125982091126
  0.6112167666933521  0.3888719364354321  0.1237557034238885
  0.7778006597074785  0.8889250685615365  0.1250760930950016
  0.9444712154426743  0.3888985653577485  0.1251662698382707
  0.1111233319951243  0.5555729396265846  0.6248816757946635
  0.2777968818340820  0.0555359840384470  0.6249874017908903
  0.7777461127341230  0.5555397230337278  0.6242359008501036
  0.6111308629441636  0.0555398516925758  0.6249254620881365
  0.9444794426401358  0.0555733922380287  0.6249415287842042
  0.0566396104839218  0.1120260282139197  0.3750000000000000
  0.5477830562206021  0.6279509511512413  0.3750000000000000
  0.3828440942754924  0.0995236419344690  0.3750000000000000
  0.8918726833475280  0.6126030083404334  0.3750000000000000
  0.7227283418453412  0.1097257942402619  0.3750000000000000
  0.0555467038398158  0.7777760470934146  0.8750000000000000
  0.3888909023154102  0.7777769165837709  0.8750000000000000
  0.2222183424949032  0.2777758379141192  0.8750000000000000
  0.7222256237071497  0.7777772912624051  0.8750000000000000
  0.5555549358896418  0.2777798840149360  0.8750000000000000
  0.8888910392975793  0.2777785654432321  0.8750000000000000
  0.2184482321066273  0.7758907827199835  0.3750000000000000
  0.0566396104839218  0.2779469156033371  0.3750000000000000
  0.3865804614207978  0.2653430139213804  0.3750000000000000
  0.5533995628420255  0.7848268621983435  0.3750000000000000
  0.8889850255130249  0.7796000985105138  0.3750000000000000
  0.7220764668735561  0.2735352141058801  0.3750000000000000
  0.0555512691568010  0.9444449034344750  0.8750000000000000
  0.3888909023154102  0.9444473190649699  0.8750000000000000
  0.2222191026963401  0.4444392207601376  0.8750000000000000
  0.5555431431938159  0.4444382382635723  0.8750000000000000
  0.7222249006890202  0.9444450289455034  0.8750000000000000
  0.8888893637362958  0.4444429637893260  0.8750000000000000
  0.0543981649376303  0.4437225295023434  0.3750000000000000
  0.2181518080222261  0.9403449788714241  0.3750000000000000
  0.5537826345728364  0.9435579839530809  0.3750000000000000
  0.3865804614207979  0.4545707808327515  0.3750000000000000
  0.8896259047644218  0.9462290336909316  0.3750000000000000
  0.7247680378066815  0.4407015904992823  0.3750000000000000
  0.2222171222677514  0.6111050186198090  0.8750000000000000
  0.0555513751812648  0.1111092658908849  0.8750000000000000
  0.5555549358896418  0.6111083852080461  0.8750000000000000
  0.3888900652143346  0.1111169330342592  0.8750000000000000
  0.8888827218812196  0.6111080276072832  0.8750000000000000
  0.0536129221920537  0.6099638807119024  0.3750000000000000
  0.7222249006890202  0.1111132050768507  0.8750000000000000
  0.2200316754239039  0.1079397794923609  0.3750000000000000
  0.3828440942754924  0.6166537856743676  0.3750000000000000
  0.7247680378066815  0.6173997806407311  0.3750000000000000
  0.5533995628420255  0.1019060339770193  0.3750000000000000
  0.3888900652143346  0.6111064655134165  0.8750000000000000
  0.8901632311181844  0.1117482822257653  0.3750000000000000
  0.2222157855443743  0.7777745594388515  0.8750000000000000
  0.0555513751812648  0.2777754426237151  0.8750000000000000
  0.3888921138820180  0.2777877725618691  0.8750000000000000
  0.5555588297669597  0.7777769904652481  0.8750000000000000
  0.8888893637362958  0.7777797332803064  0.8750000000000000
  0.7222256237071497  0.2777816657780768  0.8750000000000000
  0.0536129221920537  0.7769823748134845  0.3750000000000000
  0.3850892415673944  0.7785431197254223  0.3750000000000000
  0.2246685551166077  0.2790009442249716  0.3750000000000000
  0.7220764668735561  0.7818745861010116  0.3750000000000000
  0.5477830562206021  0.2531654384026927  0.3750000000000000
  0.8896259047644218  0.2767302044068251  0.3750000000000000
  0.0555512691568010  0.4444396990556610  0.8750000000000000
  0.2222171222677514  0.9444454369812757  0.8750000000000000
  0.5555579465580966  0.9444456399457128  0.8750000000000000
  0.3888921138820180  0.4444376746534831  0.8750000000000000
  0.8888910392975793  0.9444458071876839  0.8750000000000000
  0.0543981649376303  0.9440089687686156  0.3750000000000000
  0.7222250326051172  0.4444490779906551  0.8750000000000000
  0.3850892415673944  0.9398794551753031  0.3750000000000000
  0.2200316754239039  0.4454252292648794  0.3750000000000000
  0.2181518080222262  0.6111401624841465  0.3750000000000000
  0.7227283418453412  0.9463358809384149  0.3750000000000000
  0.8889850255130251  0.4427182603358498  0.3750000000000000
  0.0555467038398158  0.6111039900797358  0.8750000000000000
  0.2222191026963401  0.1111132152695363  0.8750000000000000
  0.7222250326051172  0.6111092879478006  0.8750000000000000
  0.5555588297669597  0.1111151726350431  0.8750000000000000
  0.8888894149827949  0.1111113741580702  0.8750000000000000
  0.1102006861310666  0.0548824355503712  0.3750000000000000
  0.5972249165145662  0.5761428013066496  0.3750000000000000
  0.4415275829880834  0.0484853080649689  0.3750000000000000
  0.9447859332500029  0.5537773763516300  0.3750000000000000
  0.7795312764012078  0.0564323048672728  0.3750000000000000
  0.1111323536804751  0.7222328435069055  0.8750000000000000
  0.4444283811591900  0.7222229142544069  0.8750000000000000
  0.2777258230017594  0.2222003374251770  0.8750000000000000
  0.7778061766448516  0.7222813039234235  0.8750000000000000
  0.6111050966040309  0.2221849948050720  0.8750000000000000
  0.9444636689350797  0.2222150269846866  0.8750000000000000
  0.2742440664916608  0.7216178890081554  0.3750000000000000
  0.1134376769211907  0.2233855051272588  0.3750000000000000
  0.4362521741687815  0.2068101886600855  0.3750000000000000
  0.6110717335196821  0.7352440139334540  0.3750000000000000
  0.9447859332500029  0.7243418902317024  0.3750000000000000
  0.7791779406731495  0.2198431472329576  0.3750000000000000
  0.1111257516917300  0.8889194388303152  0.8750000000000000
  0.4444406648108978  0.8888869990721153  0.8750000000000000
  0.2777258230017594  0.3888588189099104  0.8750000000000000
  0.6110800812935706  0.3888512274241617  0.8750000000000000
  0.7778036719511897  0.8889375756639625  0.8750000000000000
  0.9444771094755076  0.3888649765865269  0.8750000000000000
  0.1102006861310666  0.3886515839140234  0.3750000000000000
  0.2742440664916608  0.8859595108168374  0.3750000000000000
  0.6115400395246495  0.8930580684298028  0.3750000000000000
  0.9446858736818556  0.8908332573950435  0.3750000000000000
  0.7796877160784768  0.3841821069428761  0.3750000000000000
  0.2777548925006673  0.5555368197930499  0.8750000000000000
  0.1111088718500122  0.0555744763123861  0.8750000000000000
  0.6110800812935706  0.5555621872027429  0.8750000000000000
  0.4444283811591900  0.0555388002381187  0.8750000000000000
  0.9444856078659389  0.5555512991485905  0.8750000000000000
  0.1085796298006073  0.5544114255322938  0.3750000000000000
  0.7777999684758888  0.0555666509046128  0.8750000000000000
  0.2729576179804059  0.0499159583767032  0.3750000000000000
  0.4362521741687816  0.5627753188420312  0.3750000000000000
  0.7865791600886975  0.5599562467110180  0.3750000000000000
  0.6115400395246495  0.0518153044281793  0.3750000000000000
  0.4443988084426228  0.5555466598514567  0.8750000000000000
  0.9460982429126498  0.0572138012628230  0.3750000000000000
  0.2777759836047554  0.7222166392024842  0.8750000000000000
  0.1110956569597577  0.2222144951465425  0.8750000000000000
  0.4443988084426228  0.2221854819245009  0.8750000000000000
  0.6111050966040309  0.7222534351322870  0.8750000000000000
  0.9444856078659389  0.7222676420506779  0.8750000000000000
  0.7778036719511897  0.2221994296205502  0.8750000000000000
  0.1084611689094521  0.7208972511213925  0.3750000000000000
  0.4415275829880834  0.7263756082564483  0.3750000000000000
  0.2773511433129764  0.2191224793080171  0.3750000000000000
  0.7796877160784769  0.7288389424689279  0.3750000000000000
  0.6110717335196821  0.2091610529195591  0.3750000000000000
  0.9460982429126498  0.2222177749831639  0.3750000000000000
  0.1111088718500122  0.3888677288709547  0.8750000000000000
  0.2777759836047554  0.8888926777355938  0.8750000000000000
  0.6111186943155278  0.8889075244304893  0.8750000000000000
  0.4443759726071816  0.3888546529702542  0.8750000000000000
  0.9444771094755076  0.8889454662223096  0.8750000000000000
  0.1085796298006074  0.8875015376016521  0.3750000000000000
  0.7778061766448516  0.3888582060547607  0.8750000000000000
  0.4423544804953836  0.8878439069143539  0.3750000000000000
  0.2773511433129764  0.3915619973382884  0.3750000000000000
  0.2729576179804059  0.5563749929370414  0.3750000000000000
  0.5972249165145661  0.3544154485412444  0.3750000000000000
  0.7791779406731495  0.8926681267735223  0.3750000000000000
  0.9446858736818556  0.3871859496201446  0.3750000000000000
  0.1111257516917300  0.5555396461947448  0.8750000000000000
  0.2777548925006673  0.0555514060409532  0.8750000000000000
  0.7778014792179946  0.5555674062756614  0.8750000000000000
  0.6111186943155278  0.0555445032183710  0.8750000000000000
  0.9444636689350797  0.0555819752837269  0.8750000000000000
  0.0556200054063495  0.1111623438698523  0.1248967724610432
  0.5554414578522476  0.6112690981455380  0.1239863226267361
  0.3888138267041659  0.1109510949572548  0.1247415996545501
  0.8891441883656885  0.6112387608495146  0.1249545084905770
  0.7222338028644418  0.1110418937657037  0.1248487529809068
  0.0557305651991723  0.7778886699127361  0.6250683934439912
  0.3888709765954138  0.7778185431043494  0.6250885985984251
  0.2222140048751731  0.2777736691042538  0.6249798929651056
  0.7222360479259538  0.7779742649465833  0.6254880986618070
  0.5554414578522476  0.2775056930400525  0.6260136773732614
  0.8889663133911352  0.2777304276442386  0.6251242288192467
  0.2223010052595855  0.7778171692964591  0.1249392079061046
  0.0556200054063495  0.2777909948698326  0.1248967724610432
  0.3886990692065745  0.2774821437984851  0.1256428600871380
  0.5554975382750580  0.7778986159895558  0.1247432698188971
  0.8890566888220492  0.7779767280870409  0.1247702683870336
  0.7222360479259539  0.2775951163127088  0.1245119013381916
  0.0556605879512294  0.9445403099863319  0.6251010367526209
  0.3888709765954138  0.9443857668244023  0.6250885985984251
  0.2222182478744643  0.4444734561618726  0.6251189787985622
  0.5555849596643463  0.4444591464988374  0.6255235037412534
  0.7222338028644418  0.9445252424320774  0.6251512470190944
  0.8890566888220492  0.4444132940683500  0.6252297316129687
  0.0556605879512294  0.4444536112982266  0.1248989632473817
  0.2222696026933229  0.9444517446929167  0.1249036111106662
  0.5555274147558722  0.9444303740446065  0.1248938275492875
  0.3886990692065745  0.4445502587414278  0.1256428600871380
  0.8889663133911352  0.9445692190802302  0.1248757711807553
  0.7223208487320487  0.4442930462449755  0.1236556278669114
  0.2222696026933229  0.6111511913337422  0.6250963888893305
  0.0556200054063495  0.1111623438698523  0.6251032275389605
  0.5554414578522476  0.6112690981455380  0.6260136773732614
  0.3888138267041659  0.1109510949572548  0.6252584003454493
  0.8891441883656885  0.6112387608495146  0.6250454915094193
  0.0557305651991723  0.6111752286197746  0.1249316065560106
  0.7222338028644418  0.1110418937657037  0.6251512470190944
  0.2222182478744643  0.1110781250459257  0.1248810212014389
  0.3888138267041659  0.6111960650802544  0.1247415996545501
  0.7223208487320487  0.6113611358204151  0.1236556278669114
  0.5554975382750580  0.1109322556188386  0.1247432698188971
  0.3888138267041659  0.6111960650802544  0.6252584003454493
  0.8889470437187522  0.1111401885260484  0.1248954660661705
  0.2223010052595855  0.7778171692964591  0.6250607920938976
  0.0556200054063495  0.2777909948698326  0.6251032275389605
  0.3886990692065745  0.2774821437984851  0.6243571399128601
  0.5554975382750580  0.7778986159895558  0.6252567301811069
  0.8890566888220492  0.7779767280870409  0.6252297316129687
  0.7222360479259539  0.2775951163127088  0.6254880986618070
  0.0557305651991723  0.7778886699127361  0.1249316065560106
  0.3888709765954138  0.7778185431043494  0.1249114014015755
  0.2222140048751731  0.2777736691042538  0.1250201070348946
  0.7222360479259538  0.7779742649465833  0.1245119013381916
  0.5554414578522476  0.2775056930400525  0.1239863226267361
  0.8889663133911352  0.2777304276442386  0.1248757711807553
  0.0556605879512294  0.4444536112982266  0.6251010367526209
  0.2222696026933229  0.9444517446929167  0.6250963888893305
  0.5555274147558722  0.9444303740446065  0.6251061724507149
  0.3886990692065745  0.4445502587414278  0.6243571399128601
  0.8889663133911352  0.9445692190802302  0.6251242288192467
  0.0556605879512294  0.9445403099863319  0.1248989632473817
  0.7223208487320487  0.4442930462449755  0.6263443721330884
  0.3888709765954138  0.9443857668244023  0.1249114014015755
  0.2222182478744643  0.4444734561618726  0.1248810212014389
  0.2222696026933229  0.6111511913337422  0.1249036111106662
  0.5555849596643463  0.4444591464988374  0.1244764962587486
  0.7222338028644418  0.9445252424320774  0.1248487529809068
  0.8890566888220492  0.4444132940683500  0.1247702683870336
  0.0557305651991723  0.6111752286197746  0.6250683934439912
  0.2222182478744643  0.1110781250459257  0.6251189787985622
  0.7223208487320487  0.6113611358204151  0.6263443721330884
  0.5554975382750580  0.1109322556188385  0.6252567301811069
  0.8889470437187522  0.1111401885260484  0.6251045339338278
 
  0.00000000E+00  0.00000000E+00  0.00000000E+00
  0.00000000E+00  0.00000000E+00  0.00000000E+00
  0.00000000E+00  0.00000000E+00  0.00000000E+00
  0.00000000E+00  0.00000000E+00  0.00000000E+00
  0.00000000E+00  0.00000000E+00  0.00000000E+00
  0.00000000E+00  0.00000000E+00  0.00000000E+00
  0.00000000E+00  0.00000000E+00  0.00000000E+00
  0.00000000E+00  0.00000000E+00  0.00000000E+00
  0.00000000E+00  0.00000000E+00  0.00000000E+00
  0.00000000E+00  0.00000000E+00  0.00000000E+00
  0.00000000E+00  0.00000000E+00  0.00000000E+00
  0.00000000E+00  0.00000000E+00  0.00000000E+00
  0.00000000E+00  0.00000000E+00  0.00000000E+00
  0.00000000E+00  0.00000000E+00  0.00000000E+00
  0.00000000E+00  0.00000000E+00  0.00000000E+00
  0.00000000E+00  0.00000000E+00  0.00000000E+00
  0.00000000E+00  0.00000000E+00  0.00000000E+00
  0.00000000E+00  0.00000000E+00  0.00000000E+00
  0.00000000E+00  0.00000000E+00  0.00000000E+00
  0.00000000E+00  0.00000000E+00  0.00000000E+00
  0.00000000E+00  0.00000000E+00  0.00000000E+00
  0.00000000E+00  0.00000000E+00  0.00000000E+00
  0.00000000E+00  0.00000000E+00  0.00000000E+00
  0.00000000E+00  0.00000000E+00  0.00000000E+00
  0.00000000E+00  0.00000000E+00  0.00000000E+00
  0.00000000E+00  0.00000000E+00  0.00000000E+00
  0.00000000E+00  0.00000000E+00  0.00000000E+00
  0.00000000E+00  0.00000000E+00  0.00000000E+00
  0.00000000E+00  0.00000000E+00  0.00000000E+00
  0.00000000E+00  0.00000000E+00  0.00000000E+00
  0.00000000E+00  0.00000000E+00  0.00000000E+00
  0.00000000E+00  0.00000000E+00  0.00000000E+00
  0.00000000E+00  0.00000000E+00  0.00000000E+00
  0.00000000E+00  0.00000000E+00  0.00000000E+00
  0.00000000E+00  0.00000000E+00  0.00000000E+00
  0.00000000E+00  0.00000000E+00  0.00000000E+00
  0.00000000E+00  0.00000000E+00  0.00000000E+00
  0.00000000E+00  0.00000000E+00  0.00000000E+00
  0.00000000E+00  0.00000000E+00  0.00000000E+00
  0.00000000E+00  0.00000000E+00  0.00000000E+00
  0.00000000E+00  0.00000000E+00  0.00000000E+00
  0.00000000E+00  0.00000000E+00  0.00000000E+00
  0.00000000E+00  0.00000000E+00  0.00000000E+00
  0.00000000E+00  0.00000000E+00  0.00000000E+00
  0.00000000E+00  0.00000000E+00  0.00000000E+00
  0.00000000E+00  0.00000000E+00  0.00000000E+00
  0.00000000E+00  0.00000000E+00  0.00000000E+00
  0.00000000E+00  0.00000000E+00  0.00000000E+00
  0.00000000E+00  0.00000000E+00  0.00000000E+00
  0.00000000E+00  0.00000000E+00  0.00000000E+00
  0.00000000E+00  0.00000000E+00  0.00000000E+00
  0.00000000E+00  0.00000000E+00  0.00000000E+00
  0.00000000E+00  0.00000000E+00  0.00000000E+00
  0.00000000E+00  0.00000000E+00  0.00000000E+00
  0.00000000E+00  0.00000000E+00  0.00000000E+00
  0.00000000E+00  0.00000000E+00  0.00000000E+00
  0.00000000E+00  0.00000000E+00  0.00000000E+00
  0.00000000E+00  0.00000000E+00  0.00000000E+00
  0.00000000E+00  0.00000000E+00  0.00000000E+00
  0.00000000E+00  0.00000000E+00  0.00000000E+00
  0.00000000E+00  0.00000000E+00  0.00000000E+00
  0.00000000E+00  0.00000000E+00  0.00000000E+00
  0.00000000E+00  0.00000000E+00  0.00000000E+00
  0.00000000E+00  0.00000000E+00  0.00000000E+00
  0.00000000E+00  0.00000000E+00  0.00000000E+00
  0.00000000E+00  0.00000000E+00  0.00000000E+00
  0.00000000E+00  0.00000000E+00  0.00000000E+00
  0.00000000E+00  0.00000000E+00  0.00000000E+00
  0.00000000E+00  0.00000000E+00  0.00000000E+00
  0.00000000E+00  0.00000000E+00  0.00000000E+00
  0.00000000E+00  0.00000000E+00  0.00000000E+00
  0.00000000E+00  0.00000000E+00  0.00000000E+00
  0.00000000E+00  0.00000000E+00  0.00000000E+00
  0.00000000E+00  0.00000000E+00  0.00000000E+00
  0.00000000E+00  0.00000000E+00  0.00000000E+00
  0.00000000E+00  0.00000000E+00  0.00000000E+00
  0.00000000E+00  0.00000000E+00  0.00000000E+00
  0.00000000E+00  0.00000000E+00  0.00000000E+00
  0.00000000E+00  0.00000000E+00  0.00000000E+00
  0.00000000E+00  0.00000000E+00  0.00000000E+00
  0.00000000E+00  0.00000000E+00  0.00000000E+00
  0.00000000E+00  0.00000000E+00  0.00000000E+00
  0.00000000E+00  0.00000000E+00  0.00000000E+00
  0.00000000E+00  0.00000000E+00  0.00000000E+00
  0.00000000E+00  0.00000000E+00  0.00000000E+00
  0.00000000E+00  0.00000000E+00  0.00000000E+00
  0.00000000E+00  0.00000000E+00  0.00000000E+00
  0.00000000E+00  0.00000000E+00  0.00000000E+00
  0.00000000E+00  0.00000000E+00  0.00000000E+00
  0.00000000E+00  0.00000000E+00  0.00000000E+00
  0.00000000E+00  0.00000000E+00  0.00000000E+00
  0.00000000E+00  0.00000000E+00  0.00000000E+00
  0.00000000E+00  0.00000000E+00  0.00000000E+00
  0.00000000E+00  0.00000000E+00  0.00000000E+00
  0.00000000E+00  0.00000000E+00  0.00000000E+00
  0.00000000E+00  0.00000000E+00  0.00000000E+00
  0.00000000E+00  0.00000000E+00  0.00000000E+00
  0.00000000E+00  0.00000000E+00  0.00000000E+00
  0.00000000E+00  0.00000000E+00  0.00000000E+00
  0.00000000E+00  0.00000000E+00  0.00000000E+00
  0.00000000E+00  0.00000000E+00  0.00000000E+00
  0.00000000E+00  0.00000000E+00  0.00000000E+00
  0.00000000E+00  0.00000000E+00  0.00000000E+00
  0.00000000E+00  0.00000000E+00  0.00000000E+00
  0.00000000E+00  0.00000000E+00  0.00000000E+00
  0.00000000E+00  0.00000000E+00  0.00000000E+00
  0.00000000E+00  0.00000000E+00  0.00000000E+00
  0.00000000E+00  0.00000000E+00  0.00000000E+00
  0.00000000E+00  0.00000000E+00  0.00000000E+00
  0.00000000E+00  0.00000000E+00  0.00000000E+00
  0.00000000E+00  0.00000000E+00  0.00000000E+00
  0.00000000E+00  0.00000000E+00  0.00000000E+00
  0.00000000E+00  0.00000000E+00  0.00000000E+00
  0.00000000E+00  0.00000000E+00  0.00000000E+00
  0.00000000E+00  0.00000000E+00  0.00000000E+00
  0.00000000E+00  0.00000000E+00  0.00000000E+00
  0.00000000E+00  0.00000000E+00  0.00000000E+00
  0.00000000E+00  0.00000000E+00  0.00000000E+00
  0.00000000E+00  0.00000000E+00  0.00000000E+00
  0.00000000E+00  0.00000000E+00  0.00000000E+00
  0.00000000E+00  0.00000000E+00  0.00000000E+00
  0.00000000E+00  0.00000000E+00  0.00000000E+00
  0.00000000E+00  0.00000000E+00  0.00000000E+00
  0.00000000E+00  0.00000000E+00  0.00000000E+00
  0.00000000E+00  0.00000000E+00  0.00000000E+00
  0.00000000E+00  0.00000000E+00  0.00000000E+00
  0.00000000E+00  0.00000000E+00  0.00000000E+00
  0.00000000E+00  0.00000000E+00  0.00000000E+00
  0.00000000E+00  0.00000000E+00  0.00000000E+00
  0.00000000E+00  0.00000000E+00  0.00000000E+00
  0.00000000E+00  0.00000000E+00  0.00000000E+00
  0.00000000E+00  0.00000000E+00  0.00000000E+00
  0.00000000E+00  0.00000000E+00  0.00000000E+00
  0.00000000E+00  0.00000000E+00  0.00000000E+00
  0.00000000E+00  0.00000000E+00  0.00000000E+00
  0.00000000E+00  0.00000000E+00  0.00000000E+00
  0.00000000E+00  0.00000000E+00  0.00000000E+00
  0.00000000E+00  0.00000000E+00  0.00000000E+00
  0.00000000E+00  0.00000000E+00  0.00000000E+00
  0.00000000E+00  0.00000000E+00  0.00000000E+00
  0.00000000E+00  0.00000000E+00  0.00000000E+00
  0.00000000E+00  0.00000000E+00  0.00000000E+00
  0.00000000E+00  0.00000000E+00  0.00000000E+00
  0.00000000E+00  0.00000000E+00  0.00000000E+00
  0.00000000E+00  0.00000000E+00  0.00000000E+00
  0.00000000E+00  0.00000000E+00  0.00000000E+00
  0.00000000E+00  0.00000000E+00  0.00000000E+00
  0.00000000E+00  0.00000000E+00  0.00000000E+00
  0.00000000E+00  0.00000000E+00  0.00000000E+00
  0.00000000E+00  0.00000000E+00  0.00000000E+00
  0.00000000E+00  0.00000000E+00  0.00000000E+00
  0.00000000E+00  0.00000000E+00  0.00000000E+00
  0.00000000E+00  0.00000000E+00  0.00000000E+00
  0.00000000E+00  0.00000000E+00  0.00000000E+00
  0.00000000E+00  0.00000000E+00  0.00000000E+00
  0.00000000E+00  0.00000000E+00  0.00000000E+00
  0.00000000E+00  0.00000000E+00  0.00000000E+00
  0.00000000E+00  0.00000000E+00  0.00000000E+00
  0.00000000E+00  0.00000000E+00  0.00000000E+00
  0.00000000E+00  0.00000000E+00  0.00000000E+00
  0.00000000E+00  0.00000000E+00  0.00000000E+00
  0.00000000E+00  0.00000000E+00  0.00000000E+00
  0.00000000E+00  0.00000000E+00  0.00000000E+00
  0.00000000E+00  0.00000000E+00  0.00000000E+00
  0.00000000E+00  0.00000000E+00  0.00000000E+00
  0.00000000E+00  0.00000000E+00  0.00000000E+00
  0.00000000E+00  0.00000000E+00  0.00000000E+00
  0.00000000E+00  0.00000000E+00  0.00000000E+00
  0.00000000E+00  0.00000000E+00  0.00000000E+00
  0.00000000E+00  0.00000000E+00  0.00000000E+00
  0.00000000E+00  0.00000000E+00  0.00000000E+00
  0.00000000E+00  0.00000000E+00  0.00000000E+00
  0.00000000E+00  0.00000000E+00  0.00000000E+00
  0.00000000E+00  0.00000000E+00  0.00000000E+00
  0.00000000E+00  0.00000000E+00  0.00000000E+00
  0.00000000E+00  0.00000000E+00  0.00000000E+00
  0.00000000E+00  0.00000000E+00  0.00000000E+00
  0.00000000E+00  0.00000000E+00  0.00000000E+00
  0.00000000E+00  0.00000000E+00  0.00000000E+00
  0.00000000E+00  0.00000000E+00  0.00000000E+00
  0.00000000E+00  0.00000000E+00  0.00000000E+00
  0.00000000E+00  0.00000000E+00  0.00000000E+00
  0.00000000E+00  0.00000000E+00  0.00000000E+00
  0.00000000E+00  0.00000000E+00  0.00000000E+00
  0.00000000E+00  0.00000000E+00  0.00000000E+00
  0.00000000E+00  0.00000000E+00  0.00000000E+00
  0.00000000E+00  0.00000000E+00  0.00000000E+00
  0.00000000E+00  0.00000000E+00  0.00000000E+00
  0.00000000E+00  0.00000000E+00  0.00000000E+00
  0.00000000E+00  0.00000000E+00  0.00000000E+00
  0.00000000E+00  0.00000000E+00  0.00000000E+00
  0.00000000E+00  0.00000000E+00  0.00000000E+00
  0.00000000E+00  0.00000000E+00  0.00000000E+00
  0.00000000E+00  0.00000000E+00  0.00000000E+00
  0.00000000E+00  0.00000000E+00  0.00000000E+00
  0.00000000E+00  0.00000000E+00  0.00000000E+00
  0.00000000E+00  0.00000000E+00  0.00000000E+00
  0.00000000E+00  0.00000000E+00  0.00000000E+00
  0.00000000E+00  0.00000000E+00  0.00000000E+00
  0.00000000E+00  0.00000000E+00  0.00000000E+00
  0.00000000E+00  0.00000000E+00  0.00000000E+00
  0.00000000E+00  0.00000000E+00  0.00000000E+00
  0.00000000E+00  0.00000000E+00  0.00000000E+00
  0.00000000E+00  0.00000000E+00  0.00000000E+00
  0.00000000E+00  0.00000000E+00  0.00000000E+00
  0.00000000E+00  0.00000000E+00  0.00000000E+00
  0.00000000E+00  0.00000000E+00  0.00000000E+00
  0.00000000E+00  0.00000000E+00  0.00000000E+00
  0.00000000E+00  0.00000000E+00  0.00000000E+00
  0.00000000E+00  0.00000000E+00  0.00000000E+00
  0.00000000E+00  0.00000000E+00  0.00000000E+00
  0.00000000E+00  0.00000000E+00  0.00000000E+00
  0.00000000E+00  0.00000000E+00  0.00000000E+00
  0.00000000E+00  0.00000000E+00  0.00000000E+00
  0.00000000E+00  0.00000000E+00  0.00000000E+00
  0.00000000E+00  0.00000000E+00  0.00000000E+00
  0.00000000E+00  0.00000000E+00  0.00000000E+00
  0.00000000E+00  0.00000000E+00  0.00000000E+00
  0.00000000E+00  0.00000000E+00  0.00000000E+00
  0.00000000E+00  0.00000000E+00  0.00000000E+00
  0.00000000E+00  0.00000000E+00  0.00000000E+00
  0.00000000E+00  0.00000000E+00  0.00000000E+00
  0.00000000E+00  0.00000000E+00  0.00000000E+00
  0.00000000E+00  0.00000000E+00  0.00000000E+00
  0.00000000E+00  0.00000000E+00  0.00000000E+00
  0.00000000E+00  0.00000000E+00  0.00000000E+00
  0.00000000E+00  0.00000000E+00  0.00000000E+00
  0.00000000E+00  0.00000000E+00  0.00000000E+00
  0.00000000E+00  0.00000000E+00  0.00000000E+00
  0.00000000E+00  0.00000000E+00  0.00000000E+00
  0.00000000E+00  0.00000000E+00  0.00000000E+00
  0.00000000E+00  0.00000000E+00  0.00000000E+00
  0.00000000E+00  0.00000000E+00  0.00000000E+00
  0.00000000E+00  0.00000000E+00  0.00000000E+00
  0.00000000E+00  0.00000000E+00  0.00000000E+00
  0.00000000E+00  0.00000000E+00  0.00000000E+00
  0.00000000E+00  0.00000000E+00  0.00000000E+00
  0.00000000E+00  0.00000000E+00  0.00000000E+00
  0.00000000E+00  0.00000000E+00  0.00000000E+00
  0.00000000E+00  0.00000000E+00  0.00000000E+00
  0.00000000E+00  0.00000000E+00  0.00000000E+00
  0.00000000E+00  0.00000000E+00  0.00000000E+00
  0.00000000E+00  0.00000000E+00  0.00000000E+00
  0.00000000E+00  0.00000000E+00  0.00000000E+00
  0.00000000E+00  0.00000000E+00  0.00000000E+00
  0.00000000E+00  0.00000000E+00  0.00000000E+00
  0.00000000E+00  0.00000000E+00  0.00000000E+00