 C B N 
 1.0
 14.936314146199660   0.000000000000000   0.000000000000000
 -7.468157073099825  12.935227489513863   0.000000000000000
  0.000000000000001   0.000000000000001  13.341276283792837
 C B N 
   3 141 143
Cartesian
  6.207242769022506   5.061031566078444   5.002978606422314 
  3.750299995113418   5.061031566078444   5.002978606422314 
  4.978771382065872   5.670167248810868   5.002978606422314 
  1.251476366556447   0.721722918510190   5.002978606422314 
  6.217724901440119   0.737625569540007   5.002978606422314 
  9.965051053398255   7.185576929832594   5.002978606422314 
 11.201960426956591   0.698920664795993   5.002978606422314 
 -3.734523378753964   9.341959112435182  11.673616748318732 
  1.245691262547881   9.341535895767390  11.673616748318732 
  2.490026050374646   2.875146809991050  11.673616748318732 
  6.222892145340314   9.340789451358916  11.673616748318732 
  7.467516713759112   2.875146809991050  11.673616748318732 
 12.446928455169560   2.874292016873977  11.673616748318732 
 -1.247309681876537   9.344840125933002   5.002978606422314 
  0.000440499206418   2.867142768443043   5.002978606422314 
  4.978771382066512   2.922094431710182   5.002978606422314 
  3.727608578498263   9.266999030629792   5.002978606422314 
  8.715308907411652   9.333162933222747   5.002978606422314 
  9.957102264929459   2.867142768442835   5.002978606422314 
 -4.979127451268298  11.497502374716827  11.673616748318732 
  0.000356069200536  11.497502374716827  11.673616748318732 
  1.245964572542000   5.031133454677494  11.673616748318732 
  6.222691511993184   5.031596209175265  11.673616748318732 
  4.978771382067331  11.496195881030310  11.673616748318732 
 11.201696175327548   5.030723545275392  11.673616748318732 
 -1.237763565276468   5.026383526651195   5.002978606422314 
 -2.489385691033231  11.507631621320447   5.002978606422314 
  2.482644058533738  11.483646185158959   5.002978606422314 
  7.474898705603207  11.483646185158959   5.002978606422314 
  8.689981583551958   5.027452150198449   5.002978606422314 
  0.001135069188111   7.186512450424035  11.673616748318732 
  1.244827143181412   0.718219511590621  11.673616748318732 
  4.978771382066880   7.186478094808957  11.673616748318732 
  6.223389873465344   0.718753286556531  11.673616748318732 
  9.956407694943245   7.186512450424035  11.673616748318732 
 -2.489385691032725   7.184510545019064   5.002978606422314 
 11.202178913996811   0.717591337149136  11.673616748318732 
  3.739817862692815   0.737625569540033   5.002978606422314 
  2.512582449689944   7.208415257233465   5.002978606422314 
  7.444960314445182   7.208415257233168   5.002978606422314 
  8.706066397578546   0.721722918510190   5.002978606422314 
  2.490807391163170   7.186563303176619  11.673616748318732 
 13.691896483376119   0.698920664795993   5.002978606422314 
 -1.244248003311307   9.341959112435182  11.673616748318732 
  0.000566748359201   2.874549363768432  11.673616748318732 
  4.978771382066468   2.875426770281014  11.673616748318732 
  3.734650618794449   9.340789451358916  11.673616748318732 
  8.711851501585029   9.341535895767390  11.673616748318732 
  9.956976015774258   2.874549363768432  11.673616748318732 
 -3.731461700184732   9.344840125933002   5.002978606422314 
  1.242233856725053   9.333162933222747   5.002978606422314 
  2.491696850389429   2.892645129932064   5.002978606422314 
  6.229934185633525   9.266999030629792   5.002978606422314 
  7.465845913741697   2.892645129932064   5.002978606422314 
 12.446928455167441   2.863741272128314   5.002978606422314 
 -1.244153411194446   5.030723545275392  11.673616748318732 
 -2.489385691033239  11.497852033134343  11.673616748318732 
  2.489767714669984  11.496685224034845  11.673616748318732 
  3.734851252137873   5.031596209175265  11.673616748318732 
  7.467775049462002  11.496685224034845  11.673616748318732 
 -4.973177676175638  11.502100148066448   5.002978606422314 
  8.711578191592878   5.031133454677494  11.673616748318732 
 -0.005593705892634  11.502100148066448   5.002978606422314 
  1.267561180578395   5.027452150198449   5.002978606422314 
 -0.007508289261837   7.185576929832594   5.002978606422314 
  4.978771382069383  11.453000330986100   5.002978606422314 
 11.195306329405923   5.026383526651195   5.002978606422314 
 -2.489385691033136   7.186448188375687  11.673616748318732 
  3.734152890668935   0.718753286556531  11.673616748318732 
  7.466735372972191   7.186563303176619  11.673616748318732 
  8.712715620949432   0.718219511590621  11.673616748318732 
 13.691677996332555   0.717591337149136  11.673616748318732 
 -0.000983293838594   1.438393320685178   1.667049481799475 
  3.738090206444547   7.903511905366361   1.739828278419477 
  4.978771382066251   1.441501681402561   1.673328139908721 
  8.708351915908597   7.904299577792406   1.695745076608106 
  9.958526057971588   1.438393320685178   1.667049481799475 
 -4.981723852813528  10.060118046024824   8.328070353533782 
  0.002952470745494  10.060118046024824   8.328070353533782 
  1.244731515606805   3.596211451789869   8.332140000921292 
  4.978771382066672  10.057712253992914   8.293443909447964 
  6.223404406119254   3.599632249415667   8.320923190697446 
 11.202226318971345   3.594495642213817   8.339349576791571 
 -2.489385691033352  10.060913968627672   1.670361000315301 
 -1.244683554839528   3.594495642213816   1.666607636050469 
  3.734138358014624   3.599632249415666   1.685034022146715 
  2.493569807263985  10.058450117390272   1.698918156452076 
  7.463972956869987  10.058450117390272   1.698918156452076 
  8.712811248525727   3.596211451789868   1.673817211921869 
 -6.225762530006135  12.216619784051337   8.332337733050039 
 -1.243665050175178  12.218041484944816   8.336141335379365 
  0.001552489760133   5.750435615641458   8.329021004540678 
  4.978771382066216   5.755170729757707   8.285146416073953 
  3.735385321511639  12.215420359466350   8.327122252963436 
  9.955990274375090   5.750435615641458   8.329021004540678 
 -2.489385691033384   5.749944900376447   1.669038403026381 
 -3.735106331890897  12.218041484944816   1.669815877467718 
  1.246991147942436  12.216619784051337   1.673619479796843 
  2.492087834183227   5.752583489083688   1.699891066367956 
  6.222157442619854  12.215420359466350   1.678834959881737 
  7.465454929952907   5.752583489083688   1.699891066367956 
 -1.243129038907748   7.904946401181907   8.332721177132511 
 -0.000983293838564   1.438393320685178   8.338907731043818 
  3.738090206444548   7.903511905366362   8.266128934428112 
  4.978771382066252   1.441501681402562   8.332629072938134 
  8.708351915908597   7.904299577792407   8.310212136236682 
 -3.735642343157747   7.904946401181906   1.673236035710356 
  9.958526057971588   1.438393320685178   8.338907731043818 
  2.488470206296619   1.440332132629305   1.670622455284647 
  1.249190848221771   7.904299577792406   1.695745076608066 
  6.219452557688556   7.903511905366361   1.739828278419477 
  7.469072557834852   1.440332132629305   1.670622455284647 
  1.249190848221771   7.904299577792407   8.310212136236682 
 12.446928455166843   1.437612652036906   1.666095105445913 
 -2.489385691033351  10.060913968627672   8.335596212528912 
 -1.244683554839558   3.594495642213817   8.339349576791571 
  3.734138358014624   3.599632249415667   8.320923190697446 
  2.493569807263986  10.058450117390272   8.307039056389577 
  7.463972956869988  10.058450117390272   8.307039056389577 
  8.712811248525727   3.596211451789869   8.332140000921292 
 -4.981723852813529  10.060118046024824   1.677886859309859 
  0.002952470745494  10.060118046024824   1.677886859309859 
  1.244731515606805   3.596211451789868   1.673817211921869 
  4.978771382066671  10.057712253992914   1.712513303394129 
  6.223404406119253   3.599632249415666   1.685034022146715 
 11.202226318971345   3.594495642213816   1.666607636050469 
 -2.489385691033383   5.749944900376448   8.336918809819821 
 -3.735106331890896  12.218041484944816   8.336141335379365 
  1.246991147942436  12.216619784051337   8.332337733050039 
  2.492087834183228   5.752583489083689   8.306066146476377 
  6.222157442619855  12.215420359466350   8.327122252963436 
 -6.225762530006136  12.216619784051337   1.673619479796843 
  7.465454929952908   5.752583489083689   8.306066146476377 
 -1.243665050175179  12.218041484944816   1.669815877467718 
  0.001552489760132   5.750435615641457   1.676936208303417 
 -1.243129038907786   7.904946401181971   1.673236035710356 
  4.978771382066215   5.755170729757706   1.720810796768166 
  3.735385321511639  12.215420359466350   1.678834959881737 
  9.955990274375090   5.750435615641457   1.676936208303417 
 -3.735642343157762   7.904946401181907   8.332721177132511 
  2.488470206297403   1.440332132629242   8.335334757560341 
  6.219452557688557   7.903511905366362   8.266128934428112 
  7.469072557834853   1.440332132629306   8.335334757560341 
 12.446928455166843   1.437612652036907   8.339862107399849 
  1.244207413620684   0.720058259410515   1.663949301495445 
  4.978771382066208   7.186609867062193   1.704451272403079 
  6.223674414957076   0.720442387379076   1.666340731367652 
  9.957842139067907   7.186921301271057   1.672465619106487 
 11.202509989822403   0.719907932604549   1.662126078261072 
 -3.734115160086227   9.343146351109789   8.338833968061708 
  1.244792327676897   9.343076562700338   8.324005749930519 
  2.488479864514108   2.875998959866705   8.336237592425128 
  6.223383464263009   9.343416049032442   8.303562719767420 
  7.469062899619784   2.875998959866705   8.336237592425128 
 12.446928455164729   2.875492734974496   8.346085215108362 
 -1.244656221978133   9.343146351109789   1.667123244780892 
 -0.000882824924339   2.875509850563959   1.661715619516640 
  4.978771382067513   2.876353334349923   1.676056705068035 
  3.734159299872263   9.343416049032442   1.702394493077621 
  8.712750436455043   9.343076562700311   1.681951462914202 
  9.958425589057960   2.875509850563959   1.661715619516640 
 -4.979000022952370  11.499348843961883   8.338274587021740 
  0.000228640886611  11.499348843961883   8.338274587021846 
  1.243772870268782   5.031069185512701   8.331838005834980 
  6.224219152182928   5.031337000391577   8.320436034819247 
  4.978771382066816  11.499509817211106   8.327490573823701 
 11.202679944154584   5.031173935977522   8.341857633785420 
 -1.245137180021513   5.031173935977521   1.664099579058208 
 -2.489385691033232  11.499500997254776   1.664967087948730 
  2.489637699006856  11.499326250021461   1.674403598798183 
  3.733323611948590   5.031337000391576   1.685521178024646 
  7.467905065126550  11.499326250021461   1.674403598798183 
  8.713769893863708   5.031069185512648   1.674119207008673 
 -0.000299374936282   7.186921301271058   8.333491593739156 
  1.244207413620700   0.720058259410515   8.342007911348663 
  4.978771382066209   7.186609867062194   8.301505940441523 
  6.223674414957077   0.720442387379077   8.339616481477043 
  9.957842139067907   7.186921301271058   8.333491593739156 
 -2.489385691032681   7.187064229102167   1.664595150566591 
 11.202509989822403   0.719907932604550   8.343831134581889 
  3.733868349174215   0.720442387379076   1.666340731367652 
  2.488735628189950   7.186732083462031   1.695916441398261 
  7.468807135943988   7.186732083462031   1.695916441397967 
  8.713335350514370   0.720058259410515   1.663949301495458 
  2.488735628189950   7.186732083462032   8.310040771444552 
 13.691346920511446   0.719907932604549   1.662126078261045 
 -1.244656221978057   9.343146351109789   8.338833968061708 
 -0.000882824924339   2.875509850563960   8.344241593326746 
  4.978771382067514   2.876353334349924   8.329900507776832 
  3.734159299872263   9.343416049032442   8.303562719767420 
  8.712750436455027   9.343076562700338   8.324005749930519 
  9.958425589057960   2.875509850563960   8.344241593326746 
 -3.734115160086227   9.343146351109789   1.667123244780892 
  1.244792327676912   9.343076562700311   1.681951462914202 
  2.488479864514107   2.875998959866704   1.669719620419339 
  6.223383464263008   9.343416049032442   1.702394493077608 
  7.469062899619783   2.875998959866704   1.669719620419339 
 12.446928455164729   2.875492734974495   1.659871997737441 
 -1.245137180021513   5.031173935977522   8.341857633785420 
 -2.489385691033231  11.499500997254776   8.340990124894669 
  2.489637699006856  11.499326250021461   8.331553614045630 
  3.733323611948598   5.031337000391565   8.320436034817714 
  7.467905065126550  11.499326250021461   8.331553614045630 
 -4.979000022952378  11.499348843961895   1.667682625819725 
  8.713769893863677   5.031069185512701   8.331838005834980 
  0.000228640886603  11.499348843961895   1.667682625819725 
  1.243772870268781   5.031069185512700   1.674119207008673 
 -0.000299374936283   7.186921301271057   1.672465619106500 
  6.224219152182927   5.031337000391576   1.685521178024539 
  4.978771382066816  11.499509817211106   1.678466639019847 
 11.202679944154584   5.031173935977521   1.664099579058208 
 -2.489385691032681   7.187064229102168   8.341362062279396 
  3.733868349174215   0.720442387379077   8.339616481477043 
  7.468807135943988   7.186732083462032   8.310040771444552 
  8.713335350514377   0.720058259410502   8.342007911348663 
 13.691346920511446   0.719907932604550   8.343831134581889 
  0.000266175572378   1.429672177997464   5.002978606422314 
  3.672333892652976   7.895390804345296   5.002978606422314 
  4.978771382066534   1.471745958460616   5.002978606422314 
  8.748510565117954   7.896055602535001   5.002978606422314 
  9.957276588558839   1.429672177997464   5.002978606422314 
 -4.978723787107280  10.060679351400305  11.673616748318732 
 -0.000047594958840  10.060679351400305  11.673616748318732 
  1.244811235321786   3.593045223075154  11.673616748318732 
  4.978771382065881  10.060465984086088  11.673616748318732 
  6.223369349230883   3.593036230279813  11.673616748318732 
 11.202178705909589   3.593045969324143  11.673616748318732 
 -2.489385691033255  10.070430147445011   5.002978606422314 
 -1.246446621345995   3.584793903889683   5.002978606422314 
  3.722244772093652   3.629671249379477   5.002978606422314 
  2.471181729818227  10.065329761613164   5.002978606422314 
  7.486361034317790  10.065329761613164   5.002978606422314 
  8.720194103158956   3.583604672264990   5.002978606422314 
 -6.223389459783543  12.216451809073064  11.673616748318732 
 -1.244731491713169  12.216499243027146  11.673616748318732 
  0.000085522271762   5.749009902002752  11.673616748318732 
  4.978771382069293   5.748931770175432  11.673616748318732 
  3.734028939567878  12.216317271940342  11.673616748318732 
  9.957457241860684   5.749009902002752  11.673616748318732 
 -2.489385691033570   5.742968656097783   5.002978606422314 
 -3.728410408299469  12.232668826239793   5.002978606422314 
  1.234556893448782  12.223636205118179   5.002978606422314 
  2.507406521335421   5.717291861025157   5.002978606422314 
  6.225559822661897  12.205419320945387   5.002978606422314 
  7.450136242797351   5.717291861025157   5.002978606422314 
 -1.244687735274068   7.904874714535945  11.673616748318732 
  0.000103330529405   1.437029545666116  11.673616748318732 
  3.734106000419538   7.904770421237765  11.673616748318732 
  4.978771382064989   1.437132259397411  11.673616748318732 
  8.712812823576165   7.904842348053248  11.673616748318732 
 -3.722962295258150   7.906056339143769   5.002978606422314 
  9.957439433602993   1.437029545666116  11.673616748318732 
  2.496697352839472   1.450299598771494   5.002978606422314 
  1.209032199018000   7.896055602535001   5.002978606422314 
  6.285208871478885   7.895390804345478   5.002978606422314 
  7.460845411292058   1.450299598771494   5.002978606422314 
  1.244729940558134   7.904842348053248  11.673616748318732 
 12.446928455165086   1.426773022244964   5.002978606422314 
 -2.489385691033374  10.060677922130802  11.673616748318732 
 -1.244635941777339   3.593045969324143  11.673616748318732 
  3.734173414903264   3.593036230279813  11.673616748318732 
  2.489355960848672  10.060561371728575  11.673616748318732 
  7.468186803284765  10.060561371728575  11.673616748318732 
  8.712731528807565   3.593045223075154  11.673616748318732 
 -4.966731741432294  10.067300732937698   5.002978606422314 
 -0.012039640637248  10.067300732937698   5.002978606422314 
  1.237348660975176   3.583604672264990   5.002978606422314 
  4.978771382064783  10.040515689778639   5.002978606422314 
  6.235297992039313   3.629671249379477   5.002978606422314 
 11.203989385479115   3.584793903889669   5.002978606422314 
 -2.489385691033839   5.749024458739886  11.673616748318732 
 -3.734039890352965  12.216499243027146  11.673616748318732 
  1.244618077719275  12.216451809073064  11.673616748318732 
  2.489516948935747   5.748976230233621  11.673616748318732 
  6.223513824563886  12.216317271940342  11.673616748318732 
 -6.213328275515874  12.223636205118179   5.002978606422314 
  7.468025815199043   5.748976230233621  11.673616748318732 
 -1.250360973766173  12.232668826239793   5.002978606422314 
  0.003638416367792   5.741837756761064   5.002978606422314 
 -1.255809086809825   7.906056339143769   5.002978606422314 
  3.731982941468402  12.205419320945387   5.002978606422314 
  9.953904347765071   5.741837756761064   5.002978606422314 
 -3.734083646790680   7.904874714535945  11.673616748318732 
  2.489494506773110   1.437106136238547  11.673616748318732 
  6.223436763715509   7.904770421237765  11.673616748318732 
  7.468048257359063   1.437106136238547  11.673616748318732 
 12.446928455168409   1.437014606497092  11.673616748318732 
Generated by cif2cell 2.0.0.  :  Failed to get author information, No journal information. Species order: C B N 
 1.0
 14.936314146199660   0.000000000000000   0.000000000000000
 -7.468157073099825  12.935227489513863   0.000000000000000
  0.000000000000001   0.000000000000001  13.341276283792837
 C B N 
   3 141 143
Cartesian
  6.207242769022506   5.061031566078444   5.002978606422314 
  3.750299995113418   5.061031566078444   5.002978606422314 
  4.978771382065872   5.670167248810868   5.002978606422314 
  1.251476366556447   0.721722918510190   5.002978606422314 
  6.217724901440119   0.737625569540007   5.002978606422314 
  9.965051053398255   7.185576929832594   5.002978606422314 
 11.201960426956591   0.698920664795993   5.002978606422314 
 -3.734523378753964   9.341959112435182  11.673616748318732 
  1.245691262547881   9.341535895767390  11.673616748318732 
  2.490026050374646   2.875146809991050  11.673616748318732 
  6.222892145340314   9.340789451358916  11.673616748318732 
  7.467516713759112   2.875146809991050  11.673616748318732 
 12.446928455169560   2.874292016873977  11.673616748318732 
 -1.247309681876537   9.344840125933002   5.002978606422314 
  0.000440499206418   2.867142768443043   5.002978606422314 
  4.978771382066512   2.922094431710182   5.002978606422314 
  3.727608578498263   9.266999030629792   5.002978606422314 
  8.715308907411652   9.333162933222747   5.002978606422314 
  9.957102264929459   2.867142768442835   5.002978606422314 
 -4.979127451268298  11.497502374716827  11.673616748318732 
  0.000356069200536  11.497502374716827  11.673616748318732 
  1.245964572542000   5.031133454677494  11.673616748318732 
  6.222691511993184   5.031596209175265  11.673616748318732 
  4.978771382067331  11.496195881030310  11.673616748318732 
 11.201696175327548   5.030723545275392  11.673616748318732 
 -1.237763565276468   5.026383526651195   5.002978606422314 
 -2.489385691033231  11.507631621320447   5.002978606422314 
  2.482644058533738  11.483646185158959   5.002978606422314 
  7.474898705603207  11.483646185158959   5.002978606422314 
  8.689981583551958   5.027452150198449   5.002978606422314 
  0.001135069188111   7.186512450424035  11.673616748318732 
  1.244827143181412   0.718219511590621  11.673616748318732 
  4.978771382066880   7.186478094808957  11.673616748318732 
  6.223389873465344   0.718753286556531  11.673616748318732 
  9.956407694943245   7.186512450424035  11.673616748318732 
 -2.489385691032725   7.184510545019064   5.002978606422314 
 11.202178913996811   0.717591337149136  11.673616748318732 
  3.739817862692815   0.737625569540033   5.002978606422314 
  2.512582449689944   7.208415257233465   5.002978606422314 
  7.444960314445182   7.208415257233168   5.002978606422314 
  8.706066397578546   0.721722918510190   5.002978606422314 
  2.490807391163170   7.186563303176619  11.673616748318732 
 13.691896483376119   0.698920664795993   5.002978606422314 
 -1.244248003311307   9.341959112435182  11.673616748318732 
  0.000566748359201   2.874549363768432  11.673616748318732 
  4.978771382066468   2.875426770281014  11.673616748318732 
  3.734650618794449   9.340789451358916  11.673616748318732 
  8.711851501585029   9.341535895767390  11.673616748318732 
  9.956976015774258   2.874549363768432  11.673616748318732 
 -3.731461700184732   9.344840125933002   5.002978606422314 
  1.242233856725053   9.333162933222747   5.002978606422314 
  2.491696850389429   2.892645129932064   5.002978606422314 
  6.229934185633525   9.266999030629792   5.002978606422314 
  7.465845913741697   2.892645129932064   5.002978606422314 
 12.446928455167441   2.863741272128314   5.002978606422314 
 -1.244153411194446   5.030723545275392  11.673616748318732 
 -2.489385691033239  11.497852033134343  11.673616748318732 
  2.489767714669984  11.496685224034845  11.673616748318732 
  3.734851252137873   5.031596209175265  11.673616748318732 
  7.467775049462002  11.496685224034845  11.673616748318732 
 -4.973177676175638  11.502100148066448   5.002978606422314 
  8.711578191592878   5.031133454677494  11.673616748318732 
 -0.005593705892634  11.502100148066448   5.002978606422314 
  1.267561180578395   5.027452150198449   5.002978606422314 
 -0.007508289261837   7.185576929832594   5.002978606422314 
  4.978771382069383  11.453000330986100   5.002978606422314 
 11.195306329405923   5.026383526651195   5.002978606422314 
 -2.489385691033136   7.186448188375687  11.673616748318732 
  3.734152890668935   0.718753286556531  11.673616748318732 
  7.466735372972191   7.186563303176619  11.673616748318732 
  8.712715620949432   0.718219511590621  11.673616748318732 
 13.691677996332555   0.717591337149136  11.673616748318732 
 -0.000983293838594   1.438393320685178   1.667049481799475 
  3.738090206444547   7.903511905366361   1.739828278419477 
  4.978771382066251   1.441501681402561   1.673328139908721 
  8.708351915908597   7.904299577792406   1.695745076608106 
  9.958526057971588   1.438393320685178   1.667049481799475 
 -4.981723852813528  10.060118046024824   8.328070353533782 
  0.002952470745494  10.060118046024824   8.328070353533782 
  1.244731515606805   3.596211451789869   8.332140000921292 
  4.978771382066672  10.057712253992914   8.293443909447964 
  6.223404406119254   3.599632249415667   8.320923190697446 
 11.202226318971345   3.594495642213817   8.339349576791571 
 -2.489385691033352  10.060913968627672   1.670361000315301 
 -1.244683554839528   3.594495642213816   1.666607636050469 
  3.734138358014624   3.599632249415666   1.685034022146715 
  2.493569807263985  10.058450117390272   1.698918156452076 
  7.463972956869987  10.058450117390272   1.698918156452076 
  8.712811248525727   3.596211451789868   1.673817211921869 
 -6.225762530006135  12.216619784051337   8.332337733050039 
 -1.243665050175178  12.218041484944816   8.336141335379365 
  0.001552489760133   5.750435615641458   8.329021004540678 
  4.978771382066216   5.755170729757707   8.285146416073953 
  3.735385321511639  12.215420359466350   8.327122252963436 
  9.955990274375090   5.750435615641458   8.329021004540678 
 -2.489385691033384   5.749944900376447   1.669038403026381 
 -3.735106331890897  12.218041484944816   1.669815877467718 
  1.246991147942436  12.216619784051337   1.673619479796843 
  2.492087834183227   5.752583489083688   1.699891066367956 
  6.222157442619854  12.215420359466350   1.678834959881737 
  7.465454929952907   5.752583489083688   1.699891066367956 
 -1.243129038907748   7.904946401181907   8.332721177132511 
 -0.000983293838564   1.438393320685178   8.338907731043818 
  3.738090206444548   7.903511905366362   8.266128934428112 
  4.978771382066252   1.441501681402562   8.332629072938134 
  8.708351915908597   7.904299577792407   8.310212136236682 
 -3.735642343157747   7.904946401181906   1.673236035710356 
  9.958526057971588   1.438393320685178   8.338907731043818 
  2.488470206296619   1.440332132629305   1.670622455284647 
  1.249190848221771   7.904299577792406   1.695745076608066 
  6.219452557688556   7.903511905366361   1.739828278419477 
  7.469072557834852   1.440332132629305   1.670622455284647 
  1.249190848221771   7.904299577792407   8.310212136236682 
 12.446928455166843   1.437612652036906   1.666095105445913 
 -2.489385691033351  10.060913968627672   8.335596212528912 
 -1.244683554839558   3.594495642213817   8.339349576791571 
  3.734138358014624   3.599632249415667   8.320923190697446 
  2.493569807263986  10.058450117390272   8.307039056389577 
  7.463972956869988  10.058450117390272   8.307039056389577 
  8.712811248525727   3.596211451789869   8.332140000921292 
 -4.981723852813529  10.060118046024824   1.677886859309859 
  0.002952470745494  10.060118046024824   1.677886859309859 
  1.244731515606805   3.596211451789868   1.673817211921869 
  4.978771382066671  10.057712253992914   1.712513303394129 
  6.223404406119253   3.599632249415666   1.685034022146715 
 11.202226318971345   3.594495642213816   1.666607636050469 
 -2.489385691033383   5.749944900376448   8.336918809819821 
 -3.735106331890896  12.218041484944816   8.336141335379365 
  1.246991147942436  12.216619784051337   8.332337733050039 
  2.492087834183228   5.752583489083689   8.306066146476377 
  6.222157442619855  12.215420359466350   8.327122252963436 
 -6.225762530006136  12.216619784051337   1.673619479796843 
  7.465454929952908   5.752583489083689   8.306066146476377 
 -1.243665050175179  12.218041484944816   1.669815877467718 
  0.001552489760132   5.750435615641457   1.676936208303417 
 -1.243129038907786   7.904946401181971   1.673236035710356 
  4.978771382066215   5.755170729757706   1.720810796768166 
  3.735385321511639  12.215420359466350   1.678834959881737 
  9.955990274375090   5.750435615641457   1.676936208303417 
 -3.735642343157762   7.904946401181907   8.332721177132511 
  2.488470206297403   1.440332132629242   8.335334757560341 
  6.219452557688557   7.903511905366362   8.266128934428112 
  7.469072557834853   1.440332132629306   8.335334757560341 
 12.446928455166843   1.437612652036907   8.339862107399849 
  1.244207413620684   0.720058259410515   1.663949301495445 
  4.978771382066208   7.186609867062193   1.704451272403079 
  6.223674414957076   0.720442387379076   1.666340731367652 
  9.957842139067907   7.186921301271057   1.672465619106487 
 11.202509989822403   0.719907932604549   1.662126078261072 
 -3.734115160086227   9.343146351109789   8.338833968061708 
  1.244792327676897   9.343076562700338   8.324005749930519 
  2.488479864514108   2.875998959866705   8.336237592425128 
  6.223383464263009   9.343416049032442   8.303562719767420 
  7.469062899619784   2.875998959866705   8.336237592425128 
 12.446928455164729   2.875492734974496   8.346085215108362 
 -1.244656221978133   9.343146351109789   1.667123244780892 
 -0.000882824924339   2.875509850563959   1.661715619516640 
  4.978771382067513   2.876353334349923   1.676056705068035 
  3.734159299872263   9.343416049032442   1.702394493077621 
  8.712750436455043   9.343076562700311   1.681951462914202 
  9.958425589057960   2.875509850563959   1.661715619516640 
 -4.979000022952370  11.499348843961883   8.338274587021740 
  0.000228640886611  11.499348843961883   8.338274587021846 
  1.243772870268782   5.031069185512701   8.331838005834980 
  6.224219152182928   5.031337000391577   8.320436034819247 
  4.978771382066816  11.499509817211106   8.327490573823701 
 11.202679944154584   5.031173935977522   8.341857633785420 
 -1.245137180021513   5.031173935977521   1.664099579058208 
 -2.489385691033232  11.499500997254776   1.664967087948730 
  2.489637699006856  11.499326250021461   1.674403598798183 
  3.733323611948590   5.031337000391576   1.685521178024646 
  7.467905065126550  11.499326250021461   1.674403598798183 
  8.713769893863708   5.031069185512648   1.674119207008673 
 -0.000299374936282   7.186921301271058   8.333491593739156 
  1.244207413620700   0.720058259410515   8.342007911348663 
  4.978771382066209   7.186609867062194   8.301505940441523 
  6.223674414957077   0.720442387379077   8.339616481477043 
  9.957842139067907   7.186921301271058   8.333491593739156 
 -2.489385691032681   7.187064229102167   1.664595150566591 
 11.202509989822403   0.719907932604550   8.343831134581889 
  3.733868349174215   0.720442387379076   1.666340731367652 
  2.488735628189950   7.186732083462031   1.695916441398261 
  7.468807135943988   7.186732083462031   1.695916441397967 
  8.713335350514370   0.720058259410515   1.663949301495458 
  2.488735628189950   7.186732083462032   8.310040771444552 
 13.691346920511446   0.719907932604549   1.662126078261045 
 -1.244656221978057   9.343146351109789   8.338833968061708 
 -0.000882824924339   2.875509850563960   8.344241593326746 
  4.978771382067514   2.876353334349924   8.329900507776832 
  3.734159299872263   9.343416049032442   8.303562719767420 
  8.712750436455027   9.343076562700338   8.324005749930519 
  9.958425589057960   2.875509850563960   8.344241593326746 
 -3.734115160086227   9.343146351109789   1.667123244780892 
  1.244792327676912   9.343076562700311   1.681951462914202 
  2.488479864514107   2.875998959866704   1.669719620419339 