 B N P 
 1.0
 14.936314146199660   0.000000000000000   0.000000000000000
 -7.468157073099825  12.935227489513863   0.000000000000000
  0.000000000000001   0.000000000000001  13.341276283792837
 B N P 
 143 144   1
Cartesian
  1.222634591485166   0.693936480239734   5.002978606422314 
  5.006332221087811   7.281319036014323   5.002978606422314 
  6.245522481613730   0.693936480239592   5.002978606422314 
  9.965165286906693   7.187192444945834   5.002978606422314 
 11.202235609649751   0.718623749417456   5.002978606422314 
 -3.734078536549858   9.342108742426666  11.673616748318732 
  1.244512506977914   9.343076523138011  11.673616748318732 
  2.488607289302116   2.873616092180485  11.673616748318732 
  6.223644566119251   9.343076523138011  11.673616748318732 
  7.469385792288743   2.873785596316442  11.673616748318732 
 12.446378603393651   2.874036339281004  11.673616748318732 
 -1.249331118533929   9.348232565404698   5.002978606422314 
 -0.032363417703482   2.855809969746484   5.002978606422314 
  5.047333993219777   2.803085840008665   5.002978606422314 
  3.734078536552749   9.379478798271608   5.002978606422314 
  8.717488191630196   9.348232565404698   5.002978606422314 
  9.967170778585551   2.867377063113853   5.002978606422314 
 -4.978942192758784  11.497728159733379  11.673616748318732 
  0.000278293097743  11.498140663278253  11.673616748318732 
  1.243542490168527   5.030131582995413  11.673616748318732 
  6.224614582937359   5.030131582995413  11.673616748318732 
  4.978649098140404  11.498685505476798  11.673616748318732 
 11.202235609645925   5.030044900730021  11.673616748318732 
 -1.277101774790796   5.023606872157336   5.002978606422314 
 -2.486401441276420  11.490901216930338   5.002978606422314 
  2.490735995957483  11.509877063063612   5.002978606422314 
  7.463961375401868  11.500402377874304   5.002978606422314 
  8.745258847889630   5.023606872157336   5.002978606422314 
 -0.000669208104046   7.186623861653098  11.673616748318732 
  1.243944892104129   0.717983681308872  11.673616748318732 
  4.979143335690983   7.187351062592223  11.673616748318732 
  6.224212180993447   0.717983681308872  11.673616748318732 
  9.957846261475670   7.186215483248211  11.673616748318732 
 -2.497008213805947   7.187192444945834   5.002978606422314 
 11.202235609649751   0.718623749417457  11.673616748318732 
  3.734078536550050   0.691362205564714   5.002978606422314 
  2.461824852012041   7.281319036014271   5.002978606422314 
  7.491766262621073   7.199868266103081   5.002978606422314 
  8.723828237995862   0.713844611589659   5.002978606422314 
  2.489013737415142   7.187351062592223  11.673616748318732 
 13.680642981306464   0.713844611589659   5.002978606422314 
 -1.244825532165894   9.342382584297720  11.673616748318732 
 -0.001228719186012   2.873785596316442  11.673616748318732 
  4.979549783795045   2.873616092180485  11.673616748318732 
  3.734078536552757   9.343527545131888  11.673616748318732 
  8.712982605266928   9.342382584297720  11.673616748318732 
  9.958092615909576   2.874036339281030  11.673616748318732 
 -3.734078536549858   9.342108742426664   5.002978606422314 
  1.234342170273037   9.373555385370558   5.002978606422314 
  2.420823079878891   2.803085840008665   5.002978606422314 
  6.233814902824981   9.373555385370558   5.002978606422314 
  7.500520490805673   2.855809969746484   5.002978606422314 
 12.437300440710580   2.867377063113853   5.002978606422314 
 -1.245621137466149   5.030038533322146  11.673616748318732 
 -2.489214880340332  11.497728159733379  11.673616748318732 
  2.489507974958767  11.498685505476798  11.673616748318732 
  3.734078536549918   5.030366245922021  11.673616748318732 
  7.467878779994451  11.498140663278253  11.673616748318732 
 -4.981755631825310  11.490901216930338   5.002978606422314 
  8.713778210564506   5.030038533322146  11.673616748318732 
  0.004195697700718  11.500402377874304   5.002978606422314 
  1.148569395341551   5.006693861744058   5.002978606422314 
 -0.023609189524061   7.199868266103081   5.002978606422314 
  6.319587677758216   5.006693861744098   5.002978606422314 
  4.977421077143251  11.509877063063612   5.002978606422314 
 11.202235609650547   5.025521471529911   5.002978606422314 
 -2.489689188375606   7.186215483248211  11.673616748318732 
  3.734078536549811   0.717851014459298  11.673616748318732 
  7.468826281204407   7.186623861653098  11.673616748318732 
  8.713522054315606   0.718376893006647  11.673616748318732 
 13.690949164981301   0.718376893006647  11.673616748318732 
 -0.001155445503538   1.435443873608523   1.619893171379057 
  3.734078536549373   7.908708067376176   1.638603720900319 
  4.979496487555038   1.432399204184294   1.627178897370723 
  8.715515835039081   7.906400411159810   1.622349289248538 
  9.958012949779953   1.436976037025821   1.621737294880925 
 -4.978033867125069  10.060306687393354   8.380482530078032 
 -0.001687695228595  10.061583235205525   8.387817923279362 
  1.241361398396279   3.591195335195029   8.367353491946522 
  4.979755644579466  10.062634949614477   8.386064041466652 
  6.226795674703779   3.591195335195029   8.367353491946522 
 11.202235609652067   3.593399314851886   8.387673119331396 
 -2.490123205973749  10.060306687393352   1.625474682764540 
 -1.246832553533098   3.593019914541279   1.619893171379137 
  3.734078536551858   3.586414400310288   1.670866077207926 
  2.488401428521523  10.062634949614475   1.619893171379057 
  7.469844768327822  10.061583235205523   1.618139289565117 
  8.714989626632200   3.593019914541279   1.619893171379137 
 -6.223357145333866  12.214716781474372   8.387817923279362 
 -1.244799927768119  12.214716781474372   8.387817923279362 
 -0.004561299072929   5.750786182891265   8.378778315475520 
  4.984577516688177   5.752342168726193   8.335091135637063 
  3.734078536553476  12.217146663710542   8.384219917961488 
  9.959123377109909   5.750026210600549   8.387817923279362 
 -2.490966304012255   5.750026210600548   1.618139289565251 
 -3.734078536549962  12.213525404966010   1.622349289248525 
  1.244449866701877  12.216463456212008   1.618284093509164 
  2.483579556411660   5.752342168726192   1.670866077207419 
  6.223707206398427  12.216463456212008   1.618284093509164 
  7.472718372178262   5.750786182891265   1.627178897370710 
 -1.247358761942604   7.906400411159811   8.383607923595502 
 -0.001155445503538   1.435443873608524   8.386064041466652 
  3.734078536549374   7.908708067376176   8.367353491946510 
  4.979496487555046   1.432399204184282   8.378778315475520 
  8.715515835039081   7.906400411159811   8.383607923595502 
 -3.734078536548978   7.905712852489406   1.625474682764540 
  9.958012949779953   1.436976037025821   8.384219917961488 
  2.488660585548482   1.432399204184294   1.627178897370723 
  1.240856651928773   7.907913350689985   1.627178897370723 
  6.227300421173425   7.907913350689985   1.627178897370723 
  7.469312518603862   1.435443873608523   1.619893171379137 
  1.240856651928774   7.907913350689986   8.378778315475520 
 12.446458269525335   1.436976037025821   1.621737294880925 
 -2.490123205973749  10.060306687393354   8.380482530078032 
 -1.246832553533143   3.593019914541280   8.386064041466652 
  3.734078536551866   3.586414400310276   8.335091135637049 
  2.488401428521523  10.062634949614477   8.386064041466652 
  7.469844768327823  10.061583235205525   8.387817923279362 
  8.714989626632200   3.593019914541280   8.386064041466652 
 -4.978033867125070  10.060306687393352   1.625474682764540 
 -0.001687695228595  10.061583235205523   1.618139289565117 
  1.241361398396279   3.591195335195028   1.638603720900319 
  4.979755644579465  10.062634949614475   1.619893171379137 
  6.226795674703778   3.591195335195028   1.638603720900333 
 11.202235609652067   3.593399314851885   1.618284093509164 
 -2.490966304012254   5.750026210600549   8.387817923279362 
 -3.734078536549932  12.213525404966012   8.383607923595502 
  1.244449866701877  12.216463456212010   8.387673119331396 
  2.483579556411660   5.752342168726193   8.335091135637063 
  6.223707206398339  12.216463456212010   8.387673119331396 
 -6.223357145333867  12.214716781474371   1.618139289565104 
  7.472718372178263   5.750786182891265   8.378778315475520 
 -1.244799927768067  12.214716781474280   1.618139289565104 
 -0.004561299072944   5.750786182891265   1.627178897370710 
 -1.247358761942605   7.906400411159810   1.622349289248525 
  4.984577516688177   5.752342168726192   1.670866077207926 
  3.734078536553476  12.217146663710540   1.621737294880925 
  9.959123377109909   5.750026210600548   1.618139289565117 
 -3.734078536548986   7.905712852489420   8.380482530078138 
  2.488660585548490   1.432399204184282   8.378778315475413 
  6.227300421173426   7.907913350689986   8.378778315475547 
  7.469312518603862   1.435443873608524   8.386064041466652 
 12.446458269525335   1.436976037025821   8.384219917961488 
  1.244995414591340   0.718466419427276   1.625442175942263 
  4.979032355750474   7.186004574885349   1.660210853598146 
  6.223161658509073   0.718466419427302   1.625442175942263 
  9.957665808116246   7.186405538263798   1.628196008718286 
 11.202235609649751   0.718623749417456   1.628956370583647 
 -3.734078536549858   9.342108742426664   8.371292582596551 
  1.244405309209656   9.341925374920095   8.380515036900578 
  2.489717891898799   2.874385447473228   8.345746359247537 
  6.223751763887897   9.341925374920095   8.380515036900617 
  7.467685109876308   2.874767485764739   8.374549407604114 
 12.447126188496886   2.874781033443831   8.380848607873343 
 -1.244899897959451   9.342131279593946   1.628196008718286 
  0.000471963225571   2.874767485764739   1.631407805242221 
  4.978439181203947   2.874385447473227   1.660210853598133 
  3.734078536552711   9.341563766234385   1.631407805242234 
  8.713056971060288   9.342131279593946   1.628196008718286 
  9.957345030798557   2.874781033443830   1.625108604973833 
 -4.978687373606623  11.497789409419042   8.377761204123352 
 -0.000227461957051  11.497848665462328   8.384255162546657 
  1.244764072697869   5.030708715406427   8.345746359247537 
  6.223393000403907   5.030708715406427   8.345746359247523 
  4.978920229644038  11.497665730704504   8.380848607873343 
 11.202235609644983   5.030628896363527   8.384255162546657 
 -1.244677812747263   5.030706943421643   1.625442175942317 
 -2.489469699494758  11.497789409419028   1.628196008718286 
  2.489236843451319  11.497665730704503   1.625108604973833 
  3.734078536549917   5.030366245922020   1.755281117706394 
  7.468384535047347  11.497848665462326   1.621702050300398 
  8.712834885848785   5.030706943421643   1.625442175942263 
 -0.000266594406435   7.186391412527085   8.373458551049811 
  1.244995414591280   0.718466419427303   8.380515036900617 
  4.979032355750475   7.186004574885350   8.345746359247537 
  6.223161658509074   0.718466419427303   8.380515036900617 
  9.957665808116262   7.186405538263799   8.377761204123352 
 -2.489508735015351   7.186405538263798   1.628196008718286 
 11.202235609649751   0.718623749417456   8.377000842266597 
  3.734078536551992   0.718315912709591   1.632498661792816 
  2.489124717349436   7.186004574885349   1.660210853598133 
  7.468423667505616   7.186391412527084   1.632498661793630 
  8.712503337701772   0.718651973621597   1.625108604973833 
  2.489124717349437   7.186004574885350   8.345746359247523 
 13.691967881592820   0.718651973621597   1.625108604973833 
 -1.244899897959443   9.342131279593934   8.377761204123352 
  0.000471963225571   2.874767485764739   8.374549407604061 
  4.978439181203948   2.874385447473228   8.345746359247537 
  3.734078536552711   9.341563766234387   8.374549407604114 
  8.713056971060304   9.342131279593948   8.377761204123352 
  9.957345030798557   2.874781033443831   8.380848607873343 
 -3.734078536549859   9.342108742426664   1.634664630246689 
  1.244405309209656   9.341925374920093   1.625442175942263 
  2.489717891898798   2.874385447473227   1.660210853598160 
  6.223751763887896   9.341925374920093   1.625442175942317 
  7.467685109876307   2.874767485764739   1.631407805242074 
 12.447126188496886   2.874781033443830   1.625108604973833 
 -1.244677812747248   5.030706943421644   8.380515036900578 
 -2.489469699494757  11.497789409419029   8.377761204123352 
  2.489236843451320  11.497665730704504   8.380848607873343 
  3.734078536549917   5.030366245922021   8.250676095140689 
  7.468384535047348  11.497848665462328   8.384255162546657 
 -4.978687373606616  11.497789409419028   1.628196008718286 
  8.712834885848785   5.030706943421644   8.380515036900658 
 -0.000227461957051  11.497848665462326   1.621702050300398 
  1.244764072697869   5.030708715406426   1.660210853598146 
 -0.000266594406436   7.186391412527084   1.632498661792816 
  6.223393000403906   5.030708715406426   1.660210853598146 
  4.978920229644038  11.497665730704503   1.625108604973833 
 11.202235609644983   5.030628896363526   1.621702050300398 
 -2.489508735015350   7.186405538263799   8.377761204123352 
  3.734078536552000   0.718315912709578   8.373458551049811 
  7.468423667505617   7.186391412527085   8.373458551049811 
  8.712503337701772   0.718651973621598   8.380848607873343 
 13.691967881592820   0.718651973621598   8.380848607873343 
 -0.007103846413230   1.430615821690071   5.002978606422314 
  3.734078536548522   7.921528389619944   5.002978606422314 
  4.989943399977310   1.409302603609448   5.002978606422314 
  8.719537539643751   7.908722343392408   5.002978606422314 
  9.960205512478538   1.435710160360551   5.002978606422314 
 -4.978848510153269  10.060777021766469  11.673616748318732 
  0.000160640542442  10.060756394560046  11.673616748318732 
  1.244742803601697   3.593147590400953  11.673616748318732 
  4.978680879813045  10.060792380481940  11.673616748318732 
  6.223414269497867   3.593147590400953  11.673616748318732 
 11.202235609651233   3.593016111544299  11.673616748318732 
 -2.490503185194144  10.060087306290397   5.002978606422314 
 -1.253987969599613   3.590282474199615   5.002978606422314 
  3.734078536548058   3.494604364178171   5.002978606422314 
  2.487194413361816  10.070200441875187   5.002978606422314 
  7.473209910705655  10.067906446176922   5.002978606422314 
  8.722145042705137   3.590282474199615   5.002978606422314 
 -6.223565248210461  12.216730907528195  11.673616748318732 
 -1.244591824885682  12.216730907528195  11.673616748318732 
  0.000208873639027   5.748810186427559  11.673616748318732 
  4.978509151908427   5.748838596687072  11.673616748318732 
  3.734078536548547  12.216655379128685  11.673616748318732 
  9.957483144222106   5.748838925190848  11.673616748318732 
 -2.498124936534470   5.749778903901302   5.002978606422314 
 -3.734078536549514  12.208881540495614   5.002978606422314 
  1.246311070735503  12.217538022860399   5.002978606422314 
  2.404069732793192   5.798247186795544   5.002978606422314 
  6.221846002367296  12.217538022860399   5.002978606422314 
  7.497944071227783   5.753287191629890   5.002978606422314 
 -1.244498262446431   7.904748901003583  11.673616748318732 
 -0.000097116212378   1.437295931764791  11.673616748318732 
  3.734078536549463   7.904803556964329  11.673616748318732 
  4.978822664332395   1.437518293168673  11.673616748318732 
  8.712655335547357   7.904748901003583  11.673616748318732 
 -3.734078536550419   7.906151614701023   5.002978606422314 
  9.957587484845728   1.437221679318342  11.673616748318732 
  2.478213673119071   1.409302603609267   5.002978606422314 
  1.226077865299506   7.928508942528848   5.002978606422314 
  6.242079207799150   7.928508942528848   5.002978606422314 
  7.475260919512194   1.430615821690071   5.002978606422314 
  1.244953001420758   7.904770258171747  11.673616748318732 
 12.444265706819177   1.435710160360551   5.002978606422314 
 -2.489308562948896  10.060777021766469  11.673616748318732 
 -1.244699459476249   3.593010425517111  11.673616748318732 
  3.734078536548423   3.593421544394507  11.673616748318732 
  2.489476193288961  10.060792380481940  11.673616748318732 
  7.467996432558367  10.060756394560046  11.673616748318732 
  8.712856532570466   3.593010425517111  11.673616748318732 
 -4.977653887906679  10.060087306290397   5.002978606422314 
 -0.005052837606324  10.067906446176922   5.002978606422314 
  1.230258673646845   3.584785174073144   5.002978606422314 
  4.980962659740979  10.070200441875187   5.002978606422314 
  6.237898399450732   3.584785174073144   5.002978606422314 
 11.202235609650090   3.591250181558532   5.002978606422314 
 -2.489326071118597   5.748838925190848  11.673616748318732 
 -3.734078536549558  12.216828425271482  11.673616748318732 
  1.244781730507603  12.216655057866529  11.673616748318732 
  2.489647921191410   5.748838596687072  11.673616748318732 
  6.223375342597987  12.216655057866529  11.673616748318732 
 -6.227150635478317  12.208640877202130   5.002978606422314 
  7.467948199458823   5.748810186427559  11.673616748318732 
 -1.241006437622221  12.208640877202130   5.002978606422314 
 -0.029786998130368   5.753287191630175   5.002978606422314 
 -1.251380466543749   7.908722343392408   5.002978606422314 
  5.064087340306658   5.798247186795544   5.002978606422314 
  3.734078536548800  12.219678417046099   5.002978606422314 
  9.966282009633604   5.749778903901302   5.002978606422314 
 -3.734078536549694   7.904772183748891  11.673616748318732 
  2.489334408767080   1.437518293168673  11.673616748318732 
  6.223204071675240   7.904770258171747  11.673616748318732 
  7.468254189311554   1.437295931764791  11.673616748318732 
 12.446883734452779   1.437221679318342  11.673616748318732 
  3.734078536549917   5.030366245922021   5.002978606422314 
Generated by cif2cell 2.0.0.  :  Failed to get author information, No journal information. Species order: B N P 
 1.0
 14.936314146199660   0.000000000000000   0.000000000000000
 -7.468157073099825  12.935227489513863   0.000000000000000
  0.000000000000001   0.000000000000001  13.341276283792837
 B N P 
 143 144   1
Cartesian
  1.222634591485166   0.693936480239734   5.002978606422314 
  5.006332221087811   7.281319036014323   5.002978606422314 
  6.245522481613730   0.693936480239592   5.002978606422314 
  9.965165286906693   7.187192444945834   5.002978606422314 
 11.202235609649751   0.718623749417456   5.002978606422314 
 -3.734078536549858   9.342108742426666  11.673616748318732 
  1.244512506977914   9.343076523138011  11.673616748318732 
  2.488607289302116   2.873616092180485  11.673616748318732 
  6.223644566119251   9.343076523138011  11.673616748318732 
  7.469385792288743   2.873785596316442  11.673616748318732 
 12.446378603393651   2.874036339281004  11.673616748318732 
 -1.249331118533929   9.348232565404698   5.002978606422314 
 -0.032363417703482   2.855809969746484   5.002978606422314 
  5.047333993219777   2.803085840008665   5.002978606422314 
  3.734078536552749   9.379478798271608   5.002978606422314 
  8.717488191630196   9.348232565404698   5.002978606422314 
  9.967170778585551   2.867377063113853   5.002978606422314 
 -4.978942192758784  11.497728159733379  11.673616748318732 
  0.000278293097743  11.498140663278253  11.673616748318732 
  1.243542490168527   5.030131582995413  11.673616748318732 
  6.224614582937359   5.030131582995413  11.673616748318732 
  4.978649098140404  11.498685505476798  11.673616748318732 
 11.202235609645925   5.030044900730021  11.673616748318732 
 -1.277101774790796   5.023606872157336   5.002978606422314 
 -2.486401441276420  11.490901216930338   5.002978606422314 
  2.490735995957483  11.509877063063612   5.002978606422314 
  7.463961375401868  11.500402377874304   5.002978606422314 
  8.745258847889630   5.023606872157336   5.002978606422314 
 -0.000669208104046   7.186623861653098  11.673616748318732 
  1.243944892104129   0.717983681308872  11.673616748318732 
  4.979143335690983   7.187351062592223  11.673616748318732 
  6.224212180993447   0.717983681308872  11.673616748318732 
  9.957846261475670   7.186215483248211  11.673616748318732 
 -2.497008213805947   7.187192444945834   5.002978606422314 
 11.202235609649751   0.718623749417457  11.673616748318732 
  3.734078536550050   0.691362205564714   5.002978606422314 
  2.461824852012041   7.281319036014271   5.002978606422314 
  7.491766262621073   7.199868266103081   5.002978606422314 
  8.723828237995862   0.713844611589659   5.002978606422314 
  2.489013737415142   7.187351062592223  11.673616748318732 
 13.680642981306464   0.713844611589659   5.002978606422314 
 -1.244825532165894   9.342382584297720  11.673616748318732 
 -0.001228719186012   2.873785596316442  11.673616748318732 
  4.979549783795045   2.873616092180485  11.673616748318732 
  3.734078536552757   9.343527545131888  11.673616748318732 
  8.712982605266928   9.342382584297720  11.673616748318732 
  9.958092615909576   2.874036339281030  11.673616748318732 
 -3.734078536549858   9.342108742426664   5.002978606422314 
  1.234342170273037   9.373555385370558   5.002978606422314 
  2.420823079878891   2.803085840008665   5.002978606422314 
  6.233814902824981   9.373555385370558   5.002978606422314 
  7.500520490805673   2.855809969746484   5.002978606422314 
 12.437300440710580   2.867377063113853   5.002978606422314 
 -1.245621137466149   5.030038533322146  11.673616748318732 
 -2.489214880340332  11.497728159733379  11.673616748318732 
  2.489507974958767  11.498685505476798  11.673616748318732 
  3.734078536549918   5.030366245922021  11.673616748318732 
  7.467878779994451  11.498140663278253  11.673616748318732 
 -4.981755631825310  11.490901216930338   5.002978606422314 
  8.713778210564506   5.030038533322146  11.673616748318732 
  0.004195697700718  11.500402377874304   5.002978606422314 
  1.148569395341551   5.006693861744058   5.002978606422314 
 -0.023609189524061   7.199868266103081   5.002978606422314 
  6.319587677758216   5.006693861744098   5.002978606422314 
  4.977421077143251  11.509877063063612   5.002978606422314 
 11.202235609650547   5.025521471529911   5.002978606422314 
 -2.489689188375606   7.186215483248211  11.673616748318732 
  3.734078536549811   0.717851014459298  11.673616748318732 
  7.468826281204407   7.186623861653098  11.673616748318732 
  8.713522054315606   0.718376893006647  11.673616748318732 
 13.690949164981301   0.718376893006647  11.673616748318732 
 -0.001155445503538   1.435443873608523   1.619893171379057 
  3.734078536549373   7.908708067376176   1.638603720900319 
  4.979496487555038   1.432399204184294   1.627178897370723 
  8.715515835039081   7.906400411159810   1.622349289248538 
  9.958012949779953   1.436976037025821   1.621737294880925 
 -4.978033867125069  10.060306687393354   8.380482530078032 
 -0.001687695228595  10.061583235205525   8.387817923279362 
  1.241361398396279   3.591195335195029   8.367353491946522 
  4.979755644579466  10.062634949614477   8.386064041466652 
  6.226795674703779   3.591195335195029   8.367353491946522 
 11.202235609652067   3.593399314851886   8.387673119331396 
 -2.490123205973749  10.060306687393352   1.625474682764540 
 -1.246832553533098   3.593019914541279   1.619893171379137 
  3.734078536551858   3.586414400310288   1.670866077207926 
  2.488401428521523  10.062634949614475   1.619893171379057 
  7.469844768327822  10.061583235205523   1.618139289565117 
  8.714989626632200   3.593019914541279   1.619893171379137 
 -6.223357145333866  12.214716781474372   8.387817923279362 
 -1.244799927768119  12.214716781474372   8.387817923279362 
 -0.004561299072929   5.750786182891265   8.378778315475520 
  4.984577516688177   5.752342168726193   8.335091135637063 
  3.734078536553476  12.217146663710542   8.384219917961488 
  9.959123377109909   5.750026210600549   8.387817923279362 
 -2.490966304012255   5.750026210600548   1.618139289565251 
 -3.734078536549962  12.213525404966010   1.622349289248525 
  1.244449866701877  12.216463456212008   1.618284093509164 
  2.483579556411660   5.752342168726192   1.670866077207419 
  6.223707206398427  12.216463456212008   1.618284093509164 
  7.472718372178262   5.750786182891265   1.627178897370710 
 -1.247358761942604   7.906400411159811   8.383607923595502 
 -0.001155445503538   1.435443873608524   8.386064041466652 
  3.734078536549374   7.908708067376176   8.367353491946510 
  4.979496487555046   1.432399204184282   8.378778315475520 
  8.715515835039081   7.906400411159811   8.383607923595502 
 -3.734078536548978   7.905712852489406   1.625474682764540 
  9.958012949779953   1.436976037025821   8.384219917961488 
  2.488660585548482   1.432399204184294   1.627178897370723 
  1.240856651928773   7.907913350689985   1.627178897370723 
  6.227300421173425   7.907913350689985   1.627178897370723 
  7.469312518603862   1.435443873608523   1.619893171379137 
  1.240856651928774   7.907913350689986   8.378778315475520 
 12.446458269525335   1.436976037025821   1.621737294880925 
 -2.490123205973749  10.060306687393354   8.380482530078032 
 -1.246832553533143   3.593019914541280   8.386064041466652 
  3.734078536551866   3.586414400310276   8.335091135637049 
  2.488401428521523  10.062634949614477   8.386064041466652 
  7.469844768327823  10.061583235205525   8.387817923279362 
  8.714989626632200   3.593019914541280   8.386064041466652 
 -4.978033867125070  10.060306687393352   1.625474682764540 
 -0.001687695228595  10.061583235205523   1.618139289565117 
  1.241361398396279   3.591195335195028   1.638603720900319 
  4.979755644579465  10.062634949614475   1.619893171379137 
  6.226795674703778   3.591195335195028   1.638603720900333 
 11.202235609652067   3.593399314851885   1.618284093509164 
 -2.490966304012254   5.750026210600549   8.387817923279362 
 -3.734078536549932  12.213525404966012   8.383607923595502 
  1.244449866701877  12.216463456212010   8.387673119331396 
  2.483579556411660   5.752342168726193   8.335091135637063 
  6.223707206398339  12.216463456212010   8.387673119331396 
 -6.223357145333867  12.214716781474371   1.618139289565104 
  7.472718372178263   5.750786182891265   8.378778315475520 
 -1.244799927768067  12.214716781474280   1.618139289565104 
 -0.004561299072944   5.750786182891265   1.627178897370710 
 -1.247358761942605   7.906400411159810   1.622349289248525 
  4.984577516688177   5.752342168726192   1.670866077207926 
  3.734078536553476  12.217146663710540   1.621737294880925 
  9.959123377109909   5.750026210600548   1.618139289565117 
 -3.734078536548986   7.905712852489420   8.380482530078138 
  2.488660585548490   1.432399204184282   8.378778315475413 
  6.227300421173426   7.907913350689986   8.378778315475547 
  7.469312518603862   1.435443873608524   8.386064041466652 
 12.446458269525335   1.436976037025821   8.384219917961488 
  1.244995414591340   0.718466419427276   1.625442175942263 
  4.979032355750474   7.186004574885349   1.660210853598146 
  6.223161658509073   0.718466419427302   1.625442175942263 
  9.957665808116246   7.186405538263798   1.628196008718286 
 11.202235609649751   0.718623749417456   1.628956370583647 
 -3.734078536549858   9.342108742426664   8.371292582596551 
  1.244405309209656   9.341925374920095   8.380515036900578 
  2.489717891898799   2.874385447473228   8.345746359247537 
  6.223751763887897   9.341925374920095   8.380515036900617 
  7.467685109876308   2.874767485764739   8.374549407604114 
 12.447126188496886   2.874781033443831   8.380848607873343 
 -1.244899897959451   9.342131279593946   1.628196008718286 
  0.000471963225571   2.874767485764739   1.631407805242221 
  4.978439181203947   2.874385447473227   1.660210853598133 
  3.734078536552711   9.341563766234385   1.631407805242234 
  8.713056971060288   9.342131279593946   1.628196008718286 
  9.957345030798557   2.874781033443830   1.625108604973833 
 -4.978687373606623  11.497789409419042   8.377761204123352 
 -0.000227461957051  11.497848665462328   8.384255162546657 
  1.244764072697869   5.030708715406427   8.345746359247537 
  6.223393000403907   5.030708715406427   8.345746359247523 
  4.978920229644038  11.497665730704504   8.380848607873343 
 11.202235609644983   5.030628896363527   8.384255162546657 
 -1.244677812747263   5.030706943421643   1.625442175942317 
 -2.489469699494758  11.497789409419028   1.628196008718286 
  2.489236843451319  11.497665730704503   1.625108604973833 
  3.734078536549917   5.030366245922020   1.755281117706394 
  7.468384535047347  11.497848665462326   1.621702050300398 
  8.712834885848785   5.030706943421643   1.625442175942263 
 -0.000266594406435   7.186391412527085   8.373458551049811 
  1.244995414591280   0.718466419427303   8.380515036900617 
  4.979032355750475   7.186004574885350   8.345746359247537 
  6.223161658509074   0.718466419427303   8.380515036900617 
  9.957665808116262   7.186405538263799   8.377761204123352 
 -2.489508735015351   7.186405538263798   1.628196008718286 
 11.202235609649751   0.718623749417456   8.377000842266597 
  3.734078536551992   0.718315912709591   1.632498661792816 
  2.489124717349436   7.186004574885349   1.660210853598133 
  7.468423667505616   7.186391412527084   1.632498661793630 
  8.712503337701772   0.718651973621597   1.625108604973833 
  2.489124717349437   7.186004574885350   8.345746359247523 
 13.691967881592820   0.718651973621597   1.625108604973833 
 -1.244899897959443   9.342131279593934   8.377761204123352 
  0.000471963225571   2.874767485764739   8.374549407604061 
  4.978439181203948   2.874385447473228   8.345746359247537 
  3.734078536552711   9.341563766234387   8.374549407604114 
  8.713056971060304   9.342131279593948   8.377761204123352 
  9.957345030798557   2.874781033443831   8.380848607873343 
 -3.734078536549859   9.342108742426664   1.634664630246689 
  1.244405309209656   9.341925374920093   1.625442175942263 
  2.489717891898798   2.874385447473227   1.660210853598160 