B N O                                   
   1.0000000000000000     
     8.7639499999999995  -15.1796066749929999    0.0000000000000000
     8.7639499999999995   15.1796066749929999    0.0000000000000000
     0.0000000000000000    0.0000000000000000   15.0000000000000000
   B    N    O 
    48    49     1
Selective dynamics
Direct
  0.9051146388284421  0.9526453729469140  0.1110152584157267   T   T   T
  0.9047218175785823  0.0952802036174105  0.1110185459050582   T   T   T
  0.9045775868764256  0.2380031402837138  0.1110584227082794   T   T   T
  0.9047218175785823  0.3808703076521810  0.1110185459050582   T   T   T
  0.9051146388284421  0.5238996711295333  0.1110152584157267   T   T   T
  0.9052166352691929  0.6668887368418294  0.1110544753799323   T   T   T
  0.9052166352691929  0.8097583036753649  0.1110544753799323   T   T   T
  0.0477195842967117  0.9522824368992914  0.1110160032423084   T   T   T
  0.0473566482490898  0.0948873823675501  0.1110152584157267   T   T   T
  0.0470976019070005  0.2377593187639410  0.1110242841906187   T   T   T
  0.0470976019070005  0.3807686883900521  0.1110242841906187   T   T   T
  0.0473566482490898  0.5238996711295333  0.1110152584157267   T   T   T
  0.0477195842967117  0.6668692642014094  0.1110160032423084   T   T   T
  0.0478146577581696  0.8096233872810822  0.1109925990570500   T   T   T
  0.1903786339149121  0.9521873634378346  0.1109925990570500   T   T   T
  0.1902437175206370  0.0947853859268028  0.1110544753799323   T   T   T
  0.1894866222438049  0.2370570097653507  0.1110596774902035   T   T   T
  0.1893826952251484  0.3804065502360792  0.1110381992935731   T   T   T
  0.1894866222438049  0.5238600177264464  0.1110596774902035   T   T   T
  0.1902437175206370  0.6668887368418294  0.1110544753799323   T   T   T
  0.1903786339149121  0.8096233872810822  0.1109925990570500   T   T   T
  0.3331327569955869  0.9522824368992914  0.1110160032423084   T   T   T
  0.3331132843551695  0.0947853859268028  0.1110544753799323   T   T   T
  0.3329215394383095  0.2372714629266320  0.1110935398098089   T   T   T
  0.3313972782784035  0.3784611861713931  0.1110198358780391   T   T   T
  0.3313972782784035  0.5243664973540084  0.1110198358780391   T   T   T
  0.3329215394383095  0.6670804817586794  0.1110935398098089   T   T   T
  0.3331132843551695  0.8097583036753649  0.1110544753799323   T   T   T
  0.4761023500674644  0.9526453729469140  0.1110152584157267   T   T   T
  0.4761023500674644  0.0948873823675501  0.1110152584157267   T   T   T
  0.4761420034705476  0.2370570097653507  0.1110596774902035   T   T   T
  0.4756355238429880  0.3784611861713931  0.1110198358780391   T   T   T
  0.4756355238429880  0.6686047429185902  0.1110198358780391   T   T   T
  0.4761420034705476  0.8105153989521966  0.1110596774902035   T   T   T
  0.6192333328059496  0.9529044192890023  0.1110242841906187   T   T   T
  0.6191317135438231  0.0952802036174105  0.1110185459050582   T   T   T
  0.6192333328059496  0.2377593187639410  0.1110242841906187   T   T   T
  0.6195954709599290  0.3804065502360792  0.1110381992935731   T   T   T
  0.6215408350246108  0.5243664973540084  0.1110198358780391   T   T   T
  0.6215408350246108  0.6686047429185902  0.1110198358780391   T   T   T
  0.6195954709599290  0.8106193259708521  0.1110381992935731   T   T   T
  0.7622427024320620  0.9529044192890023  0.1110242841906187   T   T   T
  0.7619988809122898  0.0954244343195718  0.1110584227082794   T   T   T
  0.7619988809122898  0.2380031402837138  0.1110584227082794   T   T   T
  0.7622427024320620  0.3807686883900521  0.1110242841906187   T   T   T
  0.7629450114306545  0.5238600177264464  0.1110596774902035   T   T   T
  0.7627305582693757  0.6670804817586794  0.1110935398098089   T   T   T
  0.7629450114306545  0.8105153989521966  0.1110596774902035   T   T   T
  0.9525489498709239  0.9048773986281246  0.1110122663112437   T   T   T
  0.9523622819282788  0.0476391199897283  0.1109876469101715   T   T   T
  0.9521573266411955  0.1903644197515684  0.1109780232907117   T   T   T
  0.9521573266411955  0.3332198890076238  0.1109780232907117   T   T   T
  0.9523622819282788  0.4761501440565478  0.1109876469101715   T   T   T
  0.9525489498709239  0.6191002449177945  0.1110122663112437   T   T   T
  0.9526036884743282  0.7620161910746674  0.1109868920757352   T   T   T
  0.0952652650666100  0.9047361368513831  0.1109928986359317   T   T   T
  0.0951240032898704  0.0474524520470804  0.1110122663112437   T   T   T
  0.0946283941272350  0.1899761386853203  0.1110127354240004   T   T   T
  0.0945151259125877  0.3329719097932928  0.1110044324421767   T   T   T
  0.0946283941272350  0.4760809491159160  0.1110127354240004   T   T   T
  0.0951240032898704  0.6191002449177945  0.1110122663112437   T   T   T
  0.0952652650666100  0.7619595334462287  0.1109928986359317   T   T   T
  0.2380418684717787  0.9047361368513831  0.1109928986359317   T   T   T
  0.2379852108433416  0.0473977134436807  0.1109868920757352   T   T   T
  0.2377340907515774  0.1900013740164543  0.1110656125507877   T   T   T
  0.2363962752880624  0.3320253839031169  0.1110357187837481   T   T   T
  0.2363962752880624  0.4757995850589391  0.1110357187837481   T   T   T
  0.2377340907515774  0.6191614104101250  0.1110656125507877   T   T   T
  0.2379852108433416  0.7620161910746674  0.1109868920757352   T   T   T
  0.3809011570002072  0.9048773986281246  0.1110122663112437   T   T   T
  0.3809011570002072  0.0474524520470804  0.1110122663112437   T   T   T
  0.3808399915078785  0.1900013740164543  0.1110656125507877   T   T   T
  0.3805274016119471  0.3324820949808950  0.1110464759218137   T   T   T
  0.3711804871241484  0.4713045903990721  0.1109071295194753   T   T   T
  0.3805274016119471  0.6194740003060500  0.1110464759218137   T   T   T
  0.3808399915078785  0.7622673111664301  0.1110656125507877   T   T   T
  0.5239204528010803  0.9053730077907636  0.1110127354240004   T   T   T
  0.5238512578604517  0.0476391199897283  0.1109876469101715   T   T   T
  0.5239204528010803  0.1899761386853203  0.1110127354240004   T   T   T
  0.5242018168580594  0.3320253839031169  0.1110357187837481   T   T   T
  0.5286968115179232  0.4713045903990721  0.1109071295194753   T   T   T
  0.5286968115179232  0.6288209147938554  0.1109071295194753   T   T   T
  0.5242018168580594  0.7636051266299426  0.1110357187837481   T   T   T
  0.6670294921237017  0.9054862760054140  0.1110044324421767   T   T   T
  0.6667815129093685  0.0478440752768112  0.1109780232907117   T   T   T
  0.6667815129093685  0.1903644197515684  0.1109780232907117   T   T   T
  0.6670294921237017  0.3329719097932928  0.1110044324421767   T   T   T
  0.6679760180138816  0.4757995850589391  0.1110357187837481   T   T   T
  0.6675193069361053  0.6194740003060500  0.1110464759218137   T   T   T
  0.6679760180138816  0.7636051266299426  0.1110357187837481   T   T   T
  0.8100252632326757  0.9053730077907636  0.1110127354240004   T   T   T
  0.8096369821664331  0.0478440752768112  0.1109780232907117   T   T   T
  0.8095252739059973  0.1904761280120013  0.1110928316711586   T   T   T
  0.8096369821664331  0.3332198890076238  0.1109780232907117   T   T   T
  0.8100252632326757  0.4760809491159160  0.1110127354240004   T   T   T
  0.8100000279015450  0.6191614104101250  0.1110656125507877   T   T   T
  0.8100000279015450  0.7622673111664301  0.1110656125507877   T   T   T
  0.4761912123819982  0.5238108088150000  0.1107714854745761   T   T   T

  0.00000000E+00  0.00000000E+00  0.00000000E+00
  0.00000000E+00  0.00000000E+00  0.00000000E+00
  0.00000000E+00  0.00000000E+00  0.00000000E+00
  0.00000000E+00  0.00000000E+00  0.00000000E+00
  0.00000000E+00  0.00000000E+00  0.00000000E+00
  0.00000000E+00  0.00000000E+00  0.00000000E+00
  0.00000000E+00  0.00000000E+00  0.00000000E+00
  0.00000000E+00  0.00000000E+00  0.00000000E+00
  0.00000000E+00  0.00000000E+00  0.00000000E+00
  0.00000000E+00  0.00000000E+00  0.00000000E+00
  0.00000000E+00  0.00000000E+00  0.00000000E+00
  0.00000000E+00  0.00000000E+00  0.00000000E+00
  0.00000000E+00  0.00000000E+00  0.00000000E+00
  0.00000000E+00  0.00000000E+00  0.00000000E+00
  0.00000000E+00  0.00000000E+00  0.00000000E+00
  0.00000000E+00  0.00000000E+00  0.00000000E+00
  0.00000000E+00  0.00000000E+00  0.00000000E+00
  0.00000000E+00  0.00000000E+00  0.00000000E+00
  0.00000000E+00  0.00000000E+00  0.00000000E+00
  0.00000000E+00  0.00000000E+00  0.00000000E+00
  0.00000000E+00  0.00000000E+00  0.00000000E+00
  0.00000000E+00  0.00000000E+00  0.00000000E+00
  0.00000000E+00  0.00000000E+00  0.00000000E+00
  0.00000000E+00  0.00000000E+00  0.00000000E+00
  0.00000000E+00  0.00000000E+00  0.00000000E+00
  0.00000000E+00  0.00000000E+00  0.00000000E+00
  0.00000000E+00  0.00000000E+00  0.00000000E+00
  0.00000000E+00  0.00000000E+00  0.00000000E+00
  0.00000000E+00  0.00000000E+00  0.00000000E+00
  0.00000000E+00  0.00000000E+00  0.00000000E+00
  0.00000000E+00  0.00000000E+00  0.00000000E+00
  0.00000000E+00  0.00000000E+00  0.00000000E+00
  0.00000000E+00  0.00000000E+00  0.00000000E+00
  0.00000000E+00  0.00000000E+00  0.00000000E+00
  0.00000000E+00  0.00000000E+00  0.00000000E+00
  0.00000000E+00  0.00000000E+00  0.00000000E+00
  0.00000000E+00  0.00000000E+00  0.00000000E+00
  0.00000000E+00  0.00000000E+00  0.00000000E+00
  0.00000000E+00  0.00000000E+00  0.00000000E+00
  0.00000000E+00  0.00000000E+00  0.00000000E+00
  0.00000000E+00  0.00000000E+00  0.00000000E+00
  0.00000000E+00  0.00000000E+00  0.00000000E+00
  0.00000000E+00  0.00000000E+00  0.00000000E+00
  0.00000000E+00  0.00000000E+00  0.00000000E+00
  0.00000000E+00  0.00000000E+00  0.00000000E+00
  0.00000000E+00  0.00000000E+00  0.00000000E+00
  0.00000000E+00  0.00000000E+00  0.00000000E+00
  0.00000000E+00  0.00000000E+00  0.00000000E+00
  0.00000000E+00  0.00000000E+00  0.00000000E+00
  0.00000000E+00  0.00000000E+00  0.00000000E+00
  0.00000000E+00  0.00000000E+00  0.00000000E+00
  0.00000000E+00  0.00000000E+00  0.00000000E+00
  0.00000000E+00  0.00000000E+00  0.00000000E+00
  0.00000000E+00  0.00000000E+00  0.00000000E+00
  0.00000000E+00  0.00000000E+00  0.00000000E+00
  0.00000000E+00  0.00000000E+00  0.00000000E+00
  0.00000000E+00  0.00000000E+00  0.00000000E+00
  0.00000000E+00  0.00000000E+00  0.00000000E+00
  0.00000000E+00  0.00000000E+00  0.00000000E+00
  0.00000000E+00  0.00000000E+00  0.00000000E+00
  0.00000000E+00  0.00000000E+00  0.00000000E+00
  0.00000000E+00  0.00000000E+00  0.00000000E+00
  0.00000000E+00  0.00000000E+00  0.00000000E+00
  0.00000000E+00  0.00000000E+00  0.00000000E+00
  0.00000000E+00  0.00000000E+00  0.00000000E+00
  0.00000000E+00  0.00000000E+00  0.00000000E+00
  0.00000000E+00  0.00000000E+00  0.00000000E+00
  0.00000000E+00  0.00000000E+00  0.00000000E+00
  0.00000000E+00  0.00000000E+00  0.00000000E+00
  0.00000000E+00  0.00000000E+00  0.00000000E+00
  0.00000000E+00  0.00000000E+00  0.00000000E+00
  0.00000000E+00  0.00000000E+00  0.00000000E+00
  0.00000000E+00  0.00000000E+00  0.00000000E+00
  0.00000000E+00  0.00000000E+00  0.00000000E+00
  0.00000000E+00  0.00000000E+00  0.00000000E+00
  0.00000000E+00  0.00000000E+00  0.00000000E+00
  0.00000000E+00  0.00000000E+00  0.00000000E+00
  0.00000000E+00  0.00000000E+00  0.00000000E+00
  0.00000000E+00  0.00000000E+00  0.00000000E+00
  0.00000000E+00  0.00000000E+00  0.00000000E+00
  0.00000000E+00  0.00000000E+00  0.00000000E+00
  0.00000000E+00  0.00000000E+00  0.00000000E+00
  0.00000000E+00  0.00000000E+00  0.00000000E+00
  0.00000000E+00  0.00000000E+00  0.00000000E+00
  0.00000000E+00  0.00000000E+00  0.00000000E+00
  0.00000000E+00  0.00000000E+00  0.00000000E+00
  0.00000000E+00  0.00000000E+00  0.00000000E+00
  0.00000000E+00  0.00000000E+00  0.00000000E+00
  0.00000000E+00  0.00000000E+00  0.00000000E+00
  0.00000000E+00  0.00000000E+00  0.00000000E+00
  0.00000000E+00  0.00000000E+00  0.00000000E+00
  0.00000000E+00  0.00000000E+00  0.00000000E+00
  0.00000000E+00  0.00000000E+00  0.00000000E+00
  0.00000000E+00  0.00000000E+00  0.00000000E+00
  0.00000000E+00  0.00000000E+00  0.00000000E+00
  0.00000000E+00  0.00000000E+00  0.00000000E+00
  0.00000000E+00  0.00000000E+00  0.00000000E+00
  0.00000000E+00  0.00000000E+00  0.00000000E+00
