Species order: X N B                    
   2.51242800000000     
     5.9449720136058266    0.0000000000000000    0.0000000000000000
    -2.9724860068029120    5.1484967885702053   -0.0000000000000001
     0.0000000000000000    0.0000000000000009    5.3101128803662583
   C    N    B 
     1   143   143
Direct
  0.5431948331843395  0.4382640832588340  0.3750000000000000
  0.1111211043642315  0.0555578271171573  0.1250065406443389
  0.6110786274967136  0.5555443847837729  0.1252221566046816
  0.4444602208066931  0.0555539988816509  0.1250211795513870
  0.9444309901486535  0.5555527558903998  0.1250471268357405
  0.7777912529192099  0.0555622931262727  0.1250160531893943
  0.1111091111881307  0.7222212222607308  0.6249873886042301
  0.4444602208066931  0.7222395552583777  0.6249788204486134
  0.2777867136930222  0.2222276172219649  0.6248826553552533
  0.7777616805240993  0.7222101369844376  0.6248992481501450
  0.6111144750717369  0.2222060871963800  0.6249471416761735
  0.9444534599607582  0.2222303964541249  0.6249876616984500
  0.2777873544859110  0.7222290531987385  0.1250042384885648
  0.1111199002096692  0.2222266167714989  0.1250091429295799
  0.4444659663619095  0.2222153024672690  0.1250740468596886
  0.6111144750717369  0.7222417212086859  0.1250528583238268
  0.9444309901486535  0.7222115675915893  0.1250471268357405
  0.7777853143402009  0.2222257213030131  0.1250398285391605
  0.1111120668697317  0.8888854464160019  0.6249984222467214
  0.4444590504701917  0.8888961919017609  0.6249760537395462
  0.2777867136930222  0.3888924298043862  0.6248826553552533
  0.6110786274967136  0.3888675760462693  0.6247778433953183
  0.7777853143402009  0.8888929263705168  0.6249601714608402
  0.9444462802072935  0.3888960713668693  0.6249760695992590
  0.1111211043642315  0.3888966105804030  0.1250065406443389
  0.2777873544859110  0.8888916346205019  0.1250042384885648
  0.6111261126658557  0.8889060418458120  0.1250109370606016
  0.4444472409603361  0.3888902871468317  0.1245519011392472
  0.9444462802072935  0.8888835421737541  0.1250239304007415
  0.7777616805240993  0.3888848768729907  0.1251007518498550
  0.2777894443791709  0.5555653153258751  0.6250009519278702
  0.1111211043642315  0.0555578271171573  0.6249934593556614
  0.6110786274967136  0.5555443847837729  0.6247778433953183
  0.4444602208066931  0.0555539988816509  0.6249788204486134
  0.9444309901486535  0.5555527558903998  0.6249528731642592
  0.1111120668697317  0.5555599537870591  0.1250015777532780
  0.7777912529192099  0.0555622931262727  0.6249839468106054
  0.2777894443791709  0.0555574623866309  0.1249990480721293
  0.4444659663619095  0.5555839972279768  0.1250740468596886
  0.7777400444350224  0.5555366888841795  0.1251861513503098
  0.6111261126658557  0.0555534041533703  0.1250109370606016
  0.4444659663619095  0.5555839972279768  0.6249259531403119
  0.9444534599607582  0.0555563968399693  0.1250123383015491
  0.2777873544859110  0.7222290531987385  0.6249957615114357
  0.1111199002096692  0.2222266167714989  0.6249908570704197
  0.4444659663619095  0.2222153024672690  0.6249259531403119
  0.6111144750717369  0.7222417212086859  0.6249471416761735
  0.9444309901486535  0.7222115675915893  0.6249528731642592
  0.7777853143402009  0.2222257213030131  0.6249601714608402
  0.1111091111881307  0.7222212222607308  0.1250126113957701
  0.4444602208066931  0.7222395552583777  0.1250211795513870
  0.2777867136930222  0.2222276172219649  0.1251173446447465
  0.7777616805240993  0.7222101369844376  0.1251007518498550
  0.6111144750717369  0.2222060871963800  0.1250528583238268
  0.9444534599607582  0.2222303964541249  0.1250123383015491
  0.1111211043642315  0.3888966105804030  0.6249934593556614
  0.2777873544859110  0.8888916346205019  0.6249957615114357
  0.6111261126658557  0.8889060418458120  0.6249890629393980
  0.4444472409603361  0.3888902871468317  0.6254480988607531
  0.9444462802072935  0.8888835421737541  0.6249760695992590
  0.1111120668697317  0.8888854464160019  0.1250015777532780
  0.7777616805240993  0.3888848768729907  0.6248992481501450
  0.4444590504701917  0.8888961919017609  0.1250239462604527
  0.2777867136930222  0.3888924298043862  0.1251173446447465
  0.2777894443791709  0.5555653153258751  0.1249990480721293
  0.6110786274967136  0.3888675760462693  0.1252221566046816
  0.7777853143402009  0.8888929263705168  0.1250398285391605
  0.9444462802072935  0.3888960713668693  0.1250239304007415
  0.1111120668697317  0.5555599537870591  0.6249984222467214
  0.2777894443791709  0.0555574623866309  0.6250009519278702
  0.7777400444350224  0.5555366888841795  0.6248138486496903
  0.6111261126658557  0.0555534041533703  0.6249890629393980
  0.9444534599607582  0.0555563968399693  0.6249876616984500
  0.0575491674492708  0.1122503811229142  0.3750000000000000
  0.5562019547984126  0.6165588702595772  0.3750000000000000
  0.3888243796926029  0.1091528170471363  0.3750000000000000
  0.8856023376228744  0.6094678354781088  0.3750000000000000
  0.7233429200590850  0.1111776463232415  0.3750000000000000
  0.0555512417048803  0.7777759194191314  0.8750000000000000
  0.3888864225358577  0.7777771800711113  0.8750000000000000
  0.2222189636338709  0.2777761484836030  0.8750000000000000
  0.7222219170373784  0.7777764022285392  0.8750000000000000
  0.5555549122682792  0.2777789089206912  0.8750000000000000
  0.8888886492252850  0.2777792303834875  0.8750000000000000
  0.2210023178831865  0.7771678256082601  0.3750000000000000
  0.0575491674492708  0.2786321196596916  0.3750000000000000
  0.3917514160202979  0.2745015892473121  0.3750000000000000
  0.5558756225038168  0.7801022951768460  0.3750000000000000
  0.8876083723786882  0.7772011002490764  0.3750000000000000
  0.7229087934877261  0.2768367928814827  0.3750000000000000
  0.0555516174898945  0.9444414148973598  0.8750000000000000
  0.3888864225358577  0.9444425757980827  0.8750000000000000
  0.2222182870301073  0.4444438963844333  0.8750000000000000
  0.5555576895321199  0.4444455114327243  0.8750000000000000
  0.7222199184364886  0.9444428563110370  0.8750000000000000
  0.8888896826664252  0.4444447461582927  0.8750000000000000
  0.0560266787221368  0.4445328928815450  0.3750000000000000
  0.2215639589196481  0.9437331021853214  0.3750000000000000
  0.5557761596557328  0.9445547464945308  0.3750000000000000
  0.3917514160202979  0.4505831601063210  0.3750000000000000
  0.8901273442083178  0.9454526255477941  0.3750000000000000
  0.7179330465433392  0.4419365746056412  0.3750000000000000
  0.2222169645125532  0.6111096431976355  0.8750000000000000
  0.0555509658790323  0.1111073927253822  0.8750000000000000
  0.5555549122682792  0.6111093366809236  0.8750000000000000
  0.3888876509671668  0.1111100247877523  0.8750000000000000
  0.8888882333029359  0.6111107833181392  0.8750000000000000
  0.0539015674347002  0.6104037818634829  0.3750000000000000
  0.7222199184364886  0.1111103954587875  0.8750000000000000
  0.2245076850905450  0.1124658573710417  0.3750000000000000
  0.3888243796926029  0.6130048959788090  0.3750000000000000
  0.7179330465433392  0.6093298052710351  0.3750000000000000
  0.5558756225038168  0.1091066606603069  0.3750000000000000
  0.3888876509671668  0.6111109595127557  0.8750000000000000
  0.8906105441337686  0.1119719387335553  0.3750000000000000
  0.2222172061447910  0.7777752697390637  0.8750000000000000
  0.0555509658790323  0.2777769064869856  0.8750000000000000
  0.3888879239399520  0.2777761852700658  0.8750000000000000
  0.5555530631716573  0.7777768023876054  0.8750000000000000
  0.8888896826664252  0.7777782698414675  0.8750000000000000
  0.7222219170373784  0.2777788481421755  0.8750000000000000
  0.0539015674347002  0.7768311189045533  0.3750000000000000
  0.3883092476507227  0.7781215845815643  0.3750000000000000
  0.2249150446346052  0.2791241889839706  0.3750000000000000
  0.7229087934877261  0.7794053339395797  0.3750000000000000
  0.5562019547984124  0.2729764178721717  0.3750000000000000
  0.8901273442083178  0.2780080519938594  0.3750000000000000
  0.0555516174898945  0.4444435359258630  0.8750000000000000
  0.2222169645125532  0.9444406546482529  0.8750000000000000
  0.5555513450203360  0.9444423391768321  0.8750000000000000
  0.3888879239399520  0.4444450720032213  0.8750000000000000
  0.8888886492252850  0.9444427521751332  0.8750000000000000
  0.0560266787221368  0.9448271191739209  0.3750000000000000
  0.7222220110459369  0.4444451161779076  0.8750000000000000
  0.3883092476507227  0.9435209964024943  0.3750000000000000
  0.2245076850905450  0.4453751610528389  0.3750000000000000
  0.2215639589196481  0.6111641900676638  0.3750000000000000
  0.7233429200590850  0.9454986070691782  0.3750000000000000
  0.8876083723786882  0.4437406054629467  0.3750000000000000
  0.0555512417048803  0.6111086556190837  0.8750000000000000
  0.2222182870301073  0.1111077239790093  0.8750000000000000
  0.7222220110459369  0.6111102282013647  0.8750000000000000
  0.5555530631716573  0.1111095941173876  0.8750000000000000
  0.8888873694470831  0.1111103513902128  0.8750000000000000
  0.1130091436962585  0.0566588885908932  0.3750000000000000
  0.6059398092041155  0.5582506394948432  0.3750000000000000
  0.4445738470362880  0.0541927119275530  0.3750000000000000
  0.9425374239291879  0.5547697563465160  0.3750000000000000
  0.7794397920261730  0.0563865626797539  0.3750000000000000
  0.1111124218439556  0.7222228775886426  0.8750000000000000
  0.4444324451585530  0.7222076543388335  0.8750000000000000
  0.2777838566734522  0.2222317831133248  0.8750000000000000
  0.7777774225735972  0.7222231851526923  0.8750000000000000
  0.6110980539565452  0.2222210209963329  0.8750000000000000
  0.9444582565259745  0.2222274481127499  0.8750000000000000
  0.2770214268729555  0.7221324964610264  0.3750000000000000
  0.1137261481502396  0.2235297407417842  0.3750000000000000
  0.4458509107186239  0.2202567122169027  0.3750000000000000
  0.6122845071771903  0.7263925457551229  0.3750000000000000
  0.9425374239291879  0.7211010009160066  0.3750000000000000
  0.7791874987315860  0.2220830577560860  0.3750000000000000
  0.1111152003604988  0.8888976357581494  0.8750000000000000
  0.4444351465366098  0.8888842399349691  0.8750000000000000
  0.2777838566734522  0.3888854068934561  0.8750000000000000
  0.6110917293976172  0.3888817754465643  0.8750000000000000
  0.7777804617571075  0.8888912832881476  0.8750000000000000
  0.9444547250507535  0.3888895049609710  0.8750000000000000
  0.1130091436962585  0.3896835884386937  0.3750000000000000
  0.2770214268729555  0.8882222637452566  0.3750000000000000
  0.6120567473459138  0.8904230950999908  0.3750000000000000
  0.9446685425197794  0.8890331832570395  0.3750000000000000
  0.7762105640934891  0.3877056905741488  0.3750000000000000
  0.2777743565790470  0.5555421713520647  0.8750000000000000
  0.1111233272521021  0.0555677556512725  0.8750000000000000
  0.6110917293976172  0.5555432872843821  0.8750000000000000
  0.4444324451585530  0.0555581241530542  0.8750000000000000
  0.9444498877407385  0.5555553587274835  0.8750000000000000
  0.1104454979407653  0.5555000219708591  0.3750000000000000
  0.7777814665456096  0.0555573999394729  0.8750000000000000
  0.2779634844511657  0.0550390817555579  0.3750000000000000
  0.4458509107186239  0.5589275318350573  0.3750000000000000
  0.7738930109317108  0.5536131721325241  0.3750000000000000
  0.6120567473459138  0.0549669855792516  0.3750000000000000
  0.4444234811030000  0.5555298629040659  0.8750000000000000
  0.9463984810286830  0.0566900541396247  0.3750000000000000
  0.2777727502882864  0.7222146454614640  0.8750000000000000
  0.1111262262730976  0.2222297798032133  0.8750000000000000
  0.4444234811030000  0.2222269515322691  0.8750000000000000
  0.6110980539565452  0.7222103662935403  0.8750000000000000
  0.9444498877407385  0.7222278623465899  0.8750000000000000
  0.7777804617571075  0.2222225118022888  0.8750000000000000
  0.1097363285159492  0.7215348309246385  0.3750000000000000
  0.4445738470362880  0.7237144684420709  0.3750000000000000
  0.2819162826733683  0.2255482139886744  0.3750000000000000
  0.7762105640934891  0.7218382068526679  0.3750000000000000
  0.6122845071771903  0.2192252947553961  0.3750000000000000
  0.9463984810286830  0.2230417602223941  0.3750000000000000
  0.1111233272521021  0.3888889049341575  0.8750000000000000
  0.2777727502882864  0.8888914381601508  0.8750000000000000
  0.6111031745195272  0.8888832120874447  0.8750000000000000
  0.4444172651369070  0.3888752992351178  0.8750000000000000
  0.9444547250507535  0.8888985534231114  0.8750000000000000
  0.1104454979407653  0.8882788093032348  0.3750000000000000
  0.7777774225735972  0.3888875707542336  0.8750000000000000
  0.4443983191153149  0.8888658262243221  0.3750000000000000
  0.2819162826733683  0.3897014020180225  0.3750000000000000
  0.2779634844511657  0.5562577360289445  0.3750000000000000
  0.6059398092041155  0.3810225030426005  0.3750000000000000
  0.7791874987315860  0.8904377743088273  0.3750000000000000
  0.9446685425197794  0.3889686925960709  0.3750000000000000
  0.1111152003604988  0.5555508979356782  0.8750000000000000
  0.2777743565790470  0.0555655185603185  0.8750000000000000
  0.7777740796388807  0.5555537064861085  0.8750000000000000
  0.6111031745195272  0.0555532957654105  0.8750000000000000
  0.9444582565259745  0.0555641417465604  0.8750000000000000
  0.0556015598817361  0.1111440767544664  0.1250033137844972
  0.5554691678327223  0.6110881359528684  0.1250348010319443
  0.3888966250220932  0.1111476389606787  0.1250477996766750
  0.8888872648978715  0.6111102991156080  0.1250204951054082
  0.7222286672549707  0.1111051203880688  0.1249937393269822
  0.0555766579555858  0.7777948784457540  0.6250009639789508
  0.3888959324259046  0.7777770372603792  0.6250012161241262
  0.2223011997608347  0.2778172665470854  0.6248515554759099
  0.7222076043294338  0.7777890255241393  0.6250023352612469
  0.5554691678327223  0.2777143652131909  0.6249651989680554
  0.8889121332617252  0.2777814159689824  0.6250026624599857
  0.2222419852084757  0.7777876592709055  0.1249993810437238
  0.0556015598817361  0.2777908164606054  0.1250033137844972
  0.3889142553568257  0.2778589184746479  0.1254249129193553
  0.5555431773186028  0.7777874678973593  0.1249916997996302
  0.8888938288291101  0.7777893390871059  0.1250082443532257
  0.7222076043294338  0.2777519121386301  0.1249976647387540
  0.0555906154612388  0.9444801005360267  0.6250016038283089
  0.3888959324259046  0.9444522284988615  0.6250012161241262
  0.2222816786783837  0.4444244969894310  0.6249065242286861
  0.5553481898264008  0.4443407615798647  0.6250335089046994
  0.7222286672549707  0.9444568802002380  0.6250062606730175
  0.8888938288291101  0.4444378230753392  0.6249917556467749
  0.0555906154612388  0.4444438482585402  0.1249983961716912
  0.2222493645651321  0.9444818585623471  0.1249968149481599
  0.5555570951224588  0.9444452142278945  0.1249952960741311
  0.3889142553568257  0.4443886702155133  0.1254249129193553
  0.8889121332617252  0.9444640506260790  0.1249973375400147
  0.7221645822207287  0.4444052893317894  0.1250593380421769
  0.2222493645651321  0.6111008393361202  0.6250031850518402
  0.0556015598817361  0.1111440767544664  0.6249966862155031
  0.5554691678327223  0.6110881359528684  0.6249651989680554
  0.3888966250220932  0.1111476389606787  0.6249522003233254
  0.8888872648978715  0.6111102991156080  0.6249795048945920
  0.0555766579555858  0.6111151128431674  0.1249990360210491
  0.7222286672549707  0.1111051203880688  0.6250062606730175
  0.2222816786783837  0.1111905150222889  0.1250934757713138
  0.3888966250220932  0.6110823193947573  0.1250477996766750
  0.7221645822207287  0.6110926262222759  0.1250593380421769
  0.5555431773186028  0.1110890427545784  0.1249916997996302
  0.3888966250220932  0.6110823193947573  0.6249522003233254
  0.8889163155574051  0.1111248244453743  0.1249971655942200
  0.2222419852084757  0.7777876592709055  0.6250006189562762
  0.0556015598817361  0.2777908164606054  0.6249966862155031
  0.3889142553568257  0.2778589184746479  0.6245750870806442
  0.5555431773186028  0.7777874678973593  0.6250083002003700
  0.8888938288291101  0.7777893390871059  0.6249917556467749
  0.7222076043294338  0.2777519121386301  0.6250023352612469
  0.0555766579555858  0.7777948784457540  0.1249990360210491
  0.3888959324259046  0.7777770372603792  0.1249987838758725
  0.2223011997608347  0.2778172665470854  0.1251484445240910
  0.7222076043294338  0.7777890255241393  0.1249976647387540
  0.5554691678327223  0.2777143652131909  0.1250348010319443
  0.8889121332617252  0.2777814159689824  0.1249973375400147
  0.0555906154612388  0.4444438482585402  0.6250016038283089
  0.2222493645651321  0.9444818585623471  0.6250031850518402
  0.5555570951224588  0.9444452142278945  0.6250047039258689
  0.3889142553568257  0.4443886702155133  0.6245750870806442
  0.8889121332617252  0.9444640506260790  0.6250026624599857
  0.0555906154612388  0.9444801005360267  0.1249983961716912
  0.7221645822207287  0.4444052893317894  0.6249406619578232
  0.3888959324259046  0.9444522284988615  0.1249987838758725
  0.2222816786783837  0.4444244969894310  0.1250934757713138
  0.2222493645651321  0.6111008393361202  0.1249968149481599
  0.5553481898264008  0.4443407615798647  0.1249664910953010
  0.7222286672549707  0.9444568802002380  0.1249937393269822
  0.8888938288291101  0.4444378230753392  0.1250082443532257
  0.0555766579555858  0.6111151128431674  0.6250009639789508
  0.2222816786783837  0.1111905150222889  0.6249065242286861
  0.7221645822207287  0.6110926262222759  0.6249406619578232
  0.5555431773186028  0.1110890427545784  0.6250083002003700
  0.8889163155574051  0.1111248244453743  0.6250028344057793
 
  0.00000000E+00  0.00000000E+00  0.00000000E+00
  0.00000000E+00  0.00000000E+00  0.00000000E+00
  0.00000000E+00  0.00000000E+00  0.00000000E+00
  0.00000000E+00  0.00000000E+00  0.00000000E+00
  0.00000000E+00  0.00000000E+00  0.00000000E+00
  0.00000000E+00  0.00000000E+00  0.00000000E+00
  0.00000000E+00  0.00000000E+00  0.00000000E+00
  0.00000000E+00  0.00000000E+00  0.00000000E+00
  0.00000000E+00  0.00000000E+00  0.00000000E+00
  0.00000000E+00  0.00000000E+00  0.00000000E+00
  0.00000000E+00  0.00000000E+00  0.00000000E+00
  0.00000000E+00  0.00000000E+00  0.00000000E+00
  0.00000000E+00  0.00000000E+00  0.00000000E+00
  0.00000000E+00  0.00000000E+00  0.00000000E+00
  0.00000000E+00  0.00000000E+00  0.00000000E+00
  0.00000000E+00  0.00000000E+00  0.00000000E+00
  0.00000000E+00  0.00000000E+00  0.00000000E+00
  0.00000000E+00  0.00000000E+00  0.00000000E+00
  0.00000000E+00  0.00000000E+00  0.00000000E+00
  0.00000000E+00  0.00000000E+00  0.00000000E+00
  0.00000000E+00  0.00000000E+00  0.00000000E+00
  0.00000000E+00  0.00000000E+00  0.00000000E+00
  0.00000000E+00  0.00000000E+00  0.00000000E+00
  0.00000000E+00  0.00000000E+00  0.00000000E+00
  0.00000000E+00  0.00000000E+00  0.00000000E+00
  0.00000000E+00  0.00000000E+00  0.00000000E+00
  0.00000000E+00  0.00000000E+00  0.00000000E+00
  0.00000000E+00  0.00000000E+00  0.00000000E+00
  0.00000000E+00  0.00000000E+00  0.00000000E+00
  0.00000000E+00  0.00000000E+00  0.00000000E+00
  0.00000000E+00  0.00000000E+00  0.00000000E+00
  0.00000000E+00  0.00000000E+00  0.00000000E+00
  0.00000000E+00  0.00000000E+00  0.00000000E+00
  0.00000000E+00  0.00000000E+00  0.00000000E+00
  0.00000000E+00  0.00000000E+00  0.00000000E+00
  0.00000000E+00  0.00000000E+00  0.00000000E+00
  0.00000000E+00  0.00000000E+00  0.00000000E+00
  0.00000000E+00  0.00000000E+00  0.00000000E+00
  0.00000000E+00  0.00000000E+00  0.00000000E+00
  0.00000000E+00  0.00000000E+00  0.00000000E+00
  0.00000000E+00  0.00000000E+00  0.00000000E+00
  0.00000000E+00  0.00000000E+00  0.00000000E+00
  0.00000000E+00  0.00000000E+00  0.00000000E+00
  0.00000000E+00  0.00000000E+00  0.00000000E+00
  0.00000000E+00  0.00000000E+00  0.00000000E+00
  0.00000000E+00  0.00000000E+00  0.00000000E+00
  0.00000000E+00  0.00000000E+00  0.00000000E+00
  0.00000000E+00  0.00000000E+00  0.00000000E+00
  0.00000000E+00  0.00000000E+00  0.00000000E+00
  0.00000000E+00  0.00000000E+00  0.00000000E+00
  0.00000000E+00  0.00000000E+00  0.00000000E+00
  0.00000000E+00  0.00000000E+00  0.00000000E+00
  0.00000000E+00  0.00000000E+00  0.00000000E+00
  0.00000000E+00  0.00000000E+00  0.00000000E+00
  0.00000000E+00  0.00000000E+00  0.00000000E+00
  0.00000000E+00  0.00000000E+00  0.00000000E+00
  0.00000000E+00  0.00000000E+00  0.00000000E+00
  0.00000000E+00  0.00000000E+00  0.00000000E+00
  0.00000000E+00  0.00000000E+00  0.00000000E+00
  0.00000000E+00  0.00000000E+00  0.00000000E+00
  0.00000000E+00  0.00000000E+00  0.00000000E+00
  0.00000000E+00  0.00000000E+00  0.00000000E+00
  0.00000000E+00  0.00000000E+00  0.00000000E+00
  0.00000000E+00  0.00000000E+00  0.00000000E+00
  0.00000000E+00  0.00000000E+00  0.00000000E+00
  0.00000000E+00  0.00000000E+00  0.00000000E+00
  0.00000000E+00  0.00000000E+00  0.00000000E+00
  0.00000000E+00  0.00000000E+00  0.00000000E+00
  0.00000000E+00  0.00000000E+00  0.00000000E+00
  0.00000000E+00  0.00000000E+00  0.00000000E+00
  0.00000000E+00  0.00000000E+00  0.00000000E+00
  0.00000000E+00  0.00000000E+00  0.00000000E+00
  0.00000000E+00  0.00000000E+00  0.00000000E+00
  0.00000000E+00  0.00000000E+00  0.00000000E+00
  0.00000000E+00  0.00000000E+00  0.00000000E+00
  0.00000000E+00  0.00000000E+00  0.00000000E+00
  0.00000000E+00  0.00000000E+00  0.00000000E+00
  0.00000000E+00  0.00000000E+00  0.00000000E+00
  0.00000000E+00  0.00000000E+00  0.00000000E+00
  0.00000000E+00  0.00000000E+00  0.00000000E+00
  0.00000000E+00  0.00000000E+00  0.00000000E+00
  0.00000000E+00  0.00000000E+00  0.00000000E+00
  0.00000000E+00  0.00000000E+00  0.00000000E+00
  0.00000000E+00  0.00000000E+00  0.00000000E+00
  0.00000000E+00  0.00000000E+00  0.00000000E+00
  0.00000000E+00  0.00000000E+00  0.00000000E+00
  0.00000000E+00  0.00000000E+00  0.00000000E+00
  0.00000000E+00  0.00000000E+00  0.00000000E+00
  0.00000000E+00  0.00000000E+00  0.00000000E+00
  0.00000000E+00  0.00000000E+00  0.00000000E+00
  0.00000000E+00  0.00000000E+00  0.00000000E+00
  0.00000000E+00  0.00000000E+00  0.00000000E+00
  0.00000000E+00  0.00000000E+00  0.00000000E+00
  0.00000000E+00  0.00000000E+00  0.00000000E+00
  0.00000000E+00  0.00000000E+00  0.00000000E+00
  0.00000000E+00  0.00000000E+00  0.00000000E+00
  0.00000000E+00  0.00000000E+00  0.00000000E+00
  0.00000000E+00  0.00000000E+00  0.00000000E+00
  0.00000000E+00  0.00000000E+00  0.00000000E+00
  0.00000000E+00  0.00000000E+00  0.00000000E+00
  0.00000000E+00  0.00000000E+00  0.00000000E+00
  0.00000000E+00  0.00000000E+00  0.00000000E+00
  0.00000000E+00  0.00000000E+00  0.00000000E+00
  0.00000000E+00  0.00000000E+00  0.00000000E+00
  0.00000000E+00  0.00000000E+00  0.00000000E+00
  0.00000000E+00  0.00000000E+00  0.00000000E+00
  0.00000000E+00  0.00000000E+00  0.00000000E+00
  0.00000000E+00  0.00000000E+00  0.00000000E+00
  0.00000000E+00  0.00000000E+00  0.00000000E+00
  0.00000000E+00  0.00000000E+00  0.00000000E+00
  0.00000000E+00  0.00000000E+00  0.00000000E+00
  0.00000000E+00  0.00000000E+00  0.00000000E+00
  0.00000000E+00  0.00000000E+00  0.00000000E+00
  0.00000000E+00  0.00000000E+00  0.00000000E+00
  0.00000000E+00  0.00000000E+00  0.00000000E+00
  0.00000000E+00  0.00000000E+00  0.00000000E+00
  0.00000000E+00  0.00000000E+00  0.00000000E+00
  0.00000000E+00  0.00000000E+00  0.00000000E+00
  0.00000000E+00  0.00000000E+00  0.00000000E+00
  0.00000000E+00  0.00000000E+00  0.00000000E+00
  0.00000000E+00  0.00000000E+00  0.00000000E+00
  0.00000000E+00  0.00000000E+00  0.00000000E+00
  0.00000000E+00  0.00000000E+00  0.00000000E+00
  0.00000000E+00  0.00000000E+00  0.00000000E+00
  0.00000000E+00  0.00000000E+00  0.00000000E+00
  0.00000000E+00  0.00000000E+00  0.00000000E+00
  0.00000000E+00  0.00000000E+00  0.00000000E+00
  0.00000000E+00  0.00000000E+00  0.00000000E+00
  0.00000000E+00  0.00000000E+00  0.00000000E+00
  0.00000000E+00  0.00000000E+00  0.00000000E+00
  0.00000000E+00  0.00000000E+00  0.00000000E+00
  0.00000000E+00  0.00000000E+00  0.00000000E+00
  0.00000000E+00  0.00000000E+00  0.00000000E+00
  0.00000000E+00  0.00000000E+00  0.00000000E+00
  0.00000000E+00  0.00000000E+00  0.00000000E+00
  0.00000000E+00  0.00000000E+00  0.00000000E+00
  0.00000000E+00  0.00000000E+00  0.00000000E+00
  0.00000000E+00  0.00000000E+00  0.00000000E+00
  0.00000000E+00  0.00000000E+00  0.00000000E+00
  0.00000000E+00  0.00000000E+00  0.00000000E+00
  0.00000000E+00  0.00000000E+00  0.00000000E+00
  0.00000000E+00  0.00000000E+00  0.00000000E+00
  0.00000000E+00  0.00000000E+00  0.00000000E+00
  0.00000000E+00  0.00000000E+00  0.00000000E+00
  0.00000000E+00  0.00000000E+00  0.00000000E+00
  0.00000000E+00  0.00000000E+00  0.00000000E+00
  0.00000000E+00  0.00000000E+00  0.00000000E+00
  0.00000000E+00  0.00000000E+00  0.00000000E+00
  0.00000000E+00  0.00000000E+00  0.00000000E+00
  0.00000000E+00  0.00000000E+00  0.00000000E+00
  0.00000000E+00  0.00000000E+00  0.00000000E+00
  0.00000000E+00  0.00000000E+00  0.00000000E+00
  0.00000000E+00  0.00000000E+00  0.00000000E+00
  0.00000000E+00  0.00000000E+00  0.00000000E+00
  0.00000000E+00  0.00000000E+00  0.00000000E+00
  0.00000000E+00  0.00000000E+00  0.00000000E+00
  0.00000000E+00  0.00000000E+00  0.00000000E+00
  0.00000000E+00  0.00000000E+00  0.00000000E+00
  0.00000000E+00  0.00000000E+00  0.00000000E+00
  0.00000000E+00  0.00000000E+00  0.00000000E+00
  0.00000000E+00  0.00000000E+00  0.00000000E+00
  0.00000000E+00  0.00000000E+00  0.00000000E+00
  0.00000000E+00  0.00000000E+00  0.00000000E+00
  0.00000000E+00  0.00000000E+00  0.00000000E+00
  0.00000000E+00  0.00000000E+00  0.00000000E+00
  0.00000000E+00  0.00000000E+00  0.00000000E+00
  0.00000000E+00  0.00000000E+00  0.00000000E+00
  0.00000000E+00  0.00000000E+00  0.00000000E+00
  0.00000000E+00  0.00000000E+00  0.00000000E+00
  0.00000000E+00  0.00000000E+00  0.00000000E+00
  0.00000000E+00  0.00000000E+00  0.00000000E+00
  0.00000000E+00  0.00000000E+00  0.00000000E+00
  0.00000000E+00  0.00000000E+00  0.00000000E+00
  0.00000000E+00  0.00000000E+00  0.00000000E+00
  0.00000000E+00  0.00000000E+00  0.00000000E+00
  0.00000000E+00  0.00000000E+00  0.00000000E+00
  0.00000000E+00  0.00000000E+00  0.00000000E+00
  0.00000000E+00  0.00000000E+00  0.00000000E+00
  0.00000000E+00  0.00000000E+00  0.00000000E+00
  0.00000000E+00  0.00000000E+00  0.00000000E+00
  0.00000000E+00  0.00000000E+00  0.00000000E+00
  0.00000000E+00  0.00000000E+00  0.00000000E+00
  0.00000000E+00  0.00000000E+00  0.00000000E+00
  0.00000000E+00  0.00000000E+00  0.00000000E+00
  0.00000000E+00  0.00000000E+00  0.00000000E+00
  0.00000000E+00  0.00000000E+00  0.00000000E+00
  0.00000000E+00  0.00000000E+00  0.00000000E+00
  0.00000000E+00  0.00000000E+00  0.00000000E+00
  0.00000000E+00  0.00000000E+00  0.00000000E+00
  0.00000000E+00  0.00000000E+00  0.00000000E+00
  0.00000000E+00  0.00000000E+00  0.00000000E+00
  0.00000000E+00  0.00000000E+00  0.00000000E+00
  0.00000000E+00  0.00000000E+00  0.00000000E+00
  0.00000000E+00  0.00000000E+00  0.00000000E+00
  0.00000000E+00  0.00000000E+00  0.00000000E+00
  0.00000000E+00  0.00000000E+00  0.00000000E+00
  0.00000000E+00  0.00000000E+00  0.00000000E+00
  0.00000000E+00  0.00000000E+00  0.00000000E+00
  0.00000000E+00  0.00000000E+00  0.00000000E+00
  0.00000000E+00  0.00000000E+00  0.00000000E+00
  0.00000000E+00  0.00000000E+00  0.00000000E+00
  0.00000000E+00  0.00000000E+00  0.00000000E+00
  0.00000000E+00  0.00000000E+00  0.00000000E+00
  0.00000000E+00  0.00000000E+00  0.00000000E+00
  0.00000000E+00  0.00000000E+00  0.00000000E+00
  0.00000000E+00  0.00000000E+00  0.00000000E+00
  0.00000000E+00  0.00000000E+00  0.00000000E+00
  0.00000000E+00  0.00000000E+00  0.00000000E+00
  0.00000000E+00  0.00000000E+00  0.00000000E+00
  0.00000000E+00  0.00000000E+00  0.00000000E+00
  0.00000000E+00  0.00000000E+00  0.00000000E+00
  0.00000000E+00  0.00000000E+00  0.00000000E+00
  0.00000000E+00  0.00000000E+00  0.00000000E+00
  0.00000000E+00  0.00000000E+00  0.00000000E+00
  0.00000000E+00  0.00000000E+00  0.00000000E+00
  0.00000000E+00  0.00000000E+00  0.00000000E+00
  0.00000000E+00  0.00000000E+00  0.00000000E+00
  0.00000000E+00  0.00000000E+00  0.00000000E+00
  0.00000000E+00  0.00000000E+00  0.00000000E+00
  0.00000000E+00  0.00000000E+00  0.00000000E+00
  0.00000000E+00  0.00000000E+00  0.00000000E+00
  0.00000000E+00  0.00000000E+00  0.00000000E+00
  0.00000000E+00  0.00000000E+00  0.00000000E+00
  0.00000000E+00  0.00000000E+00  0.00000000E+00
  0.00000000E+00  0.00000000E+00  0.00000000E+00
  0.00000000E+00  0.00000000E+00  0.00000000E+00
  0.00000000E+00  0.00000000E+00  0.00000000E+00
  0.00000000E+00  0.00000000E+00  0.00000000E+00
  0.00000000E+00  0.00000000E+00  0.00000000E+00
  0.00000000E+00  0.00000000E+00  0.00000000E+00
  0.00000000E+00  0.00000000E+00  0.00000000E+00
  0.00000000E+00  0.00000000E+00  0.00000000E+00
  0.00000000E+00  0.00000000E+00  0.00000000E+00
  0.00000000E+00  0.00000000E+00  0.00000000E+00
  0.00000000E+00  0.00000000E+00  0.00000000E+00
  0.00000000E+00  0.00000000E+00  0.00000000E+00
  0.00000000E+00  0.00000000E+00  0.00000000E+00
  0.00000000E+00  0.00000000E+00  0.00000000E+00
  0.00000000E+00  0.00000000E+00  0.00000000E+00
  0.00000000E+00  0.00000000E+00  0.00000000E+00
  0.00000000E+00  0.00000000E+00  0.00000000E+00
  0.00000000E+00  0.00000000E+00  0.00000000E+00
  0.00000000E+00  0.00000000E+00  0.00000000E+00
  0.00000000E+00  0.00000000E+00  0.00000000E+00
  0.00000000E+00  0.00000000E+00  0.00000000E+00
  0.00000000E+00  0.00000000E+00  0.00000000E+00
  0.00000000E+00  0.00000000E+00  0.00000000E+00
  0.00000000E+00  0.00000000E+00  0.00000000E+00