B O N                                   
   1.0000000000000000     
     8.7639499999999995  -15.1796066749929999    0.0000000000000000
     8.7639499999999995   15.1796066749929999    0.0000000000000000
     0.0000000000000000    0.0000000000000000   15.0000000000000000
   B    O    N 
    47     1    49
Selective dynamics
Direct
  0.9086787386399950  0.9532802587273776  0.1107170602946446   T   T   T
  0.9085761152005991  0.0955633978106381  0.1108050062661575   T   T   T
  0.9084839573469802  0.2380497675816648  0.1107526427259218   T   T   T
  0.9082894916185107  0.3808629185601447  0.1106927338434374   T   T   T
  0.9071816172978849  0.5236998099158687  0.1107783553764069   T   T   T
  0.9056329437825116  0.6661547496267475  0.1108249165570210   T   T   T
  0.9053663905664774  0.8079621569262305  0.1107112823019954   T   T   T
  0.0508631489920558  0.9537739452891425  0.1106888285640831   T   T   T
  0.0523956403368471  0.0971566952589032  0.1107872224319871   T   T   T
  0.0517580428082174  0.2389933624792267  0.1108487055088424   T   T   T
  0.0506754545216130  0.3814443105502132  0.1107469445606650   T   T   T
  0.0493303327277406  0.5245392392516447  0.1107247574726632   T   T   T
  0.0488897715499186  0.6675473554510692  0.1107750925104379   T   T   T
  0.0495017594074326  0.8104526737437695  0.1107618834202239   T   T   T
  0.1936307633007013  0.9546096218878772  0.1107212787763556   T   T   T
  0.1964236370842647  0.0994392342100419  0.1107088873711016   T   T   T
  0.1964351150483910  0.2413673990501111  0.1108027893807972   T   T   T
  0.1938485462881022  0.3822523874033749  0.1107916167060342   T   T   T
  0.1908796404004076  0.5250831554049933  0.1107547552390369   T   T   T
  0.1910632895280650  0.6682438565634715  0.1107450588706934   T   T   T
  0.1923563620046014  0.8112348487635539  0.1107339895157751   T   T   T
  0.3360645698896078  0.9542896082415915  0.1107208183514700   T   T   T
  0.3376244216084258  0.0981956573054025  0.1107651911547717   T   T   T
  0.3434390827829712  0.2463289851511500  0.1107959008176031   T   T   T
  0.3401633106899253  0.3852723116611758  0.1107713450797353   T   T   T
  0.3314992062678435  0.5265424628568434  0.1107067709303579   T   T   T
  0.3324024541145714  0.6689495371614136  0.1107565914169649   T   T   T
  0.3349713398592726  0.8114246584305982  0.1107646625690658   T   T   T
  0.4787305253116846  0.9529302525955687  0.1107628087740416   T   T   T
  0.4796478776104154  0.0957231639133491  0.1107821695326242   T   T   T
  0.4811804627017860  0.2389991538625218  0.1108109339006746   T   T   T
  0.4962540264097065  0.3931910856122729  0.1107919759587833   T   T   T
  0.4726917700437481  0.6675697642037201  0.1106490670456775   T   T   T
  0.4777802497296132  0.8102253389041615  0.1107324643463292   T   T   T
  0.6217418517516283  0.9522623408352525  0.1107403883017537   T   T   T
  0.6223341816280379  0.0946167663547903  0.1107426502264993   T   T   T
  0.6230578568751526  0.2367134640921270  0.1107571085427542   T   T   T
  0.6248828416588909  0.3781928558915856  0.1108061883960766   T   T   T
  0.6085719552692341  0.5049368303033087  0.1107670693529872   T   T   T
  0.6204084796436711  0.8091840982548923  0.1106771332884775   T   T   T
  0.7650646206442889  0.9522628695475349  0.1107601807783207   T   T   T
  0.7653532068164334  0.0948516213590130  0.1107437933779306   T   T   T
  0.7657289906964353  0.2374131254415980  0.1106977111609815   T   T   T
  0.7663404067015601  0.3800896316714601  0.1107270322710098   T   T   T
  0.7642135044589691  0.5219410318443749  0.1107851391698251   T   T   T
  0.7587113139788020  0.6607815581186628  0.1106932002508989   T   T   T
  0.7662513852005092  0.8099922565020139  0.1106826663993682   T   T   T
  0.6175740631798758  0.6568723919298475  0.1102530094777170   T   T   T
  0.9548477265635391  0.9044245815382695  0.1106710139672344   T   T   T
  0.9568426697152066  0.0486928729473602  0.1107643262591306   T   T   T
  0.9564016472248088  0.1908439675928510  0.1108109317475831   T   T   T
  0.9557863990102050  0.3333072402371015  0.1107032888884865   T   T   T
  0.9547039157454360  0.4761939118472250  0.1107078249115519   T   T   T
  0.9537148841379025  0.6190931832743445  0.1108079421451751   T   T   T
  0.9538258087029279  0.7615580584411497  0.1107644151597411   T   T   T
  0.0981063179590967  0.9060854632557600  0.1106970158704839   T   T   T
  0.1002015211857888  0.0499821429270368  0.1106906004403890   T   T   T
  0.1006007013684289  0.1926095876650988  0.1108219263544312   T   T   T
  0.0987581846075949  0.3341486299021319  0.1107923961326924   T   T   T
  0.0965290700360782  0.4767396261273556  0.1107182364311096   T   T   T
  0.0962156444250861  0.6199228786063348  0.1107228681930421   T   T   T
  0.0969857316517879  0.7629718380880510  0.1107451152119213   T   T   T
  0.2407143242604508  0.9066325653472804  0.1106983790559961   T   T   T
  0.2423769158434691  0.0503640667939012  0.1106995544146773   T   T   T
  0.2462456933139527  0.1960569383756402  0.1107427948371805   T   T   T
  0.2440060523623485  0.3366422610712792  0.1107881667294310   T   T   T
  0.2379114372844706  0.4772082789444934  0.1107384988636908   T   T   T
  0.2378350641056859  0.6203838526648081  0.1107364480081275   T   T   T
  0.2396184289776171  0.7635468070459790  0.1107369262723722   T   T   T
  0.3833635245249729  0.9064099316353347  0.1107336038959465   T   T   T
  0.3843753284923249  0.0495460971394491  0.1107412494592474   T   T   T
  0.3864510569366779  0.1940166251205003  0.1107833697030578   T   T   T
  0.3956800318749370  0.3449894738533188  0.1107833991235975   T   T   T
  0.3789576308656387  0.4796301552211578  0.1106527382844369   T   T   T
  0.3781740689233510  0.6208996734707656  0.1107281229323515   T   T   T
  0.3822494965644908  0.7637947207772875  0.1107441458528321   T   T   T
  0.5262334367506207  0.9051665414054588  0.1107368188612942   T   T   T
  0.5269952537045345  0.0478506131117355  0.1107528900492515   T   T   T
  0.5279544038551227  0.1905276431004514  0.1107801761773133   T   T   T
  0.5303412457076894  0.3335307064462916  0.1107934891654272   T   T   T
  0.4688021940340492  0.5250078857260619  0.1107029048792781   T   T   T
  0.5042761836304902  0.6081001686671953  0.1104765298285536   T   T   T
  0.5249538748633570  0.7619046387164579  0.1106405308621966   T   T   T
  0.6694284012034516  0.9048662327710277  0.1107209933799154   T   T   T
  0.6699627767808859  0.0472471399515490  0.1107253267296984   T   T   T
  0.6705247907629932  0.1894710459763436  0.1107067082171533   T   T   T
  0.6717168500414781  0.3313460296104145  0.1107391520031634   T   T   T
  0.6698812717935448  0.4725680721704971  0.1107950472834710   T   T   T
  0.6610825698434717  0.6038174457390770  0.1106549253360149   T   T   T
  0.6742052145903485  0.7700746115010025  0.1106489469481980   T   T   T
  0.8136473073843168  0.9056026698844977  0.1107167517599966   T   T   T
  0.8131324940518080  0.0475753857427948  0.1107644048597205   T   T   T
  0.8132813239579147  0.1900325732682328  0.1107064624701875   T   T   T
  0.8135250569752137  0.3325874193878383  0.1106736724135425   T   T   T
  0.8125481848399999  0.4751922409399942  0.1107484299510710   T   T   T
  0.8098229314603995  0.6168974007520230  0.1107704635069019   T   T   T
  0.8089112250406173  0.7578761378275921  0.1106504278127382   T   T   T

  0.00000000E+00  0.00000000E+00  0.00000000E+00
  0.00000000E+00  0.00000000E+00  0.00000000E+00
  0.00000000E+00  0.00000000E+00  0.00000000E+00
  0.00000000E+00  0.00000000E+00  0.00000000E+00
  0.00000000E+00  0.00000000E+00  0.00000000E+00
  0.00000000E+00  0.00000000E+00  0.00000000E+00
  0.00000000E+00  0.00000000E+00  0.00000000E+00
  0.00000000E+00  0.00000000E+00  0.00000000E+00
  0.00000000E+00  0.00000000E+00  0.00000000E+00
  0.00000000E+00  0.00000000E+00  0.00000000E+00
  0.00000000E+00  0.00000000E+00  0.00000000E+00
  0.00000000E+00  0.00000000E+00  0.00000000E+00
  0.00000000E+00  0.00000000E+00  0.00000000E+00
  0.00000000E+00  0.00000000E+00  0.00000000E+00
  0.00000000E+00  0.00000000E+00  0.00000000E+00
  0.00000000E+00  0.00000000E+00  0.00000000E+00
  0.00000000E+00  0.00000000E+00  0.00000000E+00
  0.00000000E+00  0.00000000E+00  0.00000000E+00
  0.00000000E+00  0.00000000E+00  0.00000000E+00
  0.00000000E+00  0.00000000E+00  0.00000000E+00
  0.00000000E+00  0.00000000E+00  0.00000000E+00
  0.00000000E+00  0.00000000E+00  0.00000000E+00
  0.00000000E+00  0.00000000E+00  0.00000000E+00
  0.00000000E+00  0.00000000E+00  0.00000000E+00
  0.00000000E+00  0.00000000E+00  0.00000000E+00
  0.00000000E+00  0.00000000E+00  0.00000000E+00
  0.00000000E+00  0.00000000E+00  0.00000000E+00
  0.00000000E+00  0.00000000E+00  0.00000000E+00
  0.00000000E+00  0.00000000E+00  0.00000000E+00
  0.00000000E+00  0.00000000E+00  0.00000000E+00
  0.00000000E+00  0.00000000E+00  0.00000000E+00
  0.00000000E+00  0.00000000E+00  0.00000000E+00
  0.00000000E+00  0.00000000E+00  0.00000000E+00
  0.00000000E+00  0.00000000E+00  0.00000000E+00
  0.00000000E+00  0.00000000E+00  0.00000000E+00
  0.00000000E+00  0.00000000E+00  0.00000000E+00
  0.00000000E+00  0.00000000E+00  0.00000000E+00
  0.00000000E+00  0.00000000E+00  0.00000000E+00
  0.00000000E+00  0.00000000E+00  0.00000000E+00
  0.00000000E+00  0.00000000E+00  0.00000000E+00
  0.00000000E+00  0.00000000E+00  0.00000000E+00
  0.00000000E+00  0.00000000E+00  0.00000000E+00
  0.00000000E+00  0.00000000E+00  0.00000000E+00
  0.00000000E+00  0.00000000E+00  0.00000000E+00
  0.00000000E+00  0.00000000E+00  0.00000000E+00
  0.00000000E+00  0.00000000E+00  0.00000000E+00
  0.00000000E+00  0.00000000E+00  0.00000000E+00
  0.00000000E+00  0.00000000E+00  0.00000000E+00
  0.00000000E+00  0.00000000E+00  0.00000000E+00
  0.00000000E+00  0.00000000E+00  0.00000000E+00
  0.00000000E+00  0.00000000E+00  0.00000000E+00
  0.00000000E+00  0.00000000E+00  0.00000000E+00
  0.00000000E+00  0.00000000E+00  0.00000000E+00
  0.00000000E+00  0.00000000E+00  0.00000000E+00
  0.00000000E+00  0.00000000E+00  0.00000000E+00
  0.00000000E+00  0.00000000E+00  0.00000000E+00
  0.00000000E+00  0.00000000E+00  0.00000000E+00
  0.00000000E+00  0.00000000E+00  0.00000000E+00
  0.00000000E+00  0.00000000E+00  0.00000000E+00
  0.00000000E+00  0.00000000E+00  0.00000000E+00
  0.00000000E+00  0.00000000E+00  0.00000000E+00
  0.00000000E+00  0.00000000E+00  0.00000000E+00
  0.00000000E+00  0.00000000E+00  0.00000000E+00
  0.00000000E+00  0.00000000E+00  0.00000000E+00
  0.00000000E+00  0.00000000E+00  0.00000000E+00
  0.00000000E+00  0.00000000E+00  0.00000000E+00
  0.00000000E+00  0.00000000E+00  0.00000000E+00
  0.00000000E+00  0.00000000E+00  0.00000000E+00
  0.00000000E+00  0.00000000E+00  0.00000000E+00
  0.00000000E+00  0.00000000E+00  0.00000000E+00
  0.00000000E+00  0.00000000E+00  0.00000000E+00
  0.00000000E+00  0.00000000E+00  0.00000000E+00
  0.00000000E+00  0.00000000E+00  0.00000000E+00
  0.00000000E+00  0.00000000E+00  0.00000000E+00
  0.00000000E+00  0.00000000E+00  0.00000000E+00
  0.00000000E+00  0.00000000E+00  0.00000000E+00
  0.00000000E+00  0.00000000E+00  0.00000000E+00
  0.00000000E+00  0.00000000E+00  0.00000000E+00
  0.00000000E+00  0.00000000E+00  0.00000000E+00
  0.00000000E+00  0.00000000E+00  0.00000000E+00
  0.00000000E+00  0.00000000E+00  0.00000000E+00
  0.00000000E+00  0.00000000E+00  0.00000000E+00
  0.00000000E+00  0.00000000E+00  0.00000000E+00
  0.00000000E+00  0.00000000E+00  0.00000000E+00
  0.00000000E+00  0.00000000E+00  0.00000000E+00
  0.00000000E+00  0.00000000E+00  0.00000000E+00
  0.00000000E+00  0.00000000E+00  0.00000000E+00
  0.00000000E+00  0.00000000E+00  0.00000000E+00
  0.00000000E+00  0.00000000E+00  0.00000000E+00
  0.00000000E+00  0.00000000E+00  0.00000000E+00
  0.00000000E+00  0.00000000E+00  0.00000000E+00
  0.00000000E+00  0.00000000E+00  0.00000000E+00
  0.00000000E+00  0.00000000E+00  0.00000000E+00
  0.00000000E+00  0.00000000E+00  0.00000000E+00
  0.00000000E+00  0.00000000E+00  0.00000000E+00
  0.00000000E+00  0.00000000E+00  0.00000000E+00
  0.00000000E+00  0.00000000E+00  0.00000000E+00
