 O B N 
 1.0
 17.527899999999772   0.000000000000000   0.000000000000000
 -8.763949999999658  15.179606674993195   0.000000000000000
  0.000000000000001   0.000000000000002  15.000000000000000
 O B N 
   1  47  49
Cartesian
  5.067979622757049   9.971064545157052   1.653795142165755 
  7.572729539534283  14.470419378517347   1.660755904419675 
 15.087918449381863   1.450614791291391   1.662075093992355 
 13.837559695384671   3.613501840963221   1.661289640888830 
 12.582543805024839   5.781349300832966   1.660391007651555 
 11.311309720723392   7.949557130291592   1.661675330646105 
 10.035696757334184  10.111967084012591   1.662373748355315 
  8.788231612016579  12.264547750419315   1.660669234529925 
 -7.467302978598603  14.477913346345654   1.660332428461245 
  0.066909124845979   1.474800419872324   1.661808336479805 
 -1.187316080561605   3.627825240368742   1.662730582632630 
 -2.454724566137040   5.790174602566190   1.661204168409975 
 -3.732378526820715   7.962299337440124   1.660871362089945 
 -4.993416619055354  10.133106292679102   1.661626387656570 
 -6.235104821338902  12.302352816127012   1.661428251303360 
 -4.972210339685621  14.490598588421948   1.660819181645340 
  2.571413391794180   1.509448463370965   1.660633310566530 
  1.327763236151510   3.663862181746811   1.662041840711955 
  0.047717123899501   5.802440891360356   1.661874250590510 
 -1.256083270837141   7.970555770712120   1.661321328585555 
 -2.507517514210285  10.143678905614074   1.661175883060395 
 -3.738018575240670  12.314225925278340   1.661009842736625 
 -2.472840237580583  14.485740907140697   1.660812275272050 
  5.057265268668599   1.490571455088440   1.661477867321580 
  3.860950989696221   3.739177107244696   1.661938512264045 
  2.585841217659027   5.848282153782046   1.661570176196025 
  1.195893120188019   7.992707483849091   1.660601563955370 
 -0.036323320730833  10.154390859529009   1.661348871254475 
 -1.239940987333287  12.317107161367179   1.661469938535990 
  0.039707687375962  14.465106423102650   1.661442131610630 
  7.568307011589122   1.453039977890540   1.661732542989360 
  6.339506397697157   3.627913151289265   1.662164008510125 
  5.252383934755045   5.968486027707880   1.661879639381745 
  2.434746041156738  10.133446448730423   1.659736005685155 
  1.273710080346730  12.298901962678226   1.660986965194935 
  2.552249461354428  14.454967785287451   1.661105824526310 
 10.078994692662915   1.436245298125442   1.661139753397485 
  8.846350845891736   3.593217279593613   1.661356628141310 
  7.638420680921796   5.740818799726659   1.662092825941155 
  6.241747240826955   7.664742479722016   1.661506040294805 
  3.782808812445474  12.283096339168308   1.660156999327170 
  5.064391988620065  14.454975810931938   1.661402711674815 
 12.583759606748291   1.439810304715201   1.661156900668965 
 11.340944415314056   3.603837863684278   1.660465667414715 
 10.101251487137137   5.769611110015799   1.660905484065150 
  8.820792778773855   7.922859570937711   1.661777087547375 
  7.507559504015039  10.030404150330462   1.660398003763485 
  6.332046018285276  12.295363863490772   1.660239995990520 
  8.810143655060823  13.728809414946250   1.660065209508510 
 16.344700726633960   0.739138659216342   1.661464893886965 
 15.091165442606210   2.896936364354626   1.662163976213745 
 13.831611756544202   5.059868891664398   1.660549333327305 
 12.560615131060885   7.228436282867258   1.660617373673280 
 11.290917414123554   9.397591017274019   1.662119132177625 
 10.044306646088778  11.560151787308138   1.661466227396115 
 -6.221289965144775  13.754020946151437   1.660455238057260 
  1.318281241686979   0.758709270405715   1.660359006605835 
  0.075298237698185   2.923737782588824   1.662328895316465 
 -1.197438301047234   5.072244772902234   1.661885941990380 
 -2.486170359713329   7.236720010996573   1.660773546466650 
 -3.746514918043335   9.410185466073719   1.660843022895630 
 -4.986690834592161  11.581612406273207   1.661176728178815 
 -3.726465866870281  13.762325740711775   1.660475685839940 
  3.806970180034293   0.764506724484503   1.660493316220155 
  2.597936682760458   2.976067210445595   1.661141922557700 
  1.326597741286441   5.110097113242388   1.661822500941465 
 -0.012141614677001   7.243833976427841   1.661077482955365 
 -1.268263845423533   9.417182870968714   1.661046720121905 
 -2.491678178333628  11.590340208904884   1.661053894085580 
 -1.224173798833998  13.758946248531856   1.661004058439190 
  6.303072802255278   0.752090266857842   1.661118741888705 
  5.073323479155570   2.945096057738794   1.661750545545870 
  3.911969531323940   5.236804520106232   1.661750986853955 
  2.438876759199443   7.280597105723112   1.659791074266555 
  1.187063569367610   9.425012827917936   1.660921843985265 
  0.006172207676810  11.594103441835470   1.661162187792480 
  1.290932745471025  13.740072073898810   1.661052282919410 
  8.817759726626999   0.726353486193425   1.661293350738765 
  7.584157257581958   2.892134682978327   1.661702642659695 
  6.374451653973129   5.059868891664398   1.661902337481405 
  3.615975116700558   7.969413206591396   1.660543573189170 
  3.509543045866095   9.230721379365040   1.657147947428310 
  2.524044864738474  11.565412739568623   1.659607962932955 
  3.803471652760493  13.735513506947042   1.660814900698725 
 11.328968982959177   0.717193000982871   1.660879900945470 
 10.092376706630196   2.876095954220454   1.660600623257295 
  8.869885739637793   5.029702402806733   1.661087280047445 
  7.600048987771458   7.173397462707943   1.661925709252065 
  6.295563272374464   9.165711329818235   1.659823880040225 
  5.068506189354071  11.689429712983417   1.659734204222970 
  6.324872120367447  13.746692332670385   1.660751276399955 
 13.835556740609947   0.722175642986707   1.661466072895800 
 12.589677747707686   2.884619717648603   1.660596937052820 
 11.344606332011740   5.048546211358387   1.660105086203145 
 10.077702289070952   7.213231312477708   1.661226449266065 
  8.788037385024078   9.364259902241361   1.661556952603530 
  7.536526483275379  11.504261680585778   1.659756417191070 
