Species order: X N B                    
   2.51242800000000     
     5.9449720136058266    0.0000000000000000    0.0000000000000000
    -2.9724860068029120    5.1484967885702053   -0.0000000000000001
     0.0000000000000000    0.0000000000000009    5.3101128803662583
   Se   N    B 
     1   143   144
Direct
  0.5555555555555571  0.4444444444444429  0.3750000000000000
  0.1111096020370420  0.0555467635978271  0.1252389451560156
  0.6111262629537986  0.5555858592408751  0.1246583056842720
  0.4444352646498790  0.0555448992719411  0.1252668322978671
  0.9444551007280433  0.5555647353501901  0.1252668322978671
  0.7777780616415734  0.0555556974874366  0.1250864656108698
  0.1111166460618596  0.7222249896976450  0.6251821282276218
  0.4444352646498790  0.7222236987113058  0.6247331677022001
  0.2777665728017220  0.2222125086982802  0.6246046181237184
  0.7777874913018096  0.7222334271982009  0.6246046181237184
  0.6111126025631159  0.2222125086982802  0.6246046181237184
  0.9444443025125849  0.2222219383584561  0.6249135343891792
  0.2777750103023772  0.7222249896976450  0.1248178717724247
  0.1110994997606123  0.2222164165469873  0.1252303057362148
  0.4444446688745025  0.2222226710823690  0.1254808436098561
  0.6111126025631159  0.7222334271982009  0.1253953818762905
  0.9444551007280433  0.7222236987113058  0.1252668322978671
  0.7777835834530146  0.2222164165469873  0.1252303057362149
  0.1111153644662763  0.8888846355336922  0.6249931585221714
  0.4444359377341519  0.8888846355336922  0.6249931585221714
  0.2777665728017220  0.3888873974367971  0.6246046181237184
  0.6111262629537986  0.3888737370462267  0.6253416943156502
  0.7777835834530146  0.8889005002394369  0.6247696942638215
  0.9444532364021974  0.3888961717725647  0.6247610548440303
  0.1111096020370420  0.3888961717725647  0.1252389451560156
  0.2777750103023772  0.8888833539380829  0.1248178717724247
  0.6111038282273908  0.8888903979629038  0.1252389451560156
  0.4444141407591269  0.3888737370462267  0.1246583056842720
  0.9444532364021974  0.8888903979629038  0.1252389451560156
  0.7777874913018096  0.3888873974367971  0.1253953818762905
  0.2777763012887445  0.5555647353501901  0.6247331677022001
  0.1111096020370420  0.0555467635978271  0.6247610548440303
  0.6111262629537986  0.5555858592408751  0.6253416943156502
  0.4444352646498790  0.0555448992719411  0.6247331677022001
  0.9444551007280433  0.5555647353501901  0.6247331677022001
  0.1111153644662763  0.5555640622657658  0.1250068414777785
  0.7777780616415734  0.0555556974874366  0.6249135343891792
  0.2777763012887445  0.0555448992719411  0.1252668322978671
  0.4444446688745025  0.5555553311254732  0.1254808436098561
  0.7777773289176594  0.5555553311254732  0.1254808436098561
  0.6111038282273908  0.0555467635978271  0.1252389451560156
  0.4444446688745025  0.5555553311254732  0.6245191563901783
  0.9444443025125849  0.0555556974874366  0.1250864656108698
  0.2777750103023772  0.7222249896976450  0.6251821282276218
  0.1110994997606123  0.2222164165469873  0.6247696942638215
  0.4444446688745025  0.2222226710823690  0.6245191563901783
  0.6111126025631159  0.7222334271982009  0.6246046181237184
  0.9444551007280433  0.7222236987113058  0.6247331677022001
  0.7777835834530146  0.2222164165469873  0.6247696942638215
  0.1111166460618596  0.7222249896976450  0.1248178717724247
  0.4444352646498790  0.7222236987113058  0.1252668322978671
  0.2777665728017220  0.2222125086982802  0.1253953818762905
  0.7777874913018096  0.7222334271982009  0.1253953818762905
  0.6111126025631159  0.2222125086982802  0.1253953818762905
  0.9444443025125849  0.2222219383584561  0.1250864656108698
  0.1111096020370420  0.3888961717725647  0.6247610548440303
  0.2777750103023772  0.8888833539380829  0.6251821282276218
  0.6111038282273908  0.8888903979629038  0.6247610548440303
  0.4444141407591269  0.3888737370462267  0.6253416943156502
  0.9444532364021974  0.8888903979629038  0.6247610548440303
  0.1111153644662763  0.8888846355336922  0.1250068414777785
  0.7777874913018096  0.3888873974367971  0.6246046181237184
  0.4444359377341519  0.8888846355336922  0.1250068414777785
  0.2777665728017220  0.3888873974367971  0.1253953818762870
  0.2777763012887445  0.5555647353501901  0.1252668322978671
  0.6111262629537986  0.3888737370462267  0.1246583056842720
  0.7777835834530146  0.8889005002394369  0.1252303057362149
  0.9444532364021974  0.3888961717725647  0.1252389451560156
  0.1111153644662669  0.5555640622657658  0.6249931585221714
  0.2777763012887445  0.0555448992719411  0.6247331677022001
  0.7777773289176594  0.5555553311254732  0.6245191563901783
  0.6111038282273908  0.0555467635978271  0.6247610548440303
  0.9444443025125849  0.0555556974874366  0.6249135343891792
  0.0545729829497443  0.1104762623999286  0.3750000000000000
  0.5556023429239628  0.6194088805542963  0.3750000000000000
  0.3878265880107515  0.1089865093549564  0.3750000000000000
  0.8910134906451542  0.6121734119892438  0.3750000000000000
  0.7225699461168684  0.1104762623999286  0.3750000000000000
  0.0555496435363830  0.7777782840198902  0.8750000000000000
  0.3888953071501599  0.7777782840198902  0.8750000000000000
  0.2222226453913191  0.2777779893623145  0.8750000000000000
  0.7222220106375939  0.7777773546087068  0.8750000000000000
  0.5555555139437502  0.2777804167423314  0.8750000000000000
  0.8888888657151542  0.2777767900655487  0.8750000000000000
  0.2222222222222214  0.7777777777777786  0.3750000000000000
  0.0545729829497443  0.2774300538831047  0.3750000000000000
  0.3805911194457120  0.2695267957030164  0.3750000000000000
  0.5552414136634236  0.7810836792929302  0.3750000000000000
  0.8925089322962418  0.7810836792929302  0.3750000000000000
  0.7237701903371956  0.2762298096628429  0.3750000000000000
  0.0555527097640031  0.9444472902360881  0.8750000000000000
  0.3888953071501599  0.9444503564635329  0.8750000000000000
  0.2222203362351818  0.4444395607264979  0.8750000000000000
  0.5555555555555571  0.4444444444444429  0.8750000000000000
  0.7222232099343353  0.9444454089828735  0.8750000000000000
  0.8888858911579173  0.4444395607264979  0.8750000000000000
  0.0557066723685650  0.4447466780704438  0.3750000000000000
  0.2218892945617980  0.9435943868246305  0.3750000000000000
  0.5552533219295507  0.9442933276313813  0.3750000000000000
  0.3805911194457121  0.4443976570759159  0.3750000000000000
  0.8895237376001123  0.9454270170502158  0.3750000000000000
  0.7304732042967631  0.4443976570758958  0.3750000000000000
  0.2222217159800954  0.6111046928497816  0.8750000000000000
  0.0555545910170240  0.1111111342847812  0.8750000000000000
  0.5555555139437502  0.6111084305348164  0.8750000000000000
  0.3888923226275333  0.1111179785884203  0.8750000000000000
  0.8888820214115906  0.6111076773724792  0.8750000000000000
  0.0564056131754278  0.6116282410706048  0.3750000000000000
  0.7222232099343353  0.1111111342847812  0.8750000000000000
  0.2189163207070606  0.1074910677038280  0.3750000000000000
  0.3878265880107515  0.6121734119892438  0.3750000000000000
  0.7304732042967631  0.6194088805542963  0.3750000000000000
  0.5552414136634236  0.1074910677038280  0.3750000000000000
  0.3888923226275333  0.6111076773724792  0.8750000000000000
  0.8888888888888857  0.1111111111111143  0.3750000000000000
  0.2222222222222214  0.7777777777777786  0.8750000000000000
  0.0555545910170240  0.2777767900655487  0.8750000000000000
  0.3888915694652211  0.2777804167423314  0.8750000000000000
  0.5555604392735815  0.7777796637648672  0.8750000000000000
  0.8888858911579125  0.7777796637648672  0.8750000000000000
  0.7222220106375939  0.2777779893623145  0.8750000000000000
  0.0564056131754278  0.7781107054382187  0.3750000000000000
  0.3883717589294527  0.7781107054382187  0.3750000000000000
  0.2191262859923933  0.2762298096628429  0.3750000000000000
  0.7237701903371956  0.7808737140076499  0.3750000000000000
  0.5556023429239628  0.2695267957030163  0.3750000000000000
  0.8895237376001123  0.2774300538831047  0.3750000000000000
  0.0555527097640031  0.4444387528613732  0.8750000000000000
  0.2222217159800954  0.9444503564635329  0.8750000000000000
  0.5555612471385908  0.9444472902360881  0.8750000000000000
  0.3888915694652211  0.4444444860562514  0.8750000000000000
  0.8888888657151542  0.9444454089828735  0.8750000000000000
  0.0557066723685650  0.9442933276313813  0.3750000000000000
  0.7222195832576198  0.4444444860562514  0.8750000000000000
  0.3883717589294527  0.9435943868246305  0.3750000000000000
  0.2189163207070562  0.4447585863365395  0.3750000000000000
  0.2218892945617980  0.6116282410706048  0.3750000000000000
  0.7225699461168793  0.9454270170502158  0.3750000000000000
  0.8925089322962418  0.4447585863365395  0.3750000000000000
  0.0555496435363830  0.6111046928497816  0.8750000000000000
  0.2222203362351818  0.1111141088420555  0.8750000000000000
  0.7222195832576198  0.6111084305348164  0.8750000000000000
  0.5555604392735815  0.1111141088420555  0.8750000000000000
  0.8888888888888857  0.1111111111111143  0.8750000000000000
  0.1089461430631180  0.0539837395715684  0.3750000000000000
  0.6245390793843272  0.5824114921017649  0.3750000000000000
  0.4440503318926862  0.0536687590958417  0.3750000000000000
  0.9463312409040152  0.5559496681072423  0.3750000000000000
  0.7783283420090746  0.0558308376711869  0.3750000000000000
  0.1111139986321214  0.7222236659827294  0.8750000000000000
  0.4444471215675272  0.7222399831384282  0.8750000000000000
  0.2777416946720659  0.2222007361713566  0.8750000000000000
  0.7777992638286740  0.7222583053278039  0.8750000000000000
  0.6111257081658719  0.2222007361713566  0.8750000000000000
  0.9444390105904091  0.2222113545140878  0.8750000000000000
  0.2774985691804964  0.7225014308195552  0.3750000000000000
  0.1086046295157498  0.2209689814245323  0.3750000000000000
  0.4425083256587324  0.2183499846507485  0.3750000000000000
  0.6124976359925358  0.7296404842320026  0.3750000000000000
  0.9463312409040152  0.7237149061301769  0.3750000000000000
  0.7790310185753706  0.2209689814245323  0.3750000000000000
  0.1111064339981452  0.8888935660018797  0.8750000000000000
  0.4444537986703582  0.8888935660018797  0.8750000000000000
  0.2777416946720659  0.3888742918340964  0.8750000000000000
  0.6111211236848332  0.3888788763152257  0.8750000000000000
  0.7777925680538262  0.8889184694411093  0.8750000000000000
  0.9444510292362128  0.3888748267749551  0.8750000000000000
  0.1089461430631180  0.3882957368249091  0.3750000000000000
  0.2774985691804964  0.8883304716943213  0.3750000000000000
  0.6117042631750990  0.8910538569369874  0.3750000000000000
  0.4175885078981671  0.3754609206157818  0.3750000000000000
  0.9460162604283809  0.8910538569369874  0.3750000000000000
  0.7838095149061931  0.3875023640075506  0.3750000000000000
  0.2777600168615966  0.5555528784325845  0.8750000000000000
  0.1110904642055159  0.0555489707638567  0.8750000000000000
  0.6111211236848332  0.5555755807028773  0.8750000000000000
  0.4444471215675272  0.0555404717623830  0.8750000000000000
  0.9444595282375770  0.5555528784325845  0.8750000000000000
  0.1111998167665915  0.5557329668664047  0.3750000000000000
  0.7777886454859587  0.0555609894096148  0.8750000000000000
  0.2762850938698285  0.0536687590958417  0.3750000000000000
  0.4425083256587324  0.5574916743413426  0.3750000000000000
  0.7816500153491994  0.5574916743413426  0.3750000000000000
  0.6117042631750990  0.0539837395715684  0.3750000000000000
  0.4444315596547916  0.5555684403451636  0.8750000000000000
  0.9441691623288511  0.0558308376711869  0.3750000000000000
  0.2777763340173070  0.7222236659827294  0.8750000000000000
  0.1110815305589579  0.2222074319461376  0.8750000000000000
  0.4444315596547916  0.2221964526429882  0.8750000000000000
  0.6111257081658719  0.7222583053278039  0.8750000000000000
  0.9444595282375770  0.7222399831384282  0.8750000000000000
  0.7777925680538262  0.2222074319461376  0.8750000000000000
  0.1116695283057388  0.7225014308195552  0.3750000000000000
  0.4440503318926862  0.7237149061301769  0.3750000000000000
  0.2703595157680131  0.2161904850938152  0.3750000000000000
  0.7838095149061931  0.7296404842320026  0.3750000000000000
  0.6124976359925359  0.2161904850938152  0.3750000000000000
  0.9441691623288511  0.2216716579909442  0.3750000000000000
  0.1110904642055159  0.3888748267749551  0.8750000000000000
  0.2777763340173070  0.8888860013679426  0.8750000000000000
  0.6111251732250793  0.8889095357945591  0.8750000000000000
  0.4444244192971527  0.3888788763152257  0.8750000000000000
  0.9444510292362128  0.8889095357945591  0.8750000000000000
  0.1111998167665915  0.8888001832333861  0.3750000000000000
  0.7777992638286740  0.3888742918340964  0.8750000000000000
  0.4442670331335002  0.8888001832333861  0.3750000000000000
  0.2703595157680131  0.3875023640075506  0.3750000000000000
  0.2762850938698285  0.5559496681072423  0.3750000000000000
  0.6245390793843272  0.3754609206157818  0.3750000000000000
  0.7790310185753706  0.8913953704842820  0.3750000000000000
  0.9460162604283809  0.3882957368249091  0.3750000000000000
  0.1111064339981452  0.5555462013296915  0.8750000000000000
  0.2777600168615966  0.0555404717623843  0.8750000000000000
  0.7778035473570811  0.5555684403451636  0.8750000000000000
  0.6111251732250793  0.0555489707638567  0.8750000000000000
  0.9444390105904091  0.0555609894096148  0.8750000000000000
  0.0555129143594810  0.1110822739237808  0.1249802376575462
  0.5555481581076401  0.6112311190274823  0.1245712268236143
  0.3888173881213605  0.1109681095762266  0.1250201899769282
  0.8890318904239362  0.6111826118785301  0.1250201899769282
  0.7222360262309404  0.1110822739237808  0.1249802376575462
  0.0556189878678555  0.7778025021101387  0.6252286657090356
  0.3888501809090689  0.7778025021101387  0.6252286657090356
  0.2221026342167442  0.2777179837750547  0.6250094687961429
  0.7222820162249367  0.7778973657832262  0.6250094687961429
  0.5555481581076401  0.2776503724135573  0.6254287731763228
  0.8889177260762493  0.2777639737690163  0.6250197623423355
  0.2222222222222214  0.7777777777777786  0.1245460251615318
  0.0555129143594810  0.2777639737690163  0.1249802376575462
  0.3887688809725554  0.2776503724135573  0.1245712268236144
  0.5555346187234574  0.7778625198261856  0.1250203149073740
  0.8889945677693250  0.7778625198261856  0.1250203149073740
  0.7222820162249367  0.2777179837750547  0.1249905312038378
  0.0555659522306138  0.9444340477693932  0.6250512797400154
  0.3888501809090689  0.9443810121321894  0.6252286657090356
  0.2221374801738421  0.4444653812765477  0.6249796850926427
  0.5555555555555571  0.4444444444444429  0.6261900328724355
  0.7222360262309404  0.9444870856405808  0.6250197623423355
  0.8889945677693250  0.4444653812765477  0.6249796850926427
  0.0555659522306138  0.4444652377945492  0.1249487202600013
  0.2221974978898290  0.9443810121321894  0.1247713342909113
  0.5555347622053360  0.9444340477693932  0.1249487202600013
  0.3887688809725554  0.4444518418923370  0.1245712268236164
  0.8889177260762493  0.9444870856405808  0.1249802376575462
  0.7223496275864023  0.4444518418923370  0.1245712268236144
  0.2221974978898290  0.6111498190910821  0.6252286657090356
  0.0555129143594810  0.1110822739237808  0.6250197623423355
  0.5555481581076401  0.6112311190274823  0.6254287731763228
  0.3888173881213605  0.1109681095762266  0.6249798100230686
  0.8890318904239362  0.6111826118785301  0.6249798100230686
  0.0556189878678555  0.6111498190910821  0.1247713342909113
  0.7222360262309404  0.1110822739237808  0.6250197623423355
  0.2221374801738421  0.1110054322306363  0.1250203149073740
  0.3888173881213605  0.6111826118785301  0.1250201899769282
  0.7223496275864023  0.6112311190274823  0.1245712268236144
  0.5555346187234574  0.1110054322306363  0.1250203149073740
  0.3888173881213605  0.6111826118785301  0.6249798100230686
  0.8888888888888857  0.1111111111111143  0.1248964165956176
  0.2222222222222214  0.7777777777777786  0.6254539748384331
  0.0555129143594810  0.2777639737690163  0.6250197623423355
  0.3887688809725554  0.2776503724135573  0.6254287731763228
  0.5555346187234574  0.7778625198261856  0.6249796850926427
  0.8889945677693250  0.7778625198261856  0.6249796850926427
  0.7222820162249367  0.2777179837750547  0.6250094687961429
  0.0556189878678555  0.7778025021101387  0.1247713342909113
  0.3888501809090689  0.7778025021101387  0.1247713342909113
  0.2221026342167442  0.2777179837750547  0.1249905312038378
  0.7222820162249367  0.7778973657832262  0.1249905312038378
  0.5555481581076401  0.2776503724135573  0.1245712268236144
  0.8889177260762493  0.2777639737690163  0.1249802376575462
  0.0555659522306138  0.4444652377945492  0.6250512797400154
  0.2221974978898290  0.9443810121321894  0.6252286657090356
  0.5555347622053360  0.9444340477693932  0.6250512797400154
  0.3887688809725554  0.4444518418923370  0.6254287731763228
  0.8889177260762493  0.9444870856405808  0.6250197623423355
  0.0555659522306138  0.9444340477693932  0.1249487202600013
  0.7223496275864023  0.4444518418923370  0.6254287731763228
  0.3888501809090689  0.9443810121321894  0.1247713342909113
  0.2221374801738421  0.4444653812765477  0.1250203149073740
  0.2221974978898290  0.6111498190910821  0.1247713342909113
  0.5555555555555571  0.4444444444444429  0.1238099671276102
  0.7222360262309404  0.9444870856405808  0.1249802376575462
  0.8889945677693250  0.4444653812765477  0.1250203149073740
  0.0556189878678555  0.6111498190910821  0.6252286657090356
  0.2221374801738421  0.1110054322306363  0.6249796850926427
  0.7223496275864023  0.6112311190274823  0.6254287731763228
  0.5555346187234574  0.1110054322306363  0.6249796850926427
  0.8888888888888857  0.1111111111111143  0.6251035834041943
 
  0.00000000E+00  0.00000000E+00  0.00000000E+00
  0.00000000E+00  0.00000000E+00  0.00000000E+00
  0.00000000E+00  0.00000000E+00  0.00000000E+00
  0.00000000E+00  0.00000000E+00  0.00000000E+00
  0.00000000E+00  0.00000000E+00  0.00000000E+00
  0.00000000E+00  0.00000000E+00  0.00000000E+00
  0.00000000E+00  0.00000000E+00  0.00000000E+00
  0.00000000E+00  0.00000000E+00  0.00000000E+00
  0.00000000E+00  0.00000000E+00  0.00000000E+00
  0.00000000E+00  0.00000000E+00  0.00000000E+00
  0.00000000E+00  0.00000000E+00  0.00000000E+00
  0.00000000E+00  0.00000000E+00  0.00000000E+00
  0.00000000E+00  0.00000000E+00  0.00000000E+00
  0.00000000E+00  0.00000000E+00  0.00000000E+00
  0.00000000E+00  0.00000000E+00  0.00000000E+00
  0.00000000E+00  0.00000000E+00  0.00000000E+00
  0.00000000E+00  0.00000000E+00  0.00000000E+00
  0.00000000E+00  0.00000000E+00  0.00000000E+00
  0.00000000E+00  0.00000000E+00  0.00000000E+00
  0.00000000E+00  0.00000000E+00  0.00000000E+00
  0.00000000E+00  0.00000000E+00  0.00000000E+00
  0.00000000E+00  0.00000000E+00  0.00000000E+00
  0.00000000E+00  0.00000000E+00  0.00000000E+00
  0.00000000E+00  0.00000000E+00  0.00000000E+00
  0.00000000E+00  0.00000000E+00  0.00000000E+00
  0.00000000E+00  0.00000000E+00  0.00000000E+00
  0.00000000E+00  0.00000000E+00  0.00000000E+00
  0.00000000E+00  0.00000000E+00  0.00000000E+00
  0.00000000E+00  0.00000000E+00  0.00000000E+00
  0.00000000E+00  0.00000000E+00  0.00000000E+00
  0.00000000E+00  0.00000000E+00  0.00000000E+00
  0.00000000E+00  0.00000000E+00  0.00000000E+00
  0.00000000E+00  0.00000000E+00  0.00000000E+00
  0.00000000E+00  0.00000000E+00  0.00000000E+00
  0.00000000E+00  0.00000000E+00  0.00000000E+00
  0.00000000E+00  0.00000000E+00  0.00000000E+00
  0.00000000E+00  0.00000000E+00  0.00000000E+00
  0.00000000E+00  0.00000000E+00  0.00000000E+00
  0.00000000E+00  0.00000000E+00  0.00000000E+00
  0.00000000E+00  0.00000000E+00  0.00000000E+00
  0.00000000E+00  0.00000000E+00  0.00000000E+00
  0.00000000E+00  0.00000000E+00  0.00000000E+00
  0.00000000E+00  0.00000000E+00  0.00000000E+00
  0.00000000E+00  0.00000000E+00  0.00000000E+00
  0.00000000E+00  0.00000000E+00  0.00000000E+00
  0.00000000E+00  0.00000000E+00  0.00000000E+00
  0.00000000E+00  0.00000000E+00  0.00000000E+00
  0.00000000E+00  0.00000000E+00  0.00000000E+00
  0.00000000E+00  0.00000000E+00  0.00000000E+00
  0.00000000E+00  0.00000000E+00  0.00000000E+00
  0.00000000E+00  0.00000000E+00  0.00000000E+00
  0.00000000E+00  0.00000000E+00  0.00000000E+00
  0.00000000E+00  0.00000000E+00  0.00000000E+00
  0.00000000E+00  0.00000000E+00  0.00000000E+00
  0.00000000E+00  0.00000000E+00  0.00000000E+00
  0.00000000E+00  0.00000000E+00  0.00000000E+00
  0.00000000E+00  0.00000000E+00  0.00000000E+00
  0.00000000E+00  0.00000000E+00  0.00000000E+00
  0.00000000E+00  0.00000000E+00  0.00000000E+00
  0.00000000E+00  0.00000000E+00  0.00000000E+00
  0.00000000E+00  0.00000000E+00  0.00000000E+00
  0.00000000E+00  0.00000000E+00  0.00000000E+00
  0.00000000E+00  0.00000000E+00  0.00000000E+00
  0.00000000E+00  0.00000000E+00  0.00000000E+00
  0.00000000E+00  0.00000000E+00  0.00000000E+00
  0.00000000E+00  0.00000000E+00  0.00000000E+00
  0.00000000E+00  0.00000000E+00  0.00000000E+00
  0.00000000E+00  0.00000000E+00  0.00000000E+00
  0.00000000E+00  0.00000000E+00  0.00000000E+00
  0.00000000E+00  0.00000000E+00  0.00000000E+00
  0.00000000E+00  0.00000000E+00  0.00000000E+00
  0.00000000E+00  0.00000000E+00  0.00000000E+00
  0.00000000E+00  0.00000000E+00  0.00000000E+00
  0.00000000E+00  0.00000000E+00  0.00000000E+00
  0.00000000E+00  0.00000000E+00  0.00000000E+00
  0.00000000E+00  0.00000000E+00  0.00000000E+00
  0.00000000E+00  0.00000000E+00  0.00000000E+00
  0.00000000E+00  0.00000000E+00  0.00000000E+00
  0.00000000E+00  0.00000000E+00  0.00000000E+00
  0.00000000E+00  0.00000000E+00  0.00000000E+00
  0.00000000E+00  0.00000000E+00  0.00000000E+00
  0.00000000E+00  0.00000000E+00  0.00000000E+00
  0.00000000E+00  0.00000000E+00  0.00000000E+00
  0.00000000E+00  0.00000000E+00  0.00000000E+00
  0.00000000E+00  0.00000000E+00  0.00000000E+00
  0.00000000E+00  0.00000000E+00  0.00000000E+00
  0.00000000E+00  0.00000000E+00  0.00000000E+00
  0.00000000E+00  0.00000000E+00  0.00000000E+00
  0.00000000E+00  0.00000000E+00  0.00000000E+00
  0.00000000E+00  0.00000000E+00  0.00000000E+00
  0.00000000E+00  0.00000000E+00  0.00000000E+00
  0.00000000E+00  0.00000000E+00  0.00000000E+00
  0.00000000E+00  0.00000000E+00  0.00000000E+00
  0.00000000E+00  0.00000000E+00  0.00000000E+00
  0.00000000E+00  0.00000000E+00  0.00000000E+00
  0.00000000E+00  0.00000000E+00  0.00000000E+00
  0.00000000E+00  0.00000000E+00  0.00000000E+00
  0.00000000E+00  0.00000000E+00  0.00000000E+00
  0.00000000E+00  0.00000000E+00  0.00000000E+00
  0.00000000E+00  0.00000000E+00  0.00000000E+00
  0.00000000E+00  0.00000000E+00  0.00000000E+00
  0.00000000E+00  0.00000000E+00  0.00000000E+00
  0.00000000E+00  0.00000000E+00  0.00000000E+00
  0.00000000E+00  0.00000000E+00  0.00000000E+00
  0.00000000E+00  0.00000000E+00  0.00000000E+00
  0.00000000E+00  0.00000000E+00  0.00000000E+00
  0.00000000E+00  0.00000000E+00  0.00000000E+00
  0.00000000E+00  0.00000000E+00  0.00000000E+00
  0.00000000E+00  0.00000000E+00  0.00000000E+00
  0.00000000E+00  0.00000000E+00  0.00000000E+00
  0.00000000E+00  0.00000000E+00  0.00000000E+00
  0.00000000E+00  0.00000000E+00  0.00000000E+00
  0.00000000E+00  0.00000000E+00  0.00000000E+00
  0.00000000E+00  0.00000000E+00  0.00000000E+00
  0.00000000E+00  0.00000000E+00  0.00000000E+00
  0.00000000E+00  0.00000000E+00  0.00000000E+00
  0.00000000E+00  0.00000000E+00  0.00000000E+00
  0.00000000E+00  0.00000000E+00  0.00000000E+00
  0.00000000E+00  0.00000000E+00  0.00000000E+00
  0.00000000E+00  0.00000000E+00  0.00000000E+00
  0.00000000E+00  0.00000000E+00  0.00000000E+00
  0.00000000E+00  0.00000000E+00  0.00000000E+00
  0.00000000E+00  0.00000000E+00  0.00000000E+00
  0.00000000E+00  0.00000000E+00  0.00000000E+00
  0.00000000E+00  0.00000000E+00  0.00000000E+00
  0.00000000E+00  0.00000000E+00  0.00000000E+00
  0.00000000E+00  0.00000000E+00  0.00000000E+00
  0.00000000E+00  0.00000000E+00  0.00000000E+00
  0.00000000E+00  0.00000000E+00  0.00000000E+00
  0.00000000E+00  0.00000000E+00  0.00000000E+00
  0.00000000E+00  0.00000000E+00  0.00000000E+00
  0.00000000E+00  0.00000000E+00  0.00000000E+00
  0.00000000E+00  0.00000000E+00  0.00000000E+00
  0.00000000E+00  0.00000000E+00  0.00000000E+00
  0.00000000E+00  0.00000000E+00  0.00000000E+00
  0.00000000E+00  0.00000000E+00  0.00000000E+00
  0.00000000E+00  0.00000000E+00  0.00000000E+00
  0.00000000E+00  0.00000000E+00  0.00000000E+00
  0.00000000E+00  0.00000000E+00  0.00000000E+00
  0.00000000E+00  0.00000000E+00  0.00000000E+00
  0.00000000E+00  0.00000000E+00  0.00000000E+00
  0.00000000E+00  0.00000000E+00  0.00000000E+00
  0.00000000E+00  0.00000000E+00  0.00000000E+00
  0.00000000E+00  0.00000000E+00  0.00000000E+00
  0.00000000E+00  0.00000000E+00  0.00000000E+00
  0.00000000E+00  0.00000000E+00  0.00000000E+00
  0.00000000E+00  0.00000000E+00  0.00000000E+00
  0.00000000E+00  0.00000000E+00  0.00000000E+00
  0.00000000E+00  0.00000000E+00  0.00000000E+00
  0.00000000E+00  0.00000000E+00  0.00000000E+00
  0.00000000E+00  0.00000000E+00  0.00000000E+00
  0.00000000E+00  0.00000000E+00  0.00000000E+00
  0.00000000E+00  0.00000000E+00  0.00000000E+00
  0.00000000E+00  0.00000000E+00  0.00000000E+00
  0.00000000E+00  0.00000000E+00  0.00000000E+00
  0.00000000E+00  0.00000000E+00  0.00000000E+00
  0.00000000E+00  0.00000000E+00  0.00000000E+00
  0.00000000E+00  0.00000000E+00  0.00000000E+00
  0.00000000E+00  0.00000000E+00  0.00000000E+00
  0.00000000E+00  0.00000000E+00  0.00000000E+00
  0.00000000E+00  0.00000000E+00  0.00000000E+00
  0.00000000E+00  0.00000000E+00  0.00000000E+00
  0.00000000E+00  0.00000000E+00  0.00000000E+00
  0.00000000E+00  0.00000000E+00  0.00000000E+00
  0.00000000E+00  0.00000000E+00  0.00000000E+00
  0.00000000E+00  0.00000000E+00  0.00000000E+00
  0.00000000E+00  0.00000000E+00  0.00000000E+00
  0.00000000E+00  0.00000000E+00  0.00000000E+00
  0.00000000E+00  0.00000000E+00  0.00000000E+00
  0.00000000E+00  0.00000000E+00  0.00000000E+00
  0.00000000E+00  0.00000000E+00  0.00000000E+00
  0.00000000E+00  0.00000000E+00  0.00000000E+00
  0.00000000E+00  0.00000000E+00  0.00000000E+00
  0.00000000E+00  0.00000000E+00  0.00000000E+00
  0.00000000E+00  0.00000000E+00  0.00000000E+00
  0.00000000E+00  0.00000000E+00  0.00000000E+00
  0.00000000E+00  0.00000000E+00  0.00000000E+00
  0.00000000E+00  0.00000000E+00  0.00000000E+00
  0.00000000E+00  0.00000000E+00  0.00000000E+00
  0.00000000E+00  0.00000000E+00  0.00000000E+00
  0.00000000E+00  0.00000000E+00  0.00000000E+00
  0.00000000E+00  0.00000000E+00  0.00000000E+00
  0.00000000E+00  0.00000000E+00  0.00000000E+00
  0.00000000E+00  0.00000000E+00  0.00000000E+00
  0.00000000E+00  0.00000000E+00  0.00000000E+00
  0.00000000E+00  0.00000000E+00  0.00000000E+00
  0.00000000E+00  0.00000000E+00  0.00000000E+00
  0.00000000E+00  0.00000000E+00  0.00000000E+00
  0.00000000E+00  0.00000000E+00  0.00000000E+00
  0.00000000E+00  0.00000000E+00  0.00000000E+00
  0.00000000E+00  0.00000000E+00  0.00000000E+00
  0.00000000E+00  0.00000000E+00  0.00000000E+00
  0.00000000E+00  0.00000000E+00  0.00000000E+00
  0.00000000E+00  0.00000000E+00  0.00000000E+00
  0.00000000E+00  0.00000000E+00  0.00000000E+00
  0.00000000E+00  0.00000000E+00  0.00000000E+00
  0.00000000E+00  0.00000000E+00  0.00000000E+00
  0.00000000E+00  0.00000000E+00  0.00000000E+00
  0.00000000E+00  0.00000000E+00  0.00000000E+00
  0.00000000E+00  0.00000000E+00  0.00000000E+00
  0.00000000E+00  0.00000000E+00  0.00000000E+00
  0.00000000E+00  0.00000000E+00  0.00000000E+00
  0.00000000E+00  0.00000000E+00  0.00000000E+00
  0.00000000E+00  0.00000000E+00  0.00000000E+00
  0.00000000E+00  0.00000000E+00  0.00000000E+00
  0.00000000E+00  0.00000000E+00  0.00000000E+00
  0.00000000E+00  0.00000000E+00  0.00000000E+00
  0.00000000E+00  0.00000000E+00  0.00000000E+00
  0.00000000E+00  0.00000000E+00  0.00000000E+00
  0.00000000E+00  0.00000000E+00  0.00000000E+00
  0.00000000E+00  0.00000000E+00  0.00000000E+00
  0.00000000E+00  0.00000000E+00  0.00000000E+00
  0.00000000E+00  0.00000000E+00  0.00000000E+00
  0.00000000E+00  0.00000000E+00  0.00000000E+00
  0.00000000E+00  0.00000000E+00  0.00000000E+00
  0.00000000E+00  0.00000000E+00  0.00000000E+00
  0.00000000E+00  0.00000000E+00  0.00000000E+00
  0.00000000E+00  0.00000000E+00  0.00000000E+00
  0.00000000E+00  0.00000000E+00  0.00000000E+00
  0.00000000E+00  0.00000000E+00  0.00000000E+00
  0.00000000E+00  0.00000000E+00  0.00000000E+00
  0.00000000E+00  0.00000000E+00  0.00000000E+00
  0.00000000E+00  0.00000000E+00  0.00000000E+00
  0.00000000E+00  0.00000000E+00  0.00000000E+00
  0.00000000E+00  0.00000000E+00  0.00000000E+00
  0.00000000E+00  0.00000000E+00  0.00000000E+00
  0.00000000E+00  0.00000000E+00  0.00000000E+00
  0.00000000E+00  0.00000000E+00  0.00000000E+00
  0.00000000E+00  0.00000000E+00  0.00000000E+00
  0.00000000E+00  0.00000000E+00  0.00000000E+00
  0.00000000E+00  0.00000000E+00  0.00000000E+00
  0.00000000E+00  0.00000000E+00  0.00000000E+00
  0.00000000E+00  0.00000000E+00  0.00000000E+00
  0.00000000E+00  0.00000000E+00  0.00000000E+00
  0.00000000E+00  0.00000000E+00  0.00000000E+00
  0.00000000E+00  0.00000000E+00  0.00000000E+00
  0.00000000E+00  0.00000000E+00  0.00000000E+00
  0.00000000E+00  0.00000000E+00  0.00000000E+00
  0.00000000E+00  0.00000000E+00  0.00000000E+00
  0.00000000E+00  0.00000000E+00  0.00000000E+00
  0.00000000E+00  0.00000000E+00  0.00000000E+00
  0.00000000E+00  0.00000000E+00  0.00000000E+00
  0.00000000E+00  0.00000000E+00  0.00000000E+00
  0.00000000E+00  0.00000000E+00  0.00000000E+00
  0.00000000E+00  0.00000000E+00  0.00000000E+00
  0.00000000E+00  0.00000000E+00  0.00000000E+00
  0.00000000E+00  0.00000000E+00  0.00000000E+00