 N Se B 
 1.0
 14.936314146199660   0.000000000000000   0.000000000000000
 -7.468157073099825  12.935227489513863   0.000000000000000
  0.000000000000001   0.000000000000001  13.341276283792837
 N Se B 
 143   1 144
Cartesian
  1.244735965233569   0.718510023444140   1.670847368817188 
  4.978771382066977   7.186629479237746   1.663100897203376 
  6.223406698087613   0.718485907964690   1.671219418881388 
  9.957633373584340   7.186356236906272   1.671219418881388 
 11.202238789558981   0.718625585338612   1.668813097077768 
 -3.734016532727895   9.342144540350844   8.340727500374305 
  1.244544706568821   9.342127841148864   8.334737793964134 
  2.489290872113442   2.874369351027831   8.333022778521441 
  6.223525631308998   9.342253681339979   8.333022778521441 
  7.468251892018045   2.874369351027831   8.333022778521441 
 12.446928455166738   2.874491325827356   8.337144115767513 
 -1.244754849339766   9.342144540350844   1.665229712470949 
 -0.000130073084143   2.874419899939850   1.670732107930691 
  4.978771382066332   2.874500803777857   1.674074602922490 
  3.734017132824987   9.342253681339979   1.672934434323307 
  8.712998057563535   9.342127841148864   1.671219418881388 
  9.957672837216855   2.874419899939850   1.670732107930691 
 -4.978676087892931  11.497924972561924   8.338206403324616 
 -0.000095294172576  11.497924972561924   8.338206403324616 
  1.244536622872760   5.030346953649961   8.333022778521441 
  6.223803696606421   5.030170253390343   8.342856315640212 
  4.978771382066010  11.498130186139790   8.335225104914416 
 11.202312539373461   5.030460451679190   8.335109844028054 
 -1.244769775240241   5.030460451679189   1.670847368817188 
 -2.489385691033240  11.497908394831173   1.665229712470949 
  2.489265641592366  11.497999510894674   1.670847368817188 
  3.733739067527174   5.030170253390342   1.663100897203376 
  7.468277122541007  11.497999510894674   1.670847368817188 
  8.713006141261371   5.030346953649960   1.672934434323307 
 -0.000090609452268   7.186356236906273   8.334737793964134 
  1.244735965233570   0.718510023444141   8.335109844028054 
  4.978771382066978   7.186629479237747   8.342856315640212 
  6.223406698087614   0.718485907964691   8.334737793964134 
  9.957633373584340   7.186356236906273   8.334737793964134 
 -2.489385691032383   7.186347530406128   1.667750809519330 
 11.202238789558981   0.718625585338612   8.337144115767513 
  3.734136066045722   0.718485907964690   1.671219418881388 
  2.489390719270247   7.186234591120194   1.674074602922490 
  7.468152044863201   7.186234591120194   1.674074602922490 
  8.712806798898630   0.718510023444140   1.670847368817188 
  2.489390719270248   7.186234591120195   8.331882609922591 
 13.691618120774598   0.718625585338612   1.668813097077768 
 -1.244754849339766   9.342144540350844   8.340727500374305 
 -0.000130073084143   2.874419899939851   8.335225104914416 
  4.978771382066333   2.874500803777858   8.331882609922591 
  3.734017132824988   9.342253681339979   8.333022778521441 
  8.712998057563535   9.342127841148864   8.334737793964134 
  9.957672837216855   2.874419899939851   8.335225104914416 
 -3.734016532727896   9.342144540350844   1.665229712470949 
  1.244544706568821   9.342127841148864   1.671219418881388 
  2.489290872113442   2.874369351027830   1.672934434323307 
  6.223525631308997   9.342253681339979   1.672934434323307 
  7.468251892018044   2.874369351027830   1.672934434323307 
 12.446928455166738   2.874491325827355   1.668813097077768 
 -1.244769775240240   5.030460451679190   8.335109844028054 
 -2.489385691033239  11.497908394831173   8.340727500374305 
  2.489265641592367  11.497999510894674   8.335109844028054 
  3.733739067527174   5.030170253390343   8.342856315640212 
  7.468277122541008  11.497999510894674   8.335109844028054 
 -4.978676087892932  11.497924972561924   1.667750809519330 
  8.713006141261371   5.030346953649961   8.333022778521441 
 -0.000095294172576  11.497924972561924   1.667750809519330 
  1.244536622872760   5.030346953649960   1.672934434323254 
 -0.000090609452268   7.186356236906272   1.671219418881388 
  6.223803696606420   5.030170253390342   1.663100897203376 
  4.978771382066009  11.498130186139790   1.670732107930691 
 11.202312539373461   5.030460451679189   1.670847368817188 
 -2.489385691032517   7.186347530406129   8.338206403324616 
  3.734136066045722   0.718485907964691   8.334737793964134 
  7.468152044863202   7.186234591120195   8.331882609922591 
  8.712806798898630   0.718510023444141   8.335109844028054 
 13.691618120774598   0.718625585338612   8.337144115767513 
 -0.009934863219088   1.429035586334309   5.002978606422314 
  3.672808321824454   8.012194778994939   5.002978606422314 
  4.978771382065652   1.409765291794387   5.002978606422314 
  8.736650208066827   7.918602347112766   5.002978606422314 
  9.967477627352441   1.429035586334309   5.002978606422314 
 -4.978863466537759  10.060739040201005  11.673616748318732 
  0.000092084471012  10.060739040201005  11.673616748318732 
  1.244697585956648   3.593121483981308  11.673616748318732 
  4.978771382065172  10.060727018055921  11.673616748318732 
  6.223443897854401   3.593152882694018  11.673616748318732 
 11.202242639909631   3.593105970804812  11.673616748318732 
 -2.489385691033300  10.060732491844131   5.002978606422314 
 -1.256772001965002   3.588620859406052   5.002978606422314 
  3.671760075575543   3.486390416938240   5.002978606422314 
  2.460004577262568  10.103495080000538   5.002978606422314 
  7.497538186871583  10.103495080000538   5.002978606422314 
  8.747531325696503   3.573095427373989   5.002978606422314 
 -6.223527986038800  12.216640551058726  11.673616748318732 
 -1.244641132237187  12.216680213408262  11.673616748318732 
  0.000008302677819   5.748926823336864  11.673616748318732 
  4.978771382066590   5.748989995339477  11.673616748318732 
  3.734086086003828  12.216616216620437  11.673616748318732 
  9.957534461454312   5.748926823336864  11.673616748318732 
 -2.489385691033129   5.752899456046780   5.002978606422314 
 -3.732702884848005  12.205608051404933   5.002978606422314 
  1.241307153229440  12.214649009741960   5.002978606422314 
  2.365797015334461   5.748384790083945   5.002978606422314 
  6.225608520813710  12.229313540277047   5.002978606422314 
  7.591745748797193   5.748384790083686   5.002978606422314 
 -1.244652474324339   7.904778221921426  11.673616748318732 
 -0.000014579715119   1.437247798591567  11.673616748318732 
  3.734097933987738   7.904826569727626  11.673616748318732 
  4.978771382066400   1.437336331216145  11.673616748318732 
  8.712772987517610   7.904816827401460  11.673616748318732 
 -3.725243816661832   7.911550437259502   5.002978606422314 
  9.957557343846902   1.437247798591567  11.673616748318732 
  2.467042760243462   1.390421413839752   5.002978606422314 
  1.220892556066202   7.918602347112766   5.002978606422314 
  6.284734442305126   8.012194778994939   5.002978606422314 
  7.490500003889502   1.390421413839752   5.002978606422314 
  1.244769776615179   7.904816827401460  11.673616748318732 
 12.446928455166319   1.437247498834912   5.002978606422314 
 -2.489385691033299  10.060732491844133  11.673616748318732 
 -1.244699875777082   3.593105970804812  11.673616748318732 
  3.734098866278313   3.593152882694018  11.673616748318732 
  2.489444550932092  10.060756887516158  11.673616748318732 
  7.468098213200417  10.060756887516158  11.673616748318732 
  8.712845178175435   3.593121483981308  11.673616748318732 
 -4.968561010475918  10.065038986869475   5.002978606422314 
 -0.010210371590696  10.065038986869475   5.002978606422314 
  1.210011438437793   3.573095427373989   5.002978606422314 
  4.978771382067121  10.100779131270542   5.002978606422314 
  6.285782688557452   3.486390416938240   5.002978606422314 
 11.214314766099372   3.588620859406052   5.002978606422314 
 -2.489385691033525   5.748916373417692  11.673616748318732 
 -3.734130249828528  12.216680213408262  11.673616748318732 
  1.244756603969859  12.216640551058726  11.673616748318732 
  2.489425418199962   5.748990533597680  11.673616748318732 
  6.223456678128519  12.216616216620437  11.673616748318732 
 -6.220078535294960  12.214649009741960   5.002978606422314 
  7.468117345932006   5.748990533597680  11.673616748318732 
 -1.246068497219219  12.205608051404933   5.002978606422314 
 -0.051724044560321   5.753053492177725   5.002978606422314 
 -1.253527565405397   7.911550437259502   5.002978606422314 
  3.731934243321027  12.229313540277047   5.002978606422314 
 10.009266808694811   5.753053492177725   5.002978606422314 
 -3.734118907741768   7.904778221921426  11.673616748318732 
  2.489335133812818   1.437286275166587  11.673616748318732 
  6.223444830143694   7.904826569727626  11.673616748318732 
  7.468207630320910   1.437286275166587  11.673616748318732 
 12.446928455166319   1.437247498834912  11.673616748318732 
  4.978771382066589   5.748989995339477   5.002978606422314 
  1.224094771293757   0.698291952092904   5.002978606422314 
  4.978771382068215   7.533625142843538   5.002978606422314 
  6.231668531027276   0.694217607984633   5.002978606422314 
  9.982781254342717   7.191335429686906   5.002978606422314 
 11.208403159887110   0.722184586206925   5.002978606422314 
 -3.734046189859243   9.342127417797277  11.673616748318732 
  1.244600190556025   9.342338483918224  11.673616748318732 
  2.489007203633739   2.874217070713956  11.673616748318732 
  6.223515675688974   9.342575485605909  11.673616748318732 
  7.468535560498093   2.874217070713956  11.673616748318732 
 12.446928455166857   2.874354421392743  11.673616748318732 
 -1.250948366498996   9.345720369150207   5.002978606422314 
 -0.028078197382412   2.858284042852485   5.002978606422314 
  4.978771382066915   2.824406723789299   5.002978606422314 
  3.699387361851952   9.438065649100013   5.002978606422314 
  8.729884105381458   9.361416948346010   5.002978606422314 
  9.985620961514362   2.858284042852485   5.002978606422314 
 -4.978876170309573  11.498040490199525  11.673616748318732 
  0.000104788242378  11.498040490199525  11.673616748318732 
  1.244262910012357   5.030177429697636  11.673616748318732 
  6.223688554002536   5.030236731003974  11.673616748318732 
  4.978771382065636  11.498362621851223  11.673616748318732 
 11.202438980243828   5.030184349279341  11.673616748318732 
 -1.272599735615911   5.022693689038604   5.002978606422314 
 -2.489385691033239  11.490756737233198   5.002978606422314 
  2.482076875156033  11.525984344888668   5.002978606422314 
  3.433232007840476   4.856672421587447   5.002978606422314 
  7.475465888974490  11.525984344888668   5.002978606422314 
  8.813296624813368   5.012431231162082   5.002978606422314 
 -0.000245289448741   7.186202864979716  11.673616748318732 
  1.244433633107222   0.718538573638846  11.673616748318732 
  4.978771382067470   7.186496524010484  11.673616748318732 
  6.223616862071233   0.718428637121346  11.673616748318732 
  9.957788053580709   7.186202864979716  11.673616748318732 
 -2.489385691032434   7.188532349839421   5.002978606422314 
 11.202357352277563   0.718694037555842  11.673616748318732 
  3.725874233105925   0.694217607984633   5.002978606422314 
  2.446007973421080   7.211281631115250   5.002978606422314 
  7.511534790710857   7.211281631115250   5.002978606422314 
  8.733447992839086   0.698291952092904   5.002978606422314 
  2.489097014134674   7.186404161859109  11.673616748318732 
 13.685453750446737   0.722184586206925   5.002978606422314 
 -1.244725192206818   9.342127417797277  11.673616748318732 
 -0.000331368314623   2.874303682083967  11.673616748318732 
  4.978771382066028   2.874161662300045  11.673616748318732 
  3.734027088445268   9.342575485605909  11.673616748318732 
  8.712942573577230   9.342338483918224  11.673616748318732 
  9.957874132447426   2.874303682083967  11.673616748318732 
 -3.727823015567350   9.345720369150207   5.002978606422314 
  1.227658658749523   9.361416948346010   5.002978606422314 
  2.423630159535206   2.796473105756853   5.002978606422314 
  6.258155402282049   9.438065649100013   5.002978606422314 
  7.533912604598910   2.796473105756853   5.002978606422314 
 12.446928455167066   2.867373324090575   5.002978606422314 
 -1.244896216109113   5.030184349279341  11.673616748318732 
 -2.489385691033239  11.497942639938676  11.673616748318732 
  2.489441532850448  11.498247063100790  11.673616748318732 
  3.733854210131969   5.030236731003974  11.673616748318732 
  7.468101231283661  11.498247063100790  11.673616748318732 
 -4.976783978761175  11.496832562845453   5.002978606422314 
  8.713279854120415   5.030177429697636  11.673616748318732 
 -0.001987403304783  11.496832562845453   5.002978606422314 
  1.144246139319568   5.012431231162082   5.002978606422314 
 -0.025238490210571   7.191335429686906   5.002978606422314 
  6.524310756293310   4.856672421587447   5.002978606422314 
  4.978771382065015  11.530401900313679   5.002978606422314 
 11.230142499747878   5.022693689038604   5.002978606422314 
 -2.489385691033778   7.186116495134823  11.673616748318732 
  3.733925902062980   0.718428637121359  11.673616748318732 
  7.468445749999074   7.186404161859109  11.673616748318732 
  8.713109131026950   0.718538573638846  11.673616748318732 
 13.691499558056496   0.718694037555842  11.673616748318732 
 -0.000421541655611   1.436874483256601   1.667395880603411 
  3.733071807974499   7.906413573290605   1.661939154064860 
  4.978771382065272   1.435397741449798   1.667928895534464 
  8.714451855505393   7.905786122284043   1.667928895534464 
  9.957964305788320   1.436874483256601   1.667395880603411 
 -4.978008582320625  10.061052306707735   8.341348369771401 
 -0.000762799744152  10.061052306707735   8.341348369771401 
  1.243353192503063   3.592345298059458   8.338424003195943 
  4.978771382066420  10.062279389899606   8.338424003195943 
  6.224305220249204   3.591470729717605   8.344018058778927 
 11.202769421444920   3.592940189093584   8.338561332239630 
 -2.489385691033300  10.060732491844131   1.661602931728213 
 -1.245226657311105   3.592940189093583   1.667395880603411 
  3.733237543883479   3.591470729717604   1.661939154064860 
  2.488440105003622  10.061828649518205   1.667930562266061 
  7.469102659128436  10.061828649518205   1.667930562266061 
  8.714189571629440   3.592345298059457   1.667533209648433 
 -6.223231295576115  12.216469256739501   8.338981814549824 
 -1.244797277591754  12.215783228707215   8.341348369771401 
 -0.001422093406759   5.749260818025665   8.338026650578794 
  4.978771382066590   5.748989995339477   8.354174234708474 
  3.733966266410072  12.217155313668879   8.338561332239630 
  9.958964857539158   5.749260818025665   8.338026650578794 
 -2.489385691033182   5.749258962053366   1.666975398295017 
 -3.733974104474156  12.215783228707215   1.664608843072519 
  1.244459913507935  12.216469256739501   1.666975398295017 
  2.487537969792084   5.749085683010827   1.661939154064886 
  6.223576497722167  12.217155313668879   1.667395880603411 
  7.470004794340331   5.749085683010827   1.661939154064860 
 -1.245351213186720   7.905361940118389   8.341348369771401 
 -0.000421541655611   1.436874483256602   8.338561332239630 
  3.733071807974499   7.906413573290606   8.344018058778927 
  4.978771382065273   1.435397741449799   8.338028317310123 
  8.714451855505393   7.905786122284044   8.338028317310123 
 -3.733420168880793   7.905361940118389   1.664608843072519 
  9.957964305788320   1.436874483256602   8.338561332239630 
  2.488909183655975   1.435880518475091   1.667930562266061 
  1.243090908629219   7.905786122284043   1.667928895534464 
  6.224470956157022   7.906413573290605   1.661939154064860 
  7.468633580477078   1.435880518475091   1.667930562266061 
  1.243090908629220   7.905786122284044   8.338028317310123 
 12.446928455166319   1.437247498834911   1.666277600657828 
 -2.489385691033300  10.060732491844131   8.344354281115947 
 -1.245226657311105   3.592940189093584   8.338561332239630 
  3.733237543883480   3.591470729717605   8.344018058778927 
  2.488440105003622  10.061828649518205   8.338026650578794 
  7.469102659128437  10.061828649518205   8.338026650578794 
  8.714189571629440   3.592345298059458   8.338424003195943 
 -4.978008582320626  10.061052306707735   1.664608843072519 
 -0.000762799744153  10.061052306707735   1.664608843072519 
  1.243353192503062   3.592345298059457   1.667533209648433 
  4.978771382066419  10.062279389899606   1.667533209648433 
  6.224305220249203   3.591470729717604   1.661939154064860 
 11.202769421444920   3.592940189093583   1.667395880603411 
 -2.489385691033182   5.749258962053367   8.338981814549824 
 -3.733974104474155  12.215783228707215   8.341348369771401 
  1.244459913507936  12.216469256739501   8.338981814549824 
  2.487537969792084   5.749085683010827   8.344018058778927 
  6.223576497722168  12.217155313668879   8.338561332239630 
 -6.223231295576116  12.216469256739501   1.666975398295017 
  7.470004794340332   5.749085683010827   8.344018058778927 
 -1.244797277591754  12.215783228707215   1.664608843072519 
 -0.001422093406759   5.749260818025664   1.667930562266061 
 -1.245351213186721   7.905361940118389   1.664608843072519 
  4.978771382066589   5.748989995339476   1.651782978136754 
  3.733966266410071  12.217155313668879   1.667395880603411 
  9.958964857539158   5.749260818025664   1.667930562266061 
 -3.733420168880792   7.905361940118389   8.341348369771401 
  2.488909183655976   1.435880518475092   8.338026650578794 
  6.224470956157023   7.906413573290606   8.344018058778927 
  7.468633580477079   1.435880518475092   8.338026650578794 
 12.446928455166319   1.437247498834912   8.339679612184291 
Generated by cif2cell 2.0.0.  :  Failed to get author information, No journal information. Species order: N Se B 
 1.0
 14.936314146199660   0.000000000000000   0.000000000000000
 -7.468157073099825  12.935227489513863   0.000000000000000
  0.000000000000001   0.000000000000001  13.341276283792837
 N Se B 
 143   1 144
Cartesian
  1.244735965233569   0.718510023444140   1.670847368817188 
  4.978771382066977   7.186629479237746   1.663100897203376 
  6.223406698087613   0.718485907964690   1.671219418881388 
  9.957633373584340   7.186356236906272   1.671219418881388 
 11.202238789558981   0.718625585338612   1.668813097077768 
 -3.734016532727895   9.342144540350844   8.340727500374305 
  1.244544706568821   9.342127841148864   8.334737793964134 
  2.489290872113442   2.874369351027831   8.333022778521441 
  6.223525631308998   9.342253681339979   8.333022778521441 
  7.468251892018045   2.874369351027831   8.333022778521441 
 12.446928455166738   2.874491325827356   8.337144115767513 
 -1.244754849339766   9.342144540350844   1.665229712470949 
 -0.000130073084143   2.874419899939850   1.670732107930691 
  4.978771382066332   2.874500803777857   1.674074602922490 
  3.734017132824987   9.342253681339979   1.672934434323307 
  8.712998057563535   9.342127841148864   1.671219418881388 
  9.957672837216855   2.874419899939850   1.670732107930691 
 -4.978676087892931  11.497924972561924   8.338206403324616 
 -0.000095294172576  11.497924972561924   8.338206403324616 
  1.244536622872760   5.030346953649961   8.333022778521441 
  6.223803696606421   5.030170253390343   8.342856315640212 
  4.978771382066010  11.498130186139790   8.335225104914416 
 11.202312539373461   5.030460451679190   8.335109844028054 
 -1.244769775240241   5.030460451679189   1.670847368817188 
 -2.489385691033240  11.497908394831173   1.665229712470949 
  2.489265641592366  11.497999510894674   1.670847368817188 
  3.733739067527174   5.030170253390342   1.663100897203376 
  7.468277122541007  11.497999510894674   1.670847368817188 
  8.713006141261371   5.030346953649960   1.672934434323307 
 -0.000090609452268   7.186356236906273   8.334737793964134 
  1.244735965233570   0.718510023444141   8.335109844028054 
  4.978771382066978   7.186629479237747   8.342856315640212 
  6.223406698087614   0.718485907964691   8.334737793964134 
  9.957633373584340   7.186356236906273   8.334737793964134 
 -2.489385691032383   7.186347530406128   1.667750809519330 
 11.202238789558981   0.718625585338612   8.337144115767513 
  3.734136066045722   0.718485907964690   1.671219418881388 
  2.489390719270247   7.186234591120194   1.674074602922490 
  7.468152044863201   7.186234591120194   1.674074602922490 
  8.712806798898630   0.718510023444140   1.670847368817188 
  2.489390719270248   7.186234591120195   8.331882609922591 
 13.691618120774598   0.718625585338612   1.668813097077768 
 -1.244754849339766   9.342144540350844   8.340727500374305 
 -0.000130073084143   2.874419899939851   8.335225104914416 
  4.978771382066333   2.874500803777858   8.331882609922591 
  3.734017132824988   9.342253681339979   8.333022778521441 
  8.712998057563535   9.342127841148864   8.334737793964134 
  9.957672837216855   2.874419899939851   8.335225104914416 
 -3.734016532727896   9.342144540350844   1.665229712470949 
  1.244544706568821   9.342127841148864   1.671219418881388 
  2.489290872113442   2.874369351027830   1.672934434323307 
  6.223525631308997   9.342253681339979   1.672934434323307 
  7.468251892018044   2.874369351027830   1.672934434323307 
 12.446928455166738   2.874491325827355   1.668813097077768 
 -1.244769775240240   5.030460451679190   8.335109844028054 
 -2.489385691033239  11.497908394831173   8.340727500374305 
  2.489265641592367  11.497999510894674   8.335109844028054 
  3.733739067527174   5.030170253390343   8.342856315640212 
  7.468277122541008  11.497999510894674   8.335109844028054 
 -4.978676087892932  11.497924972561924   1.667750809519330 
  8.713006141261371   5.030346953649961   8.333022778521441 
 -0.000095294172576  11.497924972561924   1.667750809519330 
  1.244536622872760   5.030346953649960   1.672934434323254 
 -0.000090609452268   7.186356236906272   1.671219418881388 
  6.223803696606420   5.030170253390342   1.663100897203376 
  4.978771382066009  11.498130186139790   1.670732107930691 
 11.202312539373461   5.030460451679189   1.670847368817188 
 -2.489385691032517   7.186347530406129   8.338206403324616 
  3.734136066045722   0.718485907964691   8.334737793964134 
  7.468152044863202   7.186234591120195   8.331882609922591 
  8.712806798898630   0.718510023444141   8.335109844028054 
 13.691618120774598   0.718625585338612   8.337144115767513 
 -0.009934863219088   1.429035586334309   5.002978606422314 
  3.672808321824454   8.012194778994939   5.002978606422314 
  4.978771382065652   1.409765291794387   5.002978606422314 
  8.736650208066827   7.918602347112766   5.002978606422314 
  9.967477627352441   1.429035586334309   5.002978606422314 
 -4.978863466537759  10.060739040201005  11.673616748318732 
  0.000092084471012  10.060739040201005  11.673616748318732 
  1.244697585956648   3.593121483981308  11.673616748318732 
  4.978771382065172  10.060727018055921  11.673616748318732 
  6.223443897854401   3.593152882694018  11.673616748318732 
 11.202242639909631   3.593105970804812  11.673616748318732 
 -2.489385691033300  10.060732491844131   5.002978606422314 
 -1.256772001965002   3.588620859406052   5.002978606422314 
  3.671760075575543   3.486390416938240   5.002978606422314 
  2.460004577262568  10.103495080000538   5.002978606422314 
  7.497538186871583  10.103495080000538   5.002978606422314 
  8.747531325696503   3.573095427373989   5.002978606422314 
 -6.223527986038800  12.216640551058726  11.673616748318732 
 -1.244641132237187  12.216680213408262  11.673616748318732 
  0.000008302677819   5.748926823336864  11.673616748318732 
  4.978771382066590   5.748989995339477  11.673616748318732 
  3.734086086003828  12.216616216620437  11.673616748318732 
  9.957534461454312   5.748926823336864  11.673616748318732 
 -2.489385691033129   5.752899456046780   5.002978606422314 
 -3.732702884848005  12.205608051404933   5.002978606422314 
  1.241307153229440  12.214649009741960   5.002978606422314 
  2.365797015334461   5.748384790083945   5.002978606422314 
  6.225608520813710  12.229313540277047   5.002978606422314 
  7.591745748797193   5.748384790083686   5.002978606422314 
 -1.244652474324339   7.904778221921426  11.673616748318732 
 -0.000014579715119   1.437247798591567  11.673616748318732 
  3.734097933987738   7.904826569727626  11.673616748318732 
  4.978771382066400   1.437336331216145  11.673616748318732 
  8.712772987517610   7.904816827401460  11.673616748318732 
 -3.725243816661832   7.911550437259502   5.002978606422314 
  9.957557343846902   1.437247798591567  11.673616748318732 
  2.467042760243462   1.390421413839752   5.002978606422314 
  1.220892556066202   7.918602347112766   5.002978606422314 
  6.284734442305126   8.012194778994939   5.002978606422314 
  7.490500003889502   1.390421413839752   5.002978606422314 
  1.244769776615179   7.904816827401460  11.673616748318732 
 12.446928455166319   1.437247498834912   5.002978606422314 
 -2.489385691033299  10.060732491844133  11.673616748318732 
 -1.244699875777082   3.593105970804812  11.673616748318732 
  3.734098866278313   3.593152882694018  11.673616748318732 
  2.489444550932092  10.060756887516158  11.673616748318732 
  7.468098213200417  10.060756887516158  11.673616748318732 
  8.712845178175435   3.593121483981308  11.673616748318732 
 -4.968561010475918  10.065038986869475   5.002978606422314 
 -0.010210371590696  10.065038986869475   5.002978606422314 
  1.210011438437793   3.573095427373989   5.002978606422314 
  4.978771382067121  10.100779131270542   5.002978606422314 
  6.285782688557452   3.486390416938240   5.002978606422314 
 11.214314766099372   3.588620859406052   5.002978606422314 
 -2.489385691033525   5.748916373417692  11.673616748318732 
 -3.734130249828528  12.216680213408262  11.673616748318732 
  1.244756603969859  12.216640551058726  11.673616748318732 
  2.489425418199962   5.748990533597680  11.673616748318732 
  6.223456678128519  12.216616216620437  11.673616748318732 
 -6.220078535294960  12.214649009741960   5.002978606422314 
  7.468117345932006   5.748990533597680  11.673616748318732 
 -1.246068497219219  12.205608051404933   5.002978606422314 
 -0.051724044560321   5.753053492177725   5.002978606422314 
 -1.253527565405397   7.911550437259502   5.002978606422314 
  3.731934243321027  12.229313540277047   5.002978606422314 
 10.009266808694811   5.753053492177725   5.002978606422314 
 -3.734118907741768   7.904778221921426  11.673616748318732 
  2.489335133812818   1.437286275166587  11.673616748318732 
  6.223444830143694   7.904826569727626  11.673616748318732 
  7.468207630320910   1.437286275166587  11.673616748318732 
 12.446928455166319   1.437247498834912  11.673616748318732 
  4.978771382066589   5.748989995339477   5.002978606422314 
  1.224094771293757   0.698291952092904   5.002978606422314 
  4.978771382068215   7.533625142843538   5.002978606422314 
  6.231668531027276   0.694217607984633   5.002978606422314 
  9.982781254342717   7.191335429686906   5.002978606422314 
 11.208403159887110   0.722184586206925   5.002978606422314 
 -3.734046189859243   9.342127417797277  11.673616748318732 
  1.244600190556025   9.342338483918224  11.673616748318732 
  2.489007203633739   2.874217070713956  11.673616748318732 
  6.223515675688974   9.342575485605909  11.673616748318732 
  7.468535560498093   2.874217070713956  11.673616748318732 
 12.446928455166857   2.874354421392743  11.673616748318732 
 -1.250948366498996   9.345720369150207   5.002978606422314 
 -0.028078197382412   2.858284042852485   5.002978606422314 
  4.978771382066915   2.824406723789299   5.002978606422314 
  3.699387361851952   9.438065649100013   5.002978606422314 
  8.729884105381458   9.361416948346010   5.002978606422314 
  9.985620961514362   2.858284042852485   5.002978606422314 
 -4.978876170309573  11.498040490199525  11.673616748318732 
  0.000104788242378  11.498040490199525  11.673616748318732 
  1.244262910012357   5.030177429697636  11.673616748318732 
  6.223688554002536   5.030236731003974  11.673616748318732 
  4.978771382065636  11.498362621851223  11.673616748318732 
 11.202438980243828   5.030184349279341  11.673616748318732 
 -1.272599735615911   5.022693689038604   5.002978606422314 
 -2.489385691033239  11.490756737233198   5.002978606422314 
  2.482076875156033  11.525984344888668   5.002978606422314 
  3.433232007840476   4.856672421587447   5.002978606422314 
  7.475465888974490  11.525984344888668   5.002978606422314 
  8.813296624813368   5.012431231162082   5.002978606422314 
 -0.000245289448741   7.186202864979716  11.673616748318732 
  1.244433633107222   0.718538573638846  11.673616748318732 
  4.978771382067470   7.186496524010484  11.673616748318732 
  6.223616862071233   0.718428637121346  11.673616748318732 
  9.957788053580709   7.186202864979716  11.673616748318732 
 -2.489385691032434   7.188532349839421   5.002978606422314 
 11.202357352277563   0.718694037555842  11.673616748318732 
  3.725874233105925   0.694217607984633   5.002978606422314 
  2.446007973421080   7.211281631115250   5.002978606422314 
  7.511534790710857   7.211281631115250   5.002978606422314 
  8.733447992839086   0.698291952092904   5.002978606422314 
  2.489097014134674   7.186404161859109  11.673616748318732 
 13.685453750446737   0.722184586206925   5.002978606422314 
 -1.244725192206818   9.342127417797277  11.673616748318732 
 -0.000331368314623   2.874303682083967  11.673616748318732 
  4.978771382066028   2.874161662300045  11.673616748318732 
  3.734027088445268   9.342575485605909  11.673616748318732 
  8.712942573577230   9.342338483918224  11.673616748318732 
  9.957874132447426   2.874303682083967  11.673616748318732 
 -3.727823015567350   9.345720369150207   5.002978606422314 
  1.227658658749523   9.361416948346010   5.002978606422314 