 N O B 
 1.0
 14.936314146199660   0.000000000000000   0.000000000000000
 -7.468157073099825  12.935227489513863   0.000000000000000
  0.000000000000001   0.000000000000001  13.341276283792837
 N O B 
 143   1 143
Cartesian
  1.244597437984187   0.718436868252759   1.670857225195827 
  4.979076521282891   7.186117360968684   1.692890898205608 
  6.222976026229164   0.718610362267771   1.672946054972907 
  9.957879955676431   7.186514810962160   1.670733351257567 
 11.201765111045070   0.718352106921398   1.669889574573274 
 -3.733885177353601   9.342220378410699   8.336025552843427 
  1.244437151227914   9.341692641226796   8.333011157871720 
  2.489166039576264   2.874478531599861   8.326319729232990 
  6.223794229055212   9.341971827113484   8.331225185631212 
  7.467714717448362   2.874694295621946   8.329613255923350 
 12.446618687890957   2.874470878414606   8.336529822464751 
 -1.244822863572658   9.341993945980693   1.670254394674542 
 -0.000181983662652   2.874389929353089   1.671979252744220 
  4.978500949946982   2.874838671125246   1.683836787434714 
  3.734029955813749   9.341626002218831   1.676343956921264 
  8.713258677771243   9.342262100475262   1.670733351257567 
  9.957118092448363   2.874568273091362   1.670311317930535 
 -4.978655908880758  11.497956586902328   8.335794656249451 
 -0.000457700643860  11.497715737089008   8.335984821366573 
  1.244568759753351   5.030184255215181   8.326319729232990 
  6.223512758783440   5.030690570837869   8.313066314639007 
  4.978622504600818  11.497575576500857   8.335645894914093 
 11.202194207957639   5.030541903253635   8.336495576147398 
 -1.244902393118937   5.030377061157539   1.670857225195827 
 -2.489550116699730  11.497924789962445   1.670254394674542 
  2.488904641229380  11.497496228039189   1.670429928035924 
  3.733705518175478   5.030150883663134   1.687399022463821 
  7.468288495965327  11.497856307096010   1.669461636697231 
  8.712896347213118   5.030720493236650   1.674732027213403 
 -0.000051834064958   7.186106487862900   8.332007719952474 
  1.244597437984188   0.718436868252759   8.335099987648814 
  4.979076521282892   7.186117360968685   8.313066314639007 
  6.222976026229165   0.718610362267772   8.333011157871720 
  9.957879955676431   7.186514810962161   8.335223861587075 
 -2.489348222705480   7.186349198774993   1.670162556595176 
 11.201765111045070   0.718352106921399   8.336067638271354 
  3.733939164723626   0.718644362956168   1.673949492892168 
  2.489548104916534   7.185831456361116   1.683836787434714 
  7.468610285515083   7.186499156484344   1.678936434973606 
  8.712190442979082   0.718449029386616   1.670429928035924 
  2.489548104916535   7.185831456361117   8.322120425409901 
 13.691445529157608   0.718367542715275   1.669427390379864 
 -1.244822863572657   9.341993945980693   8.335702818170100 
 -0.000181983662651   2.874389929353090   8.333977960100407 
  4.978500949946983   2.874838671125247   8.322120425409901 
  3.734029955813749   9.341626002218831   8.329613255923350 
  8.713258677771243   9.342262100475262   8.335223861587075 
  9.957118092448363   2.874568273091363   8.335645894914093 
 -3.733885177353601   9.342220378410699   1.669931660001200 
  1.244437151227913   9.341692641226796   1.672946054972907 
  2.489166039576264   2.874478531599860   1.679637483611665 
  6.223794229055211   9.341971827113484   1.674732027213403 
  7.467714717448361   2.874694295621945   1.676343956921264 
 12.446618687890957   2.874470878414605   1.669427390379864 
 -1.244902393118937   5.030377061157540   8.335099987648814 
 -2.489550116699730  11.497924789962445   8.335702818170100 
  2.488904641229381  11.497496228039189   8.335527284808718 
  3.733705518175478   5.030150883663135   8.318558190380820 
  7.468288495965328  11.497856307096010   8.336495576147398 
 -4.978655908880759  11.497956586902328   1.670162556595176 
  8.712896347213118   5.030720493236651   8.331225185631212 
 -0.000457700643860  11.497715737089008   1.669972391478067 
  1.244568759753351   5.030184255215180   1.679637483611665 
 -0.000051834064958   7.186106487862899   1.673949492892168 
  6.223512758783439   5.030690570837868   1.692890898205608 
  4.978622504600817  11.497575576500857   1.670311317930535 
 11.202194207957639   5.030541903253634   1.669461636697231 
 -2.489348222705479   7.186349198774994   8.335794656249451 
  3.733939164723626   0.718644362956169   8.332007719952474 
  7.468610285515084   7.186499156484345   8.327020777871022 
  8.712190442979082   0.718449029386616   8.335527284808718 
 13.691445529157608   0.718367542715276   8.336529822464751 
 -0.029567579314778   1.415331878829419   5.002978606422314 
  3.784335599356495   7.815029504760309   5.002978606422314 
  4.953305209424411   1.502012698480770   5.002978606422314 
  8.758552839445329   7.931247837235182   5.002978606422314 
  9.939537563118284   1.437444673075772   5.002978606422314 
 -4.978881248759863  10.060716465028161  11.673616748318732 
  0.000106710314533  10.060756892400812  11.673616748318732 
  1.244656091073242   3.593097526899410  11.673616748318732 
  4.978719711123207  10.060741785272192  11.673616748318732 
  6.223431613506810   3.593148962227489  11.673616748318732 
 11.202230768699565   3.593090095261927  11.673616748318732 
 -2.465541874098167  10.074498725970113   5.002978606422314 
 -1.278456118838456   3.578470282274936   5.002978606422314 
  3.630707120801757   3.612396238424670   5.002978606422314 
  2.508788869601908  10.024605124645307   5.002978606422314 
  7.489556100181699  10.071378839105089   5.002978606422314 
  8.697264542162282   3.611214114779650   5.002978606422314 
 -6.223543690196542  12.216638185673782  11.673616748318732 
 -1.244618358857425  12.216683953661343  11.673616748318732 
  0.000021179444250   5.748910897220383  11.673616748318732 
  4.978724436610244   5.748962891367610  11.673616748318732 
  3.734074267782691  12.216623635078230  11.673616748318732 
  9.957498347268862   5.748891096884161  11.673616748318732 
 -2.485987771670121   5.747729158429050   5.002978606422314 
 -3.725060138078756  12.242662192762092   5.002978606422314 
  1.243563133456567  12.215951500534397   5.002978606422314 
  2.454394780378684   5.649828977607704   5.002978606422314 
  6.212314350639423  12.201128267496731   5.002978606422314 
  7.508814588898032   5.794214237039969   5.002978606422314 
 -1.244657320859075   7.904782496823913  11.673616748318732 
 -0.000067435414767   1.437239034920679  11.673616748318732 
  3.734088396590796   7.904817891403007  11.673616748318732 
  4.978788350997229   1.437352858662260  11.673616748318732 
  8.712710714454456   7.904780874031495  11.673616748318732 
 -3.703328705968082   7.917271190860124   5.002978606422314 
  9.957557859309135   1.437233854483118  11.673616748318732 
  2.467940448931334   1.439407150121362   5.002978606422314 
  1.288048067370014   7.850424291323728   5.002978606422314 
  6.282958327661765   7.917459564277626   5.002978606422314 
  7.446571444618113   1.472114827988898   5.002978606422314 
  1.244792574268962   7.904823259203277  11.673616748318732 
 12.423364048558195   1.423642582336426   5.002978606422314 
 -2.489367991079078  10.060742710917459  11.673616748318732 
 -1.244733893188749   3.593064578262014  11.673616748318732 
  3.734077264877949   3.593153763435419  11.673616748318732 
  2.489435801311077  10.060752997257797  11.673616748318732 
  7.468049216092999  10.060743474938986  11.673616748318732 
  8.712832131489559   3.593069352023629  11.673616748318732 
 -4.952649137181652  10.081157652655898   5.002978606422314 
  0.024111226161560  10.049917765190756   5.002978606422314 
  1.181613367173976   3.556699793285738   5.002978606422314 
  4.986649741951968  10.038187476060996   5.002978606422314 
  6.170796191092249   3.681558509613067   5.002978606422314 
 11.183258518770948   3.591200406704664   5.002978606422314 
 -2.489395591594883   5.748903955908944  11.673616748318732 
 -3.734128970922626  12.216673878736342  11.673616748318732 
  1.244745577874940  12.216634185137639  11.673616748318732 
  2.489415380244401   5.748971385865170  11.673616748318732 
  6.223436993899563  12.216613873623229  11.673616748318732 
 -6.222857184696045  12.220176843040083   5.002978606422314 
  7.468039554757749   5.748902751125672  11.673616748318732 
 -1.242003060452678  12.242892037795453   5.002978606422314 
 -0.008852308173574   5.729338045245695   5.002978606422314 
 -1.217616364289304   7.899642179436490   5.002978606422314 
  3.725246693944071  12.200912191496943   5.002978606422314 
  9.977462284859543   5.762198922778196   5.002978606422314 
 -3.734147349526340   7.904774109652367  11.673616748318732 
  2.489327779774839   1.437305389831222  11.673616748318732 
  6.223329912706645   7.904803091829070  11.673616748318732 
  7.468199886447863   1.437280642901645  11.673616748318732 
 12.446921219823889   1.437243321508022  11.673616748318732 
  3.625096404592781   4.967445382699718   5.002978606422314 
  1.219177831495963   0.709019496566166   5.002978606422314 
  5.072018059086981   7.276923803814023   5.002978606422314 
  6.210640522726465   0.747429021459842   5.002978606422314 
  9.999177191502209   7.201377833808140   5.002978606422314 
 11.182137942890568   0.707020356103958   5.002978606422314 
 -3.734038492262805   9.342131862006600  11.673616748318732 
  1.244444312306505   9.342658497738537  11.673616748318732 
  2.488850516429650   2.873884088749365  11.673616748318732 
  6.223578057713923   9.342857343325408  11.673616748318732 
  7.468872367162658   2.873954326850163  11.673616748318732 
 12.446675191826007   2.874225226279426  11.673616748318732 
 -1.225691608983483   9.343193098196528   5.002978606422314 
 -0.068021251750579   2.835222909660889   5.002978606422314 
  4.954800600236406   2.926862276899550   5.002978606422314 
  3.753405053758901   9.319628512617381   5.002978606422314 
  8.746779051045777   9.370595044383474   5.002978606422314 
  9.944872763980062   2.871861575262729   5.002978606422314 
 -4.978883249249757  11.497859346408349  11.673616748318732 
  0.000124897954073  11.498052100546364  11.673616748318732 
  1.243896195570416   5.030208225579980  11.673616748318732 
  6.224027096020694   5.030160918575118  11.673616748318732 
  4.978717751584182  11.498554381379432  11.673616748318732 
 11.202392252437688   5.030124806060952  11.673616748318732 
 -1.265767879480512   5.013071722027818   5.002978606422314 
 -2.478945993123236  11.513893366335036   5.002978606422314 
  2.487763882592630  11.483433973874014   5.002978606422314 
  7.469619162753170  11.506662812227756   5.002978606422314 
  8.757539274346117   5.038986274222927   5.002978606422314 
 -0.000543000769193   7.186428501957724  11.673616748318732 
  1.244206847024573   0.718247324690674  11.673616748318732 
  4.978874997586812   7.186827616213622  11.673616748318732 
  6.223816063044029   0.718133635687894  11.673616748318732 
  9.957872601262913   7.186225282864783  11.673616748318732 
 -2.468610433359090   7.186785307464948   5.002978606422314 
 11.202301416214491   0.718661742855314  11.673616748318732 
  3.722885545104858   0.735732699908823   5.002978606422314 
  2.522751694258282   7.139294548545995   5.002978606422314 
  7.543448545283362   7.229707045907245   5.002978606422314 
  8.699441794319199   0.724492230510179   5.002978606422314 
  2.488945088948584   7.186756385412099  11.673616748318732 
 13.661347847184905   0.698516875018480   5.002978606422314 
 -1.244799875526553   9.342249219819326  11.673616748318732 
 -0.000766922091430   2.874052214993767  11.673616748318732 
  4.979000454017870   2.873853979452597  11.673616748318732 
  3.733967948916534   9.342998540665977  11.673616748318732 
  8.713004261877039   9.342400495415031  11.673616748318732 
  9.958013385830252   2.874161356959279  11.673616748318732 
 -3.707830072399584   9.357263300269620   5.002978606422314 
  1.263227090439895   9.316600452228965   5.002978606422314 
  2.392702461218925   2.844827730286230   5.002978606422314 
  6.253274068937936   9.376500845616835   5.002978606422314 
  7.458351881606590   2.902472367443997   5.002978606422314 
 12.414378664397098   2.858330855079618   5.002978606422314 
 -1.245261838138620   5.030133571245042  11.673616748318732 
 -2.489317549047510  11.497817061275054  11.673616748318732 
  2.489431224347688  11.498446271820590  11.673616748318732 
  3.733834773818809   5.030225509443597  11.673616748318732 
  7.468026301440648  11.498236367243139  11.673616748318732 
 -4.967909333003246  11.515697984949643   5.002978606422314 
  8.713555141077451   5.030090525257578  11.673616748318732 
  0.003702271889282  11.500117498350839   5.002978606422314 
  1.170658623394512   4.961469746474588   5.002978606422314 
  0.009220290035085   7.167989603992948   5.002978606422314 
  6.348624214016855   5.065777082220320   5.002978606422314 
  4.970155771286707  11.488324159883927   5.002978606422314 
 11.210486198514205   5.027291041930017   5.002978606422314 
 -2.489546105628027   7.186200936487099  11.673616748318732 
  3.733972453757996   0.718057993065409  11.673616748318732 
  7.468644741176615   7.186519049469781  11.673616748318732 
  8.713276496587627   0.718430041853588  11.673616748318732 
 13.691261040135572   0.718539302626034  11.673616748318732 
 -0.001066600216791   1.435724952273586   1.663439035225931 
  3.733418932884231   7.907109079550541   1.670895859309875 
  4.978895509587228   1.434283801185979   1.666816330151328 
  8.715597131137500   7.906447347480402   1.664682882411576 
  9.957501856149765   1.436707505226850   1.664216262457048 
 -4.977595074014864  10.060940945489817   8.341757454199744 
 -0.001478196631596  10.061151649238452   8.341321151164378 
  1.242256916225183   3.591712362655067   8.341664693764065 
  4.979202410125581  10.062372890122072   8.340730170421976 
  6.225081108794144   3.591423595576924   8.335061353534766 
 11.202285364229812   3.593192390369795   8.342361209660655 
 -2.489628888318153  10.060592081826247   1.664495511052618 
 -1.246544709625573   3.592956317484438   1.663439035225931 
  3.733368259052390   3.591585411303604   1.667567267788966 
  2.488062469655041  10.061997388581169   1.665160608263785 
  7.469821571077732  10.061837550009377   1.663980313778603 
  8.714486059226989   3.592671829197111   1.665227042422665 
 -6.223232310433658  12.215568824608917   8.342206871032776 
 -1.245068942880774  12.215114005564537   8.341321151164378 
 -0.002910143143971   5.749643543960015   8.340535282344256 
  4.978881698848252   5.749053686763057   8.328635448761826 
  3.733590434375806  12.216838309547668   8.341740950387567 
  9.959332021565821   5.749878963790295   8.341976899066038 
 -2.490165995561431   5.749708299226257   1.663750341811852 
 -3.734008421052287  12.214690428620843   1.664800900750261 
  1.243923118631724  12.216159338072197   1.664167025707491 
  2.487702644543391   5.749141544874712   1.667567267788966 
  6.223552881826752  12.216610007185475   1.663596003183986 
  7.471210359375313   5.750035199628244   1.669743769112357 
 -1.246314764111050   7.905878621131771   8.341156312094366 
 -0.001066600216791   1.435724952273587   8.342518177618697 
  3.733418932884231   7.907109079550542   8.335061353534766 
  4.978895509587229   1.434283801185980   8.339140882693298 
  8.715597131137500   7.906447347480403   8.341274330433079 
 -3.733309856371401   7.905775729424423   1.664199758644882 
  9.957501856149765   1.436707505226850   8.341740950387567 
  2.488496609169256   1.434400466633305   1.665421930500386 
  1.242188271823827   7.906450590002590   1.666816330151328 
  6.225896044187139   7.906982864927018   1.669743769112357 
  7.468590895118142   1.435469107137997   1.665160608263785 
  1.242188271823828   7.906450590002591   8.339140882693298 
 12.446280953092531   1.436873663338308   1.663900622513297 
 -2.489628888318153  10.060592081826247   8.341461701792010 
 -1.246544709625572   3.592956317484439   8.342518177618697 
  3.733368259052390   3.591585411303605   8.338389945055662 
  2.488062469655042  10.061997388581169   8.340796604580831 
  7.469821571077733  10.061837550009377   8.341976899066038 
  8.714486059226989   3.592671829197112   8.340730170421976 
 -4.977595074014865  10.060940945489817   1.664199758644882 
 -0.001478196631597  10.061151649238452   1.664636061680262 
  1.242256916225182   3.591712362655066   1.664292519080549 
  4.979202410125581  10.062372890122072   1.665227042422665 
  6.225081108794143   3.591423595576924   1.670895859309875 
 11.202285364229812   3.593192390369794   1.663596003183986 
 -2.490165995561431   5.749708299226258   8.342206871032776 
 -3.734008421052287  12.214690428620843   8.341156312094366 
  1.243923118631724  12.216159338072197   8.341790187137137 
  2.487702644543391   5.749141544874713   8.338389945055662 
  6.223552881826753  12.216610007185475   8.342361209660655 
 -6.223232310433659  12.215568824608917   1.663750341811852 
  7.471210359375314   5.750035199628245   8.336213443732269 
 -1.245068942880774  12.215114005564537   1.664636061680262 
 -0.002910143143972   5.749643543960014   1.665421930500386 
 -1.246314764111050   7.905878621131770   1.664800900750261 
  4.978881698848252   5.749053686763056   1.677321764082802 
  3.733590434375805  12.216838309547668   1.664216262457048 
  9.959332021565821   5.749878963790295   1.663980313778603 
 -3.733309856371401   7.905775729424424   8.341757454199744 
  2.488496609169256   1.434400466633306   8.340535282344256 
  6.225896044187140   7.906982864927019   8.336213443732269 
  7.468590895118143   1.435469107137998   8.340796604580831 
 12.446280953092531   1.436873663338309   8.342056590331330 
Generated by cif2cell 2.0.0.  :  Failed to get author information, No journal information. Species order: N O B 
 1.0
 14.936314146199660   0.000000000000000   0.000000000000000
 -7.468157073099825  12.935227489513863   0.000000000000000
  0.000000000000001   0.000000000000001  13.341276283792837
 N O B 
 143   1 143
Cartesian
  1.244597437984187   0.718436868252759   1.670857225195827 
  4.979076521282891   7.186117360968684   1.692890898205608 
  6.222976026229164   0.718610362267771   1.672946054972907 
  9.957879955676431   7.186514810962160   1.670733351257567 
 11.201765111045070   0.718352106921398   1.669889574573274 
 -3.733885177353601   9.342220378410699   8.336025552843427 
  1.244437151227914   9.341692641226796   8.333011157871720 
  2.489166039576264   2.874478531599861   8.326319729232990 
  6.223794229055212   9.341971827113484   8.331225185631212 
  7.467714717448362   2.874694295621946   8.329613255923350 
 12.446618687890957   2.874470878414606   8.336529822464751 
 -1.244822863572658   9.341993945980693   1.670254394674542 
 -0.000181983662652   2.874389929353089   1.671979252744220 
  4.978500949946982   2.874838671125246   1.683836787434714 
  3.734029955813749   9.341626002218831   1.676343956921264 
  8.713258677771243   9.342262100475262   1.670733351257567 
  9.957118092448363   2.874568273091362   1.670311317930535 
 -4.978655908880758  11.497956586902328   8.335794656249451 
 -0.000457700643860  11.497715737089008   8.335984821366573 
  1.244568759753351   5.030184255215181   8.326319729232990 
  6.223512758783440   5.030690570837869   8.313066314639007 
  4.978622504600818  11.497575576500857   8.335645894914093 
 11.202194207957639   5.030541903253635   8.336495576147398 
 -1.244902393118937   5.030377061157539   1.670857225195827 
 -2.489550116699730  11.497924789962445   1.670254394674542 
  2.488904641229380  11.497496228039189   1.670429928035924 
  3.733705518175478   5.030150883663134   1.687399022463821 
  7.468288495965327  11.497856307096010   1.669461636697231 
  8.712896347213118   5.030720493236650   1.674732027213403 
 -0.000051834064958   7.186106487862900   8.332007719952474 
  1.244597437984188   0.718436868252759   8.335099987648814 
  4.979076521282892   7.186117360968685   8.313066314639007 
  6.222976026229165   0.718610362267772   8.333011157871720 
  9.957879955676431   7.186514810962161   8.335223861587075 
 -2.489348222705480   7.186349198774993   1.670162556595176 
 11.201765111045070   0.718352106921399   8.336067638271354 
  3.733939164723626   0.718644362956168   1.673949492892168 
  2.489548104916534   7.185831456361116   1.683836787434714 
  7.468610285515083   7.186499156484344   1.678936434973606 
  8.712190442979082   0.718449029386616   1.670429928035924 
  2.489548104916535   7.185831456361117   8.322120425409901 
 13.691445529157608   0.718367542715275   1.669427390379864 
 -1.244822863572657   9.341993945980693   8.335702818170100 
 -0.000181983662651   2.874389929353090   8.333977960100407 
  4.978500949946983   2.874838671125247   8.322120425409901 
  3.734029955813749   9.341626002218831   8.329613255923350 
  8.713258677771243   9.342262100475262   8.335223861587075 
  9.957118092448363   2.874568273091363   8.335645894914093 
 -3.733885177353601   9.342220378410699   1.669931660001200 
  1.244437151227913   9.341692641226796   1.672946054972907 
  2.489166039576264   2.874478531599860   1.679637483611665 
  6.223794229055211   9.341971827113484   1.674732027213403 
  7.467714717448361   2.874694295621945   1.676343956921264 
 12.446618687890957   2.874470878414605   1.669427390379864 
 -1.244902393118937   5.030377061157540   8.335099987648814 
 -2.489550116699730  11.497924789962445   8.335702818170100 
  2.488904641229381  11.497496228039189   8.335527284808718 
  3.733705518175478   5.030150883663135   8.318558190380820 
  7.468288495965328  11.497856307096010   8.336495576147398 
 -4.978655908880759  11.497956586902328   1.670162556595176 
  8.712896347213118   5.030720493236651   8.331225185631212 
 -0.000457700643860  11.497715737089008   1.669972391478067 
  1.244568759753351   5.030184255215180   1.679637483611665 
 -0.000051834064958   7.186106487862899   1.673949492892168 
  6.223512758783439   5.030690570837868   1.692890898205608 
  4.978622504600817  11.497575576500857   1.670311317930535 
 11.202194207957639   5.030541903253634   1.669461636697231 
 -2.489348222705479   7.186349198774994   8.335794656249451 
  3.733939164723626   0.718644362956169   8.332007719952474 
  7.468610285515084   7.186499156484345   8.327020777871022 
  8.712190442979082   0.718449029386616   8.335527284808718 
 13.691445529157608   0.718367542715276   8.336529822464751 
 -0.029567579314778   1.415331878829419   5.002978606422314 
  3.784335599356495   7.815029504760309   5.002978606422314 
  4.953305209424411   1.502012698480770   5.002978606422314 
  8.758552839445329   7.931247837235182   5.002978606422314 
  9.939537563118284   1.437444673075772   5.002978606422314 
 -4.978881248759863  10.060716465028161  11.673616748318732 
  0.000106710314533  10.060756892400812  11.673616748318732 
  1.244656091073242   3.593097526899410  11.673616748318732 
  4.978719711123207  10.060741785272192  11.673616748318732 
  6.223431613506810   3.593148962227489  11.673616748318732 
 11.202230768699565   3.593090095261927  11.673616748318732 
 -2.465541874098167  10.074498725970113   5.002978606422314 
 -1.278456118838456   3.578470282274936   5.002978606422314 
  3.630707120801757   3.612396238424670   5.002978606422314 
  2.508788869601908  10.024605124645307   5.002978606422314 
  7.489556100181699  10.071378839105089   5.002978606422314 
  8.697264542162282   3.611214114779650   5.002978606422314 
 -6.223543690196542  12.216638185673782  11.673616748318732 
 -1.244618358857425  12.216683953661343  11.673616748318732 
  0.000021179444250   5.748910897220383  11.673616748318732 
  4.978724436610244   5.748962891367610  11.673616748318732 
  3.734074267782691  12.216623635078230  11.673616748318732 
  9.957498347268862   5.748891096884161  11.673616748318732 
 -2.485987771670121   5.747729158429050   5.002978606422314 
 -3.725060138078756  12.242662192762092   5.002978606422314 
  1.243563133456567  12.215951500534397   5.002978606422314 
  2.454394780378684   5.649828977607704   5.002978606422314 
  6.212314350639423  12.201128267496731   5.002978606422314 
  7.508814588898032   5.794214237039969   5.002978606422314 
 -1.244657320859075   7.904782496823913  11.673616748318732 
 -0.000067435414767   1.437239034920679  11.673616748318732 
  3.734088396590796   7.904817891403007  11.673616748318732 
  4.978788350997229   1.437352858662260  11.673616748318732 
  8.712710714454456   7.904780874031495  11.673616748318732 
 -3.703328705968082   7.917271190860124   5.002978606422314 
  9.957557859309135   1.437233854483118  11.673616748318732 
  2.467940448931334   1.439407150121362   5.002978606422314 
  1.288048067370014   7.850424291323728   5.002978606422314 
  6.282958327661765   7.917459564277626   5.002978606422314 
  7.446571444618113   1.472114827988898   5.002978606422314 
  1.244792574268962   7.904823259203277  11.673616748318732 
 12.423364048558195   1.423642582336426   5.002978606422314 
 -2.489367991079078  10.060742710917459  11.673616748318732 
 -1.244733893188749   3.593064578262014  11.673616748318732 
  3.734077264877949   3.593153763435419  11.673616748318732 
  2.489435801311077  10.060752997257797  11.673616748318732 
  7.468049216092999  10.060743474938986  11.673616748318732 
  8.712832131489559   3.593069352023629  11.673616748318732 
 -4.952649137181652  10.081157652655898   5.002978606422314 
  0.024111226161560  10.049917765190756   5.002978606422314 
  1.181613367173976   3.556699793285738   5.002978606422314 
  4.986649741951968  10.038187476060996   5.002978606422314 
  6.170796191092249   3.681558509613067   5.002978606422314 
 11.183258518770948   3.591200406704664   5.002978606422314 
 -2.489395591594883   5.748903955908944  11.673616748318732 
 -3.734128970922626  12.216673878736342  11.673616748318732 
  1.244745577874940  12.216634185137639  11.673616748318732 
  2.489415380244401   5.748971385865170  11.673616748318732 
  6.223436993899563  12.216613873623229  11.673616748318732 
 -6.222857184696045  12.220176843040083   5.002978606422314 
  7.468039554757749   5.748902751125672  11.673616748318732 
 -1.242003060452678  12.242892037795453   5.002978606422314 
 -0.008852308173574   5.729338045245695   5.002978606422314 
 -1.217616364289304   7.899642179436490   5.002978606422314 
  3.725246693944071  12.200912191496943   5.002978606422314 
  9.977462284859543   5.762198922778196   5.002978606422314 
 -3.734147349526340   7.904774109652367  11.673616748318732 
  2.489327779774839   1.437305389831222  11.673616748318732 
  6.223329912706645   7.904803091829070  11.673616748318732 
  7.468199886447863   1.437280642901645  11.673616748318732 
 12.446921219823889   1.437243321508022  11.673616748318732 
  3.625096404592781   4.967445382699718   5.002978606422314 
  1.219177831495963   0.709019496566166   5.002978606422314 
  5.072018059086981   7.276923803814023   5.002978606422314 
  6.210640522726465   0.747429021459842   5.002978606422314 
  9.999177191502209   7.201377833808140   5.002978606422314 
 11.182137942890568   0.707020356103958   5.002978606422314 
 -3.734038492262805   9.342131862006600  11.673616748318732 
  1.244444312306505   9.342658497738537  11.673616748318732 
  2.488850516429650   2.873884088749365  11.673616748318732 
  6.223578057713923   9.342857343325408  11.673616748318732 
  7.468872367162658   2.873954326850163  11.673616748318732 
 12.446675191826007   2.874225226279426  11.673616748318732 
 -1.225691608983483   9.343193098196528   5.002978606422314 
 -0.068021251750579   2.835222909660889   5.002978606422314 
  4.954800600236406   2.926862276899550   5.002978606422314 
  3.753405053758901   9.319628512617381   5.002978606422314 
  8.746779051045777   9.370595044383474   5.002978606422314 
  9.944872763980062   2.871861575262729   5.002978606422314 
 -4.978883249249757  11.497859346408349  11.673616748318732 
  0.000124897954073  11.498052100546364  11.673616748318732 
  1.243896195570416   5.030208225579980  11.673616748318732 
  6.224027096020694   5.030160918575118  11.673616748318732 
  4.978717751584182  11.498554381379432  11.673616748318732 
 11.202392252437688   5.030124806060952  11.673616748318732 
 -1.265767879480512   5.013071722027818   5.002978606422314 
 -2.478945993123236  11.513893366335036   5.002978606422314 
  2.487763882592630  11.483433973874014   5.002978606422314 
  7.469619162753170  11.506662812227756   5.002978606422314 
  8.757539274346117   5.038986274222927   5.002978606422314 
 -0.000543000769193   7.186428501957724  11.673616748318732 
  1.244206847024573   0.718247324690674  11.673616748318732 
  4.978874997586812   7.186827616213622  11.673616748318732 
  6.223816063044029   0.718133635687894  11.673616748318732 
  9.957872601262913   7.186225282864783  11.673616748318732 
 -2.468610433359090   7.186785307464948   5.002978606422314 
 11.202301416214491   0.718661742855314  11.673616748318732 
  3.722885545104858   0.735732699908823   5.002978606422314 
  2.522751694258282   7.139294548545995   5.002978606422314 
  7.543448545283362   7.229707045907245   5.002978606422314 
  8.699441794319199   0.724492230510179   5.002978606422314 
  2.488945088948584   7.186756385412099  11.673616748318732 
 13.661347847184905   0.698516875018480   5.002978606422314 
 -1.244799875526553   9.342249219819326  11.673616748318732 
 -0.000766922091430   2.874052214993767  11.673616748318732 
  4.979000454017870   2.873853979452597  11.673616748318732 
  3.733967948916534   9.342998540665977  11.673616748318732 
  8.713004261877039   9.342400495415031  11.673616748318732 
  9.958013385830252   2.874161356959279  11.673616748318732 
 -3.707830072399584   9.357263300269620   5.002978606422314 
  1.263227090439895   9.316600452228965   5.002978606422314 
  2.392702461218925   2.844827730286230   5.002978606422314 
  6.253274068937936   9.376500845616835   5.002978606422314 