Al As B N                               
   1.0000000000000000     
     8.7639499999999995  -15.1796066749929999    0.0000000000000000
     8.7639499999999995   15.1796066749929999    0.0000000000000000
     0.0000000000000000    0.0000000000000000   15.0000000000000000
   Al   As   B    N 
     1     1    48    48
Selective dynamics
Direct
  0.5411844781448651  0.4588169237721245  0.1108660065274115   T   T   T
  0.4731844453816796  0.5268175758153245  0.1106236882513273   T   T   T
  0.9061588668437829  0.9545784545472803  0.1109922595579788   T   T   T
  0.9040398111183411  0.0959622100776507  0.1109902572253739   T   T   T
  0.9036542295933601  0.2382701333599714  0.1110226200520704   T   T   T
  0.9047484127145724  0.3811889008373983  0.1109168012349899   T   T   T
  0.9082804805719543  0.5249812453501004  0.1109604650965849   T   T   T
  0.9090188947980185  0.6691851194071606  0.1111051995166351   T   T   T
  0.9098431362392048  0.8139411786501108  0.1110569194476335   T   T   T
  0.0478344269657108  0.9521675942302994  0.1109578826429131   T   T   T
  0.0454235666487259  0.0938431543522090  0.1109922595579788   T   T   T
  0.0446783172265849  0.2369788110485742  0.1109850083395293   T   T   T
  0.0453335436408528  0.3806642000041205  0.1109618039509547   T   T   T
  0.0473186834170651  0.5243650090395806  0.1109422680199939   T   T   T
  0.0491951882539119  0.6675133103294526  0.1109953141243175   T   T   T
  0.0493024231250732  0.8102020235331986  0.1110240277161273   T   T   T
  0.1897999976627978  0.9506995980709287  0.1110240277161273   T   T   T
  0.1860608425458839  0.0901588849568020  0.1110569194476335   T   T   T
  0.1842511916658587  0.2329767323096309  0.1111238424301712   T   T   T
  0.1850398521000511  0.3788496991110580  0.1110669345203807   T   T   T
  0.1863954781311725  0.5240377822235582  0.1110426676554720   T   T   T
  0.1903607082582926  0.6671462365334890  0.1110207369269612   T   T   T
  0.1907106108358825  0.8092914103601305  0.1109900045055310   T   T   T
  0.3324887108675540  0.9508068329420922  0.1109953141243175   T   T   T
  0.3308169017898469  0.0909831263979719  0.1111051995166351   T   T   T
  0.3229426351305069  0.2266353449133933  0.1112766100139236   T   T   T
  0.3222022965229039  0.3719652945941251  0.1110278589369659   T   T   T
  0.3234462326504756  0.5229770231640809  0.1109899044289722   T   T   T
  0.3324025167403403  0.6675995044566552  0.1110553076724058   T   T   T
  0.3328557846635125  0.8096413129377037  0.1110207369269612   T   T   T
  0.4756370121574132  0.9526833377789301  0.1109422680199939   T   T   T
  0.4750207758468940  0.0917215406240345  0.1109604650965849   T   T   T
  0.4738360478514944  0.2288559752083786  0.1113421933080785   T   T   T
  0.4558308725207627  0.3495561153041727  0.1105577327391289   T   T   T
  0.4770249980329251  0.6765557885465271  0.1109899044289722   T   T   T
  0.4759642389734378  0.8136065430648338  0.1110426676554720   T   T   T
  0.6193378211918806  0.9546684775551485  0.1109618039509547   T   T   T
  0.6188131203586112  0.0952536084814160  0.1109168012349899   T   T   T
  0.6190284874193959  0.2362128616216708  0.1109996913365638   T   T   T
  0.6214516636745308  0.3785503575214698  0.1113449801207059   T   T   T
  0.6504459058918258  0.5441711486762341  0.1105577327391289   T   T   T
  0.6280367266018626  0.6777997246740890  0.1110278589369659   T   T   T
  0.6211523220849463  0.8149621690959474  0.1110669345203807   T   T   T
  0.7630232101474415  0.9553237039694348  0.1109850083395293   T   T   T
  0.7617318878360394  0.0963477916026379  0.1110226200520704   T   T   T
  0.7618465206618131  0.2381555005341901  0.1109930840331565   T   T   T
  0.7637891595743371  0.3809735337766074  0.1109996913365638   T   T   T
  0.7711460459876223  0.5261659733455011  0.1113421933080785   T   T   T
  0.7733666762826101  0.6770593860664909  0.1112766100139236   T   T   T
  0.7670252888863749  0.8157508295301440  0.1111238424301712   T   T   T
  0.9543166722145801  0.9074573000186374  0.1109480566520073   T   T   T
  0.9515328911826632  0.0484685107353335  0.1109633833715248   T   T   T
  0.9505298461313315  0.1904371058003186  0.1109834284681882   T   T   T
  0.9510270258167492  0.3330849513125160  0.1109514978649372   T   T   T
  0.9533331557401797  0.4762790891946734  0.1108741790469164   T   T   T
  0.9548923274979533  0.6201367519230546  0.1109947915154151   T   T   T
  0.9552547149611018  0.7640840441453104  0.1110331946004459   T   T   T
  0.0954306711052262  0.9045707308127691  0.1109847600652256   T   T   T
  0.0925441018993489  0.0456847297034320  0.1109480566520073   T   T   T
  0.0907612867969740  0.1880171259373393  0.1110019339061304   T   T   T
  0.0912156528990749  0.3318735876926018  0.1109706102067432   T   T   T
  0.0925955308304910  0.4758114838083819  0.1109553045415971   T   T   T
  0.0956556210895582  0.6193932891584870  0.1109677146542180   T   T   T
  0.0962310858957516  0.7622558474972078  0.1109890387171919   T   T   T
  0.2377455544208068  0.9037703160222426  0.1109890387171919   T   T   T
  0.2359173577726928  0.0447466869569037  0.1110331946004459   T   T   T
  0.2299505829118453  0.1831359504796524  0.1111701162255540   T   T   T
  0.2292223043024291  0.3275512168488418  0.1111262006505408   T   T   T
  0.2303216645478504  0.4747029528634907  0.1110917662338661   T   T   T
  0.2370937912172775  0.6193542555201037  0.1110300616725037   T   T   T
  0.2380525846530794  0.7619488172649254  0.1109931513018555   T   T   T
  0.3806081127595026  0.9043457808284466  0.1109677146542180   T   T   T
  0.3798646499949345  0.0451090744200526  0.1109947915154151   T   T   T
  0.3773981674992985  0.1848030260859481  0.1112437426349040   T   T   T
  0.3651192448209375  0.3185590183117390  0.1111437971325964   T   T   T
  0.3590882896996452  0.4670335640564564  0.1107702486117354   T   T   T
  0.3799010827201689  0.6201003191978297  0.1110004327991252   T   T   T
  0.3806471463978946  0.7629076107007285  0.1110300616725037   T   T   T
  0.5241899181086045  0.9074058710875091  0.1109553045415971   T   T   T
  0.5237223127223207  0.0466682461778239  0.1108741790469164   T   T   T
  0.5235179661048391  0.1854473666690085  0.1110476189896838   T   T   T
  0.5222171431841970  0.3218739932784492  0.1114221268745524   T   T   T
  0.5329678378605397  0.6409131122183640  0.1107702486117354   T   T   T
  0.5252984490534995  0.7696797373701604  0.1110917662338661   T   T   T
  0.6681278142244002  0.9087857490189258  0.1109706102067432   T   T   T
  0.6669164506044836  0.0489743761012575  0.1109514978649372   T   T   T
  0.6669127881319404  0.1899874568169836  0.1109243724792901   T   T   T
  0.6682016611245303  0.3317997407924685  0.1110645831963834   T   T   T
  0.6781274086385572  0.4777842587328003  0.1114221268745524   T   T   T
  0.6814423836052572  0.6348821570970695  0.1111437971325964   T   T   T
  0.6724501850681591  0.7707790976155730  0.1111262006505408   T   T   T
  0.8119842759806518  0.9092401151210207  0.1110019339061304   T   T   T
  0.8095642961176849  0.0494715557866792  0.1109834284681882   T   T   T
  0.8090786041325949  0.1909227977854016  0.1110311562221614   T   T   T
  0.8100139451010131  0.3330886137850551  0.1109243724792901   T   T   T
  0.8145540352489906  0.4764834358121502  0.1110476189896838   T   T   T
  0.8151983758320630  0.6226032344186974  0.1112437426349040   T   T   T
  0.8168654514383465  0.7700508190061622  0.1111701162255540   T   T   T

  0.00000000E+00  0.00000000E+00  0.00000000E+00
  0.00000000E+00  0.00000000E+00  0.00000000E+00
  0.00000000E+00  0.00000000E+00  0.00000000E+00
  0.00000000E+00  0.00000000E+00  0.00000000E+00
  0.00000000E+00  0.00000000E+00  0.00000000E+00
  0.00000000E+00  0.00000000E+00  0.00000000E+00
  0.00000000E+00  0.00000000E+00  0.00000000E+00
  0.00000000E+00  0.00000000E+00  0.00000000E+00
  0.00000000E+00  0.00000000E+00  0.00000000E+00
  0.00000000E+00  0.00000000E+00  0.00000000E+00
  0.00000000E+00  0.00000000E+00  0.00000000E+00
  0.00000000E+00  0.00000000E+00  0.00000000E+00
  0.00000000E+00  0.00000000E+00  0.00000000E+00
  0.00000000E+00  0.00000000E+00  0.00000000E+00
  0.00000000E+00  0.00000000E+00  0.00000000E+00
  0.00000000E+00  0.00000000E+00  0.00000000E+00
  0.00000000E+00  0.00000000E+00  0.00000000E+00
  0.00000000E+00  0.00000000E+00  0.00000000E+00
  0.00000000E+00  0.00000000E+00  0.00000000E+00
  0.00000000E+00  0.00000000E+00  0.00000000E+00
  0.00000000E+00  0.00000000E+00  0.00000000E+00
  0.00000000E+00  0.00000000E+00  0.00000000E+00
  0.00000000E+00  0.00000000E+00  0.00000000E+00
  0.00000000E+00  0.00000000E+00  0.00000000E+00
  0.00000000E+00  0.00000000E+00  0.00000000E+00
  0.00000000E+00  0.00000000E+00  0.00000000E+00
  0.00000000E+00  0.00000000E+00  0.00000000E+00
  0.00000000E+00  0.00000000E+00  0.00000000E+00
  0.00000000E+00  0.00000000E+00  0.00000000E+00
  0.00000000E+00  0.00000000E+00  0.00000000E+00
  0.00000000E+00  0.00000000E+00  0.00000000E+00
  0.00000000E+00  0.00000000E+00  0.00000000E+00
  0.00000000E+00  0.00000000E+00  0.00000000E+00
  0.00000000E+00  0.00000000E+00  0.00000000E+00
  0.00000000E+00  0.00000000E+00  0.00000000E+00
  0.00000000E+00  0.00000000E+00  0.00000000E+00
  0.00000000E+00  0.00000000E+00  0.00000000E+00
  0.00000000E+00  0.00000000E+00  0.00000000E+00
  0.00000000E+00  0.00000000E+00  0.00000000E+00
  0.00000000E+00  0.00000000E+00  0.00000000E+00
  0.00000000E+00  0.00000000E+00  0.00000000E+00
  0.00000000E+00  0.00000000E+00  0.00000000E+00
  0.00000000E+00  0.00000000E+00  0.00000000E+00
  0.00000000E+00  0.00000000E+00  0.00000000E+00
  0.00000000E+00  0.00000000E+00  0.00000000E+00
  0.00000000E+00  0.00000000E+00  0.00000000E+00
  0.00000000E+00  0.00000000E+00  0.00000000E+00
  0.00000000E+00  0.00000000E+00  0.00000000E+00
  0.00000000E+00  0.00000000E+00  0.00000000E+00
  0.00000000E+00  0.00000000E+00  0.00000000E+00
  0.00000000E+00  0.00000000E+00  0.00000000E+00
  0.00000000E+00  0.00000000E+00  0.00000000E+00
  0.00000000E+00  0.00000000E+00  0.00000000E+00
  0.00000000E+00  0.00000000E+00  0.00000000E+00
  0.00000000E+00  0.00000000E+00  0.00000000E+00
  0.00000000E+00  0.00000000E+00  0.00000000E+00
  0.00000000E+00  0.00000000E+00  0.00000000E+00
  0.00000000E+00  0.00000000E+00  0.00000000E+00
  0.00000000E+00  0.00000000E+00  0.00000000E+00
  0.00000000E+00  0.00000000E+00  0.00000000E+00
  0.00000000E+00  0.00000000E+00  0.00000000E+00
  0.00000000E+00  0.00000000E+00  0.00000000E+00
  0.00000000E+00  0.00000000E+00  0.00000000E+00
  0.00000000E+00  0.00000000E+00  0.00000000E+00
  0.00000000E+00  0.00000000E+00  0.00000000E+00
  0.00000000E+00  0.00000000E+00  0.00000000E+00
  0.00000000E+00  0.00000000E+00  0.00000000E+00
  0.00000000E+00  0.00000000E+00  0.00000000E+00
  0.00000000E+00  0.00000000E+00  0.00000000E+00
  0.00000000E+00  0.00000000E+00  0.00000000E+00
  0.00000000E+00  0.00000000E+00  0.00000000E+00
  0.00000000E+00  0.00000000E+00  0.00000000E+00
  0.00000000E+00  0.00000000E+00  0.00000000E+00
  0.00000000E+00  0.00000000E+00  0.00000000E+00
  0.00000000E+00  0.00000000E+00  0.00000000E+00
  0.00000000E+00  0.00000000E+00  0.00000000E+00
  0.00000000E+00  0.00000000E+00  0.00000000E+00
  0.00000000E+00  0.00000000E+00  0.00000000E+00
  0.00000000E+00  0.00000000E+00  0.00000000E+00
  0.00000000E+00  0.00000000E+00  0.00000000E+00
  0.00000000E+00  0.00000000E+00  0.00000000E+00
  0.00000000E+00  0.00000000E+00  0.00000000E+00
  0.00000000E+00  0.00000000E+00  0.00000000E+00
  0.00000000E+00  0.00000000E+00  0.00000000E+00
  0.00000000E+00  0.00000000E+00  0.00000000E+00
  0.00000000E+00  0.00000000E+00  0.00000000E+00
  0.00000000E+00  0.00000000E+00  0.00000000E+00
  0.00000000E+00  0.00000000E+00  0.00000000E+00
  0.00000000E+00  0.00000000E+00  0.00000000E+00
  0.00000000E+00  0.00000000E+00  0.00000000E+00
  0.00000000E+00  0.00000000E+00  0.00000000E+00
  0.00000000E+00  0.00000000E+00  0.00000000E+00
  0.00000000E+00  0.00000000E+00  0.00000000E+00
  0.00000000E+00  0.00000000E+00  0.00000000E+00
  0.00000000E+00  0.00000000E+00  0.00000000E+00
  0.00000000E+00  0.00000000E+00  0.00000000E+00
  0.00000000E+00  0.00000000E+00  0.00000000E+00
  0.00000000E+00  0.00000000E+00  0.00000000E+00
