B C N O                                 
   1.0000000000000000     
     8.7639499999999995  -15.1796066749929999    0.0000000000000000
     8.7639499999999995   15.1796066749929999    0.0000000000000000
     0.0000000000000000    0.0000000000000000   15.0000000000000000
   B    C    N    O 
    49     1    47     1
Selective dynamics
Direct
  0.9047833776750628  0.9523706438611557  0.1110142322232892   T   T   T
  0.9045898746353940  0.0951659467408101  0.1110390574269405   T   T   T
  0.9045749500621530  0.2379232144559382  0.1110323543113960   T   T   T
  0.9046252244960822  0.3808759159138970  0.1110100935290707   T   T   T
  0.9047552167283831  0.5238299309818575  0.1110082331452348   T   T   T
  0.9051751731791307  0.6668571303542827  0.1110446784980601   T   T   T
  0.9050258288677524  0.8096396802779915  0.1110366841746805   T   T   T
  0.0475513761280405  0.9522244831822099  0.1110151718187669   T   T   T
  0.0470199449471284  0.0946084647940813  0.1110158115049153   T   T   T
  0.0470638044896920  0.2376712008975732  0.1110036516607875   T   T   T
  0.0472639845370109  0.3808714256904953  0.1110239670971562   T   T   T
  0.0470852785499225  0.5238654759590707  0.1110185191114583   T   T   T
  0.0475646647949781  0.6667714783731524  0.1110220042341970   T   T   T
  0.0476930620909210  0.8095711254149972  0.1110093722410985   T   T   T
  0.1903595399281969  0.9521917770933352  0.1110076991431706   T   T   T
  0.1901588078766406  0.0946500254702726  0.1110405971569772   T   T   T
  0.1887669384003407  0.2364162388646172  0.1110076899668673   T   T   T
  0.1897522542703229  0.3804238229428506  0.1110137694238257   T   T   T
  0.1892482951059740  0.5240936386038255  0.1110347788535191   T   T   T
  0.1900986538138379  0.6669626351696740  0.1110400712636993   T   T   T
  0.1903627110985995  0.8096265226155863  0.1110049756948683   T   T   T
  0.3332679095938961  0.9523648955464807  0.1110215213199226   T   T   T
  0.3332056961828205  0.0946146561574781  0.1110603505532968   T   T   T
  0.3327274376821087  0.2363392053493494  0.1110216379810929   T   T   T
  0.3302091750729760  0.3761303148154422  0.1110361509168473   T   T   T
  0.3310333468816041  0.5258990381556786  0.1110506506986648   T   T   T
  0.3328880739284323  0.6679420205766906  0.1110453593188247   T   T   T
  0.3331885292708286  0.8100503312607717  0.1110435068530944   T   T   T
  0.4761946886859272  0.9525075766061576  0.1110183716144832   T   T   T
  0.4762156109985695  0.0951745922429074  0.1110071077836560   T   T   T
  0.4761933233855851  0.2375732360623759  0.1110301187271558   T   T   T
  0.4745554943191446  0.3773972527036546  0.1110457286728276   T   T   T
  0.4794290183632975  0.5278001093671459  0.1111171626266643   T   T   T
  0.4760050048743272  0.6672491171065383  0.1110281979850593   T   T   T
  0.4761130083230739  0.8098249917298186  0.1110453794606869   T   T   T
  0.6191011052870001  0.9525029501960117  0.1110210620070182   T   T   T
  0.6190945593187699  0.0952321357511632  0.1110078158344717   T   T   T
  0.6193953997601180  0.2379733764250096  0.1110233695459320   T   T   T
  0.6195042090829195  0.3804040588711204  0.1110225255916909   T   T   T
  0.6239144113941384  0.5258569968370486  0.1110499004081448   T   T   T
  0.6211036117095555  0.6686894515492577  0.1110062471977059   T   T   T
  0.6195040798617731  0.8100795170537164  0.1110122485842388   T   T   T
  0.7620386708473235  0.9526086513785442  0.1110019493084738   T   T   T
  0.7619364356800092  0.0952536095001455  0.1110358137567370   T   T   T
  0.7619590174665560  0.2379236859723916  0.1110411025742761   T   T   T
  0.7619535034326144  0.3806240695053200  0.1110199978151264   T   T   T
  0.7628327888723170  0.5240646783862459  0.1110223103827270   T   T   T
  0.7630291685395073  0.6672397301735613  0.1110267685741586   T   T   T
  0.7625915023461669  0.8102924083166325  0.1110062189097599   T   T   T
  0.3812187622689214  0.4756130867182581  0.1111219459984035   T   T   T
  0.9523453586044123  0.9046729611815597  0.1110088792861642   T   T   T
  0.9520447769004886  0.0473325023834577  0.1110081928593616   T   T   T
  0.9521217213873131  0.1903184073283244  0.1110132587155649   T   T   T
  0.9521769449016266  0.3332294696479726  0.1110065066819281   T   T   T
  0.9520213272753367  0.4761361449490884  0.1109878057490635   T   T   T
  0.9523142203790543  0.6190502734435639  0.1110090883526303   T   T   T
  0.9524257113495398  0.7619003669279808  0.1110190275132704   T   T   T
  0.0952017384034053  0.9046904857894793  0.1109893964106908   T   T   T
  0.0950517695774683  0.0473389155724387  0.1110068064069797   T   T   T
  0.0941963671898190  0.1895550450951586  0.1109895209330438   T   T   T
  0.0949283776344523  0.3331033274183333  0.1109976944712939   T   T   T
  0.0944171634507160  0.4761813217237431  0.1110084647895408   T   T   T
  0.0949710023540366  0.6191246724342087  0.1110127632661010   T   T   T
  0.0951775611072782  0.7619562444526746  0.1109942659860512   T   T   T
  0.2380772688381293  0.9047985798862032  0.1109948962857339   T   T   T
  0.2380799988884880  0.0474182848327426  0.1110190813311430   T   T   T
  0.2378186810926842  0.1899112666579407  0.1110123532958811   T   T   T
  0.2361902126668612  0.3310975909441471  0.1109904766919966   T   T   T
  0.2366479652402773  0.4765191163630931  0.1110097951179851   T   T   T
  0.2377087393723372  0.6194350443429297  0.1110309468111816   T   T   T
  0.2379908130044208  0.7621422253115869  0.1110141390369710   T   T   T
  0.3809881032985928  0.9050483921405639  0.1110137879539924   T   T   T
  0.3810365198236955  0.0475459304233947  0.1110101865418790   T   T   T
  0.3811033542516082  0.1899550052192399  0.1110245610440048   T   T   T
  0.3809484844595694  0.3321101927441920  0.1109837330378795   T   T   T
  0.3805810344929130  0.6205635847340433  0.1110153311354427   T   T   T
  0.3809530532046149  0.7627247789052628  0.1110316577274739   T   T   T
  0.5238363135628804  0.9048469185466617  0.1110138353331511   T   T   T
  0.5238523794241908  0.0477068261154196  0.1109864624442541   T   T   T
  0.5239702765669824  0.1906521637796171  0.1110094341130779   T   T   T
  0.5242655215686832  0.3340367982328734  0.1109926849323404   T   T   T
  0.5261982135110763  0.6202772522364607  0.1109837667614661   T   T   T
  0.5238922144167081  0.7618848154755423  0.1110155385729488   T   T   T
  0.6667718908000503  0.9048760180615310  0.1109951320547512   T   T   T
  0.6666571467435131  0.0476195698650767  0.1110073356997498   T   T   T
  0.6667669983607647  0.1904439733367412  0.1110135613969389   T   T   T
  0.6667218274732070  0.3332034975184029  0.1110009425758195   T   T   T
  0.6669124687026688  0.4760888612637192  0.1109859848969064   T   T   T
  0.6670591233653201  0.6191054007143633  0.1109800930748751   T   T   T
  0.6675184138552530  0.7627442172017207  0.1109880055669346   T   T   T
  0.8096718993572137  0.9049884100100468  0.1109876569623500   T   T   T
  0.8094514170013797  0.0476043996663978  0.1110141328135402   T   T   T
  0.8094497481606057  0.1903869457744766  0.1110177210735954   T   T   T
  0.8093988010132618  0.3331671367620106  0.1110135437373484   T   T   T
  0.8095000329957881  0.4761115500061379  0.1110071675604662   T   T   T
  0.8097286329892213  0.6190763392189932  0.1110168380311529   T   T   T
  0.8096958428723935  0.7619779936798381  0.1110103581230160   T   T   T
  0.5273239292968790  0.4775881260010785  0.1112832533609382   T   T   T

  0.00000000E+00  0.00000000E+00  0.00000000E+00
  0.00000000E+00  0.00000000E+00  0.00000000E+00
  0.00000000E+00  0.00000000E+00  0.00000000E+00
  0.00000000E+00  0.00000000E+00  0.00000000E+00
  0.00000000E+00  0.00000000E+00  0.00000000E+00
  0.00000000E+00  0.00000000E+00  0.00000000E+00
  0.00000000E+00  0.00000000E+00  0.00000000E+00
  0.00000000E+00  0.00000000E+00  0.00000000E+00
  0.00000000E+00  0.00000000E+00  0.00000000E+00
  0.00000000E+00  0.00000000E+00  0.00000000E+00
  0.00000000E+00  0.00000000E+00  0.00000000E+00
  0.00000000E+00  0.00000000E+00  0.00000000E+00
  0.00000000E+00  0.00000000E+00  0.00000000E+00
  0.00000000E+00  0.00000000E+00  0.00000000E+00
  0.00000000E+00  0.00000000E+00  0.00000000E+00
  0.00000000E+00  0.00000000E+00  0.00000000E+00
  0.00000000E+00  0.00000000E+00  0.00000000E+00
  0.00000000E+00  0.00000000E+00  0.00000000E+00
  0.00000000E+00  0.00000000E+00  0.00000000E+00
  0.00000000E+00  0.00000000E+00  0.00000000E+00
  0.00000000E+00  0.00000000E+00  0.00000000E+00
  0.00000000E+00  0.00000000E+00  0.00000000E+00
  0.00000000E+00  0.00000000E+00  0.00000000E+00
  0.00000000E+00  0.00000000E+00  0.00000000E+00
  0.00000000E+00  0.00000000E+00  0.00000000E+00
  0.00000000E+00  0.00000000E+00  0.00000000E+00
  0.00000000E+00  0.00000000E+00  0.00000000E+00
  0.00000000E+00  0.00000000E+00  0.00000000E+00
  0.00000000E+00  0.00000000E+00  0.00000000E+00
  0.00000000E+00  0.00000000E+00  0.00000000E+00
  0.00000000E+00  0.00000000E+00  0.00000000E+00
  0.00000000E+00  0.00000000E+00  0.00000000E+00
  0.00000000E+00  0.00000000E+00  0.00000000E+00
  0.00000000E+00  0.00000000E+00  0.00000000E+00
  0.00000000E+00  0.00000000E+00  0.00000000E+00
  0.00000000E+00  0.00000000E+00  0.00000000E+00
  0.00000000E+00  0.00000000E+00  0.00000000E+00
  0.00000000E+00  0.00000000E+00  0.00000000E+00
  0.00000000E+00  0.00000000E+00  0.00000000E+00
  0.00000000E+00  0.00000000E+00  0.00000000E+00
  0.00000000E+00  0.00000000E+00  0.00000000E+00
  0.00000000E+00  0.00000000E+00  0.00000000E+00
  0.00000000E+00  0.00000000E+00  0.00000000E+00
  0.00000000E+00  0.00000000E+00  0.00000000E+00
  0.00000000E+00  0.00000000E+00  0.00000000E+00
  0.00000000E+00  0.00000000E+00  0.00000000E+00
  0.00000000E+00  0.00000000E+00  0.00000000E+00
  0.00000000E+00  0.00000000E+00  0.00000000E+00
  0.00000000E+00  0.00000000E+00  0.00000000E+00
  0.00000000E+00  0.00000000E+00  0.00000000E+00
  0.00000000E+00  0.00000000E+00  0.00000000E+00
  0.00000000E+00  0.00000000E+00  0.00000000E+00
  0.00000000E+00  0.00000000E+00  0.00000000E+00
  0.00000000E+00  0.00000000E+00  0.00000000E+00
  0.00000000E+00  0.00000000E+00  0.00000000E+00
  0.00000000E+00  0.00000000E+00  0.00000000E+00
  0.00000000E+00  0.00000000E+00  0.00000000E+00
  0.00000000E+00  0.00000000E+00  0.00000000E+00
  0.00000000E+00  0.00000000E+00  0.00000000E+00
  0.00000000E+00  0.00000000E+00  0.00000000E+00
  0.00000000E+00  0.00000000E+00  0.00000000E+00
  0.00000000E+00  0.00000000E+00  0.00000000E+00
  0.00000000E+00  0.00000000E+00  0.00000000E+00
  0.00000000E+00  0.00000000E+00  0.00000000E+00
  0.00000000E+00  0.00000000E+00  0.00000000E+00
  0.00000000E+00  0.00000000E+00  0.00000000E+00
  0.00000000E+00  0.00000000E+00  0.00000000E+00
  0.00000000E+00  0.00000000E+00  0.00000000E+00
  0.00000000E+00  0.00000000E+00  0.00000000E+00
  0.00000000E+00  0.00000000E+00  0.00000000E+00
  0.00000000E+00  0.00000000E+00  0.00000000E+00
  0.00000000E+00  0.00000000E+00  0.00000000E+00
  0.00000000E+00  0.00000000E+00  0.00000000E+00
  0.00000000E+00  0.00000000E+00  0.00000000E+00
  0.00000000E+00  0.00000000E+00  0.00000000E+00
  0.00000000E+00  0.00000000E+00  0.00000000E+00
  0.00000000E+00  0.00000000E+00  0.00000000E+00
  0.00000000E+00  0.00000000E+00  0.00000000E+00
  0.00000000E+00  0.00000000E+00  0.00000000E+00
  0.00000000E+00  0.00000000E+00  0.00000000E+00
  0.00000000E+00  0.00000000E+00  0.00000000E+00
  0.00000000E+00  0.00000000E+00  0.00000000E+00
  0.00000000E+00  0.00000000E+00  0.00000000E+00
  0.00000000E+00  0.00000000E+00  0.00000000E+00
  0.00000000E+00  0.00000000E+00  0.00000000E+00
  0.00000000E+00  0.00000000E+00  0.00000000E+00
  0.00000000E+00  0.00000000E+00  0.00000000E+00
  0.00000000E+00  0.00000000E+00  0.00000000E+00
  0.00000000E+00  0.00000000E+00  0.00000000E+00
  0.00000000E+00  0.00000000E+00  0.00000000E+00
  0.00000000E+00  0.00000000E+00  0.00000000E+00
  0.00000000E+00  0.00000000E+00  0.00000000E+00
  0.00000000E+00  0.00000000E+00  0.00000000E+00
  0.00000000E+00  0.00000000E+00  0.00000000E+00
  0.00000000E+00  0.00000000E+00  0.00000000E+00
  0.00000000E+00  0.00000000E+00  0.00000000E+00
  0.00000000E+00  0.00000000E+00  0.00000000E+00
  0.00000000E+00  0.00000000E+00  0.00000000E+00
