As B N                                  
   1.0000000000000000     
     8.7639499999999995  -15.1796066749929999    0.0000000000000000
     8.7639499999999995   15.1796066749929999    0.0000000000000000
     0.0000000000000000    0.0000000000000000   15.0000000000000000
   As   B    N 
     1    49    47
Selective dynamics
Direct
  0.5234456563672156  0.4926084085639101  0.1106631078305109   T   T   T
  0.9075162701416222  0.9541039241425309  0.1116748950475957   T   T   T
  0.9033704962147920  0.0937953179758002  0.1111286280009756   T   T   T
  0.9023813313681412  0.2359647817362922  0.1110395651013431   T   T   T
  0.9032518314398331  0.3793744795056086  0.1113576900830189   T   T   T
  0.9071486755535719  0.5238944999225971  0.1119361555417312   T   T   T
  0.9117140345836666  0.6692107215819607  0.1118188902980153   T   T   T
  0.9123913533139744  0.8141462409534302  0.1121300491161017   T   T   T
  0.0505994388021683  0.9542551288337245  0.1120073922992538   T   T   T
  0.0477965156598978  0.0954928967267483  0.1112495244387310   T   T   T
  0.0448296950747246  0.2362905458494848  0.1108422237098669   T   T   T
  0.0441163253694010  0.3791022426939084  0.1108504347703757   T   T   T
  0.0457051146493921  0.5231927385718930  0.1114254980939607   T   T   T
  0.0494837151412086  0.6675868723806110  0.1121809892577460   T   T   T
  0.0514412756055880  0.8115088183663403  0.1123485468352182   T   T   T
  0.1921251461372246  0.9531284377779305  0.1116598391929370   T   T   T
  0.1901473568125517  0.0946958630593871  0.1115391255622128   T   T   T
  0.1886111534323157  0.2375193151401278  0.1115761733144718   T   T   T
  0.1851827950168931  0.3788859491429167  0.1113101157759854   T   T   T
  0.1842488085414911  0.5229872126139635  0.1107807418979364   T   T   T
  0.1882756939153074  0.6669018910544942  0.1110803172889571   T   T   T
  0.1916683393821757  0.8102968306699996  0.1114604014318982   T   T   T
  0.3338142304825884  0.9520596557975683  0.1109765310899901   T   T   T
  0.3333852719308261  0.0945256739519705  0.1115062874273745   T   T   T
  0.3293971367315628  0.2346117542030713  0.1122781425074875   T   T   T
  0.3295316543948599  0.3816431230591141  0.1132254963880708   T   T   T
  0.3205814622767318  0.5226861283591774  0.1123820232247505   T   T   T
  0.3270935126927682  0.6667817855640810  0.1110225124621002   T   T   T
  0.3327722841795208  0.8093595904776184  0.1106275241119301   T   T   T
  0.4756850396907690  0.9495663951939886  0.1107049697882077   T   T   T
  0.4759372050124515  0.0930895375615486  0.1110606438145633   T   T   T
  0.4755112340005251  0.2352038925763464  0.1113156837070310   T   T   T
  0.4670228520547373  0.3679282959190574  0.1123084878571063   T   T   T
  0.4594202955241020  0.5535055594480401  0.1115520912516355   T   T   T
  0.4643326037285356  0.6561225524557744  0.1107565109714210   T   T   T
  0.4744137241225919  0.8045795664428682  0.1105761406352687   T   T   T
  0.6175191333893428  0.9489471222842648  0.1110322755411945   T   T   T
  0.6179892437353226  0.0927517177712392  0.1111971423536126   T   T   T
  0.6185257729121961  0.2364439285589241  0.1110635502361101   T   T   T
  0.6204544141184587  0.3809154790670248  0.1092813786726951   T   T   T
  0.6437434708063285  0.5369724499767773  0.1041500416170401   T   T   T
  0.6391336175895664  0.6744721202215040  0.1079688243262105   T   T   T
  0.6172905512033356  0.8052464110676003  0.1105834615786688   T   T   T
  0.7611325975616818  0.9506019109099637  0.1112411845721733   T   T   T
  0.7601246336305065  0.0927953062456968  0.1112944316896909   T   T   T
  0.7604629499285208  0.2360016695275260  0.1113441293397386   T   T   T
  0.7623537667822344  0.3799498618425346  0.1109279955929358   T   T   T
  0.7699413304659659  0.5255850610544158  0.1090125684498424   T   T   T
  0.7785404232541194  0.6751613867414494  0.1079369618411140   T   T   T
  0.7690330616480453  0.8134001600492917  0.1105414909319348   T   T   T
  0.9563651478264023  0.9077946317540561  0.1122451825123223   T   T   T
  0.9529313404637165  0.0481997470946637  0.1112950578919181   T   T   T
  0.9500831640006175  0.1886044472642091  0.1108492678958101   T   T   T
  0.9496098366255468  0.3310917423799979  0.1110030834341869   T   T   T
  0.9515516848721234  0.4747003409971153  0.1117288409800980   T   T   T
  0.9553453761029840  0.6193014203412799  0.1124216575583900   T   T   T
  0.9571539002348322  0.7641898904596729  0.1124530203797701   T   T   T
  0.0976279486285653  0.9062841527311772  0.1120919030203173   T   T   T
  0.0959924325196315  0.0484938534889721  0.1114762069931311   T   T   T
  0.0940700364865694  0.1902912884876909  0.1110086574601041   T   T   T
  0.0912671658287595  0.3311045298418768  0.1107860142436057   T   T   T
  0.0907534780816101  0.4742834066103119  0.1108386141644956   T   T   T
  0.0941532624708148  0.6184904623714592  0.1116049693297082   T   T   T
  0.0971262032268484  0.7627226711419085  0.1120910573978815   T   T   T
  0.2391443041567642  0.9052588774564533  0.1113112938226489   T   T   T
  0.2387258962286233  0.0480648173505784  0.1115384834716234   T   T   T
  0.2358582120729555  0.1893272283651053  0.1116937882765488   T   T   T
  0.2354035497156991  0.3332596481362977  0.1120254658276373   T   T   T
  0.2289391447994252  0.4735462938457239  0.1111152902454891   T   T   T
  0.2330953349568622  0.6180515366889835  0.1107174446588620   T   T   T
  0.2378598290393105  0.7619601360097586  0.1109693144577067   T   T   T
  0.3808975525906449  0.9040460756327163  0.1105802022113004   T   T   T
  0.3811389196024214  0.0471443721958720  0.1111092099414466   T   T   T
  0.3803159029313525  0.1899683712111535  0.1118126867585252   T   T   T
  0.3749631269597853  0.3297643145316490  0.1132583054594370   T   T   T
  0.3717455992859638  0.4790631520368646  0.1138295354402747   T   T   T
  0.3707255636948726  0.6174129426119186  0.1118506573421255   T   T   T
  0.3792536250662276  0.7609060097925875  0.1105462047929916   T   T   T
  0.5225228131416261  0.9004296904008958  0.1106849515833186   T   T   T
  0.5231340029303663  0.0450721977858909  0.1109302441203205   T   T   T
  0.5234102167927880  0.1886215390770926  0.1110813766166170   T   T   T
  0.5233469049871856  0.3312919648131541  0.1108312941431918   T   T   T
  0.5207369147577715  0.7530122060486008  0.1104167712219992   T   T   T
  0.6649856852637215  0.9005520190464595  0.1110633398138221   T   T   T
  0.6650287399207936  0.0444547870565453  0.1112359078975250   T   T   T
  0.6654173051806347  0.1884534425579575  0.1113277554950276   T   T   T
  0.6664767420219891  0.3326846176651563  0.1105103290966565   T   T   T
  0.6749103117964916  0.4780160764200354  0.1065416200446347   T   T   T
  0.6859347228276197  0.6293463017893695  0.1036458872437964   T   T   T
  0.6727503237514094  0.7638801018599324  0.1097945149653496   T   T   T
  0.8123297468461685  0.9063965345322580  0.1113138919301320   T   T   T
  0.8079834881916070  0.0454360726043336  0.1112314617775135   T   T   T
  0.8074232432735780  0.1880435561718346  0.1112695899604520   T   T   T
  0.8081872791453691  0.3314502143698143  0.1113185095511697   T   T   T
  0.8126591267344968  0.4755656677429549  0.1111085723111465   T   T   T
  0.8178224050018661  0.6213706331447051  0.1096492113318382   T   T   T
  0.8185213597108233  0.7677803786762726  0.1108087217363482   T   T   T

  0.00000000E+00  0.00000000E+00  0.00000000E+00
  0.00000000E+00  0.00000000E+00  0.00000000E+00
  0.00000000E+00  0.00000000E+00  0.00000000E+00
  0.00000000E+00  0.00000000E+00  0.00000000E+00
  0.00000000E+00  0.00000000E+00  0.00000000E+00
  0.00000000E+00  0.00000000E+00  0.00000000E+00
  0.00000000E+00  0.00000000E+00  0.00000000E+00
  0.00000000E+00  0.00000000E+00  0.00000000E+00
  0.00000000E+00  0.00000000E+00  0.00000000E+00
  0.00000000E+00  0.00000000E+00  0.00000000E+00
  0.00000000E+00  0.00000000E+00  0.00000000E+00
  0.00000000E+00  0.00000000E+00  0.00000000E+00
  0.00000000E+00  0.00000000E+00  0.00000000E+00
  0.00000000E+00  0.00000000E+00  0.00000000E+00
  0.00000000E+00  0.00000000E+00  0.00000000E+00
  0.00000000E+00  0.00000000E+00  0.00000000E+00
  0.00000000E+00  0.00000000E+00  0.00000000E+00
  0.00000000E+00  0.00000000E+00  0.00000000E+00
  0.00000000E+00  0.00000000E+00  0.00000000E+00
  0.00000000E+00  0.00000000E+00  0.00000000E+00
  0.00000000E+00  0.00000000E+00  0.00000000E+00
  0.00000000E+00  0.00000000E+00  0.00000000E+00
  0.00000000E+00  0.00000000E+00  0.00000000E+00
  0.00000000E+00  0.00000000E+00  0.00000000E+00
  0.00000000E+00  0.00000000E+00  0.00000000E+00
  0.00000000E+00  0.00000000E+00  0.00000000E+00
  0.00000000E+00  0.00000000E+00  0.00000000E+00
  0.00000000E+00  0.00000000E+00  0.00000000E+00
  0.00000000E+00  0.00000000E+00  0.00000000E+00
  0.00000000E+00  0.00000000E+00  0.00000000E+00
  0.00000000E+00  0.00000000E+00  0.00000000E+00
  0.00000000E+00  0.00000000E+00  0.00000000E+00
  0.00000000E+00  0.00000000E+00  0.00000000E+00
  0.00000000E+00  0.00000000E+00  0.00000000E+00
  0.00000000E+00  0.00000000E+00  0.00000000E+00
  0.00000000E+00  0.00000000E+00  0.00000000E+00
  0.00000000E+00  0.00000000E+00  0.00000000E+00
  0.00000000E+00  0.00000000E+00  0.00000000E+00
  0.00000000E+00  0.00000000E+00  0.00000000E+00
  0.00000000E+00  0.00000000E+00  0.00000000E+00
  0.00000000E+00  0.00000000E+00  0.00000000E+00
  0.00000000E+00  0.00000000E+00  0.00000000E+00
  0.00000000E+00  0.00000000E+00  0.00000000E+00
  0.00000000E+00  0.00000000E+00  0.00000000E+00
  0.00000000E+00  0.00000000E+00  0.00000000E+00
  0.00000000E+00  0.00000000E+00  0.00000000E+00
  0.00000000E+00  0.00000000E+00  0.00000000E+00
  0.00000000E+00  0.00000000E+00  0.00000000E+00
  0.00000000E+00  0.00000000E+00  0.00000000E+00
  0.00000000E+00  0.00000000E+00  0.00000000E+00
  0.00000000E+00  0.00000000E+00  0.00000000E+00
  0.00000000E+00  0.00000000E+00  0.00000000E+00
  0.00000000E+00  0.00000000E+00  0.00000000E+00
  0.00000000E+00  0.00000000E+00  0.00000000E+00
  0.00000000E+00  0.00000000E+00  0.00000000E+00
  0.00000000E+00  0.00000000E+00  0.00000000E+00
  0.00000000E+00  0.00000000E+00  0.00000000E+00
  0.00000000E+00  0.00000000E+00  0.00000000E+00
  0.00000000E+00  0.00000000E+00  0.00000000E+00
  0.00000000E+00  0.00000000E+00  0.00000000E+00
  0.00000000E+00  0.00000000E+00  0.00000000E+00
  0.00000000E+00  0.00000000E+00  0.00000000E+00
  0.00000000E+00  0.00000000E+00  0.00000000E+00
  0.00000000E+00  0.00000000E+00  0.00000000E+00
  0.00000000E+00  0.00000000E+00  0.00000000E+00
  0.00000000E+00  0.00000000E+00  0.00000000E+00
  0.00000000E+00  0.00000000E+00  0.00000000E+00
  0.00000000E+00  0.00000000E+00  0.00000000E+00
  0.00000000E+00  0.00000000E+00  0.00000000E+00
  0.00000000E+00  0.00000000E+00  0.00000000E+00
  0.00000000E+00  0.00000000E+00  0.00000000E+00
  0.00000000E+00  0.00000000E+00  0.00000000E+00
  0.00000000E+00  0.00000000E+00  0.00000000E+00
  0.00000000E+00  0.00000000E+00  0.00000000E+00
  0.00000000E+00  0.00000000E+00  0.00000000E+00
  0.00000000E+00  0.00000000E+00  0.00000000E+00
  0.00000000E+00  0.00000000E+00  0.00000000E+00
  0.00000000E+00  0.00000000E+00  0.00000000E+00
  0.00000000E+00  0.00000000E+00  0.00000000E+00
  0.00000000E+00  0.00000000E+00  0.00000000E+00
  0.00000000E+00  0.00000000E+00  0.00000000E+00
  0.00000000E+00  0.00000000E+00  0.00000000E+00
  0.00000000E+00  0.00000000E+00  0.00000000E+00
  0.00000000E+00  0.00000000E+00  0.00000000E+00
  0.00000000E+00  0.00000000E+00  0.00000000E+00
  0.00000000E+00  0.00000000E+00  0.00000000E+00
  0.00000000E+00  0.00000000E+00  0.00000000E+00
  0.00000000E+00  0.00000000E+00  0.00000000E+00
  0.00000000E+00  0.00000000E+00  0.00000000E+00
  0.00000000E+00  0.00000000E+00  0.00000000E+00
  0.00000000E+00  0.00000000E+00  0.00000000E+00
  0.00000000E+00  0.00000000E+00  0.00000000E+00
  0.00000000E+00  0.00000000E+00  0.00000000E+00
  0.00000000E+00  0.00000000E+00  0.00000000E+00
  0.00000000E+00  0.00000000E+00  0.00000000E+00
  0.00000000E+00  0.00000000E+00  0.00000000E+00
  0.00000000E+00  0.00000000E+00  0.00000000E+00
