B Si N                                  
   1.0000000000000000     
     8.7639499999999995  -15.1796066749929999    0.0000000000000000
     8.7639499999999995   15.1796066749929999    0.0000000000000000
     0.0000000000000000    0.0000000000000000   15.0000000000000000
   B    Si   N 
    48     1    49
Selective dynamics
Direct
  0.9055268737485613  0.9528769462496876  0.1083231940773573   T   T   T
  0.9047779965103471  0.0952237501816463  0.1089320086369066   T   T   T
  0.9045449129966628  0.2379734814491790  0.1094171306478725   T   T   T
  0.9047585210907355  0.3809437143490714  0.1088770796717583   T   T   T
  0.9055361736888774  0.5240575799614320  0.1083382981691491   T   T   T
  0.9056979887664992  0.6671308545602547  0.1090476471252354   T   T   T
  0.9056803521103616  0.8099746686430631  0.1090233951701147   T   T   T
  0.0477753034508537  0.9522264199140984  0.1093770296163114   T   T   T
  0.0471247690923290  0.0944748467235026  0.1083231936043561   T   T   T
  0.0467520096915541  0.2373913688886653  0.1079499538024159   T   T   T
  0.0467283347765374  0.3807884714892792  0.1080106628130408   T   T   T
  0.0471036720606131  0.5240760566384643  0.1083548177334055   T   T   T
  0.0477836346987242  0.6670035664240649  0.1094584143827957   T   T   T
  0.0479359113931658  0.8096976167371425  0.1101114298149684   T   T   T
  0.1903041329558617  0.9520658516998434  0.1101114282889713   T   T   T
  0.1900270323929264  0.0943213605976361  0.1090233910461175   T   T   T
  0.1883682499674544  0.2356580868109356  0.1092792914909847   T   T   T
  0.1882410022304800  0.3798295378977222  0.1107449589000442   T   T   T
  0.1883500701360926  0.5241344565122857  0.1094869594762970   T   T   T
  0.1900052325834597  0.6671480089855540  0.1092407761659016   T   T   T
  0.1903041852313548  0.8096975093096349  0.1101831113351922   T   T   T
  0.3329981692809069  0.9522180891352857  0.1094584167967936   T   T   T
  0.3328708594167861  0.0943037511535251  0.1090476427482353   T   T   T
  0.3324481602611594  0.2362978636400724  0.1119967861227317   T   T   T
  0.3279272867877320  0.3753533469519418  0.1195227711937945   T   T   T
  0.3279153541926807  0.5240220266247875  0.1195384690853946   T   T   T
  0.3324154880423240  0.6675862147316708  0.1121871906740963   T   T   T
  0.3328536443344522  0.8099963962595568  0.1092407796989049   T   T   T
  0.4759256307805273  0.9528979088693770  0.1083548230444069   T   T   T
  0.4759441615445671  0.0944656489871257  0.1083383068621492   T   T   T
  0.4758892433852810  0.2356517192811609  0.1094393126329801   T   T   T
  0.4759828144956462  0.3753526797646514  0.1196610664922705   T   T   T
  0.4759797578082227  0.6720865031473366  0.1195384695994012   T   T   T
  0.4758672592777057  0.8116516169319217  0.1094869652132972   T   T   T
  0.6192132674827404  0.9532733496404271  0.1080106649200416   T   T   T
  0.6190579559989197  0.0952431661912512  0.1088770807577589   T   T   T
  0.6192532323945251  0.2373827000417087  0.1080540867853531   T   T   T
  0.6201620356886384  0.3798396985203675  0.1109149127893502   T   T   T
  0.6246488892053701  0.5240188527073691  0.1196610612342685   T   T   T
  0.6246483025030953  0.6720744369282725  0.1195227709067921   T   T   T
  0.6201722052622817  0.8117607671725469  0.1107449545520414   T   T   T
  0.7626103716393243  0.9532497098354232  0.1079499560284113   T   T   T
  0.7620282143118404  0.0954567635373489  0.1094171330508712   T   T   T
  0.7620427542502026  0.2379589509298246  0.1093893324663175   T   T   T
  0.7626191223422862  0.3807485230364691  0.1080540783783536   T   T   T
  0.7643500328948155  0.5241124394217361  0.1094393046689826   T   T   T
  0.7637037951309267  0.6675535202838120  0.1119967947507314   T   T   T
  0.7643435846130643  0.8116334667145794  0.1092792939649808   T   T   T
  0.4761720132504720  0.5238296422965163  0.1309303713449382   T   T   T
  0.9526841793127817  0.9049020566906752  0.1088935815265316   T   T   T
  0.9523854301467999  0.0476162871631913  0.1087885995679848   T   T   T
  0.9520709823991571  0.1902975066771348  0.1089524536600518   T   T   T
  0.9520516590044651  0.3331839163877940  0.1089723741518032   T   T   T
  0.9523673974949709  0.4761572628144078  0.1086851356447790   T   T   T
  0.9526966576133248  0.6192054016281155  0.1089240464516221   T   T   T
  0.9527778088601393  0.7621029607999170  0.1094723551426011   T   T   T
  0.0952893326722538  0.9047124197957340  0.1102732616030997   T   T   T
  0.0950996487473181  0.0473175395021979  0.1088935880235283   T   T   T
  0.0941554187612486  0.1894804061289388  0.1075540891108252   T   T   T
  0.0941569714821526  0.3327992688983273  0.1076969845408973   T   T   T
  0.0941479937103108  0.4761055228401780  0.1076837201423110   T   T   T
  0.0950825223425618  0.6192141114714760  0.1089953136093747   T   T   T
  0.0952928751744865  0.7620324430879770  0.1103343432977420   T   T   T
  0.2379692690730386  0.9047088355835321  0.1103343441897432   T   T   T
  0.2378987685771114  0.0472239601038292  0.1094723477196038   T   T   T
  0.2376018495765864  0.1897363530545754  0.1093297744787460   T   T   T
  0.2350947614219622  0.3308045608747022  0.1122003961807250   T   T   T
  0.2350802879405140  0.4757171171628795  0.1122952174695527   T   T   T
  0.2375737262621191  0.6192983375224991  0.1096423187347571   T   T   T
  0.2378847910096736  0.7621168431853322  0.1096596523616288   T   T   T
  0.3807875596315269  0.9049191034404230  0.1089953177593777   T   T   T
  0.3807963255588984  0.0473050933066657  0.1089240541996217   T   T   T
  0.3807266740215707  0.1897243210725134  0.1094149048180544   T   T   T
  0.3804550092452420  0.3323606198474883  0.1183553206583339   T   T   T
  0.3700124816340836  0.4707374910121337  0.1274275603813599   T   T   T
  0.3804525857902732  0.6195492121686782  0.1183513500262796   T   T   T
  0.3807034009664995  0.7624279806178751  0.1096423233557575   T   T   T
  0.5238962093878627  0.9058536018056719  0.1076837339203102   T   T   T
  0.5238443955346417  0.0476342642650458  0.1086851360897848   T   T   T
  0.5239312973860046  0.1894748408218112  0.1076904710048900   T   T   T
  0.5242717837701922  0.3308082115959529  0.1123914619222805   T   T   T
  0.5292618507601657  0.4707397458648551  0.1276058759969474   T   T   T
  0.5292641682708873  0.6299892005049524  0.1274275619593617   T   T   T
  0.5242846654501172  0.7649215683874910  0.1122952146535510   T   T   T
  0.6672025217136704  0.9058447759908840  0.1076969823278978   T   T   T
  0.6668177533431608  0.0479499952445234  0.1089723726838077   T   T   T
  0.6668525939094615  0.1902972521935564  0.1089393374543840   T   T   T
  0.6672154368003651  0.3327863737486421  0.1078804634011684   T   T   T
  0.6691934525360470  0.4757299322397919  0.1123914415232807   T   T   T
  0.6676410107965060  0.6195466852997717  0.1183553232933319   T   T   T
  0.6691971055792655  0.7649069960460434  0.1122003890497251   T   T   T
  0.8105213063870572  0.9058462962727455  0.1075540894868302   T   T   T
  0.8097042185998530  0.0479307266738739  0.1089524633470515   T   T   T
  0.8095435155042486  0.1904581391876788  0.1100314963917834   T   T   T
  0.8097044859144740  0.3331490912515563  0.1089393315143889   T   T   T
  0.8105270507331973  0.4760704570640144  0.1076904504938874   T   T   T
  0.8102774002944704  0.6192750300254164  0.1094149201710568   T   T   T
  0.8102653090394687  0.7623998422074076  0.1093297857747412   T   T   T

  0.00000000E+00  0.00000000E+00  0.00000000E+00
  0.00000000E+00  0.00000000E+00  0.00000000E+00
  0.00000000E+00  0.00000000E+00  0.00000000E+00
  0.00000000E+00  0.00000000E+00  0.00000000E+00
  0.00000000E+00  0.00000000E+00  0.00000000E+00
  0.00000000E+00  0.00000000E+00  0.00000000E+00
  0.00000000E+00  0.00000000E+00  0.00000000E+00
  0.00000000E+00  0.00000000E+00  0.00000000E+00
  0.00000000E+00  0.00000000E+00  0.00000000E+00
  0.00000000E+00  0.00000000E+00  0.00000000E+00
  0.00000000E+00  0.00000000E+00  0.00000000E+00
  0.00000000E+00  0.00000000E+00  0.00000000E+00
  0.00000000E+00  0.00000000E+00  0.00000000E+00
  0.00000000E+00  0.00000000E+00  0.00000000E+00
  0.00000000E+00  0.00000000E+00  0.00000000E+00
  0.00000000E+00  0.00000000E+00  0.00000000E+00
  0.00000000E+00  0.00000000E+00  0.00000000E+00
  0.00000000E+00  0.00000000E+00  0.00000000E+00
  0.00000000E+00  0.00000000E+00  0.00000000E+00
  0.00000000E+00  0.00000000E+00  0.00000000E+00
  0.00000000E+00  0.00000000E+00  0.00000000E+00
  0.00000000E+00  0.00000000E+00  0.00000000E+00
  0.00000000E+00  0.00000000E+00  0.00000000E+00
  0.00000000E+00  0.00000000E+00  0.00000000E+00
  0.00000000E+00  0.00000000E+00  0.00000000E+00
  0.00000000E+00  0.00000000E+00  0.00000000E+00
  0.00000000E+00  0.00000000E+00  0.00000000E+00
  0.00000000E+00  0.00000000E+00  0.00000000E+00
  0.00000000E+00  0.00000000E+00  0.00000000E+00
  0.00000000E+00  0.00000000E+00  0.00000000E+00
  0.00000000E+00  0.00000000E+00  0.00000000E+00
  0.00000000E+00  0.00000000E+00  0.00000000E+00
  0.00000000E+00  0.00000000E+00  0.00000000E+00
  0.00000000E+00  0.00000000E+00  0.00000000E+00
  0.00000000E+00  0.00000000E+00  0.00000000E+00
  0.00000000E+00  0.00000000E+00  0.00000000E+00
  0.00000000E+00  0.00000000E+00  0.00000000E+00
  0.00000000E+00  0.00000000E+00  0.00000000E+00
  0.00000000E+00  0.00000000E+00  0.00000000E+00
  0.00000000E+00  0.00000000E+00  0.00000000E+00
  0.00000000E+00  0.00000000E+00  0.00000000E+00
  0.00000000E+00  0.00000000E+00  0.00000000E+00
  0.00000000E+00  0.00000000E+00  0.00000000E+00
  0.00000000E+00  0.00000000E+00  0.00000000E+00
  0.00000000E+00  0.00000000E+00  0.00000000E+00
  0.00000000E+00  0.00000000E+00  0.00000000E+00
  0.00000000E+00  0.00000000E+00  0.00000000E+00
  0.00000000E+00  0.00000000E+00  0.00000000E+00
  0.00000000E+00  0.00000000E+00  0.00000000E+00
  0.00000000E+00  0.00000000E+00  0.00000000E+00
  0.00000000E+00  0.00000000E+00  0.00000000E+00
  0.00000000E+00  0.00000000E+00  0.00000000E+00
  0.00000000E+00  0.00000000E+00  0.00000000E+00
  0.00000000E+00  0.00000000E+00  0.00000000E+00
  0.00000000E+00  0.00000000E+00  0.00000000E+00
  0.00000000E+00  0.00000000E+00  0.00000000E+00
  0.00000000E+00  0.00000000E+00  0.00000000E+00
  0.00000000E+00  0.00000000E+00  0.00000000E+00
  0.00000000E+00  0.00000000E+00  0.00000000E+00
  0.00000000E+00  0.00000000E+00  0.00000000E+00
  0.00000000E+00  0.00000000E+00  0.00000000E+00
  0.00000000E+00  0.00000000E+00  0.00000000E+00
  0.00000000E+00  0.00000000E+00  0.00000000E+00
  0.00000000E+00  0.00000000E+00  0.00000000E+00
  0.00000000E+00  0.00000000E+00  0.00000000E+00
  0.00000000E+00  0.00000000E+00  0.00000000E+00
  0.00000000E+00  0.00000000E+00  0.00000000E+00
  0.00000000E+00  0.00000000E+00  0.00000000E+00
  0.00000000E+00  0.00000000E+00  0.00000000E+00
  0.00000000E+00  0.00000000E+00  0.00000000E+00
  0.00000000E+00  0.00000000E+00  0.00000000E+00
  0.00000000E+00  0.00000000E+00  0.00000000E+00
  0.00000000E+00  0.00000000E+00  0.00000000E+00
  0.00000000E+00  0.00000000E+00  0.00000000E+00
  0.00000000E+00  0.00000000E+00  0.00000000E+00
  0.00000000E+00  0.00000000E+00  0.00000000E+00
  0.00000000E+00  0.00000000E+00  0.00000000E+00
  0.00000000E+00  0.00000000E+00  0.00000000E+00
  0.00000000E+00  0.00000000E+00  0.00000000E+00
  0.00000000E+00  0.00000000E+00  0.00000000E+00
  0.00000000E+00  0.00000000E+00  0.00000000E+00
  0.00000000E+00  0.00000000E+00  0.00000000E+00
  0.00000000E+00  0.00000000E+00  0.00000000E+00
  0.00000000E+00  0.00000000E+00  0.00000000E+00
  0.00000000E+00  0.00000000E+00  0.00000000E+00
  0.00000000E+00  0.00000000E+00  0.00000000E+00
  0.00000000E+00  0.00000000E+00  0.00000000E+00
  0.00000000E+00  0.00000000E+00  0.00000000E+00
  0.00000000E+00  0.00000000E+00  0.00000000E+00
  0.00000000E+00  0.00000000E+00  0.00000000E+00
  0.00000000E+00  0.00000000E+00  0.00000000E+00
  0.00000000E+00  0.00000000E+00  0.00000000E+00
  0.00000000E+00  0.00000000E+00  0.00000000E+00
  0.00000000E+00  0.00000000E+00  0.00000000E+00
  0.00000000E+00  0.00000000E+00  0.00000000E+00
  0.00000000E+00  0.00000000E+00  0.00000000E+00
  0.00000000E+00  0.00000000E+00  0.00000000E+00
  0.00000000E+00  0.00000000E+00  0.00000000E+00
