 B Si N 
 1.0
 17.527899999999772   0.000000000000000   0.000000000000000
 -8.763949999999658  15.179606674993195   0.000000000000000
  0.000000000000001   0.000000000000002  15.000000000000000
 B Si N 
  48   1  48
Cartesian
  7.517434839936078  14.448394029916402   1.767740612370540 
 15.035473564564869   1.440645196807043   1.770944321612670 
 13.785145063532873   3.610551434111147   1.754968981860690 
 12.532654398660908   5.779558938739315   1.731274083697560 
 11.269349286648623   7.945630409563035   1.711235338121865 
 10.005365041254187  10.107964804335413   1.718251889240205 
  8.752017423524041  12.264576815432607   1.740644302582035 
 -7.509092195843008  14.456487799182886   1.763211294140910 
  0.011325737774279   1.447175000779825   1.767349556036145 
 -1.238856725835608   3.614778921222601   1.744594445215950 
 -2.493688519154490   5.782709971322808   1.715270338476660 
 -3.752218597667698   7.950466842346813   1.710811009444080 
 -5.011756155335612  10.119737783328796   1.724986115338680 
 -6.263774412777936  12.285028445444720   1.748456312476050 
 -5.005860332142685  14.463767631873610   1.748912596320630 
  2.519924150303086   1.469865737704626   1.740713359941630 
  1.265730804345001   3.624730902718428   1.716790765891230 
  0.009053908503731   5.785944544607754   1.639052703352470 
 -1.248404074568154   7.952438271472081   1.626824843587590 
 -2.502099883798913  10.119737783328796   1.666640778945945 
 -3.756914444868890  12.290129116674313   1.722701972790510 
 -2.502110510808429  14.462264653832964   1.725064035833190 
  5.014209207242483   1.462863243321749   1.718342527536150 
  3.788936173833957   3.675941177958950   1.683474822197580 
  2.501040629465246   5.798897739853471   1.508022831930375 
  1.250032516989654   7.945088632007343   1.389473757122790 
  0.004160726547353  10.119737783328796   1.531154568117165 
 -1.252343557260557  12.288860453035962   1.666936738015440 
  0.003720058485108  14.456279910753020   1.710985474192455 
  7.518695995776949   1.449594758925270   1.710387718925805 
  6.271837481428255   3.628271650110007   1.656241364013375 
  5.095373339763134   5.893507620802648   1.636016762473575 
  2.509621445373164  10.126954450136145   1.389314129640000 
  1.253952980303156  12.286864168101921   1.627088749169535 
  2.510352443333876  14.450393183687542   1.715335599481935 
 10.026252048449489   1.438796033969589   1.731161245393155 
  8.781274402390308   3.604101496410977   1.685221135881030 
  7.548828807123645   5.762828663296161   1.628635111341795 
  6.208800245670629   7.822310570301214   1.635401811707070 
  4.993742045623774  10.116625297491554   1.507373946113850 
  3.759013973919292  12.281217757281455   1.638945642090990 
  5.015294531915558  14.447504836958091   1.744513620487005 
 12.531196352546059   1.438707699475015   1.754955427883730 
 11.282369035287006   3.607486086743828   1.733614761120675 
 10.034804988034923   5.775054516908263   1.685729017742910 
  8.758875042061192   7.936044549923469   1.656384644845680 
  7.476026399660059  10.062558353619234   1.683133189566105 
  6.258835721272906  12.273422552486917   1.716909920438895 
  3.904374624215387   7.866989184447526   0.455187856404360 
  8.765548197609908  13.719261831079464   1.762329928705935 
 16.287683286749036   0.717474159279995   1.776576386000250 
 15.037062691564326   2.887998869834280   1.764007080709080 
 13.781637870219939   5.059868891664398   1.741914622403595 
 12.523470137795300   7.225622893099005   1.725770024296980 
 11.262243876550549   9.391213132276835   1.722194995502595 
 10.009732887799164  11.553238299931271   1.739638356414015 
 -6.257737828309899  13.733996089185387   1.758636150000120 
  1.266870897314957   0.730931601537844   1.761610130739045 
  0.015370757915379   2.893642434515091   1.754365171440540 
 -1.241646772130134   5.059868891664398   1.706798951485140 
 -2.499861940091590   7.228724584715457   1.693431928492665 
 -3.756521573040012   9.396830231241792   1.706258810310330 
 -5.010646185393060  11.564513872301037   1.737723786175185 
 -3.755380877754338  13.738876010918073   1.737910520114490 
  3.764815321135431   0.736470620278785   1.740452317329795 
  2.534828995545120   2.928195992486621   1.714510248742635 
  1.263803307626687   5.059868891664398   1.650302102823495 
  0.001472335111425   7.230441987788272   1.574686980434145 
 -1.250459454122505   9.398616688781200   1.604068883444055 
 -2.505140362725649  11.567462492336730   1.681700733467790 
 -1.251019556834995  13.736733032173930   1.706699249557875 
  6.263198356139918   0.732889861160931   1.721674467557325 
  5.019907052019876   2.919019960362727   1.688174801193495 
  3.812718091051861   5.159880267717607   1.638307790542785 
  2.463659846409461   7.188042418502345   1.210354973670945 
  1.252596286376733   9.398123801891384   1.384599143380215 
  0.000496917576250  11.565526971956949   1.604356813080480 
  1.254962790391884  13.732566249235907   1.693631033551020 
  8.769280602816584   0.723736412197040   1.725376664436735 
  7.520985103183378   2.897707397980084   1.679981400767970 
  6.282141987870650   5.081482087723376   1.616972763918045 
  3.771949616455736   9.454544713809474   1.209697465510140 
  2.504334941160832  11.565442684291460   1.574783457181530 
  3.759821288207934  13.727274068102684   1.706630831723940 
 11.277289719727863   0.717006170574389   1.742173107945975 
 10.029742703566864   2.884046403668959   1.721245907534085 
  8.788345244461343   5.047370160705699   1.659200711564760 
  7.505387841840442   7.200371046710191   1.616437679035245 
  6.202800400720688   9.299972577384601   1.637511103915350 
  5.012467827625326  11.557626617906356   1.650161847359310 
  6.267000371030315  13.721796112604199   1.754563495461075 
 13.782909521822656   0.715728191396021   1.763762081334795 
 12.532885170040016   2.885662782008966   1.755906129388770 
 11.282868889401367   5.053861918393061   1.721474266477275 
 10.016237058282851   7.219621062925993   1.681166456789985 
  8.747107975795778   9.375052344252234   1.688021751341985 
  7.496285734441603  11.522578291281693   1.714547241546240 
