B N Se                                  
   1.0000000000000000     
     8.7639499999999995  -15.1796066749929999    0.0000000000000000
     8.7639499999999995   15.1796066749929999    0.0000000000000000
     0.0000000000000000    0.0000000000000000   15.0000000000000000
   B    N    Se
    47    49     1
Selective dynamics
Direct
  0.9058065090979327  0.9525897159118247  0.1080146626137673   T   T   T
  0.9046286207387060  0.0946717589177584  0.1079316132670337   T   T   T
  0.9038027243883221  0.2371058169051594  0.1066566614016204   T   T   T
  0.9038393697895815  0.3801993479280649  0.1062592238354860   T   T   T
  0.9047607700424435  0.5235717588363362  0.1070570226166267   T   T   T
  0.9060254438363962  0.6669148524004542  0.1080451206264718   T   T   T
  0.9064846460155015  0.8100543233299095  0.1068211531482346   T   T   T
  0.0486823422154295  0.9526282969232530  0.1088428833286447   T   T   T
  0.0479181858705504  0.0950052298963223  0.1085084691227481   T   T   T
  0.0464722729113645  0.2369512865971927  0.1067397539029924   T   T   T
  0.0457729006532884  0.3798396355751760  0.1057948238289977   T   T   T
  0.0461208594875560  0.5232270798912978  0.1067034672217515   T   T   T
  0.0477911805660979  0.6665426525272219  0.1081116691362130   T   T   T
  0.0486884230128575  0.8097096006628239  0.1089012194346795   T   T   T
  0.1912604773934311  0.9523882361383728  0.1099178561516994   T   T   T
  0.1911083282482106  0.0953655824258492  0.1101792351663398   T   T   T
  0.1899445555421471  0.2375820665356803  0.1105313756861184   T   T   T
  0.1875380484428489  0.3793363523441757  0.1108564186174455   T   T   T
  0.1866961216070894  0.5227327379584846  0.1137700763693138   T   T   T
  0.1895275521524902  0.6658971515699197  0.1132164210671983   T   T   T
  0.1909608627363331  0.8092097216439432  0.1112850152211422   T   T   T
  0.3336734801108351  0.9517221930173310  0.1121040880412846   T   T   T
  0.3338043333756512  0.0952076435875108  0.1114734737684826   T   T   T
  0.3336005992061652  0.2384322207301750  0.1152454221209552   T   T   T
  0.3313395658637976  0.3797768745795716  0.1197847922957659   T   T   T
  0.3244034360733298  0.5240060676526834  0.1333707373697929   T   T   T
  0.3309873875669181  0.6626403557269248  0.1340154864031572   T   T   T
  0.3331821321619482  0.8078868936201273  0.1186540101869750   T   T   T
  0.4759832898343903  0.9517022672865659  0.1150419945180219   T   T   T
  0.4762663512871117  0.0948627746682035  0.1114726000520594   T   T   T
  0.4764228258635903  0.2380970673397743  0.1134724149509355   T   T   T
  0.4764539729062962  0.3808983302240260  0.1222872101411813   T   T   T
  0.4744370338901427  0.8078736012457842  0.1222201881850040   T   T   T
  0.6187571095345763  0.9514553527437762  0.1119803113521131   T   T   T
  0.6187501613868454  0.0944698297792176  0.1110246700835600   T   T   T
  0.6189408029683219  0.2375910454921559  0.1106723863584080   T   T   T
  0.6196110736844537  0.3807779856460982  0.1124413730593403   T   T   T
  0.6228236586547298  0.5247919516122751  0.1109291400895140   T   T   T
  0.6252895298688206  0.6693698585536093  0.0816237026777531   T   T   T
  0.6206497361046813  0.8091573183517015  0.1041742093623434   T   T   T
  0.7625603982129064  0.9523585607017054  0.1071025848071133   T   T   T
  0.7614265657663590  0.0944323478170028  0.1089118013533436   T   T   T
  0.7613459334620566  0.2373212467595141  0.1085184755933214   T   T   T
  0.7618010846318304  0.3804740580262562  0.1084912200457036   T   T   T
  0.7633578769274934  0.5239541627591193  0.1077812872264484   T   T   T
  0.7645623969097569  0.6674613870309475  0.1039508223373535   T   T   T
  0.7643343716635286  0.8106311062355567  0.1008246414380567   T   T   T
  0.9535788174383792  0.9050889507742049  0.1081104941184226   T   T   T
  0.9528782866860539  0.0475688986451324  0.1084692562346461   T   T   T
  0.9515894480015047  0.1895889443459086  0.1068852331192936   T   T   T
  0.9508895875949296  0.3321789018107936  0.1055651866812335   T   T   T
  0.9512320375168229  0.4753992635887817  0.1060603118145304   T   T   T
  0.9526470411946646  0.6188195004327938  0.1076608819910911   T   T   T
  0.9535182578063445  0.7620999401572129  0.1082644809320909   T   T   T
  0.0961212678092464  0.9049532012974912  0.1091559485016698   T   T   T
  0.0959983742359785  0.0478206451176234  0.1090694237822513   T   T   T
  0.0949739303563450  0.1900366938731168  0.1080593418010736   T   T   T
  0.0930219562415351  0.3316826372611316  0.1060980170310360   T   T   T
  0.0922841808701624  0.4748139682788847  0.1068741992959389   T   T   T
  0.0943174654915669  0.6184297573936448  0.1080201922547733   T   T   T
  0.0957003070066559  0.7618096547882802  0.1091726912049109   T   T   T
  0.2385180839806168  0.9045926195720159  0.1108527658276807   T   T   T
  0.2387168158523497  0.0478081845182059  0.1103120212126183   T   T   T
  0.2385319383813614  0.1908179315757820  0.1117383981870073   T   T   T
  0.2367725313851196  0.3326505391579943  0.1127715817520306   T   T   T
  0.2317311431031954  0.4731809308920445  0.1161861184493484   T   T   T
  0.2352668083174990  0.6175511252908886  0.1185104858672380   T   T   T
  0.2377986270233943  0.7612524544103876  0.1145660223387581   T   T   T
  0.3808035569350795  0.9037753232025311  0.1149900767859444   T   T   T
  0.3811634443667082  0.0473867669526478  0.1112240672735578   T   T   T
  0.3812832844326844  0.1908951349214442  0.1135297922358864   T   T   T
  0.3812219815875718  0.3343781490174749  0.1208999651668365   T   T   T
  0.3717905218293633  0.4743370757962393  0.1269195864992403   T   T   T
  0.3690617836614666  0.6117532178272898  0.1536944655627190   T   T   T
  0.3795396472909993  0.7596177708298482  0.1267171941587009   T   T   T
  0.5236052032518637  0.9044386637631042  0.1171727610384813   T   T   T
  0.5236550318084028  0.0471942554746586  0.1121213231036011   T   T   T
  0.5237818810631050  0.1904029536436324  0.1113670008885004   T   T   T
  0.5242154341986514  0.3337689873958544  0.1158582148776886   T   T   T
  0.5289166331465002  0.4762558894709262  0.1273933521733677   T   T   T
  0.5305758797395834  0.6243484247295787  0.0578687521207359   T   T   T
  0.5301078466079649  0.7714330508409194  0.1206465816938180   T   T   T
  0.6677875864523235  0.9051100647892503  0.1073371813764754   T   T   T
  0.6663758862484116  0.0469387254959490  0.1106342915278829   T   T   T
  0.6662574069432795  0.1898627570107908  0.1099080448222356   T   T   T
  0.6665861673364843  0.3329484867390404  0.1105135881266288   T   T   T
  0.6682330141851887  0.4760918445078599  0.1094836817763814   T   T   T
  0.6693322186474835  0.6196043198301667  0.0997971326461196   T   T   T
  0.6697795204572027  0.7630655649384374  0.0912368760409713   T   T   T
  0.8108938227588844  0.9052140320996550  0.1065083720405436   T   T   T
  0.8096389502103629  0.0473263654872691  0.1082973531524595   T   T   T
  0.8087999841448887  0.1896368727396036  0.1079982949858487   T   T   T
  0.8087968265207173  0.3325665356962000  0.1075950847015474   T   T   T
  0.8097219406256908  0.4757765203959375  0.1076920743045813   T   T   T
  0.8109263911116725  0.6191646649973304  0.1077148218247140   T   T   T
  0.8113989242739086  0.7624238365897736  0.1032837070732923   T   T   T
  0.4849596751157835  0.5506789656404688  0.1464159703630642   T   T   T

  0.00000000E+00  0.00000000E+00  0.00000000E+00
  0.00000000E+00  0.00000000E+00  0.00000000E+00
  0.00000000E+00  0.00000000E+00  0.00000000E+00
  0.00000000E+00  0.00000000E+00  0.00000000E+00
  0.00000000E+00  0.00000000E+00  0.00000000E+00
  0.00000000E+00  0.00000000E+00  0.00000000E+00
  0.00000000E+00  0.00000000E+00  0.00000000E+00
  0.00000000E+00  0.00000000E+00  0.00000000E+00
  0.00000000E+00  0.00000000E+00  0.00000000E+00
  0.00000000E+00  0.00000000E+00  0.00000000E+00
  0.00000000E+00  0.00000000E+00  0.00000000E+00
  0.00000000E+00  0.00000000E+00  0.00000000E+00
  0.00000000E+00  0.00000000E+00  0.00000000E+00
  0.00000000E+00  0.00000000E+00  0.00000000E+00
  0.00000000E+00  0.00000000E+00  0.00000000E+00
  0.00000000E+00  0.00000000E+00  0.00000000E+00
  0.00000000E+00  0.00000000E+00  0.00000000E+00
  0.00000000E+00  0.00000000E+00  0.00000000E+00
  0.00000000E+00  0.00000000E+00  0.00000000E+00
  0.00000000E+00  0.00000000E+00  0.00000000E+00
  0.00000000E+00  0.00000000E+00  0.00000000E+00
  0.00000000E+00  0.00000000E+00  0.00000000E+00
  0.00000000E+00  0.00000000E+00  0.00000000E+00
  0.00000000E+00  0.00000000E+00  0.00000000E+00
  0.00000000E+00  0.00000000E+00  0.00000000E+00
  0.00000000E+00  0.00000000E+00  0.00000000E+00
  0.00000000E+00  0.00000000E+00  0.00000000E+00
  0.00000000E+00  0.00000000E+00  0.00000000E+00
  0.00000000E+00  0.00000000E+00  0.00000000E+00
  0.00000000E+00  0.00000000E+00  0.00000000E+00
  0.00000000E+00  0.00000000E+00  0.00000000E+00
  0.00000000E+00  0.00000000E+00  0.00000000E+00
  0.00000000E+00  0.00000000E+00  0.00000000E+00
  0.00000000E+00  0.00000000E+00  0.00000000E+00
  0.00000000E+00  0.00000000E+00  0.00000000E+00
  0.00000000E+00  0.00000000E+00  0.00000000E+00
  0.00000000E+00  0.00000000E+00  0.00000000E+00
  0.00000000E+00  0.00000000E+00  0.00000000E+00
  0.00000000E+00  0.00000000E+00  0.00000000E+00
  0.00000000E+00  0.00000000E+00  0.00000000E+00
  0.00000000E+00  0.00000000E+00  0.00000000E+00
  0.00000000E+00  0.00000000E+00  0.00000000E+00
  0.00000000E+00  0.00000000E+00  0.00000000E+00
  0.00000000E+00  0.00000000E+00  0.00000000E+00
  0.00000000E+00  0.00000000E+00  0.00000000E+00
  0.00000000E+00  0.00000000E+00  0.00000000E+00
  0.00000000E+00  0.00000000E+00  0.00000000E+00
  0.00000000E+00  0.00000000E+00  0.00000000E+00
  0.00000000E+00  0.00000000E+00  0.00000000E+00
  0.00000000E+00  0.00000000E+00  0.00000000E+00
  0.00000000E+00  0.00000000E+00  0.00000000E+00
  0.00000000E+00  0.00000000E+00  0.00000000E+00
  0.00000000E+00  0.00000000E+00  0.00000000E+00
  0.00000000E+00  0.00000000E+00  0.00000000E+00
  0.00000000E+00  0.00000000E+00  0.00000000E+00
  0.00000000E+00  0.00000000E+00  0.00000000E+00
  0.00000000E+00  0.00000000E+00  0.00000000E+00
  0.00000000E+00  0.00000000E+00  0.00000000E+00
  0.00000000E+00  0.00000000E+00  0.00000000E+00
  0.00000000E+00  0.00000000E+00  0.00000000E+00
  0.00000000E+00  0.00000000E+00  0.00000000E+00
  0.00000000E+00  0.00000000E+00  0.00000000E+00
  0.00000000E+00  0.00000000E+00  0.00000000E+00
  0.00000000E+00  0.00000000E+00  0.00000000E+00
  0.00000000E+00  0.00000000E+00  0.00000000E+00
  0.00000000E+00  0.00000000E+00  0.00000000E+00
  0.00000000E+00  0.00000000E+00  0.00000000E+00
  0.00000000E+00  0.00000000E+00  0.00000000E+00
  0.00000000E+00  0.00000000E+00  0.00000000E+00
  0.00000000E+00  0.00000000E+00  0.00000000E+00
  0.00000000E+00  0.00000000E+00  0.00000000E+00
  0.00000000E+00  0.00000000E+00  0.00000000E+00
  0.00000000E+00  0.00000000E+00  0.00000000E+00
  0.00000000E+00  0.00000000E+00  0.00000000E+00
  0.00000000E+00  0.00000000E+00  0.00000000E+00
  0.00000000E+00  0.00000000E+00  0.00000000E+00
  0.00000000E+00  0.00000000E+00  0.00000000E+00
  0.00000000E+00  0.00000000E+00  0.00000000E+00
  0.00000000E+00  0.00000000E+00  0.00000000E+00
  0.00000000E+00  0.00000000E+00  0.00000000E+00
  0.00000000E+00  0.00000000E+00  0.00000000E+00
  0.00000000E+00  0.00000000E+00  0.00000000E+00
  0.00000000E+00  0.00000000E+00  0.00000000E+00
  0.00000000E+00  0.00000000E+00  0.00000000E+00
  0.00000000E+00  0.00000000E+00  0.00000000E+00
  0.00000000E+00  0.00000000E+00  0.00000000E+00
  0.00000000E+00  0.00000000E+00  0.00000000E+00
  0.00000000E+00  0.00000000E+00  0.00000000E+00
  0.00000000E+00  0.00000000E+00  0.00000000E+00
  0.00000000E+00  0.00000000E+00  0.00000000E+00
  0.00000000E+00  0.00000000E+00  0.00000000E+00
  0.00000000E+00  0.00000000E+00  0.00000000E+00
  0.00000000E+00  0.00000000E+00  0.00000000E+00
  0.00000000E+00  0.00000000E+00  0.00000000E+00
  0.00000000E+00  0.00000000E+00  0.00000000E+00
  0.00000000E+00  0.00000000E+00  0.00000000E+00
  0.00000000E+00  0.00000000E+00  0.00000000E+00
