 N B Al Ga 
 1.0
 17.527899999999772   0.000000000000000   0.000000000000000
 -8.763949999999658  15.179606674993195   0.000000000000000
  0.000000000000001   0.000000000000002  15.000000000000000
 N B Al Ga 
  48  48   1   1
Cartesian
  8.763372645958615  13.749099122548934   1.541247426996750 
 16.258056086371550   0.732850546860894   1.545757703857965 
 14.994381987597780   2.898003997581623   1.554120502916235 
 13.742933767187118   5.067433729611536   1.565892394993470 
 12.503455012691532   7.236314448289776   1.584502974512640 
 11.268074870797260   9.404677345187929   1.600317694241400 
 10.021559978757416  11.575604659925256   1.569610412004315 
 -6.259229493520789  13.733535898608464   1.547633929679295 
  1.238725013033715   0.715679220469128   1.541581301577750 
 -0.035335708815135   2.871704962596110   1.556131400240730 
 -1.287194221488510   5.052572102489871   1.569697839256635 
 -2.519509306034239   7.228356472733067   1.563448318094205 
 -3.753627559291303   9.398175936061461   1.561864312290030 
 -5.002602348934314  11.565968516277646   1.559986144512885 
 -3.753818088405298  13.729252175726684   1.560706972063275 
  3.750136103021934   0.712965240245466   1.571317695427440 
  2.475510145683497   2.860190604709414   1.611007585072605 
  1.189008725288629   5.000467031448473   1.663824009128985 
 -0.020406267591334   7.212644077731419   1.621533968015715 
 -1.241616936363534   9.391301817715840   1.580407954623270 
 -2.496697557548294  11.561393916721578   1.559224546895910 
 -1.251841185180147  13.731305861390119   1.563912648589530 
  6.253212230539443   0.718814788541563   1.603132819933320 
  4.992662687449881   2.875575122722599   1.729620399347100 
  3.692393968369544   4.990423967338405   1.903066643380275 
  2.422949298984108   7.110575916299471   1.808097374479380 
  1.280530934343505   9.380415577529101   1.657586100365790 
  0.010144321501189  11.559331495047974   1.581845110247325 
  1.244632543616884  13.747452354901112   1.565388361283025 
  8.748820962788642   0.733243139451102   1.587472218983310 
  7.490345234479291   2.899290442512656   1.696191875685075 
  6.233966626078296   5.059868891664398   1.966689608108790 
  3.817532166338173   9.525880467635270   1.813120109382255 
  2.507322012091404  11.590887727189681   1.623710576742885 
  3.745053822639539  13.768138783431869   1.571450010704145 
 11.246935664061894   0.744085968170016   1.567697195601315 
  9.988214754319081   2.909515147637590   1.620477036290430 
  8.732840763249353   5.077824091038131   1.754588249029155 
  7.498903102152561   7.250994392693567   1.965948542111745 
  6.288549908490871   9.486706016436168   1.904377208854770 
  5.027671487139809  11.649699004356032   1.668135963094065 
  6.259049015553526  13.774314817210264   1.556823994597110 
 13.751281312590786   0.744901801648156   1.554801712366050 
 12.491491429007819   2.907668984144979   1.572276573660900 
 11.238415059515589   5.074915417374648   1.619678806134105 
  9.998306385670340   7.243163461784776   1.691886074456220 
  8.769803110266178   9.417907366436536   1.725878017340460 
  7.524475905110852  11.605662453381848   1.611263887502220 
  7.510235773497298  14.476959972952773   1.545008402684445 
 15.004475744459830   1.456915212885006   1.551185599024485 
 13.745184659626183   3.624356409379974   1.563592152554910 
 12.495543476857845   5.792748929557792   1.588381129229040 
 11.257546348312120   7.961839687513157   1.621108968566205 
 10.022770348326485  10.133331388078865   1.625669160525615 
  8.774669535903351  12.310304842531560   1.567372118884725 
 -7.512655244847510  14.457074209587505   1.540844843042205 
 -0.018264194085318   1.437163342567915   1.544933800994175 
 -1.280817693345121   3.610254675138826   1.559153888933865 
 -2.529441003029249   5.784303347087456   1.564150973932680 
 -3.765330349588008   7.954020851326489   1.567023235507290 
 -5.000703568849831  10.119737783328796   1.570140219113970 
 -6.253042268126170  12.290901891771828   1.555668932142240 
 -5.006790721925458  14.449552683880857   1.556456697146520 
  2.490167543038269   1.425397509474387   1.568063064713925 
  1.212733014396788   3.574164251510865   1.608305152145775 
 -0.034612371889015   5.766087980374341   1.614622262526060 
 -1.258927415973318   7.944311751175930   1.584190795848390 
 -2.492816729010241  10.115083999148997   1.564183464444285 
 -3.747903611289352  12.283581897285806   1.558023852101445 
 -2.500401493757975  14.450560209839139   1.572009783834930 
  4.999632416547438   1.432970448214722   1.628620267850310 
  3.721431070932467   3.566471671085194   1.740236986571475 
  2.419929972418753   5.706399828079868   1.803954371499435 
  1.253573800380092   7.917882900960187   1.697390965122840 
  0.025385241622760  10.105129046202007   1.602215671246410 
 -1.242249847895406  12.281106393239336   1.565384006674395 
 -0.007001218905255  14.463599772255773   1.569373904894955 
  7.497621827688360   1.449372129313535   1.624736513322945 
  6.237528112159252   3.604281346189888   1.796639888873130 
  4.933945758731236   5.678622940195763   2.111183160191385 
  2.533563557294823  10.134811614809404   1.699847476491135 
  1.254710063670706  12.297722734806506   1.585973240956905 
  2.489861485658677  14.478227676674935   1.566056093992470 
  9.994951050654285   1.461875469251073   1.590385184687910 
  8.738264371037497   3.628524329854134   1.690722682910880 
  7.489280502999284   5.795900612902560   1.903227072392220 
  6.313781766230036   8.067276892411217   2.112087892558605 
  5.031873728618589  10.230613517496856   1.807992347779710 
  3.752992228894318  12.326458997935939   1.617567673286475 
  4.996906906166840  14.483650466622791   1.560249864015765 
 12.497639591370461   1.463968035078201   1.564495804023870 
 11.240548594332832   3.630066137365996   1.603754562277860 
  9.990737880945382   5.797842605871316   1.688938178188335 
  8.761373775010680   7.975602914570350   1.793433160844520 
  7.535932233950464  10.173444614890894   1.739424939692145 
  6.274844806190067  12.342057727752222   1.610122239834630 
  5.571866529890765   6.903052988191531   4.139560079786730 
  4.179340172617894   7.706750227289045   1.680805067463285 
