Species order: X N B                    
   2.51242800000000     
     5.9449720136058266    0.0000000000000000    0.0000000000000000
    -2.9724860068029120    5.1484967885702053   -0.0000000000000001
     0.0000000000000000    0.0000000000000009    5.3101128803662583
   O    N    B 
     1   144   143
Direct
  0.4444444444444429  0.3888888888888857  0.3750000000000000
  0.1111142793022725  0.0555493013297291  0.1251594364599674
  0.6111044456834479  0.5555561370069876  0.1253863338189544
  0.4444350220274565  0.0555493013297291  0.1251594364599674
  0.9444518820243389  0.5555628775606066  0.1251139457630062
  0.7777777777777786  0.0555555555555571  0.1250999223417590
  0.1111111111111143  0.7222222222222214  0.6249021157970853
  0.4444350220274565  0.7222190540310635  0.6248405635400326
  0.2777771963263481  0.2222288876498877  0.6246136661810455
  0.7777840320036068  0.7222190540310635  0.6248405635400326
  0.6111146073625979  0.2222187259707375  0.6248413911487135
  0.9444465146448296  0.2222300711253618  0.6248838421880352
  0.2777704557727292  0.7222223377970679  0.1251139457630062
  0.1111041186081465  0.2222187259707375  0.1251586088512865
  0.4444516913235396  0.2222288876498877  0.1253863338189544
  0.6111146073625979  0.7222292147251889  0.1251586088512865
  0.9444518820243389  0.7222223377970679  0.1251139457630062
  0.7777835564805319  0.2222300711253618  0.1251161578119652
  0.1111109955362674  0.8888814513089897  0.6248860542369936
  0.4444311822995645  0.8888822578164467  0.6248813410890002
  0.2777771963263481  0.3888816420097890  0.6246136661810455
  0.6111044456834479  0.3888816420097890  0.6246136661810455
  0.7777835564805319  0.8888868186884989  0.6248838421880352
  0.9444510755168819  0.3889021510337641  0.6248813410890002
  0.1111142793022725  0.3888983113058721  0.1251594364599674
  0.2777704557727292  0.8888814513089897  0.1251139457630062
  0.6111032622079738  0.8888868186884989  0.1251161578119652
  0.4444444444444429  0.3888888888888857  0.1257443005190885
  0.9444510755168819  0.8888822578164467  0.1251186589109994
  0.7777840320036068  0.3888983113058721  0.1251594364599674
  0.2777749339064520  0.5555583994268836  0.6248229873027462
  0.1111142793022725  0.0555493013297291  0.6248405635400326
  0.6111044456834479  0.5555561370069876  0.6246136661810455
  0.4444350220274565  0.0555493013297291  0.6248405635400326
  0.9444518820243389  0.5555628775606066  0.6248860542369936
  0.1111109955362674  0.5555628775606066  0.1251139457630062
  0.7777777777777786  0.0555555555555571  0.6249000776582412
  0.2777749339064520  0.0555498678129039  0.1251770126972542
  0.4444516913235396  0.5555561370069876  0.1253863338189544
  0.7777834655204318  0.5555583994268836  0.1251770126972542
  0.6111032622079738  0.0555497768528036  0.1251161578119652
  0.4444516913235396  0.5555561370069876  0.6246136661810455
  0.9444465146448296  0.0555497768528036  0.1251161578119652
  0.2777704557727292  0.7222223377970679  0.6248860542369936
  0.1111041186081465  0.2222187259707375  0.6248413911487135
  0.4444516913235396  0.2222288876498877  0.6246136661810455
  0.6111146073625979  0.7222292147251889  0.6248413911487135
  0.9444518820243389  0.7222223377970679  0.6248860542369936
  0.7777835564805319  0.2222300711253618  0.6248838421880352
  0.1111111111111143  0.7222222222222214  0.1250978842029148
  0.4444350220274565  0.7222190540310635  0.1251594364599674
  0.2777771963263481  0.2222288876498877  0.1253863338189544
  0.7777840320036068  0.7222190540310635  0.1251594364599674
  0.6111146073625979  0.2222187259707375  0.1251586088512865
  0.9444465146448296  0.2222300711253618  0.1251161578119652
  0.1111142793022725  0.3888983113058721  0.6248405635400326
  0.2777704557727292  0.8888814513089897  0.6248860542369936
  0.6111032622079738  0.8888868186884989  0.6248838421880352
  0.4444444444444429  0.3888888888888857  0.6242556994809114
  0.9444510755168819  0.8888822578164467  0.6248813410890002
  0.1111109955362674  0.8888814513089897  0.1251139457630062
  0.7777840320036068  0.3888983113058721  0.6248405635400326
  0.4444311822995645  0.8888822578164467  0.1251186589109994
  0.2777771963263481  0.3888816420097890  0.1253863338189544
  0.2777749339064520  0.5555583994268836  0.1251770126972542
  0.6111044456834479  0.3888816420097890  0.1253863338189544
  0.7777835564805319  0.8888868186884989  0.1251161578119652
  0.9444510755168819  0.3889021510337641  0.1251186589109994
  0.1111109955362674  0.5555628775606066  0.6248860542369936
  0.2777749339064520  0.0555498678129039  0.6248229873027462
  0.7777834655204318  0.5555583994268836  0.6248229873027462
  0.6111032622079738  0.0555497768528036  0.6248838421880352
  0.9444465146448296  0.0555497768528036  0.6248838421880352
  0.0554304440655297  0.1110241880348212  0.3750000000000000
  0.5559941257565373  0.6119882515130746  0.3750000000000000
  0.3890372547867785  0.1122881185117562  0.3750000000000000
  0.8884158580377562  0.6108745956855492  0.3750000000000000
  0.7222304262081085  0.1111029071252271  0.3750000000000000
  0.0555539921862283  0.7777793411471072  0.8750000000000000
  0.3888939429892624  0.7777800158804405  0.8750000000000000
  0.2222220579800451  0.2777776956566905  0.8750000000000000
  0.7222222227264508  0.7777799918467759  0.8750000000000000
  0.5555556376766453  0.2777776956566905  0.8750000000000000
  0.8888881486217869  0.2777762972435808  0.8750000000000000
  0.2223249517981779  0.7778291425657565  0.3750000000000000
  0.0554304440655297  0.2777395893640440  0.3750000000000000
  0.3880568933000569  0.2761137866001205  0.3750000000000000
  0.5555937439692920  0.7779028892678059  0.3750000000000000
  0.8885229885012761  0.7775014077763766  0.3750000000000000
  0.7223091452985144  0.2777395893640440  0.3750000000000000
  0.0555533174528947  0.9444472604421572  0.8750000000000000
  0.3888939429892624  0.9444472604421572  0.8750000000000000
  0.2222232047182595  0.4444402064560287  0.8750000000000000
  0.5555517301137262  0.4444425317235274  0.8750000000000000
  0.7222224634687666  0.9444449269375329  0.8750000000000000
  0.8888860728911714  0.4444393903440662  0.8750000000000000
  0.0558319255569594  0.4443549140582352  0.3750000000000000
  0.2224587376477865  0.9449174752955724  0.3750000000000000
  0.5555158429898375  0.9444245881615831  0.3750000000000000
  0.3880568933000569  0.4452764400332717  0.3750000000000000
  0.8889087451717455  0.9444245881615831  0.3750000000000000
  0.7210452148215795  0.4442960785465501  0.3750000000000000
  0.2222242977653344  0.6111090355680012  0.8750000000000000
  0.0555533414865596  0.1111111106068850  0.8750000000000000
  0.5555556376766453  0.6111112753532904  0.8750000000000000
  0.3888931268772999  0.1111163315955665  0.8750000000000000
  0.8888847378026598  0.6111090355680012  0.8750000000000000
  0.0555041907675789  0.6110083815351579  0.3750000000000000
  0.7222224634687666  0.1111108698645692  0.8750000000000000
  0.2232508637249705  0.1122881185117562  0.3750000000000000
  0.3890372547867785  0.6100824696083652  0.3750000000000000
  0.7210452148215795  0.6100824696083652  0.3750000000000000
  0.5555937439692920  0.1110241880348212  0.3750000000000000
  0.3888931268772999  0.6111101286150765  0.8750000000000000
  0.8888724809171112  0.1111029071252271  0.3750000000000000
  0.2222253489608790  0.7777793411471072  0.8750000000000000
  0.0555533414865596  0.2777755642130104  0.8750000000000000
  0.3888908016098012  0.2777816032196094  0.8750000000000000
  0.5555577691203250  0.7777799918467759  0.8750000000000000
  0.8888860728911714  0.7777800158804405  0.8750000000000000
  0.7222222227264508  0.2777755642130104  0.8750000000000000
  0.0555041907675789  0.7778291425657565  0.3750000000000000
  0.3889784192750934  0.7775014077763766  0.3750000000000000
  0.2213450818202610  0.2773392075767984  0.3750000000000000
  0.7223091452985144  0.7779028892678059  0.3750000000000000
  0.5559941257565373  0.2773392075767984  0.3750000000000000
  0.8889087451717455  0.2778174903434982  0.3750000000000000
  0.0555533174528947  0.4444393903440662  0.8750000000000000
  0.2222242977653344  0.9444485955306688  0.8750000000000000
  0.5555570360897554  0.9444451847115417  0.8750000000000000
  0.3888908016098012  0.4444425317235274  0.8750000000000000
  0.8888881486217869  0.9444451847115417  0.8750000000000000
  0.0558319255569594  0.9448103448320525  0.3750000000000000
  0.7222170017377693  0.4444402064560287  0.8750000000000000
  0.3889784192750934  0.9448103448320525  0.3750000000000000
  0.2232508637249705  0.4442960785465501  0.3750000000000000
  0.2224587376477865  0.6108745956855492  0.3750000000000000
  0.5572195467332147  0.4452764400332717  0.3750000000000000
  0.7222304262081085  0.9444608524162174  0.3750000000000000
  0.8885229885012761  0.4443549140582352  0.3750000000000000
  0.0555539921862283  0.6111079843724564  0.8750000000000000
  0.2222232047182595  0.1111163315955665  0.8750000000000000
  0.7222170017377693  0.6111101286150765  0.8750000000000000
  0.5555577691203250  0.1111111106068850  0.8750000000000000
  0.8888884063957957  0.1111108698645692  0.8750000000000000
  0.1110423141903062  0.0557352431335204  0.3750000000000000
  0.6107941897860513  0.5575430634253498  0.3750000000000000
  0.4446929289432143  0.0557352431335204  0.3750000000000000
  0.9443776270617540  0.5555105369873449  0.3750000000000000
  0.7777777777777786  0.0555555555555571  0.3750000000000000
  0.1111111111111143  0.7222222222222214  0.8750000000000000
  0.4444532460945089  0.7222505737154101  0.8750000000000000
  0.2777494000592771  0.2221988593668190  0.8750000000000000
  0.7777973276209016  0.7222505737154101  0.8750000000000000
  0.6111311247529448  0.2222022085803906  0.8750000000000000
  0.9444237968676924  0.2222094126453672  0.8750000000000000
  0.2778227963459909  0.7222004234077447  0.3750000000000000
  0.1095572298454525  0.2214452815893906  0.3750000000000000
  0.4467488736392981  0.2225391435472840  0.3750000000000000
  0.6118880517439454  0.7237761034878831  0.3750000000000000
  0.9443776270617540  0.7222004234077447  0.3750000000000000
  0.7779736117449650  0.2220687117644446  0.3750000000000000
  0.1111019512968955  0.8888797015624571  0.8750000000000000
  0.4444544752643154  0.8888939042988220  0.8750000000000000
  0.2777494000592771  0.3888838740257868  0.8750000000000000
  0.6111344739665165  0.3888838740257868  0.8750000000000000
  0.7777856157776746  0.8889095364656362  0.8750000000000000
  0.9444394290345066  0.3888788580690132  0.8750000000000000
  0.1110423141903062  0.3886404043901143  0.3750000000000000
  0.2778227963459909  0.8889557062715746  0.3750000000000000
  0.6112646215688911  0.8892382333138492  0.3750000000000000
  0.9444142216828000  0.8889191116505286  0.3750000000000000
  0.7775980901998152  0.3886404043901143  0.3750000000000000
  0.2777654269708961  0.5555679063624396  0.8750000000000000
  0.1110827596179252  0.0555360057124340  0.8750000000000000
  0.6111344739665165  0.5555839332740586  0.8750000000000000
  0.4444532460945089  0.0555360057124340  0.8750000000000000
  0.9444536317708715  0.5555555830677668  0.8750000000000000
  0.1111329099255911  0.5555105369873449  0.3750000000000000
  0.7777777777777786  0.0555555555555571  0.8750000000000000
  0.2778163066966725  0.0556326133933449  0.3750000000000000
  0.4467488736392981  0.5575430634253498  0.3750000000000000
  0.7777007199399907  0.5555170266366631  0.3750000000000000
  0.6112646215688911  0.0553597215883704  0.3750000000000000
  0.4444494593075418  0.5555839332740586  0.8750000000000000
  0.9440951000194794  0.0553597215883704  0.3750000000000000
  0.2777777502655687  0.7222313820364401  0.8750000000000000
  0.1110710838274526  0.2222022085803906  0.8750000000000000
  0.4444494593075418  0.2221988593668190  0.8750000000000000
  0.6111311247529448  0.7222622495058831  0.8750000000000000
  0.9444536317708715  0.7222313820364401  0.8750000000000000
  0.7777856157776746  0.2222094126453672  0.8750000000000000
  0.1111111111111143  0.7222222222222214  0.3750000000000000
  0.4446929289432143  0.7222910191430298  0.3750000000000000
  0.2757902699079857  0.2225391435472840  0.3750000000000000
  0.7775980901998152  0.7222910191430298  0.3750000000000000
  0.6118880517439454  0.2214452815893906  0.3750000000000000
  0.9440951000194794  0.2220687117644446  0.3750000000000000
  0.1110827596179252  0.3888800872388197  0.8750000000000000
  0.2777777502655687  0.8888797015624571  0.8750000000000000
  0.6111239206879685  0.8889095364656362  0.8750000000000000
  0.4444444444444429  0.3888888888888857  0.8750000000000000
  0.9444394290345066  0.8888939042988220  0.8750000000000000
  0.1111329099255911  0.8889557062715746  0.3750000000000000
  0.7777973276209016  0.3888800872388197  0.8750000000000000
  0.4445048899677288  0.8889191116505286  0.3750000000000000
  0.2757902699079857  0.3865844596940305  0.3750000000000000
  0.2778163066966725  0.5555170266366631  0.3750000000000000
  0.6107941897860513  0.3865844596940305  0.3750000000000000
  0.7779736117449650  0.8892382333138492  0.3750000000000000
  0.9444142216828000  0.3888284433655998  0.3750000000000000
  0.1111019512968955  0.5555555830677668  0.8750000000000000
  0.2777654269708961  0.0555308539417920  0.8750000000000000
  0.7778024793915435  0.5555679063624396  0.8750000000000000
  0.6111239206879685  0.0555477175556611  0.8750000000000000
  0.9444237968676924  0.0555477175556611  0.8750000000000000
  0.0554837311228005  0.1110452127181462  0.1248556322128198
  0.5556147265483398  0.6112294530966791  0.1247537113426779
  0.3888432764598096  0.1109784427170407  0.1248271621862522
  0.8889858381702820  0.6111595857518123  0.1248802273320926
  0.7222327240856387  0.1111006092476968  0.1249016748402410
  0.0555710529285392  0.7777622804047968  0.6250913816925922
  0.3888488209376823  0.7778036440666409  0.6251082500043644
  0.2221038802366563  0.2777186067849962  0.6252462886573219
  0.7222881206151893  0.7778496022105355  0.6251443677871802
  0.5556147265483398  0.2777186067849962  0.6252462886573219
  0.8888955886850305  0.2777911773700686  0.6250973757911414
  0.2221912274762574  0.7777622804047968  0.1249086183074084
  0.0554837311228005  0.2777718517379897  0.1248556322128198
  0.3888518859622896  0.2777037719245862  0.1248071970365632
  0.5555614815953460  0.7778496022105355  0.1248556322128198
  0.8889548231289517  0.7778036440666409  0.1248917499956360
  0.7222881206151893  0.2777718517379897  0.1248556322128198
  0.0555296892666946  0.9443785102043769  0.6251082500043644
  0.3888488209376823  0.9443785102043769  0.6251082500043644
  0.2221351662572240  0.4444900568735190  0.6251728378137479
  0.5556295614087493  0.4444814473710390  0.6251928029634370
  0.7222327240856387  0.9444654481712776  0.6250983251597592
  0.8889548231289517  0.4444845123956463  0.6251082500043644
  0.0555296892666946  0.4444845123956463  0.1248917499956360
  0.2221737475815235  0.9443474951630466  0.1248802273320926
  0.5555421559632669  0.9444377446482981  0.1249026242088588
  0.3888518859622896  0.4444814473710390  0.1248071970365632
  0.8888955886850305  0.9444377446482981  0.1249026242088588
  0.7223548906162952  0.4444900568735190  0.1248271621862522
  0.2221737475815235  0.6111595857518123  0.6251197726679071
  0.0554837311228005  0.1110452127181462  0.6251443677871802
  0.5556147265483398  0.6112294530966791  0.6252462886573219
  0.3888432764598096  0.1109784427170407  0.6251728378137479
  0.8889858381702820  0.6111595857518123  0.6251197726679071
  0.0555710529285392  0.6111421058570783  0.1249086183074084
  0.7222327240856387  0.1111006092476968  0.6250983251597592
  0.2221351662572240  0.1109784427170407  0.1248271621862522
  0.3888432764598096  0.6111981670761114  0.1248271621862522
  0.7223548906162952  0.6111981670761114  0.1248271621862522
  0.5555614815953460  0.1110452127181462  0.1248556322128198
  0.3888432764598096  0.6111981670761114  0.6251728378137479
  0.8888678851620510  0.1111006092476968  0.1249016748402410
  0.2221912274762574  0.7777622804047968  0.6250913816925922
  0.0554837311228005  0.2777718517379897  0.6251443677871802
  0.3888518859622896  0.2777037719245862  0.6251928029634370
  0.5555614815953460  0.7778496022105355  0.6251443677871802
  0.8889548231289517  0.7778036440666409  0.6251082500043644
  0.7222881206151893  0.2777718517379897  0.6251443677871802
  0.0555710529285392  0.7777622804047968  0.1249086183074084
  0.3888488209376823  0.7778036440666409  0.1248917499956360
  0.2221038802366563  0.2777186067849962  0.1247537113426779
  0.7222881206151893  0.7778496022105355  0.1248556322128198
  0.5556147265483398  0.2777186067849962  0.1247537113426779
  0.8888955886850305  0.2777911773700686  0.1249026242088588
  0.0555296892666946  0.4444845123956463  0.6251082500043644
  0.2221737475815235  0.9443474951630466  0.6251197726679071
  0.5555421559632669  0.9444377446482981  0.6250973757911414
  0.3888518859622896  0.4444814473710390  0.6251928029634370
  0.8888955886850305  0.9444377446482981  0.6250973757911414
  0.0555296892666946  0.9443785102043769  0.1248917499956360
  0.7223548906162952  0.4444900568735190  0.6251728378137479
  0.3888488209376823  0.9443785102043769  0.1248917499956360
  0.2221351662572240  0.4444900568735190  0.1248271621862522
  0.2221737475815235  0.6111595857518123  0.1248802273320926
  0.5556295614087493  0.4444814473710390  0.1248071970365632
  0.7222327240856387  0.9444654481712776  0.1249016748402410
  0.8889548231289517  0.4444845123956463  0.1248917499956360
  0.0555710529285392  0.6111421058570783  0.6250913816925922
  0.2221351662572240  0.1109784427170407  0.6251728378137479
  0.7223548906162952  0.6111981670761114  0.6251728378137479
  0.5555614815953460  0.1110452127181462  0.6251443677871802
  0.8888678851620510  0.1111006092476968  0.6250983251597592
 
  0.00000000E+00  0.00000000E+00  0.00000000E+00
  0.00000000E+00  0.00000000E+00  0.00000000E+00
  0.00000000E+00  0.00000000E+00  0.00000000E+00
  0.00000000E+00  0.00000000E+00  0.00000000E+00
  0.00000000E+00  0.00000000E+00  0.00000000E+00
  0.00000000E+00  0.00000000E+00  0.00000000E+00
  0.00000000E+00  0.00000000E+00  0.00000000E+00
  0.00000000E+00  0.00000000E+00  0.00000000E+00
  0.00000000E+00  0.00000000E+00  0.00000000E+00
  0.00000000E+00  0.00000000E+00  0.00000000E+00
  0.00000000E+00  0.00000000E+00  0.00000000E+00
  0.00000000E+00  0.00000000E+00  0.00000000E+00
  0.00000000E+00  0.00000000E+00  0.00000000E+00
  0.00000000E+00  0.00000000E+00  0.00000000E+00
  0.00000000E+00  0.00000000E+00  0.00000000E+00
  0.00000000E+00  0.00000000E+00  0.00000000E+00
  0.00000000E+00  0.00000000E+00  0.00000000E+00
  0.00000000E+00  0.00000000E+00  0.00000000E+00
  0.00000000E+00  0.00000000E+00  0.00000000E+00
  0.00000000E+00  0.00000000E+00  0.00000000E+00
  0.00000000E+00  0.00000000E+00  0.00000000E+00
  0.00000000E+00  0.00000000E+00  0.00000000E+00
  0.00000000E+00  0.00000000E+00  0.00000000E+00
  0.00000000E+00  0.00000000E+00  0.00000000E+00
  0.00000000E+00  0.00000000E+00  0.00000000E+00
  0.00000000E+00  0.00000000E+00  0.00000000E+00
  0.00000000E+00  0.00000000E+00  0.00000000E+00
  0.00000000E+00  0.00000000E+00  0.00000000E+00
  0.00000000E+00  0.00000000E+00  0.00000000E+00
  0.00000000E+00  0.00000000E+00  0.00000000E+00
  0.00000000E+00  0.00000000E+00  0.00000000E+00
  0.00000000E+00  0.00000000E+00  0.00000000E+00
  0.00000000E+00  0.00000000E+00  0.00000000E+00
  0.00000000E+00  0.00000000E+00  0.00000000E+00
  0.00000000E+00  0.00000000E+00  0.00000000E+00
  0.00000000E+00  0.00000000E+00  0.00000000E+00
  0.00000000E+00  0.00000000E+00  0.00000000E+00
  0.00000000E+00  0.00000000E+00  0.00000000E+00
  0.00000000E+00  0.00000000E+00  0.00000000E+00
  0.00000000E+00  0.00000000E+00  0.00000000E+00
  0.00000000E+00  0.00000000E+00  0.00000000E+00
  0.00000000E+00  0.00000000E+00  0.00000000E+00
  0.00000000E+00  0.00000000E+00  0.00000000E+00
  0.00000000E+00  0.00000000E+00  0.00000000E+00
  0.00000000E+00  0.00000000E+00  0.00000000E+00
  0.00000000E+00  0.00000000E+00  0.00000000E+00
  0.00000000E+00  0.00000000E+00  0.00000000E+00
  0.00000000E+00  0.00000000E+00  0.00000000E+00
  0.00000000E+00  0.00000000E+00  0.00000000E+00
  0.00000000E+00  0.00000000E+00  0.00000000E+00
  0.00000000E+00  0.00000000E+00  0.00000000E+00
  0.00000000E+00  0.00000000E+00  0.00000000E+00
  0.00000000E+00  0.00000000E+00  0.00000000E+00
  0.00000000E+00  0.00000000E+00  0.00000000E+00
  0.00000000E+00  0.00000000E+00  0.00000000E+00
  0.00000000E+00  0.00000000E+00  0.00000000E+00
  0.00000000E+00  0.00000000E+00  0.00000000E+00
  0.00000000E+00  0.00000000E+00  0.00000000E+00
  0.00000000E+00  0.00000000E+00  0.00000000E+00
  0.00000000E+00  0.00000000E+00  0.00000000E+00
  0.00000000E+00  0.00000000E+00  0.00000000E+00
  0.00000000E+00  0.00000000E+00  0.00000000E+00
  0.00000000E+00  0.00000000E+00  0.00000000E+00
  0.00000000E+00  0.00000000E+00  0.00000000E+00
  0.00000000E+00  0.00000000E+00  0.00000000E+00
  0.00000000E+00  0.00000000E+00  0.00000000E+00
  0.00000000E+00  0.00000000E+00  0.00000000E+00
  0.00000000E+00  0.00000000E+00  0.00000000E+00
  0.00000000E+00  0.00000000E+00  0.00000000E+00
  0.00000000E+00  0.00000000E+00  0.00000000E+00
  0.00000000E+00  0.00000000E+00  0.00000000E+00
  0.00000000E+00  0.00000000E+00  0.00000000E+00
  0.00000000E+00  0.00000000E+00  0.00000000E+00
  0.00000000E+00  0.00000000E+00  0.00000000E+00
  0.00000000E+00  0.00000000E+00  0.00000000E+00
  0.00000000E+00  0.00000000E+00  0.00000000E+00
  0.00000000E+00  0.00000000E+00  0.00000000E+00
  0.00000000E+00  0.00000000E+00  0.00000000E+00
  0.00000000E+00  0.00000000E+00  0.00000000E+00
  0.00000000E+00  0.00000000E+00  0.00000000E+00
  0.00000000E+00  0.00000000E+00  0.00000000E+00
  0.00000000E+00  0.00000000E+00  0.00000000E+00
  0.00000000E+00  0.00000000E+00  0.00000000E+00
  0.00000000E+00  0.00000000E+00  0.00000000E+00
  0.00000000E+00  0.00000000E+00  0.00000000E+00
  0.00000000E+00  0.00000000E+00  0.00000000E+00
  0.00000000E+00  0.00000000E+00  0.00000000E+00
  0.00000000E+00  0.00000000E+00  0.00000000E+00
  0.00000000E+00  0.00000000E+00  0.00000000E+00
  0.00000000E+00  0.00000000E+00  0.00000000E+00
  0.00000000E+00  0.00000000E+00  0.00000000E+00
  0.00000000E+00  0.00000000E+00  0.00000000E+00
  0.00000000E+00  0.00000000E+00  0.00000000E+00
  0.00000000E+00  0.00000000E+00  0.00000000E+00
  0.00000000E+00  0.00000000E+00  0.00000000E+00
  0.00000000E+00  0.00000000E+00  0.00000000E+00
  0.00000000E+00  0.00000000E+00  0.00000000E+00
  0.00000000E+00  0.00000000E+00  0.00000000E+00
  0.00000000E+00  0.00000000E+00  0.00000000E+00
  0.00000000E+00  0.00000000E+00  0.00000000E+00
  0.00000000E+00  0.00000000E+00  0.00000000E+00
  0.00000000E+00  0.00000000E+00  0.00000000E+00
  0.00000000E+00  0.00000000E+00  0.00000000E+00
  0.00000000E+00  0.00000000E+00  0.00000000E+00
  0.00000000E+00  0.00000000E+00  0.00000000E+00
  0.00000000E+00  0.00000000E+00  0.00000000E+00
  0.00000000E+00  0.00000000E+00  0.00000000E+00
  0.00000000E+00  0.00000000E+00  0.00000000E+00
  0.00000000E+00  0.00000000E+00  0.00000000E+00
  0.00000000E+00  0.00000000E+00  0.00000000E+00
  0.00000000E+00  0.00000000E+00  0.00000000E+00
  0.00000000E+00  0.00000000E+00  0.00000000E+00
  0.00000000E+00  0.00000000E+00  0.00000000E+00
  0.00000000E+00  0.00000000E+00  0.00000000E+00
  0.00000000E+00  0.00000000E+00  0.00000000E+00
  0.00000000E+00  0.00000000E+00  0.00000000E+00
  0.00000000E+00  0.00000000E+00  0.00000000E+00
  0.00000000E+00  0.00000000E+00  0.00000000E+00
  0.00000000E+00  0.00000000E+00  0.00000000E+00
  0.00000000E+00  0.00000000E+00  0.00000000E+00
  0.00000000E+00  0.00000000E+00  0.00000000E+00
  0.00000000E+00  0.00000000E+00  0.00000000E+00
  0.00000000E+00  0.00000000E+00  0.00000000E+00
  0.00000000E+00  0.00000000E+00  0.00000000E+00
  0.00000000E+00  0.00000000E+00  0.00000000E+00
  0.00000000E+00  0.00000000E+00  0.00000000E+00
  0.00000000E+00  0.00000000E+00  0.00000000E+00
  0.00000000E+00  0.00000000E+00  0.00000000E+00
  0.00000000E+00  0.00000000E+00  0.00000000E+00
  0.00000000E+00  0.00000000E+00  0.00000000E+00
  0.00000000E+00  0.00000000E+00  0.00000000E+00
  0.00000000E+00  0.00000000E+00  0.00000000E+00
  0.00000000E+00  0.00000000E+00  0.00000000E+00
  0.00000000E+00  0.00000000E+00  0.00000000E+00
  0.00000000E+00  0.00000000E+00  0.00000000E+00
  0.00000000E+00  0.00000000E+00  0.00000000E+00
  0.00000000E+00  0.00000000E+00  0.00000000E+00
  0.00000000E+00  0.00000000E+00  0.00000000E+00
  0.00000000E+00  0.00000000E+00  0.00000000E+00
  0.00000000E+00  0.00000000E+00  0.00000000E+00
  0.00000000E+00  0.00000000E+00  0.00000000E+00
  0.00000000E+00  0.00000000E+00  0.00000000E+00
  0.00000000E+00  0.00000000E+00  0.00000000E+00
  0.00000000E+00  0.00000000E+00  0.00000000E+00
  0.00000000E+00  0.00000000E+00  0.00000000E+00
  0.00000000E+00  0.00000000E+00  0.00000000E+00
  0.00000000E+00  0.00000000E+00  0.00000000E+00
  0.00000000E+00  0.00000000E+00  0.00000000E+00
  0.00000000E+00  0.00000000E+00  0.00000000E+00
  0.00000000E+00  0.00000000E+00  0.00000000E+00
  0.00000000E+00  0.00000000E+00  0.00000000E+00
  0.00000000E+00  0.00000000E+00  0.00000000E+00
  0.00000000E+00  0.00000000E+00  0.00000000E+00
  0.00000000E+00  0.00000000E+00  0.00000000E+00
  0.00000000E+00  0.00000000E+00  0.00000000E+00
  0.00000000E+00  0.00000000E+00  0.00000000E+00
  0.00000000E+00  0.00000000E+00  0.00000000E+00
  0.00000000E+00  0.00000000E+00  0.00000000E+00
  0.00000000E+00  0.00000000E+00  0.00000000E+00
  0.00000000E+00  0.00000000E+00  0.00000000E+00
  0.00000000E+00  0.00000000E+00  0.00000000E+00
  0.00000000E+00  0.00000000E+00  0.00000000E+00
  0.00000000E+00  0.00000000E+00  0.00000000E+00
  0.00000000E+00  0.00000000E+00  0.00000000E+00
  0.00000000E+00  0.00000000E+00  0.00000000E+00
  0.00000000E+00  0.00000000E+00  0.00000000E+00
  0.00000000E+00  0.00000000E+00  0.00000000E+00
  0.00000000E+00  0.00000000E+00  0.00000000E+00
  0.00000000E+00  0.00000000E+00  0.00000000E+00
  0.00000000E+00  0.00000000E+00  0.00000000E+00
  0.00000000E+00  0.00000000E+00  0.00000000E+00
  0.00000000E+00  0.00000000E+00  0.00000000E+00
  0.00000000E+00  0.00000000E+00  0.00000000E+00
  0.00000000E+00  0.00000000E+00  0.00000000E+00
  0.00000000E+00  0.00000000E+00  0.00000000E+00
  0.00000000E+00  0.00000000E+00  0.00000000E+00
  0.00000000E+00  0.00000000E+00  0.00000000E+00
  0.00000000E+00  0.00000000E+00  0.00000000E+00
  0.00000000E+00  0.00000000E+00  0.00000000E+00
  0.00000000E+00  0.00000000E+00  0.00000000E+00
  0.00000000E+00  0.00000000E+00  0.00000000E+00
  0.00000000E+00  0.00000000E+00  0.00000000E+00
  0.00000000E+00  0.00000000E+00  0.00000000E+00
  0.00000000E+00  0.00000000E+00  0.00000000E+00
  0.00000000E+00  0.00000000E+00  0.00000000E+00
  0.00000000E+00  0.00000000E+00  0.00000000E+00
  0.00000000E+00  0.00000000E+00  0.00000000E+00
  0.00000000E+00  0.00000000E+00  0.00000000E+00
  0.00000000E+00  0.00000000E+00  0.00000000E+00
  0.00000000E+00  0.00000000E+00  0.00000000E+00
  0.00000000E+00  0.00000000E+00  0.00000000E+00
  0.00000000E+00  0.00000000E+00  0.00000000E+00
  0.00000000E+00  0.00000000E+00  0.00000000E+00
  0.00000000E+00  0.00000000E+00  0.00000000E+00
  0.00000000E+00  0.00000000E+00  0.00000000E+00
  0.00000000E+00  0.00000000E+00  0.00000000E+00
  0.00000000E+00  0.00000000E+00  0.00000000E+00
  0.00000000E+00  0.00000000E+00  0.00000000E+00
  0.00000000E+00  0.00000000E+00  0.00000000E+00
  0.00000000E+00  0.00000000E+00  0.00000000E+00
  0.00000000E+00  0.00000000E+00  0.00000000E+00
  0.00000000E+00  0.00000000E+00  0.00000000E+00
  0.00000000E+00  0.00000000E+00  0.00000000E+00
  0.00000000E+00  0.00000000E+00  0.00000000E+00
  0.00000000E+00  0.00000000E+00  0.00000000E+00
  0.00000000E+00  0.00000000E+00  0.00000000E+00
  0.00000000E+00  0.00000000E+00  0.00000000E+00
  0.00000000E+00  0.00000000E+00  0.00000000E+00
  0.00000000E+00  0.00000000E+00  0.00000000E+00
  0.00000000E+00  0.00000000E+00  0.00000000E+00
  0.00000000E+00  0.00000000E+00  0.00000000E+00
  0.00000000E+00  0.00000000E+00  0.00000000E+00
  0.00000000E+00  0.00000000E+00  0.00000000E+00
  0.00000000E+00  0.00000000E+00  0.00000000E+00
  0.00000000E+00  0.00000000E+00  0.00000000E+00
  0.00000000E+00  0.00000000E+00  0.00000000E+00
  0.00000000E+00  0.00000000E+00  0.00000000E+00
  0.00000000E+00  0.00000000E+00  0.00000000E+00
  0.00000000E+00  0.00000000E+00  0.00000000E+00
  0.00000000E+00  0.00000000E+00  0.00000000E+00
  0.00000000E+00  0.00000000E+00  0.00000000E+00
  0.00000000E+00  0.00000000E+00  0.00000000E+00
  0.00000000E+00  0.00000000E+00  0.00000000E+00
  0.00000000E+00  0.00000000E+00  0.00000000E+00
  0.00000000E+00  0.00000000E+00  0.00000000E+00
  0.00000000E+00  0.00000000E+00  0.00000000E+00
  0.00000000E+00  0.00000000E+00  0.00000000E+00
  0.00000000E+00  0.00000000E+00  0.00000000E+00
  0.00000000E+00  0.00000000E+00  0.00000000E+00
  0.00000000E+00  0.00000000E+00  0.00000000E+00
  0.00000000E+00  0.00000000E+00  0.00000000E+00
  0.00000000E+00  0.00000000E+00  0.00000000E+00
  0.00000000E+00  0.00000000E+00  0.00000000E+00
  0.00000000E+00  0.00000000E+00  0.00000000E+00
  0.00000000E+00  0.00000000E+00  0.00000000E+00
  0.00000000E+00  0.00000000E+00  0.00000000E+00
  0.00000000E+00  0.00000000E+00  0.00000000E+00
  0.00000000E+00  0.00000000E+00  0.00000000E+00
  0.00000000E+00  0.00000000E+00  0.00000000E+00
  0.00000000E+00  0.00000000E+00  0.00000000E+00
  0.00000000E+00  0.00000000E+00  0.00000000E+00
  0.00000000E+00  0.00000000E+00  0.00000000E+00
  0.00000000E+00  0.00000000E+00  0.00000000E+00
  0.00000000E+00  0.00000000E+00  0.00000000E+00
  0.00000000E+00  0.00000000E+00  0.00000000E+00
  0.00000000E+00  0.00000000E+00  0.00000000E+00
  0.00000000E+00  0.00000000E+00  0.00000000E+00