 O B N 
 1.0
 14.936314146199660   0.000000000000000   0.000000000000000
 -7.468157073099825  12.935227489513863   0.000000000000000
  0.000000000000001   0.000000000000001  13.341276283792837
 O B N 
   1 143 144
Cartesian
  3.734078536549917   5.030366245922021   5.002978606422314 
  1.242323338038879   0.720948049115447   5.002978606422314 
  4.959194724640182   7.211946360607359   5.002978606422314 
  6.225833735060951   0.720948049115447   5.002978606422314 
  9.956880964453420   7.185655168753313   5.002978606422314 
 11.202235609649751   0.718623749417456   5.002978606422314 
 -3.734078536549858   9.342108742426666  11.673616748318732 
  1.244612576322629   9.342475475440732  11.673616748318732 
  2.489136309988826   2.874192793820304  11.673616748318732 
  6.223544496777227   9.342475475440732  11.673616748318732 
  7.468605468162273   2.874236116659768  11.673616748318732 
 12.446715720405647   2.874329302879082  11.673616748318732 
 -1.243857637068866   9.341826769802415   5.002978606422314 
 -0.017406944047305   2.864445093838229   5.002978606422314 
  5.010824242213185   2.878594447105700   5.002978606422314 
  3.734078536549971   9.362208550089695   5.002978606422314 
  8.712014710168702   9.341826769802415   5.002978606422314 
  9.961614241998557   2.872509304976380   5.002978606422314 
 -4.978839583532324  11.497861150521574  11.673616748318732 
  0.000112367607570  11.498044866147429  11.673616748318732 
  1.244306438783706   5.030301377527008  11.673616748318732 
  6.223850634316234   5.030301377527008  11.673616748318732 
  4.978734253548976  11.498247071781321  11.673616748318732 
 11.202235609649755   5.030236494985058  11.673616748318732 
 -1.243864696670991   5.027152042402788   5.002978606422314 
 -2.489212282265141  11.498844288724289   5.002978606422314 
  2.489069612417196  11.502498840288043   5.002978606422314 
  7.467479948106436  11.498370928976165   5.002978606422314 
  8.712021769770930   5.027152042402788   5.002978606422314 
 -0.000276713297334   7.186397254671099  11.673616748318732 
  1.244415380007084   0.718370867749276  11.673616748318732 
  4.978908407755092   7.186604566418844  11.673616748318732 
  6.223741693092748   0.718370867749276  11.673616748318732 
  9.957679783461263   7.186237850051083  11.673616748318732 
 -2.488723891353584   7.185655168753313   5.002978606422314 
 11.202235609649751   0.718623749417457  11.673616748318732 
  3.734078536549923   0.719620510079094   5.002978606422314 
  2.508962348459640   7.211946360607359   5.002978606422314 
  7.467293853045370   7.185739113843570   5.002978606422314 
  8.716605317865787   0.716090592501718   5.002978606422314 
  2.489248665344745   7.186604566418844  11.673616748318732 
 13.687865901433705   0.716090592501718   5.002978606422314 
 -1.244761663378966   9.342227226707349  11.673616748318732 
 -0.000448395062334   2.874236116659768  11.673616748318732 
  4.979020763111007   2.874192793820304  11.673616748318732 
  3.734078536549972   9.342626504446621  11.673616748318732 
  8.712918736478805   9.342227226707349  11.673616748318732 
  9.957755498893846   2.874329302879082  11.673616748318732 
 -3.734078536549858   9.342108742426664   5.002978606422314 
  1.247890501839988   9.342998646247905   5.002978606422314 
  2.457332830886648   2.878594447105700   5.002978606422314 
  6.220266571259836   9.342998646247905   5.002978606422314 
  7.485564017147242   2.864445093838229   5.002978606422314 
 12.442856977300922   2.872509304976380   5.002978606422314 
 -1.245050580220160   5.030252394576134  11.673616748318732 
 -2.489317489567389  11.497861150521574  11.673616748318732 
  2.489422819550984  11.498247071781321  11.673616748318732 
  3.734078536549918   5.030366245922021  11.673616748318732 
  7.468044705492272  11.498044866147429  11.673616748318732 
 -4.978944790834577  11.498844288724289   5.002978606422314 
  8.713207653320101   5.030252394576134  11.673616748318732 
  0.000677124993405  11.498370928976165   5.002978606422314 
  1.232216642796430   5.000557930053081   5.002978606422314 
  0.000863220054482   7.185739113843570   5.002978606422314 
  6.235940430303510   5.000557930053081   5.002978606422314 
  4.979087460682750  11.502498840288043   5.002978606422314 
 11.202235609649746   5.029584369327595   5.002978606422314 
 -2.489522710361442   7.186237850051083  11.673616748318732 
  3.734078536549916   0.718304228424048  11.673616748318732 
  7.468433786397157   7.186397254671099  11.673616748318732 
  8.713099781894847   0.718522363105739  11.673616748318732 
 13.691371437404641   0.718522363105739  11.673616748318732 
 -0.000580652741466   1.436395088130677   1.665733484938857 
  3.734078536549926   7.906392024096687   1.664373730451207 
  4.979080888902411   1.435531402976909   1.665353658448606 
  8.713935967308792   7.905488274096744   1.666061615220310 
  9.957778052829758   1.437111654842549   1.666347752352112 
 -4.978424171619586  10.060532029799120   8.339516825778674 
 -0.000791641014544  10.061067078174872   8.339741870586465 
  1.243367150711804   3.592353356834773   8.341583482393421 
  4.979219265020122  10.061661557221136   8.340223727905771 
  6.224789922388031   3.592353356834773   8.341583482393421 
 11.202235609649680   3.593292073861738   8.339596794703487 
 -2.489732901480250  10.060532029799120   1.666440387065954 
 -1.245721381211675   3.593042092414418   1.665733484938857 
  3.734078536549871   3.592161464540593   1.665087297870558 
  2.488937808079716  10.061661557221136   1.665733484938857 
  7.468948714114279  10.061067078174872   1.666215342258163 
  8.713878454311507   3.593042092414418   1.665733484938857 
 -6.223358167338084  12.215750865701807   8.339741870586465 
 -1.244798905761734  12.215750865701807   8.339741870586465 
 -0.001640936026326   5.749580002485924   8.340603554396022 
  4.979600413070538   5.749468636612774   8.340869914974071 
  3.734078536549921  12.216875428081146   8.339609460492516 
  9.958228344902512   5.749508283403327   8.339741870586465 
 -2.490071271802663   5.749508283403326   1.666215342258163 
 -3.734078536549902  12.215349679086605   1.666061615220310 
  1.244542740126770  12.216517076709138   1.666360418141140 
  2.488556660029296   5.749468636612773   1.665087297870558 
  6.223614332973057  12.216517076709138   1.666360418141140 
  7.469798009126160   5.749580002485923   1.665353658448606 
 -1.245778894209043   7.905488274096744   8.339895597624317 
 -0.000580652741465   1.436395088130678   8.340223727905771 
  3.734078536549927   7.906392024096688   8.341583482393421 
  4.979080888902412   1.435531402976909   8.340603554396022 
  8.713935967308792   7.905488274096744   8.339895597624317 
 -3.734078536549911   7.905262167681866   1.666440387065954 
  9.957778052829758   1.437111654842549   8.339609460492516 
  2.489076184197315   1.435531402976909   1.665353658448606 
  1.243361416326178   7.905987332303398   1.665353658448606 
  6.224795656773567   7.905987332303398   1.665353658448606 
  7.468737725841311   1.436395088130677   1.665733484938857 
  1.243361416326179   7.905987332303399   8.340603554396022 
 12.446693166469629   1.437111654842549   1.666347752352112 
 -2.489732901480249  10.060532029799120   8.339516825778674 
 -1.245721381211675   3.593042092414418   8.340223727905771 
  3.734078536549871   3.592161464540594   8.340869914974071 
  2.488937808079716  10.061661557221136   8.340223727905771 
  7.468948714114280  10.061067078174872   8.339741870586465 
  8.713878454311507   3.593042092414418   8.340223727905771 
 -4.978424171619587  10.060532029799120   1.666440387065954 
 -0.000791641014545  10.061067078174872   1.666215342258163 
  1.243367150711804   3.592353356834772   1.664373730451207 
  4.979219265020121  10.061661557221136   1.665733484938857 
  6.224789922388030   3.592353356834772   1.664373730451207 
 11.202235609649680   3.593292073861738   1.666360418141140 
 -2.490071271802662   5.749508283403327   8.339741870586465 
 -3.734078536549902  12.215349679086605   8.339895597624317 
  1.244542740126770  12.216517076709138   8.339596794703487 
  2.488556660029297   5.749468636612774   8.340869914974071 
  6.223614332973058  12.216517076709138   8.339596794703487 
 -6.223358167338085  12.215750865701807   1.666215342258163 
  7.469798009126161   5.749580002485924   8.340603554396022 
 -1.244798905761734  12.215750865701807   1.666215342258163 
 -0.001640936026326   5.749580002485923   1.665353658448606 
 -1.245778894209044   7.905488274096744   1.666061615220310 
  4.979600413070537   5.749468636612773   1.665087297870558 
  3.734078536549920  12.216875428081146   1.666347752352112 
  9.958228344902512   5.749508283403326   1.666215342258163 
 -3.734078536549911   7.905262167681867   8.339516825778674 
  2.489076184197315   1.435531402976909   8.340603554396022 
  6.224795656773568   7.905987332303399   8.340603554396022 
  7.468737725841312   1.436395088130678   8.340223727905771 
 12.446693166469629   1.437111654842549   8.339609460492516 
  1.244786874155936   0.718542849583600   1.669786621336234 
  4.978667482774433   7.186245015380922   1.672813721690543 
  6.223370198943879   0.718542849583600   1.669786621336234 
  9.957599172279089   7.186332205975388   1.669179717379735 
 11.202235609649751   0.718623749417456   1.668992627042435 
 -3.734078536549858   9.342108742426664   8.336991777175616 
  1.244575769885702   9.342067761153304   8.336170591508393 
  2.489327227831295   2.874581216492920   8.333143491154084 
  6.223581303214138   9.342067761153304   8.336170591508393 
  7.468235404765633   2.874449772861426   8.336181632864461 
 12.446900759488187   2.874596525017405   8.336747983908579 
 -1.244803072415325   9.342110237413602   1.669179717379735 
 -0.000078331665695   2.874449772861425   1.669775579980166 
  4.978829845268538   2.874581216492919   1.672813721690543 
  3.734078536549972   9.342199192043275   1.669775579980166 
  8.712960145515162   9.342110237413602   1.669179717379735 
  9.957570459811302   2.874596525017404   1.669209228936051 
 -4.978717563313798  11.497883783891027   8.336777495464892 
 -0.000148565671607  11.497894216248454   8.336714616055337 
  1.244738281606832   5.030272505892312   8.333143491154084 
  6.223418791493107   5.030272505892312   8.333143491154084 
  4.978873155167939  11.497953212165998   8.336747983908579 
 11.202235609649748   5.030537794783018   8.336714616055337 
 -1.244715892508220   5.030488127029235   1.669786621336234 
 -2.489439509785931  11.497883783891027   1.669179717379735 
  2.489283917932007  11.497953212165998   1.669209228936051 
  3.734078536549917   5.030366245922020   1.677589454337428 
  7.468305638771448  11.497894216248454   1.669242596789276 
  8.712872965608160   5.030488127029235   1.669786621336234 
 -0.000063715433286   7.186274280296954   8.335936102070718 
  1.244786874155937   0.718542849583600   8.336170591508393 
  4.978667482774433   7.186245015380923   8.333143491154084 
  6.223370198943880   0.718542849583600   8.336170591508393 
  9.957599172279089   7.186332205975389   8.336777495464892 
 -2.489442099179267   7.186332205975388   1.669179717379735 
 11.202235609649751   0.718623749417456   8.336964585802193 
  3.734078536549915   0.718550177172337   1.670021110773910 
  2.489489590325402   7.186245015380922   1.672813721690543 
  7.468220788533123   7.186274280296953   1.670021110773910 
  8.712775841193336   0.718549000582752   1.669209228936051 
  2.489489590325402   7.186245015380923   8.333143491154084 
 13.691695378106152   0.718549000582752   1.669209228936051 
 -1.244803072415324   9.342110237413602   8.336777495464892 
 -0.000078331665695   2.874449772861426   8.336181632864461 
  4.978829845268539   2.874581216492920   8.333143491154084 
  3.734078536549972   9.342199192043275   8.336181632864461 
  8.712960145515162   9.342110237413602   8.336777495464892 
  9.957570459811302   2.874596525017405   8.336747983908579 
 -3.734078536549859   9.342108742426664   1.668965435669013 
  1.244575769885701   9.342067761153304   1.669786621336234 
  2.489327227831295   2.874581216492919   1.672813721690543 
  6.223581303214137   9.342067761153304   1.669786621336234 
  7.468235404765633   2.874449772861425   1.669775579980166 
 12.446900759488187   2.874596525017404   1.669209228936051 
 -1.244715892508220   5.030488127029236   8.336170591508393 
 -2.489439509785930  11.497883783891027   8.336777495464892 
  2.489283917932008  11.497953212165998   8.336747983908579 
  3.734078536549917   5.030366245922021   8.328367758507186 
  7.468305638771449  11.497894216248454   8.336714616055337 
 -4.978717563313799  11.497883783891027   1.669179717379735 
  8.712872965608160   5.030488127029236   8.336170591508393 
 -0.000148565671607  11.497894216248454   1.669242596789276 
  1.244738281606832   5.030272505892311   1.672813721690543 
 -0.000063715433287   7.186274280296953   1.670021110773910 
  6.223418791493106   5.030272505892311   1.672813721690543 
  4.978873155167938  11.497953212165998   1.669209228936051 
 11.202235609649748   5.030537794783017   1.669242596789276 
 -2.489442099179267   7.186332205975389   8.336777495464892 
  3.734078536549916   0.718550177172338   8.335936102070718 
  7.468220788533124   7.186274280296954   8.335936102070718 
  8.712775841193336   0.718549000582752   8.336747983908579 
 13.691695378106152   0.718549000582752   8.336747983908579 
 -0.001219549331308   1.436123129068973   5.002978606422314 
  3.734078536549910   7.916207254231453   5.002978606422314 
  4.972197345581791   1.452472357319057   5.002978606422314 
  8.707550915571415   7.901801862757382   5.002978606422314 
  9.957726570098771   1.437141378411142   5.002978606422314 
 -4.978806408529665  10.060752714382042  11.673616748318732 
  0.000058775128670  10.060761442211211  11.673616748318732 
  1.244691005637060   3.593117684832247  11.673616748318732 
  4.978754854582828  10.060761131330288  11.673616748318732 
  6.223466067462758   3.593117684832247  11.673616748318732 
 11.202235609649694   3.593099596040544  11.673616748318732 
 -2.488234890119346  10.061396907061578   5.002978606422314 
 -1.246276352962821   3.592624771268075   5.002978606422314 
  3.734078536549872   3.571594642663637   5.002978606422314 
  2.489021732918412  10.062350837429184   5.002978606422314 
  7.464755844544985  10.057157583004720   5.002978606422314 
  8.714433426062653   3.592624771268075   5.002978606422314 
 -6.223518686900850  12.216640165667449  11.673616748318732 
 -1.244638386198968  12.216640165667449  11.673616748318732 
  0.000046324832616   5.748935175995244  11.673616748318732 
  4.978728528565891   5.748965253859304  11.673616748318732 
  3.734078536549927  12.216609981254290  11.673616748318732 
  9.957538448322049   5.748924619401346  11.673616748318732 
 -2.484589114884699   5.747831899426653   5.002978606422314 
 -3.734078536549895  12.222722501765320   5.002978606422314 
  1.244247975998817  12.216346894560518   5.002978606422314 
  2.470745269808744   5.759752047551252   5.002978606422314 
  6.223909097101008  12.216346894560518   5.002978606422314 
  7.451684940641192   5.747070848698545   5.002978606422314 
 -1.244646344070735   7.904834395969512  11.673616748318732 
 -0.000033066264418   1.437247492312596  11.673616748318732 
  3.734078536549919   7.904863368101754  11.673616748318732 
  4.978795694594904   1.437315026988905  11.673616748318732 
  8.712803417170466   7.904834395969512  11.673616748318732 
 -3.734078536549911   7.903532413156952   5.002978606422314 
  9.957548169134355   1.437244378255972  11.673616748318732 
  2.495959727517920   1.452472357319057   5.002978606422314 
  1.254590941490514   7.891555531748629   5.002978606422314 
  6.213566131609205   7.891555531748629   5.002978606422314 
  7.469376622431153   1.436123129068973   5.002978606422314 
  1.244763482877605   7.904848534782097  11.673616748318732 
 12.446744649200616   1.437141378411142   5.002978606422314 
 -2.489350664570155  10.060752714382042  11.673616748318732 
 -1.244709384297318   3.593090114123351  11.673616748318732 
  3.734078536549865   3.593168230047520  11.673616748318732 
  2.489402218517011  10.060761131330288  11.673616748318732 
  7.468098297971052  10.060761442211211  11.673616748318732 
  8.712866457397167   3.593090114123351  11.673616748318732 
 -4.979922182980475  10.061396907061578   5.002978606422314 
  0.003401228554734  10.057157583004720   5.002978606422314 
  1.234866912071121   3.587445741767389   5.002978606422314 
  4.979135340181424  10.062350837429184   5.002978606422314 
  6.233290161028711   3.587445741767389   5.002978606422314 
 11.202235609649687   3.593632438158968   5.002978606422314 
 -2.489381375222213   5.748924619401346  11.673616748318732 
 -3.734078536549916  12.216657435341071  11.673616748318732 
  1.244709430809591  12.216613315619739  11.673616748318732 
  2.489428544533945   5.748965253859304  11.673616748318732 
  6.223447642290251  12.216613315619739  11.673616748318732 
 -6.222068879989408  12.221336744848644   5.002978606422314 
  7.468110748267206   5.748935175995244  11.673616748318732 
 -1.246088193110426  12.221336744848644   5.002978606422314 
  0.016472132458630   5.747070848698545   5.002978606422314 
 -1.239393842471668   7.901801862757382   5.002978606422314 
  4.997411803291092   5.759752047551252   5.002978606422314 
  3.734078536549927  12.216815980943947   5.002978606422314 
  9.952746187984534   5.747831899426653   5.002978606422314 
 -3.734078536549911   7.904820798516002  11.673616748318732 
  2.489361378504824   1.437315026988905  11.673616748318732 
  6.223393590222114   7.904848534782097  11.673616748318732 
  7.468190139364251   1.437247492312596  11.673616748318732 
 12.446923050165045   1.437244378255972  11.673616748318732 
Generated by cif2cell 2.0.0.  :  Failed to get author information, No journal information. Species order: O B N 
 1.0
 14.936314146199660   0.000000000000000   0.000000000000000
 -7.468157073099825  12.935227489513863   0.000000000000000
  0.000000000000001   0.000000000000001  13.341276283792837
 O B N 
   1 143 144
Cartesian
  3.734078536549917   5.030366245922021   5.002978606422314 
  1.242323338038879   0.720948049115447   5.002978606422314 
  4.959194724640182   7.211946360607359   5.002978606422314 
  6.225833735060951   0.720948049115447   5.002978606422314 
  9.956880964453420   7.185655168753313   5.002978606422314 
 11.202235609649751   0.718623749417456   5.002978606422314 
 -3.734078536549858   9.342108742426666  11.673616748318732 
  1.244612576322629   9.342475475440732  11.673616748318732 
  2.489136309988826   2.874192793820304  11.673616748318732 
  6.223544496777227   9.342475475440732  11.673616748318732 
  7.468605468162273   2.874236116659768  11.673616748318732 
 12.446715720405647   2.874329302879082  11.673616748318732 
 -1.243857637068866   9.341826769802415   5.002978606422314 
 -0.017406944047305   2.864445093838229   5.002978606422314 
  5.010824242213185   2.878594447105700   5.002978606422314 
  3.734078536549971   9.362208550089695   5.002978606422314 
  8.712014710168702   9.341826769802415   5.002978606422314 
  9.961614241998557   2.872509304976380   5.002978606422314 
 -4.978839583532324  11.497861150521574  11.673616748318732 
  0.000112367607570  11.498044866147429  11.673616748318732 
  1.244306438783706   5.030301377527008  11.673616748318732 
  6.223850634316234   5.030301377527008  11.673616748318732 
  4.978734253548976  11.498247071781321  11.673616748318732 
 11.202235609649755   5.030236494985058  11.673616748318732 
 -1.243864696670991   5.027152042402788   5.002978606422314 
 -2.489212282265141  11.498844288724289   5.002978606422314 
  2.489069612417196  11.502498840288043   5.002978606422314 
  7.467479948106436  11.498370928976165   5.002978606422314 
  8.712021769770930   5.027152042402788   5.002978606422314 
 -0.000276713297334   7.186397254671099  11.673616748318732 
  1.244415380007084   0.718370867749276  11.673616748318732 
  4.978908407755092   7.186604566418844  11.673616748318732 
  6.223741693092748   0.718370867749276  11.673616748318732 
  9.957679783461263   7.186237850051083  11.673616748318732 
 -2.488723891353584   7.185655168753313   5.002978606422314 
 11.202235609649751   0.718623749417457  11.673616748318732 
  3.734078536549923   0.719620510079094   5.002978606422314 
  2.508962348459640   7.211946360607359   5.002978606422314 
  7.467293853045370   7.185739113843570   5.002978606422314 
  8.716605317865787   0.716090592501718   5.002978606422314 
  2.489248665344745   7.186604566418844  11.673616748318732 
 13.687865901433705   0.716090592501718   5.002978606422314 
 -1.244761663378966   9.342227226707349  11.673616748318732 
 -0.000448395062334   2.874236116659768  11.673616748318732 
  4.979020763111007   2.874192793820304  11.673616748318732 
  3.734078536549972   9.342626504446621  11.673616748318732 
  8.712918736478805   9.342227226707349  11.673616748318732 
  9.957755498893846   2.874329302879082  11.673616748318732 
 -3.734078536549858   9.342108742426664   5.002978606422314 
  1.247890501839988   9.342998646247905   5.002978606422314 
  2.457332830886648   2.878594447105700   5.002978606422314 
  6.220266571259836   9.342998646247905   5.002978606422314 
  7.485564017147242   2.864445093838229   5.002978606422314 
 12.442856977300922   2.872509304976380   5.002978606422314 
 -1.245050580220160   5.030252394576134  11.673616748318732 
 -2.489317489567389  11.497861150521574  11.673616748318732 
  2.489422819550984  11.498247071781321  11.673616748318732 
  3.734078536549918   5.030366245922021  11.673616748318732 
  7.468044705492272  11.498044866147429  11.673616748318732 
 -4.978944790834577  11.498844288724289   5.002978606422314 
  8.713207653320101   5.030252394576134  11.673616748318732 
  0.000677124993405  11.498370928976165   5.002978606422314 
  1.232216642796430   5.000557930053081   5.002978606422314 
  0.000863220054482   7.185739113843570   5.002978606422314 
  6.235940430303510   5.000557930053081   5.002978606422314 
  4.979087460682750  11.502498840288043   5.002978606422314 
 11.202235609649746   5.029584369327595   5.002978606422314 
 -2.489522710361442   7.186237850051083  11.673616748318732 
  3.734078536549916   0.718304228424048  11.673616748318732 
  7.468433786397157   7.186397254671099  11.673616748318732 
  8.713099781894847   0.718522363105739  11.673616748318732 
 13.691371437404641   0.718522363105739  11.673616748318732 
 -0.000580652741466   1.436395088130677   1.665733484938857 
  3.734078536549926   7.906392024096687   1.664373730451207 
  4.979080888902411   1.435531402976909   1.665353658448606 
  8.713935967308792   7.905488274096744   1.666061615220310 
  9.957778052829758   1.437111654842549   1.666347752352112 
 -4.978424171619586  10.060532029799120   8.339516825778674 
 -0.000791641014544  10.061067078174872   8.339741870586465 
  1.243367150711804   3.592353356834773   8.341583482393421 
  4.979219265020122  10.061661557221136   8.340223727905771 
  6.224789922388031   3.592353356834773   8.341583482393421 
 11.202235609649680   3.593292073861738   8.339596794703487 
 -2.489732901480250  10.060532029799120   1.666440387065954 
 -1.245721381211675   3.593042092414418   1.665733484938857 
  3.734078536549871   3.592161464540593   1.665087297870558 
  2.488937808079716  10.061661557221136   1.665733484938857 
  7.468948714114279  10.061067078174872   1.666215342258163 
  8.713878454311507   3.593042092414418   1.665733484938857 
 -6.223358167338084  12.215750865701807   8.339741870586465 
 -1.244798905761734  12.215750865701807   8.339741870586465 
 -0.001640936026326   5.749580002485924   8.340603554396022 
  4.979600413070538   5.749468636612774   8.340869914974071 
  3.734078536549921  12.216875428081146   8.339609460492516 
  9.958228344902512   5.749508283403327   8.339741870586465 
 -2.490071271802663   5.749508283403326   1.666215342258163 
 -3.734078536549902  12.215349679086605   1.666061615220310 
  1.244542740126770  12.216517076709138   1.666360418141140 
  2.488556660029296   5.749468636612773   1.665087297870558 
  6.223614332973057  12.216517076709138   1.666360418141140 
  7.469798009126160   5.749580002485923   1.665353658448606 
 -1.245778894209043   7.905488274096744   8.339895597624317 
 -0.000580652741465   1.436395088130678   8.340223727905771 
  3.734078536549927   7.906392024096688   8.341583482393421 
  4.979080888902412   1.435531402976909   8.340603554396022 
  8.713935967308792   7.905488274096744   8.339895597624317 
 -3.734078536549911   7.905262167681866   1.666440387065954 
  9.957778052829758   1.437111654842549   8.339609460492516 
  2.489076184197315   1.435531402976909   1.665353658448606 
  1.243361416326178   7.905987332303398   1.665353658448606 
  6.224795656773567   7.905987332303398   1.665353658448606 
  7.468737725841311   1.436395088130677   1.665733484938857 
  1.243361416326179   7.905987332303399   8.340603554396022 
 12.446693166469629   1.437111654842549   1.666347752352112 
 -2.489732901480249  10.060532029799120   8.339516825778674 
 -1.245721381211675   3.593042092414418   8.340223727905771 
  3.734078536549871   3.592161464540594   8.340869914974071 
  2.488937808079716  10.061661557221136   8.340223727905771 
  7.468948714114280  10.061067078174872   8.339741870586465 
  8.713878454311507   3.593042092414418   8.340223727905771 
 -4.978424171619587  10.060532029799120   1.666440387065954 
 -0.000791641014545  10.061067078174872   1.666215342258163 
  1.243367150711804   3.592353356834772   1.664373730451207 
  4.979219265020121  10.061661557221136   1.665733484938857 
  6.224789922388030   3.592353356834772   1.664373730451207 
 11.202235609649680   3.593292073861738   1.666360418141140 
 -2.490071271802662   5.749508283403327   8.339741870586465 
 -3.734078536549902  12.215349679086605   8.339895597624317 
  1.244542740126770  12.216517076709138   8.339596794703487 
  2.488556660029297   5.749468636612774   8.340869914974071 
  6.223614332973058  12.216517076709138   8.339596794703487 
 -6.223358167338085  12.215750865701807   1.666215342258163 
  7.469798009126161   5.749580002485924   8.340603554396022 
 -1.244798905761734  12.215750865701807   1.666215342258163 
 -0.001640936026326   5.749580002485923   1.665353658448606 
 -1.245778894209044   7.905488274096744   1.666061615220310 
  4.979600413070537   5.749468636612773   1.665087297870558 
  3.734078536549920  12.216875428081146   1.666347752352112 
  9.958228344902512   5.749508283403326   1.666215342258163 
 -3.734078536549911   7.905262167681867   8.339516825778674 
  2.489076184197315   1.435531402976909   8.340603554396022 
  6.224795656773568   7.905987332303399   8.340603554396022 
  7.468737725841312   1.436395088130678   8.340223727905771 
 12.446693166469629   1.437111654842549   8.339609460492516 
  1.244786874155936   0.718542849583600   1.669786621336234 
  4.978667482774433   7.186245015380922   1.672813721690543 
  6.223370198943879   0.718542849583600   1.669786621336234 
  9.957599172279089   7.186332205975388   1.669179717379735 
 11.202235609649751   0.718623749417456   1.668992627042435 
 -3.734078536549858   9.342108742426664   8.336991777175616 
  1.244575769885702   9.342067761153304   8.336170591508393 
  2.489327227831295   2.874581216492920   8.333143491154084 
  6.223581303214138   9.342067761153304   8.336170591508393 
  7.468235404765633   2.874449772861426   8.336181632864461 
 12.446900759488187   2.874596525017405   8.336747983908579 
 -1.244803072415325   9.342110237413602   1.669179717379735 
 -0.000078331665695   2.874449772861425   1.669775579980166 
  4.978829845268538   2.874581216492919   1.672813721690543 
  3.734078536549972   9.342199192043275   1.669775579980166 
  8.712960145515162   9.342110237413602   1.669179717379735 
  9.957570459811302   2.874596525017404   1.669209228936051 
 -4.978717563313798  11.497883783891027   8.336777495464892 
 -0.000148565671607  11.497894216248454   8.336714616055337 
  1.244738281606832   5.030272505892312   8.333143491154084 
  6.223418791493107   5.030272505892312   8.333143491154084 
  4.978873155167939  11.497953212165998   8.336747983908579 
 11.202235609649748   5.030537794783018   8.336714616055337 
 -1.244715892508220   5.030488127029235   1.669786621336234 
 -2.489439509785931  11.497883783891027   1.669179717379735 
  2.489283917932007  11.497953212165998   1.669209228936051 
  3.734078536549917   5.030366245922020   1.677589454337428 
  7.468305638771448  11.497894216248454   1.669242596789276 
  8.712872965608160   5.030488127029235   1.669786621336234 
 -0.000063715433286   7.186274280296954   8.335936102070718 
  1.244786874155937   0.718542849583600   8.336170591508393 
  4.978667482774433   7.186245015380923   8.333143491154084 
  6.223370198943880   0.718542849583600   8.336170591508393 
  9.957599172279089   7.186332205975389   8.336777495464892 
 -2.489442099179267   7.186332205975388   1.669179717379735 
 11.202235609649751   0.718623749417456   8.336964585802193 
  3.734078536549915   0.718550177172337   1.670021110773910 
  2.489489590325402   7.186245015380922   1.672813721690543 
  7.468220788533123   7.186274280296953   1.670021110773910 
  8.712775841193336   0.718549000582752   1.669209228936051 
  2.489489590325402   7.186245015380923   8.333143491154084 
 13.691695378106152   0.718549000582752   1.669209228936051 
 -1.244803072415324   9.342110237413602   8.336777495464892 
 -0.000078331665695   2.874449772861426   8.336181632864461 
  4.978829845268539   2.874581216492920   8.333143491154084 
  3.734078536549972   9.342199192043275   8.336181632864461 
  8.712960145515162   9.342110237413602   8.336777495464892 
  9.957570459811302   2.874596525017405   8.336747983908579 
 -3.734078536549859   9.342108742426664   1.668965435669013 
  1.244575769885701   9.342067761153304   1.669786621336234 