 Si B N 
 1.0
 17.527899999999772   0.000000000000000   0.000000000000000
 -8.763949999999658  15.179606674993195   0.000000000000000
  0.000000000000001   0.000000000000002  15.000000000000000
 Si B N 
   1  49  48
Cartesian
  5.008843895047467   7.227988815785603  14.907544442878846 
  7.511075030033764  14.457228089839221   1.776741778388115 
 15.023496402240051   1.445946793867149   1.769751643606080 
 13.772101521396412   3.613723839587623   1.769765195050665 
 12.519809715404135   5.781693300619858   1.778128561695705 
 11.275110824468230   7.951717705094563   1.775279335589430 
 10.021929707756300  10.123125168559037   1.753829375106450 
  8.768096388350866  12.294244007405297   1.773916843141170 
 -7.511977603608182  14.456813416789375   1.790336304264165 
 -0.000801549967113   1.446261733158170   1.776964035022365 
 -1.252213834207538   3.613720709008568   1.758684590999685 
 -2.503838068112302   5.781694206888295   1.777827745614720 
 -3.756286593309747   7.951033610419935   1.790737031892930 
 -5.005576188998832  10.119737783328796   1.785724575630585 
 -6.258321860038176  12.289527131791145   1.785618802278300 
 -5.008227488158955  14.454729313861129   1.785650978358465 
  2.500924596595288   1.439138992602817   1.774229333810985 
  1.251872695957005   3.614833306530490   1.703724257473110 
  0.000535373036527   5.782231627685039   1.703892229505370 
 -1.259597727392225   7.951923467739417   1.774282894257840 
 -2.505497387932908  10.119737783328796   1.785587836567605 
 -3.756254190141360  12.288426318795977   1.781339720207085 
 -2.502788525811738  14.454694670635549   1.785339230629290 
  5.008059763635498   1.438793073907761   1.753555076979705 
  3.745630222726887   3.589159000638037   1.604176410131325 
  2.498059239268346   5.779260472385010   1.391187622131585 
  1.225086035873701   7.954639485436767   1.603948308152295 
 -0.005979493771636  10.123210795672914   1.753995419009295 
 -1.252762978298819  12.289586911583996   1.785365414329110 
  0.000006123255425  14.457137376088863   1.790093565623445 
  7.515120797591261   1.439172228916101   1.774535819770665 
  6.270191026532938   3.589148567571141   1.604334606534690 
  5.008280908168360   5.554044737159101   0.907116831319860 
  3.558710443453894   8.065163375867041   0.906401098711125 
  2.487572786058999  10.141334610888721   1.603946882788755 
  1.247582532564445  12.294531910541089   1.774049792645775 
  2.504927920643217  14.457177303131724   1.777364998978890 
 10.016741883838280   1.446290073318829   1.777452642840525 
  8.763917229501809   3.614833496029375   1.703792978906775 
  7.518202420401382   5.779125550867369   1.391915523532680 
  6.458167000538478   8.065315961315322   0.907391242082790 
  5.008004946076787  10.126646553507356   1.391240738468220 
  3.756660149497259  12.288073814480859   1.703739944622975 
  5.008279544669875  14.457246342329254   1.758459444731115 
 12.520424817089923   1.445776886447920   1.769557207554090 
 11.268460752792112   3.613905092655475   1.758355710449685 
 10.015359581106910   5.782426121922457   1.704239513728500 
  8.790712688205367   7.954891735969410   1.604888527959630 
  7.528450515765766  10.141256747400284   1.604285545682655 
  6.259356755710601  12.288109331038712   1.703477891780835 
  8.765090458629297  13.737933497103105   1.787636736338955 
 16.274972866465962   0.723412190776650   1.778479527732525 
 15.023461974694969   2.890986725524239   1.767232945494510 
 13.771360462894869   5.059868891664398   1.779349802826315 
 12.523797634965366   7.227290029986912   1.789145596601205 
 11.273624306794183   9.398437611241599   1.781133622578690 
 10.020128650112314  11.569540264537906   1.780540598284110 
 -6.259737700947559  13.733804893099363   1.788840884194920 
  1.249125371520114   0.719888744917405   1.787960966720190 
 -0.001034469150126   2.891588558936396   1.756964947787820 
 -1.252945516823268   5.059868891664398   1.757427106644330 
 -2.508172990259682   7.227362841882598   1.788390103564290 
 -3.756132285578240   9.397200480452190   1.788709614414075 
 -5.006688260942408  11.566319517074657   1.782147001791600 
 -3.756128803257934  13.732362405942688   1.782040983786645 
  3.754511082983614   0.717164837532126   1.780673667287865 
  2.496233543164207   2.878957899503667   1.730199091846800 
  1.255805340394834   5.059868891664398   1.620929604694995 
 -0.014828181389565   7.227926056246919   1.730096666626965 
 -1.257882992583157   9.398592746449264   1.780887410625150 
 -2.505660632607650  11.566376375371810   1.781930670963495 
 -1.252335663884192  13.733902612059872   1.788257664474510 
  6.261491930007200   0.717128708282192   1.780583892205005 
  5.007952045504015   2.876050604988859   1.669367451306735 
  3.737906278924430   5.003121972321308   1.327600069215975 
  2.445911857606521   7.240997352739556   1.327237442241645 
  1.238694653400396   9.404588632881794   1.669244080724010 
 -0.004410167662969  11.569683367657589   1.780732416976380 
  1.250804534518540  13.738078895610821   1.787899626936630 
  8.766845539718236   0.720025902739466   1.788284979886290 
  7.519625354285749   2.878974599108781   1.730392945132485 
  6.278346978278721   5.003083699507232   1.328005132412310 
  3.716035335046434   9.440929508198849   1.327297695578175 
  2.496976848168519  11.578528131162193   1.729991635506270 
  3.755479526876042  13.734794219323861   1.757175058616790 
 11.267635527258300   0.723358352277934   1.778810404012920 
 10.015751549366131   2.891685007168678   1.756956724365390 
  8.763949999999962   5.059868891664398   1.621083935286150 
  7.570324814165457   7.240899865564686   1.328332529662575 
  6.300078691972681   9.440963089102336   1.327826095540095 
  5.009835689994850  11.562185614014854   1.620834422178285 
  6.259258248004904  13.734765312702526   1.756658509967055 
 13.772033207017877   0.723455500663943   1.767128989458090 
 12.520651397591184   2.890955946741961   1.766951767487100 
 11.267564099124302   5.059868891664398   1.757422865765220 
 10.030453735224503   7.227965544304149   1.731140946319110 
  8.777187343909574   9.404613632942324   1.669764530461665 
  7.518838926024759  11.578407910094297   1.729935136016355 
