 Ge B N 
 1.0
 14.936314146199660   0.000000000000000   0.000000000000000
 -7.468157073099825  12.935227489513863   0.000000000000000
  0.000000000000001   0.000000000000001  13.341276283792837
 Ge B N 
   1 144 143
Cartesian
  4.978771382066589   5.748989995339477   5.002978606422314 
  1.222896400760490   0.695043451161529   5.002978606422314 
  4.978771382067672   7.532382187996477   5.002978606422314 
  6.230570609611600   0.695460144600890   5.002978606422314 
  9.981156225362041   7.191664989217382   5.002978606422314 
 11.208576148279034   0.722284461101197   5.002978606422314 
 -3.734074334430245   9.342111168521933  11.673616748318732 
  1.244691090702950   9.342076832224132  11.673616748318732 
  2.489525708191899   2.874571823280732  11.673616748318732 
  6.223467703231538   9.341949071205921  11.673616748318732 
  7.468017055940678   2.874571823280732  11.673616748318732 
 12.446928455165176   2.874518083599476  11.673616748318732 
 -1.251091878547312   9.345803225869219   5.002978606422314 
 -0.029918848860972   2.857221342226130   5.002978606422314 
  4.978771382066602   2.835681783117566   5.002978606422314 
  3.694559101078488   9.445747321621793   5.002978606422314 
  8.729356997817760   9.359844852199563   5.002978606422314 
  9.987461612993727   2.857221342226130   5.002978606422314 
 -4.978774759968467  11.497981940911522  11.673616748318732 
  0.000003377901960  11.497981940911522  11.673616748318732 
  1.244829387027085   5.030449091532273  11.673616748318732 
  6.223318817920272   5.030450198230082  11.673616748318732 
  4.978771382067076  11.497895174154969  11.673616748318732 
 11.202208652976738   5.030390466110715  11.673616748318732 
 -1.276012205212646   5.023280120178146   5.002978606422314 
 -2.489385691033231  11.490591023793014   5.002978606422314 
  2.479862776092722  11.528646414677668   5.002978606422314 
  3.434308438314553   4.857293899010971   5.002978606422314 
  7.477679988042013  11.528646414677668   5.002978606422314 
  8.822363278750622   5.012771791386564   5.002978606422314 
  0.000026757637420   7.186254968990291  11.673616748318732 
  1.244727299151609   0.718634984486570  11.673616748318732 
  4.978771382066576   7.186069589558266  11.673616748318732 
  6.223435715130504   0.718638184805122  11.673616748318732 
  9.957516006492950   7.186254968990291  11.673616748318732 
 -2.489385691033331   7.189990666439161   5.002978606422314 
 11.202215616648109   0.718612206452533  11.673616748318732 
  3.726972154521506   0.695460144600851   5.002978606422314 
  2.455772461228163   7.205644101451221   5.002978606422314 
  7.501770302903986   7.205644101451221   5.002978606422314 
  8.734646363372249   0.695043451161529   5.002978606422314 
  2.489469722880179   7.186188978364640  11.673616748318732 
 13.685280762054633   0.722284461101197   5.002978606422314 
 -1.244697047636473   9.342111168521933  11.673616748318732 
  0.000073453264963   2.874537405932346  11.673616748318732 
  4.978771382066289   2.874592029288764  11.673616748318732 
  3.734075060900237   9.341949071205921  11.673616748318732 
  8.712851673430022   9.342076832224132  11.673616748318732 
  9.957469310868824   2.874537405932346  11.673616748318732 
 -3.727679503520064   9.345803225869219   5.002978606422314 
  1.228185766317062   9.359844852199563   5.002978606422314 
  2.419391766373403   2.788450873008859   5.002978606422314 
  6.262983663058305   9.445747321621793   5.002978606422314 
  7.538150997760279   2.788450873008859   5.002978606422314 
 12.446928455165983   2.867173574302483   5.002978606422314 
 -1.244665888843919   5.030390466110715  11.673616748318732 
 -2.489385691033238  11.497975138489126  11.673616748318732 
  2.489378194070039  11.497944535421704  11.673616748318732 
  3.734223946212607   5.030450198230082  11.673616748318732 
  7.468164570061607  11.497944535421704  11.673616748318732 
 -4.975521039540666  11.496103404546851   5.002978606422314 
  8.712713377107166   5.030449091532273  11.673616748318732 
 -0.003250342525946  11.496103404546851   5.002978606422314 
  1.135179485383928   5.012771791386564   5.002978606422314 
 -0.023613461228773   7.191664989217382   5.002978606422314 
  6.523234325819459   4.857293899010971   5.002978606422314 
  4.978771382066038  11.532527301566843   5.002978606422314 
 11.233554969348404   5.023280120178146   5.002978606422314 
 -2.489385691032882   7.186233593708476  11.673616748318732 
  3.734107049002044   0.718638184805122  11.673616748318732 
  7.468073041253431   7.186188978364640  11.673616748318732 
  8.712815464980697   0.718634984486570  11.673616748318732 
 13.691641293683452   0.718612206452533  11.673616748318732 
 -0.000227589245714   1.437225397466969   1.667188414944244 
  3.734564217536344   7.904879207307204   1.667445033471494 
  4.978771382066833   1.437691202354691   1.675075966481173 
  8.712465660095887   7.904639391831849   1.675075966481173 
  9.957770353377454   1.437225397466969   1.667188414944244 
 -4.978930416974618  10.060704076019185   8.338034318103915 
  0.000159034908574  10.060704076019185   8.338034318103915 
  1.244414324116327   3.592957942681866   8.334314432487473 
  4.978771382066935  10.061054100654776   8.334314432487473 
  6.223722625110149   3.593530377302108   8.338512179372428 
 11.202368544617730   3.592932699701812   8.338768797900810 
 -2.489385691033300  10.060732491844131   1.665790534836581 
 -1.244825780485033   3.592932699701811   1.667188414944244 
  3.733820139022130   3.593530377302107   1.667445033471494 
  2.489610753938877  10.060861688347300   1.671875838662702 
  7.467932010194096  10.060861688347300   1.671875838662702 
  8.713128440016952   3.592957942681865   1.671642780356755 
 -6.223596300988464  12.216679992711896   8.338910493008147 
 -1.244637936888254  12.216755676279188   8.338034318103915 
  0.000000643998582   5.748730486894429   8.334081374181739 
  4.978771382066590   5.748989995339477   8.345242649575427 
  3.734173190824949  12.216811888849481   8.338768797900810 
  9.957542120133878   5.748730486894429   8.334081374181739 
 -2.489385691033048   5.748837490106300   1.667046719835961 
 -3.734133445177940  12.216755676279188   1.667922894740766 
  1.244824918922808  12.216679992711896   1.667046719835961 
  2.489612974492491   5.748560401408666   1.667445033471494 
  6.223369573304545  12.216811888849481   1.667188414944244 
  7.467929789640341   5.748560401408666   1.667445033471494 
 -1.244588719236480   7.904737723233414   8.338034318103915 
 -0.000227589245713   1.437225397466970   8.338768797900810 
  3.734564217536345   7.904879207307205   8.338512179372428 
  4.978771382066834   1.437691202354692   8.330881246362321 
  8.712465660095887   7.904639391831850   8.330881246362321 
 -3.734182662829987   7.904737723233414   1.667922894740766 
  9.957770353377454   1.437225397466970   8.338768797900810 
  2.489161272126562   1.437377810776624   1.671875838662702 
  1.245077104036859   7.904639391831849   1.675075966481173 
  6.222978546596177   7.904879207307204   1.667445033471494 
  7.468381492006670   1.437377810776624   1.671875838662702 
  1.245077104036860   7.904639391831850   8.330881246362321 
 12.446928455166319   1.437247498834911   1.665210217753138 
 -2.489385691033300  10.060732491844131   8.340166678007366 
 -1.244825780485033   3.592932699701812   8.338768797900810 
  3.733820139022131   3.593530377302108   8.338512179372428 
  2.489610753938877  10.060861688347300   8.334081374181739 
  7.467932010194096  10.060861688347300   8.334081374181739 
  8.713128440016952   3.592957942681866   8.334314432487473 
 -4.978930416974619  10.060704076019185   1.667922894740766 
  0.000159034908574  10.060704076019185   1.667922894740766 
  1.244414324116327   3.592957942681865   1.671642780356755 
  4.978771382066934  10.061054100654776   1.671642780356755 
  6.223722625110148   3.593530377302107   1.667445033471494 
 11.202368544617730   3.592932699701811   1.667188414944244 
 -2.489385691033048   5.748837490106301   8.338910493008147 
 -3.734133445177940  12.216755676279188   8.338034318103915 
  1.244824918922809  12.216679992711896   8.338910493008147 
  2.489612974492492   5.748560401408667   8.338512179372428 
  6.223369573304546  12.216811888849481   8.338768797900810 
 -6.223596300988465  12.216679992711896   1.667046719835961 
  7.467929789640342   5.748560401408667   8.338512179372428 
 -1.244637936888254  12.216755676279188   1.667922894740766 
  0.000000643998552   5.748730486894428   1.671875838662702 
 -1.244588719236480   7.904737723233414   1.667922894740766 
  4.978771382066589   5.748989995339476   1.660714563270120 
  3.734173190824949  12.216811888849481   1.667188414944244 
  9.957542120133878   5.748730486894428   1.671875838662702 
 -3.734182662829987   7.904737723233414   8.338034318103915 
  2.489161272126593   1.437377810776624   8.334081374181739 
  6.222978546596178   7.904879207307205   8.338512179372428 
  7.468381492006671   1.437377810776624   8.334081374181739 
 12.446928455166319   1.437247498834912   8.340746995091129 
  1.244572138114326   0.718526553231157   1.668012841101412 
  4.978771382066746   7.187262316513664   1.652237779885050 
  6.223495179248463   0.718694583344998   1.673386128165780 
  9.957496895986662   7.186175272280194   1.673386128165780 
 11.202306568727121   0.718664717660074   1.665237449965728 
 -3.734098250762957   9.342097360419821   8.339097808642967 
  1.244769665329736   9.342100130391762   8.332571084678461 
  2.489029743371878   2.874285884394889   8.332293935565680 
  6.223467351158919   9.342521558782270   8.332293935565680 
  7.468513020762895   2.874285884394889   8.332293935565680 
 12.446928455166686   2.874413061184885   8.340719762879154 
 -1.244673131303269   9.342097360419821   1.666859404201153 
 -0.000319422240354   2.874310579152954   1.668426556081418 
  4.978771382066491   2.874704286932808   1.675532550939168 
  3.734075412973425   9.342521558782270   1.673663277278001 
  8.712773098803352   9.342100130391762   1.673386128165780 
  9.957862186373305   2.874310579152954   1.668426556081418 
 -4.978769597382480  11.497978960292206   8.339714707107836 
 -0.000001784685386  11.497978960292206   8.339714707107836 
  1.244333774278132   5.030162542841453   8.332293935565680 
  6.224351749763600   5.029853834752377   8.353719432959231 
  4.978771382066077  11.498348827712119   8.337530656763557 
 11.202380137718063   5.030310308338108   8.337944371742935 
 -1.244837373584111   5.030310308338107   1.668012841101412 
 -2.489385691033239  11.498002754691253   1.666859404201153 
  2.489361870368062  11.498133124449113   1.668012841101412 
  3.733191014369442   5.029853834752376   1.652237779885050 
  7.468180893765596  11.498133124449113   1.668012841101412 
  8.713208989854641   5.030162542841452   1.673663277278001 
  0.000045868149009   7.186175272280195   8.332571084678461 
  1.244572138114326   0.718526553231158   8.337944371742935 
  4.978771382066747   7.187262316513665   8.353719432959231 
  6.223495179248464   0.718694583344998   8.332571084678461 
  9.957496895986662   7.186175272280195   8.332571084678461 
 -2.489385691033823   7.186239554952017   1.666242505736764 
 11.202306568727121   0.718664717660074   8.340719762879154 
  3.734047584884425   0.718694583344998   1.673386128165780 
  2.489566940851800   7.186132849542778   1.675532550939168 
  7.467975823281423   7.186132849542778   1.675532550939168 
  8.712970626018965   0.718526553231157   1.668012841101412 
  2.489566940851800   7.186132849542779   8.330424661904807 
 13.691550341605817   0.718664717660074   1.665237449965728 
 -1.244673131303269   9.342097360419821   8.339097808642967 
 -0.000319422240353   2.874310579152955   8.337530656763557 
  4.978771382066491   2.874704286932809   8.330424661904807 
  3.734075412973425   9.342521558782270   8.332293935565680 
  8.712773098803352   9.342100130391762   8.332571084678461 
  9.957862186373305   2.874310579152955   8.337530656763557 
 -3.734098250762957   9.342097360419821   1.666859404201153 
  1.244769665329735   9.342100130391762   1.673386128165780 
  2.489029743371877   2.874285884394888   1.673663277278001 
  6.223467351158918   9.342521558782270   1.673663277278001 
  7.468513020762894   2.874285884394888   1.673663277278001 
 12.446928455166686   2.874413061184884   1.665237449965728 
 -1.244837373584110   5.030310308338108   8.337944371742935 
 -2.489385691033239  11.498002754691253   8.339097808642967 
  2.489361870368062  11.498133124449113   8.337944371742935 
  3.733191014369443   5.029853834752377   8.353719432959231 
  7.468180893765597  11.498133124449113   8.337944371742935 
 -4.978769597382481  11.497978960292206   1.666242505736764 
  8.713208989854641   5.030162542841453   8.332293935565680 
 -0.000001784685386  11.497978960292206   1.666242505736764 
  1.244333774278131   5.030162542841452   1.673663277278001 
  0.000045868149009   7.186175272280194   1.673386128165780 
  6.224351749763599   5.029853834752376   1.652237779885050 
  4.978771382066076  11.498348827712119   1.668426556081418 
 11.202380137718063   5.030310308338107   1.668012841101412 
 -2.489385691033823   7.186239554952018   8.339714707107836 
  3.734047584884426   0.718694583344998   8.332571084678461 
  7.467975823281424   7.186132849542779   8.330424661904807 
  8.712970626018965   0.718526553231158   8.337944371742935 
 13.691550341605817   0.718664717660074   8.340719762879154 
 -0.012445132135837   1.426559983336602   5.002978606422314 
  3.664657028503638   8.040496210389156   5.002978606422314 
  4.978771382066295   1.407303912718768   5.002978606422314 
  8.738781824873811   7.919833036649838   5.002978606422314 
  9.969987896270235   1.426559983336602   5.002978606422314 
 -4.978734652133491  10.060756425044135  11.673616748318732 
 -0.000036729934062  10.060756425044135  11.673616748318732 
  1.244706187645322   3.593126450168235  11.673616748318732 
  4.978771382065276  10.060717085682068  11.673616748318732 
  6.223435809173512   3.593009726701898  11.673616748318732 
 11.202240792635152   3.593154401240132  11.673616748318732 
 -2.489385691033300  10.060732491844131   5.002978606422314 
 -1.260171071509396   3.587684704253226   5.002978606422314 
  3.651325963685424   3.465180474152074   5.002978606422314 
  2.452848757224348  10.114426695856345   5.002978606422314 
  7.504694006907891  10.114426695856345   5.002978606422314 
  8.757948317930406   3.567081174103479   5.002978606422314 
 -6.223431477411074  12.216584831775986  11.673616748318732 
 -1.244690483724425  12.216559964440382  11.673616748318732 
 -0.000047924962618   5.749040839648721  11.673616748318732 
  4.978771382066590   5.748989995339477  11.673616748318732 
  3.734045067655234  12.216590401616683  11.673616748318732 
  9.957590689095317   5.749040839648721  11.673616748318732 
 -2.489385691033555   5.754562613494099   5.002978606422314 
 -3.731896826863757  12.203550934591556   5.002978606422314 
  1.239866816630311  12.213817431018567   5.002978606422314 
  2.337211610123012   5.741293301477718   5.002978606422314 
  6.226497321440770  12.232725298427864   5.002978606422314 
  7.620331154009655   5.741293301477718   5.002978606422314 
 -1.244731937242683   7.904881086048504  11.673616748318732 
  0.000028285909864   1.437225183162304  11.673616748318732 
  3.733969912922563   7.904891142718561  11.673616748318732 
  4.978771382066557   1.437132561504331  11.673616748318732 
  8.712949457264447   7.904918712256999  11.673616748318732 
 -3.723865330235095   7.913277062354471   5.002978606422314 
  9.957514478223116   1.437225183162304  11.673616748318732 
  2.461153613226762   1.378758483974358   5.002978606422314 
  1.218760939259441   7.919833036649838   5.002978606422314 
  6.292885735628075   8.040496210389156   5.002978606422314 
  7.496389150905673   1.378758483974293   5.002978606422314 
  1.244593306868596   7.904918712256999  11.673616748318732 
 12.446928455166319   1.437247498834912   5.002978606422314 
 -2.489385691033299  10.060732491844133  11.673616748318732 
 -1.244698028501141   3.593154401240132  11.673616748318732 
  3.734106954961010   3.593009726701898  11.673616748318732 
  2.489317696087811  10.060748573924352  11.673616748318732 
  7.468225068044308  10.060748573924352  11.673616748318732 
  8.712836576487465   3.593126450168235  11.673616748318732 
 -4.966376466067077  10.065369478585593   5.002978606422314 
 -0.012394916000508  10.065369478585593   5.002978606422314 
  1.199594446202576   3.567081174103479   5.002978606422314 
  4.978771382066911  10.112807637811562   5.002978606422314 
  6.306216800447629   3.465180474152074   5.002978606422314 
 11.217713835642705   3.587684704253226   5.002978606422314 
 -2.489385691033338   5.749027811981219  11.673616748318732 
 -3.734080898341440  12.216559964440382  11.673616748318732 
  1.244660095343834  12.216584831775986  11.673616748318732 
  2.489305485815498   5.749069116598323  11.673616748318732 
  6.223497696478276  12.216590401616683  11.673616748318732 
 -6.218638198695668  12.213817431018567   5.002978606422314 
  7.468237278317786   5.749069116598323  11.673616748318732 
 -1.246874555201809  12.203550934591556   5.002978606422314 
 -0.064769011614717   5.753784806187571   5.002978606422314 
 -1.254906051830490   7.913277062354471   5.002978606422314 
  3.731045442694741  12.232725298427864   5.002978606422314 
 10.022311775747699   5.753784806187571   5.002978606422314 
 -3.734039444825098   7.904881086048504  11.673616748318732 
  2.489405761015105   1.437180572445657  11.673616748318732 
  6.223572851212350   7.904891142718561  11.673616748318732 
  7.468137003116544   1.437180572445657  11.673616748318732 
 12.446928455166319   1.437247498834912  11.673616748318732 
Generated by cif2cell 2.0.0.  :  Failed to get author information, No journal information. Species order: Ge B N 
 1.0
 14.936314146199660   0.000000000000000   0.000000000000000
 -7.468157073099825  12.935227489513863   0.000000000000000
  0.000000000000001   0.000000000000001  13.341276283792837
 Ge B N 
   1 144 143
Cartesian
  4.978771382066589   5.748989995339477   5.002978606422314 
  1.222896400760490   0.695043451161529   5.002978606422314 
  4.978771382067672   7.532382187996477   5.002978606422314 
  6.230570609611600   0.695460144600890   5.002978606422314 
  9.981156225362041   7.191664989217382   5.002978606422314 
 11.208576148279034   0.722284461101197   5.002978606422314 
 -3.734074334430245   9.342111168521933  11.673616748318732 
  1.244691090702950   9.342076832224132  11.673616748318732 
  2.489525708191899   2.874571823280732  11.673616748318732 
  6.223467703231538   9.341949071205921  11.673616748318732 
  7.468017055940678   2.874571823280732  11.673616748318732 
 12.446928455165176   2.874518083599476  11.673616748318732 
 -1.251091878547312   9.345803225869219   5.002978606422314 
 -0.029918848860972   2.857221342226130   5.002978606422314 
  4.978771382066602   2.835681783117566   5.002978606422314 
  3.694559101078488   9.445747321621793   5.002978606422314 
  8.729356997817760   9.359844852199563   5.002978606422314 
  9.987461612993727   2.857221342226130   5.002978606422314 
 -4.978774759968467  11.497981940911522  11.673616748318732 
  0.000003377901960  11.497981940911522  11.673616748318732 
  1.244829387027085   5.030449091532273  11.673616748318732 
  6.223318817920272   5.030450198230082  11.673616748318732 
  4.978771382067076  11.497895174154969  11.673616748318732 
 11.202208652976738   5.030390466110715  11.673616748318732 
 -1.276012205212646   5.023280120178146   5.002978606422314 
 -2.489385691033231  11.490591023793014   5.002978606422314 
  2.479862776092722  11.528646414677668   5.002978606422314 
  3.434308438314553   4.857293899010971   5.002978606422314 
  7.477679988042013  11.528646414677668   5.002978606422314 
  8.822363278750622   5.012771791386564   5.002978606422314 
  0.000026757637420   7.186254968990291  11.673616748318732 
  1.244727299151609   0.718634984486570  11.673616748318732 
  4.978771382066576   7.186069589558266  11.673616748318732 
  6.223435715130504   0.718638184805122  11.673616748318732 
  9.957516006492950   7.186254968990291  11.673616748318732 
 -2.489385691033331   7.189990666439161   5.002978606422314 
 11.202215616648109   0.718612206452533  11.673616748318732 
  3.726972154521506   0.695460144600851   5.002978606422314 
  2.455772461228163   7.205644101451221   5.002978606422314 
  7.501770302903986   7.205644101451221   5.002978606422314 
  8.734646363372249   0.695043451161529   5.002978606422314 
  2.489469722880179   7.186188978364640  11.673616748318732 
 13.685280762054633   0.722284461101197   5.002978606422314 
 -1.244697047636473   9.342111168521933  11.673616748318732 
  0.000073453264963   2.874537405932346  11.673616748318732 
  4.978771382066289   2.874592029288764  11.673616748318732 
  3.734075060900237   9.341949071205921  11.673616748318732 
  8.712851673430022   9.342076832224132  11.673616748318732 
  9.957469310868824   2.874537405932346  11.673616748318732 
 -3.727679503520064   9.345803225869219   5.002978606422314 
  1.228185766317062   9.359844852199563   5.002978606422314 
  2.419391766373403   2.788450873008859   5.002978606422314 
  6.262983663058305   9.445747321621793   5.002978606422314 
  7.538150997760279   2.788450873008859   5.002978606422314 
 12.446928455165983   2.867173574302483   5.002978606422314 
 -1.244665888843919   5.030390466110715  11.673616748318732 
 -2.489385691033238  11.497975138489126  11.673616748318732 
  2.489378194070039  11.497944535421704  11.673616748318732 
  3.734223946212607   5.030450198230082  11.673616748318732 
  7.468164570061607  11.497944535421704  11.673616748318732 
 -4.975521039540666  11.496103404546851   5.002978606422314 
  8.712713377107166   5.030449091532273  11.673616748318732 
 -0.003250342525946  11.496103404546851   5.002978606422314 
  1.135179485383928   5.012771791386564   5.002978606422314 
 -0.023613461228773   7.191664989217382   5.002978606422314 
  6.523234325819459   4.857293899010971   5.002978606422314 
  4.978771382066038  11.532527301566843   5.002978606422314 
 11.233554969348404   5.023280120178146   5.002978606422314 
 -2.489385691032882   7.186233593708476  11.673616748318732 
  3.734107049002044   0.718638184805122  11.673616748318732 
  7.468073041253431   7.186188978364640  11.673616748318732 
  8.712815464980697   0.718634984486570  11.673616748318732 
 13.691641293683452   0.718612206452533  11.673616748318732 
 -0.000227589245714   1.437225397466969   1.667188414944244 
  3.734564217536344   7.904879207307204   1.667445033471494 
  4.978771382066833   1.437691202354691   1.675075966481173 
  8.712465660095887   7.904639391831849   1.675075966481173 
  9.957770353377454   1.437225397466969   1.667188414944244 
 -4.978930416974618  10.060704076019185   8.338034318103915 
  0.000159034908574  10.060704076019185   8.338034318103915 
  1.244414324116327   3.592957942681866   8.334314432487473 
  4.978771382066935  10.061054100654776   8.334314432487473 
  6.223722625110149   3.593530377302108   8.338512179372428 
 11.202368544617730   3.592932699701812   8.338768797900810 
 -2.489385691033300  10.060732491844131   1.665790534836581 
 -1.244825780485033   3.592932699701811   1.667188414944244 
  3.733820139022130   3.593530377302107   1.667445033471494 
  2.489610753938877  10.060861688347300   1.671875838662702 
  7.467932010194096  10.060861688347300   1.671875838662702 
  8.713128440016952   3.592957942681865   1.671642780356755 
 -6.223596300988464  12.216679992711896   8.338910493008147 
 -1.244637936888254  12.216755676279188   8.338034318103915 
  0.000000643998582   5.748730486894429   8.334081374181739 
  4.978771382066590   5.748989995339477   8.345242649575427 
  3.734173190824949  12.216811888849481   8.338768797900810 
  9.957542120133878   5.748730486894429   8.334081374181739 
 -2.489385691033048   5.748837490106300   1.667046719835961 
 -3.734133445177940  12.216755676279188   1.667922894740766 
  1.244824918922808  12.216679992711896   1.667046719835961 
  2.489612974492491   5.748560401408666   1.667445033471494 
  6.223369573304545  12.216811888849481   1.667188414944244 
  7.467929789640341   5.748560401408666   1.667445033471494 
 -1.244588719236480   7.904737723233414   8.338034318103915 
 -0.000227589245713   1.437225397466970   8.338768797900810 
  3.734564217536345   7.904879207307205   8.338512179372428 
  4.978771382066834   1.437691202354692   8.330881246362321 
  8.712465660095887   7.904639391831850   8.330881246362321 
 -3.734182662829987   7.904737723233414   1.667922894740766 
  9.957770353377454   1.437225397466970   8.338768797900810 
  2.489161272126562   1.437377810776624   1.671875838662702 
  1.245077104036859   7.904639391831849   1.675075966481173 
  6.222978546596177   7.904879207307204   1.667445033471494 
  7.468381492006670   1.437377810776624   1.671875838662702 
  1.245077104036860   7.904639391831850   8.330881246362321 
 12.446928455166319   1.437247498834911   1.665210217753138 
 -2.489385691033300  10.060732491844131   8.340166678007366 
 -1.244825780485033   3.592932699701812   8.338768797900810 
  3.733820139022131   3.593530377302108   8.338512179372428 
  2.489610753938877  10.060861688347300   8.334081374181739 
  7.467932010194096  10.060861688347300   8.334081374181739 
  8.713128440016952   3.592957942681866   8.334314432487473 
 -4.978930416974619  10.060704076019185   1.667922894740766 
  0.000159034908574  10.060704076019185   1.667922894740766 
  1.244414324116327   3.592957942681865   1.671642780356755 
  4.978771382066934  10.061054100654776   1.671642780356755 
  6.223722625110148   3.593530377302107   1.667445033471494 
 11.202368544617730   3.592932699701811   1.667188414944244 
 -2.489385691033048   5.748837490106301   8.338910493008147 
 -3.734133445177940  12.216755676279188   8.338034318103915 
  1.244824918922809  12.216679992711896   8.338910493008147 
  2.489612974492492   5.748560401408667   8.338512179372428 
  6.223369573304546  12.216811888849481   8.338768797900810 
 -6.223596300988465  12.216679992711896   1.667046719835961 
  7.467929789640342   5.748560401408667   8.338512179372428 
 -1.244637936888254  12.216755676279188   1.667922894740766 
  0.000000643998552   5.748730486894428   1.671875838662702 
 -1.244588719236480   7.904737723233414   1.667922894740766 
  4.978771382066589   5.748989995339476   1.660714563270120 
  3.734173190824949  12.216811888849481   1.667188414944244 
  9.957542120133878   5.748730486894428   1.671875838662702 
 -3.734182662829987   7.904737723233414   8.338034318103915 
  2.489161272126593   1.437377810776624   8.334081374181739 
  6.222978546596178   7.904879207307205   8.338512179372428 
  7.468381492006671   1.437377810776624   8.334081374181739 
 12.446928455166319   1.437247498834912   8.340746995091129 
  1.244572138114326   0.718526553231157   1.668012841101412 
  4.978771382066746   7.187262316513664   1.652237779885050 
  6.223495179248463   0.718694583344998   1.673386128165780 
  9.957496895986662   7.186175272280194   1.673386128165780 
 11.202306568727121   0.718664717660074   1.665237449965728 
 -3.734098250762957   9.342097360419821   8.339097808642967 
  1.244769665329736   9.342100130391762   8.332571084678461 
  2.489029743371878   2.874285884394889   8.332293935565680 
  6.223467351158919   9.342521558782270   8.332293935565680 
  7.468513020762895   2.874285884394889   8.332293935565680 
 12.446928455166686   2.874413061184885   8.340719762879154 
 -1.244673131303269   9.342097360419821   1.666859404201153 
 -0.000319422240354   2.874310579152954   1.668426556081418 
  4.978771382066491   2.874704286932808   1.675532550939168 
  3.734075412973425   9.342521558782270   1.673663277278001 
  8.712773098803352   9.342100130391762   1.673386128165780 
  9.957862186373305   2.874310579152954   1.668426556081418 
 -4.978769597382480  11.497978960292206   8.339714707107836 
 -0.000001784685386  11.497978960292206   8.339714707107836 
  1.244333774278132   5.030162542841453   8.332293935565680 
  6.224351749763600   5.029853834752377   8.353719432959231 
  4.978771382066077  11.498348827712119   8.337530656763557 
 11.202380137718063   5.030310308338108   8.337944371742935 
 -1.244837373584111   5.030310308338107   1.668012841101412 
 -2.489385691033239  11.498002754691253   1.666859404201153 
  2.489361870368062  11.498133124449113   1.668012841101412 
  3.733191014369442   5.029853834752376   1.652237779885050 
  7.468180893765596  11.498133124449113   1.668012841101412 
  8.713208989854641   5.030162542841452   1.673663277278001 
  0.000045868149009   7.186175272280195   8.332571084678461 
  1.244572138114326   0.718526553231158   8.337944371742935 
  4.978771382066747   7.187262316513665   8.353719432959231 
  6.223495179248464   0.718694583344998   8.332571084678461 
  9.957496895986662   7.186175272280195   8.332571084678461 
 -2.489385691033823   7.186239554952017   1.666242505736764 
 11.202306568727121   0.718664717660074   8.340719762879154 
  3.734047584884425   0.718694583344998   1.673386128165780 
  2.489566940851800   7.186132849542778   1.675532550939168 
  7.467975823281423   7.186132849542778   1.675532550939168 
  8.712970626018965   0.718526553231157   1.668012841101412 
  2.489566940851800   7.186132849542779   8.330424661904807 
 13.691550341605817   0.718664717660074   1.665237449965728 
 -1.244673131303269   9.342097360419821   8.339097808642967 
 -0.000319422240353   2.874310579152955   8.337530656763557 
  4.978771382066491   2.874704286932809   8.330424661904807 
  3.734075412973425   9.342521558782270   8.332293935565680 
  8.712773098803352   9.342100130391762   8.332571084678461 
  9.957862186373305   2.874310579152955   8.337530656763557 
 -3.734098250762957   9.342097360419821   1.666859404201153 