B N Si                                  
   1.0000000000000000     
     8.7639499999999995  -15.1796066749929999    0.0000000000000000
     8.7639499999999995   15.1796066749929999    0.0000000000000000
     0.0000000000000000    0.0000000000000000   15.0000000000000000
   B    N    Si
    48    48     1
Selective dynamics
Direct
  0.9055330155096678  0.9532353760790463  0.1202231119746613   T   T   T
  0.9044290095837221  0.0956966603409494  0.1206289453316671   T   T   T
  0.9040484795576212  0.2385596884612063  0.1187466585313191   T   T   T
  0.9040706197940037  0.3813943862342953  0.1168412696626191   T   T   T
  0.9046966034254850  0.5241836705083454  0.1160012872341745   T   T   T
  0.9062301915694928  0.6673354573630373  0.1158915660043504   T   T   T
  0.9068801256330753  0.8109799240432897  0.1173874507670090   T   T   T
  0.0480300812509954  0.9521159094636669  0.1239244632719284   T   T   T
  0.0468734265097591  0.0946066526413165  0.1196595203730145   T   T   T
  0.0465449966171599  0.2377021229193149  0.1139213627941584   T   T   T
  0.0469762868124317  0.3807710766499600  0.1118110908488069   T   T   T
  0.0480229166036634  0.5235687120916425  0.1146607797535786   T   T   T
  0.0486665801132696  0.6663566403749119  0.1199422867245482   T   T   T
  0.0486890392651972  0.8093295203660803  0.1236268251033800   T   T   T
  0.1908041417594285  0.9514630388000254  0.1232432288943340   T   T   T
  0.1891422532336003  0.0932741131540951  0.1169891051329797   T   T   T
  0.1878273455882763  0.2354978029149387  0.1069946763829366   T   T   T
  0.1889511553958417  0.3795687814149008  0.1017492245058717   T   T   T
  0.1912918312952893  0.5228622849409504  0.1047545636242262   T   T   T
  0.1917574980302565  0.6657736281616634  0.1133775095790455   T   T   T
  0.1914713711368028  0.8086757945119059  0.1215004478566431   T   T   T
  0.3337667756331094  0.9514748289112579  0.1192305276991840   T   T   T
  0.3327691179254038  0.0938954298708411  0.1151206491917348   T   T   T
  0.3295622482594905  0.2336505743656889  0.1037305124948292   T   T   T
  0.3282055170276225  0.3760549511776008  0.0938539080433415   T   T   T
  0.3348559495125538  0.5213167463519220  0.0934326741944586   T   T   T
  0.3350736384976694  0.6651211342414342  0.1019435536023969   T   T   T
  0.3343608011051291  0.8083868679816204  0.1133383177488187   T   T   T
  0.4765781364140007  0.9521131946109039  0.1149913962432029   T   T   T
  0.4759522450293864  0.0954373526611697  0.1153908144667107   T   T   T
  0.4748240590677653  0.2383504988574802  0.1070076841212698   T   T   T
  0.4685074069843428  0.3763489260232520  0.0957046838150069   T   T   T
  0.4788997837164938  0.6653541931383741  0.0934060798320386   T   T   T
  0.4773127492170781  0.8088585572586482  0.1053620935822579   T   T   T
  0.6193599334921138  0.9531160102968725  0.1135798711187341   T   T   T
  0.6187607235651772  0.0960695606356082  0.1177081985101485   T   T   T
  0.6181681154273958  0.2393819580520097  0.1133092605440708   T   T   T
  0.6172809408336710  0.3828851150137456  0.1044632742197609   T   T   T
  0.6238585762613573  0.5316785928053387  0.0953153604697447   T   T   T
  0.6241751981261999  0.6720078904231802  0.0933345805104248   T   T   T
  0.6206012991208208  0.8112016883546297  0.1025353696892724   T   T   T
  0.7624230271357701  0.9535471832030789  0.1155076218158787   T   T   T
  0.7615768158044780  0.0960795803717450  0.1200156039129567   T   T   T
  0.7611235825598439  0.2390434416935971  0.1185100099041851   T   T   T
  0.7607696368155643  0.3819982932911413  0.1134527185178891   T   T   T
  0.7617918024624193  0.5253199678041364  0.1073749244328272   T   T   T
  0.7665427256855883  0.6705894581110826  0.1036206482162217   T   T   T
  0.7646637563822652  0.8123115837768369  0.1074633112295426   T   T   T
  0.9533014514362849  0.9055609428054655  0.1221514539078363   T   T   T
  0.9521236213417749  0.0480018018970235  0.1218395560266746   T   T   T
  0.9515982755165143  0.1907703641940437  0.1188177127419561   T   T   T
  0.9516991315578796  0.3337017679746308  0.1164568098326316   T   T   T
  0.9523765058890830  0.4765165714865562  0.1165500741141218   T   T   T
  0.9532904586388429  0.6192928313131122  0.1183273831449027   T   T   T
  0.9536808068130761  0.7624155100315341  0.1199515479688409   T   T   T
  0.0957596060074203  0.9043739300831120  0.1253368725998803   T   T   T
  0.0945431932693827  0.0468308102388961  0.1217807667587022   T   T   T
  0.0934644074627642  0.1892751309555128  0.1139524556494191   T   T   T
  0.0940450774270470  0.3327455597693192  0.1088794526534718   T   T   T
  0.0956541754616864  0.4759151032093237  0.1102018565055546   T   T   T
  0.0962874217162538  0.6186850582185922  0.1167054999980959   T   T   T
  0.0962344458580439  0.7614796372353347  0.1231697073508847   T   T   T
  0.2386550760645679  0.9039128761005318  0.1226870053994989   T   T   T
  0.2377003957531598  0.0464556618803276  0.1193732915196365   T   T   T
  0.2352008469568919  0.1874793455120786  0.1086126863349628   T   T   T
  0.2342049426480387  0.3299176592147808  0.0990966322171503   T   T   T
  0.2386501258869193  0.4748518608661361  0.0986039135076686   T   T   T
  0.2394565274632733  0.6181244119359585  0.1061783075689886   T   T   T
  0.2391341656408301  0.7609999548194614  0.1166886815001719   T   T   T
  0.3814481048396785  0.9038703797761692  0.1163932020447233   T   T   T
  0.3808394206862603  0.0468491026773006  0.1172196477177176   T   T   T
  0.3795676069420238  0.1888279448767618  0.1081392635607353   T   T   T
  0.3748732527333468  0.3274560724723887  0.0954025465221569   T   T   T
  0.3791730282438984  0.4700715655043005  0.0895622519597759   T   T   T
  0.3829654189247838  0.6172296552278410  0.0943768306840207   T   T   T
  0.3820298570863143  0.7607004079966040  0.1063615760757254   T   T   T
  0.5242425410998925  0.9044738991935194  0.1113001330660064   T   T   T
  0.5236375307594789  0.0477823628489445  0.1167188560180742   T   T   T
  0.5229324846586797  0.1911583646346671  0.1119211082497005   T   T   T
  0.5215603878327343  0.3347307432399980  0.1016251538257545   T   T   T
  0.5301472312788619  0.6210425086604578  0.0890991553118628   T   T   T
  0.5253378131249514  0.7615186797673882  0.0990617619339901   T   T   T
  0.6673855510943647  0.9060402213957003  0.1106415632184771   T   T   T
  0.6664209111803098  0.0484113365443730  0.1183980590972409   T   T   T
  0.6658562254468525  0.1915995676434323  0.1174050962985912   T   T   T
  0.6651361301370705  0.3350046283707745  0.1105789245739239   T   T   T
  0.6654317139454725  0.4786091290251653  0.1016284113906305   T   T   T
  0.6727866080807364  0.6253260166411763  0.0946643706298137   T   T   T
  0.6702819011868231  0.7659668726784703  0.0991962376545446   T   T   T
  0.8108420810208699  0.9066144954468527  0.1151126906042401   T   T   T
  0.8093516111215941  0.0485144441981962  0.1202331097992341   T   T   T
  0.8088149353662839  0.1913318108616305  0.1204747319271494   T   T   T
  0.8085522223048206  0.3343042267531016  0.1171035985556143   T   T   T
  0.8089757161972996  0.4772205231880121  0.1125399084826162   T   T   T
  0.8113174817606115  0.6205753208199974  0.1085532205371440   T   T   T
  0.8126801238323131  0.7649316079255787  0.1088015200108291   T   T   T
  0.4935019919825491  0.5066884218591325  0.0867918988644831   T   T   T

  0.00000000E+00  0.00000000E+00  0.00000000E+00
  0.00000000E+00  0.00000000E+00  0.00000000E+00
  0.00000000E+00  0.00000000E+00  0.00000000E+00
  0.00000000E+00  0.00000000E+00  0.00000000E+00
  0.00000000E+00  0.00000000E+00  0.00000000E+00
  0.00000000E+00  0.00000000E+00  0.00000000E+00
  0.00000000E+00  0.00000000E+00  0.00000000E+00
  0.00000000E+00  0.00000000E+00  0.00000000E+00
  0.00000000E+00  0.00000000E+00  0.00000000E+00
  0.00000000E+00  0.00000000E+00  0.00000000E+00
  0.00000000E+00  0.00000000E+00  0.00000000E+00
  0.00000000E+00  0.00000000E+00  0.00000000E+00
  0.00000000E+00  0.00000000E+00  0.00000000E+00
  0.00000000E+00  0.00000000E+00  0.00000000E+00
  0.00000000E+00  0.00000000E+00  0.00000000E+00
  0.00000000E+00  0.00000000E+00  0.00000000E+00
  0.00000000E+00  0.00000000E+00  0.00000000E+00
  0.00000000E+00  0.00000000E+00  0.00000000E+00
  0.00000000E+00  0.00000000E+00  0.00000000E+00
  0.00000000E+00  0.00000000E+00  0.00000000E+00
  0.00000000E+00  0.00000000E+00  0.00000000E+00
  0.00000000E+00  0.00000000E+00  0.00000000E+00
  0.00000000E+00  0.00000000E+00  0.00000000E+00
  0.00000000E+00  0.00000000E+00  0.00000000E+00
  0.00000000E+00  0.00000000E+00  0.00000000E+00
  0.00000000E+00  0.00000000E+00  0.00000000E+00
  0.00000000E+00  0.00000000E+00  0.00000000E+00
  0.00000000E+00  0.00000000E+00  0.00000000E+00
  0.00000000E+00  0.00000000E+00  0.00000000E+00
  0.00000000E+00  0.00000000E+00  0.00000000E+00
  0.00000000E+00  0.00000000E+00  0.00000000E+00
  0.00000000E+00  0.00000000E+00  0.00000000E+00
  0.00000000E+00  0.00000000E+00  0.00000000E+00
  0.00000000E+00  0.00000000E+00  0.00000000E+00
  0.00000000E+00  0.00000000E+00  0.00000000E+00
  0.00000000E+00  0.00000000E+00  0.00000000E+00
  0.00000000E+00  0.00000000E+00  0.00000000E+00
  0.00000000E+00  0.00000000E+00  0.00000000E+00
  0.00000000E+00  0.00000000E+00  0.00000000E+00
  0.00000000E+00  0.00000000E+00  0.00000000E+00
  0.00000000E+00  0.00000000E+00  0.00000000E+00
  0.00000000E+00  0.00000000E+00  0.00000000E+00
  0.00000000E+00  0.00000000E+00  0.00000000E+00
  0.00000000E+00  0.00000000E+00  0.00000000E+00
  0.00000000E+00  0.00000000E+00  0.00000000E+00
  0.00000000E+00  0.00000000E+00  0.00000000E+00
  0.00000000E+00  0.00000000E+00  0.00000000E+00
  0.00000000E+00  0.00000000E+00  0.00000000E+00
  0.00000000E+00  0.00000000E+00  0.00000000E+00
  0.00000000E+00  0.00000000E+00  0.00000000E+00
  0.00000000E+00  0.00000000E+00  0.00000000E+00
  0.00000000E+00  0.00000000E+00  0.00000000E+00
  0.00000000E+00  0.00000000E+00  0.00000000E+00
  0.00000000E+00  0.00000000E+00  0.00000000E+00
  0.00000000E+00  0.00000000E+00  0.00000000E+00
  0.00000000E+00  0.00000000E+00  0.00000000E+00
  0.00000000E+00  0.00000000E+00  0.00000000E+00
  0.00000000E+00  0.00000000E+00  0.00000000E+00
  0.00000000E+00  0.00000000E+00  0.00000000E+00
  0.00000000E+00  0.00000000E+00  0.00000000E+00
  0.00000000E+00  0.00000000E+00  0.00000000E+00
  0.00000000E+00  0.00000000E+00  0.00000000E+00
  0.00000000E+00  0.00000000E+00  0.00000000E+00
  0.00000000E+00  0.00000000E+00  0.00000000E+00
  0.00000000E+00  0.00000000E+00  0.00000000E+00
  0.00000000E+00  0.00000000E+00  0.00000000E+00
  0.00000000E+00  0.00000000E+00  0.00000000E+00
  0.00000000E+00  0.00000000E+00  0.00000000E+00
  0.00000000E+00  0.00000000E+00  0.00000000E+00
  0.00000000E+00  0.00000000E+00  0.00000000E+00
  0.00000000E+00  0.00000000E+00  0.00000000E+00
  0.00000000E+00  0.00000000E+00  0.00000000E+00
  0.00000000E+00  0.00000000E+00  0.00000000E+00
  0.00000000E+00  0.00000000E+00  0.00000000E+00
  0.00000000E+00  0.00000000E+00  0.00000000E+00
  0.00000000E+00  0.00000000E+00  0.00000000E+00
  0.00000000E+00  0.00000000E+00  0.00000000E+00
  0.00000000E+00  0.00000000E+00  0.00000000E+00
  0.00000000E+00  0.00000000E+00  0.00000000E+00
  0.00000000E+00  0.00000000E+00  0.00000000E+00
  0.00000000E+00  0.00000000E+00  0.00000000E+00
  0.00000000E+00  0.00000000E+00  0.00000000E+00
  0.00000000E+00  0.00000000E+00  0.00000000E+00
  0.00000000E+00  0.00000000E+00  0.00000000E+00
  0.00000000E+00  0.00000000E+00  0.00000000E+00
  0.00000000E+00  0.00000000E+00  0.00000000E+00
  0.00000000E+00  0.00000000E+00  0.00000000E+00
  0.00000000E+00  0.00000000E+00  0.00000000E+00
  0.00000000E+00  0.00000000E+00  0.00000000E+00
  0.00000000E+00  0.00000000E+00  0.00000000E+00
  0.00000000E+00  0.00000000E+00  0.00000000E+00
  0.00000000E+00  0.00000000E+00  0.00000000E+00
  0.00000000E+00  0.00000000E+00  0.00000000E+00
  0.00000000E+00  0.00000000E+00  0.00000000E+00
  0.00000000E+00  0.00000000E+00  0.00000000E+00
  0.00000000E+00  0.00000000E+00  0.00000000E+00
  0.00000000E+00  0.00000000E+00  0.00000000E+00
