 N B Si 
 1.0
 17.527899999999772   0.000000000000000   0.000000000000000
 -8.763949999999658  15.179606674993195   0.000000000000000
  0.000000000000001   0.000000000000002  15.000000000000000
 N B Si 
  48  48   1
Cartesian
  8.773081685930187  13.746058932022983   1.832271808617540 
 16.268042230780871   0.728648472487767   1.827593340400125 
 15.007617480147360   2.895819093710793   1.782265691129340 
 13.756741598591994   5.065461584604740   1.746852147489480 
 12.516992750893600   7.233334129282198   1.748251111711830 
 11.281728420989221   9.400621595975949   1.774910747173545 
 10.034250404598094  11.573167565193014   1.799273219532615 
 -6.247423106414145  13.728040545779436   1.880053088998200 
  1.246720757913240   0.710873279697686   1.826711501380530 
 -0.020562996370944   2.873122041262516   1.709286834741285 
 -1.267752735906694   5.050946720148702   1.633191789802080 
 -2.494279346696328   7.224204077406331   1.653027847583325 
 -3.734408616874312   9.391395839453493   1.750582499971440 
 -4.986781723193166  11.558961384248887   1.847545610263275 
 -3.738724942748862  13.721041927667931   1.840305080992485 
  3.759253668785674   0.705178675169854   1.790599372794555 
  2.479517315275133   2.845862724558510   1.629190295024445 
  1.213738944765242   5.008020302014820   1.486449483257250 
  0.021457575495663   7.208064476836539   1.479058702615035 
 -1.220041372262480   9.382885449399312   1.592674613534835 
 -2.477845812103905  11.551679993847010   1.750330222502580 
 -1.235490578019725  13.720396850178970   1.745898030670845 
  6.264732088437894   0.711150951717800   1.758294715765770 
  4.998144390216383   2.866333932476544   1.622088953411025 
  3.700932240240465   4.970654383468932   1.431038197832355 
  2.526423225254874   7.135501473453589   1.343433779396640 
  1.303209729437808   9.369303394500283   1.415652460260315 
  0.029440791361537  11.547132990895298   1.595423641135875 
  1.262106807307963  13.729558037555062   1.669501995990090 
  8.759504036508968   0.725317474048777   1.750782840271110 
  7.490605948108835   2.901708787789175   1.678816623745515 
  6.208294824675192   5.081081024411307   1.524377307386325 
  3.849582161358035   9.427181009916806   1.336487329677945 
  2.534157021125568  11.559554034529048   1.485926429009850 
  3.757376002726234  13.753334192510479   1.659623448277155 
 11.256684556169162   0.734865047354307   1.775970886458615 
  9.991892303161151   2.908406075926051   1.761076444478865 
  8.722475762619483   5.085238492970616   1.658683868608860 
  7.469114062544772   7.265098329663074   1.524426170859465 
  6.312210444235957   9.492202976253301   1.419965559447210 
  5.035738762002146  11.627075853333766   1.487943564818175 
  6.266834804554384  13.762051446730638   1.726690359063600 
 13.761055941347241   0.736430180984521   1.803496646988510 
 12.500004881805779   2.904341633293750   1.807120978907235 
 11.242396969283753   5.074606671899826   1.756553978334210 
  9.997308651741054   7.244019839228492   1.688098627239240 
  8.782000605651428   9.420089282255271   1.628298308057160 
  7.540753577241097  11.611360941580397   1.632022800162435 
  7.517984968364075  14.469738077569135   1.803346679619915 
 15.014060490687285   1.452637664086026   1.809434179975005 
 13.755346163148314   3.621242239350020   1.781199877969785 
 12.503938085449196   5.789416771087037   1.752619044939285 
 11.263512116029920   7.956901943770908   1.740019308512610 
 10.035817593254150  10.129889763047593   1.738373490065250 
  8.788316648764855  12.310356268292999   1.760811761505135 
 -7.502429763584475  14.452745014661897   1.858866949078920 
 -0.007535240895435   1.436091775932883   1.794892805595210 
 -1.267373473952741   3.608224731726087   1.708820441912370 
 -2.513663019586671   5.779955176760079   1.677166362732105 
 -3.746789134398033   7.947567116883880   1.719911696303685 
 -4.986893328846109  10.115031706161055   1.799134300868220 
 -6.239506838675595  12.285303789617990   1.854402376550700 
 -4.994178582546102  14.442834694778169   1.848648433415010 
  2.497816836476375   1.415864350637971   1.754836576994700 
  1.228327960880401   3.574764021073840   1.604920145744055 
 -0.014604865218256   5.761704807984665   1.526238367588080 
 -1.229394832347408   7.936843830591839   1.571318454363390 
 -2.473700538802699  10.106181810077217   1.700662643685675 
 -3.731103183163616  12.275380488278353   1.822506717849645 
 -2.488447160217000  14.443013664029341   1.788457915487760 
  5.009848969468088   1.425295694018774   1.726809737876025 
  3.728832180055339   3.546723818257407   1.555957687422435 
  2.457026692535591   5.708366247059753   1.407808620650115 
  1.300527698270270   7.913383162709370   1.401490112916885 
  0.044048863788228  10.096277209010317   1.529153304035955 
 -1.224019405956728  12.270994697190641   1.700074766232285 
  0.009141485340951  14.452703804264774   1.724870943648045 
  7.506035168795639   1.448701475499176   1.730862217000665 
  6.233776770471838   3.618066823444961   1.605115261819050 
  4.913647808659409   5.712828669589076   1.435570257225105 
  2.562976638049401  10.099814951397972   1.401091197480585 
  1.277494184115262  12.278154754888739   1.580431403733870 
  2.503017919815331  14.467926151945296   1.703698066781010 
 10.003627260645521   1.458298143887939   1.765622977652235 
  8.737257399129883   3.633723968319232   1.699638908161065 
  7.464052599113773   5.812045447618196   1.566949113296415 
  6.275326135435127   8.070671916298913   1.429730407046175 
  5.051036903962080  10.200815459115798   1.400018707656375 
  3.768506474204413  12.313722563313691   1.538030545339080 
  5.006834741100590  14.474471187070417   1.732614327238185 
 12.506805631340214   1.458450239541486   1.800234058694355 
 11.245933271919998   3.628585423145472   1.777650148562775 
  9.986880174650585   5.798583842678212   1.701790777768335 
  8.748732602543981   7.974150489786874   1.610623866492405 
  7.558871760131845  10.179284214523065   1.554309723243330 
  6.283891750851795  12.330570339273169   1.611949668443145 
  4.209461570518632   7.691330950594663   1.301878482967245 
