 B N Si 
 1.0
 17.527899999999772   0.000000000000000   0.000000000000000
 -8.763949999999658  15.179606674993195   0.000000000000000
  0.000000000000001   0.000000000000002  15.000000000000000
 B N Si 
  48  49   1
Cartesian
  7.517716633826915  14.467044255390491   1.624284650294235 
 15.023241456492126   1.446082960387288   1.632112003365570 
 13.770744779261156   3.610542536958128   1.641067707236010 
 12.528615413980345   5.785584051769348   1.630256166199095 
 11.287842588711859   7.953968613207207   1.624711970322180 
 10.017761089767507  10.127956019388936   1.641780125281500 
  8.772086581676916  12.297270885205958   1.637101778605380 
 -7.510437484179448  14.455908326553683   1.638873039144240 
 -0.006004537716431   1.435577080039833   1.624284643199220 
 -1.262968290600209   3.604100046015133   1.625616567474885 
 -2.513977642778138   5.780861488770827   1.627787527132800 
 -3.761456962950811   7.955228193638256   1.628552289473670 
 -5.003725616652429  10.126810645666492   1.642387330684515 
 -6.258161905356967  12.291545621355542   1.651906760006895 
 -5.009906495762749  14.453587818408971   1.651906737116925 
  2.500259112532778   1.434147406695263   1.637101716745425 
  1.227193477054223   3.580641042357616   1.641035382433140 
 -0.029790865492863   5.763349524600919   1.660130553224760 
 -1.285488687838162   7.955054425154477   1.647044579352840 
 -2.511274907999720  10.126360083603767   1.643183323725255 
 -3.759006160567850  12.290018150328793   1.653387297288900 
 -2.507972771119410  14.449581016870232   1.642387366894485 
  5.001778137526932   1.440019483818207   1.641780059626500 
  3.744697004858401   3.597169109690987   1.679402105752545 
  2.453278997141729   5.692765447820746   1.767022195290525 
  1.164274672981006   7.950538735615599   1.770616681004865 
 -0.018314970783777  10.130329168267574   1.683704797587225 
 -1.261357830140354  12.291279224601647   1.643183376720300 
 -0.006192468347926  14.459533861226831   1.628552369138685 
  7.519546965516131   1.427091600149879   1.624712100717180 
  6.276025667969492   3.579318938692966   1.644103865135100 
  5.029729041963416   5.713740713580057   1.830893597345790 
  2.460733817403447  10.196074057091705   1.770616688714970 
  1.231941724225314  12.315370931390131   1.647044665407855 
  2.500603991957634  14.466370002587400   1.627787558737815 
 10.017809432865267   1.436741038633417   1.630256182489095 
  8.779514493614769   3.604329631944295   1.614983096833530 
  7.550122842941710   5.760689877282093   1.663974143959485 
  6.330582801849435   7.966888501196428   1.830893518475760 
  5.060523807893341  10.208648182318182   1.767022190985480 
  3.757862515035062  12.323758417852019   1.660130488004715 
  5.011239095022281  14.471345377563274   1.625616600864810 
 12.522515861249488   1.448546047768756   1.641067743280980 
 11.278689119163843   3.608000840247948   1.635662801078340 
 10.032282779985644   5.774185921409259   1.614982970728545 
  8.802197668759066   7.954775086730454   1.644103745675145 
  7.521073018287996  10.138044894476792   1.679402235172530 
  6.276634885649888  12.326531485884564   1.641035419543080 
  8.766356232769899  13.738046760468329   1.631325400421220 
 16.272657505648706   0.724731970738731   1.625813534546715 
 15.015362871155640   2.889094985981265   1.634134353435150 
 13.764851845488259   5.059868891664398   1.634294432634570 
 12.524508683160207   7.227420543348809   1.626898498756530 
 11.271510429060516   9.396136030813620   1.634763978855615 
 10.020160037545555  11.568565632360425   1.643990143388160 
 -6.259064649301399  13.733428177995105   1.652719497988815 
  1.249645452578693   0.718722189492008   1.631325497876175 
 -0.017866868820732   2.874033202650265   1.620186636651795 
 -1.271594493704556   5.050406438012508   1.627757263772910 
 -2.522204936496300   7.226615695109358   1.625815445889735 
 -3.759695826551852   9.399242861996463   1.635928989973170 
 -5.007567006681642  11.566647627024604   1.654674633292875 
 -3.756829167377849  13.732989069053707   1.654674646672890 
  3.755373105036458   0.717637568490578   1.643990032043205 
  2.496358663659208   2.879317882501664   1.643002751088015 
  1.208190643143121   5.016508347322723   1.675118009725860 
 -0.049612032481497   7.220405586773174   1.677001164361680 
 -1.262431085716569   9.400615276855575   1.652926876805385 
 -2.508645267371717  11.568121341372068   1.646837565693210 
 -1.255865965459086  13.736002019037844   1.635929052223215 
  6.262427643416888   0.720150867275790   1.634764095075615 
  5.009249784421609   2.880025214146863   1.651894570099605 
  3.739060590599748   5.041420535254101   1.762794968345985 
  2.362536136605142   7.145134181227466   1.876186196355600 
  1.240373621352295   9.403625934018988   1.757028051848670 
 -0.008421670768711  11.572622337090086   1.652926946120400 
  1.244431135696981  13.750616595299869   1.625815652559720 
  8.767089051000470   0.719378938646378   1.626898505431605 
  7.531066574928953   2.872219713676397   1.614839661010965 
  6.308631896185087   5.008565935340901   1.695764196012030 
  5.157607925449479   7.142007616622418   1.917516722869530 
  3.757364695475740   9.561048806929074   1.876186220025615 
  2.486104296683564  11.612397340397838   1.677001122121650 
  3.754388549294440  13.755663116800511   1.627757230577910 
 11.264386424988496   0.728985962488222   1.634294410614645 
 10.024382086292359   2.886593050413719   1.627041963553245 
  8.789304079260063   5.045249029459667   1.611375923806290 
  7.580734741271154   7.211914270458521   1.695763890027030 
  6.267495771466568   9.420800672144269   1.762795007870955 
  5.023635461570717  11.625055389428150   1.675117902760875 
  6.266045787111778  13.758089269494523   1.620186642291870 
 13.769617046024077   0.731399431596053   1.634134498740150 
 12.520820752122274   2.890855296664993   1.647909343127535 
 11.276293827816774   5.054966185896917   1.627041874453320 
 10.042085829245234   7.221428478535527   1.614839353345920 
  8.774415130985801   9.401482367472006   1.651894800394635 
  7.518581206319476  11.578063394671954   1.643002920527940 
  3.763959803466840   7.946631331279823   1.992068210460945 
