 B P N 
 1.0
 14.936314146199660   0.000000000000000   0.000000000000000
 -7.468157073099825  12.935227489513863   0.000000000000000
  0.000000000000001   0.000000000000001  13.341276283792837
 B P N 
 143   1 143
Cartesian
  1.286882322397866   0.744496235389343   5.002978606422314 
  4.831069524588840   7.221503001213878   5.002978606422314 
  6.244954406292570   0.689538304387966   5.002978606422314 
  9.921547973344936   7.172843594607351   5.002978606422314 
 11.237585311653008   0.739032909384808   5.002978606422314 
 -3.734200389608020   9.342038390530751  11.673616748318732 
  1.244801285713010   9.341604326298516  11.673616748318732 
  2.489976841167868   2.875045480159800  11.673616748318732 
  6.223278073473971   9.341257187494897  11.673616748318732 
  7.467306491302142   2.874991751261414  11.673616748318732 
 12.446991692402371   2.874678806709067  11.673616748318732 
 -1.258974690828065   9.343661033965017   5.002978606422314 
  0.071380384450858   2.915706481847272   5.002978606422314 
  5.021615787735256   2.818943483783486   5.002978606422314 
  3.709787397498829   9.419075727682754   5.002978606422314 
  8.683253065941603   9.317633288983734   5.002978606422314 
  9.991415823297077   2.878101743258833   5.002978606422314 
 -4.978756043932313  11.497995341512057  11.673616748318732 
 -0.000187762426848  11.497871585991257  11.673616748318732 
  1.245465152404691   5.030602955710982  11.673616748318732 
  6.222563896403197   5.030671615618203  11.673616748318732 
  4.978739600138304  11.497394334194938  11.673616748318732 
 11.202006335429994   5.030555484385049  11.673616748318732 
 -1.201191876965256   5.053967161687557   5.002978606422314 
 -2.495182289782667  11.484835404057133   5.002978606422314 
  2.497325518135567  11.531026582147387   5.002978606422314 
  7.476656234609738  11.500339650039448   5.002978606422314 
  8.683204413582640   5.014487537794597   5.002978606422314 
  0.000365830263282   7.186088008410848  11.673616748318732 
  1.245024919177165   0.718841986229068  11.673616748318732 
  4.978585674390998   7.185305099652544  11.673616748318732 
  6.223081610500302   0.718969869446374  11.673616748318732 
  9.957173273664480   7.186197175559888  11.673616748318732 
 -2.503288057506535   7.188090770138020   5.002978606422314 
 11.202063047795676   0.718524120784563  11.673616748318732 
  3.749372233741537   0.704578953300496   5.002978606422314 
  2.462698871623425   7.251117594836677   5.002978606422314 
  7.394430607200602   7.143671499241072   5.002978606422314 
  8.745439019887760   0.708976545655418   5.002978606422314 
  2.489776026567957   7.185693879205319  11.673616748318732 
 13.734624386517307   0.747021902926722   5.002978606422314 
 -1.244659904397246   9.341965058275235  11.673616748318732 
  0.000573820072389   2.874826292842979  11.673616748318732 
  4.978495765460806   2.875104845643325  11.673616748318732 
  3.734083446880919   9.341123740185981  11.673616748318732 
  8.712630256437766   9.341808913601641  11.673616748318732 
  9.957019679775939   2.874760301954458  11.673616748318732 
 -3.755969901506928   9.329469756975762   5.002978606422314 
  1.230249200595421   9.375262505635625   5.002978606422314 
  2.590609754078258   2.939150891129035   5.002978606422314 
  6.194890110448667   9.324374336023013   5.002978606422314 
  7.522666868058789   2.814974761536536   5.002978606422314 
 12.493023520443117   2.897537685688754   5.002978606422314 
 -1.244337810063420   5.030544711742118  11.673616748318732 
 -2.489493654598817  11.498080360600879  11.673616748318732 
  2.489240641947410  11.497529893694965  11.673616748318732 
  3.734478703492246   5.030597282413895  11.673616748318732 
  7.468206321306321  11.497686814148690  11.673616748318732 
 -4.984117581238388  11.485013550158516   5.002978606422314 
  8.712019373358263   5.030630809200262  11.673616748318732 
  0.002587790506352  11.499474052224398   5.002978606422314 
  1.351298523279285   5.085700909263590   5.002978606422314 
 -0.004516301632450   7.206504622518605   5.002978606422314 
  6.180154123817914   4.884819931640411   5.002978606422314 
  4.998831444953710  11.525511547624282   5.002978606422314 
 11.208528715355166   5.036546906020217   5.002978606422314 
 -2.489364727754711   7.186243101971661  11.673616748318732 
  3.734131993212829   0.719015310600693  11.673616748318732 
  7.467569615038920   7.185898325104777  11.673616748318732 
  8.712387598651231   0.718723181716234  11.673616748318732 
 13.691812102598497   0.718586609950629  11.673616748318732 
  0.000524574760739   1.437940404397007   1.669370499682749 
  3.735569943608136   7.902653488790977   1.668020319806864 
  4.978766122382453   1.440090515456523   1.670396897462597 
  8.710547642025148   7.903532023582137   1.669775274182291 
  9.957625582704075   1.437608235094731   1.668194237823964 
 -4.979579626421264  10.060562937310744   8.337397822106650 
  0.001127088786269  10.060419843891726   8.337260089999900 
  1.246108657572456   3.593936166558747   8.335112222283319 
  4.978507514197167  10.059633818303809   8.337527087577810 
  6.222297959369430   3.595514220887448   8.337936893037764 
 11.202140178223008   3.593107772610340   8.337415553669125 
 -2.489175286244170  10.060853969105757   1.668254793493068 
 -1.243830484317057   3.593226589375135   1.669370499682749 
  3.734185185230812   3.595919219408921   1.669354018823502 
  2.490499533673808  10.059871326387293   1.668775311739679 
  7.466911832473971  10.059848821640012   1.669110149750185 
  8.711766505485389   3.593439567579226   1.668430125266819 
 -6.223666075253325  12.217140032082005   8.336903115242915 
 -1.244400062192740  12.217736151593895   8.337260089999900 
  0.001914756089269   5.748322943816573   8.335165718305772 
  4.976924653215833   5.747923785940372   8.320931433802489 
  3.734432352600488  12.216495094952895   8.337762975020677 
  9.956154862974843   5.748353420425747   8.336847063094430 
 -2.489022172384963   5.748547044136628   1.669054097601714 
 -3.734091173762185  12.217990651579706   1.668891211796797 
  1.245226377284384  12.216911774806116   1.668349133196538 
  2.491864295546933   5.747682119645584   1.669354018823502 
  6.223407007694059  12.216526581295019   1.668541659175490 
  7.464779708827336   5.747694159031981   1.667637214052235 
 -1.243498063545464   7.904156843703324   8.337066001047830 
  0.000524574760739   1.437940404397007   8.336586713161878 
  3.735569943608137   7.902653488790977   8.337936893037764 
  4.978766122382454   1.440090515456524   8.335560315382018 
  8.710547642025148   7.903532023582138   8.336181938662323 
 -3.734629497260517   7.904246060714877   1.668559390737978 
  9.957625582704075   1.437608235094732   8.337762975020677 
  2.489765385513414   1.439239252011712   1.670791494538855 
  1.247152340292248   7.903435180261059   1.670396897462597 
  6.220653318285481   7.902584278487768   1.667637214052235 
  7.467968203257604   1.438642697585834   1.668775311739679 
  1.247152340292249   7.903435180261059   8.335560315382018 
 12.447276894004773   1.437448670092098   1.668156572004607 
 -2.489175286244169  10.060853969105757   8.337702419351560 
 -1.243830484317057   3.593226589375136   8.336586713161878 
  3.734185185230813   3.595919219408922   8.336603194021126 
  2.490499533673808  10.059871326387293   8.337181901104948 
  7.466911832473972  10.059848821640012   8.336847063094430 
  8.711766505485389   3.593439567579227   8.337527087577810 
 -4.979579626421264  10.060562937310744   1.668559390737978 
  0.001127088786269  10.060419843891726   1.668697122844742 
  1.246108657572456   3.593936166558746   1.670844990561321 
  4.978507514197166  10.059633818303809   1.668430125266819 
  6.222297959369429   3.595514220887447   1.668020319806864 
 11.202140178223008   3.593107772610339   1.668541659175490 
 -2.489022172384962   5.748547044136629   8.336903115242915 
 -3.734091173762185  12.217990651579706   8.337066001047830 
  1.245226377284384  12.216911774806116   8.337608079648078 
  2.491864295546934   5.747682119645585   8.336603194021126 
  6.223407007694060  12.216526581295019   8.337415553669125 
 -6.223666075253326  12.217140032082005   1.669054097601714 
  7.464779708827337   5.747694159031981   8.338319998792393 
 -1.244400062192740  12.217736151593895   1.668697122844742 
  0.001914756089269   5.748322943816572   1.670791494538855 
 -1.243498063545465   7.904156843703324   1.668891211796797 
  4.976924653215832   5.747923785940372   1.685025779042126 
  3.734432352600487  12.216495094952895   1.668194237823964 
  9.956154862974843   5.748353420425746   1.669110149750185 
 -3.734629497260517   7.904246060714878   8.337397822106650 
  2.489765385513415   1.439239252011712   8.335165718305772 
  6.220653318285482   7.902584278487769   8.338319998792393 
  7.467968203257605   1.438642697585834   8.337181901104948 
 12.447276894004773   1.437448670092098   8.337800640840008 
  4.405826264128461   5.418199977267006   5.002978606422314 
  1.244562158500091   0.718550103283822   1.666984663328162 
  4.978707978310755   7.187229878262574   1.653586452969615 
  6.223864718769462   0.718769782993038   1.666507970970061 
  9.957323307814365   7.186052815581111   1.666571641191411 
 11.202599705053242   0.718833959996663   1.665901983141180 
 -3.734165854842618   9.342058329186825   8.339722958121829 
  1.245019559896041   9.342382561180203   8.339449241874567 
  2.488822734739186   2.874157179751263   8.341137342592319 
  6.223250677161504   9.342316075923856   8.340759375863907 
  7.468672152886048   2.874297710368672   8.341690767658978 
 12.447025589041905   2.874498026034730   8.339692550057109 
 -1.244480879274965   9.342189844893575   1.666324964194510 
 -0.000308870869457   2.874316670990074   1.666725039377543 
  4.979063525632264   2.874490570036759   1.663657910543494 
  3.734165220628483   9.342653458257001   1.664266445185649 
  8.712580254103798   9.342011026976262   1.666571641191411 
  9.957960340852514   2.874403131303779   1.666024766900158 
 -4.978846479658118  11.498007842802039   8.339767528391747 
  0.000383411520268  11.498201353423369   8.339688602867884 
  1.244118808470372   5.030047620429329   8.341137342592319 
  6.224291955536024   5.029815144614681   8.352370759875011 
  4.978900611819613  11.498387555908954   8.339932445944470 
 11.202227163401815   5.030274308194735   8.339331933204420 
 -1.244821968447472   5.030289890712521   1.666984663328162 
 -2.489209471115765  11.498123007595517   1.666324964194510 
  2.489729010590326  11.498384984625988   1.666066865733197 
  3.732052330735767   5.029196415449779   1.645493297230596 
  7.468073229568473  11.498018644877321   1.666625279640206 
  8.712922699481267   5.030077639083238   1.665197836980707 
  0.000171927180465   7.186256892319139   8.339324194112450 
  1.244562158500091   0.718550103283822   8.338972549516454 
  4.978707978310756   7.187229878262575   8.352370759875011 
  6.223864718769463   0.718769782993038   8.339449241874567 
  9.957323307814365   7.186052815581112   8.339385571653217 
 -2.489399119182909   7.186158531690712   1.666189684452882 
 11.202599705053242   0.718833959996664   8.340055229703447 
  3.734181299426290   0.718762943650955   1.666633018732177 
  2.489527928373461   7.186492711740366   1.663657910543494 
  7.467879728411000   7.186077369143653   1.665180206250412 
  8.713372313441502   0.718718575901899   1.666066865733197 
  2.489527928373461   7.186492711740367   8.342299302301134 
 13.691672490261775   0.718706355638737   1.666264662787506 
 -1.244480879274965   9.342189844893575   8.339632248650130 
 -0.000308870869456   2.874316670990075   8.339232173467085 
  4.979063525632265   2.874490570036760   8.342299302301134 
  3.734165220628483   9.342653458257001   8.341690767658978 
  8.712580254103798   9.342011026976262   8.339385571653217 
  9.957960340852514   2.874403131303780   8.339932445944470 
 -3.734165854842618   9.342058329186825   1.666234254722786 
  1.245019559896041   9.342382561180203   1.666507970970061 
  2.488822734739185   2.874157179751262   1.664819870252296 
  6.223250677161503   9.342316075923856   1.665197836980707 
  7.468672152886047   2.874297710368671   1.664266445185649 
 12.447025589041905   2.874498026034729   1.666264662787506 
 -1.244821968447471   5.030289890712522   8.338972549516454 
 -2.489209471115764  11.498123007595517   8.339632248650130 
  2.489729010590327  11.498384984625988   8.339890347111432 
  3.732052330735767   5.029196415449780   8.360463915614030 
  7.468073229568474  11.498018644877321   8.339331933204420 
 -4.978846479658118  11.498007842802039   1.666189684452882 
  8.712922699481267   5.030077639083239   8.340759375863907 
  0.000383411520268  11.498201353423369   1.666268609976744 
  1.244118808470371   5.030047620429328   1.664819870252296 
  0.000171927180465   7.186256892319138   1.666633018732177 
  6.224291955536023   5.029815144614680   1.653586452969615 
  4.978900611819612  11.498387555908954   1.666024766900158 
 11.202227163401815   5.030274308194734   1.666625279640206 
 -2.489399119182908   7.186158531690713   8.339767528391747 
  3.734181299426291   0.718762943650956   8.339324194112450 
  7.467879728411001   7.186077369143654   8.340777006594216 
  8.713372313441502   0.718718575901900   8.339890347111432 
 13.691672490261775   0.718706355638738   8.339692550057109 
  0.044985719664735   1.468624864245855   5.002978606422314 
  3.667719423264893   8.023319084155032   5.002978606422314 
  5.002909803445626   1.386380082659610   5.002978606422314 
  8.663167503847852   7.876177088051210   5.002978606422314 
  9.989090664718489   1.441318795336245   5.002978606422314 
 -4.978774232066035  10.060706865190525  11.673616748318732 
 -0.000140311065169  10.060718328416096  11.673616748318732 
  1.244654411420177   3.593096557151252  11.673616748318732 
  4.978729439942599  10.060643909295942  11.673616748318732 
  6.223355603388979   3.593021598888359  11.673616748318732 
 11.202168940528797   3.593154323607062  11.673616748318732 
 -2.508346747600455  10.049785320730948   5.002978606422314 
 -1.195026390134553   3.616388840418915   5.002978606422314 
  3.854253062789824   3.617207805159150   5.002978606422314 
  2.467115428621519  10.114581738532562   5.002978606422314 
  7.450143186164886  10.053218521850443   5.002978606422314 
  8.742990953379369   3.574537142241546   5.002978606422314 
 -6.223478958423355  12.216511538609060  11.673616748318732 
 -1.244775266937704  12.216489308863588  11.673616748318732 
 -0.000136176947287   5.749023026758177  11.673616748318732 
  4.978715786345443   5.748957897134899  11.673616748318732 
  3.733976239100857  12.216520352965006  11.673616748318732 
  9.957538738825024   5.749037712820720  11.673616748318732 
 -2.475113974593701   5.753871531987778   5.002978606422314 
 -3.738065103801028  12.198720031539091   5.002978606422314 
  1.252386320003835  12.221045569662573   5.002978606422314 
  2.570334690396773   5.841019658915068   5.002978606422314 
  6.246927788599622  12.241620371320625   5.002978606422314 
  7.409774659918982   5.701532117540483   5.002978606422314 
 -1.244844955989825   7.904878687559816  11.673616748318732 
 -0.000024899046365   1.437178642848942  11.673616748318732 
  3.733940091644667   7.904815746379612  11.673616748318732 
  4.978703315152021   1.437059453912142  11.673616748318732 
  8.712946453410108   7.904916977980990  11.673616748318732 
 -3.760747495882550   7.893367774636681   5.002978606422314 
  9.957419400034395   1.437200600210989  11.673616748318732 
  2.534224913525588   1.465719802260270   5.002978606422314 
  1.212709581573452   7.951199437801094   5.002978606422314 
  6.153173293209115   7.878029529542479   5.002978606422314 
  7.503656757500778   1.391036262493154   5.002978606422314 
  1.244495960379171   7.904896318376142  11.673616748318732 
 12.485800557119468   1.459690317361528   5.002978606422314 
 -2.489467459422955  10.060685282842337  11.673616748318732 
 -1.244764926072867   3.593131611873517  11.673616748318732 
  3.734056416675145   3.592949462617562  11.673616748318732 
  2.489238134443165  10.060676903724872  11.673616748318732 
  7.468196384996717  10.060705147084482  11.673616748318732 
  8.712752232817426   3.593126715416457  11.673616748318732 
 -5.002059497825636  10.043383230047155   5.002978606422314 
 -0.017753176053570  10.072388323808234   5.002978606422314 
  1.319627252015698   3.636382146851004   5.002978606422314 
  4.977749757608587  10.096126196067978   5.002978606422314 
  6.292872170145854   3.476421148928176   5.002978606422314 
 11.235632428315217   3.600930471378564   5.002978606422314 
 -2.489472905283646   5.749023338801305  11.673616748318732 
 -3.734139484867084  12.216463286578493  11.673616748318732 
  1.244547978264681  12.216520100949456  11.673616748318732 
  2.489228026444714   5.749055481200862  11.673616748318732 
  6.223461703192686  12.216528214684148  11.673616748318732 
 -6.212100834616443  12.226522640764495   5.002978606422314 
  7.468173574452119   5.749059055645566  11.673616748318732 
 -1.243475186960271  12.195401122654147   5.002978606422314 
  0.047077349316796   5.773585749391104   5.002978606422314 
 -1.262173875066743   7.910350629357144   5.002978606422314 
  3.753378333039117  12.241889375188784   5.002978606422314 
  9.942028531767829   5.737146496629787   5.002978606422314 
 -3.734102154882700   7.904871588746682  11.673616748318732 
  2.489346208607314   1.437113050429806  11.673616748318732 
  6.223532286238762   7.904841004029094  11.673616748318732 
  7.468035154081345   1.437147505138983  11.673616748318732 
 12.446871272245433   1.437214484260155  11.673616748318732 
Generated by cif2cell 2.0.0.  :  Failed to get author information, No journal information. Species order: B P N 
 1.0
 14.936314146199660   0.000000000000000   0.000000000000000
 -7.468157073099825  12.935227489513863   0.000000000000000
  0.000000000000001   0.000000000000001  13.341276283792837
 B P N 
 143   1 143
Cartesian
  1.286882322397866   0.744496235389343   5.002978606422314 
  4.831069524588840   7.221503001213878   5.002978606422314 
  6.244954406292570   0.689538304387966   5.002978606422314 
  9.921547973344936   7.172843594607351   5.002978606422314 
 11.237585311653008   0.739032909384808   5.002978606422314 
 -3.734200389608020   9.342038390530751  11.673616748318732 
  1.244801285713010   9.341604326298516  11.673616748318732 
  2.489976841167868   2.875045480159800  11.673616748318732 
  6.223278073473971   9.341257187494897  11.673616748318732 
  7.467306491302142   2.874991751261414  11.673616748318732 
 12.446991692402371   2.874678806709067  11.673616748318732 
 -1.258974690828065   9.343661033965017   5.002978606422314 
  0.071380384450858   2.915706481847272   5.002978606422314 
  5.021615787735256   2.818943483783486   5.002978606422314 
  3.709787397498829   9.419075727682754   5.002978606422314 
  8.683253065941603   9.317633288983734   5.002978606422314 
  9.991415823297077   2.878101743258833   5.002978606422314 
 -4.978756043932313  11.497995341512057  11.673616748318732 
 -0.000187762426848  11.497871585991257  11.673616748318732 
  1.245465152404691   5.030602955710982  11.673616748318732 
  6.222563896403197   5.030671615618203  11.673616748318732 
  4.978739600138304  11.497394334194938  11.673616748318732 
 11.202006335429994   5.030555484385049  11.673616748318732 
 -1.201191876965256   5.053967161687557   5.002978606422314 
 -2.495182289782667  11.484835404057133   5.002978606422314 
  2.497325518135567  11.531026582147387   5.002978606422314 
  7.476656234609738  11.500339650039448   5.002978606422314 
  8.683204413582640   5.014487537794597   5.002978606422314 
  0.000365830263282   7.186088008410848  11.673616748318732 
  1.245024919177165   0.718841986229068  11.673616748318732 
  4.978585674390998   7.185305099652544  11.673616748318732 
  6.223081610500302   0.718969869446374  11.673616748318732 
  9.957173273664480   7.186197175559888  11.673616748318732 
 -2.503288057506535   7.188090770138020   5.002978606422314 
 11.202063047795676   0.718524120784563  11.673616748318732 
  3.749372233741537   0.704578953300496   5.002978606422314 
  2.462698871623425   7.251117594836677   5.002978606422314 
  7.394430607200602   7.143671499241072   5.002978606422314 
  8.745439019887760   0.708976545655418   5.002978606422314 
  2.489776026567957   7.185693879205319  11.673616748318732 
 13.734624386517307   0.747021902926722   5.002978606422314 
 -1.244659904397246   9.341965058275235  11.673616748318732 
  0.000573820072389   2.874826292842979  11.673616748318732 
  4.978495765460806   2.875104845643325  11.673616748318732 
  3.734083446880919   9.341123740185981  11.673616748318732 
  8.712630256437766   9.341808913601641  11.673616748318732 
  9.957019679775939   2.874760301954458  11.673616748318732 
 -3.755969901506928   9.329469756975762   5.002978606422314 
  1.230249200595421   9.375262505635625   5.002978606422314 
  2.590609754078258   2.939150891129035   5.002978606422314 
  6.194890110448667   9.324374336023013   5.002978606422314 
  7.522666868058789   2.814974761536536   5.002978606422314 
 12.493023520443117   2.897537685688754   5.002978606422314 
 -1.244337810063420   5.030544711742118  11.673616748318732 
 -2.489493654598817  11.498080360600879  11.673616748318732 
  2.489240641947410  11.497529893694965  11.673616748318732 
  3.734478703492246   5.030597282413895  11.673616748318732 
  7.468206321306321  11.497686814148690  11.673616748318732 
 -4.984117581238388  11.485013550158516   5.002978606422314 
  8.712019373358263   5.030630809200262  11.673616748318732 
  0.002587790506352  11.499474052224398   5.002978606422314 
  1.351298523279285   5.085700909263590   5.002978606422314 
 -0.004516301632450   7.206504622518605   5.002978606422314 
  6.180154123817914   4.884819931640411   5.002978606422314 
  4.998831444953710  11.525511547624282   5.002978606422314 
 11.208528715355166   5.036546906020217   5.002978606422314 
 -2.489364727754711   7.186243101971661  11.673616748318732 
  3.734131993212829   0.719015310600693  11.673616748318732 
  7.467569615038920   7.185898325104777  11.673616748318732 
  8.712387598651231   0.718723181716234  11.673616748318732 
 13.691812102598497   0.718586609950629  11.673616748318732 
  0.000524574760739   1.437940404397007   1.669370499682749 
  3.735569943608136   7.902653488790977   1.668020319806864 
  4.978766122382453   1.440090515456523   1.670396897462597 
  8.710547642025148   7.903532023582137   1.669775274182291 
  9.957625582704075   1.437608235094731   1.668194237823964 
 -4.979579626421264  10.060562937310744   8.337397822106650 
  0.001127088786269  10.060419843891726   8.337260089999900 
  1.246108657572456   3.593936166558747   8.335112222283319 
  4.978507514197167  10.059633818303809   8.337527087577810 
  6.222297959369430   3.595514220887448   8.337936893037764 
 11.202140178223008   3.593107772610340   8.337415553669125 
 -2.489175286244170  10.060853969105757   1.668254793493068 
 -1.243830484317057   3.593226589375135   1.669370499682749 
  3.734185185230812   3.595919219408921   1.669354018823502 
  2.490499533673808  10.059871326387293   1.668775311739679 
  7.466911832473971  10.059848821640012   1.669110149750185 
  8.711766505485389   3.593439567579226   1.668430125266819 
 -6.223666075253325  12.217140032082005   8.336903115242915 
 -1.244400062192740  12.217736151593895   8.337260089999900 
  0.001914756089269   5.748322943816573   8.335165718305772 
  4.976924653215833   5.747923785940372   8.320931433802489 
  3.734432352600488  12.216495094952895   8.337762975020677 
  9.956154862974843   5.748353420425747   8.336847063094430 
 -2.489022172384963   5.748547044136628   1.669054097601714 
 -3.734091173762185  12.217990651579706   1.668891211796797 
  1.245226377284384  12.216911774806116   1.668349133196538 
  2.491864295546933   5.747682119645584   1.669354018823502 
  6.223407007694059  12.216526581295019   1.668541659175490 
  7.464779708827336   5.747694159031981   1.667637214052235 
 -1.243498063545464   7.904156843703324   8.337066001047830 
  0.000524574760739   1.437940404397007   8.336586713161878 
  3.735569943608137   7.902653488790977   8.337936893037764 
  4.978766122382454   1.440090515456524   8.335560315382018 
  8.710547642025148   7.903532023582138   8.336181938662323 
 -3.734629497260517   7.904246060714877   1.668559390737978 
  9.957625582704075   1.437608235094732   8.337762975020677 
  2.489765385513414   1.439239252011712   1.670791494538855 
  1.247152340292248   7.903435180261059   1.670396897462597 
  6.220653318285481   7.902584278487768   1.667637214052235 
  7.467968203257604   1.438642697585834   1.668775311739679 
  1.247152340292249   7.903435180261059   8.335560315382018 
 12.447276894004773   1.437448670092098   1.668156572004607 
 -2.489175286244169  10.060853969105757   8.337702419351560 
 -1.243830484317057   3.593226589375136   8.336586713161878 
  3.734185185230813   3.595919219408922   8.336603194021126 
  2.490499533673808  10.059871326387293   8.337181901104948 
  7.466911832473972  10.059848821640012   8.336847063094430 
  8.711766505485389   3.593439567579227   8.337527087577810 
 -4.979579626421264  10.060562937310744   1.668559390737978 
  0.001127088786269  10.060419843891726   1.668697122844742 
  1.246108657572456   3.593936166558746   1.670844990561321 
  4.978507514197166  10.059633818303809   1.668430125266819 
  6.222297959369429   3.595514220887447   1.668020319806864 
 11.202140178223008   3.593107772610339   1.668541659175490 
 -2.489022172384962   5.748547044136629   8.336903115242915 
 -3.734091173762185  12.217990651579706   8.337066001047830 
  1.245226377284384  12.216911774806116   8.337608079648078 
  2.491864295546934   5.747682119645585   8.336603194021126 
  6.223407007694060  12.216526581295019   8.337415553669125 
 -6.223666075253326  12.217140032082005   1.669054097601714 
  7.464779708827337   5.747694159031981   8.338319998792393 
 -1.244400062192740  12.217736151593895   1.668697122844742 
  0.001914756089269   5.748322943816572   1.670791494538855 
 -1.243498063545465   7.904156843703324   1.668891211796797 
  4.976924653215832   5.747923785940372   1.685025779042126 
  3.734432352600487  12.216495094952895   1.668194237823964 
  9.956154862974843   5.748353420425746   1.669110149750185 
 -3.734629497260517   7.904246060714878   8.337397822106650 
  2.489765385513415   1.439239252011712   8.335165718305772 
  6.220653318285482   7.902584278487769   8.338319998792393 
  7.467968203257605   1.438642697585834   8.337181901104948 
 12.447276894004773   1.437448670092098   8.337800640840008 
  4.405826264128461   5.418199977267006   5.002978606422314 
  1.244562158500091   0.718550103283822   1.666984663328162 
  4.978707978310755   7.187229878262574   1.653586452969615 
  6.223864718769462   0.718769782993038   1.666507970970061 
  9.957323307814365   7.186052815581111   1.666571641191411 
 11.202599705053242   0.718833959996663   1.665901983141180 
 -3.734165854842618   9.342058329186825   8.339722958121829 
  1.245019559896041   9.342382561180203   8.339449241874567 
  2.488822734739186   2.874157179751263   8.341137342592319 
  6.223250677161504   9.342316075923856   8.340759375863907 
  7.468672152886048   2.874297710368672   8.341690767658978 
 12.447025589041905   2.874498026034730   8.339692550057109 
 -1.244480879274965   9.342189844893575   1.666324964194510 
 -0.000308870869457   2.874316670990074   1.666725039377543 
  4.979063525632264   2.874490570036759   1.663657910543494 
  3.734165220628483   9.342653458257001   1.664266445185649 
  8.712580254103798   9.342011026976262   1.666571641191411 
  9.957960340852514   2.874403131303779   1.666024766900158 
 -4.978846479658118  11.498007842802039   8.339767528391747 
  0.000383411520268  11.498201353423369   8.339688602867884 
  1.244118808470372   5.030047620429329   8.341137342592319 
  6.224291955536024   5.029815144614681   8.352370759875011 
  4.978900611819613  11.498387555908954   8.339932445944470 
 11.202227163401815   5.030274308194735   8.339331933204420 
 -1.244821968447472   5.030289890712521   1.666984663328162 
 -2.489209471115765  11.498123007595517   1.666324964194510 
  2.489729010590326  11.498384984625988   1.666066865733197 
  3.732052330735767   5.029196415449779   1.645493297230596 
  7.468073229568473  11.498018644877321   1.666625279640206 
  8.712922699481267   5.030077639083238   1.665197836980707 
  0.000171927180465   7.186256892319139   8.339324194112450 
  1.244562158500091   0.718550103283822   8.338972549516454 
  4.978707978310756   7.187229878262575   8.352370759875011 
  6.223864718769463   0.718769782993038   8.339449241874567 
  9.957323307814365   7.186052815581112   8.339385571653217 
 -2.489399119182909   7.186158531690712   1.666189684452882 
 11.202599705053242   0.718833959996664   8.340055229703447 
  3.734181299426290   0.718762943650955   1.666633018732177 
  2.489527928373461   7.186492711740366   1.663657910543494 
  7.467879728411000   7.186077369143653   1.665180206250412 
  8.713372313441502   0.718718575901899   1.666066865733197 
  2.489527928373461   7.186492711740367   8.342299302301134 
 13.691672490261775   0.718706355638737   1.666264662787506 
 -1.244480879274965   9.342189844893575   8.339632248650130 
 -0.000308870869456   2.874316670990075   8.339232173467085 
  4.979063525632265   2.874490570036760   8.342299302301134 
  3.734165220628483   9.342653458257001   8.341690767658978 
  8.712580254103798   9.342011026976262   8.339385571653217 
  9.957960340852514   2.874403131303780   8.339932445944470 
 -3.734165854842618   9.342058329186825   1.666234254722786 
  1.245019559896041   9.342382561180203   1.666507970970061 
  2.488822734739185   2.874157179751262   1.664819870252296 