Al B N Sb                               
   1.0000000000000000     
     8.7639499999999995  -15.1796066749929999    0.0000000000000000
     8.7639499999999995   15.1796066749929999    0.0000000000000000
     0.0000000000000000    0.0000000000000000   15.0000000000000000
   Al   B    N    Sb
     1    48    48     1
Selective dynamics
Direct
  0.5617858334395379  0.4382155684774035  0.1114720575986486   T   T   T
  0.9063260953811404  0.9555376276364927  0.1109422864401322   T   T   T
  0.9034760288089989  0.0965259923869854  0.1110336167070003   T   T   T
  0.9031082029150734  0.2388318940938900  0.1110223727520329   T   T   T
  0.9047797110770800  0.3818585065380602  0.1108673348124086   T   T   T
  0.9073209518249963  0.5254475261020529  0.1108516026174234   T   T   T
  0.9096733805208418  0.6704940424097374  0.1109712590732934   T   T   T
  0.9103883227968173  0.8150165927540880  0.1108683980109390   T   T   T
  0.0477051312129021  0.9522968899830638  0.1108771327356807   T   T   T
  0.0444643935594958  0.0936759258147862  0.1109422864401322   T   T   T
  0.0436590756276065  0.2371685687285903  0.1109307952368107   T   T   T
  0.0449580091498381  0.3810888456487085  0.1109196659570165   T   T   T
  0.0474959527382586  0.5245570026782916  0.1108921866445444   T   T   T
  0.0494047292739831  0.6675427383157295  0.1109240274664410   T   T   T
  0.0496928125225372  0.8104554245699196  0.1109388495826539   T   T   T
  0.1895465966260679  0.9503092086734947  0.1109388495826539   T   T   T
  0.1849854284419132  0.0896136983992083  0.1108683980109390   T   T   T
  0.1818437486031394  0.2319243830672132  0.1108501290364085   T   T   T
  0.1837603791127652  0.3786777722232532  0.1108667548880718   T   T   T
  0.1876680835188216  0.5236650768712325  0.1109587349366742   T   T   T
  0.1910840131955294  0.6666887858933127  0.1110746340345245   T   T   T
  0.1910470726757005  0.8089549485203278  0.1110447418828661   T   T   T
  0.3324592828812242  0.9505972919219902  0.1109240274664410   T   T   T
  0.3295079787873329  0.0903286406751195  0.1109712590732934   T   T   T
  0.3206098130215156  0.2256775458655656  0.1112427058403697   T   T   T
  0.3171000939142514  0.3707468176074255  0.1112535638859957   T   T   T
  0.3267456059139459  0.5212279064270130  0.1112978929256654   T   T   T
  0.3337681686331324  0.6662338525637976  0.1111362297240484   T   T   T
  0.3333132353036523  0.8089180080004557  0.1110746340345245   T   T   T
  0.4754450185187103  0.9525060684577942  0.1108921866445444   T   T   T
  0.4745544950949388  0.0926810693710267  0.1108516026174234   T   T   T
  0.4703264583960474  0.2289918188198317  0.1115295980036088   T   T   T
  0.4487542597772068  0.3553053883615862  0.1100698627876757   T   T   T
  0.4787741147699851  0.6732564152830955  0.1112978929256654   T   T   T
  0.4763369443257255  0.8123339376771921  0.1109587349366742   T   T   T
  0.6189131755472992  0.9550440120461846  0.1109196659570165   T   T   T
  0.6181435146579375  0.0952223101188728  0.1108673348124086   T   T   T
  0.6187303461490968  0.2359525955135711  0.1109529777964283   T   T   T
  0.6237073193219681  0.3762947018739818  0.1112924387594762   T   T   T
  0.6446966328343557  0.5512477614198090  0.1100698627876757   T   T   T
  0.6292552035885178  0.6829019272828205  0.1112535638859957   T   T   T
  0.6213242489728136  0.8162416420832784  0.1108667548880718   T   T   T
  0.7628334524673178  0.9563429455683559  0.1109307952368107   T   T   T
  0.7611701271021315  0.0968938182809279  0.1110223727520329   T   T   T
  0.7614272857730597  0.2385747354229260  0.1109306945108920   T   T   T
  0.7640494256824122  0.3812716750468995  0.1109529777964283   T   T   T
  0.7710102023762041  0.5296755628008669  0.1115295980036088   T   T   T
  0.7743244753304541  0.6793922081754457  0.1112427058403697   T   T   T
  0.7680776381287122  0.8181582725928901  0.1108501290364085   T   T   T
  0.9544398215912581  0.9082188183763390  0.1108520527981303   T   T   T
  0.9510076291164213  0.0489937728015846  0.1110113414828391   T   T   T
  0.9497242747995375  0.1908355349427510  0.1110145212503379   T   T   T
  0.9507199962793305  0.3336474319703561  0.1109427522242650   T   T   T
  0.9530717650431945  0.4769946661475127  0.1107786442903562   T   T   T
  0.9548420338392402  0.6207563458499151  0.1108312956620783   T   T   T
  0.9557189898397319  0.7650148334108668  0.1108467867282809   T   T   T
  0.0953675066747533  0.9046338952431874  0.1109252907324995   T   T   T
  0.0917825835416352  0.0455615803266618  0.1108520527981303   T   T   T
  0.0889339744654146  0.1873899190676573  0.1108620889137979   T   T   T
  0.0900735558840768  0.3319677394942162  0.1108755544750087   T   T   T
  0.0932095778011865  0.4761517327988838  0.1109211306483489   T   T   T
  0.0960897315657009  0.6195188197660058  0.1109530662986098   T   T   T
  0.0964727396456000  0.7622898778463711  0.1109884620950856   T   T   T
  0.2377115240716152  0.9035286622723988  0.1109884620950856   T   T   T
  0.2349865685071183  0.0442824120782997  0.1108467867282809   T   T   T
  0.2281186017681666  0.1824530950686981  0.1109505807589399   T   T   T
  0.2251744729455891  0.3256152813617329  0.1108558574101360   T   T   T
  0.2320965621384979  0.4744216085273646  0.1108566919491802   T   T   T
  0.2381116974497939  0.6189065034310139  0.1110678657114932   T   T   T
  0.2384521129736794  0.7615492889442769  0.1110886975594501   T   T   T
  0.3804825821519920  0.9039116703522840  0.1109530662986098   T   T   T
  0.3792450560680172  0.0451593680787843  0.1108312956620783   T   T   T
  0.3748070501769405  0.1842631686078038  0.1112578686708688   T   T   T
  0.3601416793698874  0.3179420305609570  0.1111129077895301   T   T   T
  0.3601618456204608  0.4631562006361133  0.1118468302466261   T   T   T
  0.3815334237935580  0.6184679781245038  0.1112259193868191   T   T   T
  0.3810948984869935  0.7618897044682120  0.1110678657114932   T   T   T
  0.5238496691180897  0.9067918241168167  0.1109211306483417   T   T   T
  0.5230067357694632  0.0469296368748102  0.1107786442903562   T   T   T
  0.5222550102387437  0.1869077710539398  0.1110295394590604   T   T   T
  0.5150664048108161  0.3218890688316945  0.1119211399240541   T   T   T
  0.5368452012808901  0.6398395562975151  0.1118468302466261   T   T   T
  0.5255797933896830  0.7679048397794873  0.1108566919491731   T   T   T
  0.6680336624227671  0.9099278460339528  0.1108755544750087   T   T   T
  0.6663539699466785  0.0492814056387457  0.1109427522242650   T   T   T
  0.6663188016699237  0.1897116395029422  0.1108534530507708   T   T   T
  0.6697925703711456  0.3302088315458502  0.1109867090145468   T   T   T
  0.6781123330853149  0.4849349971061339  0.1119211399240541   T   T   T
  0.6820593713560732  0.6398597225480389  0.1111129077895301   T   T   T
  0.6743861205552178  0.7748269289723535  0.1108558574101360   T   T   T
  0.8126114828504053  0.9110674274526048  0.1108620889137979   T   T   T
  0.8091658669752608  0.0502771271184417  0.1110145212503379   T   T   T
  0.8085834012599105  0.1914180006581055  0.1110177288425077   T   T   T
  0.8102897624150474  0.3336826002469891  0.1108534530507708   T   T   T
  0.8130936308640481  0.4777463916783092  0.1110295394590604   T   T   T
  0.8157382333101515  0.6251943517410687  0.1112578686708687   T   T   T
  0.8175483068493393  0.7718828001498149  0.1109505807589399   T   T   T
  0.4882888118513609  0.5117132093456606  0.1122279548944252   T   T   T

  0.00000000E+00  0.00000000E+00  0.00000000E+00
  0.00000000E+00  0.00000000E+00  0.00000000E+00
  0.00000000E+00  0.00000000E+00  0.00000000E+00
  0.00000000E+00  0.00000000E+00  0.00000000E+00
  0.00000000E+00  0.00000000E+00  0.00000000E+00
  0.00000000E+00  0.00000000E+00  0.00000000E+00
  0.00000000E+00  0.00000000E+00  0.00000000E+00
  0.00000000E+00  0.00000000E+00  0.00000000E+00
  0.00000000E+00  0.00000000E+00  0.00000000E+00
  0.00000000E+00  0.00000000E+00  0.00000000E+00
  0.00000000E+00  0.00000000E+00  0.00000000E+00
  0.00000000E+00  0.00000000E+00  0.00000000E+00
  0.00000000E+00  0.00000000E+00  0.00000000E+00
  0.00000000E+00  0.00000000E+00  0.00000000E+00
  0.00000000E+00  0.00000000E+00  0.00000000E+00
  0.00000000E+00  0.00000000E+00  0.00000000E+00
  0.00000000E+00  0.00000000E+00  0.00000000E+00
  0.00000000E+00  0.00000000E+00  0.00000000E+00
  0.00000000E+00  0.00000000E+00  0.00000000E+00
  0.00000000E+00  0.00000000E+00  0.00000000E+00
  0.00000000E+00  0.00000000E+00  0.00000000E+00
  0.00000000E+00  0.00000000E+00  0.00000000E+00
  0.00000000E+00  0.00000000E+00  0.00000000E+00
  0.00000000E+00  0.00000000E+00  0.00000000E+00
  0.00000000E+00  0.00000000E+00  0.00000000E+00
  0.00000000E+00  0.00000000E+00  0.00000000E+00
  0.00000000E+00  0.00000000E+00  0.00000000E+00
  0.00000000E+00  0.00000000E+00  0.00000000E+00
  0.00000000E+00  0.00000000E+00  0.00000000E+00
  0.00000000E+00  0.00000000E+00  0.00000000E+00
  0.00000000E+00  0.00000000E+00  0.00000000E+00
  0.00000000E+00  0.00000000E+00  0.00000000E+00
  0.00000000E+00  0.00000000E+00  0.00000000E+00
  0.00000000E+00  0.00000000E+00  0.00000000E+00
  0.00000000E+00  0.00000000E+00  0.00000000E+00
  0.00000000E+00  0.00000000E+00  0.00000000E+00
  0.00000000E+00  0.00000000E+00  0.00000000E+00
  0.00000000E+00  0.00000000E+00  0.00000000E+00
  0.00000000E+00  0.00000000E+00  0.00000000E+00
  0.00000000E+00  0.00000000E+00  0.00000000E+00
  0.00000000E+00  0.00000000E+00  0.00000000E+00
  0.00000000E+00  0.00000000E+00  0.00000000E+00
  0.00000000E+00  0.00000000E+00  0.00000000E+00
  0.00000000E+00  0.00000000E+00  0.00000000E+00
  0.00000000E+00  0.00000000E+00  0.00000000E+00
  0.00000000E+00  0.00000000E+00  0.00000000E+00
  0.00000000E+00  0.00000000E+00  0.00000000E+00
  0.00000000E+00  0.00000000E+00  0.00000000E+00
  0.00000000E+00  0.00000000E+00  0.00000000E+00
  0.00000000E+00  0.00000000E+00  0.00000000E+00
  0.00000000E+00  0.00000000E+00  0.00000000E+00
  0.00000000E+00  0.00000000E+00  0.00000000E+00
  0.00000000E+00  0.00000000E+00  0.00000000E+00
  0.00000000E+00  0.00000000E+00  0.00000000E+00
  0.00000000E+00  0.00000000E+00  0.00000000E+00
  0.00000000E+00  0.00000000E+00  0.00000000E+00
  0.00000000E+00  0.00000000E+00  0.00000000E+00
  0.00000000E+00  0.00000000E+00  0.00000000E+00
  0.00000000E+00  0.00000000E+00  0.00000000E+00
  0.00000000E+00  0.00000000E+00  0.00000000E+00
  0.00000000E+00  0.00000000E+00  0.00000000E+00
  0.00000000E+00  0.00000000E+00  0.00000000E+00
  0.00000000E+00  0.00000000E+00  0.00000000E+00
  0.00000000E+00  0.00000000E+00  0.00000000E+00
  0.00000000E+00  0.00000000E+00  0.00000000E+00
  0.00000000E+00  0.00000000E+00  0.00000000E+00
  0.00000000E+00  0.00000000E+00  0.00000000E+00
  0.00000000E+00  0.00000000E+00  0.00000000E+00
  0.00000000E+00  0.00000000E+00  0.00000000E+00
  0.00000000E+00  0.00000000E+00  0.00000000E+00
  0.00000000E+00  0.00000000E+00  0.00000000E+00
  0.00000000E+00  0.00000000E+00  0.00000000E+00
  0.00000000E+00  0.00000000E+00  0.00000000E+00
  0.00000000E+00  0.00000000E+00  0.00000000E+00
  0.00000000E+00  0.00000000E+00  0.00000000E+00
  0.00000000E+00  0.00000000E+00  0.00000000E+00
  0.00000000E+00  0.00000000E+00  0.00000000E+00
  0.00000000E+00  0.00000000E+00  0.00000000E+00
  0.00000000E+00  0.00000000E+00  0.00000000E+00
  0.00000000E+00  0.00000000E+00  0.00000000E+00
  0.00000000E+00  0.00000000E+00  0.00000000E+00
  0.00000000E+00  0.00000000E+00  0.00000000E+00
  0.00000000E+00  0.00000000E+00  0.00000000E+00
  0.00000000E+00  0.00000000E+00  0.00000000E+00
  0.00000000E+00  0.00000000E+00  0.00000000E+00
  0.00000000E+00  0.00000000E+00  0.00000000E+00
  0.00000000E+00  0.00000000E+00  0.00000000E+00
  0.00000000E+00  0.00000000E+00  0.00000000E+00
  0.00000000E+00  0.00000000E+00  0.00000000E+00
  0.00000000E+00  0.00000000E+00  0.00000000E+00
  0.00000000E+00  0.00000000E+00  0.00000000E+00
  0.00000000E+00  0.00000000E+00  0.00000000E+00
  0.00000000E+00  0.00000000E+00  0.00000000E+00
  0.00000000E+00  0.00000000E+00  0.00000000E+00
  0.00000000E+00  0.00000000E+00  0.00000000E+00
  0.00000000E+00  0.00000000E+00  0.00000000E+00
  0.00000000E+00  0.00000000E+00  0.00000000E+00
  0.00000000E+00  0.00000000E+00  0.00000000E+00
