B N                                     
   1.0000000000000000     
     8.7639499999999995  -15.1796066749929999    0.0000000000000000
     8.7639499999999995   15.1796066749929999    0.0000000000000000
     0.0000000000000000    0.0000000000000000   15.0000000000000000
   B    N 
    48    49
Selective dynamics
Direct
  0.9036556507416357  0.9541764954128855  0.1111204373777279   T   T   T
  0.9037270698576172  0.0970432958695888  0.1111163739918922   T   T   T
  0.9037544627692958  0.2398504882653018  0.1111421596228840   T   T   T
  0.9037278418730561  0.3826662158780356  0.1111410283071167   T   T   T
  0.9036581963597432  0.5254674658983594  0.1111195082777172   T   T   T
  0.9035679068543062  0.6682934814128020  0.1111103810772888   T   T   T
  0.9035781033383186  0.8112449959435345  0.1111439350235561   T   T   T
  0.0465740318421921  0.9542168416355445  0.1111215916059433   T   T   T
  0.0466017301223926  0.0971239417343057  0.1111227382980671   T   T   T
  0.0466611770545474  0.2399709262772813  0.1111256987873451   T   T   T
  0.0466683297633540  0.3826590011310477  0.1111088976128293   T   T   T
  0.0466092179772576  0.5254590516401186  0.1111318303162756   T   T   T
  0.0465574169332559  0.6683273053858083  0.1111148115226414   T   T   T
  0.0465390364993005  0.8112551263455662  0.1111216910115630   T   T   T
  0.1895065167569820  0.9542293341119342  0.1111318225042535   T   T   T
  0.1895399292942481  0.0972076348032889  0.1111400351650857   T   T   T
  0.1895828654823717  0.2401269659554504  0.1111396557452238   T   T   T
  0.1897726892004104  0.3828805870137191  0.1111122897524105   T   T   T
  0.1895799213164801  0.5254094004414454  0.1111130617406287   T   T   T
  0.1895295316132236  0.6682942243646612  0.1111384092622138   T   T   T
  0.1895136992340663  0.8112587680238109  0.1111408910901821   T   T   T
  0.3324457473691181  0.9542138200845769  0.1111395832122697   T   T   T
  0.3324779862802527  0.0971971945412680  0.1111403532456480   T   T   T
  0.3325015389559233  0.2401704587967995  0.1111444393332423   T   T   T
  0.3335140893938997  0.3836191153285564  0.1111417239857811   T   T   T
  0.3335178037053002  0.5258475924097445  0.1111272323149459   T   T   T
  0.3324952551467323  0.6682623706318426  0.1111436509736330   T   T   T
  0.3324768642002565  0.8112444105740430  0.1111550751511346   T   T   T
  0.4753192705444821  0.9541629664311557  0.1111369845249481   T   T   T
  0.4753109612876098  0.0971120625791050  0.1111451219274783   T   T   T
  0.4753475403739049  0.2401127075782012  0.1111402550364007   T   T   T
  0.4749216418112309  0.3836129797213210  0.1111050459723689   T   T   T
  0.4749152456869062  0.6672364600591080  0.1111228010462356   T   T   T
  0.4753498533682440  0.8111774093487921  0.1111286764411451   T   T   T
  0.6181077130796391  0.9540954893105131  0.1111159279858609   T   T   T
  0.6181060742311298  0.0970299938184333  0.1111503354737288   T   T   T
  0.6180961784055613  0.2399649536336625  0.1111537520388278   T   T   T
  0.6178875393322836  0.3828705000913831  0.1111131201828881   T   T   T
  0.6171356395690472  0.5258289130476116  0.1111117866883299   T   T   T
  0.6171300308342568  0.6672294571821903  0.1111425169071731   T   T   T
  0.6178833742113793  0.8109867097545007  0.1111276875479464   T   T   T
  0.7607959529703850  0.9541149692883383  0.1111365110238917   T   T   T
  0.7609032985043650  0.0970051706212223  0.1111480563699376   T   T   T
  0.7609016380955819  0.2398561415896869  0.1111646738799578   T   T   T
  0.7607916327822346  0.3826699555440707  0.1111501368751677   T   T   T
  0.7606479334182159  0.5254229366878832  0.1111286337622699   T   T   T
  0.7605906578893287  0.6682747485135415  0.1111346639218907   T   T   T
  0.7606374337773815  0.8111915674196774  0.1111460460772506   T   T   T
  0.9514483080926470  0.9066526620053145  0.1111193310305623   T   T   T
  0.9513305503043394  0.0494446538685691  0.1111045056394286   T   T   T
  0.9512450699290333  0.1922032778431865  0.1111137704393772   T   T   T
  0.9512427018925838  0.3350042693299511  0.1111186626311422   T   T   T
  0.9513356907630285  0.4778716822182128  0.1111186621952757   T   T   T
  0.9514414130595387  0.6207720188884226  0.1110989305585336   T   T   T
  0.9514821924208007  0.7637238328473916  0.1111164748666149   T   T   T
  0.0942334933647416  0.9065347252121669  0.1111072821001561   T   T   T
  0.0941317091735247  0.0493379410072202  0.1111168910973832   T   T   T
  0.0939500035525203  0.1920854357789163  0.1111172734355193   T   T   T
  0.0939172603222724  0.3349421725976453  0.1110952261323137   T   T   T
  0.0939512554206430  0.4778336959654987  0.1110998567334854   T   T   T
  0.0941264193791048  0.6207707723405724  0.1111158952216766   T   T   T
  0.0942342365365699  0.7636717967240894  0.1111073060859305   T   T   T
  0.2370981279124267  0.9065376343200227  0.1111282113738725   T   T   T
  0.2370482779729274  0.0492890752860091  0.1111315692517672   T   T   T
  0.2368125478536838  0.1919229364862768  0.1111244047125590   T   T   T
  0.2364599823456635  0.3346000796784815  0.1111250624119006   T   T   T
  0.2364629196936412  0.4778310039350716  0.1110999614671646   T   T   T
  0.2368044690198335  0.6208454175604357  0.1111226181349912   T   T   T
  0.2370438655842231  0.7637262323765380  0.1111311036991732   T   T   T
  0.3800043468975781  0.9066473288648864  0.1111285195550882   T   T   T
  0.3800051975680432  0.0493286582522424  0.1111265562118004   T   T   T
  0.3799217440016318  0.1919113447868278  0.1111255664211669   T   T   T
  0.3794884776790654  0.3341567818518170  0.1111135274549122   T   T   T
  0.3749912080667291  0.4754710168211788  0.1110977308038480   T   T   T
  0.3794875016724559  0.6212739297786443  0.1111090186388806   T   T   T
  0.3799142631813531  0.7639566683714746  0.1111288524865238   T   T   T
  0.5229327709596746  0.9068120479160162  0.1111110035764961   T   T   T
  0.5229047019022081  0.0494337102994169  0.1111275540140969   T   T   T
  0.5229291286751869  0.1920723828927674  0.1111302002993033   T   T   T
  0.5229341900243982  0.3345818862402611  0.1111080941114590   T   T   T
  0.5252895365226746  0.4754649046283601  0.1110745293028813   T   T   T
  0.5252836303134579  0.6257571658074534  0.1110933444538678   T   T   T
  0.5229307782812704  0.7642966253102124  0.1111158977467201   T   T   T
  0.6658240750884965  0.9068480402581790  0.1111122686618582   T   T   T
  0.6657590142699992  0.0495175469984444  0.1111257426654408   T   T   T
  0.6657542089456132  0.1922004064455780  0.1111460784226917   T   T   T
  0.6658155122719968  0.3349408249974170  0.1111257326216143   T   T   T
  0.6661750421246097  0.4778242826889298  0.1111079176049771   T   T   T
  0.6666014004463364  0.6212683707880371  0.1111094735366714   T   T   T
  0.6661629137779953  0.7642977801198917  0.1111266879260670   T   T   T
  0.8086859726293120  0.9068270042047366  0.1111222381531141   T   T   T
  0.8085630055289296  0.0495278417034552  0.1111156007101033   T   T   T
  0.8085202589072431  0.1922383301625091  0.1111374159564443   T   T   T
  0.8085551004109893  0.3350086975406456  0.1111344067376487   T   T   T
  0.8086904788388899  0.4778427131288690  0.1111142682160440   T   T   T
  0.8088508185510781  0.6208515675901859  0.1111090511956775   T   T   T
  0.8088520946853204  0.7639683529488396  0.1111293240285790   T   T   T

  0.00000000E+00  0.00000000E+00  0.00000000E+00
  0.00000000E+00  0.00000000E+00  0.00000000E+00
  0.00000000E+00  0.00000000E+00  0.00000000E+00
  0.00000000E+00  0.00000000E+00  0.00000000E+00
  0.00000000E+00  0.00000000E+00  0.00000000E+00
  0.00000000E+00  0.00000000E+00  0.00000000E+00
  0.00000000E+00  0.00000000E+00  0.00000000E+00
  0.00000000E+00  0.00000000E+00  0.00000000E+00
  0.00000000E+00  0.00000000E+00  0.00000000E+00
  0.00000000E+00  0.00000000E+00  0.00000000E+00
  0.00000000E+00  0.00000000E+00  0.00000000E+00
  0.00000000E+00  0.00000000E+00  0.00000000E+00
  0.00000000E+00  0.00000000E+00  0.00000000E+00
  0.00000000E+00  0.00000000E+00  0.00000000E+00
  0.00000000E+00  0.00000000E+00  0.00000000E+00
  0.00000000E+00  0.00000000E+00  0.00000000E+00
  0.00000000E+00  0.00000000E+00  0.00000000E+00
  0.00000000E+00  0.00000000E+00  0.00000000E+00
  0.00000000E+00  0.00000000E+00  0.00000000E+00
  0.00000000E+00  0.00000000E+00  0.00000000E+00
  0.00000000E+00  0.00000000E+00  0.00000000E+00
  0.00000000E+00  0.00000000E+00  0.00000000E+00
  0.00000000E+00  0.00000000E+00  0.00000000E+00
  0.00000000E+00  0.00000000E+00  0.00000000E+00
  0.00000000E+00  0.00000000E+00  0.00000000E+00
  0.00000000E+00  0.00000000E+00  0.00000000E+00
  0.00000000E+00  0.00000000E+00  0.00000000E+00
  0.00000000E+00  0.00000000E+00  0.00000000E+00
  0.00000000E+00  0.00000000E+00  0.00000000E+00
  0.00000000E+00  0.00000000E+00  0.00000000E+00
  0.00000000E+00  0.00000000E+00  0.00000000E+00
  0.00000000E+00  0.00000000E+00  0.00000000E+00
  0.00000000E+00  0.00000000E+00  0.00000000E+00
  0.00000000E+00  0.00000000E+00  0.00000000E+00
  0.00000000E+00  0.00000000E+00  0.00000000E+00
  0.00000000E+00  0.00000000E+00  0.00000000E+00
  0.00000000E+00  0.00000000E+00  0.00000000E+00
  0.00000000E+00  0.00000000E+00  0.00000000E+00
  0.00000000E+00  0.00000000E+00  0.00000000E+00
  0.00000000E+00  0.00000000E+00  0.00000000E+00
  0.00000000E+00  0.00000000E+00  0.00000000E+00
  0.00000000E+00  0.00000000E+00  0.00000000E+00
  0.00000000E+00  0.00000000E+00  0.00000000E+00
  0.00000000E+00  0.00000000E+00  0.00000000E+00
  0.00000000E+00  0.00000000E+00  0.00000000E+00
  0.00000000E+00  0.00000000E+00  0.00000000E+00
  0.00000000E+00  0.00000000E+00  0.00000000E+00
  0.00000000E+00  0.00000000E+00  0.00000000E+00
  0.00000000E+00  0.00000000E+00  0.00000000E+00
  0.00000000E+00  0.00000000E+00  0.00000000E+00
  0.00000000E+00  0.00000000E+00  0.00000000E+00
  0.00000000E+00  0.00000000E+00  0.00000000E+00
  0.00000000E+00  0.00000000E+00  0.00000000E+00
  0.00000000E+00  0.00000000E+00  0.00000000E+00
  0.00000000E+00  0.00000000E+00  0.00000000E+00
  0.00000000E+00  0.00000000E+00  0.00000000E+00
  0.00000000E+00  0.00000000E+00  0.00000000E+00
  0.00000000E+00  0.00000000E+00  0.00000000E+00
  0.00000000E+00  0.00000000E+00  0.00000000E+00
  0.00000000E+00  0.00000000E+00  0.00000000E+00
  0.00000000E+00  0.00000000E+00  0.00000000E+00
  0.00000000E+00  0.00000000E+00  0.00000000E+00
  0.00000000E+00  0.00000000E+00  0.00000000E+00
  0.00000000E+00  0.00000000E+00  0.00000000E+00
  0.00000000E+00  0.00000000E+00  0.00000000E+00
  0.00000000E+00  0.00000000E+00  0.00000000E+00
  0.00000000E+00  0.00000000E+00  0.00000000E+00
  0.00000000E+00  0.00000000E+00  0.00000000E+00
  0.00000000E+00  0.00000000E+00  0.00000000E+00
  0.00000000E+00  0.00000000E+00  0.00000000E+00
  0.00000000E+00  0.00000000E+00  0.00000000E+00
  0.00000000E+00  0.00000000E+00  0.00000000E+00
  0.00000000E+00  0.00000000E+00  0.00000000E+00
  0.00000000E+00  0.00000000E+00  0.00000000E+00
  0.00000000E+00  0.00000000E+00  0.00000000E+00
  0.00000000E+00  0.00000000E+00  0.00000000E+00
  0.00000000E+00  0.00000000E+00  0.00000000E+00
  0.00000000E+00  0.00000000E+00  0.00000000E+00
  0.00000000E+00  0.00000000E+00  0.00000000E+00
  0.00000000E+00  0.00000000E+00  0.00000000E+00
  0.00000000E+00  0.00000000E+00  0.00000000E+00
  0.00000000E+00  0.00000000E+00  0.00000000E+00
  0.00000000E+00  0.00000000E+00  0.00000000E+00
  0.00000000E+00  0.00000000E+00  0.00000000E+00
  0.00000000E+00  0.00000000E+00  0.00000000E+00
  0.00000000E+00  0.00000000E+00  0.00000000E+00
  0.00000000E+00  0.00000000E+00  0.00000000E+00
  0.00000000E+00  0.00000000E+00  0.00000000E+00
  0.00000000E+00  0.00000000E+00  0.00000000E+00
  0.00000000E+00  0.00000000E+00  0.00000000E+00
  0.00000000E+00  0.00000000E+00  0.00000000E+00
  0.00000000E+00  0.00000000E+00  0.00000000E+00
  0.00000000E+00  0.00000000E+00  0.00000000E+00
  0.00000000E+00  0.00000000E+00  0.00000000E+00
  0.00000000E+00  0.00000000E+00  0.00000000E+00
  0.00000000E+00  0.00000000E+00  0.00000000E+00
  0.00000000E+00  0.00000000E+00  0.00000000E+00
