 B N C 
 1.0
 17.527899999999999   0.000000000000000   0.000000000000000
 -8.763949999999996  15.179606674993002   0.000000000000000
  0.000000000000001   0.000000000000002  15.000000000000000
 B N C 
  46  48   4
Cartesian
  7.545646712508876  14.452852601038790   1.664150180165145 
 15.062591323988686   1.448319745963586   1.658640207781845 
 13.811718296170712   3.618245384702838   1.658981319232005 
 12.556976532024757   5.784962444758940   1.655907684298725 
 11.305086878523229   7.950644927475521   1.655610682986945 
 10.060632747456300  10.131444068999647   1.670398639600260 
  8.793649609645854  12.280386361891669   1.676941765151895 
 -7.477724950026680  14.455509710314038   1.666287532308930 
  0.037905326318782   1.450003330008985   1.659087175903140 
 -1.207037598511916   3.626222392720381   1.659835497702045 
 -2.456992970917137   5.786790751390551   1.666401583900050 
 -3.702587077681716   7.949496477210963   1.667803672685625 
 -4.966703018253381  10.119737783328667   1.668493021631820 
 -6.220025756535748  12.291453379726853   1.672152027465330 
 -4.970401712571402  14.455461021889583   1.661870014181535 
  2.540614113251088   1.449063361001856   1.654000676500305 
  1.295689839139514   3.625785242947110   1.656338626768710 
  0.058351410259435   5.801638114825460   1.682651578369185 
 -1.179234006633777   7.953398649660411   1.703490125186520 
 -2.458928887545806  10.115278251867526   1.688081203237905 
 -3.714215115383551  12.285410984382537   1.667792059444800 
 -2.463661548963963  14.451384729925127   1.655369136509910 
  5.041083230061966   1.441645079410578   1.653113222594835 
  3.791267480613547   3.627337466602305   1.650941453086260 
  2.547215270209850   5.807193259982767   1.674388420983075 
  0.048752709044608  10.099873659560027   1.692550645072635 
 -1.206305224955375  12.277219653573029   1.657672042070655 
  0.040730898363584  14.450038732917459   1.645673828607285 
  7.548652386201296   1.442690958752615   1.652425828209690 
  6.283832705154488   3.603755470892004   1.649995443415485 
  5.047223792783829   5.797992997938556   1.663852735939725 
  2.537057874051374  10.091905837948463   1.676522955367200 
  1.293666928885655  12.274940170632309   1.637619558002205 
  2.542840300878407  14.449458791519341   1.640866243585410 
 10.054264363173406   1.443178473180283   1.652128605404205 
  8.798218965672501   3.614923555013381   1.652535613332885 
  7.517559029987466   5.764174342042992   1.651557599769915 
  5.025030344013335  10.094702002517371   1.684929043284975 
  3.789942487627538  12.270876255985133   1.639466531277570 
  5.043294594013247  14.450296707604929   1.651041167972820 
 12.557709006255017   1.445518501832407   1.654249926288780 
 11.302695023843718   3.618187749466768   1.655932586613255 
 10.038421122904815   5.790138159018419   1.650251890272690 
  8.791146373678499   7.979687007884666   1.657857284764695 
  7.545389800773012  10.097870219658480   1.687409473004985 
  6.289688711061956  12.274384990170709   1.664753913899115 
  8.796077847330853  13.729160604559208   1.670328380908320 
 16.313633422560951   0.722703735150104   1.660589905287180 
 15.067838699627407   2.897714455840116   1.658877689827725 
 13.815486945426969   5.064206296891741   1.659312612713745 
 12.567464661193537   7.230787330214151   1.656125884769835 
 11.309437982840862   9.400383585965439   1.661869471994520 
 10.054389093050927  11.573638025300514   1.676074000310370 
 -6.223079582110090  13.736237749362646   1.667832868598100 
  1.288299885818327   0.724959547778927   1.659060372443370 
  0.043737123905145   2.900454173140085   1.657237800505920 
 -1.197929868508420   5.076646393723065   1.664729202490755 
 -2.437215263653408   7.230037391206396   1.674266714832210 
 -3.710193833366529   9.395164541738675   1.674323306328030 
 -4.967288400811687  11.565651368315667   1.670627961231255 
 -3.716980932964392  13.731649573750616   1.661204066850000 
  3.790069620952518   0.721972544079199   1.655441607228300 
  2.542800058906348   2.900402731398330   1.649215828655715 
  1.305236080853544   5.078769979226895   1.668626241611190 
  0.100030290876015   7.248042913083812   1.723312037303055 
 -1.205647540582718   9.393738374302472   1.714828878341505 
 -2.460389305432804  11.561099297551760   1.671652466014080 
 -1.209647992266848  13.724797146988386   1.650230677390620 
  6.295559085708978   0.718904881815244   1.653428944272570 
  5.033235420858819   2.888800791954180   1.649706206628090 
  3.791304581951089   5.087914500488625   1.659341508423525 
  2.557294940529799   7.274697869058933   1.718854942830015 
  1.294620231324867   9.358677885784138   1.717905815210550 
  0.048978627906800  11.547886276908072   1.652980278561255 
  1.293307328234823  13.721984978591598   1.636854389163750 
  8.802097640192972   0.716885748612936   1.650399739184685 
  7.541922127242052   2.888212431579611   1.651658340254820 
  6.268543277851030   5.046808178825797   1.650122097459390 
  5.024018552267151   7.277172790788780   1.692492237132765 
  3.786386828681966   9.363971415455174   1.707200992030230 
  2.541732024944181  11.537609291554839   1.632337509092730 
  3.792657919697570  13.719201036551500   1.639876146491880 
 11.307129058129100   0.716722816402822   1.649390497459050 
 10.052438362662034   2.888333748898390   1.655085387705285 
  8.789106145287651   5.054560571809319   1.649755791064680 
  6.271281375833397   9.355987422677400   1.702831826350605 
  5.037939726509990  11.539509106892835   1.655016876803925 
  6.292801014255753  13.722997398767983   1.658659484591595 
 13.810374852490966   0.719611040320085   1.654749817187835 
 12.558764683269519   2.892833015369248   1.657589958297165 
 11.300689945705518   5.064753705398989   1.653182570147205 
 10.048370288338507   7.238468560323835   1.650347395222830 
  8.808277717336399   9.420435826337492   1.672732962055680 
  7.535588558295798  11.548578641049252   1.681021144507710 
  1.322937524533437   7.952147897531299   1.875377223760920 
  3.783312302834792   7.961772343963993   1.863308003996130 
  6.258126553891492   7.953066063028858   1.683037103617965 
  7.455896431045263   7.265668116853325   1.656389723308230 
