Species order: N B                      
   2.51242800000000     
     5.9449720136058266    0.0000000000000000    0.0000000000000000
    -2.9724860068029120    5.1484967885702053   -0.0000000000000001
     0.0000000000000000    0.0000000000000009    5.3101128803662583
   N    B 
   143   143
Direct
  0.1110935928526718  0.0555495574862953  0.1251028698055546
  0.6111107962591736  0.5555431609009861  0.1265579415318687
  0.4444303674540252  0.0555494042254310  0.1251668518205238
  0.9444664312813809  0.5555668683762415  0.1251781162841270
  0.7777307832732290  0.0555320583032822  0.1251265004595986
  0.1111279867905623  0.7222306600619455  0.6248688791647584
  0.4444303674540252  0.7222142965619304  0.6248331481794763
  0.2777494499271849  0.2222142618156147  0.6248042543009715
  0.7777759946929514  0.7222101314762363  0.6245814342525904
  0.6110853129057420  0.2222170680118631  0.6245628073708668
  0.9444046087184285  0.2222063250161307  0.6248951729577129
  0.2777785929809408  0.7222209937320104  0.1251272759123327
  0.1110693877573359  0.2222013605453323  0.1250880269894392
  0.4444540833688668  0.2222261428224649  0.1255006385265568
  0.6110853129057420  0.7222015782272085  0.1254371926291328
  0.9444664312813807  0.7222328962384753  0.1251781162841270
  0.7777450080490554  0.2222160632385045  0.1251583204974733
  0.1111201760993336  0.8888967513945031  0.6248757424102204
  0.4444244994924344  0.8888789164128817  0.6248544171525108
  0.2777494499271849  0.3888685214448984  0.6248042543009715
  0.6111107962591736  0.3889009686915172  0.6234420584681304
  0.7777450080490554  0.8888622781438792  0.6248416795025269
  0.9444396803602468  0.3888904293806866  0.6248825854770413
  0.1110935928526718  0.3888773686997045  0.1251028698055546
  0.2777785929809408  0.8888909325822596  0.1251272759123327
  0.6110738243075133  0.8888704073206771  0.1251372494045501
  0.4444422853386531  0.3888878093359911  0.1257850997145124
  0.9444396803602468  0.8888825843128897  0.1251174145229580
  0.7777759946929514  0.3888991965500443  0.1254185657474099
  0.2777752307500911  0.5555491869243846  0.6248746562132369
  0.1110935928526718  0.0555495574862953  0.6248971301944454
  0.6111107962591736  0.5555431609009861  0.6234420584681304
  0.4444303674540252  0.0555494042254310  0.6248331481794763
  0.9444664312813807  0.5555668683762415  0.6248218837158730
  0.1111201760993336  0.5555567580381585  0.1251242575897801
  0.7777307832732290  0.0555320583032822  0.6248734995403997
  0.2777752307500911  0.0555593771590409  0.1251253437867631
  0.4444540833688668  0.5555612738797371  0.1255006385265568
  0.7777962271868100  0.5555647802600729  0.1257026216108501
  0.6110738243075133  0.0555367503201652  0.1251372494045501
  0.4444540833688668  0.5555612738797371  0.6244993614734443
  0.9444046087184285  0.0555316170356338  0.1251048270422866
  0.2777785929809408  0.7222209937320104  0.6248727240876661
  0.1110693877573359  0.2222013605453323  0.6249119730105609
  0.4444540833688668  0.2222261428224649  0.6244993614734443
  0.6110853129057420  0.7222015782272085  0.6245628073708668
  0.9444664312813809  0.7222328962384753  0.6248218837158730
  0.7777450080490554  0.2222160632385045  0.6248416795025269
  0.1111279867905623  0.7222306600619455  0.1251311208352412
  0.4444303674540252  0.7222142965619304  0.1251668518205238
  0.2777494499271849  0.2222142618156147  0.1251957456990281
  0.7777759946929514  0.7222101314762363  0.1254185657474099
  0.6110853129057420  0.2222170680118631  0.1254371926291328
  0.9444046087184285  0.2222063250161307  0.1251048270422866
  0.1110935928526718  0.3888773686997045  0.6248971301944454
  0.2777785929809408  0.8888909325822596  0.6248727240876661
  0.6110738243075133  0.8888704073206771  0.6248627505954499
  0.4444422853386531  0.3888878093359911  0.6242149002854883
  0.9444396803602468  0.8888825843128897  0.6248825854770413
  0.1111201760993336  0.8888967513945031  0.1251242575897801
  0.7777759946929514  0.3888991965500443  0.6245814342525904
  0.4444244994924344  0.8888789164128817  0.1251455828474896
  0.2777494499271849  0.3888685214448984  0.1251957456990281
  0.2777752307500911  0.5555491869243846  0.1251253437867631
  0.6111107962591736  0.3889009686915172  0.1265579415318687
  0.7777450080490554  0.8888622781438792  0.1251583204974733
  0.9444396803602468  0.3888904293806866  0.1251174145229580
  0.1111201760993336  0.5555567580381585  0.6248757424102204
  0.2777752307500911  0.0555593771590409  0.6248746562132369
  0.7777962271868100  0.5555647802600729  0.6242973783891489
  0.6110738243075133  0.0555367503201652  0.6248627505954499
  0.9444046087184285  0.0555316170356338  0.6248951729577129
  0.0534511920769286  0.1098118273283559  0.3750000000000000
  0.5559869486032654  0.6070844197723492  0.3750000000000000
  0.3891866370166813  0.1126798521723520  0.3750000000000000
  0.8914728188386236  0.6124030760859827  0.3750000000000000
  0.7215483081228091  0.1111392713338498  0.3750000000000000
  0.0555482644399999  0.7777762241840264  0.8750000000000000
  0.3888904961088209  0.7777764072507307  0.8750000000000000
  0.2222181299235642  0.2777757316284504  0.8750000000000000
  0.7222236272548428  0.7777777574322271  0.8750000000000000
  0.5555599177182839  0.2777858907089429  0.8750000000000000
  0.8888886082190691  0.2777767203884796  0.8750000000000000
  0.2233212209049185  0.7783272771191271  0.3750000000000000
  0.0534511920769286  0.2769726980819089  0.3750000000000000
  0.3813617058260146  0.2689510669490174  0.3750000000000000
  0.5556788354006086  0.7762886753418350  0.3750000000000000
  0.8900024317350866  0.7781992113981456  0.3750000000000000
  0.7221797697693723  0.2786989362846349  0.3750000000000000
  0.0555496736880651  0.9444434650151962  0.8750000000000000
  0.3888904961088209  0.9444474221914251  0.8750000000000000
  0.2222169325267044  0.4444406872854614  0.8750000000000000
  0.5555589537672129  0.4444461435502707  0.8750000000000000
  0.7222219675334585  0.9444443522615023  0.8750000000000000
  0.8888871475443825  0.4444413399876476  0.8750000000000000
  0.0553957128462612  0.4444413241662556  0.3750000000000000
  0.2228993022912604  0.9451815836029794  0.3750000000000000
  0.5555743752392576  0.9444538542862930  0.3750000000000000
  0.3813617058260146  0.4457439722103319  0.3750000000000000
  0.8880034272803762  0.9436459001526856  0.3750000000000000
  0.7251879721184046  0.4470503541735604  0.3750000000000000
  0.2222168667159258  0.6111062686444176  0.8750000000000000
  0.0555508391726647  0.1111087180539841  0.8750000000000000
  0.5555599177182839  0.6111073603426758  0.8750000000000000
  0.3888902582683688  0.1111172272719961  0.8750000000000000
  0.8888844998011322  0.6111089165672378  0.8750000000000000
  0.0569601510008147  0.6116985298840418  0.3750000000000000
  0.7222219675334585  0.1111109486052920  0.8750000000000000
  0.2206552861966974  0.1102355285559565  0.3750000000000000
  0.3891866370166813  0.6098401181776723  0.3750000000000000
  0.7251879721184046  0.6114709512781811  0.3750000000000000
  0.5556788354006086  0.1127234933921093  0.3750000000000000
  0.3888902582683688  0.6111063643297171  0.8750000000000000
  0.8874736770891616  0.1104035052112527  0.3750000000000000
  0.2222171843006714  0.7777752588170049  0.8750000000000000
  0.0555508391726647  0.2777754544520163  0.8750000000000000
  0.3888900171826123  0.2777807569264386  0.8750000000000000
  0.5555581194521411  0.7777763247590863  0.8750000000000000
  0.8888871475443825  0.7777791408900705  0.8750000000000000
  0.7222236272548428  0.2777792031559505  0.8750000000000000
  0.0569601510008147  0.7785949544501092  0.3750000000000000
  0.3895163991625162  0.7775142789907350  0.3750000000000000
  0.2178050036767152  0.2755691685050256  0.3750000000000000
  0.7221797697693723  0.7768141668180730  0.3750000000000000
  0.5559869486032654  0.2822358621642496  0.3750000000000000
  0.8880034272803762  0.2776908604610291  0.3750000000000000
  0.0555496736880651  0.4444395420061965  0.8750000000000000
  0.2222168667159258  0.9444439314048425  0.8750000000000000
  0.5555558208427209  0.9444445770880245  0.8750000000000000
  0.3888900171826123  0.4444425935895078  0.8750000000000000
  0.8888886082190691  0.9444452211639259  0.8750000000000000
  0.0553957128462612  0.9442877220133336  0.3750000000000000
  0.7222205758394031  0.4444444287350742  0.8750000000000000
  0.3895163991625162  0.9453354535051157  0.3750000000000000
  0.2206552861966974  0.4437530909740765  0.3750000000000000
  0.2228993022912604  0.6110510520216170  0.3750000000000000
  0.7215483081228091  0.9437423701222949  0.3750000000000000
  0.8900024317350866  0.4451365536702774  0.3750000000000000
  0.0555482644399999  0.6111053735893091  0.8750000000000000
  0.2222169325267044  0.1111095785745790  0.8750000000000000
  0.7222205758394031  0.6111094804376649  0.8750000000000000
  0.5555581194521411  0.1111151280263895  0.8750000000000000
  0.8888878101694008  0.1111105717513720  0.8750000000000000
  0.1096652453522488  0.0550061354226973  0.3750000000000000
  0.6189876472927913  0.5637542856016184  0.3750000000000000
  0.4444498303493349  0.0564615733010597  0.3750000000000000
  0.9467350379360503  0.5563166428789842  0.3750000000000000
  0.7767967876466183  0.0550650604899765  0.3750000000000000
  0.1111218463498938  0.7222275898416111  0.8750000000000000
  0.4444279507363296  0.7222194233105800  0.8750000000000000
  0.2777476167747835  0.2222096858744060  0.8750000000000000
  0.7778020836070980  0.7222612759904595  0.8750000000000000
  0.6111088123652502  0.2221993636212255  0.8750000000000000
  0.9444581964516544  0.2222180920642468  0.8750000000000000
  0.2784080485253477  0.7222328898713349  0.3750000000000000
  0.1074815715241943  0.2204074524287614  0.3750000000000000
  0.4443690505894926  0.2243165034353269  0.3750000000000000
  0.6116492806439349  0.7217790528714029  0.3750000000000000
  0.9467350379360503  0.7237517283904007  0.3750000000000000
  0.7773914807642411  0.2219928041703523  0.3750000000000000
  0.1111171870871323  0.8889041058711066  0.8750000000000000
  0.4444362671042207  0.8888848002187741  0.8750000000000000
  0.2777476167747835  0.3888712642337059  0.8750000000000000
  0.6110986084318806  0.3888723501196421  0.8750000000000000
  0.7777971642834108  0.8889235665456754  0.8750000000000000
  0.9444655274607161  0.3888758811802036  0.8750000000000000
  0.1096652453522488  0.3879924432628800  0.3750000000000000
  0.2784080485253477  0.8895084919873406  0.3750000000000000
  0.6107905496100376  0.8883240918796094  0.3750000000000000
  0.9447886379501805  0.8894313584322753  0.3750000000000000
  0.7802648056687608  0.3890689428493708  0.3750000000000000
  0.2777562920972581  0.5555409588816925  0.8750000000000000
  0.1111073479643965  0.0555644959124410  0.8750000000000000
  0.6110986084318806  0.5555595916455661  0.8750000000000000
  0.4444279507363296  0.0555418607590854  0.8750000000000000
  0.9444727516813627  0.5555565446745969  0.8750000000000000
  0.1119493082420529  0.5555997298830492  0.3750000000000000
  0.7777934515847181  0.0555633924590268  0.8750000000000000
  0.2775746108059204  0.0561525060498221  0.3750000000000000
  0.4443690505894926  0.5533858804875025  0.3750000000000000
  0.7826997709686234  0.5580165521509799  0.3750000000000000
  0.6107905496100376  0.0557997910637580  0.3750000000000000
  0.4444048207850167  0.5555366454547812  0.8750000000000000
  0.9428227705221880  0.0547043954360196  0.3750000000000000
  0.2777702232556782  0.7222167429528313  0.8750000000000000
  0.1111039289894067  0.2222186311613675  0.8750000000000000
  0.4444048207850167  0.2222015086635721  0.8750000000000000
  0.6111088123652502  0.7222427820773539  0.8750000000000000
  0.9444727516813627  0.7222495403401018  0.8750000000000000
  0.7777971642834108  0.2222069310710648  0.8750000000000000
  0.1125451068579525  0.7229392200956397  0.3750000000000000
  0.4444498303493349  0.7213215903816120  0.3750000000000000
  0.2730987604006540  0.2213844948408169  0.3750000000000000
  0.7802648056687608  0.7245291961527179  0.3750000000000000
  0.6116492806439349  0.2232035611058605  0.3750000000000000
  0.9428227705221880  0.2214517084195044  0.3750000000000000
  0.1111073479643965  0.3888761853852840  0.8750000000000000
  0.2777702232556782  0.8888868136361753  0.8750000000000000
  0.6111140669455286  0.8889019463701827  0.8750000000000000
  0.4443893678173707  0.3888613505753499  0.8750000000000000
  0.9444655274607161  0.8889229796138391  0.8750000000000000
  0.1119493082420529  0.8896829116923317  0.3750000000000000
  0.7778020836070980  0.3888741409499687  0.8750000000000000
  0.4446088488355162  0.8889710910844231  0.3750000000000000
  0.2730987604006540  0.3850475988931660  0.3750000000000000
  0.2775746108059204  0.5547554380894334  0.3750000000000000
  0.6189876472927913  0.3885666950245018  0.3750000000000000
  0.7773914807642411  0.8887320099272181  0.3750000000000000
  0.9447886379501805  0.3886906128512340  0.3750000000000000
  0.1111171870871323  0.5555464145493537  0.8750000000000000
  0.2777562920972581  0.0555486665489015  0.8750000000000000
  0.7778028935764967  0.5555681134549163  0.8750000000000000
  0.6111140669455286  0.0555454539086751  0.8750000000000000
  0.9444581964516544  0.0555734377207431  0.8750000000000000
  0.0555390708268058  0.1111102813356011  0.1248820832807149
  0.5554082640568118  0.6111425098101083  0.1251591028891604
  0.3888070431241780  0.1110278242398158  0.1249351129377867
  0.8890775312924070  0.6112054323128748  0.1248552900958384
  0.7221850704062005  0.1110574197414579  0.1248720689950538
  0.0556784552840126  0.7778485033518834  0.6251236993327381
  0.3888414683817276  0.7777813534741868  0.6250902895096472
  0.2221751660449698  0.2777542496891529  0.6250832395169270
  0.7222291768259828  0.7778632816675760  0.6251122062062082
  0.5554082640568118  0.2775990875800387  0.6248408971108389
  0.8889142383282673  0.2777580941483535  0.6251369301827004
  0.2222610267261434  0.7777971800297387  0.1249251793801820
  0.0555390708268058  0.2777621228245407  0.1248820832807149
  0.3887736548317441  0.2777440858845129  0.1254685579060903
  0.5554740101356638  0.7778204825421131  0.1248769202391394
  0.8890111594745560  0.7778784545053363  0.1248356497374356
  0.7222291768259828  0.2776992284917427  0.1248877937937930
  0.0556085077523742  0.9444871430513714  0.6251201139902314
  0.3888414683817276  0.9443934482408757  0.6250902895096472
  0.2221966496551988  0.4444189792733760  0.6250956240096476
  0.5553089644746076  0.4443211489039681  0.6243298760594519
  0.7221850704062008  0.9444609839980785  0.6251279310049465
  0.8890111594745560  0.4444660383025558  0.6251643502625654
  0.0556085077523742  0.4444546980343321  0.1248798860097693
  0.2222387730723677  0.9444477781126781  0.1249087052393865
  0.5554886090088891  0.9444109711711082  0.1248855470707750
  0.3887736548317441  0.4443629022805666  0.1254685579060903
  0.8889142383282673  0.9444894775132492  0.1248630698172995
  0.7223055735357615  0.4444445528424033  0.1251408189454819
  0.2222387730723677  0.6111243282930270  0.6250912947606141
  0.0555390708268058  0.1111102813356011  0.6251179167192850
  0.5554082640568118  0.6111425098101083  0.6248408971108389
  0.3888070431241780  0.1110278242398158  0.6250648870622133
  0.8890775312924070  0.6112054323128748  0.6251447099041612
  0.0556784552840126  0.6111632852654639  0.1248763006672615
  0.7221850704062008  0.1110574197414579  0.6251279310049465
  0.2221966496551988  0.1111110037151586  0.1249043759903528
  0.3888070431241780  0.6111125522177036  0.1249351129377867
  0.7223055735357615  0.6111943540266948  0.1251408189454819
  0.5554740101356638  0.1109868609268866  0.1248769202391394
  0.3888070431241780  0.6111125522177036  0.6250648870622133
  0.8888732276186797  0.1111032804760109  0.1248963479320123
  0.2222610267261434  0.7777971800297387  0.6250748206198180
  0.0555390708268058  0.2777621228245407  0.6251179167192850
  0.3887736548317441  0.2777440858845129  0.6245314420939095
  0.5554740101356638  0.7778204825421131  0.6251230797608608
  0.8890111594745560  0.7778784545053363  0.6251643502625654
  0.7222291768259828  0.2776992284917427  0.6251122062062082
  0.0556784552840126  0.7778485033518834  0.1248763006672615
  0.3888414683817276  0.7777813534741868  0.1249097104903536
  0.2221751660449698  0.2777542496891529  0.1249167604830729
  0.7222291768259828  0.7778632816675760  0.1248877937937930
  0.5554082640568118  0.2775990875800387  0.1251591028891604
  0.8889142383282673  0.2777580941483535  0.1248630698172995
  0.0556085077523742  0.4444546980343321  0.6251201139902314
  0.2222387730723677  0.9444477781126781  0.6250912947606141
  0.5554886090088891  0.9444109711711082  0.6251144529292246
  0.3887736548317441  0.4443629022805666  0.6245314420939095
  0.8889142383282673  0.9444894775132492  0.6251369301827004
  0.0556085077523742  0.9444871430513714  0.1248798860097693
  0.7223055735357615  0.4444445528424033  0.6248591810545187
  0.3888414683817276  0.9443934482408757  0.1249097104903536
  0.2221966496551988  0.4444189792733760  0.1249043759903528
  0.2222387730723677  0.6111243282930270  0.1249087052393865
  0.5553089644746076  0.4443211489039681  0.1256701239405478
  0.7221850704062008  0.9444609839980785  0.1248720689950538
  0.8890111594745560  0.4444660383025558  0.1248356497374356
  0.0556784552840126  0.6111632852654639  0.6251236993327381
  0.2221966496551988  0.1111110037151586  0.6250956240096476
  0.7223055735357615  0.6111943540266948  0.6248591810545187
  0.5554740101356638  0.1109868609268866  0.6251230797608608
  0.8888732276186797  0.1111032804760109  0.6251036520679880
 
  0.00000000E+00  0.00000000E+00  0.00000000E+00
  0.00000000E+00  0.00000000E+00  0.00000000E+00
  0.00000000E+00  0.00000000E+00  0.00000000E+00
  0.00000000E+00  0.00000000E+00  0.00000000E+00
  0.00000000E+00  0.00000000E+00  0.00000000E+00
  0.00000000E+00  0.00000000E+00  0.00000000E+00
  0.00000000E+00  0.00000000E+00  0.00000000E+00
  0.00000000E+00  0.00000000E+00  0.00000000E+00
  0.00000000E+00  0.00000000E+00  0.00000000E+00
  0.00000000E+00  0.00000000E+00  0.00000000E+00
  0.00000000E+00  0.00000000E+00  0.00000000E+00
  0.00000000E+00  0.00000000E+00  0.00000000E+00
  0.00000000E+00  0.00000000E+00  0.00000000E+00
  0.00000000E+00  0.00000000E+00  0.00000000E+00
  0.00000000E+00  0.00000000E+00  0.00000000E+00
  0.00000000E+00  0.00000000E+00  0.00000000E+00
  0.00000000E+00  0.00000000E+00  0.00000000E+00
  0.00000000E+00  0.00000000E+00  0.00000000E+00
  0.00000000E+00  0.00000000E+00  0.00000000E+00
  0.00000000E+00  0.00000000E+00  0.00000000E+00
  0.00000000E+00  0.00000000E+00  0.00000000E+00
  0.00000000E+00  0.00000000E+00  0.00000000E+00
  0.00000000E+00  0.00000000E+00  0.00000000E+00
  0.00000000E+00  0.00000000E+00  0.00000000E+00
  0.00000000E+00  0.00000000E+00  0.00000000E+00
  0.00000000E+00  0.00000000E+00  0.00000000E+00
  0.00000000E+00  0.00000000E+00  0.00000000E+00
  0.00000000E+00  0.00000000E+00  0.00000000E+00
  0.00000000E+00  0.00000000E+00  0.00000000E+00
  0.00000000E+00  0.00000000E+00  0.00000000E+00
  0.00000000E+00  0.00000000E+00  0.00000000E+00
  0.00000000E+00  0.00000000E+00  0.00000000E+00
  0.00000000E+00  0.00000000E+00  0.00000000E+00
  0.00000000E+00  0.00000000E+00  0.00000000E+00
  0.00000000E+00  0.00000000E+00  0.00000000E+00
  0.00000000E+00  0.00000000E+00  0.00000000E+00
  0.00000000E+00  0.00000000E+00  0.00000000E+00
  0.00000000E+00  0.00000000E+00  0.00000000E+00
  0.00000000E+00  0.00000000E+00  0.00000000E+00
  0.00000000E+00  0.00000000E+00  0.00000000E+00
  0.00000000E+00  0.00000000E+00  0.00000000E+00
  0.00000000E+00  0.00000000E+00  0.00000000E+00
  0.00000000E+00  0.00000000E+00  0.00000000E+00
  0.00000000E+00  0.00000000E+00  0.00000000E+00
  0.00000000E+00  0.00000000E+00  0.00000000E+00
  0.00000000E+00  0.00000000E+00  0.00000000E+00
  0.00000000E+00  0.00000000E+00  0.00000000E+00
  0.00000000E+00  0.00000000E+00  0.00000000E+00
  0.00000000E+00  0.00000000E+00  0.00000000E+00
  0.00000000E+00  0.00000000E+00  0.00000000E+00
  0.00000000E+00  0.00000000E+00  0.00000000E+00
  0.00000000E+00  0.00000000E+00  0.00000000E+00
  0.00000000E+00  0.00000000E+00  0.00000000E+00
  0.00000000E+00  0.00000000E+00  0.00000000E+00
  0.00000000E+00  0.00000000E+00  0.00000000E+00
  0.00000000E+00  0.00000000E+00  0.00000000E+00
  0.00000000E+00  0.00000000E+00  0.00000000E+00
  0.00000000E+00  0.00000000E+00  0.00000000E+00
  0.00000000E+00  0.00000000E+00  0.00000000E+00
  0.00000000E+00  0.00000000E+00  0.00000000E+00
  0.00000000E+00  0.00000000E+00  0.00000000E+00
  0.00000000E+00  0.00000000E+00  0.00000000E+00
  0.00000000E+00  0.00000000E+00  0.00000000E+00
  0.00000000E+00  0.00000000E+00  0.00000000E+00
  0.00000000E+00  0.00000000E+00  0.00000000E+00
  0.00000000E+00  0.00000000E+00  0.00000000E+00
  0.00000000E+00  0.00000000E+00  0.00000000E+00
  0.00000000E+00  0.00000000E+00  0.00000000E+00
  0.00000000E+00  0.00000000E+00  0.00000000E+00
  0.00000000E+00  0.00000000E+00  0.00000000E+00
  0.00000000E+00  0.00000000E+00  0.00000000E+00
  0.00000000E+00  0.00000000E+00  0.00000000E+00
  0.00000000E+00  0.00000000E+00  0.00000000E+00
  0.00000000E+00  0.00000000E+00  0.00000000E+00
  0.00000000E+00  0.00000000E+00  0.00000000E+00
  0.00000000E+00  0.00000000E+00  0.00000000E+00
  0.00000000E+00  0.00000000E+00  0.00000000E+00
  0.00000000E+00  0.00000000E+00  0.00000000E+00
  0.00000000E+00  0.00000000E+00  0.00000000E+00
  0.00000000E+00  0.00000000E+00  0.00000000E+00
  0.00000000E+00  0.00000000E+00  0.00000000E+00
  0.00000000E+00  0.00000000E+00  0.00000000E+00
  0.00000000E+00  0.00000000E+00  0.00000000E+00
  0.00000000E+00  0.00000000E+00  0.00000000E+00
  0.00000000E+00  0.00000000E+00  0.00000000E+00
  0.00000000E+00  0.00000000E+00  0.00000000E+00
  0.00000000E+00  0.00000000E+00  0.00000000E+00
  0.00000000E+00  0.00000000E+00  0.00000000E+00
  0.00000000E+00  0.00000000E+00  0.00000000E+00
  0.00000000E+00  0.00000000E+00  0.00000000E+00
  0.00000000E+00  0.00000000E+00  0.00000000E+00
  0.00000000E+00  0.00000000E+00  0.00000000E+00
  0.00000000E+00  0.00000000E+00  0.00000000E+00
  0.00000000E+00  0.00000000E+00  0.00000000E+00
  0.00000000E+00  0.00000000E+00  0.00000000E+00
  0.00000000E+00  0.00000000E+00  0.00000000E+00
  0.00000000E+00  0.00000000E+00  0.00000000E+00
  0.00000000E+00  0.00000000E+00  0.00000000E+00
  0.00000000E+00  0.00000000E+00  0.00000000E+00
  0.00000000E+00  0.00000000E+00  0.00000000E+00
  0.00000000E+00  0.00000000E+00  0.00000000E+00
  0.00000000E+00  0.00000000E+00  0.00000000E+00
  0.00000000E+00  0.00000000E+00  0.00000000E+00
  0.00000000E+00  0.00000000E+00  0.00000000E+00
  0.00000000E+00  0.00000000E+00  0.00000000E+00
  0.00000000E+00  0.00000000E+00  0.00000000E+00
  0.00000000E+00  0.00000000E+00  0.00000000E+00
  0.00000000E+00  0.00000000E+00  0.00000000E+00
  0.00000000E+00  0.00000000E+00  0.00000000E+00
  0.00000000E+00  0.00000000E+00  0.00000000E+00
  0.00000000E+00  0.00000000E+00  0.00000000E+00
  0.00000000E+00  0.00000000E+00  0.00000000E+00
  0.00000000E+00  0.00000000E+00  0.00000000E+00
  0.00000000E+00  0.00000000E+00  0.00000000E+00
  0.00000000E+00  0.00000000E+00  0.00000000E+00
  0.00000000E+00  0.00000000E+00  0.00000000E+00
  0.00000000E+00  0.00000000E+00  0.00000000E+00
  0.00000000E+00  0.00000000E+00  0.00000000E+00
  0.00000000E+00  0.00000000E+00  0.00000000E+00
  0.00000000E+00  0.00000000E+00  0.00000000E+00
  0.00000000E+00  0.00000000E+00  0.00000000E+00
  0.00000000E+00  0.00000000E+00  0.00000000E+00
  0.00000000E+00  0.00000000E+00  0.00000000E+00
  0.00000000E+00  0.00000000E+00  0.00000000E+00
  0.00000000E+00  0.00000000E+00  0.00000000E+00
  0.00000000E+00  0.00000000E+00  0.00000000E+00
  0.00000000E+00  0.00000000E+00  0.00000000E+00
  0.00000000E+00  0.00000000E+00  0.00000000E+00
  0.00000000E+00  0.00000000E+00  0.00000000E+00
  0.00000000E+00  0.00000000E+00  0.00000000E+00
  0.00000000E+00  0.00000000E+00  0.00000000E+00
  0.00000000E+00  0.00000000E+00  0.00000000E+00
  0.00000000E+00  0.00000000E+00  0.00000000E+00
  0.00000000E+00  0.00000000E+00  0.00000000E+00
  0.00000000E+00  0.00000000E+00  0.00000000E+00
  0.00000000E+00  0.00000000E+00  0.00000000E+00
  0.00000000E+00  0.00000000E+00  0.00000000E+00
  0.00000000E+00  0.00000000E+00  0.00000000E+00
  0.00000000E+00  0.00000000E+00  0.00000000E+00
  0.00000000E+00  0.00000000E+00  0.00000000E+00
  0.00000000E+00  0.00000000E+00  0.00000000E+00
  0.00000000E+00  0.00000000E+00  0.00000000E+00
  0.00000000E+00  0.00000000E+00  0.00000000E+00
  0.00000000E+00  0.00000000E+00  0.00000000E+00
  0.00000000E+00  0.00000000E+00  0.00000000E+00
  0.00000000E+00  0.00000000E+00  0.00000000E+00
  0.00000000E+00  0.00000000E+00  0.00000000E+00
  0.00000000E+00  0.00000000E+00  0.00000000E+00
  0.00000000E+00  0.00000000E+00  0.00000000E+00
  0.00000000E+00  0.00000000E+00  0.00000000E+00
  0.00000000E+00  0.00000000E+00  0.00000000E+00
  0.00000000E+00  0.00000000E+00  0.00000000E+00
  0.00000000E+00  0.00000000E+00  0.00000000E+00
  0.00000000E+00  0.00000000E+00  0.00000000E+00
  0.00000000E+00  0.00000000E+00  0.00000000E+00
  0.00000000E+00  0.00000000E+00  0.00000000E+00
  0.00000000E+00  0.00000000E+00  0.00000000E+00
  0.00000000E+00  0.00000000E+00  0.00000000E+00
  0.00000000E+00  0.00000000E+00  0.00000000E+00
  0.00000000E+00  0.00000000E+00  0.00000000E+00
  0.00000000E+00  0.00000000E+00  0.00000000E+00
  0.00000000E+00  0.00000000E+00  0.00000000E+00
  0.00000000E+00  0.00000000E+00  0.00000000E+00
  0.00000000E+00  0.00000000E+00  0.00000000E+00
  0.00000000E+00  0.00000000E+00  0.00000000E+00
  0.00000000E+00  0.00000000E+00  0.00000000E+00
  0.00000000E+00  0.00000000E+00  0.00000000E+00
  0.00000000E+00  0.00000000E+00  0.00000000E+00
  0.00000000E+00  0.00000000E+00  0.00000000E+00
  0.00000000E+00  0.00000000E+00  0.00000000E+00
  0.00000000E+00  0.00000000E+00  0.00000000E+00
  0.00000000E+00  0.00000000E+00  0.00000000E+00
  0.00000000E+00  0.00000000E+00  0.00000000E+00
  0.00000000E+00  0.00000000E+00  0.00000000E+00
  0.00000000E+00  0.00000000E+00  0.00000000E+00
  0.00000000E+00  0.00000000E+00  0.00000000E+00
  0.00000000E+00  0.00000000E+00  0.00000000E+00
  0.00000000E+00  0.00000000E+00  0.00000000E+00
  0.00000000E+00  0.00000000E+00  0.00000000E+00
  0.00000000E+00  0.00000000E+00  0.00000000E+00
  0.00000000E+00  0.00000000E+00  0.00000000E+00
  0.00000000E+00  0.00000000E+00  0.00000000E+00
  0.00000000E+00  0.00000000E+00  0.00000000E+00
  0.00000000E+00  0.00000000E+00  0.00000000E+00
  0.00000000E+00  0.00000000E+00  0.00000000E+00
  0.00000000E+00  0.00000000E+00  0.00000000E+00
  0.00000000E+00  0.00000000E+00  0.00000000E+00
  0.00000000E+00  0.00000000E+00  0.00000000E+00
  0.00000000E+00  0.00000000E+00  0.00000000E+00
  0.00000000E+00  0.00000000E+00  0.00000000E+00
  0.00000000E+00  0.00000000E+00  0.00000000E+00
  0.00000000E+00  0.00000000E+00  0.00000000E+00
  0.00000000E+00  0.00000000E+00  0.00000000E+00
  0.00000000E+00  0.00000000E+00  0.00000000E+00
  0.00000000E+00  0.00000000E+00  0.00000000E+00
  0.00000000E+00  0.00000000E+00  0.00000000E+00
  0.00000000E+00  0.00000000E+00  0.00000000E+00
  0.00000000E+00  0.00000000E+00  0.00000000E+00
  0.00000000E+00  0.00000000E+00  0.00000000E+00
  0.00000000E+00  0.00000000E+00  0.00000000E+00
  0.00000000E+00  0.00000000E+00  0.00000000E+00
  0.00000000E+00  0.00000000E+00  0.00000000E+00
  0.00000000E+00  0.00000000E+00  0.00000000E+00
  0.00000000E+00  0.00000000E+00  0.00000000E+00
  0.00000000E+00  0.00000000E+00  0.00000000E+00
  0.00000000E+00  0.00000000E+00  0.00000000E+00
  0.00000000E+00  0.00000000E+00  0.00000000E+00
  0.00000000E+00  0.00000000E+00  0.00000000E+00
  0.00000000E+00  0.00000000E+00  0.00000000E+00
  0.00000000E+00  0.00000000E+00  0.00000000E+00
  0.00000000E+00  0.00000000E+00  0.00000000E+00
  0.00000000E+00  0.00000000E+00  0.00000000E+00
  0.00000000E+00  0.00000000E+00  0.00000000E+00
  0.00000000E+00  0.00000000E+00  0.00000000E+00
  0.00000000E+00  0.00000000E+00  0.00000000E+00
  0.00000000E+00  0.00000000E+00  0.00000000E+00
  0.00000000E+00  0.00000000E+00  0.00000000E+00
  0.00000000E+00  0.00000000E+00  0.00000000E+00
  0.00000000E+00  0.00000000E+00  0.00000000E+00
  0.00000000E+00  0.00000000E+00  0.00000000E+00
  0.00000000E+00  0.00000000E+00  0.00000000E+00
  0.00000000E+00  0.00000000E+00  0.00000000E+00
  0.00000000E+00  0.00000000E+00  0.00000000E+00
  0.00000000E+00  0.00000000E+00  0.00000000E+00
  0.00000000E+00  0.00000000E+00  0.00000000E+00
  0.00000000E+00  0.00000000E+00  0.00000000E+00
  0.00000000E+00  0.00000000E+00  0.00000000E+00
  0.00000000E+00  0.00000000E+00  0.00000000E+00
  0.00000000E+00  0.00000000E+00  0.00000000E+00
  0.00000000E+00  0.00000000E+00  0.00000000E+00
  0.00000000E+00  0.00000000E+00  0.00000000E+00
  0.00000000E+00  0.00000000E+00  0.00000000E+00
  0.00000000E+00  0.00000000E+00  0.00000000E+00
  0.00000000E+00  0.00000000E+00  0.00000000E+00
  0.00000000E+00  0.00000000E+00  0.00000000E+00
  0.00000000E+00  0.00000000E+00  0.00000000E+00
  0.00000000E+00  0.00000000E+00  0.00000000E+00
  0.00000000E+00  0.00000000E+00  0.00000000E+00
  0.00000000E+00  0.00000000E+00  0.00000000E+00
  0.00000000E+00  0.00000000E+00  0.00000000E+00
  0.00000000E+00  0.00000000E+00  0.00000000E+00
  0.00000000E+00  0.00000000E+00  0.00000000E+00
  0.00000000E+00  0.00000000E+00  0.00000000E+00
  0.00000000E+00  0.00000000E+00  0.00000000E+00
  0.00000000E+00  0.00000000E+00  0.00000000E+00
  0.00000000E+00  0.00000000E+00  0.00000000E+00
  0.00000000E+00  0.00000000E+00  0.00000000E+00
  0.00000000E+00  0.00000000E+00  0.00000000E+00
  0.00000000E+00  0.00000000E+00  0.00000000E+00
  0.00000000E+00  0.00000000E+00  0.00000000E+00