Species order:X N B                     
   2.51242800000000     
     5.9449720136058266    0.0000000000000000    0.0000000000000000
    -2.9724860068029120    5.1484967885702053   -0.0000000000000001
     0.0000000000000000    0.0000000000000009    5.3101128803662583
   C    N    B 
     3   143   141
Direct
  0.6119048584465222  0.3918199407880958  0.3750000000000000
  0.4465817490082521  0.3918199407880958  0.3750000000000000
  0.5536137393990267  0.4405608121313813  0.3750000000000000
  0.1111066882105690  0.0555583452583096  0.1250762581412881
  0.6110999900463008  0.5555333134259307  0.1242779830676548
  0.4444554818750698  0.0555753426651843  0.1251060174579569
  0.9444386553923528  0.5555440174991145  0.1250578003058415
  0.7777809879801737  0.0555538367218386  0.1250212005440366
  0.1111071424936631  0.7222193808515903  0.6249862031592898
  0.4444451807473108  0.7222084585105795  0.6249199026621698
  0.2777638851546474  0.2222348474182630  0.6248724886242857
  0.7777626692178864  0.7222100383691067  0.6248266722514626
  0.6111376289302856  0.2222348474182630  0.6248724886242857
  0.9444434176331893  0.2222201685997148  0.6249566178854735
  0.2777789050245983  0.7222193808515903  0.1250137968407100
  0.1110857317816884  0.2222138216025391  0.1250609684378385
  0.4444605614276406  0.2222544561886175  0.1252077558656939
  0.6111140358178914  0.7222100383691067  0.1251733277485368
  0.9444299444299410  0.7222084585105795  0.1250800973378304
  0.7777947564875217  0.2222138216025391  0.1250609684378385
  0.1111095377623900  0.8888924193963128  0.6249672424709587
  0.4444495483005947  0.8888924193963128  0.6249672424709587
  0.2777553314000971  0.3888717039862797  0.6248716117484981
  0.6111269974498145  0.3888787904792522  0.6254621174899450
  0.7777781005341545  0.8888895344016374  0.6249288651550023
  0.9444505166502243  0.3888864884472965  0.6249350786931515
  0.1111026384637432  0.3888864884472965  0.1250649213068486
  0.2777824304758997  0.8888981942851280  0.1250383905215683
  0.6111135243997888  0.8888839295352682  0.1250672544989284
  0.4444184596961095  0.3888787904792522  0.1245378825100548
  0.9444370718021516  0.8888839295352682  0.1250672544989284
  0.7777830392528463  0.3888717039862797  0.1251283882515015
  0.2777720287734337  0.5555440174991145  0.6249421996941584
  0.1111066882105690  0.0555583452583096  0.6249237418587116
  0.6110999900463008  0.5555333134259307  0.6257220169323453
  0.4444554818750698  0.0555753426651843  0.6248939825420430
  0.9444386553923528  0.5555440174991145  0.6249421996941584
  0.1111094893723170  0.5555523120779698  0.1250252902477176
  0.7777809879801737  0.0555538367218386  0.6249787994559639
  0.2777865274567786  0.0555753426651843  0.1251060174579569
  0.4444270078280236  0.5555240598225237  0.1250736205495567
  0.7777637186611649  0.5555240598225237  0.1250736205495567
  0.6111183237144189  0.0555583452583096  0.1250762581412881
  0.4444270078280236  0.5555240598225237  0.6249263794504437
  0.9444395154083217  0.0555538367218386  0.1250212005440366
  0.2777789050245983  0.7222193808515903  0.6249862031592898
  0.1110857317816884  0.2222138216025391  0.6249390315621621
  0.4444605614276406  0.2222544561886175  0.6247922441343051
  0.6111140358178914  0.7222100383691067  0.6248266722514626
  0.9444299444299410  0.7222084585105795  0.6249199026621698
  0.7777947564875217  0.2222138216025391  0.6249390315621621
  0.1111071424936631  0.7222193808515903  0.1250137968407100
  0.4444451807473108  0.7222084585105795  0.1250800973378304
  0.2777638851546474  0.2222348474182630  0.1251275113757144
  0.7777626692178864  0.7222100383691067  0.1251733277485368
  0.6111376289302856  0.2222348474182630  0.1251275113757144
  0.9444434176331893  0.2222201685997148  0.1250433821145267
  0.1111026384637432  0.3888864884472965  0.6249350786931515
  0.2777824304758997  0.8888981942851280  0.6249616094784319
  0.6111135243997888  0.8888839295352682  0.6249327455010713
  0.4444184596961095  0.3888787904792522  0.6254621174899450
  0.9444370718021516  0.8888839295352682  0.6249327455010713
  0.1111095377623900  0.8888924193963128  0.1250327575290409
  0.7777830392528463  0.3888717039862797  0.6248716117484981
  0.4444495483005947  0.8888924193963128  0.1250327575290409
  0.2777553314000971  0.3888717039862797  0.1251283882515015
  0.2777720287734337  0.5555440174991145  0.1250578003058415
  0.6111269974498145  0.3888787904792522  0.1245378825100548
  0.7777781005341545  0.8888895344016374  0.1250711348449974
  0.9444505166502243  0.3888864884472965  0.1250649213068486
  0.1111094893723170  0.5555523120779698  0.6249747097522819
  0.2777865274567786  0.0555753426651843  0.6248939825420430
  0.7777637186611649  0.5555240598225237  0.6249263794504437
  0.6111183237144189  0.0555583452583096  0.6249237418587116
  0.9444395154083217  0.0555538367218386  0.6249787994559639
  0.0554442957397362  0.1107999922351867  0.3750000000000000
  0.5510089207813462  0.6113264233177615  0.3750000000000000
  0.3905643767639305  0.1144620868612036  0.3750000000000000
  0.8883187178498142  0.6098425834595157  0.3750000000000000
  0.7220223631621148  0.1107999922351867  0.3750000000000000
  0.0555706707301582  0.7778034009329575  0.8750000000000000
  0.3888993968694635  0.7778034009329575  0.8750000000000000
  0.2222318175126012  0.2777983311360411  0.8750000000000000
  0.7222325402032835  0.7777984137399035  0.8750000000000000
  0.5555635951795146  0.2777942623216627  0.8750000000000000
  0.8889005792645499  0.2777999839660191  0.8750000000000000
  0.2224381573429685  0.7782096480192655  0.3750000000000000
  0.0553540586418154  0.2774633012210612  0.3750000000000000
  0.3909686178852110  0.2824044013588768  0.3750000000000000
  0.5551439186030120  0.7767632060710954  0.3750000000000000
  0.8882859541347471  0.7767632060710954  0.3750000000000000
  0.7223378327676631  0.2773168624751799  0.3750000000000000
  0.0555672390874224  0.9444663907768812  0.8750000000000000
  0.3889009360791081  0.9444675038233565  0.8750000000000000
  0.2222324020128842  0.4444685299841746  0.8750000000000000
  0.5555652030479222  0.4444637394291804  0.8750000000000000
  0.7222304606250159  0.9444636708739889  0.8750000000000000
  0.8889027946379540  0.4444685299841746  0.8750000000000000
  0.0554226197402583  0.4441785728138450  0.3750000000000000
  0.2229967389500419  0.9456342910278041  0.3750000000000000
  0.5554466119375193  0.9445963791053928  0.3750000000000000
  0.3892037438388022  0.4415362589983687  0.3750000000000000
  0.8886797131361766  0.9439126073455422  0.3750000000000000
  0.7189991818262315  0.4415362589983687  0.3750000000000000
  0.2222318737024178  0.6111344071877469  0.8750000000000000
  0.0555648991958888  0.1111281413611816  0.8750000000000000
  0.5555643349996655  0.6111334684412739  0.8750000000000000
  0.3888974156292587  0.1111281645918598  0.8750000000000000
  0.8889037564718838  0.6111348307459827  0.8750000000000000
  0.0554990904096434  0.6109874252503781  0.3750000000000000
  0.7222299088319492  0.1111281413611816  0.8750000000000000
  0.2235702290364532  0.1126706855630710  0.3750000000000000
  0.3881905322763587  0.6098425834595157  0.3750000000000000
  0.7269841692030791  0.6113264233177615  0.3750000000000000
  0.5557671231932818  0.1126706855630710  0.3750000000000000
  0.3888977409407567  0.6111348307459827  0.8750000000000000
  0.8886691077643772  0.1106715488621042  0.3750000000000000
  0.2222349619865008  0.7778032573063448  0.8750000000000000
  0.0555660713681268  0.2777999839660191  0.8750000000000000
  0.3888973338088124  0.2777942623216627  0.8750000000000000
  0.5555639632364955  0.7778002022536076  0.8750000000000000
  0.8889029056837762  0.7778002022536076  0.8750000000000000
  0.7222331802900968  0.2777983311360411  0.8750000000000000
  0.0554899737172052  0.7777334336098171  0.3750000000000000
  0.3889101265592760  0.7777334336098171  0.3750000000000000
  0.2216456963741808  0.2773168624751799  0.3750000000000000
  0.7219922018296020  0.7773177369925401  0.3750000000000000
  0.5581024501403306  0.2824044013588768  0.3750000000000000
  0.8887759092459030  0.2774633012210612  0.3750000000000000
  0.0555676022479413  0.4444685378292109  0.8750000000000000
  0.2222332344109118  0.9444675038233565  0.8750000000000000
  0.5555658183561314  0.9444663907768812  0.8750000000000000
  0.3888995900865624  0.4444678750856594  0.8750000000000000
  0.8888998769156375  0.9444636708739889  0.8750000000000000
  0.0558164338345524  0.9445963791053928  0.3750000000000000
  0.7222349516657611  0.4444678750856594  0.8750000000000000
  0.3893042187444270  0.9456342910278041  0.3750000000000000
  0.2226635377722657  0.4439539319605953  0.3750000000000000
  0.2221550015073989  0.6109874252503781  0.3750000000000000
  0.7218995608760308  0.9439126073455422  0.3750000000000000
  0.8879570608549940  0.4439539319605953  0.3750000000000000
  0.0555692001519869  0.6111344071877469  0.8750000000000000
  0.2222310027919706  0.1111288566852762  0.8750000000000000
  0.7222358001082728  0.6111334684412739  0.8750000000000000
  0.5555645205599695  0.1111288566852762  0.8750000000000000
  0.8888975916427092  0.1111285166187612  0.8750000000000000
  0.1116142575893083  0.0559424081822034  0.3750000000000000
  0.4448454599422185  0.0570586719724168  0.3750000000000000
  0.9442875428686079  0.5551351108877496  0.3750000000000000
  0.7774694855422706  0.0549664318343846  0.3750000000000000
  0.1111186193954754  0.7222449516113233  0.8750000000000000
  0.4444639730700117  0.7222374801460629  0.8750000000000000
  0.2778013180309261  0.2222546049090822  0.8750000000000000
  0.7777666572564568  0.7222167101050452  0.8750000000000000
  0.6111199535448286  0.2222546049090822  0.8750000000000000
  0.9444533161620038  0.2222399656573494  0.8750000000000000
  0.2778275961578254  0.7223120603510884  0.3750000000000000
  0.1105311551383150  0.2216935228103267  0.3750000000000000
  0.4463624970861075  0.2260583275055509  0.3750000000000000
  0.6115835001972652  0.7206011380015314  0.3750000000000000
  0.9438313978475006  0.7213519634050640  0.3750000000000000
  0.7778290343386837  0.2216935228103267  0.3750000000000000
  0.1111124319827474  0.8889016464590285  0.8750000000000000
  0.4444558811429595  0.8889016464590285  0.8750000000000000
  0.2778167143493678  0.3889306766682895  0.8750000000000000
  0.6111197851443432  0.3889413722497959  0.8750000000000000
  0.7777719740487156  0.8888772814307603  0.8750000000000000
  0.9444542389557318  0.3889194358787907  0.8750000000000000
  0.1111860340672516  0.3886041718914130  0.3750000000000000
  0.2780986181855492  0.8895305697044340  0.3750000000000000
  0.6107550629135069  0.8882033380445254  0.3750000000000000
  0.9441149417976896  0.8882033380445254  0.3750000000000000
  0.7767618139150814  0.3877101444861089  0.3750000000000000
  0.2778080708019351  0.5555891635900412  0.8750000000000000
  0.1111154950430758  0.0555667508327564  0.8750000000000000
  0.6111248329382114  0.5555829992097502  0.8750000000000000
  0.4444546710177532  0.0555748008857255  0.8750000000000000
  0.9444477594547702  0.5555891635900412  0.8750000000000000
  0.1110447310766757  0.5554227954866727  0.3750000000000000
  0.7777795927511156  0.0555580579300143  0.8750000000000000
  0.2788798786968695  0.0570586719724168  0.3750000000000000
  0.4437024939574514  0.5531639010681478  0.3750000000000000
  0.7761280737773537  0.5531639010681478  0.3750000000000000
  0.6109948172595666  0.0559424081822034  0.3750000000000000
  0.4444866556198510  0.5555916328899970  0.8750000000000000
  0.9441636129587857  0.0549664318343846  0.3750000000000000
  0.2777929988825124  0.7222449516113233  0.8750000000000000
  0.1111267051209494  0.2222442874141084  0.8750000000000000
  0.4444627244924376  0.2222587823182039  0.8750000000000000
  0.6111167195152669  0.7222167101050452  0.8750000000000000
  0.9444401737427154  0.7222374801460629  0.8750000000000000
  0.7777842489598303  0.2222442874141084  0.8750000000000000
  0.1111511308599419  0.7223120603510884  0.3750000000000000
  0.4441872322242280  0.7213519634050640  0.3750000000000000
  0.2785183993736990  0.2238761054101192  0.3750000000000000
  0.7756843044709369  0.7206011380015314  0.3750000000000000
  0.6120243727030913  0.2238761054101192  0.3750000000000000
  0.9442314380783478  0.2217962094900253  0.3750000000000000
  0.1111318635897370  0.3889194358787907  0.8750000000000000
  0.2777870359365329  0.8889074052063873  0.8750000000000000
  0.6111160551381118  0.8888872897944544  0.8750000000000000
  0.4444882537721254  0.3889413722497959  0.8750000000000000
  0.9444379013230142  0.8888872897944544  0.8750000000000000
  0.1114026871062694  0.8891210831030409  0.3750000000000000
  0.7777806289855930  0.3889306766682895  0.8750000000000000
  0.4443850626634431  0.8891210831030409  0.3750000000000000
  0.2776149972376980  0.3877101444861089  0.3750000000000000
  0.2775142346857991  0.5551351108877496  0.3750000000000000
  0.7774474019419886  0.8882281372173157  0.3750000000000000
  0.9440848044908337  0.3886041718914130  0.3750000000000000
  0.1111260810043490  0.5555854953420268  0.8750000000000000
  0.2777867965346366  0.0555748008857255  0.8750000000000000
  0.7777716439368106  0.5555916328899970  0.8750000000000000
  0.6111179224563519  0.0555667508327564  0.8750000000000000
  0.9444451318455621  0.0555580579300143  0.8750000000000000
  0.0555266950627693  0.1110989505327833  0.1249908585065442
  0.5556378271748391  0.6110197420231209  0.1253748231288520
  0.3889117251140879  0.1111567835615117  0.1250217930770384
  0.8887882090838132  0.6110756408329489  0.1250989055282930
  0.7222389221366780  0.1110989505327833  0.1249908585065442
  0.0554929412785548  0.7777395221045917  0.6249810831222046
  0.3889132474927012  0.7777395221045917  0.6249810831222046
  0.2222107803955080  0.2778045975106495  0.6250236315871912
  0.7221723485262668  0.7776780303858690  0.6248102133487907
  0.5556401115598514  0.2779278376324888  0.6251793811455081
  0.8889045032736660  0.2777849669077522  0.6250022445502913
  0.2222109100899331  0.7777551535132018  0.1249961779244463
  0.0555471303007434  0.2777849669077522  0.1249977554497096
  0.3889543927393022  0.2779278376324888  0.1248206188544918
  0.5555907869285159  0.7776974634834835  0.1251433817699734
  0.8887733432216314  0.7776974634834835  0.1251433817699734
  0.7222604837818057  0.2778045975106495  0.1249763684128090
  0.0555042952815453  0.9444068548769390  0.6249859163430115
  0.3888934754089625  0.9444277182643390  0.6250025639701691
  0.2222389889797458  0.4444614590087582  0.6249809308466235
  0.5556354485803557  0.4446042304940326  0.6250454782332717
  0.7222180251573637  0.9443981913737842  0.6249808181839623
  0.8888891366956756  0.4444614590087582  0.6249809308466235
  0.0555618768560302  0.4444570870453819  0.1250011326181328
  0.2222009095220409  0.9444277182643390  0.1249974360298314
  0.5555692262620652  0.9444068548769390  0.1250140836569892
  0.3889835322054340  0.4444901210539266  0.1248722203387247
  0.8888468328830834  0.9443981913737842  0.1250191818160370
  0.7221732555151631  0.4444901210539266  0.1248722203387247
  0.2222370301236264  0.6111038497740969  0.6250024166312365
  0.0555266950627693  0.1110989505327833  0.6250091414934554
  0.5556378271748391  0.6110197420231209  0.6246251768711486
  0.3889117251140879  0.1111567835615117  0.6249782069229616
  0.8887882090838132  0.6110756408329489  0.6249010944717075
  0.0555334863171421  0.6111038497740969  0.1249975833687638
  0.7222389221366780  0.1110989505327833  0.6250091414934554
  0.2222082620226310  0.1111259016381461  0.1250033840640745
  0.3889540984157935  0.6110756408329489  0.1250989055282930
  0.7220485815149452  0.6110197420231209  0.1253748231288520
  0.5555843062821789  0.1111259016381461  0.1250033840640745
  0.3889540984157935  0.6110756408329489  0.6249010944717075
  0.8888815178445364  0.1110963690224170  0.1249894779184552
  0.2222109100899331  0.7777551535132018  0.6250038220755539
  0.0555471303007434  0.2777849669077522  0.6250022445502913
  0.3889543927393022  0.2779278376324888  0.6251793811455081
  0.5555907869285159  0.7776974634834835  0.6248566182300264
  0.8887733432216314  0.7776974634834835  0.6248566182300264
  0.7222604837818057  0.2778045975106495  0.6250236315871912
  0.0554929412785548  0.7777395221045917  0.1250189168777958
  0.3889132474927012  0.7777395221045917  0.1250189168777958
  0.2222107803955080  0.2778045975106495  0.1249763684128090
  0.7221723485262668  0.7776780303858690  0.1251897866512094
  0.5556401115598514  0.2779278376324888  0.1248206188544918
  0.8889045032736660  0.2777849669077522  0.1249977554497096
  0.0555618768560302  0.4444570870453819  0.6249988673818668
  0.2222009095220409  0.9444277182643390  0.6250025639701691
  0.5555692262620652  0.9444068548769390  0.6249859163430115
  0.3889835322054340  0.4444901210539266  0.6251277796612682
  0.8888468328830834  0.9443981913737842  0.6249808181839623
  0.0555042952815453  0.9444068548769390  0.1250140836569892
  0.7221732555151631  0.4444901210539266  0.6251277796612682
  0.3888934754089625  0.9444277182643390  0.1249974360298314
  0.2222389889797458  0.4444614590087582  0.1250190691533758
  0.2222370301236264  0.6111038497740969  0.1249975833687638
  0.5556354485803557  0.4446042304940326  0.1249545217667287
  0.7222180251573637  0.9443981913737842  0.1250191818160370
  0.8888891366956756  0.4444614590087582  0.1250190691533758
  0.0555334863171421  0.6111038497740969  0.6250024166312365
  0.2222082620226310  0.1111259016381461  0.6249966159359256
  0.7220485815149452  0.6110197420231209  0.6246251768711486
  0.5555843062821789  0.1111259016381461  0.6249966159359256
  0.8888815178445364  0.1110963690224170  0.6250105220815452
 
  0.00000000E+00  0.00000000E+00  0.00000000E+00
  0.00000000E+00  0.00000000E+00  0.00000000E+00
  0.00000000E+00  0.00000000E+00  0.00000000E+00
  0.00000000E+00  0.00000000E+00  0.00000000E+00
  0.00000000E+00  0.00000000E+00  0.00000000E+00
  0.00000000E+00  0.00000000E+00  0.00000000E+00
  0.00000000E+00  0.00000000E+00  0.00000000E+00
  0.00000000E+00  0.00000000E+00  0.00000000E+00
  0.00000000E+00  0.00000000E+00  0.00000000E+00
  0.00000000E+00  0.00000000E+00  0.00000000E+00
  0.00000000E+00  0.00000000E+00  0.00000000E+00
  0.00000000E+00  0.00000000E+00  0.00000000E+00
  0.00000000E+00  0.00000000E+00  0.00000000E+00
  0.00000000E+00  0.00000000E+00  0.00000000E+00
  0.00000000E+00  0.00000000E+00  0.00000000E+00
  0.00000000E+00  0.00000000E+00  0.00000000E+00
  0.00000000E+00  0.00000000E+00  0.00000000E+00
  0.00000000E+00  0.00000000E+00  0.00000000E+00
  0.00000000E+00  0.00000000E+00  0.00000000E+00
  0.00000000E+00  0.00000000E+00  0.00000000E+00
  0.00000000E+00  0.00000000E+00  0.00000000E+00
  0.00000000E+00  0.00000000E+00  0.00000000E+00
  0.00000000E+00  0.00000000E+00  0.00000000E+00
  0.00000000E+00  0.00000000E+00  0.00000000E+00
  0.00000000E+00  0.00000000E+00  0.00000000E+00
  0.00000000E+00  0.00000000E+00  0.00000000E+00
  0.00000000E+00  0.00000000E+00  0.00000000E+00
  0.00000000E+00  0.00000000E+00  0.00000000E+00
  0.00000000E+00  0.00000000E+00  0.00000000E+00
  0.00000000E+00  0.00000000E+00  0.00000000E+00
  0.00000000E+00  0.00000000E+00  0.00000000E+00
  0.00000000E+00  0.00000000E+00  0.00000000E+00
  0.00000000E+00  0.00000000E+00  0.00000000E+00
  0.00000000E+00  0.00000000E+00  0.00000000E+00
  0.00000000E+00  0.00000000E+00  0.00000000E+00
  0.00000000E+00  0.00000000E+00  0.00000000E+00
  0.00000000E+00  0.00000000E+00  0.00000000E+00
  0.00000000E+00  0.00000000E+00  0.00000000E+00
  0.00000000E+00  0.00000000E+00  0.00000000E+00
  0.00000000E+00  0.00000000E+00  0.00000000E+00
  0.00000000E+00  0.00000000E+00  0.00000000E+00
  0.00000000E+00  0.00000000E+00  0.00000000E+00
  0.00000000E+00  0.00000000E+00  0.00000000E+00
  0.00000000E+00  0.00000000E+00  0.00000000E+00
  0.00000000E+00  0.00000000E+00  0.00000000E+00
  0.00000000E+00  0.00000000E+00  0.00000000E+00
  0.00000000E+00  0.00000000E+00  0.00000000E+00
  0.00000000E+00  0.00000000E+00  0.00000000E+00
  0.00000000E+00  0.00000000E+00  0.00000000E+00
  0.00000000E+00  0.00000000E+00  0.00000000E+00
  0.00000000E+00  0.00000000E+00  0.00000000E+00
  0.00000000E+00  0.00000000E+00  0.00000000E+00
  0.00000000E+00  0.00000000E+00  0.00000000E+00
  0.00000000E+00  0.00000000E+00  0.00000000E+00
  0.00000000E+00  0.00000000E+00  0.00000000E+00
  0.00000000E+00  0.00000000E+00  0.00000000E+00
  0.00000000E+00  0.00000000E+00  0.00000000E+00
  0.00000000E+00  0.00000000E+00  0.00000000E+00
  0.00000000E+00  0.00000000E+00  0.00000000E+00
  0.00000000E+00  0.00000000E+00  0.00000000E+00
  0.00000000E+00  0.00000000E+00  0.00000000E+00
  0.00000000E+00  0.00000000E+00  0.00000000E+00
  0.00000000E+00  0.00000000E+00  0.00000000E+00
  0.00000000E+00  0.00000000E+00  0.00000000E+00
  0.00000000E+00  0.00000000E+00  0.00000000E+00
  0.00000000E+00  0.00000000E+00  0.00000000E+00
  0.00000000E+00  0.00000000E+00  0.00000000E+00
  0.00000000E+00  0.00000000E+00  0.00000000E+00
  0.00000000E+00  0.00000000E+00  0.00000000E+00
  0.00000000E+00  0.00000000E+00  0.00000000E+00
  0.00000000E+00  0.00000000E+00  0.00000000E+00
  0.00000000E+00  0.00000000E+00  0.00000000E+00
  0.00000000E+00  0.00000000E+00  0.00000000E+00
  0.00000000E+00  0.00000000E+00  0.00000000E+00
  0.00000000E+00  0.00000000E+00  0.00000000E+00
  0.00000000E+00  0.00000000E+00  0.00000000E+00
  0.00000000E+00  0.00000000E+00  0.00000000E+00
  0.00000000E+00  0.00000000E+00  0.00000000E+00
  0.00000000E+00  0.00000000E+00  0.00000000E+00
  0.00000000E+00  0.00000000E+00  0.00000000E+00
  0.00000000E+00  0.00000000E+00  0.00000000E+00
  0.00000000E+00  0.00000000E+00  0.00000000E+00
  0.00000000E+00  0.00000000E+00  0.00000000E+00
  0.00000000E+00  0.00000000E+00  0.00000000E+00
  0.00000000E+00  0.00000000E+00  0.00000000E+00
  0.00000000E+00  0.00000000E+00  0.00000000E+00
  0.00000000E+00  0.00000000E+00  0.00000000E+00
  0.00000000E+00  0.00000000E+00  0.00000000E+00
  0.00000000E+00  0.00000000E+00  0.00000000E+00
  0.00000000E+00  0.00000000E+00  0.00000000E+00
  0.00000000E+00  0.00000000E+00  0.00000000E+00
  0.00000000E+00  0.00000000E+00  0.00000000E+00
  0.00000000E+00  0.00000000E+00  0.00000000E+00
  0.00000000E+00  0.00000000E+00  0.00000000E+00
  0.00000000E+00  0.00000000E+00  0.00000000E+00
  0.00000000E+00  0.00000000E+00  0.00000000E+00
  0.00000000E+00  0.00000000E+00  0.00000000E+00
  0.00000000E+00  0.00000000E+00  0.00000000E+00
  0.00000000E+00  0.00000000E+00  0.00000000E+00
  0.00000000E+00  0.00000000E+00  0.00000000E+00
  0.00000000E+00  0.00000000E+00  0.00000000E+00
  0.00000000E+00  0.00000000E+00  0.00000000E+00
  0.00000000E+00  0.00000000E+00  0.00000000E+00
  0.00000000E+00  0.00000000E+00  0.00000000E+00
  0.00000000E+00  0.00000000E+00  0.00000000E+00
  0.00000000E+00  0.00000000E+00  0.00000000E+00
  0.00000000E+00  0.00000000E+00  0.00000000E+00
  0.00000000E+00  0.00000000E+00  0.00000000E+00
  0.00000000E+00  0.00000000E+00  0.00000000E+00
  0.00000000E+00  0.00000000E+00  0.00000000E+00
  0.00000000E+00  0.00000000E+00  0.00000000E+00
  0.00000000E+00  0.00000000E+00  0.00000000E+00
  0.00000000E+00  0.00000000E+00  0.00000000E+00
  0.00000000E+00  0.00000000E+00  0.00000000E+00
  0.00000000E+00  0.00000000E+00  0.00000000E+00
  0.00000000E+00  0.00000000E+00  0.00000000E+00
  0.00000000E+00  0.00000000E+00  0.00000000E+00
  0.00000000E+00  0.00000000E+00  0.00000000E+00
  0.00000000E+00  0.00000000E+00  0.00000000E+00
  0.00000000E+00  0.00000000E+00  0.00000000E+00
  0.00000000E+00  0.00000000E+00  0.00000000E+00
  0.00000000E+00  0.00000000E+00  0.00000000E+00
  0.00000000E+00  0.00000000E+00  0.00000000E+00
  0.00000000E+00  0.00000000E+00  0.00000000E+00
  0.00000000E+00  0.00000000E+00  0.00000000E+00
  0.00000000E+00  0.00000000E+00  0.00000000E+00
  0.00000000E+00  0.00000000E+00  0.00000000E+00
  0.00000000E+00  0.00000000E+00  0.00000000E+00
  0.00000000E+00  0.00000000E+00  0.00000000E+00
  0.00000000E+00  0.00000000E+00  0.00000000E+00
  0.00000000E+00  0.00000000E+00  0.00000000E+00
  0.00000000E+00  0.00000000E+00  0.00000000E+00
  0.00000000E+00  0.00000000E+00  0.00000000E+00
  0.00000000E+00  0.00000000E+00  0.00000000E+00
  0.00000000E+00  0.00000000E+00  0.00000000E+00
  0.00000000E+00  0.00000000E+00  0.00000000E+00
  0.00000000E+00  0.00000000E+00  0.00000000E+00
  0.00000000E+00  0.00000000E+00  0.00000000E+00
  0.00000000E+00  0.00000000E+00  0.00000000E+00
  0.00000000E+00  0.00000000E+00  0.00000000E+00
  0.00000000E+00  0.00000000E+00  0.00000000E+00
  0.00000000E+00  0.00000000E+00  0.00000000E+00
  0.00000000E+00  0.00000000E+00  0.00000000E+00
  0.00000000E+00  0.00000000E+00  0.00000000E+00
  0.00000000E+00  0.00000000E+00  0.00000000E+00
  0.00000000E+00  0.00000000E+00  0.00000000E+00
  0.00000000E+00  0.00000000E+00  0.00000000E+00
  0.00000000E+00  0.00000000E+00  0.00000000E+00
  0.00000000E+00  0.00000000E+00  0.00000000E+00
  0.00000000E+00  0.00000000E+00  0.00000000E+00
  0.00000000E+00  0.00000000E+00  0.00000000E+00
  0.00000000E+00  0.00000000E+00  0.00000000E+00
  0.00000000E+00  0.00000000E+00  0.00000000E+00
  0.00000000E+00  0.00000000E+00  0.00000000E+00
  0.00000000E+00  0.00000000E+00  0.00000000E+00
  0.00000000E+00  0.00000000E+00  0.00000000E+00
  0.00000000E+00  0.00000000E+00  0.00000000E+00
  0.00000000E+00  0.00000000E+00  0.00000000E+00
  0.00000000E+00  0.00000000E+00  0.00000000E+00
  0.00000000E+00  0.00000000E+00  0.00000000E+00
  0.00000000E+00  0.00000000E+00  0.00000000E+00
  0.00000000E+00  0.00000000E+00  0.00000000E+00
  0.00000000E+00  0.00000000E+00  0.00000000E+00
  0.00000000E+00  0.00000000E+00  0.00000000E+00
  0.00000000E+00  0.00000000E+00  0.00000000E+00
  0.00000000E+00  0.00000000E+00  0.00000000E+00
  0.00000000E+00  0.00000000E+00  0.00000000E+00
  0.00000000E+00  0.00000000E+00  0.00000000E+00
  0.00000000E+00  0.00000000E+00  0.00000000E+00
  0.00000000E+00  0.00000000E+00  0.00000000E+00
  0.00000000E+00  0.00000000E+00  0.00000000E+00
  0.00000000E+00  0.00000000E+00  0.00000000E+00
  0.00000000E+00  0.00000000E+00  0.00000000E+00
  0.00000000E+00  0.00000000E+00  0.00000000E+00
  0.00000000E+00  0.00000000E+00  0.00000000E+00
  0.00000000E+00  0.00000000E+00  0.00000000E+00
  0.00000000E+00  0.00000000E+00  0.00000000E+00
  0.00000000E+00  0.00000000E+00  0.00000000E+00
  0.00000000E+00  0.00000000E+00  0.00000000E+00
  0.00000000E+00  0.00000000E+00  0.00000000E+00
  0.00000000E+00  0.00000000E+00  0.00000000E+00
  0.00000000E+00  0.00000000E+00  0.00000000E+00
  0.00000000E+00  0.00000000E+00  0.00000000E+00
  0.00000000E+00  0.00000000E+00  0.00000000E+00
  0.00000000E+00  0.00000000E+00  0.00000000E+00
  0.00000000E+00  0.00000000E+00  0.00000000E+00
  0.00000000E+00  0.00000000E+00  0.00000000E+00
  0.00000000E+00  0.00000000E+00  0.00000000E+00
  0.00000000E+00  0.00000000E+00  0.00000000E+00
  0.00000000E+00  0.00000000E+00  0.00000000E+00
  0.00000000E+00  0.00000000E+00  0.00000000E+00
  0.00000000E+00  0.00000000E+00  0.00000000E+00
  0.00000000E+00  0.00000000E+00  0.00000000E+00
  0.00000000E+00  0.00000000E+00  0.00000000E+00
  0.00000000E+00  0.00000000E+00  0.00000000E+00
  0.00000000E+00  0.00000000E+00  0.00000000E+00
  0.00000000E+00  0.00000000E+00  0.00000000E+00
  0.00000000E+00  0.00000000E+00  0.00000000E+00
  0.00000000E+00  0.00000000E+00  0.00000000E+00
  0.00000000E+00  0.00000000E+00  0.00000000E+00
  0.00000000E+00  0.00000000E+00  0.00000000E+00
  0.00000000E+00  0.00000000E+00  0.00000000E+00
  0.00000000E+00  0.00000000E+00  0.00000000E+00
  0.00000000E+00  0.00000000E+00  0.00000000E+00
  0.00000000E+00  0.00000000E+00  0.00000000E+00
  0.00000000E+00  0.00000000E+00  0.00000000E+00
  0.00000000E+00  0.00000000E+00  0.00000000E+00
  0.00000000E+00  0.00000000E+00  0.00000000E+00
  0.00000000E+00  0.00000000E+00  0.00000000E+00
  0.00000000E+00  0.00000000E+00  0.00000000E+00
  0.00000000E+00  0.00000000E+00  0.00000000E+00
  0.00000000E+00  0.00000000E+00  0.00000000E+00
  0.00000000E+00  0.00000000E+00  0.00000000E+00
  0.00000000E+00  0.00000000E+00  0.00000000E+00
  0.00000000E+00  0.00000000E+00  0.00000000E+00
  0.00000000E+00  0.00000000E+00  0.00000000E+00
  0.00000000E+00  0.00000000E+00  0.00000000E+00
  0.00000000E+00  0.00000000E+00  0.00000000E+00
  0.00000000E+00  0.00000000E+00  0.00000000E+00
  0.00000000E+00  0.00000000E+00  0.00000000E+00
  0.00000000E+00  0.00000000E+00  0.00000000E+00
  0.00000000E+00  0.00000000E+00  0.00000000E+00
  0.00000000E+00  0.00000000E+00  0.00000000E+00
  0.00000000E+00  0.00000000E+00  0.00000000E+00
  0.00000000E+00  0.00000000E+00  0.00000000E+00
  0.00000000E+00  0.00000000E+00  0.00000000E+00
  0.00000000E+00  0.00000000E+00  0.00000000E+00
  0.00000000E+00  0.00000000E+00  0.00000000E+00
  0.00000000E+00  0.00000000E+00  0.00000000E+00
  0.00000000E+00  0.00000000E+00  0.00000000E+00
  0.00000000E+00  0.00000000E+00  0.00000000E+00
  0.00000000E+00  0.00000000E+00  0.00000000E+00
  0.00000000E+00  0.00000000E+00  0.00000000E+00
  0.00000000E+00  0.00000000E+00  0.00000000E+00
  0.00000000E+00  0.00000000E+00  0.00000000E+00
  0.00000000E+00  0.00000000E+00  0.00000000E+00
  0.00000000E+00  0.00000000E+00  0.00000000E+00
  0.00000000E+00  0.00000000E+00  0.00000000E+00
  0.00000000E+00  0.00000000E+00  0.00000000E+00
  0.00000000E+00  0.00000000E+00  0.00000000E+00
  0.00000000E+00  0.00000000E+00  0.00000000E+00
  0.00000000E+00  0.00000000E+00  0.00000000E+00
  0.00000000E+00  0.00000000E+00  0.00000000E+00
  0.00000000E+00  0.00000000E+00  0.00000000E+00
  0.00000000E+00  0.00000000E+00  0.00000000E+00
  0.00000000E+00  0.00000000E+00  0.00000000E+00
  0.00000000E+00  0.00000000E+00  0.00000000E+00
  0.00000000E+00  0.00000000E+00  0.00000000E+00