 B Ga N 
 1.0
 14.936314146199660   0.000000000000000   0.000000000000000
 -7.468157073099825  12.935227489513863   0.000000000000000
  0.000000000000001   0.000000000000001  13.341276283792837
 B Ga N 
 144   1 143
Cartesian
  1.225979364229000   0.694473624578189   5.002978606422314 
  4.978771382067112   7.505099625025801   5.002978606422314 
  6.226945045655505   0.697639074907170   5.002978606422314 
  9.977456434386813   7.193715354551299   5.002978606422314 
 11.206966738009083   0.721355267649130   5.002978606422314 
 -3.734193978979114   9.342042091707844  11.673616748318732 
  1.244743378426877   9.341236164579454  11.673616748318732 
  2.491441851119248   2.875875605329342  11.673616748318732 
  6.223296666319321   9.339637751727452  11.673616748318732 
  7.466100913015151   2.875875605329342  11.673616748318732 
 12.446928455165878   2.874960767159882  11.673616748318732 
 -1.250876706750230   9.345678996375295   5.002978606422314 
 -0.024802051808582   2.860175526381906   5.002978606422314 
  4.978771382067079   2.850362158176964   5.002978606422314 
  3.691377651135884   9.436476262022682   5.002978606422314 
  8.729282770798036   9.355615556556456   5.002978606422314 
  9.982344815942159   2.860175526381906   5.002978606422314 
 -4.978470032455861  11.497806006400090  11.673616748318732 
 -0.000301349611228  11.497806006400090  11.673616748318732 
  1.246916566865473   5.031456628960994  11.673616748318732 
  6.221649509963906   5.031413973628007  11.673616748318732 
  4.978771382065598  11.496271358788430  11.673616748318732 
 11.201504615182024   5.031023013002172  11.673616748318732 
 -1.274964207775628   5.026234958153106   5.002978606422314 
 -2.489385691033239  11.490839482784006   5.002978606422314 
  2.477827810061789  11.526261403286425   5.002978606422314 
  3.457935830927951   4.870935180496314   5.002978606422314 
  7.479714954072393  11.526261403286425   5.002978606422314 
  8.815925030586653   5.020162537658460   5.002978606422314 
  0.000780941037465   7.186630020314407  11.673616748318732 
  1.245627119726409   0.718928425656054  11.673616748318732 
  4.978771382066500   7.184142038762417  11.673616748318732 
  6.222733819455923   0.719103801124883  11.673616748318732 
  9.956761823092844   7.186630020314407  11.673616748318732 
 -2.489385691033614   7.192138547719828   5.002978606422314 
 11.201832241436190   0.718390864672369  11.673616748318732 
  3.730597718477832   0.697639074907170   5.002978606422314 
  2.468486038967237   7.198303913921393   5.002978606422314 
  7.489056725164581   7.198303913921393   5.002978606422314 
  8.731563399903845   0.694473624578189   5.002978606422314 
  2.490446474440298   7.185625050588905  11.673616748318732 
 13.686890172324469   0.721355267649130   5.002978606422314 
 -1.244577403086291   9.342042091707844  11.673616748318732 
  0.001479718624397   2.875349313615693  11.673616748318732 
  4.978771382066565   2.875719884841048  11.673616748318732 
  3.734246097814516   9.339637751727452  11.673616748318732 
  8.712799385703807   9.341236164579454  11.673616748318732 
  9.956063045508822   2.875349313615693  11.673616748318732 
 -3.727894675316982   9.345678996375295   5.002978606422314 
  1.228259993337890   9.355615556556456   5.002978606422314 
  2.429011464479126   2.790331186337857   5.002978606422314 
  6.266165112999149   9.436476262022682   5.002978606422314 
  7.528531299655796   2.790331186337857   5.002978606422314 
 12.446928455166978   2.869031961206268   5.002978606422314 
 -1.243961851048983   5.031023013002172  11.673616748318732 
 -2.489385691033238  11.498113292114800  11.673616748318732 
  2.489182411289844  11.497018547360737  11.673616748318732 
  3.735893254167375   5.031413973628007  11.673616748318732 
  7.468360352841215  11.497018547360737  11.673616748318732 
 -4.973660919787810  11.495029463906917   5.002978606422314 
  8.710626197266180   5.031456628960994  11.673616748318732 
 -0.005110462278325  11.495029463906917   5.002978606422314 
  1.141617733546718   5.020162537658460   5.002978606422314 
 -0.019913670251022   7.193715354551299   5.002978606422314 
  6.499606933205942   4.870935180496314   5.002978606422314 
  4.978771382067465  11.526618933254811   5.002978606422314 
 11.232506971909775   5.026234958153106   5.002978606422314 
 -2.489385691033501   7.186585462732414  11.673616748318732 
  3.734808944677474   0.719103801124883  11.673616748318732 
  7.467096289692567   7.185625050588905  11.673616748318732 
  8.711915644406044   0.718928425656054  11.673616748318732 
 13.692024668893280   0.718390864672369  11.673616748318732 
 -0.000134471571120   1.437776950795277   1.687845351788532 
  3.740377263893255   7.901534146130223   1.613640401193163 
  4.978771382067221   1.443857057438199   1.647516277741489 
  8.707125872956784   7.901556464289992   1.647516277741489 
  9.957677235704741   1.437776950795277   1.687845351788532 
 -4.981106014053160  10.059842994607720   8.320516620952555 
  0.002334631984053  10.059842994607720   8.320516620952555 
  1.245802240208993   3.593759256411416   8.362729905451310 
  4.978771382064724  10.059451473195677   8.362729905451310 
  6.223732240331432   3.600237153710262   8.392316811651797 
 11.201844326587084   3.592737565310198   8.318111861056416 
 -2.489385691033300  10.060732491844131   1.700673270712373 
 -1.244301562454342   3.592737565310197   1.687845351788532 
  3.733810523801653   3.600237153710261   1.613640401193163 
  2.492211480398860  10.059220431434781   1.656601929671736 
  7.465331283736738  10.059220431434781   1.656601929671736 
  8.711740523922359   3.593759256411415   1.643227307392891 
 -6.224452474732161  12.217174304853327   8.320564054512232 
 -1.244295856729123  12.219070339323375   8.320516620952555 
  0.002722377408431   5.747298820168695   8.349355283172399 
  4.978771382066590   5.748989995339477   8.295603136569058 
  3.734604291183734  12.216455469912994   8.318111861056416 
  9.954820386725761   5.747298820168695   8.349355283172399 
 -2.489385691033085   5.747848865823607   1.685393158332289 
 -3.734475525338907  12.219070339323375   1.685440591890526 
  1.245681092667431  12.217174304853327   1.685393158332289 
  2.495416405629410   5.745198686179056   1.613640401193163 
  6.222938472949298  12.216455469912994   1.687845351788532 
  7.462126358507410   5.745198686179056   1.613640401193163 
 -1.242755202318464   7.903284141600007   8.320516620952555 
 -0.000134471571120   1.437776950795278   8.318111861056416 
  3.740377263893256   7.901534146130224   8.392316811651797 
  4.978771382067221   1.443857057438200   8.358440935104060 
  8.707125872956784   7.901556464289992   8.358440935104060 
 -3.736016179745895   7.903284141600006   1.685440591890526 
  9.957677235704741   1.437776950795278   8.318111861056442 
  2.489282279077233   1.440450734414826   1.656601929671736 
  1.250416891175678   7.901556464289992   1.647516277741489 
  6.217165500241477   7.901534146130223   1.613640401193163 
  7.468260485056685   1.440450734414826   1.656601929671736 
  1.250416891175678   7.901556464289992   8.358440935104060 
 12.446928455166319   1.437247498834911   1.706539245712607 
 -2.489385691033300  10.060732491844131   8.305283942132027 
 -1.244301562454341   3.592737565310198   8.318111861056442 
  3.733810523801653   3.600237153710262   8.392316811651797 
  2.492211480398860  10.059220431434781   8.349355283172399 
  7.465331283736739  10.059220431434781   8.349355283172399 
  8.711740523922238   3.593759256411416   8.362729905451310 
 -4.981106014053161  10.059842994607720   1.685440591890526 
  0.002334631984053  10.059842994607720   1.685440591890526 
  1.245802240208993   3.593759256411415   1.643227307392891 
  4.978771382064723  10.059451473195677   1.643227307392891 
  6.223732240331431   3.600237153710261   1.613640401193163 
 11.201844326587084   3.592737565310197   1.687845351788532 
 -2.489385691032935   5.747848865823608   8.320564054512232 
 -3.734475525338907  12.219070339323375   8.320516620952555 
  1.245681092667432  12.217174304853327   8.320564054512232 
  2.495416405629411   5.745198686179057   8.392316811651797 
  6.222938472949298  12.216455469912994   8.318111861056442 
 -6.224452474732013  12.217174304853327   1.685393158332289 
  7.462126358507411   5.745198686179057   8.392316811651797 
 -1.244295856729123  12.219070339323375   1.685440591890526 
  0.002722377408415   5.747298820168694   1.656601929671736 
 -1.242755202318465   7.903284141600006   1.685440591890526 
  4.978771382066589   5.748989995339476   1.710354076276382 
  3.734604291183733  12.216455469912994   1.687845351788532 
  9.954820386725761   5.747298820168694   1.656601929671736 
 -3.736016179745894   7.903284141600007   8.320516620952555 
  2.489282279077234   1.440450734414826   8.349355283172399 
  6.217165500241478   7.901534146130224   8.392316811651797 
  7.468260485056686   1.440450734414826   8.349355283172399 
 12.446928455166319   1.437247498834912   8.299417967132927 
  4.978771382066589   5.748989995339477   5.002978606422314 
  1.243877995497072   0.718456238024360   1.676117272867214 
  4.978771382065730   7.192593601372872   1.584410458479857 
  6.223668148884886   0.718901390041676   1.658062900241127 
  9.957404280949213   7.185922072833677   1.658062900241127 
 11.202660643403432   0.718869142769505   1.699661107781678 
 -3.734292993379070   9.341984925717917   8.312813013538229 
  1.245035250000249   9.342146523143851   8.347894312603781 
  2.487033846836894   2.873107013887494   8.383811999196595 
  6.223490334698723   9.344839491136677   8.383811999196595 
  7.470508917295489   2.873107013887494   8.383811999196595 
 12.446928455165924   2.874004210965996   8.306296105063803 
 -1.244478388687128   9.341984925717917   1.693144199307373 
 -0.001581020681121   2.873582194953327   1.671071503011470 
  4.978771382066647   2.874556120198021   1.612030670779154 
  3.734052429432456   9.344839491136675   1.622145213647513 
  8.712507514129388   9.342146523143851   1.658062900241127 
  9.959123784814771   2.873582194953327   1.671071503011470 
 -4.978973945668201  11.498096940828578   8.319287738758552 
  0.000202563602874  11.498096940828578   8.319287738758552 
  1.242314894203000   5.029023480993332   8.383811999196595 
  6.228968777885470   5.027188192322773   8.421546754366398 
  4.978771382067054  11.499805596110171   8.334885709832143 
 11.202788103781950   5.029744320801543   8.329839939978028 
 -1.245245339648342   5.029744320801542   1.676117272867214 
 -2.489385691033240  11.498227624094907   1.693144199307373 
  2.489648046920794  11.498769427191531   1.676117272867147 
  3.728573986248199   5.027188192322772   1.584410458479804 
  7.467894717213269  11.498769427191531   1.676117272867214 
  8.715227869927862   5.029023480993331   1.622145213647513 
  0.000138483181889   7.185922072833705   8.347894312603781 
  1.243877995497073   0.718456238024360   8.329839939978028 
  4.978771382065731   7.192593601372873   8.421546754366398 
  6.223668148884887   0.718901390041677   8.347894312603781 
  9.957404280949213   7.185922072833678   8.347894312603781 
 -2.489385691033181   7.186003593873970   1.686669474087582 
 11.202660643403432   0.718869142769506   8.306296105063803 
  3.733874615246718   0.718901390041676   1.658062900241127 
  2.489438624695901   7.186206932909712   1.612030670779154 
  7.468104139437681   7.186206932909712   1.612030670779154 
  8.713664768634890   0.718456238024360   1.676117272867147 
  2.489438624695901   7.186206932909712   8.393926542064539 
 13.691196266929163   0.718869142769505   1.699661107781678 
 -1.244478388687127   9.341984925717917   8.312813013538229 
 -0.001581020681120   2.873582194953328   8.334885709832143 
  4.978771382066603   2.874556120198100   8.393926542064539 
  3.734052429432456   9.344839491136677   8.383811999196595 
  8.712507514129388   9.342146523143851   8.347894312603781 
  9.959123784814771   2.873582194953328   8.334885709832143 
 -3.734292993379071   9.341984925717917   1.693144199307373 
  1.245035250000249   9.342146523143851   1.658062900241127 
  2.487033846836894   2.873107013887493   1.622145213647526 
  6.223490334698722   9.344839491136675   1.622145213647513 
  7.470508917295488   2.873107013887493   1.622145213647513 
 12.446928455165924   2.874004210965996   1.699661107781678 
 -1.245245339648342   5.029744320801543   8.329839939978028 
 -2.489385691033239  11.498227624094907   8.312813013538229 
  2.489648046920795  11.498769427191531   8.329839939978028 
  3.728573986248200   5.027188192322773   8.421546754366398 
  7.467894717213269  11.498769427191531   8.329839939978028 
 -4.978973945668202  11.498096940828578   1.686669474087582 
  8.715227869927862   5.029023480993332   8.383811999196595 
  0.000202563602874  11.498096940828578   1.686669474087489 
  1.242314894203672   5.029023480993331   1.622145213647513 
  0.000138483181889   7.185922072833704   1.658062900241127 
  6.228968777885469   5.027188192322772   1.584410458479804 
  4.978771382067053  11.499805596110171   1.671071503011470 
 11.202788103781950   5.029744320801542   1.676117272867214 
 -2.489385691033181   7.186003593873971   8.319287738758552 
  3.733874615246719   0.718901390041677   8.347894312603781 
  7.468104139437682   7.186206932909712   8.393926542064539 
  8.713664768634898   0.718456238024347   8.329839939978028 
 13.691196266929163   0.718869142769506   8.306296105063803 
 -0.012995148442933   1.425058241234326   5.002978606422314 
  3.654898042423317   8.052559796869474   5.002978606422314 
  4.978771382066885   1.401676687588525   5.002978606422314 
  8.743655144788523   7.922646649214488   5.002978606422314 
  9.970537912575674   1.425058241234326   5.002978606422314 
 -4.978231436216988  10.060926458241671  11.673616748318732 
 -0.000539945848072  10.060926458241671  11.673616748318732 
  1.244981746205847   3.593285543978030  11.673616748318732 
  4.978771382066149  10.060398898062465  11.673616748318732 
  6.223083503251090   3.592417334871976  11.673616748318732 
 11.202142036120204   3.593305803637570  11.673616748318732 
 -2.489385691033300  10.060732491844131   5.002978606422314 
 -1.261746626473710   3.587959247210351   5.002978606422314 
  3.645758084373268   3.450697151050169   5.002978606422314 
  2.447234564902507  10.119513419728785   5.002978606422314 
  7.510308199230092  10.119513419728785   5.002978606422314 
  8.762421405177445   3.564498635976697   5.002978606422314 
 -6.223233460210874  12.216470506491939  11.673616748318732 
 -1.244794838612055  12.216039150075069  11.673616748318732 
 -0.000249548092580   5.749413605721458  11.673616748318732 
  4.978771382066590   5.748989995339477  11.673616748318732 
  3.733963327591552  12.216429174767967  11.673616748318732 
  9.957792312224115   5.749413605721458  11.673616748318732 
 -2.489385691033473   5.756442113463029   5.002978606422314 
 -3.731075787989577  12.200549528811155   5.002978606422314 
  1.238239121910084  12.212877681033486   5.002978606422314 
  2.321884744730251   5.743713038097779   5.002978606422314 
  6.227522860097638  12.233952497575098   5.002978606422314 
  7.635658019404090   5.743713038097779   5.002978606422314 
 -1.245130798270241   7.905231867213045  11.673616748318732 
  0.000208782488928   1.437235007613841  11.673616748318732 
  3.733280733586309   7.904882232757119  11.673616748318732 
  4.978771382066491   1.436063714745238  11.673616748318732 
  8.713875105711056   7.905453135635944  11.673616748318732 
 -3.721676556018278   7.915488805768319   5.002978606422314 
  9.957333981645187   1.437235007613841  11.673616748318732 
  2.459555477291097   1.371353088865356   5.002978606422314 
  1.213887619344698   7.922646649214488   5.002978606422314 
  6.302644721709606   8.052559796869474   5.002978606422314 
  7.497987286840478   1.371353088865356   5.002978606422314 
  1.243667658422749   7.905453135635944  11.673616748318732 
 12.446928455166319   1.437247498834912   5.002978606422314 
 -2.489385691033299  10.060732491844133  11.673616748318732 
 -1.244599271987254   3.593305803637570  11.673616748318732 
  3.734459260883383   3.592417334871976  11.673616748318732 
  2.488894059636487  10.060736801640779  11.673616748318732 
  7.468648704496636  10.060736801640779  11.673616748318732 
  8.712561017926594   3.593285543978030  11.673616748318732 
 -4.963366652975115  10.066159140952701   5.002978606422314 
 -0.015404729091618  10.066159140952701   5.002978606422314 
  1.195121358955762   3.564498635976697   5.002978606422314 
  4.978771382065889  10.117972714065111   5.002978606422314 
  6.311784679760758   3.450697151050169   5.002978606422314 
 11.219289390607377   3.587959247210351   5.002978606422314 
 -2.489385691033569   5.749256462549091  11.673616748318732 
 -3.733976543455213  12.216039150075069  11.673616748318732 
  1.244462078144488  12.216470506491939  11.673616748318732 
  2.488968612403589   5.749670418390902  11.673616748318732 
  6.223579436542750  12.216429174767967  11.673616748318732 
 -6.217010503975725  12.212877681033486   5.002978606422314 
  7.468574151730814   5.749670418390902  11.673616748318732 
 -1.247695594077439  12.200549528811155   5.002978606422314 
 -0.071981339872380   5.756103477423630   5.002978606422314 
 -1.257094826046920   7.915488805768319   5.002978606422314 
  3.730019904035173  12.233952497575098   5.002978606422314 
 10.029524104004645   5.756103477423630   5.002978606422314 
 -3.733640583795999   7.905231867213045  11.673616748318732 
  2.489627774338881   1.436819578656582  11.673616748318732 
  6.224262030545825   7.904882232757119  11.673616748318732 
  7.467914989795428   1.436819578656582  11.673616748318732 
 12.446928455166319   1.437247498834912  11.673616748318732 
Generated by cif2cell 2.0.0.  :  Failed to get author information, No journal information. Species order: B Ga N 
 1.0
 14.936314146199660   0.000000000000000   0.000000000000000
 -7.468157073099825  12.935227489513863   0.000000000000000
  0.000000000000001   0.000000000000001  13.341276283792837
 B Ga N 
 144   1 143
Cartesian
  1.225979364229000   0.694473624578189   5.002978606422314 
  4.978771382067112   7.505099625025801   5.002978606422314 
  6.226945045655505   0.697639074907170   5.002978606422314 
  9.977456434386813   7.193715354551299   5.002978606422314 
 11.206966738009083   0.721355267649130   5.002978606422314 
 -3.734193978979114   9.342042091707844  11.673616748318732 
  1.244743378426877   9.341236164579454  11.673616748318732 
  2.491441851119248   2.875875605329342  11.673616748318732 
  6.223296666319321   9.339637751727452  11.673616748318732 
  7.466100913015151   2.875875605329342  11.673616748318732 
 12.446928455165878   2.874960767159882  11.673616748318732 
 -1.250876706750230   9.345678996375295   5.002978606422314 
 -0.024802051808582   2.860175526381906   5.002978606422314 
  4.978771382067079   2.850362158176964   5.002978606422314 
  3.691377651135884   9.436476262022682   5.002978606422314 
  8.729282770798036   9.355615556556456   5.002978606422314 
  9.982344815942159   2.860175526381906   5.002978606422314 
 -4.978470032455861  11.497806006400090  11.673616748318732 
 -0.000301349611228  11.497806006400090  11.673616748318732 
  1.246916566865473   5.031456628960994  11.673616748318732 
  6.221649509963906   5.031413973628007  11.673616748318732 
  4.978771382065598  11.496271358788430  11.673616748318732 
 11.201504615182024   5.031023013002172  11.673616748318732 
 -1.274964207775628   5.026234958153106   5.002978606422314 
 -2.489385691033239  11.490839482784006   5.002978606422314 
  2.477827810061789  11.526261403286425   5.002978606422314 
  3.457935830927951   4.870935180496314   5.002978606422314 
  7.479714954072393  11.526261403286425   5.002978606422314 
  8.815925030586653   5.020162537658460   5.002978606422314 
  0.000780941037465   7.186630020314407  11.673616748318732 
  1.245627119726409   0.718928425656054  11.673616748318732 
  4.978771382066500   7.184142038762417  11.673616748318732 
  6.222733819455923   0.719103801124883  11.673616748318732 
  9.956761823092844   7.186630020314407  11.673616748318732 
 -2.489385691033614   7.192138547719828   5.002978606422314 
 11.201832241436190   0.718390864672369  11.673616748318732 
  3.730597718477832   0.697639074907170   5.002978606422314 
  2.468486038967237   7.198303913921393   5.002978606422314 
  7.489056725164581   7.198303913921393   5.002978606422314 
  8.731563399903845   0.694473624578189   5.002978606422314 
  2.490446474440298   7.185625050588905  11.673616748318732 
 13.686890172324469   0.721355267649130   5.002978606422314 
 -1.244577403086291   9.342042091707844  11.673616748318732 
  0.001479718624397   2.875349313615693  11.673616748318732 
  4.978771382066565   2.875719884841048  11.673616748318732 
  3.734246097814516   9.339637751727452  11.673616748318732 
  8.712799385703807   9.341236164579454  11.673616748318732 
  9.956063045508822   2.875349313615693  11.673616748318732 
 -3.727894675316982   9.345678996375295   5.002978606422314 
  1.228259993337890   9.355615556556456   5.002978606422314 
  2.429011464479126   2.790331186337857   5.002978606422314 
  6.266165112999149   9.436476262022682   5.002978606422314 
  7.528531299655796   2.790331186337857   5.002978606422314 
 12.446928455166978   2.869031961206268   5.002978606422314 
 -1.243961851048983   5.031023013002172  11.673616748318732 
 -2.489385691033238  11.498113292114800  11.673616748318732 
  2.489182411289844  11.497018547360737  11.673616748318732 
  3.735893254167375   5.031413973628007  11.673616748318732 
  7.468360352841215  11.497018547360737  11.673616748318732 
 -4.973660919787810  11.495029463906917   5.002978606422314 
  8.710626197266180   5.031456628960994  11.673616748318732 
 -0.005110462278325  11.495029463906917   5.002978606422314 
  1.141617733546718   5.020162537658460   5.002978606422314 
 -0.019913670251022   7.193715354551299   5.002978606422314 
  6.499606933205942   4.870935180496314   5.002978606422314 
  4.978771382067465  11.526618933254811   5.002978606422314 
 11.232506971909775   5.026234958153106   5.002978606422314 
 -2.489385691033501   7.186585462732414  11.673616748318732 
  3.734808944677474   0.719103801124883  11.673616748318732 
  7.467096289692567   7.185625050588905  11.673616748318732 
  8.711915644406044   0.718928425656054  11.673616748318732 
 13.692024668893280   0.718390864672369  11.673616748318732 
 -0.000134471571120   1.437776950795277   1.687845351788532 
  3.740377263893255   7.901534146130223   1.613640401193163 
  4.978771382067221   1.443857057438199   1.647516277741489 
  8.707125872956784   7.901556464289992   1.647516277741489 
  9.957677235704741   1.437776950795277   1.687845351788532 
 -4.981106014053160  10.059842994607720   8.320516620952555 
  0.002334631984053  10.059842994607720   8.320516620952555 
  1.245802240208993   3.593759256411416   8.362729905451310 
  4.978771382064724  10.059451473195677   8.362729905451310 
  6.223732240331432   3.600237153710262   8.392316811651797 
 11.201844326587084   3.592737565310198   8.318111861056416 
 -2.489385691033300  10.060732491844131   1.700673270712373 
 -1.244301562454342   3.592737565310197   1.687845351788532 
  3.733810523801653   3.600237153710261   1.613640401193163 
  2.492211480398860  10.059220431434781   1.656601929671736 
  7.465331283736738  10.059220431434781   1.656601929671736 
  8.711740523922359   3.593759256411415   1.643227307392891 
 -6.224452474732161  12.217174304853327   8.320564054512232 
 -1.244295856729123  12.219070339323375   8.320516620952555 
  0.002722377408431   5.747298820168695   8.349355283172399 
  4.978771382066590   5.748989995339477   8.295603136569058 
  3.734604291183734  12.216455469912994   8.318111861056416 
  9.954820386725761   5.747298820168695   8.349355283172399 
 -2.489385691033085   5.747848865823607   1.685393158332289 
 -3.734475525338907  12.219070339323375   1.685440591890526 
  1.245681092667431  12.217174304853327   1.685393158332289 
  2.495416405629410   5.745198686179056   1.613640401193163 
  6.222938472949298  12.216455469912994   1.687845351788532 
  7.462126358507410   5.745198686179056   1.613640401193163 
 -1.242755202318464   7.903284141600007   8.320516620952555 
 -0.000134471571120   1.437776950795278   8.318111861056416 
  3.740377263893256   7.901534146130224   8.392316811651797 
  4.978771382067221   1.443857057438200   8.358440935104060 
  8.707125872956784   7.901556464289992   8.358440935104060 
 -3.736016179745895   7.903284141600006   1.685440591890526 
  9.957677235704741   1.437776950795278   8.318111861056442 
  2.489282279077233   1.440450734414826   1.656601929671736 
  1.250416891175678   7.901556464289992   1.647516277741489 
  6.217165500241477   7.901534146130223   1.613640401193163 
  7.468260485056685   1.440450734414826   1.656601929671736 
  1.250416891175678   7.901556464289992   8.358440935104060 
 12.446928455166319   1.437247498834911   1.706539245712607 
 -2.489385691033300  10.060732491844131   8.305283942132027 
 -1.244301562454341   3.592737565310198   8.318111861056442 
  3.733810523801653   3.600237153710262   8.392316811651797 
  2.492211480398860  10.059220431434781   8.349355283172399 
  7.465331283736739  10.059220431434781   8.349355283172399 
  8.711740523922238   3.593759256411416   8.362729905451310 
 -4.981106014053161  10.059842994607720   1.685440591890526 
  0.002334631984053  10.059842994607720   1.685440591890526 
  1.245802240208993   3.593759256411415   1.643227307392891 
  4.978771382064723  10.059451473195677   1.643227307392891 
  6.223732240331431   3.600237153710261   1.613640401193163 
 11.201844326587084   3.592737565310197   1.687845351788532 
 -2.489385691032935   5.747848865823608   8.320564054512232 
 -3.734475525338907  12.219070339323375   8.320516620952555 
  1.245681092667432  12.217174304853327   8.320564054512232 
  2.495416405629411   5.745198686179057   8.392316811651797 
  6.222938472949298  12.216455469912994   8.318111861056442 
 -6.224452474732013  12.217174304853327   1.685393158332289 
  7.462126358507411   5.745198686179057   8.392316811651797 
 -1.244295856729123  12.219070339323375   1.685440591890526 
  0.002722377408415   5.747298820168694   1.656601929671736 
 -1.242755202318465   7.903284141600006   1.685440591890526 
  4.978771382066589   5.748989995339476   1.710354076276382 
  3.734604291183733  12.216455469912994   1.687845351788532 
  9.954820386725761   5.747298820168694   1.656601929671736 
 -3.736016179745894   7.903284141600007   8.320516620952555 
  2.489282279077234   1.440450734414826   8.349355283172399 
  6.217165500241478   7.901534146130224   8.392316811651797 
  7.468260485056686   1.440450734414826   8.349355283172399 
 12.446928455166319   1.437247498834912   8.299417967132927 
  4.978771382066589   5.748989995339477   5.002978606422314 
  1.243877995497072   0.718456238024360   1.676117272867214 
  4.978771382065730   7.192593601372872   1.584410458479857 
  6.223668148884886   0.718901390041676   1.658062900241127 
  9.957404280949213   7.185922072833677   1.658062900241127 
 11.202660643403432   0.718869142769505   1.699661107781678 
 -3.734292993379070   9.341984925717917   8.312813013538229 
  1.245035250000249   9.342146523143851   8.347894312603781 
  2.487033846836894   2.873107013887494   8.383811999196595 
  6.223490334698723   9.344839491136677   8.383811999196595 
  7.470508917295489   2.873107013887494   8.383811999196595 
 12.446928455165924   2.874004210965996   8.306296105063803 
 -1.244478388687128   9.341984925717917   1.693144199307373 
 -0.001581020681121   2.873582194953327   1.671071503011470 
  4.978771382066647   2.874556120198021   1.612030670779154 
  3.734052429432456   9.344839491136675   1.622145213647513 
  8.712507514129388   9.342146523143851   1.658062900241127 
  9.959123784814771   2.873582194953327   1.671071503011470 
 -4.978973945668201  11.498096940828578   8.319287738758552 
  0.000202563602874  11.498096940828578   8.319287738758552 
  1.242314894203000   5.029023480993332   8.383811999196595 
  6.228968777885470   5.027188192322773   8.421546754366398 
  4.978771382067054  11.499805596110171   8.334885709832143 
 11.202788103781950   5.029744320801543   8.329839939978028 
 -1.245245339648342   5.029744320801542   1.676117272867214 
 -2.489385691033240  11.498227624094907   1.693144199307373 
  2.489648046920794  11.498769427191531   1.676117272867147 
  3.728573986248199   5.027188192322772   1.584410458479804 
  7.467894717213269  11.498769427191531   1.676117272867214 
  8.715227869927862   5.029023480993331   1.622145213647513 
  0.000138483181889   7.185922072833705   8.347894312603781 
  1.243877995497073   0.718456238024360   8.329839939978028 
  4.978771382065731   7.192593601372873   8.421546754366398 
  6.223668148884887   0.718901390041677   8.347894312603781 
  9.957404280949213   7.185922072833678   8.347894312603781 
 -2.489385691033181   7.186003593873970   1.686669474087582 
 11.202660643403432   0.718869142769506   8.306296105063803 
  3.733874615246718   0.718901390041676   1.658062900241127 
  2.489438624695901   7.186206932909712   1.612030670779154 
  7.468104139437681   7.186206932909712   1.612030670779154 
  8.713664768634890   0.718456238024360   1.676117272867147 
  2.489438624695901   7.186206932909712   8.393926542064539 
 13.691196266929163   0.718869142769505   1.699661107781678 
 -1.244478388687127   9.341984925717917   8.312813013538229 
 -0.001581020681120   2.873582194953328   8.334885709832143 
  4.978771382066603   2.874556120198100   8.393926542064539 
  3.734052429432456   9.344839491136677   8.383811999196595 
  8.712507514129388   9.342146523143851   8.347894312603781 
  9.959123784814771   2.873582194953328   8.334885709832143 
 -3.734292993379071   9.341984925717917   1.693144199307373 