B C N                                   
   1.0000000000000000     
     8.7639499999999995  -15.1796066749929999    0.0000000000000000
     8.7639499999999995   15.1796066749929999    0.0000000000000000
     0.0000000000000000    0.0000000000000000   15.0000000000000000
   B    C    N 
    47     3    48
Selective dynamics
Direct
  0.9046113792060405  0.9522882386543899  0.1110066714836450   T   T   T
  0.9047856835502810  0.0952427102213668  0.1110327878721948   T   T   T
  0.9047759906936237  0.2381126444220265  0.1110424550564588   T   T   T
  0.9045946307811159  0.3809067100379283  0.1109947763261063   T   T   T
  0.9048642463754445  0.5237468986833360  0.1109904643574155   T   T   T
  0.9049296705540230  0.6667416881245133  0.1110414408973237   T   T   T
  0.9048786150772932  0.8097003384721810  0.1110431552143369   T   T   T
  0.0477629627658883  0.9525959022379247  0.1109988524948566   T   T   T
  0.0478542407431218  0.0954778756659471  0.1110062338851603   T   T   T
  0.0479161727597963  0.2382382090408838  0.1109972933673301   T   T   T
  0.0478630894426599  0.3809440642707316  0.1110135797459189   T   T   T
  0.0477563139768630  0.5237392509778914  0.1110012890827902   T   T   T
  0.0476973439018322  0.6666581615031385  0.1110080291821677   T   T   T
  0.0477121210691932  0.8096137575543133  0.1109900595350194   T   T   T
  0.1905215724718166  0.9524554712848067  0.1109900436146765   T   T   T
  0.1907995229149152  0.0956095143034934  0.1110254743135039   T   T   T
  0.1912102734735978  0.2386429188089393  0.1110007408401183   T   T   T
  0.1912268507187287  0.3811336293279446  0.1109818368316575   T   T   T
  0.1907898873566677  0.5237492294019194  0.1110466929277908   T   T   T
  0.1905130636144910  0.6666256548300091  0.1110558369540139   T   T   T
  0.1905517747233712  0.8095635300177420  0.1109927241322974   T   T   T
  0.3334384562497094  0.9524606621195116  0.1110124009133003   T   T   T
  0.3333452196478728  0.0952497107408577  0.1110388010474651   T   T   T
  0.3339032041316316  0.2383135331529399  0.1110642717532191   T   T   T
  0.3352230645156752  0.3818933129483801  0.1110429633173202   T   T   T
  0.3338996098983024  0.5241445270362496  0.1110671469107316   T   T   T
  0.3333448464238204  0.6666511462181917  0.1110855109250958   T   T   T
  0.3334404861966548  0.8095518888208327  0.1110582150124133   T   T   T
  0.4762617738357255  0.9524169618795170  0.1110020411289784   T   T   T
  0.4762206516204282  0.0958286924654435  0.1109887515387425   T   T   T
  0.4757326353176365  0.2390924610255383  0.1110515243033598   T   T   T
  0.4757325166630761  0.6652030627125191  0.1110491808661339   T   T   T
  0.4762320731044045  0.8089652592100870  0.1110368423028291   T   T   T
  0.6189918362612359  0.9521867805206923  0.1110104170244820   T   T   T
  0.6189764182125489  0.0953738813562280  0.1109924728156726   T   T   T
  0.6187872996926754  0.2384635797666630  0.1110025175200186   T   T   T
  0.6179625449377917  0.3816574981578945  0.1110157079482784   T   T   T
  0.6201029632944406  0.5243502405902990  0.1111177902069246   T   T   T
  0.6179677225556728  0.6648931454320376  0.1110128115329881   T   T   T
  0.6188120308865687  0.8089167266773409  0.1109920926852222   T   T   T
  0.7617187797040808  0.9521381772671971  0.1110000289197143   T   T   T
  0.7618243101998088  0.0952009975691383  0.1110420113512798   T   T   T
  0.7616972423193283  0.2381524649686410  0.1110453699870148   T   T   T
  0.7612164011665936  0.3809364177215879  0.1110045518583009   T   T   T
  0.7622570969630637  0.5239037164809789  0.1110297199834408   T   T   T
  0.7622658099726155  0.6669305864833730  0.1110230472681535   T   T   T
  0.7612387541044734  0.8088902443691205  0.1110080259272337   T   T   T
  0.4756055771625567  0.3819078090291523  0.1111959080593888   T   T   T
  0.4755889847630330  0.5222539745333200  0.1112540105701863   T   T   T
  0.5195760743024359  0.4740984365983401  0.1113108157291675   T   T   T
  0.9524950820032905  0.9049346846688048  0.1109997445946083   T   T   T
  0.9524734045004193  0.0476819332510205  0.1109951164677973   T   T   T
  0.9525655823087714  0.1905721324982388  0.1110087333541093   T   T   T
  0.9524682378527005  0.3333697970533954  0.1110020000092546   T   T   T
  0.9524870852185131  0.4761376260795291  0.1109529606478873   T   T   T
  0.9524728230685495  0.6190297269970600  0.1109966258863880   T   T   T
  0.9524809599161947  0.7620111902804150  0.1110141296663242   T   T   T
  0.0953048203566107  0.9048774349604823  0.1109607253016575   T   T   T
  0.0955258785847205  0.0479405564083508  0.1109906356037495   T   T   T
  0.0958228625011162  0.1909039357339422  0.1109806283797959   T   T   T
  0.0958328940684451  0.3334847523860295  0.1109732679877167   T   T   T
  0.0955218069522718  0.4761528938001658  0.1110002529490844   T   T   T
  0.0952973635139775  0.6189926353167623  0.1110027464988465   T   T   T
  0.0953101712107374  0.7619370370220967  0.1109706848216890   T   T   T
  0.2381688706676886  0.9048321082227365  0.1109703456509939   T   T   T
  0.2381359362617075  0.0477250848685265  0.1110080288119766   T   T   T
  0.2386747673291244  0.1910715575769349  0.1110063579673830   T   T   T
  0.2397942819541748  0.3341739299885642  0.1109593037221461   T   T   T
  0.2386747789914878  0.4761659342451740  0.1110077171852994   T   T   T
  0.2381308907640920  0.6189690770645566  0.1110520354021496   T   T   T
  0.2381677619256989  0.7619028490538792  0.1110164055603551   T   T   T
  0.3810346790564079  0.9048024411288107  0.1110070374083572   T   T   T
  0.3810086297044507  0.0477406105168434  0.1109968123646817   T   T   T
  0.3807922444649013  0.1903337737827399  0.1110349968606311   T   T   T
  0.3825815429937022  0.3335052703182630  0.1110665391897066   T   T   T
  0.3825728605100778  0.4776322562165444  0.1110666732219348   T   T   T
  0.3807907899739326  0.6190144492655431  0.1110507333650021   T   T   T
  0.3810122548433777  0.7618326953182100  0.1110483451010632   T   T   T
  0.5237519413236585  0.9044325322119268  0.1109942243633738   T   T   T
  0.5237414552164424  0.0478851295897433  0.1109576137115235   T   T   T
  0.5236259034313764  0.1914685596578348  0.1109796954616777   T   T   T
  0.5218186013011737  0.3348453887539487  0.1110500670492970   T   T   T
  0.5218179269873090  0.6155439656039248  0.1110577349009231   T   T   T
  0.5236397247402729  0.7607307425073195  0.1109949097186944   T   T   T
  0.6664476514223253  0.9043523742279771  0.1109815566082630   T   T   T
  0.6665404278870118  0.0475613682970840  0.1109961276891949   T   T   T
  0.6664273724870118  0.1906666035839507  0.1110012024475812   T   T   T
  0.6656070713959953  0.3335469977357265  0.1109730789349657   T   T   T
  0.6671130946467488  0.4765219707133339  0.1110008627682297   T   T   T
  0.6671244065866869  0.6191832316838999  0.1109941779197709   T   T   T
  0.6656256697331181  0.7606518407057546  0.1109672963972742   T   T   T
  0.8091763907415093  0.9043721976660571  0.1109816261905996   T   T   T
  0.8094628115285591  0.0475237397536328  0.1110104131621856   T   T   T
  0.8094538272960503  0.1905179799354850  0.1110316240190899   T   T   T
  0.8091553394108520  0.3333840675301442  0.1109992875192266   T   T   T
  0.8096152198478856  0.4761703465338977  0.1109961805607909   T   T   T
  0.8097336305691483  0.6191515696492833  0.1110224605251929   T   T   T
  0.8096263479730291  0.7620325922369912  0.1110148885417576   T   T   T

  0.00000000E+00  0.00000000E+00  0.00000000E+00
  0.00000000E+00  0.00000000E+00  0.00000000E+00
  0.00000000E+00  0.00000000E+00  0.00000000E+00
  0.00000000E+00  0.00000000E+00  0.00000000E+00
  0.00000000E+00  0.00000000E+00  0.00000000E+00
  0.00000000E+00  0.00000000E+00  0.00000000E+00
  0.00000000E+00  0.00000000E+00  0.00000000E+00
  0.00000000E+00  0.00000000E+00  0.00000000E+00
  0.00000000E+00  0.00000000E+00  0.00000000E+00
  0.00000000E+00  0.00000000E+00  0.00000000E+00
  0.00000000E+00  0.00000000E+00  0.00000000E+00
  0.00000000E+00  0.00000000E+00  0.00000000E+00
  0.00000000E+00  0.00000000E+00  0.00000000E+00
  0.00000000E+00  0.00000000E+00  0.00000000E+00
  0.00000000E+00  0.00000000E+00  0.00000000E+00
  0.00000000E+00  0.00000000E+00  0.00000000E+00
  0.00000000E+00  0.00000000E+00  0.00000000E+00
  0.00000000E+00  0.00000000E+00  0.00000000E+00
  0.00000000E+00  0.00000000E+00  0.00000000E+00
  0.00000000E+00  0.00000000E+00  0.00000000E+00
  0.00000000E+00  0.00000000E+00  0.00000000E+00
  0.00000000E+00  0.00000000E+00  0.00000000E+00
  0.00000000E+00  0.00000000E+00  0.00000000E+00
  0.00000000E+00  0.00000000E+00  0.00000000E+00
  0.00000000E+00  0.00000000E+00  0.00000000E+00
  0.00000000E+00  0.00000000E+00  0.00000000E+00
  0.00000000E+00  0.00000000E+00  0.00000000E+00
  0.00000000E+00  0.00000000E+00  0.00000000E+00
  0.00000000E+00  0.00000000E+00  0.00000000E+00
  0.00000000E+00  0.00000000E+00  0.00000000E+00
  0.00000000E+00  0.00000000E+00  0.00000000E+00
  0.00000000E+00  0.00000000E+00  0.00000000E+00
  0.00000000E+00  0.00000000E+00  0.00000000E+00
  0.00000000E+00  0.00000000E+00  0.00000000E+00
  0.00000000E+00  0.00000000E+00  0.00000000E+00
  0.00000000E+00  0.00000000E+00  0.00000000E+00
  0.00000000E+00  0.00000000E+00  0.00000000E+00
  0.00000000E+00  0.00000000E+00  0.00000000E+00
  0.00000000E+00  0.00000000E+00  0.00000000E+00
  0.00000000E+00  0.00000000E+00  0.00000000E+00
  0.00000000E+00  0.00000000E+00  0.00000000E+00
  0.00000000E+00  0.00000000E+00  0.00000000E+00
  0.00000000E+00  0.00000000E+00  0.00000000E+00
  0.00000000E+00  0.00000000E+00  0.00000000E+00
  0.00000000E+00  0.00000000E+00  0.00000000E+00
  0.00000000E+00  0.00000000E+00  0.00000000E+00
  0.00000000E+00  0.00000000E+00  0.00000000E+00
  0.00000000E+00  0.00000000E+00  0.00000000E+00
  0.00000000E+00  0.00000000E+00  0.00000000E+00
  0.00000000E+00  0.00000000E+00  0.00000000E+00
  0.00000000E+00  0.00000000E+00  0.00000000E+00
  0.00000000E+00  0.00000000E+00  0.00000000E+00
  0.00000000E+00  0.00000000E+00  0.00000000E+00
  0.00000000E+00  0.00000000E+00  0.00000000E+00
  0.00000000E+00  0.00000000E+00  0.00000000E+00
  0.00000000E+00  0.00000000E+00  0.00000000E+00
  0.00000000E+00  0.00000000E+00  0.00000000E+00
  0.00000000E+00  0.00000000E+00  0.00000000E+00
  0.00000000E+00  0.00000000E+00  0.00000000E+00
  0.00000000E+00  0.00000000E+00  0.00000000E+00
  0.00000000E+00  0.00000000E+00  0.00000000E+00
  0.00000000E+00  0.00000000E+00  0.00000000E+00
  0.00000000E+00  0.00000000E+00  0.00000000E+00
  0.00000000E+00  0.00000000E+00  0.00000000E+00
  0.00000000E+00  0.00000000E+00  0.00000000E+00
  0.00000000E+00  0.00000000E+00  0.00000000E+00
  0.00000000E+00  0.00000000E+00  0.00000000E+00
  0.00000000E+00  0.00000000E+00  0.00000000E+00
  0.00000000E+00  0.00000000E+00  0.00000000E+00
  0.00000000E+00  0.00000000E+00  0.00000000E+00
  0.00000000E+00  0.00000000E+00  0.00000000E+00
  0.00000000E+00  0.00000000E+00  0.00000000E+00
  0.00000000E+00  0.00000000E+00  0.00000000E+00
  0.00000000E+00  0.00000000E+00  0.00000000E+00
  0.00000000E+00  0.00000000E+00  0.00000000E+00
  0.00000000E+00  0.00000000E+00  0.00000000E+00
  0.00000000E+00  0.00000000E+00  0.00000000E+00
  0.00000000E+00  0.00000000E+00  0.00000000E+00
  0.00000000E+00  0.00000000E+00  0.00000000E+00
  0.00000000E+00  0.00000000E+00  0.00000000E+00
  0.00000000E+00  0.00000000E+00  0.00000000E+00
  0.00000000E+00  0.00000000E+00  0.00000000E+00
  0.00000000E+00  0.00000000E+00  0.00000000E+00
  0.00000000E+00  0.00000000E+00  0.00000000E+00
  0.00000000E+00  0.00000000E+00  0.00000000E+00
  0.00000000E+00  0.00000000E+00  0.00000000E+00
  0.00000000E+00  0.00000000E+00  0.00000000E+00
  0.00000000E+00  0.00000000E+00  0.00000000E+00
  0.00000000E+00  0.00000000E+00  0.00000000E+00
  0.00000000E+00  0.00000000E+00  0.00000000E+00
  0.00000000E+00  0.00000000E+00  0.00000000E+00
  0.00000000E+00  0.00000000E+00  0.00000000E+00
  0.00000000E+00  0.00000000E+00  0.00000000E+00
  0.00000000E+00  0.00000000E+00  0.00000000E+00
  0.00000000E+00  0.00000000E+00  0.00000000E+00
  0.00000000E+00  0.00000000E+00  0.00000000E+00
  0.00000000E+00  0.00000000E+00  0.00000000E+00
  0.00000000E+00  0.00000000E+00  0.00000000E+00

