Species order: X N B                    
   2.51242800000000     
     5.9449720136058266    0.0000000000000000    0.0000000000000000
    -2.9724860068029120    5.1484967885702053   -0.0000000000000001
     0.0000000000000000    0.0000000000000009    5.3101128803662583
   Ge   N    B 
     1   143   143
Direct
  0.4947333659785313  0.4140333496559269  0.3750000000000000
  0.1111710747916816  0.0555808324468253  0.1249552351072485
  0.6113121599315789  0.5557820619214028  0.1230411806442028
  0.4445787503947305  0.0556230438735409  0.1248377396616509
  0.9445250836721871  0.5555888621681232  0.1248358798733602
  0.7779129855629592  0.0556231594481393  0.1248747996973765
  0.1112064166370008  0.7222698749851695  0.6250470099798434
  0.4445787503947305  0.7222890398545276  0.6251622603383535
  0.2777560953655558  0.2222060365009481  0.6255654848239842
  0.7778854129753411  0.7223226021258969  0.6256954099091921
  0.6112501389996440  0.2222447573644457  0.6257080241177381
  0.9445353328871344  0.2222609866328757  0.6251074653880511
  0.2778987777048950  0.7222804666181467  0.1249352772175936
  0.1111369109029521  0.2222351221181410  0.1249236617865467
  0.4445602599340350  0.2222893749201833  0.1242897442792640
  0.6112501389996440  0.7223387149685212  0.1242919758822664
  0.9445250836721871  0.7222695548373874  0.1248358798733602
  0.7779079245015565  0.2222509519613181  0.1247854451913864
  0.1112065853223229  0.8889405748174090  0.6250726569195073
  0.4445849659318972  0.8889591496326137  0.6251008426281067
  0.2777560953655558  0.3888833921979451  0.6255654848239842
  0.6113121599315789  0.3888634313435101  0.6269588193557989
  0.7779079245015565  0.8889903058735756  0.6252145548086113
  0.9445384443091288  0.3889248469364294  0.6250727101617205
  0.1111710747916816  0.3889235756781864  0.1249552351072485
  0.2778987777048950  0.8889516444200773  0.1249352772175936
  0.6112536730943438  0.8889763148580170  0.1248498421215078
  0.4441942499026368  0.3887637916179851  0.1225718940257814
  0.9445384443091288  0.8889469307060266  0.1249272898382867
  0.7778854129753411  0.3888961441827675  0.1243045900908090
  0.2778861502739444  0.5556036277986143  0.6251158214475359
  0.1111710747916816  0.0555808324468253  0.6250447648927320
  0.6113121599315789  0.5557820619214028  0.6269588193557989
  0.4445787503947305  0.0556230438735409  0.6251622603383535
  0.9445250836721871  0.5555888621681232  0.6251641201266404
  0.1112065853223229  0.5555993438382346  0.1249273430804842
  0.7779129855629592  0.0556231594481393  0.6251252003026264
  0.2778861502739444  0.0556158558086745  0.1248841785524656
  0.4445602599340350  0.5556042183471902  0.1242897442792640
  0.7778658697865629  0.5555996015599447  0.1240770335864601
  0.6112536730943438  0.0556106915696307  0.1248498421215078
  0.4445602599340350  0.5556042183471902  0.6257102557207350
  0.9445353328871344  0.0556076795875935  0.1248925346119498
  0.2778987777048950  0.7222804666181467  0.6250647227823926
  0.1111369109029521  0.2222351221181410  0.6250763382134492
  0.4445602599340350  0.2222893749201833  0.6257102557207350
  0.6112501389996440  0.7223387149685212  0.6257080241177381
  0.9445250836721871  0.7222695548373874  0.6251641201266404
  0.7779079245015565  0.2222509519613181  0.6252145548086113
  0.1112064166370008  0.7222698749851695  0.1249529900201498
  0.4445787503947305  0.7222890398545276  0.1248377396616509
  0.2777560953655558  0.2222060365009481  0.1244345151760199
  0.7778854129753411  0.7223226021258969  0.1243045900908090
  0.6112501389996440  0.2222447573644457  0.1242919758822664
  0.9445353328871344  0.2222609866328757  0.1248925346119498
  0.1111710747916816  0.3889235756781864  0.6250447648927320
  0.2778987777048950  0.8889516444200773  0.6250647227823926
  0.6112536730943438  0.8889763148580170  0.6251501578784840
  0.4441942499026368  0.3887637916179851  0.6274281059742080
  0.9445384443091288  0.8889469307060266  0.6250727101617205
  0.1112065853223229  0.8889405748174081  0.1249273430804842
  0.7778854129753411  0.3888961441827675  0.6256954099091921
  0.4445849659318972  0.8889591496326137  0.1248991573718914
  0.2777560953655558  0.3888833921979451  0.1244345151760199
  0.2778861502739444  0.5556036277986143  0.1248841785524656
  0.6113121599315789  0.3888634313435101  0.1230411806442026
  0.7779079245015565  0.8889903058735756  0.1247854451913864
  0.9445384443091288  0.3889248469364294  0.1249272898382867
  0.1112065853223229  0.5555993438382346  0.6250726569195073
  0.2778861502739444  0.0556158558086751  0.6251158214475359
  0.7778658697865629  0.5555996015599454  0.6259229664135314
  0.6112536730943438  0.0556106915696307  0.6251501578784840
  0.9445353328871344  0.0556076795875935  0.6251074653880511
  0.0569843009535297  0.1120090642751826  0.3750000000000000
  0.5538628619946059  0.6182368601614762  0.3750000000000000
  0.3864659172594317  0.1049446700744099  0.3750000000000000
  0.8851338564592521  0.6092335948962821  0.3750000000000000
  0.7224652105221173  0.1105197681701529  0.3750000000000000
  0.0556381405630470  0.7778181202194556  0.8750000000000000
  0.3889527029865466  0.7778173995304036  0.8750000000000000
  0.2223027698817774  0.2778180516075603  0.8750000000000000
  0.7222927002618446  0.7778093139154599  0.8750000000000000
  0.5556159529730244  0.2777991919460479  0.8750000000000000
  0.8889624379380267  0.2778191728976739  0.8750000000000000
  0.2191612870507376  0.7762473101920454  0.3750000000000000
  0.0569843009535297  0.2783085700116824  0.3750000000000000
  0.3909773428762968  0.2719111494827575  0.3750000000000000
  0.5544029702811186  0.7807036614119633  0.3750000000000000
  0.8868704433200220  0.7770128480572465  0.3750000000000000
  0.7220014280835553  0.2759025996720950  0.3750000000000000
  0.0556276857948832  0.9444763744387915  0.8750000000000000
  0.3889527029865466  0.9444686367894707  0.8750000000000000
  0.2222921362201695  0.4444890551278454  0.8750000000000000
  0.5556316960938967  0.4444825147136161  0.8750000000000000
  0.7222873579453915  0.9444751656831712  0.8750000000000000
  0.8889732386146852  0.4444909232956780  0.8750000000000000
  0.0545550289746719  0.4440524095988069  0.3750000000000000
  0.2195186925006474  0.9418884399848167  0.3750000000000000
  0.5544965407881347  0.9439149370607473  0.3750000000000000
  0.3909773428762961  0.4523995267268828  0.3750000000000000
  0.8893010193478865  0.9452292804662167  0.3750000000000000
  0.7186920038348892  0.4419986921024603  0.3750000000000000
  0.2222869381376112  0.6111523258260243  0.8750000000000000
  0.0556311867790848  0.1111467963209498  0.8750000000000000
  0.5556159529730244  0.6111500943603069  0.8750000000000000
  0.3889487947725102  0.1111232454161305  0.8750000000000000
  0.8889917464534729  0.6111625398934070  0.8750000000000000
  0.0524922329298652  0.6098152509517173  0.3750000000000000
  0.7222873579453915  0.1111455255955554  0.8750000000000000
  0.2224651978925836  0.1103197814879627  0.3750000000000000
  0.3864659172594317  0.6148545805183599  0.3750000000000000
  0.7186920038348892  0.6100266450657682  0.3750000000000000
  0.5544029702811186  0.1070326422024933  0.3750000000000000
  0.3889487947725102  0.6111588826897333  0.8750000000000000
  0.8899145015418984  0.1116239174376153  0.3750000000000000
  0.2222927006915119  0.7778130170124188  0.8750000000000000
  0.0556311867790848  0.2778177237914730  0.8750000000000000
  0.3889617833761498  0.2777942310869702  0.8750000000000000
  0.5556163448857570  0.7778130419994547  0.8750000000000000
  0.8889732386146852  0.7778156486523471  0.8750000000000000
  0.7222927002618446  0.2778167196797251  0.8750000000000000
  0.0524922329298652  0.7760103153114820  0.3750000000000000
  0.3864939396417347  0.7781431931126764  0.3750000000000000
  0.2254374414569505  0.2793853873951390  0.3750000000000000
  0.7220014280835553  0.7794321617448045  0.3750000000000000
  0.5538628619946059  0.2689593351664593  0.3750000000000000
  0.8893010193478865  0.2774050722150015  0.3750000000000000
  0.0556276857948833  0.4444846446894091  0.8750000000000000
  0.2222869381376116  0.9444679456449244  0.8750000000000000
  0.5556183801090927  0.9444758567212078  0.8750000000000000
  0.3889617833761498  0.4445008856225137  0.8750000000000000
  0.8889624379380267  0.9444765983736915  0.8750000000000000
  0.0545550289746719  0.9438359527091870  0.3750000000000000
  0.7223167234842363  0.4444972407521962  0.8750000000000000
  0.3864939396417347  0.9416840798623901  0.3750000000000000
  0.2224651978925832  0.4454787497379568  0.3750000000000000
  0.2195186925006474  0.6109635858491715  0.3750000000000000
  0.7224652105221173  0.9452787756852915  0.3750000000000000
  0.8868704433200220  0.4431909285961059  0.3750000000000000
  0.0556381405630469  0.6111533536769201  0.8750000000000000
  0.2222921362201695  0.1111364144256569  0.8750000000000000
  0.7223167234842363  0.6111528160653595  0.8750000000000000
  0.5556163448857570  0.1111366362196492  0.8750000000000000
  0.8889611695929175  0.1111472514631353  0.8750000000000000
  0.1117259931338628  0.0555629656819175  0.3750000000000000
  0.6072155181855045  0.5611294362507310  0.3749999999999995
  0.4430600657349260  0.0518718440114071  0.3750000000000000
  0.9412214013555749  0.5541933438583199  0.3750000000000000
  0.7786297527223008  0.0559815430278176  0.3750000000000000
  0.1111816223586218  0.7222574778459735  0.8750000000000000
  0.4445021375536997  0.7222184558484260  0.8750000000000000
  0.2779281901681919  0.2223066260349269  0.8750000000000000
  0.7778076405489763  0.7221874808042134  0.8750000000000000
  0.6111426098965157  0.2222998383359235  0.8750000000000000
  0.9445360657051109  0.2222771009487511  0.8750000000000000
  0.2753299056722835  0.7216894490558077  0.3750000000000000
  0.1143590718976814  0.2238462026155050  0.3750000000000000
  0.4427084536563685  0.2150711848695241  0.3750000000000000
  0.6106767799591112  0.7265962411355600  0.3750000000000000
  0.9412214013555749  0.7203613908306139  0.3750000000000000
  0.7781303326428595  0.2215995927278165  0.3750000000000000
  0.1111932611307757  0.8889299041631964  0.8750000000000000
  0.4445006385203544  0.8889169859268496  0.8750000000000000
  0.2779281901681919  0.3889548974665920  0.8750000000000000
  0.6111350520740734  0.3889573602190707  0.8750000000000000
  0.7778252255577187  0.8888758867857275  0.8750000000000000
  0.9445135677805756  0.3889451268806298  0.8750000000000000
  0.1117259931338628  0.3894963607852701  0.3750000000000000
  0.2753299056722835  0.8869737899498077  0.3750000000000000
  0.6110229669623771  0.8903021377232432  0.3750000000000000
  0.9434567234601526  0.8883997120356415  0.3750000000000000
  0.7753751023072227  0.3873211542159611  0.3750000000000000
  0.2778783516547289  0.5555885266047386  0.8750000000000000
  0.1112254049337803  0.0556138865118601  0.8750000000000000
  0.6111350520740734  0.5555110251883417  0.8750000000000000
  0.4445021375536997  0.0556170150386121  0.8750000000000000
  0.9445013896550082  0.5555989229648268  0.8750000000000000
  0.1087373983140988  0.5549562126638428  0.3750000000000000
  0.7778363705931970  0.0555848519632664  0.8750000000000000
  0.2760451715383467  0.0529397919493923  0.3750000000000000
  0.4427084536563685  0.5609706021201830  0.3750000000000000
  0.7729957056148965  0.5531645194741173  0.3750000000000000
  0.6110229669623771  0.0540541625724684  0.3750000000000000
  0.4445297827872755  0.5555571217311998  0.8750000000000000
  0.9458686693260786  0.0564739273655926  0.3750000000000000
  0.2778514737745947  0.7222499121984656  0.8750000000000000
  0.1112512293154572  0.2222922813243907  0.8750000000000000
  0.4445297827872755  0.2223059943894088  0.8750000000000000
  0.6111426098965157  0.7221761048939285  0.8750000000000000
  0.9445013896550082  0.7222358000235310  0.8750000000000000
  0.7778252255577187  0.2222826721053125  0.8750000000000000
  0.1080791050030414  0.7207062191681929  0.3750000000000000
  0.4430600657349260  0.7245215550568535  0.3750000000000000
  0.2817163463578338  0.2232413474451433  0.3750000000000000
  0.7753751023072227  0.7213872814245820  0.3750000000000000
  0.6106767799591112  0.2174138721568821  0.3750000000000000
  0.9458686693260786  0.2227280752938175  0.3750000000000000
  0.1112254049337803  0.3889448517552472  0.8750000000000000
  0.2778514737745947  0.8889348949094548  0.8750000000000000
  0.6111543051517693  0.8888871278416245  0.8750000000000000
  0.4445800141761950  0.3889566737547721  0.8750000000000000
  0.9445135677805756  0.8889017742332697  0.8750000000000000
  0.1087373983140990  0.8871145189835951  0.3750000000000000
  0.7778076405489763  0.3889534930780907  0.8750000000000000
  0.4430392994609065  0.8881863163971186  0.3750000000000000
  0.2817163463578326  0.3918083322460240  0.3750000000000000
  0.2760451715383460  0.5564387129222765  0.3750000000000000
  0.6072155181855049  0.3794194152680827  0.3750000000000005
  0.7781303326428595  0.8898640732483787  0.3750000000000000
  0.9434567234601526  0.3883903447578337  0.3750000000000000
  0.1111932611307757  0.5555966903009079  0.8750000000000000
  0.2778783516547289  0.0556231583833290  0.8750000000000000
  0.7778059451453794  0.5555696392393535  0.8750000000000000
  0.6111543051517693  0.0556005106434833  0.8750000000000000
  0.9445360657051109  0.0555922980896864  0.8750000000000000
  0.0556919904477400  0.1111992425977451  0.1251302941611000
  0.5557147136524275  0.6110121420932446  0.1244207837509898
  0.3891027422545225  0.1113918487978384  0.1250485729667315
  0.8887659671555385  0.6110496502444378  0.1248334514627224
  0.7223431605858320  0.1111813031352542  0.1250109535084093
  0.0555966755695349  0.7778158654570423  0.6249246930657187
  0.3890627755302903  0.7778067343571403  0.6249248152196453
  0.2223808609440196  0.2778570971386831  0.6249770073249191
  0.7222691869313655  0.7777700829090122  0.6253050284361988
  0.5557147136524275  0.2780359048925150  0.6255792162489946
  0.8889787259596057  0.2778155090056017  0.6249653460478933
  0.2223504871874332  0.7778419102603935  0.1250783069874372
  0.0556919904477399  0.2778260811833443  0.1251302941611000
  0.3890101338894437  0.2779811684332869  0.1244557697710702
  0.5557057569601448  0.7777711992762515  0.1249139981348119
  0.8888743948397877  0.7777730359178314  0.1249034448853402
  0.7222691869313655  0.2778324373557011  0.1246949715638020
  0.0556569561779090  0.9445312101002551  0.6248744309378763
  0.3890627755302896  0.9445893745064839  0.6249248152196453
  0.2223884207913585  0.4444385698244118  0.6248792842427181
  0.5555162251311971  0.4444247792322629  0.6229157423692211
  0.7223431605858320  0.9444951907839142  0.6249890464915862
  0.8888743948397877  0.4444346922552830  0.6250965551146612
  0.0556569561779090  0.4444590794109891  0.1251255690621158
  0.2223826888301517  0.9446045619052879  0.1251044515148259
  0.5557102173011619  0.9445217753172449  0.1250514749908399
  0.3890101338894437  0.4443622987894921  0.1244557697710702
  0.8889787259596057  0.9444965502873321  0.1250346539521109
  0.7220310743702795  0.4443545692613997  0.1241500237662226
  0.2223826888301517  0.6111114602581967  0.6248955484851810
  0.0556919904477400  0.1111992425977451  0.6248697058388993
  0.5557147136524275  0.6110121420932446  0.6255792162489946
  0.3891027422545225  0.1113918487978384  0.6249514270332784
  0.8887659671555385  0.6110496502444378  0.6251665485372790
  0.0555966755695349  0.6111141434458476  0.1250753069342779
  0.7223431605858320  0.1111813031352542  0.6249890464915862
  0.2223884207913585  0.1112831843002822  0.1251207157572879
  0.3891027422545225  0.6110442267900246  0.1250485729667315
  0.7220310743702792  0.6110098384422078  0.1241500237662227
  0.5557057569601448  0.1112678910172236  0.1249139981348119
  0.3891027422545225  0.6110442267900246  0.6249514270332784
  0.8890114363035346  0.1111723848184309  0.1250365596065301
  0.2223504871874332  0.7778419102603935  0.6249216930125628
  0.0556919904477400  0.2778260811833443  0.6248697058388993
  0.3890101338894437  0.2779811684332874  0.6255442302289335
  0.5557057569601448  0.7777711992762515  0.6250860018651812
  0.8888743948397877  0.7777730359178314  0.6250965551146612
  0.7222691869313655  0.2778324373557011  0.6253050284361988
  0.0555966755695349  0.7778158654570423  0.1250753069342779
  0.3890627755302903  0.7778067343571403  0.1250751847803460
  0.2223808609440196  0.2778570971386831  0.1250229926750814
  0.7222691869313655  0.7777700829090122  0.1246949715638020
  0.5557147136524275  0.2780359048925150  0.1244207837509898
  0.8889787259596057  0.2778155090056017  0.1250346539521109
  0.0556569561779090  0.4444590794109891  0.6248744309378763
  0.2223826888301517  0.9446045619052879  0.6248955484851810
  0.5557102173011619  0.9445217753172449  0.6249485250091581
  0.3890101338894449  0.4443622987894921  0.6255442302289335
  0.8889787259596057  0.9444965502873321  0.6249653460478933
  0.0556569561779090  0.9445312101002551  0.1251255690621158
  0.7220310743702795  0.4443545692613997  0.6258499762337615
  0.3890627755302896  0.9445893745064839  0.1250751847803460
  0.2223884207913585  0.4444385698244118  0.1251207157572879
  0.2223826888301517  0.6111114602581967  0.1251044515148259
  0.5555162251311971  0.4444247792322629  0.1270842576307757
  0.7223431605858320  0.9444951907839142  0.1250109535084093
  0.8888743948397877  0.4444346922552830  0.1249034448853402
  0.0555966755695349  0.6111141434458476  0.6249246930657187
  0.2223884207913585  0.1112831843002822  0.6248792842427181
  0.7220310743702795  0.6110098384422078  0.6258499762337615
  0.5557057569601448  0.1112678910172237  0.6250860018651812
  0.8890114363035346  0.1111723848184309  0.6249634403934580
 
  0.00000000E+00  0.00000000E+00  0.00000000E+00
  0.00000000E+00  0.00000000E+00  0.00000000E+00
  0.00000000E+00  0.00000000E+00  0.00000000E+00
  0.00000000E+00  0.00000000E+00  0.00000000E+00
  0.00000000E+00  0.00000000E+00  0.00000000E+00
  0.00000000E+00  0.00000000E+00  0.00000000E+00
  0.00000000E+00  0.00000000E+00  0.00000000E+00
  0.00000000E+00  0.00000000E+00  0.00000000E+00
  0.00000000E+00  0.00000000E+00  0.00000000E+00
  0.00000000E+00  0.00000000E+00  0.00000000E+00
  0.00000000E+00  0.00000000E+00  0.00000000E+00
  0.00000000E+00  0.00000000E+00  0.00000000E+00
  0.00000000E+00  0.00000000E+00  0.00000000E+00
  0.00000000E+00  0.00000000E+00  0.00000000E+00
  0.00000000E+00  0.00000000E+00  0.00000000E+00
  0.00000000E+00  0.00000000E+00  0.00000000E+00
  0.00000000E+00  0.00000000E+00  0.00000000E+00
  0.00000000E+00  0.00000000E+00  0.00000000E+00
  0.00000000E+00  0.00000000E+00  0.00000000E+00
  0.00000000E+00  0.00000000E+00  0.00000000E+00
  0.00000000E+00  0.00000000E+00  0.00000000E+00
  0.00000000E+00  0.00000000E+00  0.00000000E+00
  0.00000000E+00  0.00000000E+00  0.00000000E+00
  0.00000000E+00  0.00000000E+00  0.00000000E+00
  0.00000000E+00  0.00000000E+00  0.00000000E+00
  0.00000000E+00  0.00000000E+00  0.00000000E+00
  0.00000000E+00  0.00000000E+00  0.00000000E+00
  0.00000000E+00  0.00000000E+00  0.00000000E+00
  0.00000000E+00  0.00000000E+00  0.00000000E+00
  0.00000000E+00  0.00000000E+00  0.00000000E+00
  0.00000000E+00  0.00000000E+00  0.00000000E+00
  0.00000000E+00  0.00000000E+00  0.00000000E+00
  0.00000000E+00  0.00000000E+00  0.00000000E+00
  0.00000000E+00  0.00000000E+00  0.00000000E+00
  0.00000000E+00  0.00000000E+00  0.00000000E+00
  0.00000000E+00  0.00000000E+00  0.00000000E+00
  0.00000000E+00  0.00000000E+00  0.00000000E+00
  0.00000000E+00  0.00000000E+00  0.00000000E+00
  0.00000000E+00  0.00000000E+00  0.00000000E+00
  0.00000000E+00  0.00000000E+00  0.00000000E+00
  0.00000000E+00  0.00000000E+00  0.00000000E+00
  0.00000000E+00  0.00000000E+00  0.00000000E+00
  0.00000000E+00  0.00000000E+00  0.00000000E+00
  0.00000000E+00  0.00000000E+00  0.00000000E+00
  0.00000000E+00  0.00000000E+00  0.00000000E+00
  0.00000000E+00  0.00000000E+00  0.00000000E+00
  0.00000000E+00  0.00000000E+00  0.00000000E+00
  0.00000000E+00  0.00000000E+00  0.00000000E+00
  0.00000000E+00  0.00000000E+00  0.00000000E+00
  0.00000000E+00  0.00000000E+00  0.00000000E+00
  0.00000000E+00  0.00000000E+00  0.00000000E+00
  0.00000000E+00  0.00000000E+00  0.00000000E+00
  0.00000000E+00  0.00000000E+00  0.00000000E+00
  0.00000000E+00  0.00000000E+00  0.00000000E+00
  0.00000000E+00  0.00000000E+00  0.00000000E+00
  0.00000000E+00  0.00000000E+00  0.00000000E+00
  0.00000000E+00  0.00000000E+00  0.00000000E+00
  0.00000000E+00  0.00000000E+00  0.00000000E+00
  0.00000000E+00  0.00000000E+00  0.00000000E+00
  0.00000000E+00  0.00000000E+00  0.00000000E+00
  0.00000000E+00  0.00000000E+00  0.00000000E+00
  0.00000000E+00  0.00000000E+00  0.00000000E+00
  0.00000000E+00  0.00000000E+00  0.00000000E+00
  0.00000000E+00  0.00000000E+00  0.00000000E+00
  0.00000000E+00  0.00000000E+00  0.00000000E+00
  0.00000000E+00  0.00000000E+00  0.00000000E+00
  0.00000000E+00  0.00000000E+00  0.00000000E+00
  0.00000000E+00  0.00000000E+00  0.00000000E+00
  0.00000000E+00  0.00000000E+00  0.00000000E+00
  0.00000000E+00  0.00000000E+00  0.00000000E+00
  0.00000000E+00  0.00000000E+00  0.00000000E+00
  0.00000000E+00  0.00000000E+00  0.00000000E+00
  0.00000000E+00  0.00000000E+00  0.00000000E+00
  0.00000000E+00  0.00000000E+00  0.00000000E+00
  0.00000000E+00  0.00000000E+00  0.00000000E+00
  0.00000000E+00  0.00000000E+00  0.00000000E+00
  0.00000000E+00  0.00000000E+00  0.00000000E+00
  0.00000000E+00  0.00000000E+00  0.00000000E+00
  0.00000000E+00  0.00000000E+00  0.00000000E+00
  0.00000000E+00  0.00000000E+00  0.00000000E+00
  0.00000000E+00  0.00000000E+00  0.00000000E+00
  0.00000000E+00  0.00000000E+00  0.00000000E+00
  0.00000000E+00  0.00000000E+00  0.00000000E+00
  0.00000000E+00  0.00000000E+00  0.00000000E+00
  0.00000000E+00  0.00000000E+00  0.00000000E+00
  0.00000000E+00  0.00000000E+00  0.00000000E+00
  0.00000000E+00  0.00000000E+00  0.00000000E+00
  0.00000000E+00  0.00000000E+00  0.00000000E+00
  0.00000000E+00  0.00000000E+00  0.00000000E+00
  0.00000000E+00  0.00000000E+00  0.00000000E+00
  0.00000000E+00  0.00000000E+00  0.00000000E+00
  0.00000000E+00  0.00000000E+00  0.00000000E+00
  0.00000000E+00  0.00000000E+00  0.00000000E+00
  0.00000000E+00  0.00000000E+00  0.00000000E+00
  0.00000000E+00  0.00000000E+00  0.00000000E+00
  0.00000000E+00  0.00000000E+00  0.00000000E+00
  0.00000000E+00  0.00000000E+00  0.00000000E+00
  0.00000000E+00  0.00000000E+00  0.00000000E+00
  0.00000000E+00  0.00000000E+00  0.00000000E+00
  0.00000000E+00  0.00000000E+00  0.00000000E+00
  0.00000000E+00  0.00000000E+00  0.00000000E+00
  0.00000000E+00  0.00000000E+00  0.00000000E+00
  0.00000000E+00  0.00000000E+00  0.00000000E+00
  0.00000000E+00  0.00000000E+00  0.00000000E+00
  0.00000000E+00  0.00000000E+00  0.00000000E+00
  0.00000000E+00  0.00000000E+00  0.00000000E+00
  0.00000000E+00  0.00000000E+00  0.00000000E+00
  0.00000000E+00  0.00000000E+00  0.00000000E+00
  0.00000000E+00  0.00000000E+00  0.00000000E+00
  0.00000000E+00  0.00000000E+00  0.00000000E+00
  0.00000000E+00  0.00000000E+00  0.00000000E+00
  0.00000000E+00  0.00000000E+00  0.00000000E+00
  0.00000000E+00  0.00000000E+00  0.00000000E+00
  0.00000000E+00  0.00000000E+00  0.00000000E+00
  0.00000000E+00  0.00000000E+00  0.00000000E+00
  0.00000000E+00  0.00000000E+00  0.00000000E+00
  0.00000000E+00  0.00000000E+00  0.00000000E+00
  0.00000000E+00  0.00000000E+00  0.00000000E+00
  0.00000000E+00  0.00000000E+00  0.00000000E+00
  0.00000000E+00  0.00000000E+00  0.00000000E+00
  0.00000000E+00  0.00000000E+00  0.00000000E+00
  0.00000000E+00  0.00000000E+00  0.00000000E+00
  0.00000000E+00  0.00000000E+00  0.00000000E+00
  0.00000000E+00  0.00000000E+00  0.00000000E+00
  0.00000000E+00  0.00000000E+00  0.00000000E+00
  0.00000000E+00  0.00000000E+00  0.00000000E+00
  0.00000000E+00  0.00000000E+00  0.00000000E+00
  0.00000000E+00  0.00000000E+00  0.00000000E+00
  0.00000000E+00  0.00000000E+00  0.00000000E+00
  0.00000000E+00  0.00000000E+00  0.00000000E+00
  0.00000000E+00  0.00000000E+00  0.00000000E+00
  0.00000000E+00  0.00000000E+00  0.00000000E+00
  0.00000000E+00  0.00000000E+00  0.00000000E+00
  0.00000000E+00  0.00000000E+00  0.00000000E+00
  0.00000000E+00  0.00000000E+00  0.00000000E+00
  0.00000000E+00  0.00000000E+00  0.00000000E+00
  0.00000000E+00  0.00000000E+00  0.00000000E+00
  0.00000000E+00  0.00000000E+00  0.00000000E+00
  0.00000000E+00  0.00000000E+00  0.00000000E+00
  0.00000000E+00  0.00000000E+00  0.00000000E+00
  0.00000000E+00  0.00000000E+00  0.00000000E+00
  0.00000000E+00  0.00000000E+00  0.00000000E+00
  0.00000000E+00  0.00000000E+00  0.00000000E+00
  0.00000000E+00  0.00000000E+00  0.00000000E+00
  0.00000000E+00  0.00000000E+00  0.00000000E+00
  0.00000000E+00  0.00000000E+00  0.00000000E+00
  0.00000000E+00  0.00000000E+00  0.00000000E+00
  0.00000000E+00  0.00000000E+00  0.00000000E+00
  0.00000000E+00  0.00000000E+00  0.00000000E+00
  0.00000000E+00  0.00000000E+00  0.00000000E+00
  0.00000000E+00  0.00000000E+00  0.00000000E+00
  0.00000000E+00  0.00000000E+00  0.00000000E+00
  0.00000000E+00  0.00000000E+00  0.00000000E+00
  0.00000000E+00  0.00000000E+00  0.00000000E+00
  0.00000000E+00  0.00000000E+00  0.00000000E+00
  0.00000000E+00  0.00000000E+00  0.00000000E+00
  0.00000000E+00  0.00000000E+00  0.00000000E+00
  0.00000000E+00  0.00000000E+00  0.00000000E+00
  0.00000000E+00  0.00000000E+00  0.00000000E+00
  0.00000000E+00  0.00000000E+00  0.00000000E+00
  0.00000000E+00  0.00000000E+00  0.00000000E+00
  0.00000000E+00  0.00000000E+00  0.00000000E+00
  0.00000000E+00  0.00000000E+00  0.00000000E+00
  0.00000000E+00  0.00000000E+00  0.00000000E+00
  0.00000000E+00  0.00000000E+00  0.00000000E+00
  0.00000000E+00  0.00000000E+00  0.00000000E+00
  0.00000000E+00  0.00000000E+00  0.00000000E+00
  0.00000000E+00  0.00000000E+00  0.00000000E+00
  0.00000000E+00  0.00000000E+00  0.00000000E+00
  0.00000000E+00  0.00000000E+00  0.00000000E+00
  0.00000000E+00  0.00000000E+00  0.00000000E+00
  0.00000000E+00  0.00000000E+00  0.00000000E+00
  0.00000000E+00  0.00000000E+00  0.00000000E+00
  0.00000000E+00  0.00000000E+00  0.00000000E+00
  0.00000000E+00  0.00000000E+00  0.00000000E+00
  0.00000000E+00  0.00000000E+00  0.00000000E+00
  0.00000000E+00  0.00000000E+00  0.00000000E+00
  0.00000000E+00  0.00000000E+00  0.00000000E+00
  0.00000000E+00  0.00000000E+00  0.00000000E+00
  0.00000000E+00  0.00000000E+00  0.00000000E+00
  0.00000000E+00  0.00000000E+00  0.00000000E+00
  0.00000000E+00  0.00000000E+00  0.00000000E+00
  0.00000000E+00  0.00000000E+00  0.00000000E+00
  0.00000000E+00  0.00000000E+00  0.00000000E+00
  0.00000000E+00  0.00000000E+00  0.00000000E+00
  0.00000000E+00  0.00000000E+00  0.00000000E+00
  0.00000000E+00  0.00000000E+00  0.00000000E+00
  0.00000000E+00  0.00000000E+00  0.00000000E+00
  0.00000000E+00  0.00000000E+00  0.00000000E+00
  0.00000000E+00  0.00000000E+00  0.00000000E+00
  0.00000000E+00  0.00000000E+00  0.00000000E+00
  0.00000000E+00  0.00000000E+00  0.00000000E+00
  0.00000000E+00  0.00000000E+00  0.00000000E+00
  0.00000000E+00  0.00000000E+00  0.00000000E+00
  0.00000000E+00  0.00000000E+00  0.00000000E+00
  0.00000000E+00  0.00000000E+00  0.00000000E+00
  0.00000000E+00  0.00000000E+00  0.00000000E+00
  0.00000000E+00  0.00000000E+00  0.00000000E+00
  0.00000000E+00  0.00000000E+00  0.00000000E+00
  0.00000000E+00  0.00000000E+00  0.00000000E+00
  0.00000000E+00  0.00000000E+00  0.00000000E+00
  0.00000000E+00  0.00000000E+00  0.00000000E+00
  0.00000000E+00  0.00000000E+00  0.00000000E+00
  0.00000000E+00  0.00000000E+00  0.00000000E+00
  0.00000000E+00  0.00000000E+00  0.00000000E+00
  0.00000000E+00  0.00000000E+00  0.00000000E+00
  0.00000000E+00  0.00000000E+00  0.00000000E+00
  0.00000000E+00  0.00000000E+00  0.00000000E+00
  0.00000000E+00  0.00000000E+00  0.00000000E+00
  0.00000000E+00  0.00000000E+00  0.00000000E+00
  0.00000000E+00  0.00000000E+00  0.00000000E+00
  0.00000000E+00  0.00000000E+00  0.00000000E+00
  0.00000000E+00  0.00000000E+00  0.00000000E+00
  0.00000000E+00  0.00000000E+00  0.00000000E+00
  0.00000000E+00  0.00000000E+00  0.00000000E+00
  0.00000000E+00  0.00000000E+00  0.00000000E+00
  0.00000000E+00  0.00000000E+00  0.00000000E+00
  0.00000000E+00  0.00000000E+00  0.00000000E+00
  0.00000000E+00  0.00000000E+00  0.00000000E+00
  0.00000000E+00  0.00000000E+00  0.00000000E+00
  0.00000000E+00  0.00000000E+00  0.00000000E+00
  0.00000000E+00  0.00000000E+00  0.00000000E+00
  0.00000000E+00  0.00000000E+00  0.00000000E+00
  0.00000000E+00  0.00000000E+00  0.00000000E+00
  0.00000000E+00  0.00000000E+00  0.00000000E+00
  0.00000000E+00  0.00000000E+00  0.00000000E+00
  0.00000000E+00  0.00000000E+00  0.00000000E+00
  0.00000000E+00  0.00000000E+00  0.00000000E+00
  0.00000000E+00  0.00000000E+00  0.00000000E+00
  0.00000000E+00  0.00000000E+00  0.00000000E+00
  0.00000000E+00  0.00000000E+00  0.00000000E+00
  0.00000000E+00  0.00000000E+00  0.00000000E+00
  0.00000000E+00  0.00000000E+00  0.00000000E+00
  0.00000000E+00  0.00000000E+00  0.00000000E+00
  0.00000000E+00  0.00000000E+00  0.00000000E+00
  0.00000000E+00  0.00000000E+00  0.00000000E+00
  0.00000000E+00  0.00000000E+00  0.00000000E+00
  0.00000000E+00  0.00000000E+00  0.00000000E+00
  0.00000000E+00  0.00000000E+00  0.00000000E+00
  0.00000000E+00  0.00000000E+00  0.00000000E+00
  0.00000000E+00  0.00000000E+00  0.00000000E+00
  0.00000000E+00  0.00000000E+00  0.00000000E+00
  0.00000000E+00  0.00000000E+00  0.00000000E+00
  0.00000000E+00  0.00000000E+00  0.00000000E+00
  0.00000000E+00  0.00000000E+00  0.00000000E+00
  0.00000000E+00  0.00000000E+00  0.00000000E+00
  0.00000000E+00  0.00000000E+00  0.00000000E+00
  0.00000000E+00  0.00000000E+00  0.00000000E+00