Species order: X N B                    
   2.51242800000000     
     5.9449720136058266    0.0000000000000000    0.0000000000000000
    -2.9724860068029120    5.1484967885702053   -0.0000000000000001
     0.0000000000000000    0.0000000000000009    5.3101128803662583
   O    N    B 
     1   143   143
Direct
  0.5665463272121765  0.4499398302727525  0.3750000000000000
  0.1111111329719137  0.0555487693616469  0.1250677813120027
  0.6111262884482626  0.5555518854738855  0.1255969420453062
  0.4444400735094320  0.0555613340502561  0.1250194040913543
  0.9444588999066761  0.5555667875804895  0.1249453262558999
  0.7777847876102902  0.0555590604718130  0.1249794398409641
  0.1111137214591754  0.7222235273962516  0.6250285860103625
  0.4444400735094320  0.7222120727925112  0.6249805959086463
  0.2777914651097695  0.2222381922828674  0.6242310287286853
  0.7777973159809064  0.7222277352068612  0.6250446498754176
  0.6111223566244085  0.2222415717172341  0.6249345145668156
  0.9444510500452287  0.2222302195069418  0.6250189811178013
  0.2777698000573659  0.7222168316187098  0.1250063578510300
  0.1111151295504361  0.2222242314418823  0.1251429739723183
  0.4444487255573210  0.2222442365145019  0.1256064749725578
  0.6111223566244085  0.7222141182405020  0.1250654854331848
  0.9444588999066761  0.7222254456595235  0.1249453262558999
  0.7777878964098675  0.2222335652557167  0.1249464416271779
  0.1111127286129147  0.8888856940819788  0.6249888422725265
  0.4444402833777574  0.8888868083555432  0.6250483534455967
  0.2777914651097695  0.3888866061602309  0.6242310287286853
  0.6111262884482626  0.3889077363077061  0.6244030579546940
  0.7777878964098675  0.8888876644874802  0.6250535583728221
  0.9444558301705237  0.3889025434775920  0.6250470854634685
  0.1111111329719137  0.3888956969435953  0.1250677813120027
  0.2777698000573659  0.8888863017719846  0.1250063578510300
  0.6111063973866903  0.8888796629895152  0.1249800942032726
  0.4444653430760731  0.3888993382047010  0.1250128423137344
  0.9444558301705237  0.8888866200262611  0.1249529145365312
  0.7777973159809064  0.3889029141073746  0.1249553501245822
  0.2777827329042146  0.5555483611321023  0.6247591637652711
  0.1111111329719137  0.0555487693616469  0.6249322186879984
  0.6111262884482626  0.5555518854738855  0.6244030579546940
  0.4444400735094320  0.0555613340502561  0.6249805959086463
  0.9444588999066761  0.5555667875804895  0.6250546737441005
  0.1111127286129147  0.5555603678642659  0.1250111577274736
  0.7777847876102902  0.0555590604718130  0.6250205601590360
  0.2777827329042146  0.0555677051054482  0.1252408362347282
  0.4444487255573210  0.5555378223761549  0.1256064749725578
  0.7778048971362558  0.5555691152347959  0.1249913289052541
  0.6111063973866903  0.0555600677305031  0.1249800942032726
  0.4444487255573210  0.5555378223761549  0.6243935250274418
  0.9444510500452287  0.0555541638716226  0.1249810188821989
  0.2777698000573659  0.7222168316187098  0.6249936421489697
  0.1111151295504361  0.2222242314418823  0.6248570260276812
  0.4444487255573210  0.2222442365145019  0.6243935250274418
  0.6111223566244085  0.7222141182405020  0.6249345145668156
  0.9444588999066761  0.7222254456595235  0.6250546737441005
  0.7777878964098675  0.2222335652557167  0.6250535583728221
  0.1111137214591754  0.7222235273962516  0.1249714139896374
  0.4444400735094320  0.7222120727925112  0.1250194040913543
  0.2777914651097695  0.2222381922828674  0.1257689712713146
  0.7777973159809064  0.7222277352068612  0.1249553501245822
  0.6111223566244085  0.2222415717172341  0.1250654854331848
  0.9444510500452287  0.2222302195069418  0.1249810188821989
  0.1111111329719137  0.3888956969435953  0.6249322186879984
  0.2777698000573659  0.8888863017719846  0.6249936421489697
  0.6111063973866903  0.8888796629895152  0.6250199057967279
  0.4444653430760731  0.3888993382047010  0.6249871576862657
  0.9444558301705237  0.8888866200262611  0.6250470854634685
  0.1111127286129147  0.8888856940819788  0.1250111577274736
  0.7777973159809064  0.3889029141073746  0.6250446498754176
  0.4444402833777574  0.8888868083555432  0.1249516465544027
  0.2777914651097695  0.3888866061602309  0.1257689712713146
  0.2777827329042146  0.5555483611321023  0.1252408362347282
  0.6111262884482626  0.3889077363077061  0.1255969420453062
  0.7777878964098675  0.8888876644874802  0.1249464416271779
  0.9444558301705237  0.3889025434775920  0.1249529145365312
  0.1111127286129147  0.5555603678642659  0.6249888422725265
  0.2777827329042146  0.0555677051054482  0.6247591637652711
  0.7778048971362558  0.5555691152347959  0.6250086710947457
  0.6111063973866903  0.0555600677305031  0.6250199057967279
  0.9444510500452287  0.0555541638716226  0.6250189811178013
  0.0532643974789325  0.1096898320414640  0.3750000000000000
  0.5562647622948066  0.6083359611253035  0.3750000000000000
  0.3895960947531508  0.1137587655827234  0.3750000000000000
  0.8911887805399651  0.6122610569366543  0.3750000000000000
  0.7214816571609295  0.1110199559204974  0.3750000000000000
  0.0555437275233781  0.7777735786315143  0.8750000000000000
  0.3888813851183635  0.7777776094589729  0.8750000000000000
  0.2222092373934275  0.2777712853633817  0.8750000000000000
  0.7222143377247235  0.7777782968880110  0.8750000000000000
  0.5555481853286895  0.2777714742830019  0.8750000000000000
  0.8888797594168453  0.2777706833308159  0.8750000000000000
  0.2233015855682766  0.7783174594508057  0.3750000000000000
  0.0532643974789325  0.2769078987708043  0.3750000000000000
  0.3842166416433386  0.2774048867345523  0.3750000000000000
  0.5555874712382368  0.7764180531050831  0.3750000000000000
  0.8898620934838154  0.7782113973951224  0.3750000000000000
  0.7221612788403025  0.2783954642274157  0.3750000000000000
  0.0555374016070587  0.9444333736536112  0.8750000000000000
  0.3888813851183635  0.9444371089927265  0.8750000000000000
  0.2222103427527665  0.4444381310657839  0.8750000000000000
  0.5555559371331684  0.4444446352332485  0.8750000000000000
  0.7222117816214059  0.9444404164291766  0.8750000000000000
  0.8888793525427583  0.4444385958871717  0.8750000000000000
  0.0551571332095468  0.4443659258491485  0.3750000000000000
  0.2231213038604316  0.9456644258310157  0.3750000000000000
  0.5554923717417845  0.9444128525375564  0.3750000000000000
  0.3842166416433386  0.4401450882421215  0.3750000000000000
  0.8878884001831536  0.9436227115945399  0.3750000000000000
  0.7251473276473119  0.4460012215235122  0.3750000000000000
  0.2222109168211132  0.6111052660050250  0.8750000000000000
  0.0555417284561795  0.1111014325888552  0.8750000000000000
  0.5555481853286895  0.6111100443790238  0.8750000000000000
  0.3888809478138548  0.1111007388213919  0.8750000000000000
  0.8888785720196417  0.6111059526764930  0.8750000000000000
  0.0569140962718471  0.6116335435269932  0.3750000000000000
  0.7222117816214059  0.1111046985255651  0.8750000000000000
  0.2203131460584130  0.1105081528426397  0.3750000000000000
  0.3895960947531508  0.6091706625037701  0.3750000000000000
  0.7251473276473119  0.6124794394571356  0.3750000000000000
  0.5555874712382368  0.1125027514664893  0.3750000000000000
  0.3888809478138548  0.6111135423258061  0.8750000000000000
  0.8874034189089504  0.1103683761211464  0.3750000000000000
  0.2222089164479875  0.7777711248906609  0.8750000000000000
  0.0555417284561795  0.2777736292006602  0.8750000000000000
  0.3888827555245782  0.2777701921408868  0.8750000000000000
  0.5555488236967956  0.7777792962788189  0.8750000000000000
  0.8888793525427583  0.7777740899889226  0.8750000000000000
  0.7222143377247235  0.2777693741700479  0.8750000000000000
  0.0569140962718471  0.7786138860781899  0.3750000000000000
  0.3894778371613971  0.7774183150705953  0.3750000000000000
  0.2177820023939735  0.2755576678636546  0.3750000000000000
  0.7221612788403025  0.7770991479462228  0.3750000000000000
  0.5562647622948066  0.2812621345028390  0.3750000000000000
  0.8878884001831536  0.2775990219219500  0.3750000000000000
  0.0555374016070587  0.4444373612867754  0.8750000000000000
  0.2222109168211132  0.9444389841494240  0.8750000000000000
  0.5555469219818842  0.9444401276576063  0.8750000000000000
  0.3888827555245782  0.4444458967170272  0.8750000000000000
  0.8888797594168453  0.9444424094193660  0.8750000000000000
  0.0551571332095468  0.9441245406937270  0.3750000000000000
  0.7222134287087125  0.4444368399580816  0.8750000000000000
  0.3894778371613971  0.9453928554241372  0.3750000000000000
  0.2203131460584130  0.4431383265491093  0.3750000000000000
  0.2231213038604316  0.6107902113627504  0.3750000000000000
  0.7214816571609295  0.9437950345737670  0.3750000000000000
  0.8898620934838154  0.4449840294220286  0.3750000000000000
  0.0555437275233781  0.6111034822251994  0.8750000000000000
  0.2222103427527665  0.1111055450203182  0.8750000000000000
  0.7222134287087125  0.6111099220839659  0.8750000000000000
  0.5555488236967956  0.1111028607513123  0.8750000000000000
  0.8888737659178680  0.1111035496256056  0.8750000000000000
  0.1087296318137543  0.0542343929909095  0.3750000000000000
  0.6152137604547300  0.5551374806730245  0.3750000000000000
  0.4448968086566633  0.0566247807816492  0.3750000000000000
  0.9459475303672776  0.5561273863515234  0.3750000000000000
  0.7765149870040439  0.0549241601686898  0.3750000000000000
  0.1109044303833546  0.7221188818583424  0.8750000000000000
  0.4445410683111006  0.7224354415142209  0.8750000000000000
  0.2778450026782578  0.2221034949414532  0.8750000000000000
  0.7778766116396515  0.7221380181523570  0.8750000000000000
  0.6109267727666517  0.2221099654661786  0.8750000000000000
  0.9445081781224289  0.2223997970098513  0.8750000000000000
  0.2785409894183016  0.7223942215825810  0.3750000000000000
  0.1063452986810268  0.2198393160071777  0.3750000000000000
  0.4465984032874672  0.2249156440698418  0.3750000000000000
  0.6114708628013157  0.7210415804628868  0.3750000000000000
  0.9459475303672776  0.7231534773490895  0.3750000000000000
  0.7769807506577215  0.2220875276092660  0.3750000000000000
  0.1111828595898609  0.8887754126639034  0.8750000000000000
  0.4442524375765919  0.8887928854549608  0.8750000000000000
  0.2778450026782578  0.3890748410701335  0.8750000000000000
  0.6112209497753711  0.3887896638127055  0.8750000000000000
  0.7778656852689034  0.8890866826391138  0.8750000000000000
  0.9442352980704137  0.3887839352482832  0.8750000000000000
  0.1087296318137543  0.3878285721561736  0.3750000000000000
  0.2785409894183016  0.8894801011690491  0.3750000000000000
  0.6107597003400254  0.8883130665819708  0.3750000000000000
  0.9441465082209413  0.8887670698946002  0.3750000000000000
  0.7792768109513067  0.3894748621651337  0.3750000000000000
  0.2775745533337862  0.5554725400444925  0.8750000000000000
  0.1111716628072623  0.0557197315158541  0.8750000000000000
  0.6112209497753711  0.5557646192959933  0.8750000000000000
  0.4445410683111006  0.0554389601302155  0.8750000000000000
  0.9445313649546465  0.5554513808578968  0.8750000000000000
  0.1116191293984673  0.5555614233392087  0.3750000000000000
  0.7775715274978133  0.0554524304155748  0.8750000000000000
  0.2778246439964469  0.0561849632401247  0.3750000000000000
  0.4465984032874672  0.5550160925509613  0.3750000000000000
  0.7808341723532475  0.5570837528432923  0.3750000000000000
  0.6107597003400254  0.0557799670913836  0.3750000000000000
  0.4445493398607371  0.5554933177505248  0.8750000000000000
  0.9421540944609261  0.0542245913415208  0.3750000000000000
  0.2778668505278201  0.7221313228302838  0.8750000000000000
  0.1108844371594019  0.2221088852463651  0.8750000000000000
  0.4445493398607371  0.2223893554435471  0.8750000000000000
  0.6109267727666517  0.7221501406338020  0.8750000000000000
  0.9445313649546465  0.7224133174300844  0.8750000000000000
  0.7778656852689034  0.2221123359631185  0.8750000000000000
  0.1122061305384985  0.7227697319359138  0.3750000000000000
  0.4448968086566633  0.7216053612083489  0.3750000000000000
  0.2718833402829892  0.2198504006430363  0.3750000000000000
  0.7792768109513067  0.7231352821195014  0.3750000000000000
  0.6114708628013157  0.2237626156717564  0.3750000000000000
  0.9421540944609261  0.2212628364527411  0.3750000000000000
  0.1111716628072623  0.3887852646247366  0.8750000000000000
  0.2778668505278201  0.8890688610308657  0.8750000000000000
  0.6112071031448170  0.8888019603031734  0.8750000000000000
  0.4442716937899993  0.3888025135616643  0.8750000000000000
  0.9442352980704137  0.8887846961554593  0.8750000000000000
  0.1116191293984673  0.8893910393925868  0.3750000000000000
  0.7778766116396515  0.3890719268206224  0.8750000000000000
  0.4446950618530150  0.8890141975931717  0.3750000000000000
  0.2718833402829892  0.3853662729732817  0.3750000000000000
  0.2778246439964469  0.5549730140896573  0.3750000000000000
  0.6152137604547300  0.3934096131150341  0.3750000000000000
  0.7769807506577215  0.8882265563817846  0.3750000000000000
  0.9441465082209413  0.3887127716596685  0.3750000000000000
  0.1111828595898609  0.5557407802592859  0.8750000000000000
  0.2775745533337862  0.0554353466226294  0.8750000000000000
  0.7775916630896409  0.5554624982114884  0.8750000000000000
  0.6112071031448170  0.0557384761749725  0.8750000000000000
  0.9445081781224289  0.0554417144459139  0.8750000000000000
  0.0554739706763751  0.1110345175647080  0.1250221073990011
  0.5556577418276718  0.6111779964413714  0.1253110186933239
  0.3889009664692558  0.1110444714562143  0.1252175616259122
  0.8889470807432603  0.6111402070383021  0.1250937874209218
  0.7222323020467425  0.1111199122931903  0.1250681575733485
  0.0555397592091167  0.7777464909272026  0.6249295991884128
  0.3888752597939102  0.7778004986068392  0.6249561827024608
  0.2221295949128600  0.2777314641230979  0.6246945774673591
  0.7222835487753707  0.7778145938596552  0.6248966182709217
  0.5556577418276718  0.2778130787196348  0.6246889813066766
  0.8888767578541488  0.2777919751243170  0.6249516265632095
  0.2221911582110727  0.7777622457722049  0.1251317660589916
  0.0554739706763751  0.2777727864450030  0.1250221073990011
  0.3889775240778597  0.2778643089637759  0.1251649010034196
  0.5555828335361437  0.7778220855342703  0.1250328701175955
  0.8889196689321709  0.7777727710955462  0.1250365180034976
  0.7222835487753707  0.2778022882490511  0.1251033817290785
  0.0555104095658966  0.9443659565375642  0.6248971184651302
  0.3888752597939102  0.9444080945204064  0.6249561827024608
  0.2221383157147762  0.4444806423131378  0.6248271563188372
  0.5555914876836324  0.4444624105084805  0.6244585662440774
  0.7222323020467425  0.9444457230868885  0.6249318424266522
  0.8889196689321709  0.4444802311699605  0.6249634819965024
  0.0555104095658966  0.4444777863616615  0.1251028815348703
  0.2221716759622729  0.9443432050110763  0.1250815715722260
  0.5555576704134659  0.9444455018733968  0.1251137771503305
  0.3889775240778597  0.4444465484474200  0.1251649010034196
  0.8888767578541488  0.9444181160631679  0.1250483734367904
  0.7223263564746778  0.4444907448526124  0.1251785388317752
  0.2221716759622729  0.6111618042845324  0.6249184284277743
  0.0554739706763751  0.1110345175647080  0.6249778926009990
  0.5556577418276718  0.6111779964413714  0.6246889813066766
  0.3889009664692558  0.1110444714562143  0.6247824383740886
  0.8889470807432603  0.6111402070383021  0.6249062125790781
  0.0555397592091167  0.6111266016152499  0.1250704008115869
  0.7222323020467425  0.1111199122931903  0.6249318424266522
  0.2221383157147762  0.1109910067349742  0.1251728436811625
  0.3889009664692558  0.6111898283463846  0.1252175616259122
  0.7223263564746778  0.6111689449554022  0.1251785388317752
  0.5555828335361437  0.1110940813352097  0.1250328701175955
  0.3889009664692558  0.6111898283463846  0.6247824383740886
  0.8888624338839770  0.1110978836086600  0.1251178453367710
  0.2221911582110727  0.7777622457722049  0.6248682339410085
  0.0554739706763751  0.2777727864450030  0.6249778926009990
  0.3889775240778597  0.2778643089637759  0.6248350989965802
  0.5555828335361437  0.7778220855342703  0.6249671298824042
  0.8889196689321709  0.7777727710955462  0.6249634819965024
  0.7222835487753707  0.2778022882490511  0.6248966182709217
  0.0555397592091167  0.7777464909272026  0.1250704008115869
  0.3888752597939102  0.7778004986068392  0.1250438172975397
  0.2221295949128600  0.2777314641230979  0.1253054225326403
  0.7222835487753707  0.7778145938596552  0.1251033817290785
  0.5556577418276718  0.2778130787196348  0.1253110186933239
  0.8888767578541488  0.2777919751243170  0.1250483734367904
  0.0555104095658966  0.4444777863616615  0.6248971184651302
  0.2221716759622729  0.9443432050110763  0.6249184284277743
  0.5555576704134659  0.9444455018733968  0.6248862228496699
  0.3889775240778597  0.4444465484474200  0.6248350989965802
  0.8888767578541488  0.9444181160631679  0.6249516265632095
  0.0555104095658966  0.9443659565375642  0.1251028815348703
  0.7223263564746778  0.4444907448526124  0.6248214611682245
  0.3888752597939102  0.9444080945204064  0.1250438172975397
  0.2221383157147762  0.4444806423131378  0.1251728436811625
  0.2221716759622729  0.6111618042845324  0.1250815715722260
  0.5555914876836324  0.4444624105084805  0.1255414337559233
  0.7222323020467425  0.9444457230868885  0.1250681575733485
  0.8889196689321709  0.4444802311699605  0.1250365180034976
  0.0555397592091167  0.6111266016152499  0.6249295991884128
  0.2221383157147762  0.1109910067349742  0.6248271563188372
  0.7223263564746778  0.6111689449554022  0.6248214611682245
  0.5555828335361437  0.1110940813352097  0.6249671298824042
  0.8888624338839770  0.1110978836086600  0.6248821546632299
 
  0.00000000E+00  0.00000000E+00  0.00000000E+00
  0.00000000E+00  0.00000000E+00  0.00000000E+00
  0.00000000E+00  0.00000000E+00  0.00000000E+00
  0.00000000E+00  0.00000000E+00  0.00000000E+00
  0.00000000E+00  0.00000000E+00  0.00000000E+00
  0.00000000E+00  0.00000000E+00  0.00000000E+00
  0.00000000E+00  0.00000000E+00  0.00000000E+00
  0.00000000E+00  0.00000000E+00  0.00000000E+00
  0.00000000E+00  0.00000000E+00  0.00000000E+00
  0.00000000E+00  0.00000000E+00  0.00000000E+00
  0.00000000E+00  0.00000000E+00  0.00000000E+00
  0.00000000E+00  0.00000000E+00  0.00000000E+00
  0.00000000E+00  0.00000000E+00  0.00000000E+00
  0.00000000E+00  0.00000000E+00  0.00000000E+00
  0.00000000E+00  0.00000000E+00  0.00000000E+00
  0.00000000E+00  0.00000000E+00  0.00000000E+00
  0.00000000E+00  0.00000000E+00  0.00000000E+00
  0.00000000E+00  0.00000000E+00  0.00000000E+00
  0.00000000E+00  0.00000000E+00  0.00000000E+00
  0.00000000E+00  0.00000000E+00  0.00000000E+00
  0.00000000E+00  0.00000000E+00  0.00000000E+00
  0.00000000E+00  0.00000000E+00  0.00000000E+00
  0.00000000E+00  0.00000000E+00  0.00000000E+00
  0.00000000E+00  0.00000000E+00  0.00000000E+00
  0.00000000E+00  0.00000000E+00  0.00000000E+00
  0.00000000E+00  0.00000000E+00  0.00000000E+00
  0.00000000E+00  0.00000000E+00  0.00000000E+00
  0.00000000E+00  0.00000000E+00  0.00000000E+00
  0.00000000E+00  0.00000000E+00  0.00000000E+00
  0.00000000E+00  0.00000000E+00  0.00000000E+00
  0.00000000E+00  0.00000000E+00  0.00000000E+00
  0.00000000E+00  0.00000000E+00  0.00000000E+00
  0.00000000E+00  0.00000000E+00  0.00000000E+00
  0.00000000E+00  0.00000000E+00  0.00000000E+00
  0.00000000E+00  0.00000000E+00  0.00000000E+00
  0.00000000E+00  0.00000000E+00  0.00000000E+00
  0.00000000E+00  0.00000000E+00  0.00000000E+00
  0.00000000E+00  0.00000000E+00  0.00000000E+00
  0.00000000E+00  0.00000000E+00  0.00000000E+00
  0.00000000E+00  0.00000000E+00  0.00000000E+00
  0.00000000E+00  0.00000000E+00  0.00000000E+00
  0.00000000E+00  0.00000000E+00  0.00000000E+00
  0.00000000E+00  0.00000000E+00  0.00000000E+00
  0.00000000E+00  0.00000000E+00  0.00000000E+00
  0.00000000E+00  0.00000000E+00  0.00000000E+00
  0.00000000E+00  0.00000000E+00  0.00000000E+00
  0.00000000E+00  0.00000000E+00  0.00000000E+00
  0.00000000E+00  0.00000000E+00  0.00000000E+00
  0.00000000E+00  0.00000000E+00  0.00000000E+00
  0.00000000E+00  0.00000000E+00  0.00000000E+00
  0.00000000E+00  0.00000000E+00  0.00000000E+00
  0.00000000E+00  0.00000000E+00  0.00000000E+00
  0.00000000E+00  0.00000000E+00  0.00000000E+00
  0.00000000E+00  0.00000000E+00  0.00000000E+00
  0.00000000E+00  0.00000000E+00  0.00000000E+00
  0.00000000E+00  0.00000000E+00  0.00000000E+00
  0.00000000E+00  0.00000000E+00  0.00000000E+00
  0.00000000E+00  0.00000000E+00  0.00000000E+00
  0.00000000E+00  0.00000000E+00  0.00000000E+00
  0.00000000E+00  0.00000000E+00  0.00000000E+00
  0.00000000E+00  0.00000000E+00  0.00000000E+00
  0.00000000E+00  0.00000000E+00  0.00000000E+00
  0.00000000E+00  0.00000000E+00  0.00000000E+00
  0.00000000E+00  0.00000000E+00  0.00000000E+00
  0.00000000E+00  0.00000000E+00  0.00000000E+00
  0.00000000E+00  0.00000000E+00  0.00000000E+00
  0.00000000E+00  0.00000000E+00  0.00000000E+00
  0.00000000E+00  0.00000000E+00  0.00000000E+00
  0.00000000E+00  0.00000000E+00  0.00000000E+00
  0.00000000E+00  0.00000000E+00  0.00000000E+00
  0.00000000E+00  0.00000000E+00  0.00000000E+00
  0.00000000E+00  0.00000000E+00  0.00000000E+00
  0.00000000E+00  0.00000000E+00  0.00000000E+00
  0.00000000E+00  0.00000000E+00  0.00000000E+00
  0.00000000E+00  0.00000000E+00  0.00000000E+00
  0.00000000E+00  0.00000000E+00  0.00000000E+00
  0.00000000E+00  0.00000000E+00  0.00000000E+00
  0.00000000E+00  0.00000000E+00  0.00000000E+00
  0.00000000E+00  0.00000000E+00  0.00000000E+00
  0.00000000E+00  0.00000000E+00  0.00000000E+00
  0.00000000E+00  0.00000000E+00  0.00000000E+00
  0.00000000E+00  0.00000000E+00  0.00000000E+00
  0.00000000E+00  0.00000000E+00  0.00000000E+00
  0.00000000E+00  0.00000000E+00  0.00000000E+00
  0.00000000E+00  0.00000000E+00  0.00000000E+00
  0.00000000E+00  0.00000000E+00  0.00000000E+00
  0.00000000E+00  0.00000000E+00  0.00000000E+00
  0.00000000E+00  0.00000000E+00  0.00000000E+00
  0.00000000E+00  0.00000000E+00  0.00000000E+00
  0.00000000E+00  0.00000000E+00  0.00000000E+00
  0.00000000E+00  0.00000000E+00  0.00000000E+00
  0.00000000E+00  0.00000000E+00  0.00000000E+00
  0.00000000E+00  0.00000000E+00  0.00000000E+00
  0.00000000E+00  0.00000000E+00  0.00000000E+00
  0.00000000E+00  0.00000000E+00  0.00000000E+00
  0.00000000E+00  0.00000000E+00  0.00000000E+00
  0.00000000E+00  0.00000000E+00  0.00000000E+00
  0.00000000E+00  0.00000000E+00  0.00000000E+00
  0.00000000E+00  0.00000000E+00  0.00000000E+00
  0.00000000E+00  0.00000000E+00  0.00000000E+00
  0.00000000E+00  0.00000000E+00  0.00000000E+00
  0.00000000E+00  0.00000000E+00  0.00000000E+00
  0.00000000E+00  0.00000000E+00  0.00000000E+00
  0.00000000E+00  0.00000000E+00  0.00000000E+00
  0.00000000E+00  0.00000000E+00  0.00000000E+00
  0.00000000E+00  0.00000000E+00  0.00000000E+00
  0.00000000E+00  0.00000000E+00  0.00000000E+00
  0.00000000E+00  0.00000000E+00  0.00000000E+00
  0.00000000E+00  0.00000000E+00  0.00000000E+00
  0.00000000E+00  0.00000000E+00  0.00000000E+00
  0.00000000E+00  0.00000000E+00  0.00000000E+00
  0.00000000E+00  0.00000000E+00  0.00000000E+00
  0.00000000E+00  0.00000000E+00  0.00000000E+00
  0.00000000E+00  0.00000000E+00  0.00000000E+00
  0.00000000E+00  0.00000000E+00  0.00000000E+00
  0.00000000E+00  0.00000000E+00  0.00000000E+00
  0.00000000E+00  0.00000000E+00  0.00000000E+00
  0.00000000E+00  0.00000000E+00  0.00000000E+00
  0.00000000E+00  0.00000000E+00  0.00000000E+00
  0.00000000E+00  0.00000000E+00  0.00000000E+00
  0.00000000E+00  0.00000000E+00  0.00000000E+00
  0.00000000E+00  0.00000000E+00  0.00000000E+00
  0.00000000E+00  0.00000000E+00  0.00000000E+00
  0.00000000E+00  0.00000000E+00  0.00000000E+00
  0.00000000E+00  0.00000000E+00  0.00000000E+00
  0.00000000E+00  0.00000000E+00  0.00000000E+00
  0.00000000E+00  0.00000000E+00  0.00000000E+00
  0.00000000E+00  0.00000000E+00  0.00000000E+00
  0.00000000E+00  0.00000000E+00  0.00000000E+00
  0.00000000E+00  0.00000000E+00  0.00000000E+00
  0.00000000E+00  0.00000000E+00  0.00000000E+00
  0.00000000E+00  0.00000000E+00  0.00000000E+00
  0.00000000E+00  0.00000000E+00  0.00000000E+00
  0.00000000E+00  0.00000000E+00  0.00000000E+00
  0.00000000E+00  0.00000000E+00  0.00000000E+00
  0.00000000E+00  0.00000000E+00  0.00000000E+00
  0.00000000E+00  0.00000000E+00  0.00000000E+00
  0.00000000E+00  0.00000000E+00  0.00000000E+00
  0.00000000E+00  0.00000000E+00  0.00000000E+00
  0.00000000E+00  0.00000000E+00  0.00000000E+00
  0.00000000E+00  0.00000000E+00  0.00000000E+00
  0.00000000E+00  0.00000000E+00  0.00000000E+00
  0.00000000E+00  0.00000000E+00  0.00000000E+00
  0.00000000E+00  0.00000000E+00  0.00000000E+00
  0.00000000E+00  0.00000000E+00  0.00000000E+00
  0.00000000E+00  0.00000000E+00  0.00000000E+00
  0.00000000E+00  0.00000000E+00  0.00000000E+00
  0.00000000E+00  0.00000000E+00  0.00000000E+00
  0.00000000E+00  0.00000000E+00  0.00000000E+00
  0.00000000E+00  0.00000000E+00  0.00000000E+00
  0.00000000E+00  0.00000000E+00  0.00000000E+00
  0.00000000E+00  0.00000000E+00  0.00000000E+00
  0.00000000E+00  0.00000000E+00  0.00000000E+00
  0.00000000E+00  0.00000000E+00  0.00000000E+00
  0.00000000E+00  0.00000000E+00  0.00000000E+00
  0.00000000E+00  0.00000000E+00  0.00000000E+00
  0.00000000E+00  0.00000000E+00  0.00000000E+00
  0.00000000E+00  0.00000000E+00  0.00000000E+00
  0.00000000E+00  0.00000000E+00  0.00000000E+00
  0.00000000E+00  0.00000000E+00  0.00000000E+00
  0.00000000E+00  0.00000000E+00  0.00000000E+00
  0.00000000E+00  0.00000000E+00  0.00000000E+00
  0.00000000E+00  0.00000000E+00  0.00000000E+00
  0.00000000E+00  0.00000000E+00  0.00000000E+00
  0.00000000E+00  0.00000000E+00  0.00000000E+00
  0.00000000E+00  0.00000000E+00  0.00000000E+00
  0.00000000E+00  0.00000000E+00  0.00000000E+00
  0.00000000E+00  0.00000000E+00  0.00000000E+00
  0.00000000E+00  0.00000000E+00  0.00000000E+00
  0.00000000E+00  0.00000000E+00  0.00000000E+00
  0.00000000E+00  0.00000000E+00  0.00000000E+00
  0.00000000E+00  0.00000000E+00  0.00000000E+00
  0.00000000E+00  0.00000000E+00  0.00000000E+00
  0.00000000E+00  0.00000000E+00  0.00000000E+00
  0.00000000E+00  0.00000000E+00  0.00000000E+00
  0.00000000E+00  0.00000000E+00  0.00000000E+00
  0.00000000E+00  0.00000000E+00  0.00000000E+00
  0.00000000E+00  0.00000000E+00  0.00000000E+00
  0.00000000E+00  0.00000000E+00  0.00000000E+00
  0.00000000E+00  0.00000000E+00  0.00000000E+00
  0.00000000E+00  0.00000000E+00  0.00000000E+00
  0.00000000E+00  0.00000000E+00  0.00000000E+00
  0.00000000E+00  0.00000000E+00  0.00000000E+00
  0.00000000E+00  0.00000000E+00  0.00000000E+00
  0.00000000E+00  0.00000000E+00  0.00000000E+00
  0.00000000E+00  0.00000000E+00  0.00000000E+00
  0.00000000E+00  0.00000000E+00  0.00000000E+00
  0.00000000E+00  0.00000000E+00  0.00000000E+00
  0.00000000E+00  0.00000000E+00  0.00000000E+00
  0.00000000E+00  0.00000000E+00  0.00000000E+00
  0.00000000E+00  0.00000000E+00  0.00000000E+00
  0.00000000E+00  0.00000000E+00  0.00000000E+00
  0.00000000E+00  0.00000000E+00  0.00000000E+00
  0.00000000E+00  0.00000000E+00  0.00000000E+00
  0.00000000E+00  0.00000000E+00  0.00000000E+00
  0.00000000E+00  0.00000000E+00  0.00000000E+00
  0.00000000E+00  0.00000000E+00  0.00000000E+00
  0.00000000E+00  0.00000000E+00  0.00000000E+00
  0.00000000E+00  0.00000000E+00  0.00000000E+00
  0.00000000E+00  0.00000000E+00  0.00000000E+00
  0.00000000E+00  0.00000000E+00  0.00000000E+00
  0.00000000E+00  0.00000000E+00  0.00000000E+00
  0.00000000E+00  0.00000000E+00  0.00000000E+00
  0.00000000E+00  0.00000000E+00  0.00000000E+00
  0.00000000E+00  0.00000000E+00  0.00000000E+00
  0.00000000E+00  0.00000000E+00  0.00000000E+00
  0.00000000E+00  0.00000000E+00  0.00000000E+00
  0.00000000E+00  0.00000000E+00  0.00000000E+00
  0.00000000E+00  0.00000000E+00  0.00000000E+00
  0.00000000E+00  0.00000000E+00  0.00000000E+00
  0.00000000E+00  0.00000000E+00  0.00000000E+00
  0.00000000E+00  0.00000000E+00  0.00000000E+00
  0.00000000E+00  0.00000000E+00  0.00000000E+00
  0.00000000E+00  0.00000000E+00  0.00000000E+00
  0.00000000E+00  0.00000000E+00  0.00000000E+00
  0.00000000E+00  0.00000000E+00  0.00000000E+00
  0.00000000E+00  0.00000000E+00  0.00000000E+00
  0.00000000E+00  0.00000000E+00  0.00000000E+00
  0.00000000E+00  0.00000000E+00  0.00000000E+00
  0.00000000E+00  0.00000000E+00  0.00000000E+00
  0.00000000E+00  0.00000000E+00  0.00000000E+00
  0.00000000E+00  0.00000000E+00  0.00000000E+00
  0.00000000E+00  0.00000000E+00  0.00000000E+00
  0.00000000E+00  0.00000000E+00  0.00000000E+00
  0.00000000E+00  0.00000000E+00  0.00000000E+00
  0.00000000E+00  0.00000000E+00  0.00000000E+00
  0.00000000E+00  0.00000000E+00  0.00000000E+00
  0.00000000E+00  0.00000000E+00  0.00000000E+00
  0.00000000E+00  0.00000000E+00  0.00000000E+00
  0.00000000E+00  0.00000000E+00  0.00000000E+00
  0.00000000E+00  0.00000000E+00  0.00000000E+00
  0.00000000E+00  0.00000000E+00  0.00000000E+00
  0.00000000E+00  0.00000000E+00  0.00000000E+00
  0.00000000E+00  0.00000000E+00  0.00000000E+00
  0.00000000E+00  0.00000000E+00  0.00000000E+00
  0.00000000E+00  0.00000000E+00  0.00000000E+00
  0.00000000E+00  0.00000000E+00  0.00000000E+00
  0.00000000E+00  0.00000000E+00  0.00000000E+00
  0.00000000E+00  0.00000000E+00  0.00000000E+00
  0.00000000E+00  0.00000000E+00  0.00000000E+00
  0.00000000E+00  0.00000000E+00  0.00000000E+00
  0.00000000E+00  0.00000000E+00  0.00000000E+00
  0.00000000E+00  0.00000000E+00  0.00000000E+00
  0.00000000E+00  0.00000000E+00  0.00000000E+00
  0.00000000E+00  0.00000000E+00  0.00000000E+00
  0.00000000E+00  0.00000000E+00  0.00000000E+00
  0.00000000E+00  0.00000000E+00  0.00000000E+00
  0.00000000E+00  0.00000000E+00  0.00000000E+00