 B O N 
 1.0
 14.936314146199660   0.000000000000000   0.000000000000000
 -7.468157073099825  12.935227489513863   0.000000000000000
  0.000000000000001   0.000000000000001  13.341276283792837
 B O N 
 143   1 143
Cartesian
  1.218988972150522   0.701534211093105   5.002978606422314 
  5.043172090385611   7.180829600461172   5.002978606422314 
  6.222235739630400   0.732454420954483   5.002978606422314 
  9.975722805461761   7.193634255605718   5.002978606422314 
 11.188089529876677   0.710456506452502   5.002978606422314 
 -3.736393822758192   9.340772011311042  11.673616748318732 
  1.244543694779384   9.344866782473838  11.673616748318732 
  2.491276457246945   2.872959233283788  11.673616748318732 
  6.225569290412365   9.341019543627432  11.673616748318732 
  7.466242088764447   2.873042930993095  11.673616748318732 
 12.446554244996220   2.876791967944129  11.673616748318732 
 -1.234577794933360   9.344333593280972   5.002978606422314 
 -0.053387753713182   2.843671563691974   5.002978606422314 
  4.990828690581781   2.909335021993936   5.002978606422314 
  3.748269118915223   9.326836872686059   5.002978606422314 
  8.728345722586067   9.354154739343489   5.002978606422314 
  9.946644037211371   2.872752692209547   5.002978606422314 
 -4.976852265976170  11.496512149894148  11.673616748318732 
 -0.002150906172337  11.496738164421361  11.673616748318732 
  1.244308217651037   5.032771579688636  11.673616748318732 
  6.225845840832503   5.029082746988969  11.673616748318732 
  4.978607241175050  11.500538497834157  11.673616748318732 
 11.199895543978126   5.029008646704969  11.673616748318732 
 -1.272344756527482   5.016650807773454   5.002978606422314 
 -2.482401388382146  11.505627456017455   5.002978606422314 
  2.488437240796239  11.490531598145470   5.002978606422314 
  7.464616767453892  11.496404234275319   5.002978606422314 
  8.730863808544239   5.037945943553065   5.002978606422314 
 -0.002415451261525   7.185163669653617  11.673616748318732 
  1.244371172813298   0.720747402812208  11.673616748318732 
  4.978850646009465   7.188941781216736  11.673616748318732 
  6.225778184960037   0.717115561066434  11.673616748318732 
  9.959619029184399   7.184889970761505  11.673616748318732 
 -2.481841591831306   7.186313395290786   5.002978606422314 
 11.199925145419011   0.717289802271902  11.673616748318732 
  3.730078029663424   0.726765281000991   5.002978606422314 
  2.525586691424089   7.179259417487762   5.002978606422314 
  7.502395525250281   7.206005073740099   5.002978606422314 
  8.705925196346586   0.721526563684650   5.002978606422314 
  2.491417243627376   7.185432434007851  11.673616748318732 
 13.667351763633533   0.701407424528498   5.002978606422314 
 -1.242683576003293   9.340932938113301  11.673616748318732 
 -0.002539255013594   2.873028958104062  11.673616748318732 
  4.979089955807811   2.876656903908640  11.673616748318732 
  3.731863517752288   9.341176350682661  11.673616748318732 
  8.712721061634376   9.344580602412529  11.673616748318732 
  9.959676425879524   2.873073593910264  11.673616748318732 
 -3.721811870927166   9.349190905126001   5.002978606422314 
  1.256056314442714   9.334129504882815   5.002978606422314 
  2.419057656998706   2.843814945978436   5.002978606422314 
  6.239035383248576   9.353919379909533   5.002978606422314 
  7.462026537123866   2.894420337362825   5.002978606422314 
 12.419883911927993   2.862085124491306   5.002978606422314 
 -1.243014544079570   5.029025842491821  11.673616748318732 
 -2.489399332681842  11.500307971277241  11.673616748318732 
  2.491468654536513  11.496855549647416  11.673616748318732 
  3.732143343017114   5.029248961414924  11.673616748318732 
  7.465811324853907  11.496632233969320  11.673616748318732 
 -4.974933600170540  11.504475421678299   5.002978606422314 
  8.712959176201172   5.032733883208238  11.673616748318732 
  0.002807475258709  11.499600887275308   5.002978606422314 
  1.182959124345291   4.984800407695502   5.002978606422314 
  0.005050519733815   7.178702187790897   5.002978606422314 
  6.250981208406166   5.088842842204602   5.002978606422314 
  4.971813137816035  11.489412569025902   5.002978606422314 
 11.199100811751070   5.028088129497264   5.002978606422314 
 -2.489697320396429   7.188633417853800  11.673616748318732 
  3.731940851604954   0.717068819523761  11.673616748318732 
  7.466072172512903   7.185033776259285  11.673616748318732 
  8.712917605869722   0.720989869242113  11.673616748318732 
 13.693423430207272   0.717151188766566  11.673616748318732 
 -0.000646564749696   1.436256743887921   1.667954476392093 
  3.735105312659411   7.905726420554429   1.671808921791164 
  4.979449452011112   1.436385499738957   1.670562085234148 
  8.713501797479658   7.905237606029037   1.668910779368569 
  9.957627590948480   1.437361344127241   1.668568844490973 
 -4.978773666144902  10.060327789314501   8.337358440692537 
 -0.000373251164388  10.061026390936773   8.337713098698046 
  1.243655212573266   3.592519669428031   8.334222950979264 
  4.979412426447617  10.061208716238470   8.336918433160198 
  6.224726880866336   3.593575372800703   8.334148291053477 
 11.201948388689978   3.593302392994418   8.337652313985497 
 -2.489733677405161  10.060531581818664   1.669417462871944 
 -1.245874146844491   3.593054183062266   1.667954476392093 
  3.734756191088040   3.594238047663009   1.669859525320206 
  2.489462226235583  10.061305622753894   1.668098064794434 
  7.468654204185052  10.060667729270481   1.668146732248104 
  8.713582863230400   3.593435795608979   1.669038779684444 
 -6.223552382250245  12.215588481165753   8.336925106389321 
 -1.244624947018451  12.216133545559762   8.337713098698046 
 -0.001523585323239   5.749458223005682   8.335991722066220 
  4.979173902231238   5.749222390464900   8.331074260043383 
  3.734219542872878  12.216620279627312   8.337388368353654 
  9.957735243641723   5.749452904775144   8.337810480596524 
 -2.490309008392154   5.749421280623641   1.669032106455306 
 -3.734077439377040  12.215294184994898   1.668747804356075 
  1.244716536653256  12.216617418180482   1.669177467871453 
  2.490693861035456   5.749017211096622   1.669859525320206 
  6.223479659124257  12.216263176495184   1.668304898859117 
  7.469366676287148   5.749588901651999   1.670041471356200 
 -1.245826404915793   7.905516971322172   8.337209408488553 
 -0.000646564749695   1.436256743887922   8.338002736452534 
  3.735105312659412   7.905726420554430   8.334148291053477 
  4.979449452011113   1.436385499738958   8.335395127610493 
  8.713501797479658   7.905237606029038   8.337046433476058 
 -3.734430161260731   7.905061616786769   1.668598772152090 
  9.957627590948480   1.437361344127242   8.337388368353654 
  2.489029395425308   1.435693921407054   1.669965490778395 
  1.244285367373744   7.905879468937419   1.670562085234148 
  6.224587697257949   7.905609337524301   1.670041471356200 
  7.468691686628523   1.437027214809498   1.668098064794434 
  1.244285367373745   7.905879468937420   8.335395127610493 
 12.446632099968271   1.437076398081551   1.669231742670723 
 -2.489733677405160  10.060531581818664   8.336539749972697 
 -1.245874146844490   3.593054183062267   8.338002736452534 
  3.734756191088040   3.594238047663010   8.336097687524422 
  2.489462226235583  10.061305622753894   8.337859148050194 
  7.468654204185053  10.060667729270481   8.337810480596524 
  8.713582863230400   3.593435795608980   8.336918433160198 
 -4.978773666144903  10.060327789314501   1.668598772152090 
 -0.000373251164388  10.061026390936773   1.668244114146595 
  1.243655212573266   3.592519669428031   1.671734261865350 
  4.979412426447616  10.061208716238470   1.669038779684444 
  6.224726880866335   3.593575372800702   1.671808921791164 
 11.201948388689978   3.593302392994417   1.668304898859117 
 -2.490309008392154   5.749421280623642   8.336925106389321 
 -3.734077439377040  12.215294184994898   8.337209408488553 
  1.244716536653257  12.216617418180482   8.336779744973187 
  2.490693861035456   5.749017211096623   8.336097687524422 
  6.223479659124258  12.216263176495184   8.337652313985497 
 -6.223552382250246  12.215588481165753   1.669032106455306 
  7.469366676287149   5.749588901652000   8.335915741488414 
 -1.244624947018451  12.216133545559762   1.668244114146595 
 -0.001523585323240   5.749458223005681   1.669965490778395 
 -1.245826404915794   7.905516971322171   1.668747804356075 
  4.979173902231237   5.749222390464899   1.674882952801245 
  3.734219542872878  12.216620279627312   1.668568844490973 
  9.957735243641723   5.749452904775143   1.668146732248104 
 -3.734430161260730   7.905061616786770   8.337358440692537 
  2.489029395425309   1.435693921407055   8.335991722066220 
  6.224587697257950   7.905609337524302   8.335915741488414 
  7.468691686628524   1.437027214809498   8.337859148050194 
 12.446632099968271   1.437076398081552   8.336725470173919 
  5.101892595695898   5.820074061171304   5.002978606422314 
  1.244743852398495   0.718535968455442   1.668563824684415 
  4.979025484288546   7.186190020833055   1.675623504225944 
  6.223355787218664   0.718698495560934   1.667918410817894 
  9.957674792931677   7.186382782972052   1.666930117948597 
 11.202314135445121   0.718669086306559   1.667385236711967 
 -3.734049294815859   9.342125625149666   8.338679051232614 
  1.244703357393470   9.341977457244475   8.338038802026732 
  2.489470862402360   2.874701574037210   8.328038619185611 
  6.223714884487746   9.342180054137128   8.338893363694512 
  7.468180534551151   2.874745287789533   8.337424018113852 
 12.446967393516381   2.874598444366897   8.338550909707282 
 -1.244771745381128   9.342039013743943   1.667744357321267 
  0.000045015504121   2.874520987383123   1.669566990740190 
  4.978670919920775   2.874779757548407   1.675750685642207 
  3.734307024877675   9.342003915579557   1.668533194730790 
  8.713041756805406   9.342150438321475   1.666930117948597 
  9.957609187644898   2.874641722388424   1.666944998424976 
 -4.978723363231651  11.497938665124826   8.338148819045594 
 -0.000046613249399  11.497953078506860   8.338942774047505 
  1.244914331583257   5.030336718307573   8.328038619185611 
  6.223550165574649   5.030610041572048   8.330333708618683 
  4.978931661156215  11.497964152768228   8.339012214419650 
 11.202303695818051   5.030542871133210   8.338925857547613 
 -1.244743362618725   5.030454309658443   1.668563824684415 
 -2.489485527776108  11.497946525733296   1.667744357321267 
  2.489384185830194  11.497860651571793   1.667393966740321 
  3.734312647945356   5.030501410199197   1.667830868329753 
  7.468344078103825  11.497950642424755   1.667031355297014 
  8.713037004821606   5.030547665313766   1.667063849150116 
  0.000127740409505   7.186144432670343   8.335084614623854 
  1.244743852398496   0.718535968455443   8.337393388160226 
  4.979025484288547   7.186190020833056   8.330333708618683 
  6.223355787218665   0.718698495560935   8.338038802026732 
  9.957674792931677   7.186382782972053   8.339027094896043 
 -2.489397470595533   7.186299742482288   1.667808393799035 
 11.202314135445121   0.718669086306559   8.338571976132661 
  3.734061813128051   0.718780906609191   1.670872598220759 
  2.489582069249268   7.186008111464711   1.675750685642207 
  7.468460870543078   7.186412891710029   1.667543852003415 
  8.712745815316469   0.718682115426855   1.667393966740321 
  2.489582069249269   7.186008111464711   8.330206527202423 
 13.691730357325669   0.718605747669176   1.667406303137346 
 -1.244771745381127   9.342039013743943   8.338212855523361 
  0.000045015504122   2.874520987383124   8.336390222104423 
  4.978670919920776   2.874779757548408   8.330206527202423 
  3.734307024877676   9.342003915579557   8.337424018113852 
  8.713041756805406   9.342150438321475   8.339027094896043 
  9.957609187644898   2.874641722388425   8.339012214419650 
 -3.734049294815859   9.342125625149666   1.667278161612000 
  1.244703357393470   9.341977457244475   1.667918410817894 
  2.489470862402359   2.874701574037209   1.677918593659018 
  6.223714884487745   9.342180054137128   1.667063849150116 
  7.468180534551150   2.874745287789532   1.668533194730790 
 12.446967393516381   2.874598444366896   1.667406303137346 
 -1.244743362618724   5.030454309658444   8.337393388160226 
 -2.489485527776108  11.497946525733296   8.338212855523361 
  2.489384185830195  11.497860651571793   8.338563246104320 
  3.734312647945356   5.030501410199198   8.338126344514874 
  7.468344078103826  11.497950642424755   8.338925857547613 
 -4.978723363231652  11.497938665124826   1.667808393799035 
  8.713037004821606   5.030547665313767   8.338893363694512 
 -0.000046613249400  11.497953078506860   1.667014438797122 
  1.244914331583256   5.030336718307572   1.677918593659018 
  0.000127740409504   7.186144432670342   1.670872598220759 
  6.223550165574649   5.030610041572047   1.675623504225944 
  4.978931661156214  11.497964152768228   1.666944998424976 
 11.202303695818051   5.030542871133209   1.667031355297014 
 -2.489397470595532   7.186299742482289   8.338148819045594 
  3.734061813128052   0.718780906609192   8.335084614623854 
  7.468460870543079   7.186412891710030   8.338413360841212 
  8.712745815316469   0.718682115426855   8.338563246104320 
 13.691730357325669   0.718605747669177   8.338550909707282 
 -0.023607121454202   1.418862930742904   5.002978606422314 
  3.765396727197400   7.868964047207870   5.002978606422314 
  4.969561331551914   1.471495511738803   5.002978606422314 
  8.738613846768455   7.919736054445821   5.002978606422314 
  9.947162213013467   1.436068385707431   5.002978606422314 
 -4.978916689387012  10.060678174931933  11.673616748318732 
 -0.000110821642563  10.060730314602088  11.673616748318732 
  1.244547386405111   3.593034766230020  11.673616748318732 
  4.978649739938279  10.060739206653077  11.673616748318732 
  6.223401219048497   3.593037209948282  11.673616748318732 
 11.202152231431569   3.593026978801823  11.673616748318732 
 -2.477294408522353  10.067713397056657   5.002978606422314 
 -1.272417909249002   3.581866664243627   5.002978606422314 
  3.667077192803631   3.588295316614257   5.002978606422314 
  2.500017031127856  10.043144143879704   5.002978606422314 
  7.479454823245869  10.066341460238380   5.002978606422314 
  8.707326669691154   3.601108661830446   5.002978606422314 
 -6.223652702256056  12.216460536898509  11.673616748318732 
 -1.244750141884838  12.216508854359713  11.673616748318732 
 -0.000130286184187   5.748908330350296  11.673616748318732 
  4.978775656588886   5.748992463236085  11.673616748318732 
  3.733952674306964  12.216551636802613  11.673616748318732 
  9.957444004215851   5.748914342920691  11.673616748318732 
 -2.494750263153298   5.747974339447192   5.002978606422314 
 -3.729760583379703  12.232384476864702   5.002978606422314 
  1.243985045548078  12.216195091593997   5.002978606422314 
  2.451707805837181   5.693376844804003   5.002978606422314 
  6.214657443969826  12.205974438747306   5.002978606422314 
  7.500221110885448   5.769127261007696   5.002978606422314 
 -1.244818054368791   7.904785635814882  11.673616748318732 
 -0.000134245175559   1.437122304947730  11.673616748318732 
  3.733976419048908   7.904847445169590  11.673616748318732 
  4.978730233564020   1.437113330907771  11.673616748318732 
  8.712734346616374   7.904794518066532  11.673616748318732 
 -3.717688552972863   7.911619025739134   5.002978606422314 
  9.957434710235544   1.437164550582040  11.673616748318732 
  2.465374116779068   1.429448096465517   5.002978606422314 
  1.269747469463195   7.879761099424139   5.002978606422314 
  6.256935630107400   7.922560882027988   5.002978606422314 
  7.458240786999325   1.455248683415275   5.002978606422314 
  1.244556078432058   7.904892691906960  11.673616748318732 
 12.430287870460013   1.427640052775254   5.002978606422314 
 -2.489534745451230  10.060646435235801  11.673616748318732 
 -1.244868389191095   3.593065084298409  11.673616748318732 
  3.734043577421597   3.593020625148351  11.673616748318732 
  2.489273801471771  10.060752134000529  11.673616748318732 
  7.468042176224637  10.060684789456348  11.673616748318732 
  8.712794912747459   3.593010044509468  11.673616748318732 
 -4.964723979265218  10.071547742915820   5.002978606422314 
  0.011481240373210  10.056082759952711   5.002978606422314 
  1.194952456841940   3.564401120296282   5.002978606422314 
  4.982929226745608  10.051954260591785   5.002978606422314 
  6.208035438913788   3.638189693980469   5.002978606422314 
 11.188626972850223   3.590806499426970   5.002978606422314 
 -2.489603945976963   5.748898373083698  11.673616748318732 
 -3.734206619231547  12.216533109938178  11.673616748318732 
  1.244596130190243  12.216547901476650  11.673616748318732 
  2.489283235377400   5.749008780815728  11.673616748318732 
  6.223343064807696  12.216577416584091  11.673616748318732 
 -6.227026097447404  12.212465712306148   5.002978606422314 
  7.468082521918225   5.748891629578456  11.673616748318732 
 -1.242979011268787  12.228871651872302   5.002978606422314 
 -0.018760267713322   5.732095063235207   5.002978606422314 
 -1.228867349999775   7.900710332345428   5.002978606422314 
  3.727867119067786  12.208203475685279   5.002978606422314 
  9.968049148324562   5.755969649774476   5.002978606422314 
 -3.734198230035961   7.904762562217041  11.673616748318732 
  2.489249823985916   1.437175500184239  11.673616748318732 
  6.223341764744457   7.904845863255193  11.673616748318732 
  7.468118138925502   1.437140778554003  11.673616748318732 
 12.446759044081851   1.437149689299708  11.673616748318732 
Generated by cif2cell 2.0.0.  :  Failed to get author information, No journal information. Species order: B O N 
 1.0
 14.936314146199660   0.000000000000000   0.000000000000000
 -7.468157073099825  12.935227489513863   0.000000000000000
  0.000000000000001   0.000000000000001  13.341276283792837
 B O N 
 143   1 143
Cartesian
  1.218988972150522   0.701534211093105   5.002978606422314 
  5.043172090385611   7.180829600461172   5.002978606422314 
  6.222235739630400   0.732454420954483   5.002978606422314 
  9.975722805461761   7.193634255605718   5.002978606422314 
 11.188089529876677   0.710456506452502   5.002978606422314 
 -3.736393822758192   9.340772011311042  11.673616748318732 
  1.244543694779384   9.344866782473838  11.673616748318732 
  2.491276457246945   2.872959233283788  11.673616748318732 
  6.225569290412365   9.341019543627432  11.673616748318732 
  7.466242088764447   2.873042930993095  11.673616748318732 
 12.446554244996220   2.876791967944129  11.673616748318732 
 -1.234577794933360   9.344333593280972   5.002978606422314 
 -0.053387753713182   2.843671563691974   5.002978606422314 
  4.990828690581781   2.909335021993936   5.002978606422314 
  3.748269118915223   9.326836872686059   5.002978606422314 
  8.728345722586067   9.354154739343489   5.002978606422314 
  9.946644037211371   2.872752692209547   5.002978606422314 
 -4.976852265976170  11.496512149894148  11.673616748318732 
 -0.002150906172337  11.496738164421361  11.673616748318732 
  1.244308217651037   5.032771579688636  11.673616748318732 
  6.225845840832503   5.029082746988969  11.673616748318732 
  4.978607241175050  11.500538497834157  11.673616748318732 
 11.199895543978126   5.029008646704969  11.673616748318732 
 -1.272344756527482   5.016650807773454   5.002978606422314 
 -2.482401388382146  11.505627456017455   5.002978606422314 
  2.488437240796239  11.490531598145470   5.002978606422314 
  7.464616767453892  11.496404234275319   5.002978606422314 
  8.730863808544239   5.037945943553065   5.002978606422314 
 -0.002415451261525   7.185163669653617  11.673616748318732 
  1.244371172813298   0.720747402812208  11.673616748318732 
  4.978850646009465   7.188941781216736  11.673616748318732 
  6.225778184960037   0.717115561066434  11.673616748318732 
  9.959619029184399   7.184889970761505  11.673616748318732 
 -2.481841591831306   7.186313395290786   5.002978606422314 
 11.199925145419011   0.717289802271902  11.673616748318732 
  3.730078029663424   0.726765281000991   5.002978606422314 
  2.525586691424089   7.179259417487762   5.002978606422314 
  7.502395525250281   7.206005073740099   5.002978606422314 
  8.705925196346586   0.721526563684650   5.002978606422314 
  2.491417243627376   7.185432434007851  11.673616748318732 
 13.667351763633533   0.701407424528498   5.002978606422314 
 -1.242683576003293   9.340932938113301  11.673616748318732 
 -0.002539255013594   2.873028958104062  11.673616748318732 
  4.979089955807811   2.876656903908640  11.673616748318732 
  3.731863517752288   9.341176350682661  11.673616748318732 
  8.712721061634376   9.344580602412529  11.673616748318732 
  9.959676425879524   2.873073593910264  11.673616748318732 
 -3.721811870927166   9.349190905126001   5.002978606422314 
  1.256056314442714   9.334129504882815   5.002978606422314 
  2.419057656998706   2.843814945978436   5.002978606422314 
  6.239035383248576   9.353919379909533   5.002978606422314 
  7.462026537123866   2.894420337362825   5.002978606422314 
 12.419883911927993   2.862085124491306   5.002978606422314 
 -1.243014544079570   5.029025842491821  11.673616748318732 
 -2.489399332681842  11.500307971277241  11.673616748318732 
  2.491468654536513  11.496855549647416  11.673616748318732 
  3.732143343017114   5.029248961414924  11.673616748318732 
  7.465811324853907  11.496632233969320  11.673616748318732 
 -4.974933600170540  11.504475421678299   5.002978606422314 
  8.712959176201172   5.032733883208238  11.673616748318732 
  0.002807475258709  11.499600887275308   5.002978606422314 
  1.182959124345291   4.984800407695502   5.002978606422314 
  0.005050519733815   7.178702187790897   5.002978606422314 
  6.250981208406166   5.088842842204602   5.002978606422314 
  4.971813137816035  11.489412569025902   5.002978606422314 
 11.199100811751070   5.028088129497264   5.002978606422314 
 -2.489697320396429   7.188633417853800  11.673616748318732 
  3.731940851604954   0.717068819523761  11.673616748318732 
  7.466072172512903   7.185033776259285  11.673616748318732 
  8.712917605869722   0.720989869242113  11.673616748318732 
 13.693423430207272   0.717151188766566  11.673616748318732 
 -0.000646564749696   1.436256743887921   1.667954476392093 
  3.735105312659411   7.905726420554429   1.671808921791164 
  4.979449452011112   1.436385499738957   1.670562085234148 
  8.713501797479658   7.905237606029037   1.668910779368569 
  9.957627590948480   1.437361344127241   1.668568844490973 
 -4.978773666144902  10.060327789314501   8.337358440692537 
 -0.000373251164388  10.061026390936773   8.337713098698046 
  1.243655212573266   3.592519669428031   8.334222950979264 
  4.979412426447617  10.061208716238470   8.336918433160198 
  6.224726880866336   3.593575372800703   8.334148291053477 
 11.201948388689978   3.593302392994418   8.337652313985497 
 -2.489733677405161  10.060531581818664   1.669417462871944 
 -1.245874146844491   3.593054183062266   1.667954476392093 
  3.734756191088040   3.594238047663009   1.669859525320206 
  2.489462226235583  10.061305622753894   1.668098064794434 
  7.468654204185052  10.060667729270481   1.668146732248104 
  8.713582863230400   3.593435795608979   1.669038779684444 
 -6.223552382250245  12.215588481165753   8.336925106389321 
 -1.244624947018451  12.216133545559762   8.337713098698046 
 -0.001523585323239   5.749458223005682   8.335991722066220 
  4.979173902231238   5.749222390464900   8.331074260043383 
  3.734219542872878  12.216620279627312   8.337388368353654 
  9.957735243641723   5.749452904775144   8.337810480596524 
 -2.490309008392154   5.749421280623641   1.669032106455306 
 -3.734077439377040  12.215294184994898   1.668747804356075 
  1.244716536653256  12.216617418180482   1.669177467871453 
  2.490693861035456   5.749017211096622   1.669859525320206 
  6.223479659124257  12.216263176495184   1.668304898859117 
  7.469366676287148   5.749588901651999   1.670041471356200 
 -1.245826404915793   7.905516971322172   8.337209408488553 
 -0.000646564749695   1.436256743887922   8.338002736452534 
  3.735105312659412   7.905726420554430   8.334148291053477 
  4.979449452011113   1.436385499738958   8.335395127610493 
  8.713501797479658   7.905237606029038   8.337046433476058 
 -3.734430161260731   7.905061616786769   1.668598772152090 
  9.957627590948480   1.437361344127242   8.337388368353654 
  2.489029395425308   1.435693921407054   1.669965490778395 
  1.244285367373744   7.905879468937419   1.670562085234148 
  6.224587697257949   7.905609337524301   1.670041471356200 
  7.468691686628523   1.437027214809498   1.668098064794434 
  1.244285367373745   7.905879468937420   8.335395127610493 
 12.446632099968271   1.437076398081551   1.669231742670723 
 -2.489733677405160  10.060531581818664   8.336539749972697 
 -1.245874146844490   3.593054183062267   8.338002736452534 
  3.734756191088040   3.594238047663010   8.336097687524422 
  2.489462226235583  10.061305622753894   8.337859148050194 
  7.468654204185053  10.060667729270481   8.337810480596524 
  8.713582863230400   3.593435795608980   8.336918433160198 
 -4.978773666144903  10.060327789314501   1.668598772152090 
 -0.000373251164388  10.061026390936773   1.668244114146595 
  1.243655212573266   3.592519669428031   1.671734261865350 
  4.979412426447616  10.061208716238470   1.669038779684444 
  6.224726880866335   3.593575372800702   1.671808921791164 
 11.201948388689978   3.593302392994417   1.668304898859117 
 -2.490309008392154   5.749421280623642   8.336925106389321 
 -3.734077439377040  12.215294184994898   8.337209408488553 
  1.244716536653257  12.216617418180482   8.336779744973187 
  2.490693861035456   5.749017211096623   8.336097687524422 
  6.223479659124258  12.216263176495184   8.337652313985497 
 -6.223552382250246  12.215588481165753   1.669032106455306 
  7.469366676287149   5.749588901652000   8.335915741488414 
 -1.244624947018451  12.216133545559762   1.668244114146595 
 -0.001523585323240   5.749458223005681   1.669965490778395 
 -1.245826404915794   7.905516971322171   1.668747804356075 
  4.979173902231237   5.749222390464899   1.674882952801245 
  3.734219542872878  12.216620279627312   1.668568844490973 
  9.957735243641723   5.749452904775143   1.668146732248104 
 -3.734430161260730   7.905061616786770   8.337358440692537 
  2.489029395425309   1.435693921407055   8.335991722066220 
  6.224587697257950   7.905609337524302   8.335915741488414 
  7.468691686628524   1.437027214809498   8.337859148050194 
 12.446632099968271   1.437076398081552   8.336725470173919 
  5.101892595695898   5.820074061171304   5.002978606422314 
  1.244743852398495   0.718535968455442   1.668563824684415 
  4.979025484288546   7.186190020833055   1.675623504225944 
  6.223355787218664   0.718698495560934   1.667918410817894 
  9.957674792931677   7.186382782972052   1.666930117948597 
 11.202314135445121   0.718669086306559   1.667385236711967 
 -3.734049294815859   9.342125625149666   8.338679051232614 
  1.244703357393470   9.341977457244475   8.338038802026732 
  2.489470862402360   2.874701574037210   8.328038619185611 
  6.223714884487746   9.342180054137128   8.338893363694512 
  7.468180534551151   2.874745287789533   8.337424018113852 
 12.446967393516381   2.874598444366897   8.338550909707282 
 -1.244771745381128   9.342039013743943   1.667744357321267 
  0.000045015504121   2.874520987383123   1.669566990740190 
  4.978670919920775   2.874779757548407   1.675750685642207 
  3.734307024877675   9.342003915579557   1.668533194730790 
  8.713041756805406   9.342150438321475   1.666930117948597 
  9.957609187644898   2.874641722388424   1.666944998424976 
 -4.978723363231651  11.497938665124826   8.338148819045594 
 -0.000046613249399  11.497953078506860   8.338942774047505 
  1.244914331583257   5.030336718307573   8.328038619185611 
  6.223550165574649   5.030610041572048   8.330333708618683 
  4.978931661156215  11.497964152768228   8.339012214419650 
 11.202303695818051   5.030542871133210   8.338925857547613 
 -1.244743362618725   5.030454309658443   1.668563824684415 
 -2.489485527776108  11.497946525733296   1.667744357321267 
  2.489384185830194  11.497860651571793   1.667393966740321 
  3.734312647945356   5.030501410199197   1.667830868329753 
  7.468344078103825  11.497950642424755   1.667031355297014 
  8.713037004821606   5.030547665313766   1.667063849150116 
  0.000127740409505   7.186144432670343   8.335084614623854 
  1.244743852398496   0.718535968455443   8.337393388160226 
  4.979025484288547   7.186190020833056   8.330333708618683 
  6.223355787218665   0.718698495560935   8.338038802026732 
  9.957674792931677   7.186382782972053   8.339027094896043 
 -2.489397470595533   7.186299742482288   1.667808393799035 
 11.202314135445121   0.718669086306559   8.338571976132661 
  3.734061813128051   0.718780906609191   1.670872598220759 
  2.489582069249268   7.186008111464711   1.675750685642207 
  7.468460870543078   7.186412891710029   1.667543852003415 
  8.712745815316469   0.718682115426855   1.667393966740321 
  2.489582069249269   7.186008111464711   8.330206527202423 
 13.691730357325669   0.718605747669176   1.667406303137346 
 -1.244771745381127   9.342039013743943   8.338212855523361 
  0.000045015504122   2.874520987383124   8.336390222104423 
  4.978670919920776   2.874779757548408   8.330206527202423 
  3.734307024877676   9.342003915579557   8.337424018113852 
  8.713041756805406   9.342150438321475   8.339027094896043 
  9.957609187644898   2.874641722388425   8.339012214419650 
 -3.734049294815859   9.342125625149666   1.667278161612000 
  1.244703357393470   9.341977457244475   1.667918410817894 
  2.489470862402359   2.874701574037209   1.677918593659018 