Al B N S                                
   1.0000000000000000     
     8.7639499999999995  -15.1796066749929999    0.0000000000000000
     8.7639499999999995   15.1796066749929999    0.0000000000000000
     0.0000000000000000    0.0000000000000000   15.0000000000000000
   Al   B    N    S 
     1    49    47     1
Selective dynamics
Direct
  0.5263449264327483  0.6232069759477178  0.1113055693131395   T   T   T
  0.9080626863493875  0.9550855927509633  0.1110032963223142   T   T   T
  0.9045907941677519  0.0953882978442889  0.1110642993978260   T   T   T
  0.9038627324586535  0.2375060836063880  0.1109747753262760   T   T   T
  0.9044374037824352  0.3802825837322281  0.1109256479641630   T   T   T
  0.9069494578070412  0.5238421783484597  0.1111366758682473   T   T   T
  0.9110666683805800  0.6683819352762050  0.1111609862528842   T   T   T
  0.9110047796851010  0.8133848465946103  0.1110500639012040   T   T   T
  0.0495904542347337  0.9534129770243419  0.1110780973901174   T   T   T
  0.0469784217619892  0.0944723309629489  0.1109763254966075   T   T   T
  0.0453930386360684  0.2366788675827685  0.1108456247735714   T   T   T
  0.0452190063239022  0.3798754710320221  0.1108184780216467   T   T   T
  0.0463829710283979  0.5235600055285612  0.1108779985578527   T   T   T
  0.0490264694004453  0.6674337928866477  0.1110251614387953   T   T   T
  0.0501870442319786  0.8108493898540292  0.1111046502709079   T   T   T
  0.1909492090335143  0.9523908474982130  0.1109856271043423   T   T   T
  0.1892754894646046  0.0932780228949071  0.1109448411965006   T   T   T
  0.1857672917892564  0.2335242909112401  0.1107991897889162   T   T   T
  0.1856362872598926  0.3784469165373613  0.1110010216702518   T   T   T
  0.1856715066392726  0.5233146220066532  0.1110496317111178   T   T   T
  0.1878255955313840  0.6674483974425696  0.1110401102185835   T   T   T
  0.1906146740769437  0.8103748696267298  0.1109263503487156   T   T   T
  0.3329305628756520  0.9525885006349933  0.1109377069959941   T   T   T
  0.3325105229726729  0.0933470829234737  0.1110314239605900   T   T   T
  0.3290300666089112  0.2322646807189742  0.1110997944374096   T   T   T
  0.3229318405414524  0.3719473673693972  0.1117293545130649   T   T   T
  0.3243068608130120  0.5223248250141552  0.1116934822613880   T   T   T
  0.3261169401856566  0.6680989402820597  0.1114924823604807   T   T   T
  0.3317886102261769  0.8111268426834364  0.1110892895186059   T   T   T
  0.4756647576164642  0.9545553535279531  0.1110092220997116   T   T   T
  0.4759108705991697  0.0937251780190985  0.1109705795913020   T   T   T
  0.4754022559290725  0.2317150774511917  0.1111249999652940   T   T   T
  0.4684607046206983  0.3605738491885182  0.1113193089301804   T   T   T
  0.4499918156283995  0.5067106061274984  0.1100439285912481   T   T   T
  0.4633223399091093  0.6791611232462598  0.1100416652669910   T   T   T
  0.4746038798228711  0.8161108416120472  0.1113998255551208   T   T   T
  0.6193001294923266  0.9538801103872293  0.1110420863220065   T   T   T
  0.6192580300439477  0.0953191554672707  0.1108890870770099   T   T   T
  0.6196417807501332  0.2368365368506403  0.1109831513938847   T   T   T
  0.6209751038945415  0.3791154185451682  0.1109735606360543   T   T   T
  0.6394845898793978  0.5342475246024938  0.1105854835839064   T   T   T
  0.6458448275894993  0.6787163995763230  0.1122756968762709   T   T   T
  0.6201755784585387  0.8119511407502008  0.1111202430823623   T   T   T
  0.7632978864370077  0.9540340392748788  0.1109538933652051   T   T   T
  0.7619998897516019  0.0955575588211620  0.1109919903846813   T   T   T
  0.7620692387499933  0.2376007296698945  0.1109619604405966   T   T   T
  0.7632925198677621  0.3802219422471598  0.1110289229500472   T   T   T
  0.7681339454204827  0.5243723370796833  0.1109577681507641   T   T   T
  0.7779519913119963  0.6734051330199855  0.1106078537100967   T   T   T
  0.7703757178278738  0.8164468855845767  0.1107706641076639   T   T   T
  0.9558959383020161  0.9075897957846628  0.1110835251283579   T   T   T
  0.9531158806881566  0.0488635366349812  0.1110819639031110   T   T   T
  0.9510268026809958  0.1899103502489347  0.1109753534147606   T   T   T
  0.9508716068368145  0.3322606224947072  0.1108525378147642   T   T   T
  0.9522701241253894  0.4752478118076295  0.1109458527526032   T   T   T
  0.9554330696674459  0.6190652317665338  0.1111773296761752   T   T   T
  0.9564404489555844  0.7636533349388326  0.1111753890779175   T   T   T
  0.0966643442073983  0.9055535374896578  0.1110385586347820   T   T   T
  0.0951567094734534  0.0474454058230601  0.1109911290828180   T   T   T
  0.0920947111883625  0.1882529924967496  0.1107631400082462   T   T   T
  0.0915191753407084  0.3313954291611184  0.1107794312681013   T   T   T
  0.0917360074695316  0.4748800181594414  0.1107814337568146   T   T   T
  0.0939615940002331  0.6187587701418850  0.1108794991453424   T   T   T
  0.0963236540809488  0.7625273201416222  0.1109764236055801   T   T   T
  0.2382136420500619  0.9051399620807581  0.1108871538518354   T   T   T
  0.2377499841594501  0.0467598167721207  0.1109898473287303   T   T   T
  0.2347772316194708  0.1869970467164033  0.1108169643179876   T   T   T
  0.2298119856427559  0.3268454247002899  0.1110076180957560   T   T   T
  0.2304389307153102  0.4740020210739322  0.1112260093341158   T   T   T
  0.2323013790982008  0.6187985761746749  0.1112425305660564   T   T   T
  0.2368804724067166  0.7626583061406674  0.1109425025040644   T   T   T
  0.3804832094169078  0.9060604775615089  0.1109408421544996   T   T   T
  0.3808161411853293  0.0470241283735685  0.1109784509027962   T   T   T
  0.3798095010244281  0.1874157403203331  0.1110368899053724   T   T   T
  0.3746674309629447  0.3258026026449092  0.1114835688311079   T   T   T
  0.3601989403945032  0.4640926569977971  0.1122360012441649   T   T   T
  0.3700227798964526  0.6197425400023009  0.1114432799744631   T   T   T
  0.3784056492174288  0.7642753843395794  0.1113587042564755   T   T   T
  0.5240287527679041  0.9096033122923217  0.1111828870744318   T   T   T
  0.5242357190961840  0.0483824990632074  0.1108528916164565   T   T   T
  0.5244286429874846  0.1874331291938804  0.1109959844344427   T   T   T
  0.5245855575944877  0.3250487566176847  0.1112215908811503   T   T   T
  0.5228205705844740  0.7719865763519793  0.1112108398514628   T   T   T
  0.6678918187448709  0.9069887341092867  0.1110192858957947   T   T   T
  0.6671865370122750  0.0485382535435690  0.1108969493062023   T   T   T
  0.6672591920042542  0.1900698558700307  0.1109050393733074   T   T   T
  0.6681393734026303  0.3320458794808502  0.1109668766590345   T   T   T
  0.6731605233443472  0.4754533681173603  0.1107347788866501   T   T   T
  0.6868782898269452  0.6270109256144697  0.1104788611944892   T   T   T
  0.6773374190471515  0.7713279646754921  0.1111029683863416   T   T   T
  0.8144435711613413  0.9098723530409238  0.1107864693929084   T   T   T
  0.8098840606300099  0.0485958914518951  0.1110170986483563   T   T   T
  0.8092664430450347  0.1902281096706607  0.1109607295484714   T   T   T
  0.8097950153608046  0.3324221622343152  0.1109443436570622   T   T   T
  0.8126707268523728  0.4753109927450208  0.1111213180180452   T   T   T
  0.8182083874703552  0.6202140464403525  0.1109249786127594   T   T   T
  0.8181236620727862  0.7676899324953423  0.1107839132156937   T   T   T
  0.5230420921798924  0.4727478057302684  0.1105404163482342   T   T   T

  0.00000000E+00  0.00000000E+00  0.00000000E+00
  0.00000000E+00  0.00000000E+00  0.00000000E+00
  0.00000000E+00  0.00000000E+00  0.00000000E+00
  0.00000000E+00  0.00000000E+00  0.00000000E+00
  0.00000000E+00  0.00000000E+00  0.00000000E+00
  0.00000000E+00  0.00000000E+00  0.00000000E+00
  0.00000000E+00  0.00000000E+00  0.00000000E+00
  0.00000000E+00  0.00000000E+00  0.00000000E+00
  0.00000000E+00  0.00000000E+00  0.00000000E+00
  0.00000000E+00  0.00000000E+00  0.00000000E+00
  0.00000000E+00  0.00000000E+00  0.00000000E+00
  0.00000000E+00  0.00000000E+00  0.00000000E+00
  0.00000000E+00  0.00000000E+00  0.00000000E+00
  0.00000000E+00  0.00000000E+00  0.00000000E+00
  0.00000000E+00  0.00000000E+00  0.00000000E+00
  0.00000000E+00  0.00000000E+00  0.00000000E+00
  0.00000000E+00  0.00000000E+00  0.00000000E+00
  0.00000000E+00  0.00000000E+00  0.00000000E+00
  0.00000000E+00  0.00000000E+00  0.00000000E+00
  0.00000000E+00  0.00000000E+00  0.00000000E+00
  0.00000000E+00  0.00000000E+00  0.00000000E+00
  0.00000000E+00  0.00000000E+00  0.00000000E+00
  0.00000000E+00  0.00000000E+00  0.00000000E+00
  0.00000000E+00  0.00000000E+00  0.00000000E+00
  0.00000000E+00  0.00000000E+00  0.00000000E+00
  0.00000000E+00  0.00000000E+00  0.00000000E+00
  0.00000000E+00  0.00000000E+00  0.00000000E+00
  0.00000000E+00  0.00000000E+00  0.00000000E+00
  0.00000000E+00  0.00000000E+00  0.00000000E+00
  0.00000000E+00  0.00000000E+00  0.00000000E+00
  0.00000000E+00  0.00000000E+00  0.00000000E+00
  0.00000000E+00  0.00000000E+00  0.00000000E+00
  0.00000000E+00  0.00000000E+00  0.00000000E+00
  0.00000000E+00  0.00000000E+00  0.00000000E+00
  0.00000000E+00  0.00000000E+00  0.00000000E+00
  0.00000000E+00  0.00000000E+00  0.00000000E+00
  0.00000000E+00  0.00000000E+00  0.00000000E+00
  0.00000000E+00  0.00000000E+00  0.00000000E+00
  0.00000000E+00  0.00000000E+00  0.00000000E+00
  0.00000000E+00  0.00000000E+00  0.00000000E+00
  0.00000000E+00  0.00000000E+00  0.00000000E+00
  0.00000000E+00  0.00000000E+00  0.00000000E+00
  0.00000000E+00  0.00000000E+00  0.00000000E+00
  0.00000000E+00  0.00000000E+00  0.00000000E+00
  0.00000000E+00  0.00000000E+00  0.00000000E+00
  0.00000000E+00  0.00000000E+00  0.00000000E+00
  0.00000000E+00  0.00000000E+00  0.00000000E+00
  0.00000000E+00  0.00000000E+00  0.00000000E+00
  0.00000000E+00  0.00000000E+00  0.00000000E+00
  0.00000000E+00  0.00000000E+00  0.00000000E+00
  0.00000000E+00  0.00000000E+00  0.00000000E+00
  0.00000000E+00  0.00000000E+00  0.00000000E+00
  0.00000000E+00  0.00000000E+00  0.00000000E+00
  0.00000000E+00  0.00000000E+00  0.00000000E+00
  0.00000000E+00  0.00000000E+00  0.00000000E+00
  0.00000000E+00  0.00000000E+00  0.00000000E+00
  0.00000000E+00  0.00000000E+00  0.00000000E+00
  0.00000000E+00  0.00000000E+00  0.00000000E+00
  0.00000000E+00  0.00000000E+00  0.00000000E+00
  0.00000000E+00  0.00000000E+00  0.00000000E+00
  0.00000000E+00  0.00000000E+00  0.00000000E+00
  0.00000000E+00  0.00000000E+00  0.00000000E+00
  0.00000000E+00  0.00000000E+00  0.00000000E+00
  0.00000000E+00  0.00000000E+00  0.00000000E+00
  0.00000000E+00  0.00000000E+00  0.00000000E+00
  0.00000000E+00  0.00000000E+00  0.00000000E+00
  0.00000000E+00  0.00000000E+00  0.00000000E+00
  0.00000000E+00  0.00000000E+00  0.00000000E+00
  0.00000000E+00  0.00000000E+00  0.00000000E+00
  0.00000000E+00  0.00000000E+00  0.00000000E+00
  0.00000000E+00  0.00000000E+00  0.00000000E+00
  0.00000000E+00  0.00000000E+00  0.00000000E+00
  0.00000000E+00  0.00000000E+00  0.00000000E+00
  0.00000000E+00  0.00000000E+00  0.00000000E+00
  0.00000000E+00  0.00000000E+00  0.00000000E+00
  0.00000000E+00  0.00000000E+00  0.00000000E+00
  0.00000000E+00  0.00000000E+00  0.00000000E+00
  0.00000000E+00  0.00000000E+00  0.00000000E+00
  0.00000000E+00  0.00000000E+00  0.00000000E+00
  0.00000000E+00  0.00000000E+00  0.00000000E+00
  0.00000000E+00  0.00000000E+00  0.00000000E+00
  0.00000000E+00  0.00000000E+00  0.00000000E+00
  0.00000000E+00  0.00000000E+00  0.00000000E+00
  0.00000000E+00  0.00000000E+00  0.00000000E+00
  0.00000000E+00  0.00000000E+00  0.00000000E+00
  0.00000000E+00  0.00000000E+00  0.00000000E+00
  0.00000000E+00  0.00000000E+00  0.00000000E+00
  0.00000000E+00  0.00000000E+00  0.00000000E+00
  0.00000000E+00  0.00000000E+00  0.00000000E+00
  0.00000000E+00  0.00000000E+00  0.00000000E+00
  0.00000000E+00  0.00000000E+00  0.00000000E+00
  0.00000000E+00  0.00000000E+00  0.00000000E+00
  0.00000000E+00  0.00000000E+00  0.00000000E+00
  0.00000000E+00  0.00000000E+00  0.00000000E+00
  0.00000000E+00  0.00000000E+00  0.00000000E+00
  0.00000000E+00  0.00000000E+00  0.00000000E+00
  0.00000000E+00  0.00000000E+00  0.00000000E+00
  0.00000000E+00  0.00000000E+00  0.00000000E+00
