B N S                                   
   1.0000000000000000     
     8.7639499999999995  -15.1796066749929999    0.0000000000000000
     8.7639499999999995   15.1796066749929999    0.0000000000000000
     0.0000000000000000    0.0000000000000000   15.0000000000000000
   B    N    S 
    49    47     2
Selective dynamics
Direct
  0.9056481228375655  0.9538400008979985  0.1108701580851337   T   T   T
  0.9049170704334449  0.0955460386318726  0.1108572545633039   T   T   T
  0.9050826072379238  0.2376999960507205  0.1108895346508201   T   T   T
  0.9062338021351752  0.3804491397166918  0.1108687386106747   T   T   T
  0.9105988380019602  0.5245789520392754  0.1111051772339579   T   T   T
  0.9103466072057266  0.6711067455998262  0.1110821007917707   T   T   T
  0.9079196334575759  0.8129045129419995  0.1110180850521938   T   T   T
  0.0481803758275399  0.9529216190493555  0.1108565591921567   T   T   T
  0.0470872621861754  0.0950419021476611  0.1108650658487599   T   T   T
  0.0469037794917905  0.2376999960507205  0.1108895346508201   T   T   T
  0.0475263584255484  0.3807680377280917  0.1108159719446945   T   T   T
  0.0493893896331764  0.5242650942904630  0.1108036055398123   T   T   T
  0.0496700506966659  0.6677517209180537  0.1108661092312978   T   T   T
  0.0497969165793509  0.8111331791983249  0.1108376146343832   T   T   T
  0.1902239604789837  0.9516278075609699  0.1109060435085844   T   T   T
  0.1884340448739059  0.0931247975526971  0.1108416346625722   T   T   T
  0.1881746830557867  0.2365699265061867  0.1108339576891674   T   T   T
  0.1885017282605173  0.3804491397166918  0.1108687386106747   T   T   T
  0.1891603837792779  0.5242650942904630  0.1108036055398123   T   T   T
  0.1907804088996507  0.6672761386773038  0.1108935580191151   T   T   T
  0.1909839917673205  0.8097108057812572  0.1109247281042518   T   T   T
  0.3327379563615847  0.9511912335991703  0.1109328800422982   T   T   T
  0.3308540030940649  0.0917133247140529  0.1108064306160213   T   T   T
  0.3277231725737443  0.2327229057399360  0.1108654565096342   T   T   T
  0.3290536179980004  0.3786440914327884  0.1112223064347543   T   T   T
  0.3282665047163090  0.5245789520392754  0.1111051772339579   T   T   T
  0.3323663493443889  0.6677517209180537  0.1108661092312978   T   T   T
  0.3330114931369299  0.8097108057812572  0.1109247281042518   T   T   T
  0.4756885262049895  0.9516278075609699  0.1109060435085844   T   T   T
  0.4751457122999879  0.0917133247140529  0.1108064306160213   T   T   T
  0.4713455699267316  0.2284047491734783  0.1110549931897199   T   T   T
  0.4655048000361703  0.3617888435500728  0.1120873075279479   T   T   T
  0.4651111697585426  0.5323786933005427  0.1116179242398197   T   T   T
  0.4750465290731001  0.6711067455998262  0.1110821007917707   T   T   T
  0.4756209417419792  0.8111331791983249  0.1108376146343832   T   T   T
  0.6190259223448102  0.9529216190493555  0.1108565591921567   T   T   T
  0.6189771433577980  0.0931247975526971  0.1108416346625722   T   T   T
  0.6192861238462092  0.2327229057399360  0.1108654565096342   T   T   T
  0.6105704341938876  0.3617888435500728  0.1120873075279479   T   T   T
  0.6280059321719234  0.5417254736648437  0.1116649202687718   T   T   T
  0.6207588315501144  0.6740656399998580  0.1115600311272377   T   T   T
  0.6192712701634239  0.8129045129419995  0.1110180850521938   T   T   T
  0.7624782687394279  0.9538400008979985  0.1108701580851337   T   T   T
  0.7622410306405034  0.0950419021476611  0.1108650658487599   T   T   T
  0.7626816341293928  0.2365699265061867  0.1108339576891674   T   T   T
  0.7638768641147828  0.3786440914327884  0.1112223064347543   T   T   T
  0.7815539142210075  0.5323786933005427  0.1116179242398197   T   T   T
  0.7675931991287573  0.6740656399998580  0.1115600311272377   T   T   T
  0.7637179696879147  0.8131495486968332  0.1112550912126355   T   T   T
  0.9538320047307611  0.9069054184141792  0.1108370736222206   T   T   T
  0.9524877123766784  0.0482782729518076  0.1108058204754321   T   T   T
  0.9522854079931654  0.1902816214562924  0.1108987080876344   T   T   T
  0.9528712320578184  0.3326999054462897  0.1108332209793050   T   T   T
  0.9554612800152512  0.4758297382992801  0.1108471191946287   T   T   T
  0.9553406842351989  0.6204123201242711  0.1109534626291684   T   T   T
  0.9556725059956107  0.7652105286029177  0.1108597889276005   T   T   T
  0.0958503539494713  0.9054158054414541  0.1108487091184553   T   T   T
  0.0942373775631774  0.0471339951142008  0.1108763703614926   T   T   T
  0.0937969692661536  0.1897796229094612  0.1108643261492037   T   T   T
  0.0941161563624793  0.3326999054462897  0.1108332209793050   T   T   T
  0.0951121538624348  0.4759385363068723  0.1107407249984422   T   T   T
  0.0962338326960777  0.6194718942259582  0.1108359677143376   T   T   T
  0.0964284039073236  0.7626807564900941  0.1108265098251090   T   T   T
  0.2379424051408806  0.9043123945049251  0.1109362189027318   T   T   T
  0.2363857480093928  0.0457997384587469  0.1108595014264022   T   T   T
  0.2339939448052820  0.1872647657284495  0.1107315540951289   T   T   T
  0.2349239422953470  0.3318395463750846  0.1108827517240238   T   T   T
  0.2346559412580472  0.4758297382992801  0.1108471191946287   T   T   T
  0.2375238329468848  0.6194718942259582  0.1108359677143376   T   T   T
  0.2382178492532557  0.7621499270895005  0.1109461333511863   T   T   T
  0.3806557607810385  0.9043123945049251  0.1109362189027318   T   T   T
  0.3799084926770870  0.0455295023811989  0.1108223156406146   T   T   T
  0.3768153641662653  0.1855517044281013  0.1107621120593770   T   T   T
  0.3723764284150928  0.3265764613471622  0.1112660853435024   T   T   T
  0.3728143394805660  0.4757265309975113  0.1114650381331089   T   T   T
  0.3793591188620598  0.6204123201242711  0.1109534626291684   T   T   T
  0.3805381239997696  0.7626807564900941  0.1108265098251090   T   T   T
  0.5238512229089798  0.9054158054414541  0.1108487091184553   T   T   T
  0.5237014734223646  0.0457997384587469  0.1108595014264022   T   T   T
  0.5230238232348267  0.1855517044281013  0.1107621120593770   T   T   T
  0.5177526233937202  0.3212177638144338  0.1117788166156170   T   T   T
  0.5233839409015353  0.6256243446358238  0.1114538496202829   T   T   T
  0.5238255055803214  0.7652105286029177  0.1108597889276005   T   T   T
  0.6673608966564090  0.9069054184141792  0.1108370736222206   T   T   T
  0.6671841005239934  0.0471339951142008  0.1108763703614926   T   T   T
  0.6675583038961656  0.1872647657284495  0.1107315540951289   T   T   T
  0.6684875159050698  0.3265764613471622  0.1112660853435024   T   T   T
  0.6739917821076967  0.6336960812434239  0.1117246288451772   T   T   T
  0.6682144737169378  0.7675615959948363  0.1113343944536366   T   T   T
  0.8107832885156783  0.9072790940573479  0.1109520012881457   T   T   T
  0.8100797551051249  0.0482782729518076  0.1108058204754321   T   T   T
  0.8102701366173017  0.1897796229094612  0.1108643261492037   T   T   T
  0.8112030870537359  0.3318395463750846  0.1108827517240238   T   T   T
  0.8171996744909501  0.4757265309975113  0.1114650381331089   T   T   T
  0.8165278867072834  0.6256243446358238  0.1114538496202829   T   T   T
  0.8136346052509095  0.7675615959948363  0.1113343944536366   T   T   T
  0.5184191080163693  0.4748500204069159  0.1115025569201733   T   T   T
  0.6707183953635755  0.4748500204069159  0.1115025569201733   T   T   T

  0.00000000E+00  0.00000000E+00  0.00000000E+00
  0.00000000E+00  0.00000000E+00  0.00000000E+00
  0.00000000E+00  0.00000000E+00  0.00000000E+00
  0.00000000E+00  0.00000000E+00  0.00000000E+00
  0.00000000E+00  0.00000000E+00  0.00000000E+00
  0.00000000E+00  0.00000000E+00  0.00000000E+00
  0.00000000E+00  0.00000000E+00  0.00000000E+00
  0.00000000E+00  0.00000000E+00  0.00000000E+00
  0.00000000E+00  0.00000000E+00  0.00000000E+00
  0.00000000E+00  0.00000000E+00  0.00000000E+00
  0.00000000E+00  0.00000000E+00  0.00000000E+00
  0.00000000E+00  0.00000000E+00  0.00000000E+00
  0.00000000E+00  0.00000000E+00  0.00000000E+00
  0.00000000E+00  0.00000000E+00  0.00000000E+00
  0.00000000E+00  0.00000000E+00  0.00000000E+00
  0.00000000E+00  0.00000000E+00  0.00000000E+00
  0.00000000E+00  0.00000000E+00  0.00000000E+00
  0.00000000E+00  0.00000000E+00  0.00000000E+00
  0.00000000E+00  0.00000000E+00  0.00000000E+00
  0.00000000E+00  0.00000000E+00  0.00000000E+00
  0.00000000E+00  0.00000000E+00  0.00000000E+00
  0.00000000E+00  0.00000000E+00  0.00000000E+00
  0.00000000E+00  0.00000000E+00  0.00000000E+00
  0.00000000E+00  0.00000000E+00  0.00000000E+00
  0.00000000E+00  0.00000000E+00  0.00000000E+00
  0.00000000E+00  0.00000000E+00  0.00000000E+00
  0.00000000E+00  0.00000000E+00  0.00000000E+00
  0.00000000E+00  0.00000000E+00  0.00000000E+00
  0.00000000E+00  0.00000000E+00  0.00000000E+00
  0.00000000E+00  0.00000000E+00  0.00000000E+00
  0.00000000E+00  0.00000000E+00  0.00000000E+00
  0.00000000E+00  0.00000000E+00  0.00000000E+00
  0.00000000E+00  0.00000000E+00  0.00000000E+00
  0.00000000E+00  0.00000000E+00  0.00000000E+00
  0.00000000E+00  0.00000000E+00  0.00000000E+00
  0.00000000E+00  0.00000000E+00  0.00000000E+00
  0.00000000E+00  0.00000000E+00  0.00000000E+00
  0.00000000E+00  0.00000000E+00  0.00000000E+00
  0.00000000E+00  0.00000000E+00  0.00000000E+00
  0.00000000E+00  0.00000000E+00  0.00000000E+00
  0.00000000E+00  0.00000000E+00  0.00000000E+00
  0.00000000E+00  0.00000000E+00  0.00000000E+00
  0.00000000E+00  0.00000000E+00  0.00000000E+00
  0.00000000E+00  0.00000000E+00  0.00000000E+00
  0.00000000E+00  0.00000000E+00  0.00000000E+00
  0.00000000E+00  0.00000000E+00  0.00000000E+00
  0.00000000E+00  0.00000000E+00  0.00000000E+00
  0.00000000E+00  0.00000000E+00  0.00000000E+00
  0.00000000E+00  0.00000000E+00  0.00000000E+00
  0.00000000E+00  0.00000000E+00  0.00000000E+00
  0.00000000E+00  0.00000000E+00  0.00000000E+00
  0.00000000E+00  0.00000000E+00  0.00000000E+00
  0.00000000E+00  0.00000000E+00  0.00000000E+00
  0.00000000E+00  0.00000000E+00  0.00000000E+00
  0.00000000E+00  0.00000000E+00  0.00000000E+00
  0.00000000E+00  0.00000000E+00  0.00000000E+00
  0.00000000E+00  0.00000000E+00  0.00000000E+00
  0.00000000E+00  0.00000000E+00  0.00000000E+00
  0.00000000E+00  0.00000000E+00  0.00000000E+00
  0.00000000E+00  0.00000000E+00  0.00000000E+00
  0.00000000E+00  0.00000000E+00  0.00000000E+00
  0.00000000E+00  0.00000000E+00  0.00000000E+00
  0.00000000E+00  0.00000000E+00  0.00000000E+00
  0.00000000E+00  0.00000000E+00  0.00000000E+00
  0.00000000E+00  0.00000000E+00  0.00000000E+00
  0.00000000E+00  0.00000000E+00  0.00000000E+00
  0.00000000E+00  0.00000000E+00  0.00000000E+00
  0.00000000E+00  0.00000000E+00  0.00000000E+00
  0.00000000E+00  0.00000000E+00  0.00000000E+00
  0.00000000E+00  0.00000000E+00  0.00000000E+00
  0.00000000E+00  0.00000000E+00  0.00000000E+00
  0.00000000E+00  0.00000000E+00  0.00000000E+00
  0.00000000E+00  0.00000000E+00  0.00000000E+00
  0.00000000E+00  0.00000000E+00  0.00000000E+00
  0.00000000E+00  0.00000000E+00  0.00000000E+00
  0.00000000E+00  0.00000000E+00  0.00000000E+00
  0.00000000E+00  0.00000000E+00  0.00000000E+00
  0.00000000E+00  0.00000000E+00  0.00000000E+00
  0.00000000E+00  0.00000000E+00  0.00000000E+00
  0.00000000E+00  0.00000000E+00  0.00000000E+00
  0.00000000E+00  0.00000000E+00  0.00000000E+00
  0.00000000E+00  0.00000000E+00  0.00000000E+00
  0.00000000E+00  0.00000000E+00  0.00000000E+00
  0.00000000E+00  0.00000000E+00  0.00000000E+00
  0.00000000E+00  0.00000000E+00  0.00000000E+00
  0.00000000E+00  0.00000000E+00  0.00000000E+00
  0.00000000E+00  0.00000000E+00  0.00000000E+00
  0.00000000E+00  0.00000000E+00  0.00000000E+00
  0.00000000E+00  0.00000000E+00  0.00000000E+00
  0.00000000E+00  0.00000000E+00  0.00000000E+00
  0.00000000E+00  0.00000000E+00  0.00000000E+00
  0.00000000E+00  0.00000000E+00  0.00000000E+00
  0.00000000E+00  0.00000000E+00  0.00000000E+00
  0.00000000E+00  0.00000000E+00  0.00000000E+00
  0.00000000E+00  0.00000000E+00  0.00000000E+00
  0.00000000E+00  0.00000000E+00  0.00000000E+00
  0.00000000E+00  0.00000000E+00  0.00000000E+00
  0.00000000E+00  0.00000000E+00  0.00000000E+00
