 B Se N 
 1.0
 17.527899999999772   0.000000000000000   0.000000000000000
 -8.763949999999658  15.179606674993195   0.000000000000000
  0.000000000000001   0.000000000000002  15.000000000000000
 B Se N 
  48   1  49
Cartesian
  7.525608746702526  14.471348348504069   1.665263520599760 
 15.021779841994414   1.446929601819464   1.664954907682185 
 13.764692799437750   3.610019851762271   1.665482695536630 
 12.519945213587439   5.780234290355699   1.664954907682185 
 11.287372170096546   7.955782973131167   1.665263520599760 
 10.028975736692534  10.128167949471779   1.665798750685410 
  8.777751106311081  12.295352580974120   1.665798750685410 
 -7.505696980293859  14.453174409330879   1.665251159175060 
 -0.005783209806618   1.426594828114798   1.665263520599760 
 -1.272405682249506   3.594834272052295   1.665020815564650 
 -2.530972539196864   5.774736013007466   1.665020815564650 
 -3.775411742921401   7.955782973131167   1.665263520599760 
 -5.007984786403532  10.127009986828357   1.665251159175060 
 -6.254726834153503  12.291312744951512   1.664853711943800 
 -5.007984786403389  14.450733315587135   1.664853711943800 
  2.504755583206050   1.430205619304106   1.665798750685410 
  1.220055781718062   3.555349367169962   1.665949065584325 
 -0.054692584379365   5.751149084206789   1.665935907733575 
 -1.318936737915942   7.953013411213528   1.665949065584325 
 -2.517015309517307  10.128167949471779   1.665798750685410 
 -3.761242738653340  12.291312744951512   1.664853711943800 
 -2.510272592495550  14.453174409330879   1.665251159175060 
  5.007204843986442   1.430205619304106   1.665798750685410 
  3.755980213604928   3.593387292449890   1.666410650781585 
  2.419901793102460   5.670086568936699   1.665716110308765 
  1.112402406843011   7.934741936803266   1.665716110308765 
 -0.018032712364094  10.130169428650142   1.666410650781585 
 -1.265790679118368  12.295352580974120   1.665798750685410 
 -0.013648319509693  14.471348348504069   1.665263520599760 
  7.517743636999110   1.426594828114798   1.665263520599760 
  6.291904645474336   3.555349367169962   1.665949065584325 
  5.092058634107565   5.670086568936699   1.665716110308765 
  2.448480827345660  10.248897644009977   1.665716110308765 
  1.216987693970963  12.345363371366666   1.665949065584325 
  2.497413356649007  14.484155864675200   1.665020815564650 
 10.018110585180438   1.446929601819464   1.664954907682185 
  8.784366109442029   3.594834272052295   1.665020815564650 
  7.566653011572004   5.751149084206789   1.665935907733575 
  6.399558020349676   7.934741936803266   1.665716110308765 
  5.063479599847219  10.248897644009977   1.665716110308765 
  3.755980213596410  12.351427981321399   1.665935907733575 
  5.014547070543857  14.484155864675200   1.665020815564650 
 12.519945213587269   1.454053790470418   1.665482695536630 
 11.275197627736762   3.610019851762271   1.665482695536630 
 10.042932966389520   5.774736013007466   1.665020815564650 
  8.830897165091100   7.953013411213528   1.665949065584325 
  7.529993139556724  10.130169428650142   1.666410650781585 
  6.294972733221731  12.345363371366666   1.665949065584325 
  3.755980213596274   7.951242049921758   1.663388349546180 
  8.770704559272925  13.738234839237235   1.665169349450850 
 16.273951763120916   0.723981539154469   1.664775168979950 
 15.011562673463096   2.884347009869936   1.664304440222655 
 13.759691620675536   5.052651277822808   1.664304440222655 
 12.519954786406128   7.226095034284670   1.664775168979950 
 11.275040153639353   9.400598350591231   1.665169349450850 
 10.024170577964679  11.570166123451688   1.664792073051315 
 -6.257360133657178  13.732440527954886   1.664783670750705 
  1.251654192039692   0.714857578520232   1.665169349450850 
 -0.026015512932548   2.858787376358502   1.665069149866890 
 -1.290862252420452   5.037428872929270   1.664790727011705 
 -2.545197764445676   7.222139029505151   1.665069149866890 
 -3.763060580826634   9.400598350591231   1.665169349450850 
 -5.007975213584780  11.568442368179037   1.664783670750705 
 -3.758590293512212  13.732440527954886   1.664783670750705 
  3.755989786406237   0.713358521445384   1.664792073051315 
  2.498690135032271   2.872461408089983   1.665925708737555 
  1.179221863267769   4.977913603270551   1.666180685739630 
 -0.107361930013726   7.206342101428872   1.666180685739630 
 -1.271002881620340   9.401761241870117   1.665925708737555 
 -2.512191005151861  11.570166123451688   1.664792073051315 
 -1.258724986460094  13.738234839237235   1.665169349450850 
  6.260325380772660   0.714857578520232   1.665169349450850 
  5.013289437780251   2.872461408089983   1.665925708737555 
  3.755989786406310   5.044705944161748   1.665933883580610 
  2.192353500741032   7.048464425662477   1.663268412734055 
  1.238865895536776   9.404492412093392   1.665933883580610 
 -0.013703230246368  11.579468118388613   1.665925708737555 
  1.236807534884369  13.772764362469836   1.665069149866890 
  8.765957809673475   0.723981539154469   1.664775168979950 
  7.537995085744909   2.858787376358502   1.665069149866890 
  6.332757709544937   4.977913603270551   1.666180685739630 
  5.319626072071754   7.048464425662477   1.663268412734055 
  3.755989786397688   9.756761917008337   1.663268412734055 
  2.469405993116029  11.669435063634081   1.666180685739630 
  3.755989786397528  13.778833022474977   1.664790727011705 
 11.268083733600902   0.737059824900757   1.664304440222655 
 10.028346899331554   2.884347009869936   1.664304440222655 
  8.802841825232880   5.037428872929270   1.664790727011705 
  7.619341502826516   7.206342101428872   1.666180685739630 
  6.273113677258395   9.404492412093392   1.665933883580610 
  5.042573579679103  11.669435063634081   1.666180685739630 
  6.275172037928355  13.772764362469836   1.665069149866890 
 13.771825839193564   0.737059824900757   1.664304440222655 
 12.519954786406029   2.891352704197829   1.665927163007475 
 11.280217952136656   5.052651277822808   1.664304440222655 
 10.057177337275768   7.222139029505151   1.665069149866890 
  8.782982454433053   9.401761241870117   1.665925708737555 
  7.525682803059045  11.579468118388613   1.665925708737555 
