 S B N 
 1.0
 17.527899999999772   0.000000000000000   0.000000000000000
 -8.763949999999658  15.179606674993195   0.000000000000000
  0.000000000000001   0.000000000000002  15.000000000000000
 S B N 
   2  49  47
Cartesian
  4.925236447054967   7.208036539389477   1.672538353802595 
  7.594723125748024   7.208036539389477   1.672538353802595 
  7.514703656414666  14.478916044506766   1.663052371277010 
 15.023935213582405   1.450351285785537   1.662858818449560 
 13.781006551016766   3.608192446697381   1.663343019762300 
 12.550138222424955   5.775068300738917   1.663031079160125 
 11.363501665889920   7.962902161936314   1.666577658509370 
 10.074918333341689  10.187136435140079   1.666231511876565 
  8.789670037083077  12.339570770786475   1.665271275782910 
 -7.506856613799743  14.464975369266913   1.662848387882355 
 -0.007601655453915   1.442698692244685   1.662975987731400 
 -1.261066123834500   3.608192446697381   1.663343019762300 
 -2.503994786399829   5.779909047121405   1.662239579170425 
 -3.728940790555390   7.958137924757449   1.662054083097180 
 -4.981531012933470  10.136208480085886   1.662991638469470 
 -6.235895251723688  12.312682621267346   1.662564219515745 
 -5.005791967194098  14.445335819761640   1.663590652628760 
  2.486712025633367   1.413597798538309   1.662624519938580 
  1.225020019729669   3.591038435495966   1.662509365337505 
 -0.030197795242500   5.775068300738917   1.663031079160125 
 -1.279048782261961   7.958137924757449   1.662054083097180 
 -2.503994786408581  10.128989328729688   1.663403370286725 
 -3.748716707027988  12.291091552251288   1.663870921563780 
 -2.503994786390972  14.438708798736974   1.663993200634470 
  4.995404888704693   1.392172196015258   1.662096459240315 
  3.704727086795820   3.532642173393745   1.662981847644510 
  2.449201025794816   5.747668377759882   1.668334596521310 
  1.156438761292494   7.962902161936314   1.666577658509370 
 -0.026458559866111  10.136208480085886   1.662991638469470 
 -1.259272865771651  12.291091552251288   1.663870921563780 
 -0.002197605605302  14.445335819761640   1.663590652628760 
  7.524535538495156   1.392172196015258   1.662096459240315 
  6.259970213599833   3.467094255153873   1.665824897845800 
  4.988622249123338   5.491812344490757   1.681309612919220 
  3.486681823259548   8.081299166449078   1.674268863597300 
  2.445022093840916  10.187136435140079   1.666231511876565 
  1.227905678924242  12.312682621267346   1.662564219515745 
  2.498867041000183  14.464975369266913   1.662848387882355 
 10.033228401549078   1.413597798538309   1.662624519938580 
  8.815213340404393   3.532642173393745   1.662981847644510 
  7.531318178076370   5.491812344490757   1.681309612919220 
  6.259970213591281   8.223179616056717   1.674973804031580 
  4.973121157850577  10.232051288325405   1.673400466908570 
  3.730270390099576  12.339570770786475   1.665271275782910 
  5.005236770767963  14.478916044506766   1.663052371277010 
 12.527542082636536   1.442698692244685   1.662975987731400 
 11.294920407452597   3.591038435495966   1.662509365337505 
 10.070739401405078   5.747668377759882   1.668334596521310 
  9.033258603923114   8.081299166449078   1.674268863597300 
  7.546819269332240  10.232051288325405   1.673400466908570 
  6.259970213591300  12.343290317166151   1.668826368189540 
  8.770598254009453  13.766467542947369   1.662556104333315 
 16.272001003530978   0.732845194356408   1.662087307131480 
 15.023944786401374   2.888400171186458   1.663480621314510 
 13.786066332050110   5.050253705482109   1.662498314689575 
 12.577081735011287   7.222908271648016   1.662706787919435 
 11.307853426253033   9.417614995806399   1.664301939437520 
 10.044665305690971  11.615594847755926   1.662896833914000 
 -6.254963429107410  13.743855803923434   1.662730636776825 
  1.238703353708503   0.715475506854622   1.663145555422395 
 -0.019155228597107   2.880780030694146   1.662964892238060 
 -1.266106759230026   5.050253705482109   1.662498314689575 
 -2.503985213581095   7.224559782610285   1.661110874976630 
 -3.742243711287810   9.403339700563032   1.662539515715070 
 -4.993908594993937  11.577193902105892   1.662397647376635 
 -3.754717926752335  13.727106459906038   1.664043283540980 
  3.741959134668265   0.695222015621339   1.662892521396030 
  2.460243421546672   2.842605487842601   1.660973311426935 
  1.209498175704746   5.037193793181954   1.663241275860360 
 -0.057122162190943   7.222908271648016   1.662706787919435 
 -1.265726715891722   9.403339700563032   1.662539515715070 
 -2.503985213589671  11.569136120593353   1.664192000267790 
 -1.253252500427242  13.727106459906038   1.664043283540980 
  6.259979786400933   0.691119938254767   1.662334734609225 
  4.978616161547198   2.816601891093167   1.661431680890655 
  3.664877021193475   4.957302232561037   1.668991280152530 
  2.365408929645854   7.221341625401175   1.671975571996635 
  1.212106146549321   9.417614995806399   1.664301939437520 
 -0.014061832185618  11.577193902105892   1.662397647376635 
  1.246993001927870  13.743855803923434   1.662730636776825 
  8.778000438134232   0.695222015621339   1.662892521396030 
  7.541343411255012   2.816601891093167   1.661431680890655 
  6.259979786401265   4.875959311723970   1.676682249234255 
  3.690880902556980   9.496731477872196   1.671807744304245 
  2.475294267111908  11.615594847755926   1.662896833914000 
  3.749361318793084  13.766467542947369   1.662556104333315 
 11.281256219093258   0.715475506854622   1.663145555422395 
 10.059716151255680   2.842605487842601   1.660973311426935 
  8.855082551608975   4.957302232561037   1.668991280152530 
  6.259979786392257   9.619257264759710   1.675869432677655 
  4.985525024644284  11.651283126031643   1.670015916804555 
  6.259979786410184  13.772139792234698   1.664280019322190 
 13.775888569270954   0.732845194356408   1.662087307131480 
 12.539114801416915   2.880780030694146   1.662964892238060 
 11.310461397115182   5.037193793181954   1.663241275860360 
 10.154550643174261   7.221341625401175   1.671975571996635 
  8.829078670245485   9.496731477872196   1.671807744304245 
  7.534434548158542  11.651283126031643   1.670015916804555 
