 N Pb B 
 1.0
 14.936314146199660   0.000000000000000   0.000000000000000
 -7.468157073099825  12.935227489513863   0.000000000000000
  0.000000000000001   0.000000000000001  13.341276283792837
 N Pb B 
 144   1 143
Cartesian
  1.244763354813323   0.718332856873050   1.663500804940130 
  4.978968534703263   7.186210100921834   1.685256182321959 
  6.223393718286434   0.718332856873050   1.663500804940130 
  9.957705977128246   7.186386012220729   1.667935546234576 
 11.202235609649751   0.718623749417456   1.668113114002950 
 -3.734078536549858   9.342108742426664   8.335604392737149 
  1.244405670534996   9.342193125856776   8.342456407904537 
  2.489507990604387   2.874337955104085   8.320701030522734 
  6.223751402564755   9.342193125856776   8.342456407904537 
  7.467961879738625   2.874607692609322   8.340408906260860 
 12.446996936246190   2.874647648213037   8.340088986833608 
 -1.244903072415221   9.342175830003599   1.667935546234576 
  0.000195193361267   2.874607692609321   1.665548306583753 
  4.978649082495551   2.874337955104084   1.685256182321959 
  3.734078536549850   9.341883352547461   1.665548306583753 
  8.713060145515058   9.342175830003599   1.667935546234576 
  9.957474283053392   2.874647648213037   1.665868226011045 
 -4.978724368163051  11.497764385055726   8.338021666610052 
 -0.000121850129788  11.497909640473724   8.340293070790009 
  1.244617992450940   5.030550681740196   8.320701030522734 
  6.223539080648927   5.030550681740196   8.320701030522734 
  4.978869340775168  11.497844359052497   8.340088986833608 
 11.202235609649726   5.030506946332491   8.340293070790009 
 -1.244909511201510   5.030572755036391   1.663500804940130 
 -2.489432704936634  11.497764385055726   1.667935546234576 
  2.489287732324793  11.497844359052497   1.665868226011045 
  3.734078536549917   5.030366245922020   1.808567861728829 
  7.468278923229599  11.497909640473724   1.665664142054672 
  8.713066584301359   5.030572755036391   1.663500804940130 
 -0.000348269070228   7.186438567415857   8.338132219496948 
  1.244763354813323   0.718332856873051   8.342456407904537 
  4.978968534703264   7.186210100921835   8.320701030522734 
  6.223393718286435   0.718332856873051   8.342456407904537 
  9.957705977128246   7.186386012220730   8.338021666610052 
 -2.489548904028453   7.186386012220729   1.667935546234576 
 11.202235609649751   0.718623749417456   8.337844098841623 
  3.734078536549923   0.718221602934567   1.667824993347705 
  2.489188538396441   7.186210100921834   1.685256182321959 
  7.468505342170049   7.186438567415856   1.667824993347705 
  8.712683478828181   0.718606730500515   1.665868226011045 
  2.489188538396441   7.186210100921835   8.320701030522734 
 13.691787740471353   0.718606730500515   1.665868226011045 
 -1.244903072415221   9.342175830003599   8.338021666610052 
  0.000195193361268   2.874607692609322   8.340408906260860 
  4.978649082495552   2.874337955104085   8.320701030522734 
  3.734078536549828   9.341883352547500   8.340408906260860 
  8.713060145515058   9.342175830003599   8.338021666610052 
  9.957474283053392   2.874647648213037   8.340088986833608 
 -3.734078536549859   9.342108742426664   1.670352820107358 
  1.244405670534995   9.342193125856776   1.663500804940130 
  2.489507990604387   2.874337955104084   1.685256182321959 
  6.223751402564754   9.342193125856776   1.663500804940130 
  7.467961879738624   2.874607692609321   1.665548306583753 
 12.446996936246190   2.874647648213037   1.665868226011045 
 -1.244909511201509   5.030572755036392   8.342456407904537 
 -2.489432704936634  11.497764385055726   8.338021666610052 
  2.489287732324793  11.497844359052497   8.340088986833608 
  3.734078536549917   5.030366245922021   8.197389351115731 
  7.468278923229600  11.497909640473724   8.340293070790009 
 -4.978724368163052  11.497764385055726   1.667935546234576 
  8.713066584301359   5.030572755036392   8.342456407904537 
 -0.000121850129789  11.497909640473724   1.665664142054672 
  1.244617992450940   5.030550681740195   1.685256182321959 
 -0.000348269070228   7.186438567415856   1.667824993347705 
  6.223539080648926   5.030550681740195   1.685256182321959 
  4.978869340775167  11.497844359052497   1.665868226011045 
 11.202235609649726   5.030506946332491   1.665664142054672 
 -2.489548904028453   7.186386012220730   8.338021666610052 
  3.734078536549923   0.718221602934568   8.338132219496948 
  7.468505342170050   7.186438567415857   8.338132219496948 
  8.712683478828181   0.718606730500515   8.340088986833608 
 13.691787740471353   0.718606730500515   8.340088986833608 
 -0.016248304294042   1.424172184932109   5.002978606422314 
  3.734078536549898   7.920721848893426   5.002978606422314 
  5.025720880661229   1.310057215840711   5.002978606422314 
  8.751307468951953   7.927064720630496   5.002978606422314 
  9.964195847179990   1.433406339546796   5.002978606422314 
 -4.978831369413776  10.060767125555193  11.673616748318732 
  0.000091967940212  10.060747115219007  11.673616748318732 
  1.244734246185679   3.593142649774605  11.673616748318732 
  4.978731098923431  10.060774674896663  11.673616748318732 
  6.223422826914232   3.593142649774605  11.673616748318732 
 11.202235609649605   3.593095053314303  11.673616748318732 
 -2.496455166427797  10.056650928321986   5.002978606422314 
 -1.264140551665914   3.585584959751490   5.002978606422314 
  3.734078536549938   3.150878203167759   5.002978606422314 
  2.486186289178039  10.081341593082634   5.002978606422314 
  7.492166749097107  10.089631408429346   5.002978606422314 
  8.732297624765762   3.585584959751490   5.002978606422314 
 -6.223522875767352  12.216676074981571  11.673616748318732 
 -1.244634197332406  12.216676074981571  11.673616748318732 
  0.000172977805477   5.748849079786682  11.673616748318732 
  4.978453443648053   5.748806433507941  11.673616748318732 
  3.734078536549913  12.216626420578690  11.673616748318732 
  9.957509444377070   5.748903037079430  11.673616748318732 
 -2.526417724936660   5.755333526397123   5.002978606422314 
 -3.734078536549946  12.172196786019180   5.002978606422314 
  1.250313545682055  12.219848852849887   5.002978606422314 
  2.106394145415684   5.970110267299121   5.002978606422314 
  6.217843527417832  12.219848852849887   5.002978606422314 
  7.601781838584705   5.771925678358591   5.002978606422314 
 -1.244540259752009   7.904773148159575  11.673616748318732 
 -0.000056673166558   1.437261293533839  11.673616748318732 
  3.734078536549964   7.904813438217037  11.673616748318732 
  4.978806929612243   1.437467759785148  11.673616748318732 
  8.712697332851652   7.904773148159575  11.673616748318732 
 -3.734078536549955   7.913024370636058   5.002978606422314 
  9.957562406006877   1.437236158593798  11.673616748318732 
  2.442436192438542   1.310057215840711   5.002978606422314 
  1.158017578626511   8.009115843566802   5.002978606422314 
  6.310139494473369   8.009115843566802   5.002978606422314 
  7.484405377393903   1.424172184932109   5.002978606422314 
  1.244901370867826   7.904781898194378  11.673616748318732 
 12.440275372119263   1.433406339546796   5.002978606422314 
 -2.489325703685985  10.060767125555193  11.673616748318732 
 -1.244709235540173   3.593062769335746  11.673616748318732 
  3.734078536549895   3.593485870750197  11.673616748318732 
  2.489425974176454  10.060774674896663  11.673616748318732 
  7.468065105159511  10.060747115219007  11.673616748318732 
  8.712866308639946   3.593062769335746  11.673616748318732 
 -4.971701906671949  10.056650928321986   5.002978606422314 
 -0.024009675997298  10.089631408429346   5.002978606422314 
  1.230957158406010   3.585188444436415   5.002978606422314 
  4.981970783921756  10.081341593082634   5.002978606422314 
  6.237199914693750   3.585188444436415   5.002978606422314 
 11.202235609649673   3.586628521580253   5.002978606422314 
 -2.489352371277174   5.748903037079430  11.673616748318732 
 -3.734078536549924  12.216779930961065  11.673616748318732 
  1.244713364926000  12.216615586982924  11.673616748318732 
  2.489703629451784   5.748806433507941  11.673616748318732 
  6.223443708173797  12.216615586982924  11.673616748318732 
 -6.236486585489278  12.181361292453470   5.002978606422314 
  7.467984095294523   5.748849079786682  11.673616748318732 
 -1.231670487610603  12.181361292453470   5.002978606422314 
 -0.133624765484839   5.771925678358591   5.002978606422314 
 -1.283150395852295   7.927064720630496   5.002978606422314 
  5.361762927684149   5.970110267299121   5.002978606422314 
  3.734078536549817  12.224286058672703   5.002978606422314 
  9.994574798036421   5.755333526397123   5.002978606422314 
 -3.734078536549866   7.904791976169595  11.673616748318732 
  2.489350143487470   1.437467759785148  11.673616748318732 
  6.223255702232100   7.904781898194378  11.673616748318732 
  7.468213746266585   1.437261293533839  11.673616748318732 
 12.446908813292477   1.437236158593798  11.673616748318732 
  3.734078536549917   5.030366245922021   5.002978606422314 
  1.197742311949975   0.653210458795023   5.002978606422314 
  5.085319695628369   7.340796201404772   5.002978606422314 
  6.270414761149871   0.653210458795023   5.002978606422314 
  9.978224653802236   7.191712391121011   5.002978606422314 
 11.202235609649751   0.718623749417456   5.002978606422314 
 -3.734078536549858   9.342108742426666  11.673616748318732 
  1.244581642450090   9.342843972756627  11.673616748318732 
  2.488657572971515   2.873762669314790  11.673616748318732 
  6.223575430649928   9.342843972756627  11.673616748318732 
  7.469139622902047   2.873927722277031  11.673616748318732 
 12.446524053701710   2.874172000936576  11.673616748318732 
 -1.259775190190190   9.357282335805124   5.002978606422314 
 -0.025585970993704   2.859722930429043   5.002978606422314 
  5.059348992123244   2.704942097779673   5.002978606422314 
  3.734078536550122   9.371652876908042   5.002978606422314 
  8.727932263289908   9.357282335805124   5.002978606422314 
  9.968203761845789   2.863151691954284   5.002978606422314 
 -4.978902201998650  11.497824295311519  11.673616748318732 
  0.000204148462846  11.498097855849085  11.673616748318732 
  1.243694571526500   5.030101841361015  11.673616748318732 
  6.224462501573576   5.030101841361015  11.673616748318732 
  4.978693859422766  11.498491710987258  11.673616748318732 
 11.202235609649598   5.030130515581993  11.673616748318732 
 -1.324817683724073   5.022412536443231   5.002978606422314 
 -2.483786146037648  11.477331500353884   5.002978606422314 
  2.493878783089437  11.512884338385563   5.002978606422314 
  7.460335231823024  11.502495932845678   5.002978606422314 
  8.792974756823966   5.022412536443231   5.002978606422314 
 -0.000464861976704   7.186505882361832  11.673616748318732 
  1.244111718906487   0.718159829571821  11.673616748318732 
  4.979041537995100   7.187234227090339  11.673616748318732 
  6.224045354193301   0.718159829571821  11.673616748318732 
  9.957743010242581   7.186202048473580  11.673616748318732 
 -2.510067580702415   7.191712391121011   5.002978606422314 
 11.202235609649751   0.718623749417457  11.673616748318732 
  3.734078536549908   0.646711899053521   5.002978606422314 
  2.382837377471481   7.340796201404772   5.002978606422314 
  7.530434562348161   7.222193419356342   5.002978606422314 
  8.728004008385284   0.715062707426307   5.002978606422314 
  2.489115535104843   7.187234227090339  11.673616748318732 
 13.676467210914145   0.715062707426307   5.002978606422314 
 -1.244762271694033   9.342299883494986  11.673616748318732 
 -0.000982549801988   2.873927722277031  11.673616748318732 
  4.979499500128334   2.873762669314790  11.673616748318732 
  3.734078536550106   9.343243293212042  11.673616748318732 
  8.712919344793811   9.342299883494986  11.673616748318732 
  9.957947165597886   2.874172000936576  11.673616748318732 
 -3.734078536549858   9.342108742426664   5.002978606422314 
  1.211518540875854   9.415475742527834   5.002978606422314 
  2.408808080976483   2.704942097779673   5.002978606422314 
  6.256638532223998   9.415475742527834   5.002978606422314 
  7.493743044093732   2.859722930429043   5.002978606422314 
 12.436267457453656   2.863151691954284   5.002978606422314 
 -1.245385175193318   5.030094935437630  11.673616748318732 
 -2.489254871101109  11.497824295311519  11.673616748318732 
  2.489463213677240  11.498491710987258  11.673616748318732 
  3.734078536549918   5.030366245922021  11.673616748318732 
  7.467952924636712  11.498097855849085  11.673616748318732 
 -4.984370927062201  11.477331500353884   5.002978606422314 
  8.713542248293333   5.030094935437630  11.673616748318732 
  0.007821841277205  11.502495932845678   5.002978606422314 
  1.057566921898100   5.045360438581709   5.002978606422314 
 -0.062277489248309   7.222193419356342   5.002978606422314 
  6.410590151201750   5.045360438581709   5.002978606422314 
  4.974278290010431  11.512884338385563   5.002978606422314 
 11.202235609649948   5.021334361588221   5.002978606422314 
 -2.489585937142804   7.186202048473580  11.673616748318732 
  3.734078536549894   0.718086973042774  11.673616748318732 
  7.468621935076452   7.186505882361832  11.673616748318732 
  8.713331842725079   0.718435025842272  11.673616748318732 
 13.691139376574428   0.718435025842272  11.673616748318732 
 -0.000820672573995   1.435906550988731   1.662205449913623 
  3.734078536550068   7.908194414957275   1.673416878159473 
  4.979329409507042   1.433146948321024   1.665809401915276 
  8.714769983977160   7.905969793844779   1.665024055385880 
  9.957852522726203   1.437068659627729   1.665268423466557 
 -4.978306755554532  10.060464239602346   8.338863272362964 
 -0.001152756578270  10.061420143666348   8.342766961680740 
  1.241806234438909   3.591452161404486   8.332540334685142 
  4.979522340679294  10.062113689064542   8.343751762930978 
  6.226350838660987   3.591452161404486   8.332540334685142 
 11.202235609649879   3.593228188660819   8.341909253822559 
 -2.489850317545289  10.060464239602346   1.667093940481784 
 -1.246264476703564   3.593078497713020   1.662205449913623 
  3.734078536549879   3.584460959892441   1.711463345236498 
  2.488634732420439  10.062113689064542   1.662205449913623 
  7.469309829678078  10.061420143666348   1.663190251163887 
  8.714421549803232   3.593078497713020   1.662205449913623 
 -6.223483373240987  12.215261597704114   8.342766961680740 
 -1.244673699858741  12.215261597704114   8.342766961680740 
 -0.003830194634779   5.750557004656892   8.340147810929299 
  4.986269245717788   5.753318888936844   8.294493867608063 
  3.734078536549764  12.216961418510877   8.340688789378085 
  9.958714666369259   5.749644485909490   8.342766961680740 
 -2.490557593269336   5.749644485909489   1.663190251163887 
 -3.734078536549895  12.214386639590600   1.665024055385880 
  1.244598066333839  12.216549019309424   1.664047959022055 
  2.481887827382048   5.753318888936843   1.711463345236498 
  6.223559006766433  12.216549019309424   1.664047959022055 
  7.471987267734779   5.750557004656891   1.665809401915276 
 -1.246612910877442   7.905969793844780   8.340933157458574 
 -0.000820672573995   1.435906550988732   8.343751762930978 
  3.734078536550068   7.908194414957276   8.332540334685142 
  4.979329409507043   1.433146948321025   8.340147810929299 
  8.714769983977160   7.905969793844780   8.340933157458574 
 -3.734078536549852   7.905397748075287   1.667093940481784 
  9.957852522726203   1.437068659627729   8.340688789378085 
  2.488827663592713   1.433146948321024   1.665809401915276 
  1.241420678322304   7.907394784788353   1.665809401915276 
  6.226736394777532   7.907394784788353   1.665809401915276 
  7.468977745673946   1.435906550988731   1.662205449913623 
  1.241420678322304   7.907394784788354   8.340147810929299 
 12.446618696572958   1.437068659627729   1.665268423466557 
 -2.489850317545289  10.060464239602346   8.338863272362964 
 -1.246264476703564   3.593078497713021   8.343751762930978 
  3.734078536549879   3.584460959892442   8.294493867608063 
  2.488634732420440  10.062113689064542   8.343751762930978 
  7.469309829678079  10.061420143666348   8.342766961680740 
  8.714421549803232   3.593078497713021   8.343751762930978 
 -4.978306755554533  10.060464239602346   1.667093940481784 
 -0.001152756578270  10.061420143666348   1.663190251163887 
  1.241806234438908   3.591452161404485   1.673416878159473 
  4.979522340679293  10.062113689064542   1.662205449913623 
  6.226350838660986   3.591452161404485   1.673416878159473 
 11.202235609649879   3.593228188660818   1.664047959022055 
 -2.490557593269336   5.749644485909490   8.342766961680740 
 -3.734078536549894  12.214386639590600   8.340933157458574 
  1.244598066333839  12.216549019309424   8.341909253822559 
  2.481887827382048   5.753318888936844   8.294493867608063 
  6.223559006766434  12.216549019309424   8.341909253822559 
 -6.223483373240988  12.215261597704114   1.663190251163887 
  7.471987267734780   5.750557004656892   8.340147810929299 
 -1.244673699858741  12.215261597704114   1.663190251163887 
 -0.003830194634780   5.750557004656891   1.665809401915276 
 -1.246612910877443   7.905969793844779   1.665024055385880 
  4.986269245717787   5.753318888936843   1.711463345236498 
  3.734078536549763  12.216961418510877   1.665268423466557 
  9.958714666369259   5.749644485909489   1.663190251163887 
 -3.734078536549851   7.905397748075288   8.338863272362964 
  2.488827663592714   1.433146948321025   8.340147810929299 
  6.226736394777533   7.907394784788354   8.340147810929299 
  7.468977745673947   1.435906550988732   8.343751762930978 
 12.446618696572958   1.437068659627729   8.340688789378085 
Generated by cif2cell 2.0.0.  :  Failed to get author information, No journal information. Species order: N Pb B 
 1.0
 14.936314146199660   0.000000000000000   0.000000000000000
 -7.468157073099825  12.935227489513863   0.000000000000000
  0.000000000000001   0.000000000000001  13.341276283792837
 N Pb B 
 144   1 143
Cartesian
  1.244763354813323   0.718332856873050   1.663500804940130 
  4.978968534703263   7.186210100921834   1.685256182321959 
  6.223393718286434   0.718332856873050   1.663500804940130 
  9.957705977128246   7.186386012220729   1.667935546234576 
 11.202235609649751   0.718623749417456   1.668113114002950 
 -3.734078536549858   9.342108742426664   8.335604392737149 
  1.244405670534996   9.342193125856776   8.342456407904537 
  2.489507990604387   2.874337955104085   8.320701030522734 
  6.223751402564755   9.342193125856776   8.342456407904537 
  7.467961879738625   2.874607692609322   8.340408906260860 
 12.446996936246190   2.874647648213037   8.340088986833608 
 -1.244903072415221   9.342175830003599   1.667935546234576 
  0.000195193361267   2.874607692609321   1.665548306583753 
  4.978649082495551   2.874337955104084   1.685256182321959 
  3.734078536549850   9.341883352547461   1.665548306583753 
  8.713060145515058   9.342175830003599   1.667935546234576 
  9.957474283053392   2.874647648213037   1.665868226011045 
 -4.978724368163051  11.497764385055726   8.338021666610052 
 -0.000121850129788  11.497909640473724   8.340293070790009 
  1.244617992450940   5.030550681740196   8.320701030522734 
  6.223539080648927   5.030550681740196   8.320701030522734 
  4.978869340775168  11.497844359052497   8.340088986833608 
 11.202235609649726   5.030506946332491   8.340293070790009 
 -1.244909511201510   5.030572755036391   1.663500804940130 
 -2.489432704936634  11.497764385055726   1.667935546234576 
  2.489287732324793  11.497844359052497   1.665868226011045 
  3.734078536549917   5.030366245922020   1.808567861728829 
  7.468278923229599  11.497909640473724   1.665664142054672 
  8.713066584301359   5.030572755036391   1.663500804940130 
 -0.000348269070228   7.186438567415857   8.338132219496948 
  1.244763354813323   0.718332856873051   8.342456407904537 
  4.978968534703264   7.186210100921835   8.320701030522734 
  6.223393718286435   0.718332856873051   8.342456407904537 
  9.957705977128246   7.186386012220730   8.338021666610052 
 -2.489548904028453   7.186386012220729   1.667935546234576 
 11.202235609649751   0.718623749417456   8.337844098841623 
  3.734078536549923   0.718221602934567   1.667824993347705 
  2.489188538396441   7.186210100921834   1.685256182321959 
  7.468505342170049   7.186438567415856   1.667824993347705 
  8.712683478828181   0.718606730500515   1.665868226011045 
  2.489188538396441   7.186210100921835   8.320701030522734 
 13.691787740471353   0.718606730500515   1.665868226011045 
 -1.244903072415221   9.342175830003599   8.338021666610052 
  0.000195193361268   2.874607692609322   8.340408906260860 
  4.978649082495552   2.874337955104085   8.320701030522734 
  3.734078536549828   9.341883352547500   8.340408906260860 
  8.713060145515058   9.342175830003599   8.338021666610052 
  9.957474283053392   2.874647648213037   8.340088986833608 
 -3.734078536549859   9.342108742426664   1.670352820107358 
  1.244405670534995   9.342193125856776   1.663500804940130 
  2.489507990604387   2.874337955104084   1.685256182321959 
  6.223751402564754   9.342193125856776   1.663500804940130 
  7.467961879738624   2.874607692609321   1.665548306583753 
 12.446996936246190   2.874647648213037   1.665868226011045 
 -1.244909511201509   5.030572755036392   8.342456407904537 
 -2.489432704936634  11.497764385055726   8.338021666610052 
  2.489287732324793  11.497844359052497   8.340088986833608 
  3.734078536549917   5.030366245922021   8.197389351115731 
  7.468278923229600  11.497909640473724   8.340293070790009 
 -4.978724368163052  11.497764385055726   1.667935546234576 
  8.713066584301359   5.030572755036392   8.342456407904537 
 -0.000121850129789  11.497909640473724   1.665664142054672 
  1.244617992450940   5.030550681740195   1.685256182321959 
 -0.000348269070228   7.186438567415856   1.667824993347705 
  6.223539080648926   5.030550681740195   1.685256182321959 
  4.978869340775167  11.497844359052497   1.665868226011045 
 11.202235609649726   5.030506946332491   1.665664142054672 
 -2.489548904028453   7.186386012220730   8.338021666610052 
  3.734078536549923   0.718221602934568   8.338132219496948 
  7.468505342170050   7.186438567415857   8.338132219496948 
  8.712683478828181   0.718606730500515   8.340088986833608 
 13.691787740471353   0.718606730500515   8.340088986833608 
 -0.016248304294042   1.424172184932109   5.002978606422314 
  3.734078536549898   7.920721848893426   5.002978606422314 
  5.025720880661229   1.310057215840711   5.002978606422314 
  8.751307468951953   7.927064720630496   5.002978606422314 
  9.964195847179990   1.433406339546796   5.002978606422314 
 -4.978831369413776  10.060767125555193  11.673616748318732 
  0.000091967940212  10.060747115219007  11.673616748318732 
  1.244734246185679   3.593142649774605  11.673616748318732 
  4.978731098923431  10.060774674896663  11.673616748318732 
  6.223422826914232   3.593142649774605  11.673616748318732 
 11.202235609649605   3.593095053314303  11.673616748318732 
 -2.496455166427797  10.056650928321986   5.002978606422314 
 -1.264140551665914   3.585584959751490   5.002978606422314 
  3.734078536549938   3.150878203167759   5.002978606422314 
  2.486186289178039  10.081341593082634   5.002978606422314 
  7.492166749097107  10.089631408429346   5.002978606422314 
  8.732297624765762   3.585584959751490   5.002978606422314 
 -6.223522875767352  12.216676074981571  11.673616748318732 
 -1.244634197332406  12.216676074981571  11.673616748318732 
  0.000172977805477   5.748849079786682  11.673616748318732 
  4.978453443648053   5.748806433507941  11.673616748318732 
  3.734078536549913  12.216626420578690  11.673616748318732 
  9.957509444377070   5.748903037079430  11.673616748318732 
 -2.526417724936660   5.755333526397123   5.002978606422314 
 -3.734078536549946  12.172196786019180   5.002978606422314 
  1.250313545682055  12.219848852849887   5.002978606422314 
  2.106394145415684   5.970110267299121   5.002978606422314 
  6.217843527417832  12.219848852849887   5.002978606422314 
  7.601781838584705   5.771925678358591   5.002978606422314 
 -1.244540259752009   7.904773148159575  11.673616748318732 
 -0.000056673166558   1.437261293533839  11.673616748318732 
  3.734078536549964   7.904813438217037  11.673616748318732 
  4.978806929612243   1.437467759785148  11.673616748318732 
  8.712697332851652   7.904773148159575  11.673616748318732 
 -3.734078536549955   7.913024370636058   5.002978606422314 
  9.957562406006877   1.437236158593798  11.673616748318732 
  2.442436192438542   1.310057215840711   5.002978606422314 
  1.158017578626511   8.009115843566802   5.002978606422314 
  6.310139494473369   8.009115843566802   5.002978606422314 
  7.484405377393903   1.424172184932109   5.002978606422314 
  1.244901370867826   7.904781898194378  11.673616748318732 
 12.440275372119263   1.433406339546796   5.002978606422314 
 -2.489325703685985  10.060767125555193  11.673616748318732 
 -1.244709235540173   3.593062769335746  11.673616748318732 
  3.734078536549895   3.593485870750197  11.673616748318732 
  2.489425974176454  10.060774674896663  11.673616748318732 
  7.468065105159511  10.060747115219007  11.673616748318732 
  8.712866308639946   3.593062769335746  11.673616748318732 
 -4.971701906671949  10.056650928321986   5.002978606422314 
 -0.024009675997298  10.089631408429346   5.002978606422314 
  1.230957158406010   3.585188444436415   5.002978606422314 
  4.981970783921756  10.081341593082634   5.002978606422314 
  6.237199914693750   3.585188444436415   5.002978606422314 
 11.202235609649673   3.586628521580253   5.002978606422314 
 -2.489352371277174   5.748903037079430  11.673616748318732 
 -3.734078536549924  12.216779930961065  11.673616748318732 
  1.244713364926000  12.216615586982924  11.673616748318732 
  2.489703629451784   5.748806433507941  11.673616748318732 
  6.223443708173797  12.216615586982924  11.673616748318732 
 -6.236486585489278  12.181361292453470   5.002978606422314 
  7.467984095294523   5.748849079786682  11.673616748318732 
 -1.231670487610603  12.181361292453470   5.002978606422314 
 -0.133624765484839   5.771925678358591   5.002978606422314 
 -1.283150395852295   7.927064720630496   5.002978606422314 
  5.361762927684149   5.970110267299121   5.002978606422314 
  3.734078536549817  12.224286058672703   5.002978606422314 
  9.994574798036421   5.755333526397123   5.002978606422314 
 -3.734078536549866   7.904791976169595  11.673616748318732 
  2.489350143487470   1.437467759785148  11.673616748318732 
  6.223255702232100   7.904781898194378  11.673616748318732 
  7.468213746266585   1.437261293533839  11.673616748318732 
 12.446908813292477   1.437236158593798  11.673616748318732 
  3.734078536549917   5.030366245922021   5.002978606422314 
  1.197742311949975   0.653210458795023   5.002978606422314 
  5.085319695628369   7.340796201404772   5.002978606422314 
  6.270414761149871   0.653210458795023   5.002978606422314 
  9.978224653802236   7.191712391121011   5.002978606422314 
 11.202235609649751   0.718623749417456   5.002978606422314 
 -3.734078536549858   9.342108742426666  11.673616748318732 
  1.244581642450090   9.342843972756627  11.673616748318732 
  2.488657572971515   2.873762669314790  11.673616748318732 
  6.223575430649928   9.342843972756627  11.673616748318732 
  7.469139622902047   2.873927722277031  11.673616748318732 
 12.446524053701710   2.874172000936576  11.673616748318732 
 -1.259775190190190   9.357282335805124   5.002978606422314 
 -0.025585970993704   2.859722930429043   5.002978606422314 
  5.059348992123244   2.704942097779673   5.002978606422314 
  3.734078536550122   9.371652876908042   5.002978606422314 
  8.727932263289908   9.357282335805124   5.002978606422314 
  9.968203761845789   2.863151691954284   5.002978606422314 
 -4.978902201998650  11.497824295311519  11.673616748318732 
  0.000204148462846  11.498097855849085  11.673616748318732 
  1.243694571526500   5.030101841361015  11.673616748318732 
  6.224462501573576   5.030101841361015  11.673616748318732 
  4.978693859422766  11.498491710987258  11.673616748318732 
 11.202235609649598   5.030130515581993  11.673616748318732 
 -1.324817683724073   5.022412536443231   5.002978606422314 
 -2.483786146037648  11.477331500353884   5.002978606422314 
  2.493878783089437  11.512884338385563   5.002978606422314 
  7.460335231823024  11.502495932845678   5.002978606422314 
  8.792974756823966   5.022412536443231   5.002978606422314 
 -0.000464861976704   7.186505882361832  11.673616748318732 
  1.244111718906487   0.718159829571821  11.673616748318732 
  4.979041537995100   7.187234227090339  11.673616748318732 
  6.224045354193301   0.718159829571821  11.673616748318732 
  9.957743010242581   7.186202048473580  11.673616748318732 
 -2.510067580702415   7.191712391121011   5.002978606422314 
 11.202235609649751   0.718623749417457  11.673616748318732 
  3.734078536549908   0.646711899053521   5.002978606422314 
  2.382837377471481   7.340796201404772   5.002978606422314 
  7.530434562348161   7.222193419356342   5.002978606422314 
  8.728004008385284   0.715062707426307   5.002978606422314 
  2.489115535104843   7.187234227090339  11.673616748318732 
 13.676467210914145   0.715062707426307   5.002978606422314 
 -1.244762271694033   9.342299883494986  11.673616748318732 
 -0.000982549801988   2.873927722277031  11.673616748318732 
  4.979499500128334   2.873762669314790  11.673616748318732 
  3.734078536550106   9.343243293212042  11.673616748318732 
  8.712919344793811   9.342299883494986  11.673616748318732 
  9.957947165597886   2.874172000936576  11.673616748318732 
 -3.734078536549858   9.342108742426664   5.002978606422314 
  1.211518540875854   9.415475742527834   5.002978606422314 