 B N 
 1.0
 14.936314146199660   0.000000000000000   0.000000000000000
 -7.468157073099825  12.935227489513863   0.000000000000000
  0.000000000000001   0.000000000000001  13.341276283792837
 B N 
 143 144
Cartesian
  1.228129343157528   0.712977343403061   5.002978606422314 
  5.211129806777906   6.901329067818417   5.002978606422314 
  6.196819073477623   0.776358705523465   5.002978606422314 
 10.007368876786135   7.210286515217849   5.002978606422314 
 11.168655158901265   0.699236067137427   5.002978606422314 
 -3.735271355128616   9.341420068297408  11.673616748318732 
  1.243991745111050   9.340881134355872  11.673616748318732 
  2.489583371130454   2.874936236633001  11.673616748318732 
  6.222139121112248   9.339985340421606  11.673616748318732 
  7.465994645935507   2.874745548214637  11.673616748318732 
 12.446084205080272   2.874371101036621  11.673616748318732 
 -1.212230260918254   9.345335250146164   5.002978606422314 
 -0.047071909579835   2.847318018003712   5.002978606422314 
  4.916145569810301   2.984906795430399   5.002978606422314 
  3.794030865986047   9.187172165170997   5.002978606422314 
  8.758590038102756   9.373234911234333   5.002978606422314 
  9.906044592784909   2.891774739379679   5.002978606422314 
 -4.979658556095410  11.497389740841095  11.673616748318732 
 -0.001260066521906  11.497252490927149  11.673616748318732 
  1.245173809717465   5.030316822424814  11.673616748318732 
  6.221346055829332   5.030216707300873  11.673616748318732 
  4.977866407562541  11.496273240872517  11.673616748318732 
 11.200763283403326   5.030344148002559  11.673616748318732 
 -1.257864527744616   5.018845035110428   5.002978606422314 
 -2.470360161081639  11.524480159750722   5.002978606422314 
  2.495086511278422  11.446718484697092   5.002978606422314 
  7.472652660320861  11.489347320903134   5.002978606422314 
  8.703729860460671   5.077721011806062   5.002978606422314 
 -0.000078191647508   7.185656494527012  11.673616748318732 
  1.244469595384450   0.718419187412896  11.673616748318732 
  4.977582791944887   7.184477872936443  11.673616748318732 
  6.222050537608653   0.718630382684989  11.673616748318732 
  9.955745062374115   7.185631092135814  11.673616748318732 
 -2.457288452440451   7.192517526023631   5.002978606422314 
 11.201065728982934   0.717948318497532  11.673616748318732 
  3.731192762284737   0.754552641150184   5.002978606422314 
  2.553692206645420   7.076796050943972   5.002978606422314 
  7.556089647563200   7.237005389714071   5.002978606422314 
  8.671306562321917   0.749191557564041   5.002978606422314 
  2.489169905697772   7.185053049016163  11.673616748318732 
 13.660628341806238   0.690090662781666   5.002978606422314 
 -1.245479693180026   9.341474195225938  11.673616748318732 
 -0.000034991043077   2.874474795580699  11.673616748318732 
  4.977637729803296   2.874900344664994  11.673616748318732 
  3.733214306100741   9.340110750302717  11.673616748318732 
  8.711425908163157   9.340855088060342  11.673616748318732 
  9.955612188191104   2.874564641662182  11.673616748318732 
 -3.695200013125973   9.364555268394941   5.002978606422314 
  1.281370207140181   9.290165884026813   5.002978606422314 
  2.438198165959145   2.868840654029305   5.002978606422314 
  6.259914628750541   9.310533157438744   5.002978606422314 
  7.363954225942047   3.003883526600165   5.002978606422314 
 12.406721597854178   2.861920851259907   5.002978606422314 
 -1.244981626475049   5.030275186637999  11.673616748318732 
 -2.490328648863024  11.497615834217962  11.673616748318732 
  2.488322456625606  11.496688173417899  11.673616748318732 
  3.733946578256413   5.030290059770539  11.673616748318732 
  7.467401772616999  11.496715967706626  11.673616748318732 
 -4.957284095652853  11.522636998768375   5.002978606422314 
  8.710348445299841   5.030280371062042  11.673616748318732 
  0.007516416436656  11.502319595730658   5.002978606422314 
  1.214202277746160   4.988863720669606   5.002978606422314 
  0.029672445838078   7.165773894484269   5.002978606422314 
  6.092905504960070   5.374048757687378   5.002978606422314 
  4.967986991680539  11.444741395194193   5.002978606422314 
 11.197007291929550   5.038575873552371   5.002978606422314 
 -2.490340449403931   7.185764303850259  11.673616748318732 
  3.733536280271573   0.718846533288676  11.673616748318732 
  7.465902257558104   7.184935675806132  11.673616748318732 
  8.711199554849884   0.718348870036589  11.673616748318732 
 13.691091878009253   0.717954555710518  11.673616748318732 
 -0.000425808487037   1.438005561526322   1.669367155209547 
  3.737172140658289   7.901886762460387   1.681174821352947 
  4.978273490496873   1.442194360695979   1.674781954391110 
  8.708655725330544   7.902439724973269   1.675656331263360 
  9.957268332435003   1.437792191968865   1.670617768152578 
 -4.980590430978811  10.060203559116074   8.334926148936356 
  0.001820532341601  10.059985494219999   8.335978188613907 
  1.245893841734752   3.593812142576315   8.331015074227565 
  4.978326335975031  10.059191764193574   8.332034434833261 
  6.222435053411509   3.597285127405165   8.324782391490599 
 11.201640258021134   3.592712147741296   8.335905801155924 
 -2.489171066204459  10.060856405545456   1.669896071463879 
 -1.244249248211205   3.592370954773681   1.669367155209547 
  3.734875887855705   3.598006454871866   1.691780897380097 
  2.491639583323439  10.059282167521618   1.672079548088426 
  7.465996454108935  10.059277139192966   1.673197577038734 
  8.711293086285004   3.593503689691372   1.673922778014035 
 -6.224380137041467  12.217197828725453   8.335612050056207 
 -1.244429498261328  12.218553866158532   8.335978188613907 
  0.002920280884377   5.747403797835676   8.332171449711931 
  4.979436166403949   5.749373808755606   8.281193385487313 
  3.734413038793489  12.216093728704989   8.335339444689435 
  9.955202082270301   5.747846520731049   8.332759635801130 
 -2.489329149919524   5.747899750169915   1.670345162793703 
 -3.734561721294498  12.218828720398193   1.670620010288605 
  1.245422896672904  12.217025235322462   1.670364084467649 
  2.494017245792208   5.747236667936781   1.691780897380097 
  6.222814426404995  12.216291450136874   1.670051411686555 
  7.463397647157733   5.747224335849923   1.683504002759710 
 -1.243007548425311   7.903330303178484   8.335337202551793 
 -0.000425808487036   1.438005561526323   8.336590057636721 
  3.737172140658289   7.901886762460388   8.324782391490599 
  4.978273490496874   1.442194360695980   8.331175258450875 
  8.708655725330544   7.902439724973270   8.330300881576491 
 -3.735446130184314   7.903550367385162   1.671031063904016 
  9.957268332435003   1.437792191968866   8.335339444689435 
  2.489472144143047   1.440569635016570   1.673785763130041 
  1.248728007771980   7.901956625914532   1.674781954391110 
  6.219555408640881   7.901622289561332   1.683504002759710 
  7.468028001540433   1.439924588972405   1.672079548088426 
  1.248728007771981   7.901956625914533   8.331175258450875 
 12.446906235810930   1.437234670481699   1.669060175186678 
 -2.489171066204459  10.060856405545456   8.336061141377067 
 -1.244249248211204   3.592370954773682   8.336590057636721 
  3.734875887855705   3.598006454871867   8.314176315462943 
  2.491639583323440  10.059282167521618   8.333877664753574 
  7.465996454108936  10.059277139192966   8.332759635801130 
  8.711293086285004   3.593503689691373   8.332034434833261 
 -4.980590430978812  10.060203559116074   1.671031063904016 
  0.001820532341601  10.059985494219999   1.669979024231227 
  1.245893841734752   3.593812142576314   1.674942138619679 
  4.978326335975030  10.059191764193574   1.673922778014035 
  6.222435053411508   3.597285127405164   1.681174821352947 
 11.201640258021134   3.592712147741295   1.670051411686555 
 -2.489329149919524   5.747899750169916   8.335612050056207 
 -3.734561721294498  12.218828720398193   8.335337202551793 
  1.245422896672904  12.217025235322462   8.335593128379100 
  2.494017245792208   5.747236667936781   8.314176315462943 
  6.222814426404996  12.216291450136874   8.335905801155924 
 -6.224380137041468  12.217197828725453   1.670345162793703 
  7.463397647157734   5.747224335849924   8.322453210084358 
 -1.244429498261328  12.218553866158532   1.669979024231227 
  0.002920280884376   5.747403797835675   1.673785763130041 
 -1.243007548425312   7.903330303178483   1.670620010288605 
  4.979436166403948   5.749373808755605   1.724763827361024 
  3.734413038793488  12.216093728704989   1.670617768152578 
  9.955202082270301   5.747846520731048   1.673197577038734 
 -3.735446130184313   7.903550367385163   8.334926148936356 
  2.489472144143047   1.440569635016571   8.332171449711931 
  6.219555408640882   7.901622289561333   8.322453210084358 
  7.468028001540434   1.439924588972406   8.333877664753574 
 12.446906235810930   1.437234670481700   8.336897037655815 
  3.688722901925715   5.004180158062447   5.002978606422314 
  1.243916646995199   0.718758049756221   1.665740875264756 
  4.977804670917114   7.188531646235558   1.665644423977960 
  6.223591157096746   0.718955691735671   1.665502968743717 
  9.957244805731770   7.185965982389734   1.667199881803390 
 11.202312491240976   0.718668137023302   1.665476672889750 
 -3.734246626194329   9.342011695823672   8.339691368904836 
  1.245043780755359   9.342052695447746   8.340454244099590 
  2.488033992257284   2.874532219633574   8.336955660423920 
  6.223200245928108   9.343015416182181   8.338577578981196 
  7.469451316057741   2.873916381216974   8.340099687770643 
 12.446508024264093   2.873985870821067   8.341663973345380 
 -1.244531779818836   9.341902983031856   1.665571698013696 
 -0.001447215257311   2.873659447550299   1.663191467701080 
  4.978581487029191   2.874412957779304   1.669588191962063 
  3.734224561481733   9.343518897933267   1.665857525077427 
  8.712465803316418   9.341986458768041   1.667199881803390 
  9.958409923539927   2.874027135550610   1.665735457404730 
 -4.979144498173707  11.498164065633036   8.340221067693342 
  0.000088191976263  11.498030908338192   8.340888172303607 
  1.244049231294024   5.029177029463380   8.336955660423920 
  6.224967665974836   5.028381973475798   8.340312788866401 
  4.978799781290801  11.498964903811441   8.340221755439098 
 11.202437105591661   5.029961255102156   8.340240338231110 
 -1.244964637271528   5.029626888113499   1.665740875264756 
 -2.489483351046764  11.498222357361348   1.665571698013950 
  2.489443716438778  11.498453950283917   1.666004093376352 
  3.733414578314932   5.029982909457028   1.679417166771227 
  7.467907088733654  11.498356986691325   1.665716874611702 
  8.713503130291247   5.029684294229869   1.667379633859202 
  0.000102046795012   7.185542930582297   8.339368169857929 
  1.243916646995199   0.718758049756222   8.340216337584367 
  4.977804670917115   7.188531646235559   8.340312788866401 
  6.223591157096747   0.718955691735672   8.340454244099590 
  9.957244805731770   7.185965982389735   8.338757331041773 
 -2.489412835500747   7.185822328670499   1.665736145152846 
 11.202312491240969   0.718668137023315   8.340480539956985 
  3.733528050234294   0.719059406326597   1.666589042988354 
  2.489219694885361   7.186114060193164   1.669588191962063 
  7.467426809874270   7.185815876494935   1.670317045788683 
  8.713289392381458   0.718437021083261   1.666004093376352 
  2.489219694885362   7.186114060193165   8.336369020879696 
 13.690970168447889   0.718514208998612   1.664293239497635 
 -1.244531779818835   9.341902983031856   8.340385514831786 
 -0.001447215257310   2.873659447550300   8.342765745143534 
  4.978581487029185   2.874412957779318   8.336369020879696 
  3.734224561481734   9.343518897933267   8.340099687770643 
  8.712465803316418   9.341986458768041   8.338757331041773 
  9.958409923539927   2.874027135550611   8.340221755439098 
 -3.734246626194330   9.342011695823672   1.666265843940004 
  1.245043780755359   9.342052695447746   1.665502968743717 
  2.488033992257283   2.874532219633573   1.669001552420454 
  6.223200245928107   9.343015416182181   1.667379633859202 
  7.469451316057740   2.873916381216973   1.665857525077427 
 12.446508024264093   2.873985870821066   1.664293239497635 
 -1.244964637271528   5.029626888113500   8.340216337584367 
 -2.489483351046764  11.498222357361348   8.340385514831786 
  2.489443716438779  11.498453950283917   8.339953119472506 
  3.733414578314932   5.029982909457029   8.326540046067583 
  7.467907088733654  11.498356986691325   8.340240338231110 
 -4.979144498173707  11.498164065633036   1.665736145152846 
  8.713503130291247   5.029684294229870   8.338577578981196 
  0.000088191976262  11.498030908338192   1.665069040540460 
  1.244049231294023   5.029177029463379   1.669001552420454 
  0.000102046795012   7.185542930582296   1.666589042988354 
  6.224967665974835   5.028381973475797   1.665644423977960 
  4.978799781290800  11.498964903811441   1.665735457404730 
 11.202437105591661   5.029961255102155   1.665716874611702 
 -2.489412835500746   7.185822328670500   8.340221067693342 
  3.733528050234295   0.719059406326597   8.339368169857929 
  7.467426809874270   7.185815876494936   8.335640167058052 
  8.713289392381458   0.718437021083261   8.339953119472506 
 13.690970168447889   0.718514208998612   8.341663973345380 
 -0.036600189647906   1.408021967821983   5.002978606422314 
  3.847645672097773   7.718147065137693   5.002978606422314 
  4.954003636875837   1.503777166579616   5.002978606422314 
  8.793709905671198   7.951545778885960   5.002978606422314 
  9.927181169224596   1.443383188060714   5.002978606422314 
 -4.979692448515042  10.060161204075829  11.673616748318732 
 -0.001191990831166  10.060208249183859  11.673616748318732 
  1.243760411798294   3.592580406228574  11.673616748318732 
  4.977904532911444  10.059989379341861  11.673616748318732 
  6.222376989356385   3.592294190723824  11.673616748318732 
 11.201258244297129   3.592769146596763  11.673616748318732 
 -2.453272932520709  10.081582202693177   5.002978606422314 
 -1.288302992636871   3.576034818575263   5.002978606422314 
  3.625997309557029   3.614994749430112   5.002978606422314 
  2.534126806259606   9.986363923184431   5.002978606422314 
  7.499965250141192  10.065047803036975   5.002978606422314 
  8.674056299565466   3.632403968638667   5.002978606422314 
 -6.224282888885244  12.216040195343666  11.673616748318732 
 -1.245742848393181  12.215833567084699  11.673616748318732 
 -0.000922496456052   5.748625007316689  11.673616748318732 
  4.977861714529275   5.748464798541935  11.673616748318732 
  3.733117102160416  12.215955286214408  11.673616748318732 
  9.956583847344302   5.748593458690940  11.673616748318732 
 -2.489282330896143   5.752300301374436   5.002978606422314 
 -3.716760785727427  12.243788619787939   5.002978606422314 
  1.246526168535097  12.217662209631854   5.002978606422314 
  2.454290251298449   5.644450905921054   5.002978606422314 
  6.208891527629790  12.187291355874734   5.002978606422314 
  7.511879179410078   5.820297640838350   5.002978606422314 
 -1.245785893747110   7.904400239776788  11.673616748318732 
 -0.000799637019044   1.436635996200692  11.673616748318732 
  3.732820830674841   7.904331945856293  11.673616748318732 
  4.977879191375849   1.436350937663771  11.673616748318732 
  8.711932545480911   7.904331597959625  11.673616748318732 
 -3.685905455081943   7.927604038902141   5.002978606422314 
  9.956500469401240   1.436739099174144  11.673616748318732 
  2.464971451700507   1.428965624699628   5.002978606422314 
  1.289925355293779   7.850146913189449   5.002978606422314 
  6.307079513226750   7.907071875609911   5.002978606422314 
  7.426122561010726   1.513178725544175   5.002978606422314 
  1.243470305419815   7.904536864376356  11.673616748318732 
 12.413408289979778   1.417894622438774   5.002978606422314 
 -2.490477246862184  10.060102281794606  11.673616748318732 
 -1.245622240842825   3.592731992433680  11.673616748318732 
  3.733149616260492   3.592489574011049  11.673616748318732 
  2.488219894881532  10.060177122398514  11.673616748318732 
  7.467334203894194  10.060100313869270  11.673616748318732 
  8.711772939734031   3.592739589948834  11.673616748318732 
 -4.934989002839078  10.091080206515640   5.002978606422314 
  0.033793235435559  10.052346878814324   5.002978606422314 
  1.174010902955646   3.552310508522436   5.002978606422314 
  4.993396572396134  10.007493621468596   5.002978606422314 
  6.118548573566134   3.784827860738885   5.002978606422314 
 11.169563990294513   3.595154610831552   5.002978606422314 
 -2.490283065756997   5.748562786232295  11.673616748318732 
 -3.735024301684381  12.215887634476037  11.673616748318732 
  1.243578100463113  12.215960141740968  11.673616748318732 
  2.488376351023021   5.748500113305774  11.673616748318732 
  6.222672781999830  12.215932117119536  11.673616748318732 
 -6.220545738394320  12.215038099583149   5.002978606422314 
  7.467125006108106   5.748512199669256  11.673616748318732 
 -1.235058381710766  12.250062346977709   5.002978606422314 
 -0.019379433059651   5.731987580932945   5.002978606422314 
 -1.212491173691895   7.906266415891568   5.002978606422314 
  3.724211401828250  12.187241983004959   5.002978606422314 
  9.977184021772608   5.774379029107968   5.002978606422314 
 -3.735033819489958   7.904349220525344  11.673616748318732 
  2.488608353905538   1.436631087480235  11.673616748318732 
  6.222534410897274   7.904206345196823  11.673616748318732 
  7.467093210975706   1.436515574474404  11.673616748318732 
 12.446040817772253   1.436735021145808  11.673616748318732 
Generated by cif2cell 2.0.0.  :  Failed to get author information, No journal information. Species order: B N 
 1.0
 14.936314146199660   0.000000000000000   0.000000000000000
 -7.468157073099825  12.935227489513863   0.000000000000000
  0.000000000000001   0.000000000000001  13.341276283792837
 B N 
 143 144
Cartesian
  1.228129343157528   0.712977343403061   5.002978606422314 
  5.211129806777906   6.901329067818417   5.002978606422314 
  6.196819073477623   0.776358705523465   5.002978606422314 
 10.007368876786135   7.210286515217849   5.002978606422314 
 11.168655158901265   0.699236067137427   5.002978606422314 
 -3.735271355128616   9.341420068297408  11.673616748318732 
  1.243991745111050   9.340881134355872  11.673616748318732 
  2.489583371130454   2.874936236633001  11.673616748318732 
  6.222139121112248   9.339985340421606  11.673616748318732 
  7.465994645935507   2.874745548214637  11.673616748318732 
 12.446084205080272   2.874371101036621  11.673616748318732 
 -1.212230260918254   9.345335250146164   5.002978606422314 
 -0.047071909579835   2.847318018003712   5.002978606422314 
  4.916145569810301   2.984906795430399   5.002978606422314 
  3.794030865986047   9.187172165170997   5.002978606422314 
  8.758590038102756   9.373234911234333   5.002978606422314 
  9.906044592784909   2.891774739379679   5.002978606422314 
 -4.979658556095410  11.497389740841095  11.673616748318732 
 -0.001260066521906  11.497252490927149  11.673616748318732 
  1.245173809717465   5.030316822424814  11.673616748318732 
  6.221346055829332   5.030216707300873  11.673616748318732 
  4.977866407562541  11.496273240872517  11.673616748318732 
 11.200763283403326   5.030344148002559  11.673616748318732 
 -1.257864527744616   5.018845035110428   5.002978606422314 
 -2.470360161081639  11.524480159750722   5.002978606422314 
  2.495086511278422  11.446718484697092   5.002978606422314 
  7.472652660320861  11.489347320903134   5.002978606422314 
  8.703729860460671   5.077721011806062   5.002978606422314 
 -0.000078191647508   7.185656494527012  11.673616748318732 
  1.244469595384450   0.718419187412896  11.673616748318732 
  4.977582791944887   7.184477872936443  11.673616748318732 
  6.222050537608653   0.718630382684989  11.673616748318732 
  9.955745062374115   7.185631092135814  11.673616748318732 
 -2.457288452440451   7.192517526023631   5.002978606422314 
 11.201065728982934   0.717948318497532  11.673616748318732 
  3.731192762284737   0.754552641150184   5.002978606422314 
  2.553692206645420   7.076796050943972   5.002978606422314 
  7.556089647563200   7.237005389714071   5.002978606422314 
  8.671306562321917   0.749191557564041   5.002978606422314 
  2.489169905697772   7.185053049016163  11.673616748318732 
 13.660628341806238   0.690090662781666   5.002978606422314 
 -1.245479693180026   9.341474195225938  11.673616748318732 
 -0.000034991043077   2.874474795580699  11.673616748318732 
  4.977637729803296   2.874900344664994  11.673616748318732 
  3.733214306100741   9.340110750302717  11.673616748318732 
  8.711425908163157   9.340855088060342  11.673616748318732 
  9.955612188191104   2.874564641662182  11.673616748318732 
 -3.695200013125973   9.364555268394941   5.002978606422314 
  1.281370207140181   9.290165884026813   5.002978606422314 
  2.438198165959145   2.868840654029305   5.002978606422314 
  6.259914628750541   9.310533157438744   5.002978606422314 
  7.363954225942047   3.003883526600165   5.002978606422314 
 12.406721597854178   2.861920851259907   5.002978606422314 
 -1.244981626475049   5.030275186637999  11.673616748318732 
 -2.490328648863024  11.497615834217962  11.673616748318732 
  2.488322456625606  11.496688173417899  11.673616748318732 
  3.733946578256413   5.030290059770539  11.673616748318732 
  7.467401772616999  11.496715967706626  11.673616748318732 
 -4.957284095652853  11.522636998768375   5.002978606422314 
  8.710348445299841   5.030280371062042  11.673616748318732 
  0.007516416436656  11.502319595730658   5.002978606422314 
  1.214202277746160   4.988863720669606   5.002978606422314 
  0.029672445838078   7.165773894484269   5.002978606422314 
  6.092905504960070   5.374048757687378   5.002978606422314 
  4.967986991680539  11.444741395194193   5.002978606422314 
 11.197007291929550   5.038575873552371   5.002978606422314 
 -2.490340449403931   7.185764303850259  11.673616748318732 
  3.733536280271573   0.718846533288676  11.673616748318732 
  7.465902257558104   7.184935675806132  11.673616748318732 
  8.711199554849884   0.718348870036589  11.673616748318732 
 13.691091878009253   0.717954555710518  11.673616748318732 
 -0.000425808487037   1.438005561526322   1.669367155209547 
  3.737172140658289   7.901886762460387   1.681174821352947 
  4.978273490496873   1.442194360695979   1.674781954391110 
  8.708655725330544   7.902439724973269   1.675656331263360 
  9.957268332435003   1.437792191968865   1.670617768152578 
 -4.980590430978811  10.060203559116074   8.334926148936356 
  0.001820532341601  10.059985494219999   8.335978188613907 
  1.245893841734752   3.593812142576315   8.331015074227565 
  4.978326335975031  10.059191764193574   8.332034434833261 
  6.222435053411509   3.597285127405165   8.324782391490599 
 11.201640258021134   3.592712147741296   8.335905801155924 
 -2.489171066204459  10.060856405545456   1.669896071463879 
 -1.244249248211205   3.592370954773681   1.669367155209547 
  3.734875887855705   3.598006454871866   1.691780897380097 
  2.491639583323439  10.059282167521618   1.672079548088426 
  7.465996454108935  10.059277139192966   1.673197577038734 
  8.711293086285004   3.593503689691372   1.673922778014035 
 -6.224380137041467  12.217197828725453   8.335612050056207 
 -1.244429498261328  12.218553866158532   8.335978188613907 
  0.002920280884377   5.747403797835676   8.332171449711931 
  4.979436166403949   5.749373808755606   8.281193385487313 
  3.734413038793489  12.216093728704989   8.335339444689435 
  9.955202082270301   5.747846520731049   8.332759635801130 
 -2.489329149919524   5.747899750169915   1.670345162793703 
 -3.734561721294498  12.218828720398193   1.670620010288605 
  1.245422896672904  12.217025235322462   1.670364084467649 
  2.494017245792208   5.747236667936781   1.691780897380097 
  6.222814426404995  12.216291450136874   1.670051411686555 
  7.463397647157733   5.747224335849923   1.683504002759710 
 -1.243007548425311   7.903330303178484   8.335337202551793 
 -0.000425808487036   1.438005561526323   8.336590057636721 
  3.737172140658289   7.901886762460388   8.324782391490599 
  4.978273490496874   1.442194360695980   8.331175258450875 
  8.708655725330544   7.902439724973270   8.330300881576491 
 -3.735446130184314   7.903550367385162   1.671031063904016 
  9.957268332435003   1.437792191968866   8.335339444689435 
  2.489472144143047   1.440569635016570   1.673785763130041 
  1.248728007771980   7.901956625914532   1.674781954391110 
  6.219555408640881   7.901622289561332   1.683504002759710 
  7.468028001540433   1.439924588972405   1.672079548088426 
  1.248728007771981   7.901956625914533   8.331175258450875 
 12.446906235810930   1.437234670481699   1.669060175186678 
 -2.489171066204459  10.060856405545456   8.336061141377067 
 -1.244249248211204   3.592370954773682   8.336590057636721 
  3.734875887855705   3.598006454871867   8.314176315462943 
  2.491639583323440  10.059282167521618   8.333877664753574 
  7.465996454108936  10.059277139192966   8.332759635801130 
  8.711293086285004   3.593503689691373   8.332034434833261 
 -4.980590430978812  10.060203559116074   1.671031063904016 
  0.001820532341601  10.059985494219999   1.669979024231227 
  1.245893841734752   3.593812142576314   1.674942138619679 
  4.978326335975030  10.059191764193574   1.673922778014035 
  6.222435053411508   3.597285127405164   1.681174821352947 
 11.201640258021134   3.592712147741295   1.670051411686555 
 -2.489329149919524   5.747899750169916   8.335612050056207 
 -3.734561721294498  12.218828720398193   8.335337202551793 
  1.245422896672904  12.217025235322462   8.335593128379100 
  2.494017245792208   5.747236667936781   8.314176315462943 
  6.222814426404996  12.216291450136874   8.335905801155924 
 -6.224380137041468  12.217197828725453   1.670345162793703 
  7.463397647157734   5.747224335849924   8.322453210084358 
 -1.244429498261328  12.218553866158532   1.669979024231227 
  0.002920280884376   5.747403797835675   1.673785763130041 
 -1.243007548425312   7.903330303178483   1.670620010288605 
  4.979436166403948   5.749373808755605   1.724763827361024 
  3.734413038793488  12.216093728704989   1.670617768152578 
  9.955202082270301   5.747846520731048   1.673197577038734 
 -3.735446130184313   7.903550367385163   8.334926148936356 
  2.489472144143047   1.440569635016571   8.332171449711931 
  6.219555408640882   7.901622289561333   8.322453210084358 
  7.468028001540434   1.439924588972406   8.333877664753574 
 12.446906235810930   1.437234670481700   8.336897037655815 
  3.688722901925715   5.004180158062447   5.002978606422314 
  1.243916646995199   0.718758049756221   1.665740875264756 
  4.977804670917114   7.188531646235558   1.665644423977960 
  6.223591157096746   0.718955691735671   1.665502968743717 
  9.957244805731770   7.185965982389734   1.667199881803390 
 11.202312491240976   0.718668137023302   1.665476672889750 
 -3.734246626194329   9.342011695823672   8.339691368904836 
  1.245043780755359   9.342052695447746   8.340454244099590 
  2.488033992257284   2.874532219633574   8.336955660423920 
  6.223200245928108   9.343015416182181   8.338577578981196 
  7.469451316057741   2.873916381216974   8.340099687770643 
 12.446508024264093   2.873985870821067   8.341663973345380 
 -1.244531779818836   9.341902983031856   1.665571698013696 
 -0.001447215257311   2.873659447550299   1.663191467701080 
  4.978581487029191   2.874412957779304   1.669588191962063 
  3.734224561481733   9.343518897933267   1.665857525077427 
  8.712465803316418   9.341986458768041   1.667199881803390 
  9.958409923539927   2.874027135550610   1.665735457404730 
 -4.979144498173707  11.498164065633036   8.340221067693342 
  0.000088191976263  11.498030908338192   8.340888172303607 
  1.244049231294024   5.029177029463380   8.336955660423920 
  6.224967665974836   5.028381973475798   8.340312788866401 
  4.978799781290801  11.498964903811441   8.340221755439098 
 11.202437105591661   5.029961255102156   8.340240338231110 
 -1.244964637271528   5.029626888113499   1.665740875264756 
 -2.489483351046764  11.498222357361348   1.665571698013950 
  2.489443716438778  11.498453950283917   1.666004093376352 
  3.733414578314932   5.029982909457028   1.679417166771227 
  7.467907088733654  11.498356986691325   1.665716874611702 
  8.713503130291247   5.029684294229869   1.667379633859202 
  0.000102046795012   7.185542930582297   8.339368169857929 
  1.243916646995199   0.718758049756222   8.340216337584367 
  4.977804670917115   7.188531646235559   8.340312788866401 
  6.223591157096747   0.718955691735672   8.340454244099590 
  9.957244805731770   7.185965982389735   8.338757331041773 
 -2.489412835500747   7.185822328670499   1.665736145152846 
 11.202312491240969   0.718668137023315   8.340480539956985 
  3.733528050234294   0.719059406326597   1.666589042988354 
  2.489219694885361   7.186114060193164   1.669588191962063 
  7.467426809874270   7.185815876494935   1.670317045788683 
  8.713289392381458   0.718437021083261   1.666004093376352 
  2.489219694885362   7.186114060193165   8.336369020879696 
 13.690970168447889   0.718514208998612   1.664293239497635 
 -1.244531779818835   9.341902983031856   8.340385514831786 
 -0.001447215257310   2.873659447550300   8.342765745143534 
  4.978581487029185   2.874412957779318   8.336369020879696 
  3.734224561481734   9.343518897933267   8.340099687770643 
  8.712465803316418   9.341986458768041   8.338757331041773 
  9.958409923539927   2.874027135550611   8.340221755439098 
 -3.734246626194330   9.342011695823672   1.666265843940004 
  1.245043780755359   9.342052695447746   1.665502968743717 
  2.488033992257283   2.874532219633573   1.669001552420454 
  6.223200245928107   9.343015416182181   1.667379633859202 