As B N                                  
   1.0000000000000000     
     8.7639499999999995  -15.1796066749929999    0.0000000000000000
     8.7639499999999995   15.1796066749929999    0.0000000000000000
     0.0000000000000000    0.0000000000000000   15.0000000000000000
   As   B    N 
     1    48    48
Selective dynamics
Direct
  0.5039349131973339  0.4960664887196629  0.1784866076797229   T   T   T
  0.9058383761156179  0.9530806653954542  0.1029627610633099   T   T   T
  0.9045816312707231  0.0954203899252661  0.1052822666084410   T   T   T
  0.9040752211860621  0.2381828431588104  0.1070176585628104   T   T   T
  0.9039585896736426  0.3809491591054481  0.1078790619004408   T   T   T
  0.9047369965583201  0.5237573433636200  0.1077186809320594   T   T   T
  0.9062967126208292  0.6669359276709130  0.1061167446958962   T   T   T
  0.9070946577101964  0.8107206679002132  0.1023499416317506   T   T   T
  0.0482420192456559  0.9517600019503760  0.1036605345159387   T   T   T
  0.0469213558005777  0.0941636450803927  0.1029627610633099   T   T   T
  0.0465382107259913  0.2373168232853970  0.1042456416128204   T   T   T
  0.0468384667059354  0.3803513655690978  0.1065212592059055   T   T   T
  0.0477988383629508  0.5231423324714157  0.1076983452454883   T   T   T
  0.0487571953243204  0.6659919976059214  0.1072597927030117   T   T   T
  0.0488808435109078  0.8090015811085181  0.1054550939187351   T   T   T
  0.1910004400874357  0.9511211776851312  0.1054550939187351   T   T   T
  0.1892813532958044  0.0929073634857644  0.1023499416317506   T   T   T
  0.1878864067537691  0.2352447370777142  0.1026905844813939   T   T   T
  0.1890486769208053  0.3793894402487652  0.1074821553302741   T   T   T
  0.1908232295619712  0.5224161399777003  0.1103165452296295   T   T   T
  0.1919111718894086  0.6654071167438644  0.1098001749302071   T   T   T
  0.1916174652486902  0.8083845559473488  0.1079961843924266   T   T   T
  0.3340100235911194  0.9512448258716972  0.1072597927030117   T   T   T
  0.3330660935260994  0.0937053085751458  0.1061167446958962   T   T   T
  0.3294743757721221  0.2335516738648735  0.1099740692753386   T   T   T
  0.3276387965887153  0.3761982326324684  0.1216802626434870   T   T   T
  0.3338781966860509  0.5199906906873579  0.1230855463911169   T   T   T
  0.3355124409158421  0.6644895802811774  0.1150482287609691   T   T   T
  0.3345949044531551  0.8080908493066303  0.1098001749302071   T   T   T
  0.4768596887255754  0.9522031828330668  0.1076983452454883   T   T   T
  0.4762446778334066  0.0952650246376834  0.1077186809320594   T   T   T
  0.4750754119489429  0.2379181863551025  0.1143674978835705   T   T   T
  0.4650504744394865  0.3706077175461644  0.1456543036097244   T   T   T
  0.4800113305096829  0.6661238245109544  0.1230855463911169   T   T   T
  0.4775858812193121  0.8091787916340465  0.1103165452296295   T   T   T
  0.6196506556269412  0.9531635544900823  0.1065212592059055   T   T   T
  0.6190528620905908  0.0960434315223466  0.1078790619004408   T   T   T
  0.6183878401627965  0.2393287855295725  0.1116282248953198   T   T   T
  0.6171017749265459  0.3829002462693865  0.1241865561744220   T   T   T
  0.6293943036498320  0.5349515467575117  0.1456543036097244   T   T   T
  0.6238037885635279  0.6723632246082687  0.1216802626434870   T   T   T
  0.6206125809472240  0.8109533442751768  0.1074821553302741   T   T   T
  0.7626851979106206  0.9534638104700051  0.1042456416128204   T   T   T
  0.7618191780372072  0.0959268000099485  0.1070176585628104   T   T   T
  0.7612632372025772  0.2387387839933908  0.1089530343019973   T   T   T
  0.7606732356664381  0.3816141810331928  0.1116282248953198   T   T   T
  0.7620838348409080  0.5249266092480553  0.1143674978835705   T   T   T
  0.7664503473311655  0.6705276454248192  0.1099740692753386   T   T   T
  0.7647572841182679  0.8121156144422343  0.1026905844813939   T   T   T
  0.9537539815814569  0.9054813567369138  0.1028229438003052   T   T   T
  0.9522653221156148  0.0477360798024193  0.1041362236879735   T   T   T
  0.9514569627418155  0.1903332072087949  0.1057747007426428   T   T   T
  0.9514331864439782  0.3331927825910910  0.1070889260584380   T   T   T
  0.9522653751057888  0.4760322935773260  0.1074608829423909   T   T   T
  0.9535601831676814  0.6189464939268206  0.1066539187567841   T   T   T
  0.9541211168150951  0.7622357132392992  0.1041353929148698   T   T   T
  0.0959843335745347  0.9040170683434354  0.1051258844110876   T   T   T
  0.0945200451810848  0.0462474203365559  0.1028229438003052   T   T   T
  0.0930926676119626  0.1886033139196712  0.1023585232642290   T   T   T
  0.0935592097094613  0.3321878134625891  0.1050173612217336   T   T   T
  0.0949736981541776  0.4754171637425770  0.1075914056801111   T   T   T
  0.0962451340526087  0.6183429715483655  0.1082994079250454   T   T   T
  0.0964180792473286  0.7612159172893129  0.1071476566313834   T   T   T
  0.2387854846286999  0.9035833226707126  0.1071476566313834   T   T   T
  0.2377656886786923  0.0458802851029034  0.1041353929148698   T   T   T
  0.2350202899487925  0.1868413234242681  0.1016373708450971   T   T   T
  0.2336213535212721  0.3290852996887139  0.1062676996566765   T   T   T
  0.2371000908189487  0.4743893168529283  0.1120818868759201   T   T   T
  0.2393240999498119  0.6178577242467824  0.1118489991647138   T   T   T
  0.2391970876028822  0.7608043143151733  0.1094893939868413   T   T   T
  0.3816584303696047  0.9037562678653970  0.1082994079250454   T   T   T
  0.3810549079911780  0.0464412187503171  0.1066539187567841   T   T   T
  0.3796391304157041  0.1882107079748536  0.1090928907952744   T   T   T
  0.3734568835618148  0.3253675095554058  0.1242935059368619   T   T   T
  0.3723480515534092  0.4670380316466947  0.1331499878941997   T   T   T
  0.3829061114319430  0.6170952904859774  0.1218395991975640   T   T   T
  0.3821436776712446  0.7606773019681654  0.1118489991647138   T   T   T
  0.5245842381743842  0.9050277037638281  0.1075914056801111   T   T   T
  0.5239691083396352  0.0477360268122311  0.1074608829423909   T   T   T
  0.5232427058759370  0.1905829390553464  0.1099933068931591   T   T   T
  0.5210934188382694  0.3326473251627107  0.1269480737823940   T   T   T
  0.5329633702703021  0.6276533503645751  0.1331499878941997   T   T   T
  0.5256120850640542  0.7629013110990570  0.1120818868759201   T   T   T
  0.6678135884544076  0.9064421922085160  0.1050173612217336   T   T   T
  0.6668086193259199  0.0485682154740132  0.1070889260584380   T   T   T
  0.6661618276441885  0.1914034358158574  0.1091984582519103   T   T   T
  0.6652750970500705  0.3347263048669618  0.1152713979339524   T   T   T
  0.6673540767542576  0.4789079830787344  0.1269480737823940   T   T   T
  0.6746338923616406  0.6265445183561837  0.1242935059368619   T   T   T
  0.6709161022282899  0.7663800483967478  0.1062676996566765   T   T   T
  0.8113980879982989  0.9069087343060289  0.1023585232642290   T   T   T
  0.8096681947092321  0.0485444391762186  0.1057747007426428   T   T   T
  0.8089592667227237  0.1910421351953033  0.1079246423177835   T   T   T
  0.8085979661021270  0.3338395742727940  0.1091984582519103   T   T   T
  0.8094184628626380  0.4767586960410384  0.1099933068931591   T   T   T
  0.8117906939431450  0.6203622715023300  0.1090928907952744   T   T   T
  0.8131600784937092  0.7649811119692060  0.1016373708450971   T   T   T

  0.00000000E+00  0.00000000E+00  0.00000000E+00
  0.00000000E+00  0.00000000E+00  0.00000000E+00
  0.00000000E+00  0.00000000E+00  0.00000000E+00
  0.00000000E+00  0.00000000E+00  0.00000000E+00
  0.00000000E+00  0.00000000E+00  0.00000000E+00
  0.00000000E+00  0.00000000E+00  0.00000000E+00
  0.00000000E+00  0.00000000E+00  0.00000000E+00
  0.00000000E+00  0.00000000E+00  0.00000000E+00
  0.00000000E+00  0.00000000E+00  0.00000000E+00
  0.00000000E+00  0.00000000E+00  0.00000000E+00
  0.00000000E+00  0.00000000E+00  0.00000000E+00
  0.00000000E+00  0.00000000E+00  0.00000000E+00
  0.00000000E+00  0.00000000E+00  0.00000000E+00
  0.00000000E+00  0.00000000E+00  0.00000000E+00
  0.00000000E+00  0.00000000E+00  0.00000000E+00
  0.00000000E+00  0.00000000E+00  0.00000000E+00
  0.00000000E+00  0.00000000E+00  0.00000000E+00
  0.00000000E+00  0.00000000E+00  0.00000000E+00
  0.00000000E+00  0.00000000E+00  0.00000000E+00
  0.00000000E+00  0.00000000E+00  0.00000000E+00
  0.00000000E+00  0.00000000E+00  0.00000000E+00
  0.00000000E+00  0.00000000E+00  0.00000000E+00
  0.00000000E+00  0.00000000E+00  0.00000000E+00
  0.00000000E+00  0.00000000E+00  0.00000000E+00
  0.00000000E+00  0.00000000E+00  0.00000000E+00
  0.00000000E+00  0.00000000E+00  0.00000000E+00
  0.00000000E+00  0.00000000E+00  0.00000000E+00
  0.00000000E+00  0.00000000E+00  0.00000000E+00
  0.00000000E+00  0.00000000E+00  0.00000000E+00
  0.00000000E+00  0.00000000E+00  0.00000000E+00
  0.00000000E+00  0.00000000E+00  0.00000000E+00
  0.00000000E+00  0.00000000E+00  0.00000000E+00
  0.00000000E+00  0.00000000E+00  0.00000000E+00
  0.00000000E+00  0.00000000E+00  0.00000000E+00
  0.00000000E+00  0.00000000E+00  0.00000000E+00
  0.00000000E+00  0.00000000E+00  0.00000000E+00
  0.00000000E+00  0.00000000E+00  0.00000000E+00
  0.00000000E+00  0.00000000E+00  0.00000000E+00
  0.00000000E+00  0.00000000E+00  0.00000000E+00
  0.00000000E+00  0.00000000E+00  0.00000000E+00
  0.00000000E+00  0.00000000E+00  0.00000000E+00
  0.00000000E+00  0.00000000E+00  0.00000000E+00
  0.00000000E+00  0.00000000E+00  0.00000000E+00
  0.00000000E+00  0.00000000E+00  0.00000000E+00
  0.00000000E+00  0.00000000E+00  0.00000000E+00
  0.00000000E+00  0.00000000E+00  0.00000000E+00
  0.00000000E+00  0.00000000E+00  0.00000000E+00
  0.00000000E+00  0.00000000E+00  0.00000000E+00
  0.00000000E+00  0.00000000E+00  0.00000000E+00
  0.00000000E+00  0.00000000E+00  0.00000000E+00
  0.00000000E+00  0.00000000E+00  0.00000000E+00
  0.00000000E+00  0.00000000E+00  0.00000000E+00
  0.00000000E+00  0.00000000E+00  0.00000000E+00
  0.00000000E+00  0.00000000E+00  0.00000000E+00
  0.00000000E+00  0.00000000E+00  0.00000000E+00
  0.00000000E+00  0.00000000E+00  0.00000000E+00
  0.00000000E+00  0.00000000E+00  0.00000000E+00
  0.00000000E+00  0.00000000E+00  0.00000000E+00
  0.00000000E+00  0.00000000E+00  0.00000000E+00
  0.00000000E+00  0.00000000E+00  0.00000000E+00
  0.00000000E+00  0.00000000E+00  0.00000000E+00
  0.00000000E+00  0.00000000E+00  0.00000000E+00
  0.00000000E+00  0.00000000E+00  0.00000000E+00
  0.00000000E+00  0.00000000E+00  0.00000000E+00
  0.00000000E+00  0.00000000E+00  0.00000000E+00
  0.00000000E+00  0.00000000E+00  0.00000000E+00
  0.00000000E+00  0.00000000E+00  0.00000000E+00
  0.00000000E+00  0.00000000E+00  0.00000000E+00
  0.00000000E+00  0.00000000E+00  0.00000000E+00
  0.00000000E+00  0.00000000E+00  0.00000000E+00
  0.00000000E+00  0.00000000E+00  0.00000000E+00
  0.00000000E+00  0.00000000E+00  0.00000000E+00
  0.00000000E+00  0.00000000E+00  0.00000000E+00
  0.00000000E+00  0.00000000E+00  0.00000000E+00
  0.00000000E+00  0.00000000E+00  0.00000000E+00
  0.00000000E+00  0.00000000E+00  0.00000000E+00
  0.00000000E+00  0.00000000E+00  0.00000000E+00
  0.00000000E+00  0.00000000E+00  0.00000000E+00
  0.00000000E+00  0.00000000E+00  0.00000000E+00
  0.00000000E+00  0.00000000E+00  0.00000000E+00
  0.00000000E+00  0.00000000E+00  0.00000000E+00
  0.00000000E+00  0.00000000E+00  0.00000000E+00
  0.00000000E+00  0.00000000E+00  0.00000000E+00
  0.00000000E+00  0.00000000E+00  0.00000000E+00
  0.00000000E+00  0.00000000E+00  0.00000000E+00
  0.00000000E+00  0.00000000E+00  0.00000000E+00
  0.00000000E+00  0.00000000E+00  0.00000000E+00
  0.00000000E+00  0.00000000E+00  0.00000000E+00
  0.00000000E+00  0.00000000E+00  0.00000000E+00
  0.00000000E+00  0.00000000E+00  0.00000000E+00
  0.00000000E+00  0.00000000E+00  0.00000000E+00
  0.00000000E+00  0.00000000E+00  0.00000000E+00
  0.00000000E+00  0.00000000E+00  0.00000000E+00
  0.00000000E+00  0.00000000E+00  0.00000000E+00
  0.00000000E+00  0.00000000E+00  0.00000000E+00
  0.00000000E+00  0.00000000E+00  0.00000000E+00
  0.00000000E+00  0.00000000E+00  0.00000000E+00
