 B O N 
 1.0
 14.936314146199660   0.000000000000000   0.000000000000000
 -7.468157073099825  12.935227489513863   0.000000000000000
  0.000000000000001   0.000000000000001  13.341276283792837
 B O N 
 142   1 144
Cartesian
  1.241891969057824   0.721519785083291   5.002978606422314 
  4.929809438396334   7.185437073675822   5.002978606422314 
  6.223712571405743   0.741563970159750   5.002978606422314 
  9.962867866029402   7.186543483021960   5.002978606422314 
 11.211782213677026   0.706159795201338   5.002978606422314 
 -3.733179451069446   9.344382209171378  11.673616748318732 
  1.246095395302367   9.340511635199597  11.673616748318732 
  2.486921611099539   2.873844186496296  11.673616748318732 
  6.221113317578664   9.341874339607433  11.673616748318732 
  7.469377052664666   2.876767580336260  11.673616748318732 
 12.448199689890888   2.872356625635767  11.673616748318732 
 -1.251628461850154   9.353677343281575   5.002978606422314 
 -0.022388346219143   2.859264839845642   5.002978606422314 
  5.001730227560023   2.931775758068927   5.002978606422314 
  3.724586538535660   9.357676030083846   5.002978606422314 
  8.710872367970813   9.340575461968639   5.002978606422314 
  9.991448619715666   2.856354690747548   5.002978606422314 
 -4.981277643753095  11.497458323167375  11.673616748318732 
  0.000941931982130  11.500415896659849  11.673616748318732 
  1.245813332056035   5.028354078083043  11.673616748318732 
  6.221515019105774   5.029769301425226  11.673616748318732 
  4.980272288693555  11.496228541254341  11.673616748318732 
 11.202973926802372   5.032669741796743  11.673616748318732 
 -1.247525385527888   5.026855519510946   5.002978606422314 
 -2.491839152511933  11.513566069786055   5.002978606422314 
  2.487650258090459  11.500025430840845   5.002978606422314 
  7.465431807787166  11.488192486719033   5.002978606422314 
  8.764303086523050   4.995270827820796   5.002978606422314 
  0.000553897297601   7.188595978710349  11.673616748318732 
  1.246020736143317   0.716373789663441  11.673616748318732 
  4.980495634894668   7.184452218356208  11.673616748318732 
  6.221190109423883   0.718091796943569  11.673616748318732 
  9.955036771490626   7.185762423082164  11.673616748318732 
 -2.491453256768706   7.192115397386170   5.002978606422314 
 11.203040048944278   0.721028095624415  11.673616748318732 
  3.735455467823037   0.738974391622140   5.002978606422314 
  2.478846680457006   7.220391473128447   5.002978606422314 
  7.455370168661485   7.180447410742423   5.002978606422314 
  8.724745269850777   0.714501951124071   5.002978606422314 
  2.486865062849679   7.186185550839568  11.673616748318732 
 13.690572609187141   0.705956478470881   5.002978606422314 
 -1.247337879361439   9.341870000356691  11.673616748318732 
  0.000469016231702   2.876502777980868  11.673616748318732 
  4.980737962082845   2.872313794200408  11.673616748318732 
  3.735002815912241   9.344743178783414  11.673616748318732 
  8.714466225030478   9.340025631272269  11.673616748318732 
  9.954927208820221   2.874084103242555  11.673616748318732 
 -3.735709484028565   9.350352225101268   5.002978606422314 
  1.234825877839530   9.353062465819169   5.002978606422314 
  2.445620814853757   2.890708500968412   5.002978606422314 
  6.211335915801159   9.321217041027637   5.002978606422314 
  7.528563075631221   2.874295005068664   5.002978606422314 
 12.453546807699174   2.863450017053203   5.002978606422314 
 -1.247592503816104   5.029964166218396  11.673616748318732 
 -2.487771999379574  11.495885836929846  11.673616748318732 
  2.486795883569624  11.497917268955904  11.673616748318732 
  3.735193737704072   5.032533103596728  11.673616748318732 
  7.469037971051163  11.500286965601040  11.673616748318732 
 -4.979019921004530  11.505896234079033   5.002978606422314 
  8.714545271163335   5.028248453907415  11.673616748318732 
 -0.005581359194990  11.510408231349835   5.002978606422314 
  1.202928179793453   5.000779621132999   5.002978606422314 
 -0.014491670803438   7.194555882195228   5.002978606422314 
  4.979746529908430  11.490006497164202   5.002978606422314 
 11.223453975592445   5.024598314233945   5.002978606422314 
 -2.488042384937686   7.184198416491751  11.673616748318732 
  3.735141067577647   0.720686706168535  11.673616748318732 
  7.469415932391585   7.188425528886622  11.673616748318732 
  8.714487365364851   0.716640843510043  11.673616748318732 
 13.688896287323050   0.718200878261930  11.673616748318732 
 -0.000359922910452   1.435996689817657   1.668406801371043 
  3.734706007287611   7.905828091367717   1.669724688695448 
  4.979469448698768   1.436360488181221   1.668692970341000 
  8.713631868256993   7.904750306659567   1.669216502055223 
  9.957706037571629   1.437205360090517   1.668443801337108 
 -4.978477194637296  10.060360244688818   8.337243091244847 
 -0.001111932238283  10.061408720497621   8.337090082612177 
  1.243626881472204   3.591796610552142   8.337943488988227 
  4.979680478742579  10.061303282892442   8.337963650094823 
  6.225291561582710   3.593651607111215   8.332786639649933 
 11.202074748026215   3.593031531584284   8.337057617322081 
 -2.490020432643971  10.060748080652695   1.668283108118651 
 -1.245727916474990   3.592665595187081   1.667982967839843 
  3.735249133483205   3.591416101861913   1.672619491109300 
  2.488878784197374  10.061610041697181   1.667991854016082 
  7.469331786008739  10.060730804008177   1.669044530053608 
  8.713385361109546   3.593340975409257   1.668615143185564 
 -6.223138857947558  12.215585569021794   8.337875463791201 
 -1.244911539165505  12.216461449210142   8.337428103250446 
 -0.001861015816050   5.749351937213826   8.337315173171820 
  4.982330248217108   5.747666240516900   8.333329211649334 
  3.734165045234408  12.216761942009139   8.337006165182247 
  9.957404950195643   5.748865882628667   8.336754767924820 
 -2.490503287555418   5.749238319776446   1.668160784958058 
 -3.733945381568862  12.215598669322681   1.668961452101116 
  1.244368890036159  12.216942620676296   1.668164167730648 
  2.488945355342301   5.748935937233148   1.671166973342958 
  6.223911125514642  12.216213657950520   1.668335077704981 
  7.469164532281406   5.748375205816324   1.673993393095177 
 -1.246250468979626   7.905468641474750   8.337612446499689 
 -0.000359922910451   1.435996689817657   8.337550411473570 
  3.734706007287611   7.905828091367718   8.336232524149180 
  4.979469448698769   1.436360488181222   8.337264242503627 
  8.713631868256993   7.904750306659568   8.336740710789405 
 -3.734605838400414   7.904942214579681   1.669338300927685 
  9.957706037571629   1.437205360090518   8.337513411507521 
  2.489433504986230   1.435198798161330   1.668553216271960 
  1.243120889368517   7.905991755208532   1.667927347834029 
  6.225860674024067   7.905055470134177   1.670707567419010 
  7.468644673904530   1.437442243332173   1.669520340969314 
  1.243120889368517   7.905991755208533   8.338029865010599 
 12.446807109732974   1.436854741797344   1.667926445138607 
 -2.490020432643971  10.060748080652695   8.337674104725977 
 -1.245727916474990   3.592665595187082   8.337974245004785 
  3.735249133483206   3.591416101861914   8.333337721735328 
  2.488878784197375  10.061610041697181   8.337965358828546 
  7.469331786008740  10.060730804008177   8.336912682791018 
  8.713385361109546   3.593340975409258   8.337342069659078 
 -4.978477194637297  10.060360244688818   1.668714121599780 
 -0.001111932238284  10.061408720497621   1.668867130232451 
  1.243626881472204   3.591796610552141   1.668013723856402 
  4.979680478742578  10.061303282892442   1.667993562749819 
  6.225291561582710   3.593651607111214   1.673170573194694 
 11.202074748026215   3.593031531584284   1.668899595522548 
 -2.490503287555417   5.749238319776447   8.337796427886570 
 -3.733945381568861  12.215598669322681   8.336995760743527 
  1.244368890036160  12.216942620676296   8.337793045113980 
  2.488945355342301   5.748935937233149   8.334790239501668 
  6.223911125514643  12.216213657950520   8.337622135139647 
 -6.223138857947559  12.215585569021794   1.668081749053440 
  7.469164532281407   5.748375205816325   8.331963819749452 
 -1.244911539165505  12.216461449210142   1.668529109594182 
 -0.001861015816050   5.749351937213825   1.668642039672794 
 -1.246250468979626   7.905468641474749   1.668344766344940 
  4.982330248217107   5.747666240516899   1.672628001195281 
  3.734165045234407  12.216761942009139   1.668951047662380 
  9.957404950195643   5.748865882628666   1.669202444919820 
 -3.734605838400414   7.904942214579682   8.336618911916931 
  2.489433504986230   1.435198798161331   8.337403996572668 
  6.225860674024068   7.905055470134178   8.335249645425618 
  7.468644673904531   1.437442243332174   8.336436871875314 
 12.446807109732974   1.436854741797345   8.338030767706007 
  3.706030448349716   5.076159019977086   5.002978606422314 
  4.914178347180998   5.679705533746614   5.002978606422314 
  1.244853205261510   0.718356585289437   1.668170419587101 
  4.978780930908175   7.185690420250332   1.678808490864408 
  6.223473512871995   0.718692815142552   1.667823550356276 
  9.957644514679984   7.186132739812002   1.667383102255943 
 11.202495253323583   0.718191302687222   1.666986425389741 
 -3.734120582228505   9.341989749016136   8.338915939471669 
  1.244532627568800   9.341949713270187   8.337546402064183 
  2.489419506572704   2.874421565503413   8.331715816795946 
  6.223718089134312   9.341765606866273   8.336660916889889 
  7.468519762824751   2.874425280015807   8.337185748761595 
 12.447247358759363   2.874198466043029   8.338884231336756 
 -1.244862626907837   9.342071024836878   1.667352419852424 
  0.000108834924449   2.874138201128897   1.668494321805214 
  4.978762823445154   2.874677136697737   1.672610287494548 
  3.734140100698540   9.341656570688375   1.669564973191356 
  8.712996199367725   9.341987469813013   1.667517661141944 
  9.957965759377688   2.874233423854995   1.666993151269852 
 -4.978644788009801  11.497858647328080   8.338587604596807 
 -0.000164447091075  11.497949212704913   8.338639916164928 
  1.244816876630576   5.030113192980111   8.331939289781234 
  6.223785023352373   5.030365124432482   8.339726536680729 
  4.979001022590308  11.497520507950735   8.338182719852108 
 11.202428459620670   5.030202291881836   8.338633674494286 
 -1.244594092698653   5.030259470471914   1.668274353708167 
 -2.489446410022475  11.497980263657215   1.667121463199317 
  2.489358480426834  11.497702878758563   1.667452834283023 
  3.734154818131143   5.030314076446180   1.686461671411501 
  7.468431360744692  11.497705427601042   1.667295486745300 
  8.713279252396580   5.030147559125135   1.667731924465867 
 -0.000095336742738   7.186119030364413   8.337020113951532 
  1.244853205261511   0.718356585289438   8.337786793257539 
  4.978780930908176   7.185690420250333   8.327148721980219 
  6.223473512871996   0.718692815142552   8.338133662488351 
  9.957644514679984   7.186132739812003   8.338574110588699 
 -2.489488328222154   7.186173943724388   1.667429316490662 
 11.202495253323583   0.718191302687223   8.338970787454887 
  3.734113690905256   0.718595137271988   1.668552276877356 
  2.489541195890538   7.186054226350521   1.674616657356415 
  7.468203079596942   7.186271271618996   1.670067859957413 
  8.712903369117234   0.718507816804810   1.667352079910754 
  2.489541195890539   7.186054226350522   8.331340555488213 
 13.691937384945328   0.718182892402753   1.667143451813924 
 -1.244862626907837   9.342071024836878   8.338604792992204 
  0.000108834924449   2.874138201128898   8.337462891039413 
  4.978762823445155   2.874677136697738   8.333346925350080 
  3.734140100698541   9.341656570688375   8.336392239653271 
  8.712996199367725   9.341987469813013   8.338439551702685 
  9.957965759377688   2.874233423854996   8.338964061574789 
 -3.734120582228505   9.341989749016136   1.667041273372946 
  1.244532627568800   9.341949713270187   1.668410810780432 
  2.489419506572703   2.874421565503412   1.674241396048682 
  6.223718089134311   9.341765606866273   1.669296295954740 
  7.468519762824750   2.874425280015806   1.668771464083047 
 12.447247358759363   2.874198466043028   1.667072981507870 
 -1.244594092698652   5.030259470471915   8.337682859136448 
 -2.489446410022474  11.497980263657215   8.338835749645311 
  2.489358480426835  11.497702878758563   8.338504378561606 
  3.734154818131143   5.030314076446181   8.319495541433113 
  7.468431360744693  11.497705427601042   8.338661726099327 
 -4.978644788009801  11.497858647328080   1.667369608247808 
  8.713279252396580   5.030147559125136   8.338225288378760 
 -0.000164447091076  11.497949212704913   1.667317296679700 
  1.244816876630576   5.030113192980110   1.674017923063394 
 -0.000095336742738   7.186119030364412   1.668937098893109 
  6.223785023352372   5.030365124432481   1.666230676163885 
  4.979001022590307  11.497520507950735   1.667774492992520 
 11.202428459620670   5.030202291881835   1.667323538350342 
 -2.489488328222154   7.186173943724389   8.338527896353966 
  3.734113690905257   0.718595137271989   8.337404935967285 
  7.468203079596943   7.186271271618997   8.335889352887202 
  8.712903369117234   0.718507816804811   8.338605132933873 
 13.691937384945328   0.718182892402753   8.338813761030691 
 -0.002208727572165   1.431694654149682   5.002978606422314 
  3.717286929789287   7.904579819736873   5.002978606422314 
  4.969983508232383   1.479953316830220   5.002978606422314 
  8.710519425927497   7.902560113132113   5.002978606422314 
  9.972542494811085   1.424101139581623   5.002978606422314 
 -4.978800338356264  10.060685368140589  11.673616748318732 
 -0.000040067636532  10.060786136395743  11.673616748318732 
  1.244658676850979   3.593107522922420  11.673616748318732 
  4.978737450758437  10.060729162821389  11.673616748318732 
  6.223497101593206   3.593083594540041  11.673616748318732 
 11.202144055885221   3.593110066492114  11.673616748318732 
 -2.492860308243439  10.074462450421064   5.002978606422314 
 -1.243782805110208   3.590974848371777   5.002978606422314 
  3.712625652167161   3.611327601375056   5.002978606422314 
  2.482983979020921  10.059732973499395   5.002978606422314 
  7.455947471529597  10.043685663003199   5.002978606422314 
  8.758611042554788   3.574888292416554   5.002978606422314 
 -6.223529571642698  12.216610715543098  11.673616748318732 
 -1.244676555921516  12.216623475568738  11.673616748318732 
 -0.000110198498471   5.748959653840747  11.673616748318732 
  4.978644447802499   5.748977180723606  11.673616748318732 
  3.734029262653272  12.216649605442189  11.673616748318732 
  9.957580699407330   5.748958457405405  11.673616748318732 
 -2.476959296416974   5.752836181489040   5.002978606422314 
 -3.735904060109269  12.237987476463317   5.002978606422314 
  1.244872425807191  12.216014839644549   5.002978606422314 
  2.427880954643324   5.771612098687621   5.002978606422314 
  6.223246490135746  12.205144353267634   5.002978606422314 
  7.617058595871579   5.792121757191410   5.002978606422314 
 -1.244738785700723   7.904808516565323  11.673616748318732 
 -0.000101216356554   1.437152055129041  11.673616748318732 
  3.734092172773848   7.904861612065859  11.673616748318732 
  4.978789673180406   1.437198972813488  11.673616748318732 
  8.712809589923605   7.904793853992066  11.673616748318732 
 -3.732878582185247   7.911918723831348   5.002978606422314 
  9.957491070124595   1.437198820666560  11.673616748318732 
  2.492013081906313   1.464878551987321   5.002978606422314 
  1.235431351432823   7.903604178863723   5.002978606422314 
  6.184376470804192   7.859209685531976   5.002978606422314 
  7.479400802066038   1.436151113786484   5.002978606422314 
  1.244746003088955   7.904815273540327  11.673616748318732 
 12.453848009836650   1.427291485713655   5.002978606422314 
 -2.489389508429195  10.060677593700150  11.673616748318732 
 -1.244763804099121   3.593027090067895  11.673616748318732 
  3.734096744072207   3.593090857014926  11.673616748318732 
  2.489327834522751  10.060741598130237  11.673616748318732 
  7.468149321680172  10.060739842809893  11.673616748318732 
  8.712829765447932   3.593052407361749  11.673616748318732 
 -4.982478894087192  10.066940838982056   5.002978606422314 
 -0.005168626786048  10.068986054003030   5.002978606422314 
  1.222139567128981   3.591008444467614   5.002978606422314 
  4.973972920609688  10.046218360309945   5.002978606422314 
  6.264599917014426   3.496789330740516   5.002978606422314 
 11.222606811420102   3.586862184712511   5.002978606422314 
 -2.489435851984144   5.748958727198032  11.673616748318732 
 -3.734085034049226  12.216530624702713  11.673616748318732 
  1.244670571501249  12.216583971664679  11.673616748318732 
  2.489379007027410   5.748955700071802  11.673616748318732 
  6.223413512770299  12.216557887152629  11.673616748318732 
 -6.225465172162945  12.220264639128500   5.002978606422314 
  7.468220575337694   5.748936197122126  11.673616748318732 
 -1.249988490043356  12.237380208240907   5.002978606422314 
  0.001740109924442   5.754645889851784   5.002978606422314 
 -1.247592832905687   7.913023311913882   5.002978606422314 
  3.737506622429059  12.204882972578405   5.002978606422314 
  9.988988634661878   5.749323664428126   5.002978606422314 
 -3.734146409953190   7.904779408618303  11.673616748318732 
  2.489324980984493   1.437198998824536  11.673616748318732 
  6.223396707245324   7.904804368790098  11.673616748318732 
  7.468189832300403   1.437168276604548  11.673616748318732 
 12.446903928629103   1.437217465442229  11.673616748318732 
Generated by cif2cell 2.0.0.  :  Failed to get author information, No journal information. Species order: B O N 
 1.0
 14.936314146199660   0.000000000000000   0.000000000000000
 -7.468157073099825  12.935227489513863   0.000000000000000
  0.000000000000001   0.000000000000001  13.341276283792837
 B O N 
 142   1 144
Cartesian
  1.241891969057824   0.721519785083291   5.002978606422314 
  4.929809438396334   7.185437073675822   5.002978606422314 
  6.223712571405743   0.741563970159750   5.002978606422314 
  9.962867866029402   7.186543483021960   5.002978606422314 
 11.211782213677026   0.706159795201338   5.002978606422314 
 -3.733179451069446   9.344382209171378  11.673616748318732 
  1.246095395302367   9.340511635199597  11.673616748318732 
  2.486921611099539   2.873844186496296  11.673616748318732 
  6.221113317578664   9.341874339607433  11.673616748318732 
  7.469377052664666   2.876767580336260  11.673616748318732 
 12.448199689890888   2.872356625635767  11.673616748318732 
 -1.251628461850154   9.353677343281575   5.002978606422314 
 -0.022388346219143   2.859264839845642   5.002978606422314 
  5.001730227560023   2.931775758068927   5.002978606422314 
  3.724586538535660   9.357676030083846   5.002978606422314 
  8.710872367970813   9.340575461968639   5.002978606422314 
  9.991448619715666   2.856354690747548   5.002978606422314 
 -4.981277643753095  11.497458323167375  11.673616748318732 
  0.000941931982130  11.500415896659849  11.673616748318732 
  1.245813332056035   5.028354078083043  11.673616748318732 
  6.221515019105774   5.029769301425226  11.673616748318732 
  4.980272288693555  11.496228541254341  11.673616748318732 
 11.202973926802372   5.032669741796743  11.673616748318732 
 -1.247525385527888   5.026855519510946   5.002978606422314 
 -2.491839152511933  11.513566069786055   5.002978606422314 
  2.487650258090459  11.500025430840845   5.002978606422314 
  7.465431807787166  11.488192486719033   5.002978606422314 
  8.764303086523050   4.995270827820796   5.002978606422314 
  0.000553897297601   7.188595978710349  11.673616748318732 
  1.246020736143317   0.716373789663441  11.673616748318732 
  4.980495634894668   7.184452218356208  11.673616748318732 
  6.221190109423883   0.718091796943569  11.673616748318732 
  9.955036771490626   7.185762423082164  11.673616748318732 
 -2.491453256768706   7.192115397386170   5.002978606422314 
 11.203040048944278   0.721028095624415  11.673616748318732 
  3.735455467823037   0.738974391622140   5.002978606422314 
  2.478846680457006   7.220391473128447   5.002978606422314 
  7.455370168661485   7.180447410742423   5.002978606422314 
  8.724745269850777   0.714501951124071   5.002978606422314 
  2.486865062849679   7.186185550839568  11.673616748318732 
 13.690572609187141   0.705956478470881   5.002978606422314 
 -1.247337879361439   9.341870000356691  11.673616748318732 
  0.000469016231702   2.876502777980868  11.673616748318732 
  4.980737962082845   2.872313794200408  11.673616748318732 
  3.735002815912241   9.344743178783414  11.673616748318732 
  8.714466225030478   9.340025631272269  11.673616748318732 
  9.954927208820221   2.874084103242555  11.673616748318732 
 -3.735709484028565   9.350352225101268   5.002978606422314 
  1.234825877839530   9.353062465819169   5.002978606422314 
  2.445620814853757   2.890708500968412   5.002978606422314 
  6.211335915801159   9.321217041027637   5.002978606422314 
  7.528563075631221   2.874295005068664   5.002978606422314 
 12.453546807699174   2.863450017053203   5.002978606422314 
 -1.247592503816104   5.029964166218396  11.673616748318732 
 -2.487771999379574  11.495885836929846  11.673616748318732 
  2.486795883569624  11.497917268955904  11.673616748318732 
  3.735193737704072   5.032533103596728  11.673616748318732 
  7.469037971051163  11.500286965601040  11.673616748318732 
 -4.979019921004530  11.505896234079033   5.002978606422314 
  8.714545271163335   5.028248453907415  11.673616748318732 
 -0.005581359194990  11.510408231349835   5.002978606422314 
  1.202928179793453   5.000779621132999   5.002978606422314 
 -0.014491670803438   7.194555882195228   5.002978606422314 
  4.979746529908430  11.490006497164202   5.002978606422314 
 11.223453975592445   5.024598314233945   5.002978606422314 
 -2.488042384937686   7.184198416491751  11.673616748318732 
  3.735141067577647   0.720686706168535  11.673616748318732 
  7.469415932391585   7.188425528886622  11.673616748318732 
  8.714487365364851   0.716640843510043  11.673616748318732 
 13.688896287323050   0.718200878261930  11.673616748318732 
 -0.000359922910452   1.435996689817657   1.668406801371043 
  3.734706007287611   7.905828091367717   1.669724688695448 
  4.979469448698768   1.436360488181221   1.668692970341000 
  8.713631868256993   7.904750306659567   1.669216502055223 
  9.957706037571629   1.437205360090517   1.668443801337108 
 -4.978477194637296  10.060360244688818   8.337243091244847 
 -0.001111932238283  10.061408720497621   8.337090082612177 
  1.243626881472204   3.591796610552142   8.337943488988227 
  4.979680478742579  10.061303282892442   8.337963650094823 
  6.225291561582710   3.593651607111215   8.332786639649933 
 11.202074748026215   3.593031531584284   8.337057617322081 
 -2.490020432643971  10.060748080652695   1.668283108118651 
 -1.245727916474990   3.592665595187081   1.667982967839843 
  3.735249133483205   3.591416101861913   1.672619491109300 
  2.488878784197374  10.061610041697181   1.667991854016082 
  7.469331786008739  10.060730804008177   1.669044530053608 
  8.713385361109546   3.593340975409257   1.668615143185564 
 -6.223138857947558  12.215585569021794   8.337875463791201 
 -1.244911539165505  12.216461449210142   8.337428103250446 
 -0.001861015816050   5.749351937213826   8.337315173171820 
  4.982330248217108   5.747666240516900   8.333329211649334 
  3.734165045234408  12.216761942009139   8.337006165182247 
  9.957404950195643   5.748865882628667   8.336754767924820 
 -2.490503287555418   5.749238319776446   1.668160784958058 
 -3.733945381568862  12.215598669322681   1.668961452101116 
  1.244368890036159  12.216942620676296   1.668164167730648 
  2.488945355342301   5.748935937233148   1.671166973342958 
  6.223911125514642  12.216213657950520   1.668335077704981 
  7.469164532281406   5.748375205816324   1.673993393095177 
 -1.246250468979626   7.905468641474750   8.337612446499689 
 -0.000359922910451   1.435996689817657   8.337550411473570 
  3.734706007287611   7.905828091367718   8.336232524149180 
  4.979469448698769   1.436360488181222   8.337264242503627 
  8.713631868256993   7.904750306659568   8.336740710789405 
 -3.734605838400414   7.904942214579681   1.669338300927685 
  9.957706037571629   1.437205360090518   8.337513411507521 
  2.489433504986230   1.435198798161330   1.668553216271960 
  1.243120889368517   7.905991755208532   1.667927347834029 
  6.225860674024067   7.905055470134177   1.670707567419010 
  7.468644673904530   1.437442243332173   1.669520340969314 
  1.243120889368517   7.905991755208533   8.338029865010599 
 12.446807109732974   1.436854741797344   1.667926445138607 
 -2.490020432643971  10.060748080652695   8.337674104725977 
 -1.245727916474990   3.592665595187082   8.337974245004785 
  3.735249133483206   3.591416101861914   8.333337721735328 
  2.488878784197375  10.061610041697181   8.337965358828546 
  7.469331786008740  10.060730804008177   8.336912682791018 
  8.713385361109546   3.593340975409258   8.337342069659078 
 -4.978477194637297  10.060360244688818   1.668714121599780 
 -0.001111932238284  10.061408720497621   1.668867130232451 
  1.243626881472204   3.591796610552141   1.668013723856402 
  4.979680478742578  10.061303282892442   1.667993562749819 
  6.225291561582710   3.593651607111214   1.673170573194694 
 11.202074748026215   3.593031531584284   1.668899595522548 
 -2.490503287555417   5.749238319776447   8.337796427886570 
 -3.733945381568861  12.215598669322681   8.336995760743527 
  1.244368890036160  12.216942620676296   8.337793045113980 
  2.488945355342301   5.748935937233149   8.334790239501668 
  6.223911125514643  12.216213657950520   8.337622135139647 
 -6.223138857947559  12.215585569021794   1.668081749053440 
  7.469164532281407   5.748375205816325   8.331963819749452 
 -1.244911539165505  12.216461449210142   1.668529109594182 
 -0.001861015816050   5.749351937213825   1.668642039672794 
 -1.246250468979626   7.905468641474749   1.668344766344940 
  4.982330248217107   5.747666240516899   1.672628001195281 
  3.734165045234407  12.216761942009139   1.668951047662380 
  9.957404950195643   5.748865882628666   1.669202444919820 
 -3.734605838400414   7.904942214579682   8.336618911916931 
  2.489433504986230   1.435198798161331   8.337403996572668 
  6.225860674024068   7.905055470134178   8.335249645425618 
  7.468644673904531   1.437442243332174   8.336436871875314 
 12.446807109732974   1.436854741797345   8.338030767706007 
  3.706030448349716   5.076159019977086   5.002978606422314 
  4.914178347180998   5.679705533746614   5.002978606422314 
  1.244853205261510   0.718356585289437   1.668170419587101 
  4.978780930908175   7.185690420250332   1.678808490864408 
  6.223473512871995   0.718692815142552   1.667823550356276 
  9.957644514679984   7.186132739812002   1.667383102255943 
 11.202495253323583   0.718191302687222   1.666986425389741 
 -3.734120582228505   9.341989749016136   8.338915939471669 
  1.244532627568800   9.341949713270187   8.337546402064183 
  2.489419506572704   2.874421565503413   8.331715816795946 
  6.223718089134312   9.341765606866273   8.336660916889889 
  7.468519762824751   2.874425280015807   8.337185748761595 
 12.447247358759363   2.874198466043029   8.338884231336756 
 -1.244862626907837   9.342071024836878   1.667352419852424 
  0.000108834924449   2.874138201128897   1.668494321805214 
  4.978762823445154   2.874677136697737   1.672610287494548 
  3.734140100698540   9.341656570688375   1.669564973191356 
  8.712996199367725   9.341987469813013   1.667517661141944 
  9.957965759377688   2.874233423854995   1.666993151269852 
 -4.978644788009801  11.497858647328080   8.338587604596807 
 -0.000164447091075  11.497949212704913   8.338639916164928 
  1.244816876630576   5.030113192980111   8.331939289781234 
  6.223785023352373   5.030365124432482   8.339726536680729 
  4.979001022590308  11.497520507950735   8.338182719852108 
 11.202428459620670   5.030202291881836   8.338633674494286 
 -1.244594092698653   5.030259470471914   1.668274353708167 
 -2.489446410022475  11.497980263657215   1.667121463199317 
  2.489358480426834  11.497702878758563   1.667452834283023 
  3.734154818131143   5.030314076446180   1.686461671411501 
  7.468431360744692  11.497705427601042   1.667295486745300 
  8.713279252396580   5.030147559125135   1.667731924465867 
 -0.000095336742738   7.186119030364413   8.337020113951532 
  1.244853205261511   0.718356585289438   8.337786793257539 
  4.978780930908176   7.185690420250333   8.327148721980219 
  6.223473512871996   0.718692815142552   8.338133662488351 
  9.957644514679984   7.186132739812003   8.338574110588699 
 -2.489488328222154   7.186173943724388   1.667429316490662 
 11.202495253323583   0.718191302687223   8.338970787454887 
  3.734113690905256   0.718595137271988   1.668552276877356 
  2.489541195890538   7.186054226350521   1.674616657356415 
  7.468203079596942   7.186271271618996   1.670067859957413 
  8.712903369117234   0.718507816804810   1.667352079910754 
  2.489541195890539   7.186054226350522   8.331340555488213 
 13.691937384945328   0.718182892402753   1.667143451813924 
 -1.244862626907837   9.342071024836878   8.338604792992204 
  0.000108834924449   2.874138201128898   8.337462891039413 
  4.978762823445155   2.874677136697738   8.333346925350080 
  3.734140100698541   9.341656570688375   8.336392239653271 
  8.712996199367725   9.341987469813013   8.338439551702685 
  9.957965759377688   2.874233423854996   8.338964061574789 
 -3.734120582228505   9.341989749016136   1.667041273372946 
  1.244532627568800   9.341949713270187   1.668410810780432 
  2.489419506572703   2.874421565503412   1.674241396048682 