Species order:X N B                     
   2.51242800000000     
     5.9449720136058266    0.0000000000000000    0.0000000000000000
    -2.9724860068029120    5.1484967885702053   -0.0000000000000001
     0.0000000000000000    0.0000000000000009    5.3101128803662583
   O    N    B 
     1   144   142
Direct
  0.4443366790508646  0.3924290488197563  0.3750000000000000
  0.5485528615566831  0.4390881828982869  0.3750000000000000
  0.1111115203461871  0.0555349015602381  0.1250382934962238
  0.6110906037467977  0.5555132622194331  0.1258356738255885
  0.4444477357787934  0.0555608949069643  0.1250122937924892
  0.9444472075483240  0.5555474571775061  0.1249792798520706
  0.7777784453077754  0.0555221238489566  0.1249495467997179
  0.1111036965270903  0.7222130230480572  0.6250463420506401
  0.4444275705710320  0.7222099279539825  0.6249436878983422
  0.2777772033026097  0.2222165453088168  0.6245066543534090
  0.7777815104351391  0.7221956950072436  0.6248773160493926
  0.6111326986470652  0.2222168324713273  0.6249166550047179
  0.9444543331610996  0.2221992978765188  0.6250439653563685
  0.2777649528164148  0.7222193063407789  0.1249769800418526
  0.1111046060487843  0.2221946389005419  0.1250625716995405
  0.4444509118630125  0.2222363030745406  0.1253710853380989
  0.6110977545812302  0.7221872656094627  0.1251428227462442
  0.9444495503878764  0.7222128468468165  0.1249893657601310
  0.7777959867903603  0.2222020004043254  0.1249500509403989
  0.1111148962779121  0.8888795080449096  0.6250217315959969
  0.4444322448642187  0.8888865094971002  0.6250256526277637
  0.2777763002331844  0.3888693258048885  0.6245234048486786
  0.6111325453333516  0.3888888021884750  0.6251071006461314
  0.7777753915161637  0.8888533670761776  0.6249913833192592
  0.9444510184265333  0.3888762138864312  0.6250251847811721
  0.1111135953908831  0.3888806342640486  0.1250460839143862
  0.2777737231372181  0.8888889099923621  0.1249596686056608
  0.6110985778149800  0.8888674658469942  0.1249845066403931
  0.4444475350007783  0.3888848557572009  0.1264093206330072
  0.9444521952574471  0.8888676628935852  0.1249727126010237
  0.7777980689216352  0.3888719825919494  0.1250054259420330
  0.2777668157791406  0.5555463973238929  0.6249042397899706
  0.1111115203461871  0.0555349015602381  0.6249617065037768
  0.6110906037467977  0.5555132622194331  0.6241643261744119
  0.4444477357787934  0.0555608949069643  0.6249877062075112
  0.9444472075483240  0.5555474571775061  0.6250207201479295
  0.1111017829691804  0.5555506425805011  0.1249827438560937
  0.7777784453077754  0.0555221238489566  0.6250504532002817
  0.2777790254166047  0.0555533436002213  0.1250669157421121
  0.4444477715791942  0.5555413874379868  0.1255214734883171
  0.7777821635929945  0.5555581668312100  0.1251805167985493
  0.6111102083968131  0.0555465930063679  0.1249769545614073
  0.4444477715791942  0.5555413874379868  0.6244785265116826
  0.9444485656316128  0.0555214736644527  0.1249613167699104
  0.2777649528164148  0.7222193063407789  0.6250230199581467
  0.1111046060487843  0.2221946389005419  0.6249374283004598
  0.4444509118630125  0.2222363030745406  0.6246289146619007
  0.6110977545812302  0.7221872656094627  0.6248571772537557
  0.9444495503878764  0.7222128468468165  0.6250106342398692
  0.7777959867903603  0.2222020004043254  0.6250499490596021
  0.1111036965270903  0.7222130230480572  0.1249536579493588
  0.4444275705710320  0.7222099279539825  0.1250563121016567
  0.2777772033026097  0.2222165453088168  0.1254933456465912
  0.7777815104351391  0.7221956950072436  0.1251226839506069
  0.6111326986470652  0.2222168324713273  0.1250833449952826
  0.9444543331610996  0.2221992978765188  0.1249560346436314
  0.1111135953908831  0.3888806342640486  0.6249539160856131
  0.2777737231372181  0.8888889099923621  0.6250403313943391
  0.6110985778149800  0.8888674658469942  0.6250154933596066
  0.4444475350007783  0.3888848557572009  0.6235906793669922
  0.9444521952574471  0.8888676628935852  0.6250272873989757
  0.1111148962779121  0.8888795080449096  0.1249782684040023
  0.7777980689216352  0.3888719825919494  0.6249945740579671
  0.4444322448642187  0.8888865094971002  0.1249743473722357
  0.2777763002331844  0.3888693258048885  0.1254765951513214
  0.2777668157791406  0.5555463973238929  0.1250957602100296
  0.6111325453333516  0.3888888021884750  0.1248928993538680
  0.7777753915161637  0.8888533670761776  0.1250086166807407
  0.9444510184265333  0.3888762138864312  0.1249748152188280
  0.1111017829691804  0.5555506425805011  0.6250172561439064
  0.2777790254166047  0.0555533436002213  0.6249330842578891
  0.7777821635929945  0.5555581668312100  0.6248194832014496
  0.6111102083968131  0.0555465930063679  0.6250230454385927
  0.9444485656316128  0.0555214736644527  0.6250386832300894
  0.0551930388132768  0.1106818303203639  0.3750000000000000
  0.5544204638098224  0.6110893547210394  0.3750000000000000
  0.3899512889914902  0.1144126238235829  0.3750000000000000
  0.8886439120530035  0.6109332147067724  0.3750000000000000
  0.7227183069022656  0.1100947888806817  0.3750000000000000
  0.0555517953793775  0.7777741347259975  0.8750000000000000
  0.3888882799073070  0.7777819249450125  0.8750000000000000
  0.2222195007382061  0.2777769100570692  0.8750000000000000
  0.7222198218093805  0.7777775204168053  0.8750000000000000
  0.5555563977096060  0.2777750601953333  0.8750000000000000
  0.8888824237390878  0.2777771066960304  0.8750000000000000
  0.2225203130381099  0.7788392170596212  0.3750000000000000
  0.0555336130541582  0.2776120366868577  0.3750000000000000
  0.3881564459748653  0.2791854727180200  0.3750000000000000
  0.5550883195206516  0.7777005067482937  0.3750000000000000
  0.8874125144249799  0.7764599170092111  0.3750000000000000
  0.7245812892371417  0.2763684129494119  0.3750000000000000
  0.0555514503403802  0.9444449837041273  0.8750000000000000
  0.3888907423498629  0.9444459701595762  0.8750000000000000
  0.2222136715068518  0.4444420987958063  0.8750000000000000
  0.5555465618517086  0.4444434537687179  0.8750000000000000
  0.7222206961745836  0.9444479902147679  0.8750000000000000
  0.8888902096189758  0.4444420063014647  0.8750000000000000
  0.0565361851192970  0.4447417864241401  0.3750000000000000
  0.2229265715205414  0.9460975840111221  0.3750000000000000
  0.5555448151853212  0.9443989175720057  0.3750000000000000
  0.3856455278790642  0.4461933200143925  0.3750000000000000
  0.8884313585068339  0.9435585391259576  0.3750000000000000
  0.7338585372719963  0.4477788861376334  0.3750000000000000
  0.2222171083670721  0.6111070348761531  0.8750000000000000
  0.0555450897335137  0.1111037325237679  0.8750000000000000
  0.5555564827563618  0.6111111395972013  0.8750000000000000
  0.3888882377645511  0.1111073596485695  0.8750000000000000
  0.8888835839591955  0.6111059013380482  0.8750000000000000
  0.0559086943841271  0.6116567126666506  0.3750000000000000
  0.7222168796483243  0.1111073478863549  0.8750000000000000
  0.2234661828584756  0.1132472199019961  0.3750000000000000
  0.3882202325761461  0.6110139296174655  0.3750000000000000
  0.7178406394921600  0.6075818683438819  0.3750000000000000
  0.5562659537608636  0.1110263514847903  0.3750000000000000
  0.3888906709048843  0.6111075572461704  0.8750000000000000
  0.8889673183998924  0.1103414290062316  0.3750000000000000
  0.2222198446039039  0.7777735336974935  0.8750000000000000
  0.0555472618904628  0.2777706919326028  0.8750000000000000
  0.3888890298327354  0.2777756216446691  0.8750000000000000
  0.5555520340044370  0.7777784817689624  0.8750000000000000
  0.8888886540694040  0.7777783460681912  0.8750000000000000
  0.7222183086444612  0.2777726491686756  0.8750000000000000
  0.0555473124824574  0.7782577343261243  0.3750000000000000
  0.3888618788482667  0.7784158463518019  0.3750000000000000
  0.2206306875276206  0.2776146339427520  0.3750000000000000
  0.7213399296381091  0.7766557154448236  0.3750000000000000
  0.5545860978375631  0.2703307176913001  0.3750000000000000
  0.8900109176327338  0.2772940937931129  0.3750000000000000
  0.0555509885907678  0.4444420271586648  0.8750000000000000
  0.2222189609965218  0.9444387920201814  0.8750000000000000
  0.5555533001581088  0.9444429161812761  0.8750000000000000
  0.3888871157347062  0.4444417931367867  0.8750000000000000
  0.8888837210796425  0.9444408996328951  0.8750000000000000
  0.0555630993485406  0.9447274621984845  0.3750000000000000
  0.7222243942321485  0.4444402853975773  0.8750000000000000
  0.3893374369633146  0.9460506371582038  0.3750000000000000
  0.2225573478827184  0.4448816918385762  0.3750000000000000
  0.2223435630654917  0.6117421064553128  0.3750000000000000
  0.7219986796286599  0.9435383322382604  0.3750000000000000
  0.8910071165960211  0.4444702398229103  0.3750000000000000
  0.0555478481087165  0.6111047845912592  0.8750000000000000
  0.2222162829026586  0.1111073616594394  0.8750000000000000
  0.7222155032272297  0.6111067142188451  0.8750000000000000
  0.5555546865476264  0.1111049865779019  0.8750000000000000
  0.8888860858998653  0.1111087892816207  0.8750000000000000
  0.1110355335973745  0.0557794430494714  0.3750000000000000
  0.6078021242903504  0.5554936764352075  0.3750000000000000
  0.4453478056292275  0.0573290242294468  0.3750000000000000
  0.9448127926584655  0.5555792110225996  0.3750000000000000
  0.7779351483768724  0.0545919888748607  0.3750000000000000
  0.1112591845980405  0.7223979799927400  0.8750000000000000
  0.4444766116507270  0.7220987526328100  0.8750000000000000
  0.2775876488134205  0.2221719091392884  0.8750000000000000
  0.7776113215482833  0.7222041009468568  0.8750000000000000
  0.6112806345795057  0.2223979116461891  0.8750000000000000
  0.9444468978646592  0.2220569083894569  0.8750000000000000
  0.2777606061038768  0.7231165706876258  0.3750000000000000
  0.1090234821530240  0.2210448051388002  0.3750000000000000
  0.4481956984272475  0.2266504984505001  0.3750000000000000
  0.6110773530975938  0.7234257022282594  0.3750000000000000
  0.9442527779795574  0.7221036869696122  0.3750000000000000
  0.7793466082314278  0.2208198265599193  0.3750000000000000
  0.1109231499757648  0.8888485596784406  0.8750000000000000
  0.4446016654919466  0.8890772045549898  0.8750000000000000
  0.2777750167817438  0.3887333316835255  0.8750000000000000
  0.6109575354350169  0.3888427401452883  0.8750000000000000
  0.7778105641014591  0.8887534873719015  0.8750000000000000
  0.9445829150936093  0.3890669681593584  0.8750000000000000
  0.1107857658617947  0.3886174807196893  0.3750000000000000
  0.2782159826404604  0.8900938216293219  0.3750000000000000
  0.6110739869913765  0.8890470183198184  0.3750000000000000
  0.9438836579427242  0.8881322339349740  0.3750000000000000
  0.7798660318485736  0.3861757229913655  0.3750000000000000
  0.2779060268866665  0.5557378859040474  0.8750000000000000
  0.1111130443696617  0.0553816150697144  0.8750000000000000
  0.6111575431389278  0.5554175389787606  0.8750000000000000
  0.4442716279759349  0.0555144312325157  0.8750000000000000
  0.9442583024660258  0.5555188286334675  0.8750000000000000
  0.1111998909300937  0.5560099660571544  0.3750000000000000
  0.7779245736474210  0.0557414313902811  0.8750000000000000
  0.2786566010202258  0.0571288284045409  0.3750000000000000
  0.4450590404068017  0.5581959404256136  0.3750000000000000
  0.7766978720856150  0.5551079342488073  0.3750000000000000
  0.6117481913028469  0.0552369064790931  0.3750000000000000
  0.4442736782395445  0.5555515399064419  0.8750000000000000
  0.9438845912099095  0.0545762708110993  0.3750000000000000
  0.2775914619560867  0.7222037654869093  0.8750000000000000
  0.1112201211867469  0.2223774402354146  0.8750000000000000
  0.4444917962609086  0.2220535971654844  0.8750000000000000
  0.6112748243189415  0.7224258859273152  0.8750000000000000
  0.9444721367937218  0.7220611805122018  0.8750000000000000
  0.7775867811709097  0.2221904566867862  0.8750000000000000
  0.1113205623473367  0.7228595115687968  0.3750000000000000
  0.4442072485410140  0.7230690355775627  0.3750000000000000
  0.2754743978844005  0.2234756600385894  0.3750000000000000
  0.7761582255260085  0.7206071210254344  0.3750000000000000
  0.6151476181207514  0.2222067611411357  0.3750000000000000
  0.9444606151006230  0.2213683539291831  0.3750000000000000
  0.1109014342729061  0.3888578048044389  0.8750000000000000
  0.2778048682245197  0.8887269934950239  0.8750000000000000
  0.6109352966603927  0.8888840399812733  0.8750000000000000
  0.4446028661937968  0.3890564048971247  0.8750000000000000
  0.9445925954890677  0.8890672371184747  0.8750000000000000
  0.1114004667230580  0.8895008799347724  0.3750000000000000
  0.7778094217799391  0.3887251660617211  0.8750000000000000
  0.4445511701658152  0.8898496946173478  0.3750000000000000
  0.2738379495890053  0.3866015982468765  0.3750000000000000
  0.2771290871339191  0.5561986357045213  0.3750000000000000
  0.7775348563481828  0.8882724719359403  0.3750000000000000
  0.9456420792059264  0.3884429800950318  0.3750000000000000
  0.1111222279130880  0.5553979179968602  0.8750000000000000
  0.2779286570135278  0.0557150391636154  0.8750000000000000
  0.7779466361518840  0.5557247087238339  0.8750000000000000
  0.6111440921721777  0.0554022605393680  0.8750000000000000
  0.9442456565703828  0.0555228641200278  0.8750000000000000
  0.0554831094471879  0.1110144132356205  0.1250560115749834
  0.5556349379620704  0.6111858564355899  0.1251547942773549
  0.3889013384658547  0.1110425378560695  0.1250774614695709
  0.8889369529672017  0.6111025347693085  0.1251167029711403
  0.7222315246928162  0.1111078534378776  0.1250587849202970
  0.0555608627841768  0.7777489999958949  0.6249209531304767
  0.3888405830326987  0.7778300558420057  0.6249094843152438
  0.2220997489057837  0.2776755656956077  0.6249734516867234
  0.7223051505155953  0.7778219046436402  0.6249749628694740
  0.5556984944932974  0.2778189722619457  0.6245869182525452
  0.8888747478152917  0.2777710352985310  0.6249070508681432
  0.2221803282581733  0.7777789829215290  0.1250467401042657
  0.0554687404071078  0.2777427453904099  0.1250242429853683
  0.3889014471581051  0.2776461492287896  0.1253717751982409
  0.5555555386041165  0.7778456196347363  0.1250249090517958
  0.8889674717591259  0.7777776472941088  0.1251038127499982
  0.7222666606337439  0.2777949578638841  0.1250716279080898
  0.0555379828327393  0.9443657314047658  0.6249683528344412
  0.3888687470167089  0.9444334441828408  0.6249348207696491
  0.2221116160471441  0.4444724255429310  0.6249263560563620
  0.5557426563302205  0.4443421072552713  0.6246275869253057
  0.7222341292161190  0.9444566747599021  0.6249031942551222
  0.8888748646495468  0.4444348495060539  0.6248843506863297
  0.0554903302039670  0.4444636419759259  0.1250375713292563
  0.2221922869318716  0.9443667441663042  0.1250975856131985
  0.5555469655724299  0.9444706427142578  0.1250378248861513
  0.3888573184392712  0.4444402653060111  0.1252629012243093
  0.8889037308303026  0.9444142878703743  0.1250506355026691
  0.7222659083872616  0.4443969161328113  0.1254747564990288
  0.2221414163339725  0.6111580679878595  0.6249486382819556
  0.0554831094471879  0.1110144132356205  0.6249439884250163
  0.5556349379620704  0.6111858564355899  0.6248452057226452
  0.3889013384658547  0.1110425378560695  0.6249225385304294
  0.8889369529672017  0.6111025347693085  0.6248832970288599
  0.0555233820739217  0.6111173708377327  0.1251258324479511
  0.7222315246928162  0.1111078534378776  0.6249412150797029
  0.2221462326627300  0.1109527296156789  0.1250669861547606
  0.3888273439218446  0.6111985090032351  0.1250200739685037
  0.7223901741789658  0.6111261264281997  0.1252284662936342
  0.5555957285585307  0.1111261664703970  0.1251394773225306
  0.3888273439218446  0.6111985090032351  0.6249799260314963
  0.8888655830176181  0.1110807477458091  0.1250200063066555
  0.2221803282581733  0.7777789829215290  0.6249532598957337
  0.0554687404071078  0.2777427453904099  0.6249757570146320
  0.3889014471581051  0.2776461492287896  0.6246282248017588
  0.5555555386041165  0.7778456196347363  0.6249750909482041
  0.8889674717591259  0.7777776472941088  0.6248961872500020
  0.7222666606337439  0.2777949578638841  0.6249283720919105
  0.0555608627841768  0.7777489999958949  0.1250790468695232
  0.3888405830326987  0.7778300558420057  0.1250905156847560
  0.2220997489057837  0.2776755656956077  0.1250265483132768
  0.7223051505155953  0.7778219046436402  0.1250250371305269
  0.5556984944932974  0.2778189722619457  0.1254130817474551
  0.8888747478152917  0.2777710352985310  0.1250929491318568
  0.0554903302039670  0.4444636419759259  0.6249624286707436
  0.2221922869318716  0.9443667441663042  0.6249024143868021
  0.5555469655724299  0.9444706427142578  0.6249621751138488
  0.3888573184392712  0.4444402653060111  0.6247370987756908
  0.8889037308303026  0.9444142878703743  0.6249493644973311
  0.0555379828327393  0.9443657314047658  0.1250316471655598
  0.7222659083872616  0.4443969161328113  0.6245252435009715
  0.3888687470167089  0.9444334441828408  0.1250651792303511
  0.2221116160471441  0.4444724255429310  0.1250736439436369
  0.2221414163339725  0.6111580679878595  0.1250513617180442
  0.5557426563302205  0.4443421072552713  0.1253724130746935
  0.7222341292161190  0.9444566747599021  0.1250968057448782
  0.8888748646495468  0.4444348495060539  0.1251156493136711
  0.0555233820739217  0.6111173708377327  0.6248741675520483
  0.2221462326627300  0.1109527296156789  0.6249330138452395
  0.7223901741789658  0.6111261264281997  0.6247715337063657
  0.5555957285585307  0.1111261664703970  0.6248605226774694
  0.8888655830176181  0.1110807477458091  0.6249799936933442
 
  0.00000000E+00  0.00000000E+00  0.00000000E+00
  0.00000000E+00  0.00000000E+00  0.00000000E+00
  0.00000000E+00  0.00000000E+00  0.00000000E+00
  0.00000000E+00  0.00000000E+00  0.00000000E+00
  0.00000000E+00  0.00000000E+00  0.00000000E+00
  0.00000000E+00  0.00000000E+00  0.00000000E+00
  0.00000000E+00  0.00000000E+00  0.00000000E+00
  0.00000000E+00  0.00000000E+00  0.00000000E+00
  0.00000000E+00  0.00000000E+00  0.00000000E+00
  0.00000000E+00  0.00000000E+00  0.00000000E+00
  0.00000000E+00  0.00000000E+00  0.00000000E+00
  0.00000000E+00  0.00000000E+00  0.00000000E+00
  0.00000000E+00  0.00000000E+00  0.00000000E+00
  0.00000000E+00  0.00000000E+00  0.00000000E+00
  0.00000000E+00  0.00000000E+00  0.00000000E+00
  0.00000000E+00  0.00000000E+00  0.00000000E+00
  0.00000000E+00  0.00000000E+00  0.00000000E+00
  0.00000000E+00  0.00000000E+00  0.00000000E+00
  0.00000000E+00  0.00000000E+00  0.00000000E+00
  0.00000000E+00  0.00000000E+00  0.00000000E+00
  0.00000000E+00  0.00000000E+00  0.00000000E+00
  0.00000000E+00  0.00000000E+00  0.00000000E+00
  0.00000000E+00  0.00000000E+00  0.00000000E+00
  0.00000000E+00  0.00000000E+00  0.00000000E+00
  0.00000000E+00  0.00000000E+00  0.00000000E+00
  0.00000000E+00  0.00000000E+00  0.00000000E+00
  0.00000000E+00  0.00000000E+00  0.00000000E+00
  0.00000000E+00  0.00000000E+00  0.00000000E+00
  0.00000000E+00  0.00000000E+00  0.00000000E+00
  0.00000000E+00  0.00000000E+00  0.00000000E+00
  0.00000000E+00  0.00000000E+00  0.00000000E+00
  0.00000000E+00  0.00000000E+00  0.00000000E+00
  0.00000000E+00  0.00000000E+00  0.00000000E+00
  0.00000000E+00  0.00000000E+00  0.00000000E+00
  0.00000000E+00  0.00000000E+00  0.00000000E+00
  0.00000000E+00  0.00000000E+00  0.00000000E+00
  0.00000000E+00  0.00000000E+00  0.00000000E+00
  0.00000000E+00  0.00000000E+00  0.00000000E+00
  0.00000000E+00  0.00000000E+00  0.00000000E+00
  0.00000000E+00  0.00000000E+00  0.00000000E+00
  0.00000000E+00  0.00000000E+00  0.00000000E+00
  0.00000000E+00  0.00000000E+00  0.00000000E+00
  0.00000000E+00  0.00000000E+00  0.00000000E+00
  0.00000000E+00  0.00000000E+00  0.00000000E+00
  0.00000000E+00  0.00000000E+00  0.00000000E+00
  0.00000000E+00  0.00000000E+00  0.00000000E+00
  0.00000000E+00  0.00000000E+00  0.00000000E+00
  0.00000000E+00  0.00000000E+00  0.00000000E+00
  0.00000000E+00  0.00000000E+00  0.00000000E+00
  0.00000000E+00  0.00000000E+00  0.00000000E+00
  0.00000000E+00  0.00000000E+00  0.00000000E+00
  0.00000000E+00  0.00000000E+00  0.00000000E+00
  0.00000000E+00  0.00000000E+00  0.00000000E+00
  0.00000000E+00  0.00000000E+00  0.00000000E+00
  0.00000000E+00  0.00000000E+00  0.00000000E+00
  0.00000000E+00  0.00000000E+00  0.00000000E+00
  0.00000000E+00  0.00000000E+00  0.00000000E+00
  0.00000000E+00  0.00000000E+00  0.00000000E+00
  0.00000000E+00  0.00000000E+00  0.00000000E+00
  0.00000000E+00  0.00000000E+00  0.00000000E+00
  0.00000000E+00  0.00000000E+00  0.00000000E+00
  0.00000000E+00  0.00000000E+00  0.00000000E+00
  0.00000000E+00  0.00000000E+00  0.00000000E+00
  0.00000000E+00  0.00000000E+00  0.00000000E+00
  0.00000000E+00  0.00000000E+00  0.00000000E+00
  0.00000000E+00  0.00000000E+00  0.00000000E+00
  0.00000000E+00  0.00000000E+00  0.00000000E+00
  0.00000000E+00  0.00000000E+00  0.00000000E+00
  0.00000000E+00  0.00000000E+00  0.00000000E+00
  0.00000000E+00  0.00000000E+00  0.00000000E+00
  0.00000000E+00  0.00000000E+00  0.00000000E+00
  0.00000000E+00  0.00000000E+00  0.00000000E+00
  0.00000000E+00  0.00000000E+00  0.00000000E+00
  0.00000000E+00  0.00000000E+00  0.00000000E+00
  0.00000000E+00  0.00000000E+00  0.00000000E+00
  0.00000000E+00  0.00000000E+00  0.00000000E+00
  0.00000000E+00  0.00000000E+00  0.00000000E+00
  0.00000000E+00  0.00000000E+00  0.00000000E+00
  0.00000000E+00  0.00000000E+00  0.00000000E+00
  0.00000000E+00  0.00000000E+00  0.00000000E+00
  0.00000000E+00  0.00000000E+00  0.00000000E+00
  0.00000000E+00  0.00000000E+00  0.00000000E+00
  0.00000000E+00  0.00000000E+00  0.00000000E+00
  0.00000000E+00  0.00000000E+00  0.00000000E+00
  0.00000000E+00  0.00000000E+00  0.00000000E+00
  0.00000000E+00  0.00000000E+00  0.00000000E+00
  0.00000000E+00  0.00000000E+00  0.00000000E+00
  0.00000000E+00  0.00000000E+00  0.00000000E+00
  0.00000000E+00  0.00000000E+00  0.00000000E+00
  0.00000000E+00  0.00000000E+00  0.00000000E+00
  0.00000000E+00  0.00000000E+00  0.00000000E+00
  0.00000000E+00  0.00000000E+00  0.00000000E+00
  0.00000000E+00  0.00000000E+00  0.00000000E+00
  0.00000000E+00  0.00000000E+00  0.00000000E+00
  0.00000000E+00  0.00000000E+00  0.00000000E+00
  0.00000000E+00  0.00000000E+00  0.00000000E+00
  0.00000000E+00  0.00000000E+00  0.00000000E+00
  0.00000000E+00  0.00000000E+00  0.00000000E+00
  0.00000000E+00  0.00000000E+00  0.00000000E+00
  0.00000000E+00  0.00000000E+00  0.00000000E+00
  0.00000000E+00  0.00000000E+00  0.00000000E+00
  0.00000000E+00  0.00000000E+00  0.00000000E+00
  0.00000000E+00  0.00000000E+00  0.00000000E+00
  0.00000000E+00  0.00000000E+00  0.00000000E+00
  0.00000000E+00  0.00000000E+00  0.00000000E+00
  0.00000000E+00  0.00000000E+00  0.00000000E+00
  0.00000000E+00  0.00000000E+00  0.00000000E+00
  0.00000000E+00  0.00000000E+00  0.00000000E+00
  0.00000000E+00  0.00000000E+00  0.00000000E+00
  0.00000000E+00  0.00000000E+00  0.00000000E+00
  0.00000000E+00  0.00000000E+00  0.00000000E+00
  0.00000000E+00  0.00000000E+00  0.00000000E+00
  0.00000000E+00  0.00000000E+00  0.00000000E+00
  0.00000000E+00  0.00000000E+00  0.00000000E+00
  0.00000000E+00  0.00000000E+00  0.00000000E+00
  0.00000000E+00  0.00000000E+00  0.00000000E+00
  0.00000000E+00  0.00000000E+00  0.00000000E+00
  0.00000000E+00  0.00000000E+00  0.00000000E+00
  0.00000000E+00  0.00000000E+00  0.00000000E+00
  0.00000000E+00  0.00000000E+00  0.00000000E+00
  0.00000000E+00  0.00000000E+00  0.00000000E+00
  0.00000000E+00  0.00000000E+00  0.00000000E+00
  0.00000000E+00  0.00000000E+00  0.00000000E+00
  0.00000000E+00  0.00000000E+00  0.00000000E+00
  0.00000000E+00  0.00000000E+00  0.00000000E+00
  0.00000000E+00  0.00000000E+00  0.00000000E+00
  0.00000000E+00  0.00000000E+00  0.00000000E+00
  0.00000000E+00  0.00000000E+00  0.00000000E+00
  0.00000000E+00  0.00000000E+00  0.00000000E+00
  0.00000000E+00  0.00000000E+00  0.00000000E+00
  0.00000000E+00  0.00000000E+00  0.00000000E+00
  0.00000000E+00  0.00000000E+00  0.00000000E+00
  0.00000000E+00  0.00000000E+00  0.00000000E+00
  0.00000000E+00  0.00000000E+00  0.00000000E+00
  0.00000000E+00  0.00000000E+00  0.00000000E+00
  0.00000000E+00  0.00000000E+00  0.00000000E+00
  0.00000000E+00  0.00000000E+00  0.00000000E+00
  0.00000000E+00  0.00000000E+00  0.00000000E+00
  0.00000000E+00  0.00000000E+00  0.00000000E+00
  0.00000000E+00  0.00000000E+00  0.00000000E+00
  0.00000000E+00  0.00000000E+00  0.00000000E+00
  0.00000000E+00  0.00000000E+00  0.00000000E+00
  0.00000000E+00  0.00000000E+00  0.00000000E+00
  0.00000000E+00  0.00000000E+00  0.00000000E+00
  0.00000000E+00  0.00000000E+00  0.00000000E+00
  0.00000000E+00  0.00000000E+00  0.00000000E+00
  0.00000000E+00  0.00000000E+00  0.00000000E+00
  0.00000000E+00  0.00000000E+00  0.00000000E+00
  0.00000000E+00  0.00000000E+00  0.00000000E+00
  0.00000000E+00  0.00000000E+00  0.00000000E+00
  0.00000000E+00  0.00000000E+00  0.00000000E+00
  0.00000000E+00  0.00000000E+00  0.00000000E+00
  0.00000000E+00  0.00000000E+00  0.00000000E+00
  0.00000000E+00  0.00000000E+00  0.00000000E+00
  0.00000000E+00  0.00000000E+00  0.00000000E+00
  0.00000000E+00  0.00000000E+00  0.00000000E+00
  0.00000000E+00  0.00000000E+00  0.00000000E+00
  0.00000000E+00  0.00000000E+00  0.00000000E+00
  0.00000000E+00  0.00000000E+00  0.00000000E+00
  0.00000000E+00  0.00000000E+00  0.00000000E+00
  0.00000000E+00  0.00000000E+00  0.00000000E+00
  0.00000000E+00  0.00000000E+00  0.00000000E+00
  0.00000000E+00  0.00000000E+00  0.00000000E+00
  0.00000000E+00  0.00000000E+00  0.00000000E+00
  0.00000000E+00  0.00000000E+00  0.00000000E+00
  0.00000000E+00  0.00000000E+00  0.00000000E+00
  0.00000000E+00  0.00000000E+00  0.00000000E+00
  0.00000000E+00  0.00000000E+00  0.00000000E+00
  0.00000000E+00  0.00000000E+00  0.00000000E+00
  0.00000000E+00  0.00000000E+00  0.00000000E+00
  0.00000000E+00  0.00000000E+00  0.00000000E+00
  0.00000000E+00  0.00000000E+00  0.00000000E+00
  0.00000000E+00  0.00000000E+00  0.00000000E+00
  0.00000000E+00  0.00000000E+00  0.00000000E+00
  0.00000000E+00  0.00000000E+00  0.00000000E+00
  0.00000000E+00  0.00000000E+00  0.00000000E+00
  0.00000000E+00  0.00000000E+00  0.00000000E+00
  0.00000000E+00  0.00000000E+00  0.00000000E+00
  0.00000000E+00  0.00000000E+00  0.00000000E+00
  0.00000000E+00  0.00000000E+00  0.00000000E+00
  0.00000000E+00  0.00000000E+00  0.00000000E+00
  0.00000000E+00  0.00000000E+00  0.00000000E+00
  0.00000000E+00  0.00000000E+00  0.00000000E+00
  0.00000000E+00  0.00000000E+00  0.00000000E+00
  0.00000000E+00  0.00000000E+00  0.00000000E+00
  0.00000000E+00  0.00000000E+00  0.00000000E+00
  0.00000000E+00  0.00000000E+00  0.00000000E+00
  0.00000000E+00  0.00000000E+00  0.00000000E+00
  0.00000000E+00  0.00000000E+00  0.00000000E+00
  0.00000000E+00  0.00000000E+00  0.00000000E+00
  0.00000000E+00  0.00000000E+00  0.00000000E+00
  0.00000000E+00  0.00000000E+00  0.00000000E+00
  0.00000000E+00  0.00000000E+00  0.00000000E+00
  0.00000000E+00  0.00000000E+00  0.00000000E+00
  0.00000000E+00  0.00000000E+00  0.00000000E+00
  0.00000000E+00  0.00000000E+00  0.00000000E+00
  0.00000000E+00  0.00000000E+00  0.00000000E+00
  0.00000000E+00  0.00000000E+00  0.00000000E+00
  0.00000000E+00  0.00000000E+00  0.00000000E+00
  0.00000000E+00  0.00000000E+00  0.00000000E+00
  0.00000000E+00  0.00000000E+00  0.00000000E+00
  0.00000000E+00  0.00000000E+00  0.00000000E+00
  0.00000000E+00  0.00000000E+00  0.00000000E+00
  0.00000000E+00  0.00000000E+00  0.00000000E+00
  0.00000000E+00  0.00000000E+00  0.00000000E+00
  0.00000000E+00  0.00000000E+00  0.00000000E+00
  0.00000000E+00  0.00000000E+00  0.00000000E+00
  0.00000000E+00  0.00000000E+00  0.00000000E+00
  0.00000000E+00  0.00000000E+00  0.00000000E+00
  0.00000000E+00  0.00000000E+00  0.00000000E+00
  0.00000000E+00  0.00000000E+00  0.00000000E+00
  0.00000000E+00  0.00000000E+00  0.00000000E+00
  0.00000000E+00  0.00000000E+00  0.00000000E+00
  0.00000000E+00  0.00000000E+00  0.00000000E+00
  0.00000000E+00  0.00000000E+00  0.00000000E+00
  0.00000000E+00  0.00000000E+00  0.00000000E+00
  0.00000000E+00  0.00000000E+00  0.00000000E+00
  0.00000000E+00  0.00000000E+00  0.00000000E+00
  0.00000000E+00  0.00000000E+00  0.00000000E+00
  0.00000000E+00  0.00000000E+00  0.00000000E+00
  0.00000000E+00  0.00000000E+00  0.00000000E+00
  0.00000000E+00  0.00000000E+00  0.00000000E+00
  0.00000000E+00  0.00000000E+00  0.00000000E+00
  0.00000000E+00  0.00000000E+00  0.00000000E+00
  0.00000000E+00  0.00000000E+00  0.00000000E+00
  0.00000000E+00  0.00000000E+00  0.00000000E+00
  0.00000000E+00  0.00000000E+00  0.00000000E+00
  0.00000000E+00  0.00000000E+00  0.00000000E+00
  0.00000000E+00  0.00000000E+00  0.00000000E+00
  0.00000000E+00  0.00000000E+00  0.00000000E+00
  0.00000000E+00  0.00000000E+00  0.00000000E+00
  0.00000000E+00  0.00000000E+00  0.00000000E+00
  0.00000000E+00  0.00000000E+00  0.00000000E+00
  0.00000000E+00  0.00000000E+00  0.00000000E+00
  0.00000000E+00  0.00000000E+00  0.00000000E+00
  0.00000000E+00  0.00000000E+00  0.00000000E+00
  0.00000000E+00  0.00000000E+00  0.00000000E+00
  0.00000000E+00  0.00000000E+00  0.00000000E+00
  0.00000000E+00  0.00000000E+00  0.00000000E+00
  0.00000000E+00  0.00000000E+00  0.00000000E+00
  0.00000000E+00  0.00000000E+00  0.00000000E+00
  0.00000000E+00  0.00000000E+00  0.00000000E+00
  0.00000000E+00  0.00000000E+00  0.00000000E+00
  0.00000000E+00  0.00000000E+00  0.00000000E+00
  0.00000000E+00  0.00000000E+00  0.00000000E+00
  0.00000000E+00  0.00000000E+00  0.00000000E+00
  0.00000000E+00  0.00000000E+00  0.00000000E+00
  0.00000000E+00  0.00000000E+00  0.00000000E+00