B N O S                                 
   1.0000000000000000     
     8.7639499999999995  -15.1796066749929999    0.0000000000000000
     8.7639499999999995   15.1796066749929999    0.0000000000000000
     0.0000000000000000    0.0000000000000000   15.0000000000000000
   B    N    O    S 
    49    47     1     1
Selective dynamics
Direct
  0.9052190830935077  0.9530855375298919  0.1110209356905558   T   T   T
  0.9049985165680413  0.0952414129721090  0.1110605598715688   T   T   T
  0.9052643235292813  0.2376683573578044  0.1110315177728709   T   T   T
  0.9060167314157167  0.3804325369217375  0.1110101407491346   T   T   T
  0.9087806704866953  0.5242013691804140  0.1108926431734719   T   T   T
  0.9089065733045267  0.6703051385071682  0.1108575091051905   T   T   T
  0.9059314918169525  0.8110330944376763  0.1110196516110946   T   T   T
  0.0480093269990036  0.9528486443008105  0.1110309548284014   T   T   T
  0.0474824355152320  0.0952017965531186  0.1110246351988667   T   T   T
  0.0474833794421511  0.2378624162797069  0.1110041021967725   T   T   T
  0.0479952860398547  0.3808567280164207  0.1110395576900866   T   T   T
  0.0492276183559387  0.5241125114963768  0.1110556445502764   T   T   T
  0.0491532028620146  0.6674795532568325  0.1110062591948273   T   T   T
  0.0493667284652402  0.8110079198673037  0.1110540941664042   T   T   T
  0.1906878941230135  0.9524547363307228  0.1110078320749011   T   T   T
  0.1898580152040183  0.0948095991786372  0.1109366900987124   T   T   T
  0.1893712385695868  0.2375095524756706  0.1108642310717788   T   T   T
  0.1896894082820980  0.3807321927495248  0.1109280247238163   T   T   T
  0.1904764447546759  0.5240891535160473  0.1110768967635358   T   T   T
  0.1909988946950877  0.6671245708267864  0.1110940585317599   T   T   T
  0.1910863040023504  0.8099295988029551  0.1110276420633262   T   T   T
  0.3332946961327180  0.9521526130537169  0.1110139260617006   T   T   T
  0.3321445711153254  0.0939012480533863  0.1109292221697183   T   T   T
  0.3312278021157385  0.2368725529316490  0.1107735359232173   T   T   T
  0.3308720716646956  0.3796940160260468  0.1108218659963883   T   T   T
  0.3316375403485581  0.5242629450334256  0.1110208335322717   T   T   T
  0.3330792302149398  0.6671965010517148  0.1111372759547866   T   T   T
  0.3334043054938010  0.8097684934023509  0.1110935773520430   T   T   T
  0.4760415845696582  0.9520850374308668  0.1109985827133236   T   T   T
  0.4757800832821788  0.0941730675280119  0.1109861289438306   T   T   T
  0.4728392823016390  0.2343026741803243  0.1111378990771867   T   T   T
  0.4715841612598390  0.3759301965561053  0.1116509111087877   T   T   T
  0.4710560092716950  0.5254861539089978  0.1111026878183201   T   T   T
  0.4753771375657817  0.6675397188684161  0.1110473677929385   T   T   T
  0.4759554184019678  0.8098573966956749  0.1110841343454092   T   T   T
  0.6189847274237870  0.9523010063295047  0.1109755300520430   T   T   T
  0.6190892098308631  0.0934403294457760  0.1109295736070954   T   T   T
  0.6195326263023162  0.2337838362623922  0.1110920809384012   T   T   T
  0.6113445565771728  0.3634271457440337  0.1117330186151431   T   T   T
  0.6116340949430001  0.5319358304587727  0.1112664092755040   T   T   T
  0.6198328364134259  0.6712379140355382  0.1110272434439885   T   T   T
  0.6190046081559458  0.8111923519366968  0.1109742461197122   T   T   T
  0.7621903579759294  0.9529256126825486  0.1109791889169004   T   T   T
  0.7622343199257741  0.0947805930925982  0.1109888740009579   T   T   T
  0.7626808110345477  0.2367401823642468  0.1109694446594470   T   T   T
  0.7631644238498891  0.3787296520734701  0.1110186794134217   T   T   T
  0.7774286587708794  0.5314810070155034  0.1108646980445901   T   T   T
  0.7628372020190370  0.6695150544159869  0.1109823715736261   T   T   T
  0.7625736834415581  0.8113683969066857  0.1109945608644893   T   T   T
  0.9530124444979505  0.9057593861000210  0.1110069188023755   T   T   T
  0.9526042290627080  0.0478858462280252  0.1110403694431245   T   T   T
  0.9526600416808536  0.1902239197882097  0.1110325600481002   T   T   T
  0.9531700701613287  0.3328440964657737  0.1110232707125693   T   T   T
  0.9548046532610472  0.4759430945099874  0.1109976198485492   T   T   T
  0.9545215599275189  0.6201143940348368  0.1108625669906941   T   T   T
  0.9548633470058365  0.7645952630565951  0.1109832589255606   T   T   T
  0.0959981067592292  0.9056445653842036  0.1110341680684124   T   T   T
  0.0950568918795519  0.0476958410159639  0.1110042376075599   T   T   T
  0.0947017122950987  0.1901724037101928  0.1109789439413471   T   T   T
  0.0950619750679130  0.3330490427316206  0.1109748272978823   T   T   T
  0.0959204750056966  0.4761223873804157  0.1110487294194847   T   T   T
  0.0962554770764451  0.6194240692062064  0.1110537172731525   T   T   T
  0.0962960895851077  0.7626856437307592  0.1110303211005993   T   T   T
  0.2383188523578336  0.9049136061326818  0.1109922048888986   T   T   T
  0.2374580425230804  0.0471849266222669  0.1109468930903215   T   T   T
  0.2366932228644912  0.1897973537903735  0.1107784627404331   T   T   T
  0.2365806806714486  0.3327167907221762  0.1107871282862953   T   T   T
  0.2372768953344506  0.4761165671752385  0.1109954851425122   T   T   T
  0.2382207319209283  0.6193068005113441  0.1110985210769173   T   T   T
  0.2384748680479780  0.7622129248033866  0.1110484293850081   T   T   T
  0.3809317211193409  0.9046917448504803  0.1110267383018994   T   T   T
  0.3805219249180105  0.0470399427299075  0.1109703244383552   T   T   T
  0.3785346525153963  0.1885951037047792  0.1108356148143542   T   T   T
  0.3777676537274351  0.3322164730343154  0.1108539536522348   T   T   T
  0.3782148852294183  0.4759322912823845  0.1109641567726831   T   T   T
  0.3803323278065043  0.6194034528947774  0.1110791539645262   T   T   T
  0.3808707435826165  0.7621710157856508  0.1111182325802135   T   T   T
  0.5237464120713775  0.9047231409430949  0.1110129980514831   T   T   T
  0.5237106067573077  0.0468517802026588  0.1109239203705135   T   T   T
  0.5231888663521811  0.1889501978152594  0.1110535289492457   T   T   T
  0.5185856930065944  0.3292715766813957  0.1115264963695567   T   T   T
  0.5228648864790333  0.6197162764072446  0.1110099787247658   T   T   T
  0.5235546579119904  0.7624619325925572  0.1110239881739530   T   T   T
  0.6669125727687261  0.9055942496292682  0.1109483852793186   T   T   T
  0.6669964632143089  0.0467806134656791  0.1109239033534797   T   T   T
  0.6674329799772281  0.1875927258481968  0.1109322778731019   T   T   T
  0.6682413839035630  0.3270968834155814  0.1112565853605042   T   T   T
  0.6673310559681500  0.6258693823051985  0.1110881942659284   T   T   T
  0.6672175924696769  0.7651182753448676  0.1109448395571360   T   T   T
  0.8101704535973512  0.9059642882056452  0.1109714416337775   T   T   T
  0.8099569743713436  0.0476720247517443  0.1110091596317568   T   T   T
  0.8103109453892527  0.1896745766231019  0.1109767633034015   T   T   T
  0.8110325931678670  0.3320061905742262  0.1109571891485591   T   T   T
  0.8146910450360749  0.4757067815431478  0.1108227407554011   T   T   T
  0.8148671868191746  0.6246770339085030  0.1107596127059115   T   T   T
  0.8106021329190767  0.7641053169928369  0.1110056319378409   T   T   T
  0.5152050593849751  0.4765805685598006  0.1113888198970027   T   T   T
  0.6655104509149631  0.4751431550582940  0.1112192866006960   T   T   T

  0.00000000E+00  0.00000000E+00  0.00000000E+00
  0.00000000E+00  0.00000000E+00  0.00000000E+00
  0.00000000E+00  0.00000000E+00  0.00000000E+00
  0.00000000E+00  0.00000000E+00  0.00000000E+00
  0.00000000E+00  0.00000000E+00  0.00000000E+00
  0.00000000E+00  0.00000000E+00  0.00000000E+00
  0.00000000E+00  0.00000000E+00  0.00000000E+00
  0.00000000E+00  0.00000000E+00  0.00000000E+00
  0.00000000E+00  0.00000000E+00  0.00000000E+00
  0.00000000E+00  0.00000000E+00  0.00000000E+00
  0.00000000E+00  0.00000000E+00  0.00000000E+00
  0.00000000E+00  0.00000000E+00  0.00000000E+00
  0.00000000E+00  0.00000000E+00  0.00000000E+00
  0.00000000E+00  0.00000000E+00  0.00000000E+00
  0.00000000E+00  0.00000000E+00  0.00000000E+00
  0.00000000E+00  0.00000000E+00  0.00000000E+00
  0.00000000E+00  0.00000000E+00  0.00000000E+00
  0.00000000E+00  0.00000000E+00  0.00000000E+00
  0.00000000E+00  0.00000000E+00  0.00000000E+00
  0.00000000E+00  0.00000000E+00  0.00000000E+00
  0.00000000E+00  0.00000000E+00  0.00000000E+00
  0.00000000E+00  0.00000000E+00  0.00000000E+00
  0.00000000E+00  0.00000000E+00  0.00000000E+00
  0.00000000E+00  0.00000000E+00  0.00000000E+00
  0.00000000E+00  0.00000000E+00  0.00000000E+00
  0.00000000E+00  0.00000000E+00  0.00000000E+00
  0.00000000E+00  0.00000000E+00  0.00000000E+00
  0.00000000E+00  0.00000000E+00  0.00000000E+00
  0.00000000E+00  0.00000000E+00  0.00000000E+00
  0.00000000E+00  0.00000000E+00  0.00000000E+00
  0.00000000E+00  0.00000000E+00  0.00000000E+00
  0.00000000E+00  0.00000000E+00  0.00000000E+00
  0.00000000E+00  0.00000000E+00  0.00000000E+00
  0.00000000E+00  0.00000000E+00  0.00000000E+00
  0.00000000E+00  0.00000000E+00  0.00000000E+00
  0.00000000E+00  0.00000000E+00  0.00000000E+00
  0.00000000E+00  0.00000000E+00  0.00000000E+00
  0.00000000E+00  0.00000000E+00  0.00000000E+00
  0.00000000E+00  0.00000000E+00  0.00000000E+00
  0.00000000E+00  0.00000000E+00  0.00000000E+00
  0.00000000E+00  0.00000000E+00  0.00000000E+00
  0.00000000E+00  0.00000000E+00  0.00000000E+00
  0.00000000E+00  0.00000000E+00  0.00000000E+00
  0.00000000E+00  0.00000000E+00  0.00000000E+00
  0.00000000E+00  0.00000000E+00  0.00000000E+00
  0.00000000E+00  0.00000000E+00  0.00000000E+00
  0.00000000E+00  0.00000000E+00  0.00000000E+00
  0.00000000E+00  0.00000000E+00  0.00000000E+00
  0.00000000E+00  0.00000000E+00  0.00000000E+00
  0.00000000E+00  0.00000000E+00  0.00000000E+00
  0.00000000E+00  0.00000000E+00  0.00000000E+00
  0.00000000E+00  0.00000000E+00  0.00000000E+00
  0.00000000E+00  0.00000000E+00  0.00000000E+00
  0.00000000E+00  0.00000000E+00  0.00000000E+00
  0.00000000E+00  0.00000000E+00  0.00000000E+00
  0.00000000E+00  0.00000000E+00  0.00000000E+00
  0.00000000E+00  0.00000000E+00  0.00000000E+00
  0.00000000E+00  0.00000000E+00  0.00000000E+00
  0.00000000E+00  0.00000000E+00  0.00000000E+00
  0.00000000E+00  0.00000000E+00  0.00000000E+00
  0.00000000E+00  0.00000000E+00  0.00000000E+00
  0.00000000E+00  0.00000000E+00  0.00000000E+00
  0.00000000E+00  0.00000000E+00  0.00000000E+00
  0.00000000E+00  0.00000000E+00  0.00000000E+00
  0.00000000E+00  0.00000000E+00  0.00000000E+00
  0.00000000E+00  0.00000000E+00  0.00000000E+00
  0.00000000E+00  0.00000000E+00  0.00000000E+00
  0.00000000E+00  0.00000000E+00  0.00000000E+00
  0.00000000E+00  0.00000000E+00  0.00000000E+00
  0.00000000E+00  0.00000000E+00  0.00000000E+00
  0.00000000E+00  0.00000000E+00  0.00000000E+00
  0.00000000E+00  0.00000000E+00  0.00000000E+00
  0.00000000E+00  0.00000000E+00  0.00000000E+00
  0.00000000E+00  0.00000000E+00  0.00000000E+00
  0.00000000E+00  0.00000000E+00  0.00000000E+00
  0.00000000E+00  0.00000000E+00  0.00000000E+00
  0.00000000E+00  0.00000000E+00  0.00000000E+00
  0.00000000E+00  0.00000000E+00  0.00000000E+00
  0.00000000E+00  0.00000000E+00  0.00000000E+00
  0.00000000E+00  0.00000000E+00  0.00000000E+00
  0.00000000E+00  0.00000000E+00  0.00000000E+00
  0.00000000E+00  0.00000000E+00  0.00000000E+00
  0.00000000E+00  0.00000000E+00  0.00000000E+00
  0.00000000E+00  0.00000000E+00  0.00000000E+00
  0.00000000E+00  0.00000000E+00  0.00000000E+00
  0.00000000E+00  0.00000000E+00  0.00000000E+00
  0.00000000E+00  0.00000000E+00  0.00000000E+00
  0.00000000E+00  0.00000000E+00  0.00000000E+00
  0.00000000E+00  0.00000000E+00  0.00000000E+00
  0.00000000E+00  0.00000000E+00  0.00000000E+00
  0.00000000E+00  0.00000000E+00  0.00000000E+00
  0.00000000E+00  0.00000000E+00  0.00000000E+00
  0.00000000E+00  0.00000000E+00  0.00000000E+00
  0.00000000E+00  0.00000000E+00  0.00000000E+00
  0.00000000E+00  0.00000000E+00  0.00000000E+00
  0.00000000E+00  0.00000000E+00  0.00000000E+00
  0.00000000E+00  0.00000000E+00  0.00000000E+00
  0.00000000E+00  0.00000000E+00  0.00000000E+00
