B N P                                   
   1.0000000000000000     
     8.7639499999999995  -15.1796066749929999    0.0000000000000000
     8.7639499999999995   15.1796066749929999    0.0000000000000000
     0.0000000000000000    0.0000000000000000   15.0000000000000000
   B    N    P 
    48    48     1
Selective dynamics
Direct
  0.9051538094880610  0.9527582371962519  0.1156235755316266   T   T   T
  0.9046719070869849  0.0954930959909609  0.1176996110920807   T   T   T
  0.9044942393744174  0.2383994537240170  0.1188249115454898   T   T   T
  0.9042790913717352  0.3811437506601328  0.1177286733577171   T   T   T
  0.9037868897295390  0.5236699185448668  0.1153946012910643   T   T   T
  0.9044278508288379  0.6663581725509350  0.1149222573860415   T   T   T
  0.9051934976673337  0.8097782322402741  0.1148753966236997   T   T   T
  0.0478878972074457  0.9522677789943560  0.1167861845443788   T   T   T
  0.0474133295124947  0.0950136910829744  0.1157248005459329   T   T   T
  0.0473399298031702  0.2380192799036534  0.1147309312513722   T   T   T
  0.0475858443975627  0.3808644067555734  0.1143994399450789   T   T   T
  0.0479461937948096  0.5234443711352075  0.1156635399586236   T   T   T
  0.0479452173808990  0.6661588411732359  0.1172862560637270   T   T   T
  0.0479357201920212  0.8091964862655827  0.1178668525406942   T   T   T
  0.1909380180441678  0.9521957507829855  0.1177251498141219   T   T   T
  0.1903794162406192  0.0949551845033457  0.1149274841017930   T   T   T
  0.1896059294596842  0.2372229472562419  0.1118369685447028   T   T   T
  0.1903389602479019  0.3803375953988772  0.1070633964915260   T   T   T
  0.1919577866354190  0.5229264828500343  0.1072162788644038   T   T   T
  0.1915978948182669  0.6657952405093350  0.1126641851212879   T   T   T
  0.1911744340614987  0.8089520194670865  0.1174933236563684   T   T   T
  0.3339649083786614  0.9521829922990867  0.1170737573701471   T   T   T
  0.3337713420778936  0.0956929452708584  0.1147602027230536   T   T   T
  0.3328186336242669  0.2380730522679364  0.1114965985609485   T   T   T
  0.3313953221958766  0.3788735767145155  0.1021422528812728   T   T   T
  0.3364906120647346  0.5214851081274803  0.0934723729149350   T   T   T
  0.3351790002480020  0.6649775474976625  0.1014540966286508   T   T   T
  0.3343412551795975  0.8085473362491513  0.1125967163002048   T   T   T
  0.4766935939847826  0.9522006620603876  0.1156683820152284   T   T   T
  0.4764596044242770  0.0963409250782721  0.1153436312366969   T   T   T
  0.4762230508882755  0.2408666733614266  0.1077470298981764   T   T   T
  0.4744434407146215  0.3852634638288238  0.1021252531815182   T   T   T
  0.4786819974896148  0.6636980204937534  0.0932936500685567   T   T   T
  0.4772233396817272  0.8082072473119944  0.1071876798414130   T   T   T
  0.6192926992299451  0.9525854343757189  0.1145306204186589   T   T   T
  0.6189944766673168  0.0958756125339316  0.1179056153776386   T   T   T
  0.6187159207109176  0.2393291890023934  0.1124774267909210   T   T   T
  0.6177749918204380  0.3823594796193928  0.1020569253564768   T   T   T
  0.6148327292674831  0.5256958657050538  0.1020622062872669   T   T   T
  0.6212949013294568  0.6687958514941930  0.1017314212880135   T   T   T
  0.6198341095224653  0.8098539836662101  0.1068232989117256   T   T   T
  0.7621457449714361  0.9528386981149538  0.1146756619451375   T   T   T
  0.7617579701720455  0.0956730559223256  0.1189559580737503   T   T   T
  0.7614655801377479  0.2386895943449014  0.1182671801274384   T   T   T
  0.7608104888238119  0.3814244327346857  0.1124340715095536   T   T   T
  0.7592435254631770  0.5239067960672027  0.1077714885219946   T   T   T
  0.7620623704260582  0.6673366058850705  0.1113082275236804   T   T   T
  0.7629455297295605  0.8105740975640660  0.1114759356278917   T   T   T
  0.9528668598064757  0.9050921957763491  0.1158843668130282   T   T   T
  0.9523306796356223  0.0478348082415775  0.1167639108656223   T   T   T
  0.9520437106620995  0.1906463248259282  0.1178412592352555   T   T   T
  0.9521377678196792  0.3335750099220781  0.1180551300060560   T   T   T
  0.9522286859801327  0.4763275011740555  0.1172343777289552   T   T   T
  0.9525573258216469  0.6189526350968197  0.1163650543868914   T   T   T
  0.9528271936431337  0.7619230231389066  0.1162955574322482   T   T   T
  0.0956102827432034  0.9045251293315995  0.1180073505056158   T   T   T
  0.0950653314258438  0.0472881176051347  0.1159342984419500   T   T   T
  0.0943456077676113  0.1898446750297036  0.1141239921129691   T   T   T
  0.0947723926880822  0.3330657076821673  0.1120496354647228   T   T   T
  0.0959605833354137  0.4760176325506419  0.1129021546753154   T   T   T
  0.0959825740249122  0.6187000457209633  0.1159857902184688   T   T   T
  0.0957994500254204  0.7615355603070060  0.1183735036248426   T   T   T
  0.2385888476105548  0.9043252525855524  0.1181746860421942   T   T   T
  0.2382138437435204  0.0473031702293257  0.1161272208500025   T   T   T
  0.2371314332287131  0.1895574435218489  0.1126879515255105   T   T   T
  0.2361521977670392  0.3316067023438983  0.1078040314162763   T   T   T
  0.2395527797479471  0.4753320882782668  0.1025785903039554   T   T   T
  0.2393752990638069  0.6182965036261991  0.1067418525721523   T   T   T
  0.2389095717577200  0.7612231997042251  0.1146020234047404   T   T   T
  0.3814351867701619  0.9041597229245013  0.1158416495061527   T   T   T
  0.3811781440132819  0.0475693099245733  0.1161479577894599   T   T   T
  0.3807808013913050  0.1905518317003050  0.1115203002525218   T   T   T
  0.3787497966364251  0.3319269031518277  0.1094965152086883   T   T   T
  0.3810828777815916  0.4713825762430011  0.0882482886487916   T   T   T
  0.3826742970574736  0.6174866783710954  0.0921693117088904   T   T   T
  0.3818527489725810  0.7607804969728329  0.1067134067429224   T   T   T
  0.5241343750304133  0.9042016588322397  0.1129855532748057   T   T   T
  0.5238116582171345  0.0479172292243480  0.1173081034399552   T   T   T
  0.5235385608180411  0.1918462689467061  0.1117032867373298   T   T   T
  0.5229879499201325  0.3364044563400902  0.1009573702901273   T   T   T
  0.5287724821435901  0.6191116143651977  0.0879325716525140   T   T   T
  0.5248313357699338  0.7606353823501465  0.1024106532175139   T   T   T
  0.6670959356370024  0.9054102182843812  0.1120244105189112   T   T   T
  0.6665746306874547  0.0480300846403221  0.1183018138030936   T   T   T
  0.6662989735873736  0.1911531709635964  0.1172027440627507   T   T   T
  0.6659113990784791  0.3342260337326762  0.1084383598637680   T   T   T
  0.6637067843769846  0.4771462861749358  0.1009520842736014   T   T   T
  0.6682149109588671  0.6214199925018939  0.1091979674312020   T   T   T
  0.6685678929218745  0.7640439985548395  0.1073365082335807   T   T   T
  0.8103227129313997  0.9058336086925641  0.1138950434540133   T   T   T
  0.8095147422010779  0.0481282553324754  0.1179122486068297   T   T   T
  0.8092290238426243  0.1909344859008695  0.1199634603943310   T   T   T
  0.8090000324989660  0.3338470549238016  0.1170793743529858   T   T   T
  0.8082810902350813  0.4766012794124581  0.1117121604653216   T   T   T
  0.8095735640336380  0.6193584946927194  0.1115590460475922   T   T   T
  0.8105962287443219  0.7630315575011349  0.1124120983807402   T   T   T
  0.4937705213073326  0.5062913587682388  0.0459990127561173   T   T   T

  0.00000000E+00  0.00000000E+00  0.00000000E+00
  0.00000000E+00  0.00000000E+00  0.00000000E+00
  0.00000000E+00  0.00000000E+00  0.00000000E+00
  0.00000000E+00  0.00000000E+00  0.00000000E+00
  0.00000000E+00  0.00000000E+00  0.00000000E+00
  0.00000000E+00  0.00000000E+00  0.00000000E+00
  0.00000000E+00  0.00000000E+00  0.00000000E+00
  0.00000000E+00  0.00000000E+00  0.00000000E+00
  0.00000000E+00  0.00000000E+00  0.00000000E+00
  0.00000000E+00  0.00000000E+00  0.00000000E+00
  0.00000000E+00  0.00000000E+00  0.00000000E+00
  0.00000000E+00  0.00000000E+00  0.00000000E+00
  0.00000000E+00  0.00000000E+00  0.00000000E+00
  0.00000000E+00  0.00000000E+00  0.00000000E+00
  0.00000000E+00  0.00000000E+00  0.00000000E+00
  0.00000000E+00  0.00000000E+00  0.00000000E+00
  0.00000000E+00  0.00000000E+00  0.00000000E+00
  0.00000000E+00  0.00000000E+00  0.00000000E+00
  0.00000000E+00  0.00000000E+00  0.00000000E+00
  0.00000000E+00  0.00000000E+00  0.00000000E+00
  0.00000000E+00  0.00000000E+00  0.00000000E+00
  0.00000000E+00  0.00000000E+00  0.00000000E+00
  0.00000000E+00  0.00000000E+00  0.00000000E+00
  0.00000000E+00  0.00000000E+00  0.00000000E+00
  0.00000000E+00  0.00000000E+00  0.00000000E+00
  0.00000000E+00  0.00000000E+00  0.00000000E+00
  0.00000000E+00  0.00000000E+00  0.00000000E+00
  0.00000000E+00  0.00000000E+00  0.00000000E+00
  0.00000000E+00  0.00000000E+00  0.00000000E+00
  0.00000000E+00  0.00000000E+00  0.00000000E+00
  0.00000000E+00  0.00000000E+00  0.00000000E+00
  0.00000000E+00  0.00000000E+00  0.00000000E+00
  0.00000000E+00  0.00000000E+00  0.00000000E+00
  0.00000000E+00  0.00000000E+00  0.00000000E+00
  0.00000000E+00  0.00000000E+00  0.00000000E+00
  0.00000000E+00  0.00000000E+00  0.00000000E+00
  0.00000000E+00  0.00000000E+00  0.00000000E+00
  0.00000000E+00  0.00000000E+00  0.00000000E+00
  0.00000000E+00  0.00000000E+00  0.00000000E+00
  0.00000000E+00  0.00000000E+00  0.00000000E+00
  0.00000000E+00  0.00000000E+00  0.00000000E+00
  0.00000000E+00  0.00000000E+00  0.00000000E+00
  0.00000000E+00  0.00000000E+00  0.00000000E+00
  0.00000000E+00  0.00000000E+00  0.00000000E+00
  0.00000000E+00  0.00000000E+00  0.00000000E+00
  0.00000000E+00  0.00000000E+00  0.00000000E+00
  0.00000000E+00  0.00000000E+00  0.00000000E+00
  0.00000000E+00  0.00000000E+00  0.00000000E+00
  0.00000000E+00  0.00000000E+00  0.00000000E+00
  0.00000000E+00  0.00000000E+00  0.00000000E+00
  0.00000000E+00  0.00000000E+00  0.00000000E+00
  0.00000000E+00  0.00000000E+00  0.00000000E+00
  0.00000000E+00  0.00000000E+00  0.00000000E+00
  0.00000000E+00  0.00000000E+00  0.00000000E+00
  0.00000000E+00  0.00000000E+00  0.00000000E+00
  0.00000000E+00  0.00000000E+00  0.00000000E+00
  0.00000000E+00  0.00000000E+00  0.00000000E+00
  0.00000000E+00  0.00000000E+00  0.00000000E+00
  0.00000000E+00  0.00000000E+00  0.00000000E+00
  0.00000000E+00  0.00000000E+00  0.00000000E+00
  0.00000000E+00  0.00000000E+00  0.00000000E+00
  0.00000000E+00  0.00000000E+00  0.00000000E+00
  0.00000000E+00  0.00000000E+00  0.00000000E+00
  0.00000000E+00  0.00000000E+00  0.00000000E+00
  0.00000000E+00  0.00000000E+00  0.00000000E+00
  0.00000000E+00  0.00000000E+00  0.00000000E+00
  0.00000000E+00  0.00000000E+00  0.00000000E+00
  0.00000000E+00  0.00000000E+00  0.00000000E+00
  0.00000000E+00  0.00000000E+00  0.00000000E+00
  0.00000000E+00  0.00000000E+00  0.00000000E+00
  0.00000000E+00  0.00000000E+00  0.00000000E+00
  0.00000000E+00  0.00000000E+00  0.00000000E+00
  0.00000000E+00  0.00000000E+00  0.00000000E+00
  0.00000000E+00  0.00000000E+00  0.00000000E+00
  0.00000000E+00  0.00000000E+00  0.00000000E+00
  0.00000000E+00  0.00000000E+00  0.00000000E+00
  0.00000000E+00  0.00000000E+00  0.00000000E+00
  0.00000000E+00  0.00000000E+00  0.00000000E+00
  0.00000000E+00  0.00000000E+00  0.00000000E+00
  0.00000000E+00  0.00000000E+00  0.00000000E+00
  0.00000000E+00  0.00000000E+00  0.00000000E+00
  0.00000000E+00  0.00000000E+00  0.00000000E+00
  0.00000000E+00  0.00000000E+00  0.00000000E+00
  0.00000000E+00  0.00000000E+00  0.00000000E+00
  0.00000000E+00  0.00000000E+00  0.00000000E+00
  0.00000000E+00  0.00000000E+00  0.00000000E+00
  0.00000000E+00  0.00000000E+00  0.00000000E+00
  0.00000000E+00  0.00000000E+00  0.00000000E+00
  0.00000000E+00  0.00000000E+00  0.00000000E+00
  0.00000000E+00  0.00000000E+00  0.00000000E+00
  0.00000000E+00  0.00000000E+00  0.00000000E+00
  0.00000000E+00  0.00000000E+00  0.00000000E+00
  0.00000000E+00  0.00000000E+00  0.00000000E+00
  0.00000000E+00  0.00000000E+00  0.00000000E+00
  0.00000000E+00  0.00000000E+00  0.00000000E+00
  0.00000000E+00  0.00000000E+00  0.00000000E+00
  0.00000000E+00  0.00000000E+00  0.00000000E+00
