 As B N 
 1.0
 17.527899999999772   0.000000000000000   0.000000000000000
 -8.763949999999658  15.179606674993195   0.000000000000000
  0.000000000000001   0.000000000000002  15.000000000000000
 As B N 
   1  48  48
Cartesian
  4.247264702818424   7.668913964548279   0.609166792795590 
  7.516559702448438  14.467911339966669   1.777658892600390 
 15.015522289377488   1.452102714920336   1.774505204597430 
 13.757866174956394   3.620754636981486   1.759494019998690 
 12.506448529465723   5.789117941853366   1.743086334610800 
 11.265559943294342   7.956712735685561   1.724106539266260 
 10.032719743424218  10.128262615998137   1.730752508558745 
  8.782427859494323  12.304592754711301   1.761463718542065 
 -7.504075281061668  14.453713717349208   1.776970192729335 
 -0.006117513313653   1.438297968497498   1.777740979098135 
 -1.264408204152186   3.611198157623074   1.751083811322720 
 -2.511534613324866   5.781889208035396   1.716603977047440 
 -3.747095886575589   7.948853487662625   1.715704507806495 
 -4.991463406076621  10.119737783328796   1.736693193751155 
 -6.242967688043855  12.286553276567915   1.761649542067275 
 -4.996746803884959  14.445384972233137   1.762084472541990 
  2.500326587864016   1.423808272489944   1.762387266635685 
  1.233210331134121   3.587880305890991   1.729369323648360 
 -0.010243237284343   5.769318037183099   1.639905548139345 
 -1.229007991015847   7.939286475504524   1.613824703449665 
 -2.477345048095829  10.108547197860508   1.665053274200790 
 -3.735838719751265  12.278265696237224   1.729103461012365 
 -2.490957717142088  14.444899670316069   1.737105125441475 
  5.010461489678317   1.429325984591891   1.732164806963640 
  3.736381894829700   3.567317238786191   1.688543604000300 
  2.460007753165264   5.732549729728288   1.528336636714320 
  1.300260777139639   7.916000270162018   1.406024991208815 
  0.041618468715863  10.097199893794887   1.521078260371005 
 -1.227583738459700  12.273144203564529   1.665071643871665 
  0.008001399499980  14.452660875691114   1.715790094987530 
  7.507529036619056   1.447373582848116   1.724998918228590 
  6.239204466167482   3.615303720470728   1.624572306834270 
  4.927008547783190   5.707163344717271   1.421340120959955 
  2.559880314921846  10.097272520890868   1.405935019200930 
  1.275203509003242  12.276393166648859   1.613704874994705 
  2.502361563474736  14.466042296371485   1.716697708483095 
 10.005088719265034   1.456551854967883   1.743401068243290 
  8.741885448367892   3.629825401581671   1.680161933698470 
  7.475058692549266   5.805512667795338   1.529399193496455 
  6.286172422585653   8.061262494721305   1.420446456250500 
  5.030765420415801  10.184889988404397   1.527750609833070 
  3.763757516375124  12.305783659882930   1.639910735220585 
  5.005745065312549  14.471262785756538   1.751268856159275 
 12.508631045609016   1.457031339566412   1.759581053534310 
 11.249636575159803   3.626404330851276   1.743946030748610 
  9.992621343929464   5.796327423387407   1.679663237068995 
  8.753891306799289   7.971109889774015   1.623191973969210 
  7.544077926782310  10.162374806235235   1.687110003628320 
  6.274626196354030  12.319727855264192   1.728738336158445 
  8.771382947245215  13.743506701018635   1.777467171321825 
 16.269586161696008   0.727881859860668   1.781307876267150 
 15.009760566016013   2.895492770575420   1.767717279015255 
 13.758253542939498   5.065336235720698   1.749088634161470 
 12.517386878562217   7.233125319393616   1.739206403753265 
 11.279021934409903   9.400249263552658   1.738520753195670 
 10.030296118486351  11.571309955941260   1.759211291853120 
 -6.249760948392205  13.729633461803404   1.770160232226015 
  1.248719138963032   0.713854045315706   1.777815847699950 
 -0.016230072128235   2.878073658254035   1.765245613572165 
 -1.264934187861309   5.054423386193402   1.710563330566545 
 -2.494301774123749   7.225883090381326   1.687700673741615 
 -3.737713703969654   9.393120207711465   1.712310409129560 
 -4.990984209746434  11.561094521460651   1.746948229842390 
 -3.742370691697189  13.723852955257623   1.747186812282975 
  3.759418078934246   0.709898003309232   1.760292555370575 
  2.488029142148912   2.862143027139667   1.741356199505460 
  1.221459179886720   5.021001885747418   1.657229309683005 
  0.021601678771761   7.212223511356465   1.560616455244455 
 -1.223378732996340   9.385384874441447   1.593535790188200 
 -2.482599451602175  11.554728090060681   1.684123081673085 
 -1.238161544363908  13.722414767209132   1.712395157729595 
  6.264020067466539   0.713895951586649   1.739510939193810 
  5.000711834851304   2.876132441442764   1.684537863111570 
  3.716346075973667   5.003596139727488   1.599532895695920 
  2.502583068587343   7.127095287972648   1.314321723856350 
  1.295486653679785   9.373192947769965   1.387672917583935 
  0.025641836645583  11.548698802492193   1.593480558336045 
  1.260481199564145  13.729025922523899   1.687580165280660 
  8.760075131986621   0.724967986364128   1.739607924609375 
  7.494161359927848   2.901039214957732   1.680932541743985 
  6.215611074175767   5.078011047175121   1.497209888899215 
  3.844253305426122   9.450628041176547   1.314103703376675 
  2.530095954370581  11.556774272509109   1.560574378618650 
  3.755582164144943  13.750007172982583   1.710761541794385 
 11.257845509173650   0.734237929123492   1.749227839860495 
  9.995018913199100   2.906755979766119   1.733539157554980 
  8.727211807739440   5.082610890006389   1.630022612872890 
  7.475466900165636   7.259918976307929   1.496327846265495 
  6.290240151097839   9.461442619532361   1.598484855058215 
  5.027625250069261  11.613340697851369   1.656797525049450 
  6.264581450092769  13.756765537788338   1.765116891319440 
 13.762581997627061   0.735235480287613   1.767936718139265 
 12.502741509233049   2.902882884685419   1.761118264276155 
 11.245427454544531   5.072787662376698   1.733311163904765 
  9.999967132419703   7.241313877309383   1.679766314058675 
  8.774924757731338   9.413107532768048   1.682664479647725 
  7.530633341035088  11.596037507161711   1.740201093088290 
