Sb B N                                  
   1.0000000000000000     
     8.7639499999999995  -15.1796066749929999    0.0000000000000000
     8.7639499999999995   15.1796066749929999    0.0000000000000000
     0.0000000000000000    0.0000000000000000   15.0000000000000000
   Sb   B    N 
     1    48    48
Selective dynamics
Direct
  0.3979506799429348  0.4844260613213222 -0.0041365264458205   T   T   T
  0.9100459944276095  0.9562781198952722  0.1091413181555952   T   T   T
  0.9092462335754720  0.0985333858726084  0.1100978014046566   T   T   T
  0.9086956474691542  0.2409752707282457  0.1091256843006849   T   T   T
  0.9080531218021072  0.3834324609988531  0.1099897466557804   T   T   T
  0.9070996651743584  0.5259272215258790  0.1107549492398614   T   T   T
  0.9047444171118684  0.6684467195785221  0.1083476318918519   T   T   T
  0.9084783783028946  0.8120568075253158  0.1072854587161955   T   T   T
  0.0508497792713912  0.9534878255076008  0.1077140524473406   T   T   T
  0.0513956193661143  0.0969169780269767  0.1135715954598626   T   T   T
  0.0516484811061311  0.2404214395227375  0.1140747817979467   T   T   T
  0.0513916625215106  0.3834566880232589  0.1148230215759991   T   T   T
  0.0503553332605356  0.5259462624971122  0.1164119380987854   T   T   T
  0.0494171308078112  0.6679912180125362  0.1111748676730950   T   T   T
  0.0500914380296567  0.8103036803769564  0.1056454933386761   T   T   T
  0.1930038270834747  0.9521560472849353  0.1079531185233078   T   T   T
  0.1927362819838130  0.0944343369113180  0.1159628418124095   T   T   T
  0.1928924414530429  0.2375462931957257  0.1165057680850961   T   T   T
  0.1945239059251670  0.3828756229567660  0.1070838419407620   T   T   T
  0.1934108641731327  0.5261274668416847  0.1188751005059569   T   T   T
  0.1937181660326426  0.6682124866321141  0.1193211171543929   T   T   T
  0.1932529586841746  0.8100096560631587  0.1098766604632823   T   T   T
  0.3361577203669781  0.9520958905509929  0.1081046049858637   T   T   T
  0.3354638222873600  0.0934334491317119  0.1145973957857980   T   T   T
  0.3345400352548403  0.2342117589954390  0.1214569285109454   T   T   T
  0.3324969454650040  0.3692893124460799  0.0868085819885436   T   T   T
  0.3336908768040783  0.5327083355204725  0.0884412864695018   T   T   T
  0.3384801211493333  0.6692417420603414  0.1241090360482380   T   T   T
  0.3368948533179503  0.8105838395309397  0.1169470587131212   T   T   T
  0.4797035295528494  0.9531147876308246  0.1100677068670902   T   T   T
  0.4789582169061508  0.0946731978305187  0.1082353082679303   T   T   T
  0.4779035829629171  0.2353506298717928  0.1186657811711829   T   T   T
  0.4768299828931376  0.3761749181405489  0.1121428142100519   T   T   T
  0.4849766709011188  0.6703300524906275  0.1147372609871584   T   T   T
  0.4808978200216169  0.8115611028326037  0.1207876998218177   T   T   T
  0.6233473346158148  0.9552282422834254  0.1128475033360666   T   T   T
  0.6224878548809821  0.0967279379650925  0.1053522831204044   T   T   T
  0.6217808348294155  0.2384281883119133  0.1093658620668205   T   T   T
  0.6197798802197243  0.3786306685501726  0.1193598202727108   T   T   T
  0.5374204283674283  0.4864375772430122  0.1080698425620965   T   T   T
  0.6367014128073176  0.6771053296895798  0.1128719854497568   T   T   T
  0.6250479979466582  0.8143062304113829  0.1202736935608491   T   T   T
  0.7669686777184616  0.9569327269454571  0.1127535207753645   T   T   T
  0.7659851800522639  0.0983613965240221  0.1072454957023305   T   T   T
  0.7653293595045568  0.2403863406539414  0.1055080371239891   T   T   T
  0.7646491806656729  0.3826990258511823  0.1106236037311692   T   T   T
  0.7649261271913106  0.5263769276366186  0.1151532766375988   T   T   T
  0.7607148080960024  0.6717484610771157  0.1113103760956227   T   T   T
  0.7693560171465716  0.8169716171807210  0.1147115983336315   T   T   T
  0.9557651167683778  0.9068086008495980  0.1067956748986599   T   T   T
  0.9567681639235803  0.0507193293551180  0.1101685707534994   T   T   T
  0.9566502568323485  0.1935847285639999  0.1110815220849814   T   T   T
  0.9561785830498627  0.3361649175183481  0.1111202490889237   T   T   T
  0.9550021272700623  0.4786322739357684  0.1119625557620896   T   T   T
  0.9530057495710996  0.6209149458429097  0.1097268565815652   T   T   T
  0.9541174909463558  0.7630927377732832  0.1057449146096746   T   T   T
  0.0977302861281580  0.9052083521028874  0.1057188497481047   T   T   T
  0.0980536482346573  0.0482938499343216  0.1122557335508595   T   T   T
  0.0984959587652536  0.1919081643672532  0.1171024182182941   T   T   T
  0.0998115434179916  0.3360179344263627  0.1137206269704010   T   T   T
  0.0984059144983213  0.4785459694974173  0.1190738194153595   T   T   T
  0.0978617133547966  0.6208985626848720  0.1164269226908561   T   T   T
  0.0976033151298478  0.7627681743113660  0.1079136597951834   T   T   T
  0.2408718003705231  0.9048461021957462  0.1071725111644020   T   T   T
  0.2404493538914731  0.0469733268635136  0.1128203481770272   T   T   T
  0.2399426117415550  0.1892645605129924  0.1207151687109046   T   T   T
  0.2408641548019531  0.3327174505887867  0.1048655992243212   T   T   T
  0.2415540423890488  0.4791453454011550  0.1070563710686655   T   T   T
  0.2425306231695760  0.6211865261052851  0.1232262307604405   T   T   T
  0.2414598856740464  0.7630053034487971  0.1158820296222497   T   T   T
  0.3844344104921600  0.9052081693369285  0.1104203745729224   T   T   T
  0.3837794324254186  0.0470337711744057  0.1087895130172727   T   T   T
  0.3830876386308003  0.1881224529744386  0.1215638724942294   T   T   T
  0.3822273108049172  0.3286936662955558  0.1127322781620372   T   T   T
  0.3882861839497173  0.6223078535547606  0.1166432233254175   T   T   T
  0.3856715663279908  0.7638465083081518  0.1235096697333265   T   T   T
  0.5281082414901552  0.9062908233055250  0.1148688076695268   T   T   T
  0.5272369167590619  0.0481242915895401  0.1057959464903769   T   T   T
  0.5266205583539798  0.1898919251245699  0.1115397824936118   T   T   T
  0.5253483431413533  0.3309531621761642  0.1208729956323720   T   T   T
  0.5007494288661133  0.5397188284827998  0.0897131700892540   T   T   T
  0.5418300216625088  0.6286985671722214  0.1054845244828554   T   T   T
  0.5300858963841297  0.7644828681263217  0.1218410346425941   T   T   T
  0.6718319846545301  0.9086027443017646  0.1165633393674876   T   T   T
  0.6707128391170126  0.0500026387389126  0.1072097840729714   T   T   T
  0.6700290642150544  0.1920844604265310  0.1046368820373088   T   T   T
  0.6692780462540647  0.3342403358083303  0.1131957381969485   T   T   T
  0.6692073176309856  0.4760494023457147  0.1227389936431884   T   T   T
  0.6282922202402342  0.5223822217342317  0.1243287484734001   T   T   T
  0.6751499122690668  0.7688850585752187  0.1202984256426789   T   T   T
  0.8153418813553598  0.9101023290280896  0.1119445186431152   T   T   T
  0.8140910692996043  0.0513732575543760  0.1093330622755521   T   T   T
  0.8134652687769781  0.1934342495922921  0.1059013914861042   T   T   T
  0.8126239384204564  0.3358187974931841  0.1073141084350986   T   T   T
  0.8114093702934845  0.4784643581319615  0.1116063095208985   T   T   T
  0.8064354294558053  0.6213885585043833  0.1107965835450537   T   T   T
  0.8127030512803356  0.7654318063194087  0.1108057937746189   T   T   T

  0.00000000E+00  0.00000000E+00  0.00000000E+00
  0.00000000E+00  0.00000000E+00  0.00000000E+00
  0.00000000E+00  0.00000000E+00  0.00000000E+00
  0.00000000E+00  0.00000000E+00  0.00000000E+00
  0.00000000E+00  0.00000000E+00  0.00000000E+00
  0.00000000E+00  0.00000000E+00  0.00000000E+00
  0.00000000E+00  0.00000000E+00  0.00000000E+00
  0.00000000E+00  0.00000000E+00  0.00000000E+00
  0.00000000E+00  0.00000000E+00  0.00000000E+00
  0.00000000E+00  0.00000000E+00  0.00000000E+00
  0.00000000E+00  0.00000000E+00  0.00000000E+00
  0.00000000E+00  0.00000000E+00  0.00000000E+00
  0.00000000E+00  0.00000000E+00  0.00000000E+00
  0.00000000E+00  0.00000000E+00  0.00000000E+00
  0.00000000E+00  0.00000000E+00  0.00000000E+00
  0.00000000E+00  0.00000000E+00  0.00000000E+00
  0.00000000E+00  0.00000000E+00  0.00000000E+00
  0.00000000E+00  0.00000000E+00  0.00000000E+00
  0.00000000E+00  0.00000000E+00  0.00000000E+00
  0.00000000E+00  0.00000000E+00  0.00000000E+00
  0.00000000E+00  0.00000000E+00  0.00000000E+00
  0.00000000E+00  0.00000000E+00  0.00000000E+00
  0.00000000E+00  0.00000000E+00  0.00000000E+00
  0.00000000E+00  0.00000000E+00  0.00000000E+00
  0.00000000E+00  0.00000000E+00  0.00000000E+00
  0.00000000E+00  0.00000000E+00  0.00000000E+00
  0.00000000E+00  0.00000000E+00  0.00000000E+00
  0.00000000E+00  0.00000000E+00  0.00000000E+00
  0.00000000E+00  0.00000000E+00  0.00000000E+00
  0.00000000E+00  0.00000000E+00  0.00000000E+00
  0.00000000E+00  0.00000000E+00  0.00000000E+00
  0.00000000E+00  0.00000000E+00  0.00000000E+00
  0.00000000E+00  0.00000000E+00  0.00000000E+00
  0.00000000E+00  0.00000000E+00  0.00000000E+00
  0.00000000E+00  0.00000000E+00  0.00000000E+00
  0.00000000E+00  0.00000000E+00  0.00000000E+00
  0.00000000E+00  0.00000000E+00  0.00000000E+00
  0.00000000E+00  0.00000000E+00  0.00000000E+00
  0.00000000E+00  0.00000000E+00  0.00000000E+00
  0.00000000E+00  0.00000000E+00  0.00000000E+00
  0.00000000E+00  0.00000000E+00  0.00000000E+00
  0.00000000E+00  0.00000000E+00  0.00000000E+00
  0.00000000E+00  0.00000000E+00  0.00000000E+00
  0.00000000E+00  0.00000000E+00  0.00000000E+00
  0.00000000E+00  0.00000000E+00  0.00000000E+00
  0.00000000E+00  0.00000000E+00  0.00000000E+00
  0.00000000E+00  0.00000000E+00  0.00000000E+00
  0.00000000E+00  0.00000000E+00  0.00000000E+00
  0.00000000E+00  0.00000000E+00  0.00000000E+00
  0.00000000E+00  0.00000000E+00  0.00000000E+00
  0.00000000E+00  0.00000000E+00  0.00000000E+00
  0.00000000E+00  0.00000000E+00  0.00000000E+00
  0.00000000E+00  0.00000000E+00  0.00000000E+00
  0.00000000E+00  0.00000000E+00  0.00000000E+00
  0.00000000E+00  0.00000000E+00  0.00000000E+00
  0.00000000E+00  0.00000000E+00  0.00000000E+00
  0.00000000E+00  0.00000000E+00  0.00000000E+00
  0.00000000E+00  0.00000000E+00  0.00000000E+00
  0.00000000E+00  0.00000000E+00  0.00000000E+00
  0.00000000E+00  0.00000000E+00  0.00000000E+00
  0.00000000E+00  0.00000000E+00  0.00000000E+00
  0.00000000E+00  0.00000000E+00  0.00000000E+00
  0.00000000E+00  0.00000000E+00  0.00000000E+00
  0.00000000E+00  0.00000000E+00  0.00000000E+00
  0.00000000E+00  0.00000000E+00  0.00000000E+00
  0.00000000E+00  0.00000000E+00  0.00000000E+00
  0.00000000E+00  0.00000000E+00  0.00000000E+00
  0.00000000E+00  0.00000000E+00  0.00000000E+00
  0.00000000E+00  0.00000000E+00  0.00000000E+00
  0.00000000E+00  0.00000000E+00  0.00000000E+00
  0.00000000E+00  0.00000000E+00  0.00000000E+00
  0.00000000E+00  0.00000000E+00  0.00000000E+00
  0.00000000E+00  0.00000000E+00  0.00000000E+00
  0.00000000E+00  0.00000000E+00  0.00000000E+00
  0.00000000E+00  0.00000000E+00  0.00000000E+00
  0.00000000E+00  0.00000000E+00  0.00000000E+00
  0.00000000E+00  0.00000000E+00  0.00000000E+00
  0.00000000E+00  0.00000000E+00  0.00000000E+00
  0.00000000E+00  0.00000000E+00  0.00000000E+00
  0.00000000E+00  0.00000000E+00  0.00000000E+00
  0.00000000E+00  0.00000000E+00  0.00000000E+00
  0.00000000E+00  0.00000000E+00  0.00000000E+00
  0.00000000E+00  0.00000000E+00  0.00000000E+00
  0.00000000E+00  0.00000000E+00  0.00000000E+00
  0.00000000E+00  0.00000000E+00  0.00000000E+00
  0.00000000E+00  0.00000000E+00  0.00000000E+00
  0.00000000E+00  0.00000000E+00  0.00000000E+00
  0.00000000E+00  0.00000000E+00  0.00000000E+00
  0.00000000E+00  0.00000000E+00  0.00000000E+00
  0.00000000E+00  0.00000000E+00  0.00000000E+00
  0.00000000E+00  0.00000000E+00  0.00000000E+00
  0.00000000E+00  0.00000000E+00  0.00000000E+00
  0.00000000E+00  0.00000000E+00  0.00000000E+00
  0.00000000E+00  0.00000000E+00  0.00000000E+00
  0.00000000E+00  0.00000000E+00  0.00000000E+00
  0.00000000E+00  0.00000000E+00  0.00000000E+00
  0.00000000E+00  0.00000000E+00  0.00000000E+00
