Species order: X N B                    
   2.51242800000000     
     5.9449720136058266    0.0000000000000000    0.0000000000000000
    -2.9724860068029120    5.1484967885702053   -0.0000000000000001
     0.0000000000000000    0.0000000000000009    5.3101128803662583
   Al   N    B 
     1   143   143
Direct
  0.4832517087720035  0.4082925210526661  0.3750000000000000
  0.1111286149550920  0.0555702361787544  0.1248526168576683
  0.6112601920384563  0.5557552417183260  0.1233106769277792
  0.4444943911718109  0.0555701382369765  0.1248621678951370
  0.9444634118035186  0.5555538826951246  0.1249364819973979
  0.7778309409554598  0.0555821371443976  0.1248638085434640
  0.1111293737366946  0.7222313535350110  0.6251094545129849
  0.4444943911718109  0.7222575862681700  0.6251378321048634
  0.2777772400542937  0.2222161667787970  0.6252735745468240
  0.7778384955922405  0.7223020342989320  0.6252763992201721
  0.6111809410160272  0.2222013777066284  0.6253933734929101
  0.9444798235721935  0.2222293836025809  0.6251078754817428
  0.2778103088072944  0.7222354162225951  0.1249055348732796
  0.1111252915268512  0.2222293124300899  0.1248481635615611
  0.4445127386401779  0.2222363645950243  0.1247113920700418
  0.6111809410160272  0.7223128966427280  0.1246066265070902
  0.9444634118035186  0.7222428624417283  0.1249364819973979
  0.7778341003143877  0.2222139167115728  0.1248931189609550
  0.1111335978056005  0.8889101818458247  0.6251073455003989
  0.4444878544528312  0.8889105938930805  0.6251115741624269
  0.2777772400542937  0.3888944066088252  0.6252735745468240
  0.6112601920384563  0.3888382836534595  0.6266893230722219
  0.7778341003143877  0.8889535169361450  0.6251068810390452
  0.9444793015521160  0.3888839021758616  0.6250599709453747
  0.1111286149550920  0.3888917121096661  0.1248526168576683
  0.2778103088072944  0.8889082259180282  0.1249055348732796
  0.6111643329511177  0.8889341383357400  0.1248981509253828
  0.4444211260768795  0.3888772297051042  0.1258723281719170
  0.9444793015521160  0.8889287327095825  0.1249400290546250
  0.7778384955922405  0.3888697946266362  0.1247236007798275
  0.2778166093154577  0.5555705911075371  0.6251164584882748
  0.1111286149550920  0.0555702361787544  0.6251473831423319
  0.6112601920384563  0.5557552417183259  0.6266893230722219
  0.4444943911718109  0.0555701382369765  0.6251378321048634
  0.9444634118035186  0.5555538826951246  0.6250635180026023
  0.1111335978056005  0.5555567492931057  0.1248926544996019
  0.7778309409554598  0.0555821371443976  0.6251361914565358
  0.2778166093154577  0.0555793515412558  0.1248835415117245
  0.4445127386401779  0.5556097073784886  0.1247113920700418
  0.7778141122275700  0.5555737227804535  0.1246286353019380
  0.6111643329511177  0.0555635279487074  0.1248981509253828
  0.4445127386401779  0.5556097073784886  0.6252886079299589
  0.9444798235721935  0.0555837733029482  0.1248921245182571
  0.2778103088072944  0.7222354162225951  0.6250944651267208
  0.1111252915268512  0.2222293124300899  0.6251518364384382
  0.4445127386401779  0.2222363645950243  0.6252886079299589
  0.6111809410160272  0.7223128966427280  0.6253933734929101
  0.9444634118035186  0.7222428624417283  0.6250635180026023
  0.7778341003143877  0.2222139167115728  0.6251068810390452
  0.1111293737366946  0.7222313535350110  0.1248905454870148
  0.4444943911718109  0.7222575862681700  0.1248621678951370
  0.2777772400542937  0.2222161667787970  0.1247264254531759
  0.7778384955922405  0.7223020342989320  0.1247236007798275
  0.6111809410160272  0.2222013777066284  0.1246066265070902
  0.9444798235721935  0.2222293836025809  0.1248921245182571
  0.1111286149550920  0.3888917121096661  0.6251473831423319
  0.2778103088072944  0.8889082259180282  0.6250944651267208
  0.6111643329511177  0.8889341383357400  0.6251018490746166
  0.4444211260768795  0.3888772297051042  0.6241276718280835
  0.9444793015521160  0.8889287327095825  0.6250599709453747
  0.1111335978056005  0.8889101818458247  0.1248926544996019
  0.7778384955922405  0.3888697946266362  0.6252763992201721
  0.4444878544528312  0.8889105938930805  0.1248884258375735
  0.2777772400542937  0.3888944066088252  0.1247264254531759
  0.2778166093154577  0.5555705911075371  0.1248835415117245
  0.6112601920384563  0.3888382836534595  0.1233106769277792
  0.7778341003143877  0.8889535169361450  0.1248931189609550
  0.9444793015521160  0.3888839021758616  0.1249400290546250
  0.1111335978056005  0.5555567492931057  0.6251073455003989
  0.2778166093154577  0.0555793515412558  0.6251164584882748
  0.7778141122275700  0.5555737227804535  0.6253713646980621
  0.6111643329511177  0.0555635279487074  0.6251018490746166
  0.9444798235721935  0.0555837733029482  0.6251078754817428
  0.0567577873789318  0.1118229772045459  0.3750000000000000
  0.5548697172635297  0.6168534665034533  0.3750000000000000
  0.3871627220953912  0.1055914315346508  0.3750000000000000
  0.8861745918003199  0.6097539625668319  0.3750000000000000
  0.7227300706521231  0.1107740444522762  0.3750000000000000
  0.0555697166407251  0.7777843335981180  0.8750000000000000
  0.3888920630894297  0.7777833873135505  0.8750000000000000
  0.2222306024847608  0.2777819679090485  0.8750000000000000
  0.7222286405189007  0.7777773906109812  0.8750000000000000
  0.5555529741087920  0.2777701706219668  0.8750000000000000
  0.8888977943135875  0.2777865190884599  0.8750000000000000
  0.2200293427050901  0.7766813380192132  0.3750000000000000
  0.0567577873789318  0.2782681435077214  0.3750000000000000
  0.3893727496239412  0.2708843675528980  0.3750000000000000
  0.5550282058288664  0.7803366347797167  0.3750000000000000
  0.8875435187475655  0.7772978644678858  0.3750000000000000
  0.7223752859361190  0.2763710376870879  0.3750000000000000
  0.0555636273551957  0.9444448392113705  0.8750000000000000
  0.3888920630894297  0.9444420091092137  0.8750000000000000
  0.2222272732183397  0.4444510957582752  0.8750000000000000
  0.5555538292039872  0.4444435812686579  0.8750000000000000
  0.7222256763072362  0.9444446836066133  0.8750000000000000
  0.8889041891160974  0.4444545752109098  0.8750000000000000
  0.0547215037444048  0.4443327000888359  0.3750000000000000
  0.2202097562409853  0.9422429031305346  0.3750000000000000
  0.5550963473073613  0.9442148403203460  0.3750000000000000
  0.3893727496239412  0.4518217154043792  0.3750000000000000
  0.8894531102869820  0.9451823393317212  0.3750000000000000
  0.7197879308029124  0.4424791220424693  0.3750000000000000
  0.2222268050747319  0.6111176165330812  0.8750000000000000
  0.0555615821006859  0.1111116823508302  0.8750000000000000
  0.5555529741087920  0.6111161368201619  0.8750000000000000
  0.3888902619505567  0.1111036287489546  0.8750000000000000
  0.8889131087154259  0.6111232210243842  0.8750000000000000
  0.0533275684789258  0.6102586682220776  0.3750000000000000
  0.7222256763072362  0.1111143260339589  0.8750000000000000
  0.2217672111759897  0.1096062465450594  0.3750000000000000
  0.3871627220953914  0.6149046238940838  0.3750000000000000
  0.7197879308029124  0.6106421420937796  0.3750000000000000
  0.5550282058288664  0.1080249043824850  0.3750000000000000
  0.3888902619505567  0.6111199665349450  0.8750000000000000
  0.8899051823033417  0.1116192578183425  0.3750000000000000
  0.2222296706620725  0.7777815019977040  0.8750000000000000
  0.0555615821006859  0.2777832330831913  0.8750000000000000
  0.3888986051432142  0.2777791676944134  0.8750000000000000
  0.5555561816683788  0.7777812619763497  0.8750000000000000
  0.8889041891160974  0.7777829472385240  0.8750000000000000
  0.7222286405189007  0.2777845832412550  0.8750000000000000
  0.0533275684789258  0.7764022335901851  0.3750000000000000
  0.3872790770986558  0.7784229286365334  0.3750000000000000
  0.2248583572658812  0.2790958452996086  0.3750000000000000
  0.7223752859361190  0.7793375815823661  0.3750000000000000
  0.5548697172635297  0.2713495840934120  0.3750000000000000
  0.8894531102869820  0.2776041042885952  0.3750000000000000
  0.0555636273551957  0.4444521214771541  0.8750000000000000
  0.2222268050747319  0.9444425218749867  0.8750000000000000
  0.5555561774707111  0.9444447554020198  0.8750000000000000
  0.3888986051432142  0.4444527707821368  0.8750000000000000
  0.8888977943135875  0.9444446085584641  0.8750000000000000
  0.0547215037444048  0.9437221369888971  0.3750000000000000
  0.7222407002511942  0.4444570091604048  0.8750000000000000
  0.3872790770986558  0.9421894817954591  0.3750000000000000
  0.2217672111759897  0.4454942979642663  0.3750000000000000
  0.2202097562409853  0.6113001864437861  0.3750000000000000
  0.7227300706521231  0.9452893595331819  0.3750000000000000
  0.8875435187475655  0.4435789876130152  0.3750000000000000
  0.0555697166407251  0.6111187163759429  0.8750000000000000
  0.2222272732183397  0.1111095107934004  0.8750000000000000
  0.7222407002511942  0.6111170244241260  0.8750000000000000
  0.5555561816683788  0.1111082530253638  0.8750000000000000
  0.8888957270403522  0.1111145301868479  0.8750000000000000
  0.1113670414229467  0.0552118732805000  0.3750000000000000
  0.6080855649696576  0.5584571655910449  0.3750000000000000
  0.4436816741970586  0.0524756704070363  0.3750000000000000
  0.9420502954754679  0.5546010061062704  0.3750000000000000
  0.7787194779179475  0.0560264056256415  0.3750000000000000
  0.1111140918991144  0.7222237126162222  0.8750000000000000
  0.4444487535905795  0.7221987007272885  0.8750000000000000
  0.2778357006692056  0.2222615941186462  0.8750000000000000
  0.7777500733832801  0.7221693237454319  0.8750000000000000
  0.6110920057709880  0.2222592100133385  0.8750000000000000
  0.9444613925740258  0.2222388489843328  0.8750000000000000
  0.2761178472934885  0.7220303421672714  0.3750000000000000
  0.1139913955413443  0.2236623644373365  0.3750000000000000
  0.4428871120028764  0.2160054807470968  0.3750000000000000
  0.6110500570266418  0.7256255175057238  0.3750000000000000
  0.9420502954754679  0.7207826227025328  0.3750000000000000
  0.7783251193000859  0.2218545084421952  0.3750000000000000
  0.1111234161287201  0.8888953822004774  0.8750000000000000
  0.4444442470570084  0.8888887901951680  0.8750000000000000
  0.2778357006692056  0.3889074398838886  0.8750000000000000
  0.6110886601218025  0.3889116793662364  0.8750000000000000
  0.7777663198326831  0.8888532976441605  0.8750000000000000
  0.9444472284267577  0.3889075378643433  0.8750000000000000
  0.1113670414229467  0.3894885014757755  0.3750000000000000
  0.2761178472934885  0.8874208384595454  0.3750000000000000
  0.6113786733722395  0.8901420918389691  0.3750000000000000
  0.9437689850630936  0.8884592825072378  0.3750000000000000
  0.7760902339251156  0.3877816002880369  0.3750000000000000
  0.2778063079789319  0.5555518846831492  0.8750000000000000
  0.1111456804414583  0.0555744883461810  0.8750000000000000
  0.6110886601218025  0.5555103140888941  0.8750000000000000
  0.4444487535905795  0.0555833861966273  0.8750000000000000
  0.9444334276787162  0.5555600880504177  0.8750000000000000
  0.1093813515031564  0.5552758931925068  0.3750000000000000
  0.7777741102847938  0.0555537218090645  0.8750000000000000
  0.2764951473005199  0.0532971525678606  0.3750000000000000
  0.4428871120028764  0.5602149645891150  0.3750000000000000
  0.7740754139298696  0.5537043736316025  0.3750000000000000
  0.6113786733722395  0.0545699148665996  0.3750000000000000
  0.4444678106180657  0.5555362732899717  0.8750000000000000
  0.9457779816797750  0.0563957470736131  0.3750000000000000
  0.2777890643991600  0.7222196187875721  0.8750000000000000
  0.1111605954999550  0.2222469644166418  0.8750000000000000
  0.4444678106180657  0.2222648706614292  0.8750000000000000
  0.6110920057709880  0.7221661290909778  0.8750000000000000
  0.9444334276787162  0.7222066729616348  0.8750000000000000
  0.7777663198326831  0.2222463555218506  0.8750000000000000
  0.1089304298299845  0.7211318815816568  0.3750000000000000
  0.4436816741970586  0.7245393371233586  0.3750000000000000
  0.2806656628035090  0.2221265461641413  0.3750000000000000
  0.7760902339251156  0.7216419669704076  0.3750000000000000
  0.6110500570266418  0.2187578728542454  0.3750000000000000
  0.9457779816797750  0.2227155679394984  0.3750000000000000
  0.1111456804414583  0.3889045254286058  0.8750000000000000
  0.2777890643991600  0.8889027789449162  0.8750000000000000
  0.6111003005061993  0.8888661018890897  0.8750000000000000
  0.4444948048001329  0.3889140690667308  0.8750000000000000
  0.9444472284267577  0.8888730238957419  0.8750000000000000
  0.1093813515031564  0.8874387916439781  0.3750000000000000
  0.7777500733832801  0.3889140829711766  0.8750000000000000
  0.4437202200845071  0.8885267767089179  0.3750000000000000
  0.2806656628035090  0.3918724499726968  0.3750000000000000
  0.2764951473005199  0.5565313280659954  0.3750000000000000
  0.6080855649696576  0.3829617327119406  0.3750000000000000
  0.7783251193000859  0.8898039441912191  0.3750000000000000
  0.9437689850630936  0.3886430358891846  0.3750000000000000
  0.1111234161287201  0.5555613672615711  0.8750000000000000
  0.2778063079789319  0.0555877566291185  0.8750000000000000
  0.7777452191875974  0.5555392762604657  0.8750000000000000
  0.6111003005061993  0.0555675319504383  0.8750000000000000
  0.9444613925740258  0.0555558769230292  0.8750000000000000
  0.0556378577094852  0.1111778621907282  0.1251069486470816
  0.5556627026440144  0.6110435161723998  0.1247857185172521
  0.3890085676960930  0.1112938831900983  0.1251736338588691
  0.8887462728288732  0.6110398030811073  0.1251466225960933
  0.7222601857028909  0.1111387720609832  0.1250720750169671
  0.0555275176237747  0.7777837541196155  0.6249173171807920
  0.3889654776883458  0.7777691003554261  0.6249208146904933
  0.2223561250044134  0.2778447291688745  0.6247714205853870
  0.7222137332386450  0.7777474496849297  0.6249837034674409
  0.5556627026440144  0.2779525198049511  0.6252142814827477
  0.8889114033844978  0.2777760914812477  0.6249011112015603
  0.2222591357784841  0.7777962345559097  0.1250562783959443
  0.0556378577094852  0.2777933288520926  0.1251069486470816
  0.3889679048082099  0.2778376298564321  0.1258206927951853
  0.5556228610026073  0.7777464342622843  0.1250744010058033
  0.8888341110586228  0.7777602603537266  0.1251170124860805
  0.7222137332386450  0.2777996168870518  0.1250162965325596
  0.0555907584350267  0.9445073564000760  0.6249016005139133
  0.3889654776883458  0.9445297106662549  0.6249208146904933
  0.2223303517251834  0.4444178465019844  0.6248581666145158
  0.5557927595036464  0.4445630464184875  0.6233407922891206
  0.7222601857028909  0.9444547469752423  0.6249279249830326
  0.8888341110586228  0.4444071840382319  0.6248829875139196
  0.0555907584350267  0.4444167353682801  0.1250983994860870
  0.2222905628911647  0.9445516830754096  0.1251008351467623
  0.5556167705007787  0.9444750519170539  0.1250856064869239
  0.3889679048082099  0.4444636082851142  0.1258206927951853
  0.8889114033844978  0.9444686452365848  0.1250988887984401
  0.7220871740114527  0.4443812086499561  0.1246679384112298
  0.2222905628911647  0.6110722131490904  0.6248991648532375
  0.0556378577094852  0.1111778621907282  0.6248930513529184
  0.5556627026440144  0.6110435161723998  0.6252142814827477
  0.3890085676960930  0.1112938831900983  0.6248263661411307
  0.8887462728288732  0.6110398030811073  0.6248533774039072
  0.0555275176237747  0.6110770968374947  0.1250826828192086
  0.7222601857028909  0.1111387720609832  0.6249279249830326
  0.2223303517251834  0.1112458385565348  0.1251418333854846
  0.3890085676960930  0.6110480178393380  0.1251736338588691
  0.7220871740114527  0.6110392986948321  0.1246679384112298
  0.5556228610026073  0.1112097600736586  0.1250744010058033
  0.3890085676960930  0.6110480178393380  0.6248263661411307
  0.8889383996597617  0.1111358664965521  0.1250587977021926
  0.2222591357784841  0.7777962345559097  0.6249437216040556
  0.0556378577094852  0.2777933288520926  0.6248930513529184
  0.3889679048082099  0.2778376298564321  0.6241793072048154
  0.5556228610026073  0.7777464342622843  0.6249255989941971
  0.8888341110586228  0.7777602603537266  0.6248829875139196
  0.7222137332386450  0.2777996168870518  0.6249837034674409
  0.0555275176237747  0.7777837541196155  0.1250826828192086
  0.3889654776883458  0.7777691003554261  0.1250791853095066
  0.2223561250044134  0.2778447291688745  0.1252285794146134
  0.7222137332386450  0.7777474496849297  0.1250162965325596
  0.5556627026440144  0.2779525198049511  0.1247857185172521
  0.8889114033844978  0.2777760914812477  0.1250988887984401
  0.0555907584350267  0.4444167353682801  0.6249016005139133
  0.2222905628911647  0.9445516830754096  0.6248991648532375
  0.5556167705007787  0.9444750519170539  0.6249143935130772
  0.3889679048082099  0.4444636082851142  0.6241793072048154
  0.8889114033844978  0.9444686452365848  0.6249011112015603
  0.0555907584350267  0.9445073564000760  0.1250983994860870
  0.7220871740114527  0.4443812086499561  0.6253320615887702
  0.3889654776883458  0.9445297106662549  0.1250791853095066
  0.2223303517251834  0.4444178465019844  0.1251418333854846
  0.2222905628911647  0.6110722131490904  0.1251008351467623
  0.5557927595036464  0.4445630464184875  0.1266592077108785
  0.7222601857028909  0.9444547469752423  0.1250720750169671
  0.8888341110586228  0.4444071840382319  0.1251170124860805
  0.0555275176237747  0.6110770968374947  0.6249173171807920
  0.2223303517251834  0.1112458385565348  0.6248581666145158
  0.7220871740114527  0.6110392986948321  0.6253320615887702
  0.5556228610026073  0.1112097600736586  0.6249255989941971
  0.8889383996597617  0.1111358664965521  0.6249412022978073
 
  0.00000000E+00  0.00000000E+00  0.00000000E+00
  0.00000000E+00  0.00000000E+00  0.00000000E+00
  0.00000000E+00  0.00000000E+00  0.00000000E+00
  0.00000000E+00  0.00000000E+00  0.00000000E+00
  0.00000000E+00  0.00000000E+00  0.00000000E+00
  0.00000000E+00  0.00000000E+00  0.00000000E+00
  0.00000000E+00  0.00000000E+00  0.00000000E+00
  0.00000000E+00  0.00000000E+00  0.00000000E+00
  0.00000000E+00  0.00000000E+00  0.00000000E+00
  0.00000000E+00  0.00000000E+00  0.00000000E+00
  0.00000000E+00  0.00000000E+00  0.00000000E+00
  0.00000000E+00  0.00000000E+00  0.00000000E+00
  0.00000000E+00  0.00000000E+00  0.00000000E+00
  0.00000000E+00  0.00000000E+00  0.00000000E+00
  0.00000000E+00  0.00000000E+00  0.00000000E+00
  0.00000000E+00  0.00000000E+00  0.00000000E+00
  0.00000000E+00  0.00000000E+00  0.00000000E+00
  0.00000000E+00  0.00000000E+00  0.00000000E+00
  0.00000000E+00  0.00000000E+00  0.00000000E+00
  0.00000000E+00  0.00000000E+00  0.00000000E+00
  0.00000000E+00  0.00000000E+00  0.00000000E+00
  0.00000000E+00  0.00000000E+00  0.00000000E+00
  0.00000000E+00  0.00000000E+00  0.00000000E+00
  0.00000000E+00  0.00000000E+00  0.00000000E+00
  0.00000000E+00  0.00000000E+00  0.00000000E+00
  0.00000000E+00  0.00000000E+00  0.00000000E+00
  0.00000000E+00  0.00000000E+00  0.00000000E+00
  0.00000000E+00  0.00000000E+00  0.00000000E+00
  0.00000000E+00  0.00000000E+00  0.00000000E+00
  0.00000000E+00  0.00000000E+00  0.00000000E+00
  0.00000000E+00  0.00000000E+00  0.00000000E+00
  0.00000000E+00  0.00000000E+00  0.00000000E+00
  0.00000000E+00  0.00000000E+00  0.00000000E+00
  0.00000000E+00  0.00000000E+00  0.00000000E+00
  0.00000000E+00  0.00000000E+00  0.00000000E+00
  0.00000000E+00  0.00000000E+00  0.00000000E+00
  0.00000000E+00  0.00000000E+00  0.00000000E+00
  0.00000000E+00  0.00000000E+00  0.00000000E+00
  0.00000000E+00  0.00000000E+00  0.00000000E+00
  0.00000000E+00  0.00000000E+00  0.00000000E+00
  0.00000000E+00  0.00000000E+00  0.00000000E+00
  0.00000000E+00  0.00000000E+00  0.00000000E+00
  0.00000000E+00  0.00000000E+00  0.00000000E+00
  0.00000000E+00  0.00000000E+00  0.00000000E+00
  0.00000000E+00  0.00000000E+00  0.00000000E+00
  0.00000000E+00  0.00000000E+00  0.00000000E+00
  0.00000000E+00  0.00000000E+00  0.00000000E+00
  0.00000000E+00  0.00000000E+00  0.00000000E+00
  0.00000000E+00  0.00000000E+00  0.00000000E+00
  0.00000000E+00  0.00000000E+00  0.00000000E+00
  0.00000000E+00  0.00000000E+00  0.00000000E+00
  0.00000000E+00  0.00000000E+00  0.00000000E+00
  0.00000000E+00  0.00000000E+00  0.00000000E+00
  0.00000000E+00  0.00000000E+00  0.00000000E+00
  0.00000000E+00  0.00000000E+00  0.00000000E+00
  0.00000000E+00  0.00000000E+00  0.00000000E+00
  0.00000000E+00  0.00000000E+00  0.00000000E+00
  0.00000000E+00  0.00000000E+00  0.00000000E+00
  0.00000000E+00  0.00000000E+00  0.00000000E+00
  0.00000000E+00  0.00000000E+00  0.00000000E+00
  0.00000000E+00  0.00000000E+00  0.00000000E+00
  0.00000000E+00  0.00000000E+00  0.00000000E+00
  0.00000000E+00  0.00000000E+00  0.00000000E+00
  0.00000000E+00  0.00000000E+00  0.00000000E+00
  0.00000000E+00  0.00000000E+00  0.00000000E+00
  0.00000000E+00  0.00000000E+00  0.00000000E+00
  0.00000000E+00  0.00000000E+00  0.00000000E+00
  0.00000000E+00  0.00000000E+00  0.00000000E+00
  0.00000000E+00  0.00000000E+00  0.00000000E+00
  0.00000000E+00  0.00000000E+00  0.00000000E+00
  0.00000000E+00  0.00000000E+00  0.00000000E+00
  0.00000000E+00  0.00000000E+00  0.00000000E+00
  0.00000000E+00  0.00000000E+00  0.00000000E+00
  0.00000000E+00  0.00000000E+00  0.00000000E+00
  0.00000000E+00  0.00000000E+00  0.00000000E+00
  0.00000000E+00  0.00000000E+00  0.00000000E+00
  0.00000000E+00  0.00000000E+00  0.00000000E+00
  0.00000000E+00  0.00000000E+00  0.00000000E+00
  0.00000000E+00  0.00000000E+00  0.00000000E+00
  0.00000000E+00  0.00000000E+00  0.00000000E+00
  0.00000000E+00  0.00000000E+00  0.00000000E+00
  0.00000000E+00  0.00000000E+00  0.00000000E+00
  0.00000000E+00  0.00000000E+00  0.00000000E+00
  0.00000000E+00  0.00000000E+00  0.00000000E+00
  0.00000000E+00  0.00000000E+00  0.00000000E+00
  0.00000000E+00  0.00000000E+00  0.00000000E+00
  0.00000000E+00  0.00000000E+00  0.00000000E+00
  0.00000000E+00  0.00000000E+00  0.00000000E+00
  0.00000000E+00  0.00000000E+00  0.00000000E+00
  0.00000000E+00  0.00000000E+00  0.00000000E+00
  0.00000000E+00  0.00000000E+00  0.00000000E+00
  0.00000000E+00  0.00000000E+00  0.00000000E+00
  0.00000000E+00  0.00000000E+00  0.00000000E+00
  0.00000000E+00  0.00000000E+00  0.00000000E+00
  0.00000000E+00  0.00000000E+00  0.00000000E+00
  0.00000000E+00  0.00000000E+00  0.00000000E+00
  0.00000000E+00  0.00000000E+00  0.00000000E+00
  0.00000000E+00  0.00000000E+00  0.00000000E+00
  0.00000000E+00  0.00000000E+00  0.00000000E+00
  0.00000000E+00  0.00000000E+00  0.00000000E+00
  0.00000000E+00  0.00000000E+00  0.00000000E+00
  0.00000000E+00  0.00000000E+00  0.00000000E+00
  0.00000000E+00  0.00000000E+00  0.00000000E+00
  0.00000000E+00  0.00000000E+00  0.00000000E+00
  0.00000000E+00  0.00000000E+00  0.00000000E+00
  0.00000000E+00  0.00000000E+00  0.00000000E+00
  0.00000000E+00  0.00000000E+00  0.00000000E+00
  0.00000000E+00  0.00000000E+00  0.00000000E+00
  0.00000000E+00  0.00000000E+00  0.00000000E+00
  0.00000000E+00  0.00000000E+00  0.00000000E+00
  0.00000000E+00  0.00000000E+00  0.00000000E+00
  0.00000000E+00  0.00000000E+00  0.00000000E+00
  0.00000000E+00  0.00000000E+00  0.00000000E+00
  0.00000000E+00  0.00000000E+00  0.00000000E+00
  0.00000000E+00  0.00000000E+00  0.00000000E+00
  0.00000000E+00  0.00000000E+00  0.00000000E+00
  0.00000000E+00  0.00000000E+00  0.00000000E+00
  0.00000000E+00  0.00000000E+00  0.00000000E+00
  0.00000000E+00  0.00000000E+00  0.00000000E+00
  0.00000000E+00  0.00000000E+00  0.00000000E+00
  0.00000000E+00  0.00000000E+00  0.00000000E+00
  0.00000000E+00  0.00000000E+00  0.00000000E+00
  0.00000000E+00  0.00000000E+00  0.00000000E+00
  0.00000000E+00  0.00000000E+00  0.00000000E+00
  0.00000000E+00  0.00000000E+00  0.00000000E+00
  0.00000000E+00  0.00000000E+00  0.00000000E+00
  0.00000000E+00  0.00000000E+00  0.00000000E+00
  0.00000000E+00  0.00000000E+00  0.00000000E+00
  0.00000000E+00  0.00000000E+00  0.00000000E+00
  0.00000000E+00  0.00000000E+00  0.00000000E+00
  0.00000000E+00  0.00000000E+00  0.00000000E+00
  0.00000000E+00  0.00000000E+00  0.00000000E+00
  0.00000000E+00  0.00000000E+00  0.00000000E+00
  0.00000000E+00  0.00000000E+00  0.00000000E+00
  0.00000000E+00  0.00000000E+00  0.00000000E+00
  0.00000000E+00  0.00000000E+00  0.00000000E+00
  0.00000000E+00  0.00000000E+00  0.00000000E+00
  0.00000000E+00  0.00000000E+00  0.00000000E+00
  0.00000000E+00  0.00000000E+00  0.00000000E+00
  0.00000000E+00  0.00000000E+00  0.00000000E+00
  0.00000000E+00  0.00000000E+00  0.00000000E+00
  0.00000000E+00  0.00000000E+00  0.00000000E+00
  0.00000000E+00  0.00000000E+00  0.00000000E+00
  0.00000000E+00  0.00000000E+00  0.00000000E+00
  0.00000000E+00  0.00000000E+00  0.00000000E+00
  0.00000000E+00  0.00000000E+00  0.00000000E+00
  0.00000000E+00  0.00000000E+00  0.00000000E+00
  0.00000000E+00  0.00000000E+00  0.00000000E+00
  0.00000000E+00  0.00000000E+00  0.00000000E+00
  0.00000000E+00  0.00000000E+00  0.00000000E+00
  0.00000000E+00  0.00000000E+00  0.00000000E+00
  0.00000000E+00  0.00000000E+00  0.00000000E+00
  0.00000000E+00  0.00000000E+00  0.00000000E+00
  0.00000000E+00  0.00000000E+00  0.00000000E+00
  0.00000000E+00  0.00000000E+00  0.00000000E+00
  0.00000000E+00  0.00000000E+00  0.00000000E+00
  0.00000000E+00  0.00000000E+00  0.00000000E+00
  0.00000000E+00  0.00000000E+00  0.00000000E+00
  0.00000000E+00  0.00000000E+00  0.00000000E+00
  0.00000000E+00  0.00000000E+00  0.00000000E+00
  0.00000000E+00  0.00000000E+00  0.00000000E+00
  0.00000000E+00  0.00000000E+00  0.00000000E+00
  0.00000000E+00  0.00000000E+00  0.00000000E+00
  0.00000000E+00  0.00000000E+00  0.00000000E+00
  0.00000000E+00  0.00000000E+00  0.00000000E+00
  0.00000000E+00  0.00000000E+00  0.00000000E+00
  0.00000000E+00  0.00000000E+00  0.00000000E+00
  0.00000000E+00  0.00000000E+00  0.00000000E+00
  0.00000000E+00  0.00000000E+00  0.00000000E+00
  0.00000000E+00  0.00000000E+00  0.00000000E+00
  0.00000000E+00  0.00000000E+00  0.00000000E+00
  0.00000000E+00  0.00000000E+00  0.00000000E+00
  0.00000000E+00  0.00000000E+00  0.00000000E+00
  0.00000000E+00  0.00000000E+00  0.00000000E+00
  0.00000000E+00  0.00000000E+00  0.00000000E+00
  0.00000000E+00  0.00000000E+00  0.00000000E+00
  0.00000000E+00  0.00000000E+00  0.00000000E+00
  0.00000000E+00  0.00000000E+00  0.00000000E+00
  0.00000000E+00  0.00000000E+00  0.00000000E+00
  0.00000000E+00  0.00000000E+00  0.00000000E+00
  0.00000000E+00  0.00000000E+00  0.00000000E+00
  0.00000000E+00  0.00000000E+00  0.00000000E+00
  0.00000000E+00  0.00000000E+00  0.00000000E+00
  0.00000000E+00  0.00000000E+00  0.00000000E+00
  0.00000000E+00  0.00000000E+00  0.00000000E+00
  0.00000000E+00  0.00000000E+00  0.00000000E+00
  0.00000000E+00  0.00000000E+00  0.00000000E+00
  0.00000000E+00  0.00000000E+00  0.00000000E+00
  0.00000000E+00  0.00000000E+00  0.00000000E+00
  0.00000000E+00  0.00000000E+00  0.00000000E+00
  0.00000000E+00  0.00000000E+00  0.00000000E+00
  0.00000000E+00  0.00000000E+00  0.00000000E+00
  0.00000000E+00  0.00000000E+00  0.00000000E+00
  0.00000000E+00  0.00000000E+00  0.00000000E+00
  0.00000000E+00  0.00000000E+00  0.00000000E+00
  0.00000000E+00  0.00000000E+00  0.00000000E+00
  0.00000000E+00  0.00000000E+00  0.00000000E+00
  0.00000000E+00  0.00000000E+00  0.00000000E+00
  0.00000000E+00  0.00000000E+00  0.00000000E+00
  0.00000000E+00  0.00000000E+00  0.00000000E+00
  0.00000000E+00  0.00000000E+00  0.00000000E+00
  0.00000000E+00  0.00000000E+00  0.00000000E+00
  0.00000000E+00  0.00000000E+00  0.00000000E+00
  0.00000000E+00  0.00000000E+00  0.00000000E+00
  0.00000000E+00  0.00000000E+00  0.00000000E+00
  0.00000000E+00  0.00000000E+00  0.00000000E+00
  0.00000000E+00  0.00000000E+00  0.00000000E+00
  0.00000000E+00  0.00000000E+00  0.00000000E+00
  0.00000000E+00  0.00000000E+00  0.00000000E+00
  0.00000000E+00  0.00000000E+00  0.00000000E+00
  0.00000000E+00  0.00000000E+00  0.00000000E+00
  0.00000000E+00  0.00000000E+00  0.00000000E+00
  0.00000000E+00  0.00000000E+00  0.00000000E+00
  0.00000000E+00  0.00000000E+00  0.00000000E+00
  0.00000000E+00  0.00000000E+00  0.00000000E+00
  0.00000000E+00  0.00000000E+00  0.00000000E+00
  0.00000000E+00  0.00000000E+00  0.00000000E+00
  0.00000000E+00  0.00000000E+00  0.00000000E+00
  0.00000000E+00  0.00000000E+00  0.00000000E+00
  0.00000000E+00  0.00000000E+00  0.00000000E+00
  0.00000000E+00  0.00000000E+00  0.00000000E+00
  0.00000000E+00  0.00000000E+00  0.00000000E+00
  0.00000000E+00  0.00000000E+00  0.00000000E+00
  0.00000000E+00  0.00000000E+00  0.00000000E+00
  0.00000000E+00  0.00000000E+00  0.00000000E+00
  0.00000000E+00  0.00000000E+00  0.00000000E+00
  0.00000000E+00  0.00000000E+00  0.00000000E+00
  0.00000000E+00  0.00000000E+00  0.00000000E+00
  0.00000000E+00  0.00000000E+00  0.00000000E+00
  0.00000000E+00  0.00000000E+00  0.00000000E+00
  0.00000000E+00  0.00000000E+00  0.00000000E+00
  0.00000000E+00  0.00000000E+00  0.00000000E+00
  0.00000000E+00  0.00000000E+00  0.00000000E+00
  0.00000000E+00  0.00000000E+00  0.00000000E+00
  0.00000000E+00  0.00000000E+00  0.00000000E+00
  0.00000000E+00  0.00000000E+00  0.00000000E+00
  0.00000000E+00  0.00000000E+00  0.00000000E+00
  0.00000000E+00  0.00000000E+00  0.00000000E+00
  0.00000000E+00  0.00000000E+00  0.00000000E+00
  0.00000000E+00  0.00000000E+00  0.00000000E+00
  0.00000000E+00  0.00000000E+00  0.00000000E+00
  0.00000000E+00  0.00000000E+00  0.00000000E+00
  0.00000000E+00  0.00000000E+00  0.00000000E+00
  0.00000000E+00  0.00000000E+00  0.00000000E+00
  0.00000000E+00  0.00000000E+00  0.00000000E+00
  0.00000000E+00  0.00000000E+00  0.00000000E+00
  0.00000000E+00  0.00000000E+00  0.00000000E+00
  0.00000000E+00  0.00000000E+00  0.00000000E+00