B Sn N                                  
   1.0000000000000000     
     8.7639499999999995  -15.1796066749929999    0.0000000000000000
     8.7639499999999995   15.1796066749929999    0.0000000000000000
     0.0000000000000000    0.0000000000000000   15.0000000000000000
   B    Sn   N 
    48     1    49
Selective dynamics
Direct
  0.9061963515969406  0.9535196101075233  0.1110401801683074   T   T   T
  0.9046914581809486  0.0953102885110514  0.1110719646283139   T   T   T
  0.9042131502382126  0.2378220968544891  0.1110728778280025   T   T   T
  0.9046802011386147  0.3808006712158435  0.1110085094183094   T   T   T
  0.9061934196176948  0.5240906015507990  0.1110491812335255   T   T   T
  0.9057348986516865  0.6671887020632670  0.1110920342300853   T   T   T
  0.9057471633703770  0.8099796364570955  0.1110595250697158   T   T   T
  0.0478240500008943  0.9521776733641012  0.1110337249511619   T   T   T
  0.0464821052344768  0.0938053688750658  0.1110401796953062   T   T   T
  0.0456799958018934  0.2366915925319664  0.1110079809879956   T   T   T
  0.0456628492367312  0.3804073539672094  0.1110044137219542   T   T   T
  0.0464604899333758  0.5241013873989400  0.1109942924724431   T   T   T
  0.0478297638002374  0.6670865216734665  0.1110396106140179   T   T   T
  0.0479697444998125  0.8097058003107350  0.1110184240816957   T   T   T
  0.1902959493822641  0.9520320185931981  0.1110184225556986   T   T   T
  0.1900220645789014  0.0942545493376295  0.1110595209457187   T   T   T
  0.1860339265660600  0.2334931214302200  0.1111926085429310   T   T   T
  0.1858556836420762  0.3786325883605214  0.1112685557497908   T   T   T
  0.1860101693506749  0.5239375451215260  0.1111977975814806   T   T   T
  0.1900169041187674  0.6671824944117666  0.1110640725286270   T   T   T
  0.1903038780353269  0.8096978165056710  0.1110145684681236   T   T   T
  0.3329152140315326  0.9521719600337677  0.1110396130280158   T   T   T
  0.3328130119137320  0.0942668412683151  0.1110920298530853   T   T   T
  0.3327436410869715  0.2368955918671139  0.1111144309517565   T   T   T
  0.3231737383648661  0.3726872545700288  0.1108561562477225   T   T   T
  0.3231680648105035  0.5219337671968918  0.1108674868181676   T   T   T
  0.3327236215354535  0.6672780812385479  0.1111184272694906   T   T   T
  0.3328191589082314  0.8099847247242290  0.1110640760616303   T   T   T
  0.4759003000200596  0.9535410909966213  0.1109942977834445   T   T   T
  0.4759111399552047  0.0938084030583046  0.1110491899265256   T   T   T
  0.4760624110787253  0.2335013047921778  0.1110765266626206   T   T   T
  0.4780673762427789  0.3726822988191782  0.1110285138078362   T   T   T
  0.4780680172361046  0.6768337925294986  0.1108674873321742   T   T   T
  0.4760641706684726  0.8139915177173248  0.1111978033184808   T   T   T
  0.6195943850048004  0.9543388351802695  0.1110044158289550   T   T   T
  0.6192009991321538  0.0953214861433863  0.1110085105043100   T   T   T
  0.6196115787459568  0.2366985163536207  0.1110318140281326   T   T   T
  0.6213570205920502  0.3786447136169502  0.1110686925702913   T   T   T
  0.6273192701508202  0.5219342909602224  0.1110285085498341   T   T   T
  0.6273143948849659  0.6768279853511290  0.1108561559607201   T   T   T
  0.6213691547994775  0.8141460857609240  0.1112685514017880   T   T   T
  0.7633101479960316  0.9543217237251060  0.1110079832139910   T   T   T
  0.7621795989065115  0.0957885262957841  0.1110728802310012   T   T   T
  0.7621898483326479  0.2378118568473482  0.1110743939670167   T   T   T
  0.7633033060303780  0.3803901766850439  0.1110318056211331   T   T   T
  0.7665004473838194  0.5239392717282859  0.1110765186986231   T   T   T
  0.7631060669038852  0.6672580394580254  0.1111144395797561   T   T   T
  0.7665085499937803  0.8139677901159403  0.1111926110169272   T   T   T
  0.4761802525158298  0.5238214030311673  0.1101553230760516   T   T   T
  0.9530594748298813  0.9051457657414621  0.1110316777113815   T   T   T
  0.9522654799961352  0.0477362373138635  0.1110538846406273   T   T   T
  0.9512143666970437  0.1899238936486292  0.1110491049438715   T   T   T
  0.9512017098618621  0.3327136135009116  0.1110127939676850   T   T   T
  0.9522559371517775  0.4759468893573602  0.1109820868079135   T   T   T
  0.9530567397951351  0.6193368124751331  0.1110346807491598   T   T   T
  0.9532092940154751  0.7623161220532523  0.1110351797932495   T   T   T
  0.0953591436916419  0.9046426087763595  0.1110057346410523   T   T   T
  0.0948559396965397  0.0469422439851181  0.1110316842083782   T   T   T
  0.0919739890279755  0.1877393688685615  0.1109960255799711   T   T   T
  0.0916364904520388  0.3315391817069842  0.1109908910569966   T   T   T
  0.0919523193406784  0.4756550259483884  0.1109917272711215   T   T   T
  0.0948479190895889  0.6193372532372314  0.1110326399837719   T   T   T
  0.0953610459801615  0.7621527385871392  0.1110032815985922   T   T   T
  0.2378489735738629  0.9046406647778383  0.1110032824905934   T   T   T
  0.2376856073237518  0.0467924749485228  0.1110351723702522   T   T   T
  0.2368932852808917  0.1888220958743895  0.1110641610967478   T   T   T
  0.2295817114350115  0.3264746226456048  0.1113892894470973   T   T   T
  0.2295682622138733  0.4745235777759088  0.1114008733454323   T   T   T
  0.2368722852827177  0.6194777828618470  0.1110594561335459   T   T   T
  0.2376839166778581  0.7623177175171364  0.1110347281389479   T   T   T
  0.3806644178657683  0.9051537066934114  0.1110326441337749   T   T   T
  0.3806649147118644  0.0469450111248627  0.1110346884971594   T   T   T
  0.3805254700751809  0.1888294555965240  0.1110890877702773   T   T   T
  0.3802641127919407  0.3319664900994235  0.1110348310344900   T   T   T
  0.3537845463986067  0.4626158850393272  0.1097771936790096   T   T   T
  0.3802594570793487  0.6197423408796524  0.1110273550391592   T   T   T
  0.3805239556271497  0.7631294215972816  0.1110594607545463   T   T   T
  0.5243467062796124  0.9080492761753185  0.1109917410491207   T   T   T
  0.5240547689916384  0.0477457246082244  0.1109820872529193   T   T   T
  0.5243574468618482  0.1877399750559982  0.1110400546248408   T   T   T
  0.5254668620607073  0.3264818208606576  0.1110680112508037   T   T   T
  0.5373866283127006  0.4626149683123023  0.1108069000090579   T   T   T
  0.5373857742436715  0.6462171357403939  0.1097771952570113   T   T   T
  0.5254782048370968  0.7704335941141327  0.1114008705294306   T   T   T
  0.6684626089050115  0.9083652570209615  0.1109908888439971   T   T   T
  0.6672880562300795  0.0487999443871431  0.1110127924996895   T   T   T
  0.6672973018949671  0.1899247462716476  0.1110248818689621   T   T   T
  0.6684697443335750  0.3315320662154268  0.1110226117728112   T   T   T
  0.6735198432713352  0.4745348539492890  0.1110679908518039   T   T   T
  0.6680351405445778  0.6197375817530570  0.1110348336694880   T   T   T
  0.6735270438083945  0.7704200460329876  0.1113892823160975   T   T   T
  0.8122623436474399  0.9080277260060268  0.1109960259559761   T   T   T
  0.8100778316283741  0.0487873423759529  0.1110491146308712   T   T   T
  0.8095269499500554  0.1904747047419438  0.1110858263907614   T   T   T
  0.8100769918363504  0.3327043832660354  0.1110248759289670   T   T   T
  0.8122619164990049  0.4756443075881555  0.1110400341138381   T   T   T
  0.8111722657704791  0.6194762339718211  0.1110891031232798   T   T   T
  0.8111795662196095  0.7631084065031166  0.1110641723927430   T   T   T

  0.00000000E+00  0.00000000E+00  0.00000000E+00
  0.00000000E+00  0.00000000E+00  0.00000000E+00
  0.00000000E+00  0.00000000E+00  0.00000000E+00
  0.00000000E+00  0.00000000E+00  0.00000000E+00
  0.00000000E+00  0.00000000E+00  0.00000000E+00
  0.00000000E+00  0.00000000E+00  0.00000000E+00
  0.00000000E+00  0.00000000E+00  0.00000000E+00
  0.00000000E+00  0.00000000E+00  0.00000000E+00
  0.00000000E+00  0.00000000E+00  0.00000000E+00
  0.00000000E+00  0.00000000E+00  0.00000000E+00
  0.00000000E+00  0.00000000E+00  0.00000000E+00
  0.00000000E+00  0.00000000E+00  0.00000000E+00
  0.00000000E+00  0.00000000E+00  0.00000000E+00
  0.00000000E+00  0.00000000E+00  0.00000000E+00
  0.00000000E+00  0.00000000E+00  0.00000000E+00
  0.00000000E+00  0.00000000E+00  0.00000000E+00
  0.00000000E+00  0.00000000E+00  0.00000000E+00
  0.00000000E+00  0.00000000E+00  0.00000000E+00
  0.00000000E+00  0.00000000E+00  0.00000000E+00
  0.00000000E+00  0.00000000E+00  0.00000000E+00
  0.00000000E+00  0.00000000E+00  0.00000000E+00
  0.00000000E+00  0.00000000E+00  0.00000000E+00
  0.00000000E+00  0.00000000E+00  0.00000000E+00
  0.00000000E+00  0.00000000E+00  0.00000000E+00
  0.00000000E+00  0.00000000E+00  0.00000000E+00
  0.00000000E+00  0.00000000E+00  0.00000000E+00
  0.00000000E+00  0.00000000E+00  0.00000000E+00
  0.00000000E+00  0.00000000E+00  0.00000000E+00
  0.00000000E+00  0.00000000E+00  0.00000000E+00
  0.00000000E+00  0.00000000E+00  0.00000000E+00
  0.00000000E+00  0.00000000E+00  0.00000000E+00
  0.00000000E+00  0.00000000E+00  0.00000000E+00
  0.00000000E+00  0.00000000E+00  0.00000000E+00
  0.00000000E+00  0.00000000E+00  0.00000000E+00
  0.00000000E+00  0.00000000E+00  0.00000000E+00
  0.00000000E+00  0.00000000E+00  0.00000000E+00
  0.00000000E+00  0.00000000E+00  0.00000000E+00
  0.00000000E+00  0.00000000E+00  0.00000000E+00
  0.00000000E+00  0.00000000E+00  0.00000000E+00
  0.00000000E+00  0.00000000E+00  0.00000000E+00
  0.00000000E+00  0.00000000E+00  0.00000000E+00
  0.00000000E+00  0.00000000E+00  0.00000000E+00
  0.00000000E+00  0.00000000E+00  0.00000000E+00
  0.00000000E+00  0.00000000E+00  0.00000000E+00
  0.00000000E+00  0.00000000E+00  0.00000000E+00
  0.00000000E+00  0.00000000E+00  0.00000000E+00
  0.00000000E+00  0.00000000E+00  0.00000000E+00
  0.00000000E+00  0.00000000E+00  0.00000000E+00
  0.00000000E+00  0.00000000E+00  0.00000000E+00
  0.00000000E+00  0.00000000E+00  0.00000000E+00
  0.00000000E+00  0.00000000E+00  0.00000000E+00
  0.00000000E+00  0.00000000E+00  0.00000000E+00
  0.00000000E+00  0.00000000E+00  0.00000000E+00
  0.00000000E+00  0.00000000E+00  0.00000000E+00
  0.00000000E+00  0.00000000E+00  0.00000000E+00
  0.00000000E+00  0.00000000E+00  0.00000000E+00
  0.00000000E+00  0.00000000E+00  0.00000000E+00
  0.00000000E+00  0.00000000E+00  0.00000000E+00
  0.00000000E+00  0.00000000E+00  0.00000000E+00
  0.00000000E+00  0.00000000E+00  0.00000000E+00
  0.00000000E+00  0.00000000E+00  0.00000000E+00
  0.00000000E+00  0.00000000E+00  0.00000000E+00
  0.00000000E+00  0.00000000E+00  0.00000000E+00
  0.00000000E+00  0.00000000E+00  0.00000000E+00
  0.00000000E+00  0.00000000E+00  0.00000000E+00
  0.00000000E+00  0.00000000E+00  0.00000000E+00
  0.00000000E+00  0.00000000E+00  0.00000000E+00
  0.00000000E+00  0.00000000E+00  0.00000000E+00
  0.00000000E+00  0.00000000E+00  0.00000000E+00
  0.00000000E+00  0.00000000E+00  0.00000000E+00
  0.00000000E+00  0.00000000E+00  0.00000000E+00
  0.00000000E+00  0.00000000E+00  0.00000000E+00
  0.00000000E+00  0.00000000E+00  0.00000000E+00
  0.00000000E+00  0.00000000E+00  0.00000000E+00
  0.00000000E+00  0.00000000E+00  0.00000000E+00
  0.00000000E+00  0.00000000E+00  0.00000000E+00
  0.00000000E+00  0.00000000E+00  0.00000000E+00
  0.00000000E+00  0.00000000E+00  0.00000000E+00
  0.00000000E+00  0.00000000E+00  0.00000000E+00
  0.00000000E+00  0.00000000E+00  0.00000000E+00
  0.00000000E+00  0.00000000E+00  0.00000000E+00
  0.00000000E+00  0.00000000E+00  0.00000000E+00
  0.00000000E+00  0.00000000E+00  0.00000000E+00
  0.00000000E+00  0.00000000E+00  0.00000000E+00
  0.00000000E+00  0.00000000E+00  0.00000000E+00
  0.00000000E+00  0.00000000E+00  0.00000000E+00
  0.00000000E+00  0.00000000E+00  0.00000000E+00
  0.00000000E+00  0.00000000E+00  0.00000000E+00
  0.00000000E+00  0.00000000E+00  0.00000000E+00
  0.00000000E+00  0.00000000E+00  0.00000000E+00
  0.00000000E+00  0.00000000E+00  0.00000000E+00
  0.00000000E+00  0.00000000E+00  0.00000000E+00
  0.00000000E+00  0.00000000E+00  0.00000000E+00
  0.00000000E+00  0.00000000E+00  0.00000000E+00
  0.00000000E+00  0.00000000E+00  0.00000000E+00
  0.00000000E+00  0.00000000E+00  0.00000000E+00
  0.00000000E+00  0.00000000E+00  0.00000000E+00
  0.00000000E+00  0.00000000E+00  0.00000000E+00
