Species order: X N B                    
   2.51242800000000     
     5.9449720136058266    0.0000000000000000    0.0000000000000000
    -2.9724860068029120    5.1484967885702053   -0.0000000000000001
     0.0000000000000000    0.0000000000000009    5.3101128803662583
   S    N    B 
     1   143   143
Direct
  0.5308950500127657  0.4321141916730436  0.3750000000000000
  0.1111031985100789  0.0555556856057788  0.1249830169560620
  0.6111063984305664  0.5555834007410756  0.1244343158773445
  0.4444910095259818  0.0555699489360627  0.1249084412710043
  0.9444404047725692  0.5555505527653201  0.1249148203007887
  0.7778052658399742  0.0555692995866554  0.1248187492375009
  0.1111287404148090  0.7222310368740618  0.6251276648867423
  0.4444910095259818  0.7222543939232544  0.6250915587289956
  0.2777317103717176  0.2221998726517055  0.6250825338585307
  0.7777706888820224  0.7222308938871651  0.6251217610010998
  0.6111381608976455  0.2222046250251858  0.6252126862324817
  0.9444424493366430  0.2222186963106351  0.6251298027137124
  0.2778180356803703  0.7222400385339349  0.1249025943155270
  0.1110787263737811  0.2222060298535548  0.1249714750298136
  0.4444772448964261  0.2222201795719980  0.1248251545326873
  0.6111381608976455  0.7222668692057882  0.1247873137675109
  0.9444404047725692  0.7222231853405860  0.1249148203007887
  0.7778004949915907  0.2222177629982076  0.1248423987249574
  0.1111278852595513  0.8889036515721069  0.6250924771611914
  0.4444963258091114  0.8889148295712204  0.6251241378293094
  0.2777317103717176  0.3888651710533403  0.6250825338585307
  0.6111063984305664  0.3888563310228270  0.6255656841226550
  0.7778004949915907  0.8889160653267191  0.6251576012750433
  0.9444477867122588  0.3888851403184974  0.6251040671893500
  0.1111031985100789  0.3888808462376284  0.1249830169560620
  0.2778180356803703  0.8889113304797639  0.1249025943155270
  0.6111561509182877  0.8889260406450098  0.1248301161813127
  0.4443652801958600  0.3888493067645976  0.1235682493448710
  0.9444477867122588  0.8888959797270976  0.1248959328106495
  0.7777706888820224  0.3888731283281783  0.1248782389988994
  0.2778049011637362  0.5555655832215987  0.6249950920346226
  0.1111031985100789  0.0555556856057788  0.6250169830439450
  0.6111063984305664  0.5555834007410756  0.6255656841226550
  0.4444910095259818  0.0555699489360627  0.6250915587289956
  0.9444404047725692  0.5555505527653201  0.6250851796992036
  0.1111278852595513  0.5555575670207731  0.1249075228388079
  0.7778052658399742  0.0555692995866554  0.6251812507625059
  0.2778049011637362  0.0555726512754672  0.1250049079653841
  0.4444772448964261  0.5555903986577650  0.1248251545326873
  0.7777530911767959  0.5555432122550663  0.1249103839413549
  0.6111561509182877  0.0555634436065998  0.1248301161813127
  0.4444772448964261  0.5555903986577650  0.6251748454673055
  0.9444424493366430  0.0555570863593437  0.1248701972862807
  0.2778180356803703  0.7222400385339349  0.6250974056844726
  0.1110787263737811  0.2222060298535548  0.6250285249701862
  0.4444772448964261  0.2222201795719980  0.6251748454673055
  0.6111381608976455  0.7222668692057882  0.6252126862324817
  0.9444404047725692  0.7222231853405860  0.6250851796992036
  0.7778004949915907  0.2222177629982076  0.6251576012750433
  0.1111287404148090  0.7222310368740618  0.1248723351132581
  0.4444910095259818  0.7222543939232544  0.1249084412710043
  0.2777317103717176  0.2221998726517055  0.1249174661414693
  0.7777706888820224  0.7222308938871651  0.1248782389988994
  0.6111381608976455  0.2222046250251858  0.1247873137675109
  0.9444424493366430  0.2222186963106351  0.1248701972862807
  0.1111031985100789  0.3888808462376284  0.6250169830439450
  0.2778180356803703  0.8889113304797639  0.6250974056844726
  0.6111561509182877  0.8889260406450098  0.6251698838186869
  0.4443652801958600  0.3888493067645976  0.6264317506551361
  0.9444477867122588  0.8888959797270976  0.6251040671893500
  0.1111278852595513  0.8889036515721069  0.1249075228388079
  0.7777706888820224  0.3888731283281783  0.6251217610010998
  0.4444963258091114  0.8889148295712204  0.1248758621706901
  0.2777317103717176  0.3888651710533403  0.1249174661414693
  0.2778049011637362  0.5555655832215987  0.1250049079653841
  0.6111063984305664  0.3888563310228270  0.1244343158773445
  0.7778004949915907  0.8889160653267191  0.1248423987249574
  0.9444477867122588  0.3888851403184974  0.1248959328106495
  0.1111278852595513  0.5555575670207731  0.6250924771611914
  0.2778049011637362  0.0555726512754672  0.6249950920346226
  0.7777530911767959  0.5555432122550663  0.6250896160586390
  0.6111561509182877  0.0555634436065998  0.6251698838186869
  0.9444424493366430  0.0555570863593437  0.6251298027137124
  0.0545142726882577  0.1104701718497078  0.3750000000000000
  0.5551027994492665  0.6170654959120522  0.3750000000000000
  0.3865617780417515  0.1053657321093053  0.3750000000000000
  0.8869580565912524  0.6101456949623013  0.3750000000000000
  0.7218505009056213  0.1103026234386449  0.3750000000000000
  0.0556498792282680  0.7778243102901710  0.8750000000000000
  0.3889765250279500  0.7778220175017528  0.8750000000000000
  0.2223242874193516  0.2778288103763508  0.8750000000000000
  0.7223206900194046  0.7778221677059641  0.8750000000000000
  0.5556508849425245  0.2778281627442192  0.8750000000000000
  0.8889922551363921  0.2778333930016595  0.8750000000000000
  0.2198358567984836  0.7765845950659105  0.3750000000000000
  0.0545142726882577  0.2773774341718858  0.3750000000000000
  0.3816827442672777  0.2629000452355313  0.3750000000000000
  0.5545246761538889  0.7800907792927290  0.3750000000000000
  0.8882471169940940  0.7779630577740191  0.3750000000000000
  0.7221102463461959  0.2760412386001678  0.3750000000000000
  0.0556529959595438  0.9444901154656608  0.8750000000000000
  0.3889765250279500  0.9444878408595260  0.8750000000000000
  0.2223180639336283  0.4444958719591590  0.8750000000000000
  0.5556584316804764  0.4444958825068989  0.8750000000000000
  0.7223177034987998  0.9444901263973100  0.8750000000000000
  0.8889910954556174  0.4444982256017341  0.8750000000000000
  0.0536937548718276  0.4441467608267353  0.3750000000000000
  0.2197471520750487  0.9419304386471505  0.3750000000000000
  0.5544716466012717  0.9439024899672996  0.3750000000000000
  0.3816827442672777  0.4521160323650819  0.3750000000000000
  0.8884150575244836  0.9446164512700150  0.3750000000000000
  0.7229542773225928  0.4429343342847417  0.3750000000000000
  0.2223113648659768  0.6111579087773858  0.8750000000000000
  0.0556592248128085  0.1111604589002336  0.8750000000000000
  0.5556508849425245  0.6111560555316319  0.8750000000000000
  0.3889793104940545  0.1111553875641197  0.8750000000000000
  0.8889921542649076  0.6111627437991255  0.8750000000000000
  0.0533929812570705  0.6103400169729005  0.3750000000000000
  0.7223177034987998  0.1111609104348336  0.8750000000000000
  0.2186859450642065  0.1071886066151080  0.3750000000000000
  0.3865617780417515  0.6145293792657901  0.3750000000000000
  0.7229542773225928  0.6133532763711878  0.3750000000000000
  0.5545246761538889  0.1077672301944953  0.3750000000000000
  0.3889793104940545  0.6111572562632782  0.8750000000000000
  0.8884428859123373  0.1108881096228361  0.3750000000000000
  0.2223102797502301  0.7778218065417830  0.8750000000000000
  0.0556592248128085  0.2778320992459034  0.8750000000000000
  0.3889859160835051  0.2778225160089384  0.8750000000000000
  0.5556448735800570  0.7778205143750988  0.8750000000000000
  0.8889910954556174  0.7778262031872112  0.8750000000000000
  0.7223206900194046  0.2778318556467770  0.8750000000000000
  0.0533929812570705  0.7763862976175059  0.3750000000000000
  0.3868355304973562  0.7781348623900443  0.3750000000000000
  0.2207507062722563  0.2770420198027966  0.3750000000000000
  0.7221102463461959  0.7794023410793574  0.3750000000000000
  0.5551027994492665  0.2713706368705497  0.3750000000000000
  0.8884150575244836  0.2771319395878109  0.3750000000000000
  0.0556529959595438  0.4444962138272042  0.8750000000000000
  0.2223113648659768  0.9444867894219269  0.8750000000000000
  0.5556436574622050  0.9444884953977662  0.8750000000000000
  0.3889859160835051  0.4444967334079029  0.8750000000000000
  0.8889922551363921  0.9444921954680672  0.8750000000000000
  0.0536937548718276  0.9428803273784281  0.3750000000000000
  0.7223250530551716  0.4444989582541940  0.8750000000000000
  0.3868355304973562  0.9420340014406413  0.3750000000000000
  0.2186859450642065  0.4448306717824410  0.3750000000000000
  0.2197471520750487  0.6111500467612351  0.3750000000000000
  0.7218505009056213  0.9448812108003104  0.3750000000000000
  0.8882471169940940  0.4436173925534118  0.3750000000000000
  0.0556498792282680  0.6111589022714328  0.8750000000000000
  0.2223180639336283  0.1111555253078052  0.8750000000000000
  0.7223250530551716  0.6111594281343136  0.8750000000000000
  0.5556448735800570  0.1111576925382951  0.8750000000000000
  0.8889931313138402  0.1111632323235914  0.8750000000000000
  0.1092270625931175  0.0539149325203582  0.3750000000000000
  0.6129653210888120  0.5651000824546560  0.3750000000000000
  0.4429630712192656  0.0523925871869899  0.3750000000000000
  0.9426290036814430  0.5546526268036999  0.3750000000000000
  0.7776768250284555  0.0555050791808991  0.3750000000000000
  0.1112118582808979  0.7222725958071163  0.8750000000000000
  0.4445155763706675  0.7222162382167941  0.8750000000000000
  0.2779311727259585  0.2223207469539576  0.8750000000000000
  0.7778456485586612  0.7222317157550557  0.8750000000000000
  0.6111652918274469  0.2222964682458623  0.8750000000000000
  0.9445882013910911  0.2222950218342235  0.8750000000000000
  0.2757348476669867  0.7217635176977477  0.3750000000000000
  0.1110647760110466  0.2221990546721874  0.3750000000000000
  0.4416433362627295  0.2170306318212116  0.3750000000000000
  0.6106537289321101  0.7258970006676770  0.3750000000000000
  0.9426290036814430  0.7213097102110778  0.3750000000000000
  0.7776529396583556  0.2211874176790418  0.3750000000000000
  0.1112266281775642  0.8889612849024717  0.8750000000000000
  0.4445182010146694  0.8889257671740033  0.8750000000000000
  0.2779311727259585  0.3889437591053298  0.8750000000000000
  0.6111462838594417  0.3889410505233759  0.8750000000000000
  0.7778697715699578  0.8889151327162149  0.8750000000000000
  0.9445605504805507  0.3889494082076715  0.8750000000000000
  0.1092270625931175  0.3886454634060877  0.3750000000000000
  0.2757348476669867  0.8873046633025674  0.3750000000000000
  0.6106446087350816  0.8898354886249970  0.3750000000000000
  0.9434793382875613  0.8886716503650544  0.3750000000000000
  0.7778291203279427  0.3872472157145521  0.3750000000000000
  0.2778915013287829  0.5555734408314418  0.8750000000000000
  0.1112643612489862  0.0556477429744121  0.8750000000000000
  0.6111462838594417  0.5555385666693948  0.8750000000000000
  0.4445155763706675  0.0556326714872165  0.8750000000000000
  0.9445367150456481  0.5556034812119188  0.8750000000000000
  0.1091222520987775  0.5550711310896899  0.3750000000000000
  0.7778819559861966  0.0556076446597627  0.8750000000000000
  0.2755980754422531  0.0531142076285865  0.3750000000000000
  0.4416433362627295  0.5579460377748533  0.3750000000000000
  0.7757915860507549  0.5545624596920454  0.3750000000000000
  0.6106446087350816  0.0541424534434049  0.3750000000000000
  0.4445149138527563  0.5555346363345181  0.8750000000000000
  0.9442116352931424  0.0556470424213700  0.3750000000000000
  0.2778712859562608  0.7222517804370179  0.8750000000000000
  0.1112886252431419  0.2223109792882315  0.8750000000000000
  0.4445149138527563  0.2223136108515812  0.8750000000000000
  0.6111652918274469  0.7222021569149142  0.8750000000000000
  0.9445367150456481  0.7222665671670729  0.8750000000000000
  0.7778697715699578  0.2222879721870712  0.8750000000000000
  0.1090116451577069  0.7211724892455137  0.3750000000000000
  0.4429630712192656  0.7239038173656047  0.3750000000000000
  0.2763657667710384  0.2200785749988315  0.3750000000000000
  0.7778291203279427  0.7239152379467197  0.3750000000000000
  0.6106537289321101  0.2180900615977541  0.3750000000000000
  0.9442116352931424  0.2218979262051084  0.3750000000000000
  0.1112643612489862  0.3889499516079030  0.8750000000000000
  0.2778712859562608  0.8889528388525710  0.8750000000000000
  0.6111821361318583  0.8889049015337821  0.8750000000000000
  0.4445254424538677  0.3889293878936018  0.8750000000000000
  0.9445605504805507  0.8889444756062074  0.8750000000000000
  0.1091222520987775  0.8873844543424086  0.3750000000000000
  0.7778456485586612  0.3889472661369264  0.8750000000000000
  0.4431182174781824  0.8882257754057592  0.3750000000000000
  0.2763657667710384  0.3896205251055352  0.3750000000000000
  0.2755980754422531  0.5558172011470017  0.3750000000000000
  0.6129653210888120  0.3811985719674919  0.3750000000000000
  0.7776529396583556  0.8897988553126439  0.3750000000000000
  0.9434793382875613  0.3881410212558292  0.3750000000000000
  0.1112266281775642  0.5555986766084224  0.8750000000000000
  0.2778915013287829  0.0556513938306773  0.8750000000000000
  0.7778344525805592  0.5555838929569502  0.8750000000000000
  0.6111821361318583  0.0556105679314123  0.8750000000000000
  0.9445882013910911  0.0556265128901960  0.8750000000000000
  0.0556693650418241  0.1112140171150529  0.1252252171531608
  0.5554182599218527  0.6109495793340852  0.1250918374545615
  0.3889674241443616  0.1113230775865117  0.1253819619605736
  0.8887838596302932  0.6110585964818185  0.1250514584179156
  0.7222366468214344  0.1111175765467753  0.1249955068212025
  0.0555869958450071  0.7778304833044357  0.6249721948255350
  0.3889672519923834  0.7777598880439973  0.6249085864753546
  0.2223978875023619  0.2778656104178453  0.6244189462422963
  0.7221498224110197  0.7777383945420934  0.6249870029425398
  0.5554182599218527  0.2778020139211180  0.6249081625454465
  0.8889163645060111  0.2777612773403811  0.6249688392469850
  0.2223063912133842  0.7778198622733595  0.1250440165133393
  0.0556693650418241  0.2777886812601068  0.1252252171531608
  0.3889397630770532  0.2779822467911498  0.1258828978334072
  0.5555575175209868  0.7777294427432743  0.1250622270843753
  0.8888374809235479  0.7777775385432926  0.1250359395864605
  0.7221498224110197  0.2777447612022546  0.1250129970574532
  0.0556340185588394  0.9445662660888892  0.6248720626609060
  0.3889672519923834  0.9445406972817145  0.6249085864753546
  0.2223760093069947  0.4443634259039885  0.6245239594066612
  0.5551898516792462  0.4442615925062838  0.6245773004131935
  0.7222366468214344  0.9444524036079953  0.6250044931787976
  0.8888374809235479  0.4443932757135997  0.6249640604135468
  0.0556340185588394  0.4444010858032787  0.1251279373390943
  0.2223333127813464  0.9446145248125977  0.1251639767740317
  0.5555945200324124  0.9444639266828735  0.1250143382731799
  0.3889397630770532  0.4442908496192388  0.1258828978334072
  0.8889163645060111  0.9444884204989651  0.1250311607530154
  0.7219794069389069  0.4443330569922682  0.1249584328512445
  0.2223333127813464  0.6110521213020839  0.6248360232259615
  0.0556693650418241  0.1112140171150529  0.6247747828468388
  0.5554182599218527  0.6109495793340852  0.6249081625454465
  0.3889674241443616  0.1113230775865117  0.6246180380394258
  0.8887838596302932  0.6110585964818185  0.6249485415820841
  0.0555869958450071  0.6110898458739078  0.1250278051744650
  0.7222366468214344  0.1111175765467753  0.6250044931787976
  0.2223760093069947  0.1113459167363418  0.1254760405933460
  0.3889674241443616  0.6109776798911932  0.1253819619605736
  0.7219794069389069  0.6109796832799727  0.1249584328512445
  0.5555575175209868  0.1111614081110552  0.1250622270843753
  0.3889674241443616  0.6109776798911932  0.6246180380394258
  0.8889452812528786  0.1111393072931143  0.1250274851642594
  0.2223063912133842  0.7778198622733595  0.6249559834866613
  0.0556693650418241  0.2777886812601068  0.6247747828468388
  0.3889397630770532  0.2779822467911498  0.6241171021665934
  0.5555575175209868  0.7777294427432743  0.6249377729156256
  0.8888374809235479  0.7777775385432926  0.6249640604135468
  0.7221498224110197  0.2777447612022546  0.6249870029425398
  0.0555869958450071  0.7778304833044357  0.1250278051744650
  0.3889672519923834  0.7777598880439973  0.1250914135246442
  0.2223978875023619  0.2778656104178453  0.1255810537577041
  0.7221498224110197  0.7777383945420934  0.1250129970574532
  0.5554182599218527  0.2778020139211180  0.1250918374545615
  0.8889163645060111  0.2777612773403811  0.1250311607530154
  0.0556340185588394  0.4444010858032787  0.6248720626609060
  0.2223333127813464  0.9446145248125977  0.6248360232259615
  0.5555945200324124  0.9444639266828735  0.6249856617268200
  0.3889397630770532  0.4442908496192388  0.6241171021665934
  0.8889163645060111  0.9444884204989651  0.6249688392469850
  0.0556340185588394  0.9445662660888892  0.1251279373390943
  0.7219794069389069  0.4443330569922682  0.6250415671487556
  0.3889672519923834  0.9445406972817145  0.1250914135246442
  0.2223760093069947  0.4443634259039885  0.1254760405933460
  0.2223333127813464  0.6110521213020839  0.1251639767740317
  0.5551898516792462  0.4442615925062838  0.1254226995868141
  0.7222366468214344  0.9444524036079953  0.1249955068212025
  0.8888374809235479  0.4443932757135997  0.1250359395864605
  0.0555869958450071  0.6110898458739078  0.6249721948255350
  0.2223760093069947  0.1113459167363418  0.6245239594066612
  0.7219794069389069  0.6109796832799727  0.6250415671487556
  0.5555575175209868  0.1111614081110552  0.6249377729156256
  0.8889452812528786  0.1111393072931143  0.6249725148357396
 
  0.00000000E+00  0.00000000E+00  0.00000000E+00
  0.00000000E+00  0.00000000E+00  0.00000000E+00
  0.00000000E+00  0.00000000E+00  0.00000000E+00
  0.00000000E+00  0.00000000E+00  0.00000000E+00
  0.00000000E+00  0.00000000E+00  0.00000000E+00
  0.00000000E+00  0.00000000E+00  0.00000000E+00
  0.00000000E+00  0.00000000E+00  0.00000000E+00
  0.00000000E+00  0.00000000E+00  0.00000000E+00
  0.00000000E+00  0.00000000E+00  0.00000000E+00
  0.00000000E+00  0.00000000E+00  0.00000000E+00
  0.00000000E+00  0.00000000E+00  0.00000000E+00
  0.00000000E+00  0.00000000E+00  0.00000000E+00
  0.00000000E+00  0.00000000E+00  0.00000000E+00
  0.00000000E+00  0.00000000E+00  0.00000000E+00
  0.00000000E+00  0.00000000E+00  0.00000000E+00
  0.00000000E+00  0.00000000E+00  0.00000000E+00
  0.00000000E+00  0.00000000E+00  0.00000000E+00
  0.00000000E+00  0.00000000E+00  0.00000000E+00
  0.00000000E+00  0.00000000E+00  0.00000000E+00
  0.00000000E+00  0.00000000E+00  0.00000000E+00
  0.00000000E+00  0.00000000E+00  0.00000000E+00
  0.00000000E+00  0.00000000E+00  0.00000000E+00
  0.00000000E+00  0.00000000E+00  0.00000000E+00
  0.00000000E+00  0.00000000E+00  0.00000000E+00
  0.00000000E+00  0.00000000E+00  0.00000000E+00
  0.00000000E+00  0.00000000E+00  0.00000000E+00
  0.00000000E+00  0.00000000E+00  0.00000000E+00
  0.00000000E+00  0.00000000E+00  0.00000000E+00
  0.00000000E+00  0.00000000E+00  0.00000000E+00
  0.00000000E+00  0.00000000E+00  0.00000000E+00
  0.00000000E+00  0.00000000E+00  0.00000000E+00
  0.00000000E+00  0.00000000E+00  0.00000000E+00
  0.00000000E+00  0.00000000E+00  0.00000000E+00
  0.00000000E+00  0.00000000E+00  0.00000000E+00
  0.00000000E+00  0.00000000E+00  0.00000000E+00
  0.00000000E+00  0.00000000E+00  0.00000000E+00
  0.00000000E+00  0.00000000E+00  0.00000000E+00
  0.00000000E+00  0.00000000E+00  0.00000000E+00
  0.00000000E+00  0.00000000E+00  0.00000000E+00
  0.00000000E+00  0.00000000E+00  0.00000000E+00
  0.00000000E+00  0.00000000E+00  0.00000000E+00
  0.00000000E+00  0.00000000E+00  0.00000000E+00
  0.00000000E+00  0.00000000E+00  0.00000000E+00
  0.00000000E+00  0.00000000E+00  0.00000000E+00
  0.00000000E+00  0.00000000E+00  0.00000000E+00
  0.00000000E+00  0.00000000E+00  0.00000000E+00
  0.00000000E+00  0.00000000E+00  0.00000000E+00
  0.00000000E+00  0.00000000E+00  0.00000000E+00
  0.00000000E+00  0.00000000E+00  0.00000000E+00
  0.00000000E+00  0.00000000E+00  0.00000000E+00
  0.00000000E+00  0.00000000E+00  0.00000000E+00
  0.00000000E+00  0.00000000E+00  0.00000000E+00
  0.00000000E+00  0.00000000E+00  0.00000000E+00
  0.00000000E+00  0.00000000E+00  0.00000000E+00
  0.00000000E+00  0.00000000E+00  0.00000000E+00
  0.00000000E+00  0.00000000E+00  0.00000000E+00
  0.00000000E+00  0.00000000E+00  0.00000000E+00
  0.00000000E+00  0.00000000E+00  0.00000000E+00
  0.00000000E+00  0.00000000E+00  0.00000000E+00
  0.00000000E+00  0.00000000E+00  0.00000000E+00
  0.00000000E+00  0.00000000E+00  0.00000000E+00
  0.00000000E+00  0.00000000E+00  0.00000000E+00
  0.00000000E+00  0.00000000E+00  0.00000000E+00
  0.00000000E+00  0.00000000E+00  0.00000000E+00
  0.00000000E+00  0.00000000E+00  0.00000000E+00
  0.00000000E+00  0.00000000E+00  0.00000000E+00
  0.00000000E+00  0.00000000E+00  0.00000000E+00
  0.00000000E+00  0.00000000E+00  0.00000000E+00
  0.00000000E+00  0.00000000E+00  0.00000000E+00
  0.00000000E+00  0.00000000E+00  0.00000000E+00
  0.00000000E+00  0.00000000E+00  0.00000000E+00
  0.00000000E+00  0.00000000E+00  0.00000000E+00
  0.00000000E+00  0.00000000E+00  0.00000000E+00
  0.00000000E+00  0.00000000E+00  0.00000000E+00
  0.00000000E+00  0.00000000E+00  0.00000000E+00
  0.00000000E+00  0.00000000E+00  0.00000000E+00
  0.00000000E+00  0.00000000E+00  0.00000000E+00
  0.00000000E+00  0.00000000E+00  0.00000000E+00
  0.00000000E+00  0.00000000E+00  0.00000000E+00
  0.00000000E+00  0.00000000E+00  0.00000000E+00
  0.00000000E+00  0.00000000E+00  0.00000000E+00
  0.00000000E+00  0.00000000E+00  0.00000000E+00
  0.00000000E+00  0.00000000E+00  0.00000000E+00
  0.00000000E+00  0.00000000E+00  0.00000000E+00
  0.00000000E+00  0.00000000E+00  0.00000000E+00
  0.00000000E+00  0.00000000E+00  0.00000000E+00
  0.00000000E+00  0.00000000E+00  0.00000000E+00
  0.00000000E+00  0.00000000E+00  0.00000000E+00
  0.00000000E+00  0.00000000E+00  0.00000000E+00
  0.00000000E+00  0.00000000E+00  0.00000000E+00
  0.00000000E+00  0.00000000E+00  0.00000000E+00
  0.00000000E+00  0.00000000E+00  0.00000000E+00
  0.00000000E+00  0.00000000E+00  0.00000000E+00
  0.00000000E+00  0.00000000E+00  0.00000000E+00
  0.00000000E+00  0.00000000E+00  0.00000000E+00
  0.00000000E+00  0.00000000E+00  0.00000000E+00
  0.00000000E+00  0.00000000E+00  0.00000000E+00
  0.00000000E+00  0.00000000E+00  0.00000000E+00
  0.00000000E+00  0.00000000E+00  0.00000000E+00
  0.00000000E+00  0.00000000E+00  0.00000000E+00
  0.00000000E+00  0.00000000E+00  0.00000000E+00
  0.00000000E+00  0.00000000E+00  0.00000000E+00
  0.00000000E+00  0.00000000E+00  0.00000000E+00
  0.00000000E+00  0.00000000E+00  0.00000000E+00
  0.00000000E+00  0.00000000E+00  0.00000000E+00
  0.00000000E+00  0.00000000E+00  0.00000000E+00
  0.00000000E+00  0.00000000E+00  0.00000000E+00
  0.00000000E+00  0.00000000E+00  0.00000000E+00
  0.00000000E+00  0.00000000E+00  0.00000000E+00
  0.00000000E+00  0.00000000E+00  0.00000000E+00
  0.00000000E+00  0.00000000E+00  0.00000000E+00
  0.00000000E+00  0.00000000E+00  0.00000000E+00
  0.00000000E+00  0.00000000E+00  0.00000000E+00
  0.00000000E+00  0.00000000E+00  0.00000000E+00
  0.00000000E+00  0.00000000E+00  0.00000000E+00
  0.00000000E+00  0.00000000E+00  0.00000000E+00
  0.00000000E+00  0.00000000E+00  0.00000000E+00
  0.00000000E+00  0.00000000E+00  0.00000000E+00
  0.00000000E+00  0.00000000E+00  0.00000000E+00
  0.00000000E+00  0.00000000E+00  0.00000000E+00
  0.00000000E+00  0.00000000E+00  0.00000000E+00
  0.00000000E+00  0.00000000E+00  0.00000000E+00
  0.00000000E+00  0.00000000E+00  0.00000000E+00
  0.00000000E+00  0.00000000E+00  0.00000000E+00
  0.00000000E+00  0.00000000E+00  0.00000000E+00
  0.00000000E+00  0.00000000E+00  0.00000000E+00
  0.00000000E+00  0.00000000E+00  0.00000000E+00
  0.00000000E+00  0.00000000E+00  0.00000000E+00
  0.00000000E+00  0.00000000E+00  0.00000000E+00
  0.00000000E+00  0.00000000E+00  0.00000000E+00
  0.00000000E+00  0.00000000E+00  0.00000000E+00
  0.00000000E+00  0.00000000E+00  0.00000000E+00
  0.00000000E+00  0.00000000E+00  0.00000000E+00
  0.00000000E+00  0.00000000E+00  0.00000000E+00
  0.00000000E+00  0.00000000E+00  0.00000000E+00
  0.00000000E+00  0.00000000E+00  0.00000000E+00
  0.00000000E+00  0.00000000E+00  0.00000000E+00
  0.00000000E+00  0.00000000E+00  0.00000000E+00
  0.00000000E+00  0.00000000E+00  0.00000000E+00
  0.00000000E+00  0.00000000E+00  0.00000000E+00
  0.00000000E+00  0.00000000E+00  0.00000000E+00
  0.00000000E+00  0.00000000E+00  0.00000000E+00
  0.00000000E+00  0.00000000E+00  0.00000000E+00
  0.00000000E+00  0.00000000E+00  0.00000000E+00
  0.00000000E+00  0.00000000E+00  0.00000000E+00
  0.00000000E+00  0.00000000E+00  0.00000000E+00
  0.00000000E+00  0.00000000E+00  0.00000000E+00
  0.00000000E+00  0.00000000E+00  0.00000000E+00
  0.00000000E+00  0.00000000E+00  0.00000000E+00
  0.00000000E+00  0.00000000E+00  0.00000000E+00
  0.00000000E+00  0.00000000E+00  0.00000000E+00
  0.00000000E+00  0.00000000E+00  0.00000000E+00
  0.00000000E+00  0.00000000E+00  0.00000000E+00
  0.00000000E+00  0.00000000E+00  0.00000000E+00
  0.00000000E+00  0.00000000E+00  0.00000000E+00
  0.00000000E+00  0.00000000E+00  0.00000000E+00
  0.00000000E+00  0.00000000E+00  0.00000000E+00
  0.00000000E+00  0.00000000E+00  0.00000000E+00
  0.00000000E+00  0.00000000E+00  0.00000000E+00
  0.00000000E+00  0.00000000E+00  0.00000000E+00
  0.00000000E+00  0.00000000E+00  0.00000000E+00
  0.00000000E+00  0.00000000E+00  0.00000000E+00
  0.00000000E+00  0.00000000E+00  0.00000000E+00
  0.00000000E+00  0.00000000E+00  0.00000000E+00
  0.00000000E+00  0.00000000E+00  0.00000000E+00
  0.00000000E+00  0.00000000E+00  0.00000000E+00
  0.00000000E+00  0.00000000E+00  0.00000000E+00
  0.00000000E+00  0.00000000E+00  0.00000000E+00
  0.00000000E+00  0.00000000E+00  0.00000000E+00
  0.00000000E+00  0.00000000E+00  0.00000000E+00
  0.00000000E+00  0.00000000E+00  0.00000000E+00
  0.00000000E+00  0.00000000E+00  0.00000000E+00
  0.00000000E+00  0.00000000E+00  0.00000000E+00
  0.00000000E+00  0.00000000E+00  0.00000000E+00
  0.00000000E+00  0.00000000E+00  0.00000000E+00
  0.00000000E+00  0.00000000E+00  0.00000000E+00
  0.00000000E+00  0.00000000E+00  0.00000000E+00
  0.00000000E+00  0.00000000E+00  0.00000000E+00
  0.00000000E+00  0.00000000E+00  0.00000000E+00
  0.00000000E+00  0.00000000E+00  0.00000000E+00
  0.00000000E+00  0.00000000E+00  0.00000000E+00
  0.00000000E+00  0.00000000E+00  0.00000000E+00
  0.00000000E+00  0.00000000E+00  0.00000000E+00
  0.00000000E+00  0.00000000E+00  0.00000000E+00
  0.00000000E+00  0.00000000E+00  0.00000000E+00
  0.00000000E+00  0.00000000E+00  0.00000000E+00
  0.00000000E+00  0.00000000E+00  0.00000000E+00
  0.00000000E+00  0.00000000E+00  0.00000000E+00
  0.00000000E+00  0.00000000E+00  0.00000000E+00
  0.00000000E+00  0.00000000E+00  0.00000000E+00
  0.00000000E+00  0.00000000E+00  0.00000000E+00
  0.00000000E+00  0.00000000E+00  0.00000000E+00
  0.00000000E+00  0.00000000E+00  0.00000000E+00
  0.00000000E+00  0.00000000E+00  0.00000000E+00
  0.00000000E+00  0.00000000E+00  0.00000000E+00
  0.00000000E+00  0.00000000E+00  0.00000000E+00
  0.00000000E+00  0.00000000E+00  0.00000000E+00
  0.00000000E+00  0.00000000E+00  0.00000000E+00
  0.00000000E+00  0.00000000E+00  0.00000000E+00
  0.00000000E+00  0.00000000E+00  0.00000000E+00
  0.00000000E+00  0.00000000E+00  0.00000000E+00
  0.00000000E+00  0.00000000E+00  0.00000000E+00
  0.00000000E+00  0.00000000E+00  0.00000000E+00
  0.00000000E+00  0.00000000E+00  0.00000000E+00
  0.00000000E+00  0.00000000E+00  0.00000000E+00
  0.00000000E+00  0.00000000E+00  0.00000000E+00
  0.00000000E+00  0.00000000E+00  0.00000000E+00
  0.00000000E+00  0.00000000E+00  0.00000000E+00
  0.00000000E+00  0.00000000E+00  0.00000000E+00
  0.00000000E+00  0.00000000E+00  0.00000000E+00
  0.00000000E+00  0.00000000E+00  0.00000000E+00
  0.00000000E+00  0.00000000E+00  0.00000000E+00
  0.00000000E+00  0.00000000E+00  0.00000000E+00
  0.00000000E+00  0.00000000E+00  0.00000000E+00
  0.00000000E+00  0.00000000E+00  0.00000000E+00
  0.00000000E+00  0.00000000E+00  0.00000000E+00
  0.00000000E+00  0.00000000E+00  0.00000000E+00
  0.00000000E+00  0.00000000E+00  0.00000000E+00
  0.00000000E+00  0.00000000E+00  0.00000000E+00
  0.00000000E+00  0.00000000E+00  0.00000000E+00
  0.00000000E+00  0.00000000E+00  0.00000000E+00
  0.00000000E+00  0.00000000E+00  0.00000000E+00
  0.00000000E+00  0.00000000E+00  0.00000000E+00
  0.00000000E+00  0.00000000E+00  0.00000000E+00
  0.00000000E+00  0.00000000E+00  0.00000000E+00
  0.00000000E+00  0.00000000E+00  0.00000000E+00
  0.00000000E+00  0.00000000E+00  0.00000000E+00
  0.00000000E+00  0.00000000E+00  0.00000000E+00
  0.00000000E+00  0.00000000E+00  0.00000000E+00
  0.00000000E+00  0.00000000E+00  0.00000000E+00
  0.00000000E+00  0.00000000E+00  0.00000000E+00
  0.00000000E+00  0.00000000E+00  0.00000000E+00
  0.00000000E+00  0.00000000E+00  0.00000000E+00
  0.00000000E+00  0.00000000E+00  0.00000000E+00
  0.00000000E+00  0.00000000E+00  0.00000000E+00
  0.00000000E+00  0.00000000E+00  0.00000000E+00
  0.00000000E+00  0.00000000E+00  0.00000000E+00
  0.00000000E+00  0.00000000E+00  0.00000000E+00
  0.00000000E+00  0.00000000E+00  0.00000000E+00
  0.00000000E+00  0.00000000E+00  0.00000000E+00
  0.00000000E+00  0.00000000E+00  0.00000000E+00
  0.00000000E+00  0.00000000E+00  0.00000000E+00
  0.00000000E+00  0.00000000E+00  0.00000000E+00
  0.00000000E+00  0.00000000E+00  0.00000000E+00
  0.00000000E+00  0.00000000E+00  0.00000000E+00
  0.00000000E+00  0.00000000E+00  0.00000000E+00
  0.00000000E+00  0.00000000E+00  0.00000000E+00
  0.00000000E+00  0.00000000E+00  0.00000000E+00