 B C N 
 1.0
 17.527899999999772   0.000000000000000   0.000000000000000
 -8.763949999999658  15.179606674993195   0.000000000000000
  0.000000000000001   0.000000000000002  15.000000000000000
 B C N 
  47   2  47
Cartesian
  7.514482587800256  14.461581102296581   1.666471512718050 
 15.025581054469310   1.442261422868226   1.666546192403160 
 13.773503007137244   3.605840028735392   1.665887148940170 
 12.518509178415016   5.770869132847020   1.667126301502560 
 11.274634660883372   7.943292778156564   1.666298482416225 
 10.032786776628114  10.123565613512493   1.666109840879040 
  8.775896016846419  12.301632682482966   1.666132966705215 
 -7.508653009749106  14.463548524344692   1.666308877253895 
  0.004727649777255   1.449195624701311   1.663674108202095 
 -1.246452079192160   3.609424469997290   1.664253586240845 
 -2.502751644991649   5.774605342175715   1.667338097546835 
 -3.760430493373962   7.945186109794415   1.666794102239025 
 -5.010165373722162  10.119737783328796   1.665134757559560 
 -6.257885551460339  12.292403426745192   1.666348763827920 
 -5.010600090682590  14.458692822344803   1.667361048077790 
  2.507509448734952   1.449720585189406   1.666855856094120 
  1.265617468906942   3.616540590083315   1.664986045108230 
  0.009024412434369   5.773546731948069   1.666645259949720 
 -1.265346791634736   7.947508614981418   1.667310128674140 
 -2.521441521859820  10.119737783328796   1.663108279333665 
 -3.763454103512729  12.290872647152414   1.663149464167155 
 -2.509825314925394  14.457063994333694   1.667351702490840 
  5.010316295551799   1.441615397442760   1.667959116020625 
  3.778940470718298   3.621063081961437   1.664782939624560 
  2.559350033477336   5.758611459588589   1.662901820245290 
  1.212922807842794   7.966186270591749   1.664649586405050 
 -0.040112877305431  10.127353315867456   1.665242458288080 
 -1.267411641499603  12.292828185062810   1.662862818369480 
 -0.008583166964584  14.457865913954462   1.664356960045920 
  7.508539142102499   1.441256208834399   1.665633184642530 
  6.245648989376672   3.619779887821758   1.664421659797305 
  2.436236460669066  10.133736117146180   1.663317993572310 
  1.231831302844283  12.296704366600457   1.665227243057595 
  2.497797616708636  14.453022391195120   1.666507761291585 
 10.014191234162460   1.437105156478477   1.664403815733330 
  8.758206462346278   3.595080429502719   1.664142864355650 
  7.461456047283811   5.706579217471829   1.665069482564955 
  6.526730098437202   8.097728474985958   1.663332928744770 
  5.010969988231848  10.137743366194174   1.663012226780235 
  3.740499328931264  12.285262359489456   1.667689282535235 
  5.004053011799362  14.454180893816982   1.668648033401490 
 12.519336247712154   1.438539852719739   1.666694162102940 
 11.266724251635845   3.600362037770484   1.666348183378965 
 10.008664092268525   5.757085088994919   1.665687566311350 
  8.801692937149625   7.946145013081835   1.665072550503810 
  7.559160327204569  10.154736131026688   1.664554715490510 
  6.259397952836836  12.298929479800808   1.667053297229160 
  3.588473186386457   8.013868605044195   1.659419286802530 
  3.739370992768965   9.340515704094623   1.658117294041800 
  8.765665870111150  13.737145106322680   1.666328194054635 
 16.277587545008732   0.721914063335525   1.665298613893140 
 15.026159994036862   2.886307731854423   1.664975088988140 
 13.772033697207224   5.052721194248214   1.666211630749290 
 12.517809778970864   7.219934558184582   1.667419563037515 
 11.267811370682969   9.390492539881121   1.665591305432625 
 10.016998525667713  11.564155421560226   1.665951034077780 
 -6.263696965784936  13.731619776816562   1.667456336247000 
  1.251507971513821   0.722773174547773   1.664262928318455 
  0.003741292080329   2.892533912249135   1.661802847907790 
 -1.248916052782540   5.056255978420825   1.666559316637755 
 -2.511341449536275   7.222289054570088   1.667626894474500 
 -3.767145854679271   9.391700122565862   1.664603590228905 
 -5.014005158845059  11.562248847297662   1.664887043271960 
 -3.762272076426191  13.730180404751540   1.665435764309955 
  3.751975546961315   0.715003958300050   1.668158283658425 
  2.505079599795225   2.887384362555883   1.667095886269140 
  1.263672956708926   5.067476573846315   1.665510181756530 
 -0.011444380733296   7.225106075506123   1.667398565990460 
 -1.276662292272411   9.394185167972740   1.664728876897020 
 -2.516534800575402  11.563789434635366   1.659605148018090 
 -1.259314796654725  13.731872724006065   1.664932780428855 
  6.259470810536051   0.712259867067125   1.670389032110040 
  5.009564171423984   2.866272292386948   1.663179303177540 
  3.738454999321994   5.025756866172191   1.661995389583080 
  2.502776377850350   7.246803857347308   1.660203373540935 
  1.204665890123878   9.400836585597713   1.665499442424510 
 -0.018987530052030  11.568436079766943   1.663861238964075 
  1.243673651205805  13.735102655559798   1.664785441983225 
  8.764020723029113   0.716238429781147   1.662824439966705 
  7.514911535503346   2.875866587783578   1.663214117434410 
  6.264751066484497   5.022078540630629   1.666327207018395 
  2.480984876940965  11.573229595236869   1.665455502213090 
  3.752393020869339  13.726634133252920   1.668861255655860 
 11.272586528644176   0.714782966329252   1.664944771042425 
 10.022996162018689   2.879136969973291   1.665629744422485 
  8.763739401671849   5.043351023571059   1.663688083102590 
  7.519387319373243   7.198552573261537   1.664565570066300 
  6.280760010133441   9.425554759499365   1.662571247755845 
  5.007159815792174  11.566820364088553   1.668000382188315 
  6.260921904351311  13.733815507143646   1.667414575919940 
 13.772881336497294   0.716154424570721   1.668191422848975 
 12.522630003119412   2.882752355139544   1.665266678359695 
 11.267260031794583   5.048960728454079   1.667027755095135 
 10.021173018033318   7.216359189478639   1.665074108563950 
  8.776166500089690   9.393189172695944   1.665160523789535 
  7.519633622842763  11.576706481439375   1.664564381032620 
