B Ga N                                  
   1.0000000000000000     
     8.7639499999999995  -15.1796066749929999    0.0000000000000000
     8.7639499999999995   15.1796066749929999    0.0000000000000000
     0.0000000000000000    0.0000000000000000   15.0000000000000000
   B    Ga   N 
    47     1    49
Selective dynamics
Direct
  0.9076160822363227  0.9567596612761680  0.1110391111895360   T   T   T
  0.9066322672956236  0.0983870247190674  0.1110481025058833   T   T   T
  0.9054464908762642  0.2399514048660529  0.1110826788216319   T   T   T
  0.9034610659064604  0.3815745425553351  0.1109926399686057   T   T   T
  0.8987453978131573  0.5230819631930329  0.1110322721879655   T   T   T
  0.9013308111846612  0.6660337544094692  0.1110887498481578   T   T   T
  0.9063650500819334  0.8128687501927395  0.1110667979203303   T   T   T
  0.0485003276494547  0.9536609600823958  0.1110027458755182   T   T   T
  0.0493061516140570  0.0971326078170310  0.1109960649540717   T   T   T
  0.0490653376620307  0.2398521739493069  0.1110238392789964   T   T   T
  0.0476611582681018  0.3818860103604126  0.1110176545068736   T   T   T
  0.0447149823556651  0.5234072889804715  0.1110408057186736   T   T   T
  0.0443893188703823  0.6652391580743264  0.1110163368611626   T   T   T
  0.0454991106393187  0.8083440528072626  0.1110033258332493   T   T   T
  0.1883089573037478  0.9497690043363543  0.1110307972094332   T   T   T
  0.1911397630088519  0.0949399748128850  0.1110208146924411   T   T   T
  0.1913462831281465  0.2376768273442983  0.1109876719862846   T   T   T
  0.1916934057894213  0.3814177523049224  0.1110177718720927   T   T   T
  0.1897266595725114  0.5236377394977458  0.1111064499669693   T   T   T
  0.1883889886014086  0.6652945528508117  0.1111019881610465   T   T   T
  0.1878215218586971  0.8071447284796469  0.1110139213325665   T   T   T
  0.3306222257698871  0.9486109743871723  0.1110052401427154   T   T   T
  0.3302080223743057  0.0898556214212564  0.1110439639597285   T   T   T
  0.3350921959901583  0.2363210299448055  0.1110301679376463   T   T   T
  0.3334846688745342  0.3784085699648831  0.1111295149153888   T   T   T
  0.3343779870727047  0.5238720179733592  0.1111759129115153   T   T   T
  0.3327054948543862  0.6662079208020210  0.1111529963353143   T   T   T
  0.3312315552766242  0.8075545610393112  0.1110407189623683   T   T   T
  0.4744015319868502  0.9503509565128407  0.1110056177865190   T   T   T
  0.4734742489672087  0.0888627769557473  0.1109943307871900   T   T   T
  0.4714396222788700  0.2252606112562869  0.1109318443135830   T   T   T
  0.4825296079295266  0.3705467482223436  0.1109730575239999   T   T   T
  0.4775291089653786  0.6730554732304711  0.1110539115461256   T   T   T
  0.4754174895279580  0.8114706760145991  0.1110303642626637   T   T   T
  0.6191361661121274  0.9547259752320419  0.1110014823845840   T   T   T
  0.6181027852907395  0.0936969214476081  0.1110450761319502   T   T   T
  0.6166337661686413  0.2323365655367660  0.1109809754227934   T   T   T
  0.6124236949577799  0.3675384784699212  0.1109135837967992   T   T   T
  0.6246903265022102  0.6820780307392503  0.1109091704710911   T   T   T
  0.6206934718979756  0.8165565433590414  0.1109444121288386   T   T   T
  0.7640314161643931  0.9571681998626034  0.1109953771937093   T   T   T
  0.7626743059618035  0.0974265073195947  0.1110663061463857   T   T   T
  0.7613928204238699  0.2382428108532281  0.1110471558866133   T   T   T
  0.7591446463414800  0.3795963008107435  0.1109872456278258   T   T   T
  0.7520781144511023  0.5239826040647696  0.1110882592867428   T   T   T
  0.7644228424835583  0.6728215380004349  0.1110205158060598   T   T   T
  0.7665551518496851  0.8177512003293312  0.1109834435874632   T   T   T
  0.4970954099753067  0.5231140084804291  0.1112865130469509   T   T   T
  0.9538461710481768  0.9075889036945496  0.1110246418342524   T   T   T
  0.9546867869166840  0.0511639639111304  0.1110102191937281   T   T   T
  0.9538995140713638  0.1931935793868544  0.1110510364802828   T   T   T
  0.9521396566644172  0.3349685156339726  0.1110060583930832   T   T   T
  0.9481394715761493  0.4764532164531495  0.1109808561847593   T   T   T
  0.9477780999206101  0.6177914985644631  0.1110261506338447   T   T   T
  0.9499743398631155  0.7612539666214821  0.1110418500911583   T   T   T
  0.0935457169494388  0.9035114368053975  0.1109888427099402   T   T   T
  0.0963940948342237  0.0488546623795724  0.1109687333302244   T   T   T
  0.0967772491923384  0.1919257963186134  0.1109699906098259   T   T   T
  0.0963917684734721  0.3348297778446890  0.1109806041346336   T   T   T
  0.0939278131925533  0.4766996508318678  0.1110360882103711   T   T   T
  0.0924547425775487  0.6181176172236854  0.1110405981500329   T   T   T
  0.0922818139610790  0.7600622338187895  0.1109804090230089   T   T   T
  0.2355622979743757  0.9019962635792681  0.1109883911146011   T   T   T
  0.2361196400521236  0.0448273831485031  0.1110419200610926   T   T   T
  0.2401349572910466  0.1908205595853695  0.1110047026421306   T   T   T
  0.2390908006904799  0.3322996041593507  0.1109918487479757   T   T   T
  0.2387603340094837  0.4765951553269678  0.1110714746760239   T   T   T
  0.2371223427138723  0.6185045465808194  0.1111364230862216   T   T   T
  0.2358052349260122  0.7600618425971283  0.1110376944642881   T   T   T
  0.3790556641203966  0.9023601687010814  0.1109826966785011   T   T   T
  0.3785018635605616  0.0433113753309266  0.1110027066936681   T   T   T
  0.3782156799226705  0.1846284188007165  0.1110123050477426   T   T   T
  0.3874952556809060  0.3344112387385204  0.1110434405423516   T   T   T
  0.3776939569934286  0.4712076216403500  0.1112552368438931   T   T   T
  0.3820900567344281  0.6197069433220487  0.1111354727747637   T   T   T
  0.3799343193136540  0.7613301729304777  0.1110714893021843   T   T   T
  0.5236276102401139  0.9057081144521356  0.1109947622454492   T   T   T
  0.5227694283296176  0.0446411738461719  0.1110000231733395   T   T   T
  0.5218337247256991  0.1828333499209699  0.1109467973849895   T   T   T
  0.5201506790198742  0.3176435576019715  0.1108212816210454   T   T   T
  0.5637801101880768  0.4645661714196886  0.1110548880186849   T   T   T
  0.5332400182876642  0.6363161605488872  0.1110135397338650   T   T   T
  0.5250350460293061  0.7672683593951354  0.1109738062315744   T   T   T
  0.6686812692398825  0.9101657501187297  0.1109549875471535   T   T   T
  0.6673156577171634  0.0490697665600575  0.1110264915543004   T   T   T
  0.6661289054194058  0.1886219382876083  0.1110156215324026   T   T   T
  0.6643716588015692  0.3282053305386469  0.1109325428078166   T   T   T
  0.6420169205253943  0.4632153616115566  0.1110093609209343   T   T   T
  0.6743396563777412  0.6395459156424829  0.1105787193704061   T   T   T
  0.6727601306162506  0.7743748574739657  0.1108971764493887   T   T   T
  0.8132244907991432  0.9112878181916839  0.1109851451025547   T   T   T
  0.8114826178034285  0.0515150835927565  0.1110266274510851   T   T   T
  0.8100886146905325  0.1924193450115610  0.1110812545446254   T   T   T
  0.8079027066563289  0.3339594530821730  0.1109762280119483   T   T   T
  0.7998524715992973  0.4753020419467056  0.1110239123905676   T   T   T
  0.8038172148083539  0.6178382244550338  0.1111283907446022   T   T   T
  0.8120488812813088  0.7678256147097334  0.1110447088366150   T   T   T

  0.00000000E+00  0.00000000E+00  0.00000000E+00
  0.00000000E+00  0.00000000E+00  0.00000000E+00
  0.00000000E+00  0.00000000E+00  0.00000000E+00
  0.00000000E+00  0.00000000E+00  0.00000000E+00
  0.00000000E+00  0.00000000E+00  0.00000000E+00
  0.00000000E+00  0.00000000E+00  0.00000000E+00
  0.00000000E+00  0.00000000E+00  0.00000000E+00
  0.00000000E+00  0.00000000E+00  0.00000000E+00
  0.00000000E+00  0.00000000E+00  0.00000000E+00
  0.00000000E+00  0.00000000E+00  0.00000000E+00
  0.00000000E+00  0.00000000E+00  0.00000000E+00
  0.00000000E+00  0.00000000E+00  0.00000000E+00
  0.00000000E+00  0.00000000E+00  0.00000000E+00
  0.00000000E+00  0.00000000E+00  0.00000000E+00
  0.00000000E+00  0.00000000E+00  0.00000000E+00
  0.00000000E+00  0.00000000E+00  0.00000000E+00
  0.00000000E+00  0.00000000E+00  0.00000000E+00
  0.00000000E+00  0.00000000E+00  0.00000000E+00
  0.00000000E+00  0.00000000E+00  0.00000000E+00
  0.00000000E+00  0.00000000E+00  0.00000000E+00
  0.00000000E+00  0.00000000E+00  0.00000000E+00
  0.00000000E+00  0.00000000E+00  0.00000000E+00
  0.00000000E+00  0.00000000E+00  0.00000000E+00
  0.00000000E+00  0.00000000E+00  0.00000000E+00
  0.00000000E+00  0.00000000E+00  0.00000000E+00
  0.00000000E+00  0.00000000E+00  0.00000000E+00
  0.00000000E+00  0.00000000E+00  0.00000000E+00
  0.00000000E+00  0.00000000E+00  0.00000000E+00
  0.00000000E+00  0.00000000E+00  0.00000000E+00
  0.00000000E+00  0.00000000E+00  0.00000000E+00
  0.00000000E+00  0.00000000E+00  0.00000000E+00
  0.00000000E+00  0.00000000E+00  0.00000000E+00
  0.00000000E+00  0.00000000E+00  0.00000000E+00
  0.00000000E+00  0.00000000E+00  0.00000000E+00
  0.00000000E+00  0.00000000E+00  0.00000000E+00
  0.00000000E+00  0.00000000E+00  0.00000000E+00
  0.00000000E+00  0.00000000E+00  0.00000000E+00
  0.00000000E+00  0.00000000E+00  0.00000000E+00
  0.00000000E+00  0.00000000E+00  0.00000000E+00
  0.00000000E+00  0.00000000E+00  0.00000000E+00
  0.00000000E+00  0.00000000E+00  0.00000000E+00
  0.00000000E+00  0.00000000E+00  0.00000000E+00
  0.00000000E+00  0.00000000E+00  0.00000000E+00
  0.00000000E+00  0.00000000E+00  0.00000000E+00
  0.00000000E+00  0.00000000E+00  0.00000000E+00
  0.00000000E+00  0.00000000E+00  0.00000000E+00
  0.00000000E+00  0.00000000E+00  0.00000000E+00
  0.00000000E+00  0.00000000E+00  0.00000000E+00
  0.00000000E+00  0.00000000E+00  0.00000000E+00
  0.00000000E+00  0.00000000E+00  0.00000000E+00
  0.00000000E+00  0.00000000E+00  0.00000000E+00
  0.00000000E+00  0.00000000E+00  0.00000000E+00
  0.00000000E+00  0.00000000E+00  0.00000000E+00
  0.00000000E+00  0.00000000E+00  0.00000000E+00
  0.00000000E+00  0.00000000E+00  0.00000000E+00
  0.00000000E+00  0.00000000E+00  0.00000000E+00
  0.00000000E+00  0.00000000E+00  0.00000000E+00
  0.00000000E+00  0.00000000E+00  0.00000000E+00
  0.00000000E+00  0.00000000E+00  0.00000000E+00
  0.00000000E+00  0.00000000E+00  0.00000000E+00
  0.00000000E+00  0.00000000E+00  0.00000000E+00
  0.00000000E+00  0.00000000E+00  0.00000000E+00
  0.00000000E+00  0.00000000E+00  0.00000000E+00
  0.00000000E+00  0.00000000E+00  0.00000000E+00
  0.00000000E+00  0.00000000E+00  0.00000000E+00
  0.00000000E+00  0.00000000E+00  0.00000000E+00
  0.00000000E+00  0.00000000E+00  0.00000000E+00
  0.00000000E+00  0.00000000E+00  0.00000000E+00
  0.00000000E+00  0.00000000E+00  0.00000000E+00
  0.00000000E+00  0.00000000E+00  0.00000000E+00
  0.00000000E+00  0.00000000E+00  0.00000000E+00
  0.00000000E+00  0.00000000E+00  0.00000000E+00
  0.00000000E+00  0.00000000E+00  0.00000000E+00
  0.00000000E+00  0.00000000E+00  0.00000000E+00
  0.00000000E+00  0.00000000E+00  0.00000000E+00
  0.00000000E+00  0.00000000E+00  0.00000000E+00
  0.00000000E+00  0.00000000E+00  0.00000000E+00
  0.00000000E+00  0.00000000E+00  0.00000000E+00
  0.00000000E+00  0.00000000E+00  0.00000000E+00
  0.00000000E+00  0.00000000E+00  0.00000000E+00
  0.00000000E+00  0.00000000E+00  0.00000000E+00
  0.00000000E+00  0.00000000E+00  0.00000000E+00
  0.00000000E+00  0.00000000E+00  0.00000000E+00
  0.00000000E+00  0.00000000E+00  0.00000000E+00
  0.00000000E+00  0.00000000E+00  0.00000000E+00
  0.00000000E+00  0.00000000E+00  0.00000000E+00
  0.00000000E+00  0.00000000E+00  0.00000000E+00
  0.00000000E+00  0.00000000E+00  0.00000000E+00
  0.00000000E+00  0.00000000E+00  0.00000000E+00
  0.00000000E+00  0.00000000E+00  0.00000000E+00
  0.00000000E+00  0.00000000E+00  0.00000000E+00
  0.00000000E+00  0.00000000E+00  0.00000000E+00
  0.00000000E+00  0.00000000E+00  0.00000000E+00
  0.00000000E+00  0.00000000E+00  0.00000000E+00
  0.00000000E+00  0.00000000E+00  0.00000000E+00
  0.00000000E+00  0.00000000E+00  0.00000000E+00
  0.00000000E+00  0.00000000E+00  0.00000000E+00
