 B C N 
 1.0
 17.527899999999772   0.000000000000000   0.000000000000000
 -8.763949999999658  15.179606674993195   0.000000000000000
  0.000000000000001   0.000000000000002  15.000000000000000
 B C N 
  48   1  48
Cartesian
  7.547528895386742  14.439818757059964   1.657265934883005 
 15.088221605355645   1.444383670954700   1.663292360594430 
 13.847361688730469   3.614368903254128   1.662005707159245 
 12.591301567249580   5.780881863529655   1.665917625939525 
 11.307468280604954   7.945012208041978   1.673382507090840 
 10.017320602827557  10.100584768663635   1.656238716496785 
  8.761343974436834  12.246742862793949   1.650418940243220 
 -7.484671313156789  14.463093966031057   1.664217641775345 
  0.059861014487747   1.463760858397989   1.665011017295820 
 -1.173737156661826   3.633485364594137   1.670719607379315 
 -2.435500427038055   5.796346109420032   1.661359129228260 
 -3.726800944534161   7.962154441489597   1.659060693746340 
 -5.001358106717867  10.126927361992207   1.664338835484075 
 -6.253065325722961  12.290613696986016   1.662905319700215 
 -4.985414977069833  14.479115500813977   1.664746596070110 
  2.563858004280325   1.494801264959354   1.653236538061845 
  1.339988626737880   3.665046371666118   1.661835835064055 
  0.084375834917162   5.824714889565242   1.674769636400310 
 -1.240471427967885   7.981988784272784   1.641250796580735 
 -2.508308835152377  10.146597062519319   1.651110586920660 
 -3.750963543578330  12.309403845957108   1.663291598092830 
 -2.482694531932668  14.481621203619831   1.668450239430495 
  5.054147523048296   1.474478130605824   1.650302628873720 
  3.869783403641432   3.708920510481222   1.610157907559070 
  2.649780681904691   5.841691243078343   1.726078880877015 
  1.216062052569327   8.055441382702503   1.668785543060565 
 -0.036265408059514  10.182551312645359   1.637413846420650 
 -1.252841020232234  12.325848182951885   1.653887131433430 
  0.031933552084993  14.472033383238971   1.661235074697975 
  7.565504062508359   1.449273757903687   1.672162662937065 
  6.342250778056012   3.614689695143734   1.629610622230380 
  5.255576625854928   5.942946302313034   1.546646271603525 
  2.454556609826666  10.168370352306010   1.696042115831730 
  1.260751964298758  12.318971793206169   1.637593000207230 
  2.552251017330439  14.451407748116768   1.652501616275100 
 10.080777208243765   1.435078551097995   1.668200897781105 
  8.848604576213322   3.590005511129317   1.675428455837355 
  7.636218532525004   5.735295770447967   1.625965519062690 
  6.232594386969444   7.680466322802086   1.557476699019780 
  4.997228172037552  10.031005287196066   1.699104391065405 
  3.783837403137357  12.269288736620688   1.651755131009160 
  5.056571242366301  14.438591916504837   1.654205442912675 
 12.587256888196656   1.436303510648041   1.660146036098385 
 11.346767259371536   3.602837765422110   1.668672821988345 
 10.102371513155898   5.766714898694471   1.679505557307780 
  8.807720734781398   7.917602564054229   1.648389043407990 
  7.470252226897655  10.007155383711259   1.619817581947140 
  6.272210277929836  12.234675099334492   1.640009773879575 
  2.575813846292732   7.387766697179493   1.813231633109235 
  8.789666098906723  13.710294400751266   1.659918268258335 
 16.334792778352583   0.718517914088472   1.663534435758795 
 15.101050092746611   2.896529673350276   1.665531602574795 
 13.847536267323090   5.059868891664398   1.660365122490600 
 12.563189120978262   7.227948018048060   1.666286758474590 
 11.280646484060036   9.391942257736632   1.667951614367550 
 10.023322681544652  11.548223211225654   1.657621854078135 
 -6.236929949662597  13.741619629698324   1.664949787077060 
  1.308135930456351   0.744229272373705   1.664573947538565 
  0.082323586084021   2.919469235346543   1.667370262245000 
 -1.169265058984553   5.085022659897604   1.671736725449760 
 -2.473450301157377   7.243829063568025   1.653214677647820 
 -3.747398158111820   9.409909667867089   1.659380126522175 
 -4.999683586453088  11.574760625165300   1.662876296630610 
 -3.737231205921675  13.755765913659285   1.665656040035985 
  3.799546686877393   0.750948559176429   1.658740997877000 
  2.599924851697465   2.959683727876805   1.637750403484005 
  1.366172336301014   5.119616879886481   1.691467163730855 
  0.015759175294416   7.275341669920420   1.642357348365780 
 -1.259344654257517   9.430752943510305   1.637410946682375 
 -2.500365159804872  11.592069222065955   1.658749011823020 
 -1.232396469042272  13.763561959987586   1.663912746847095 
  6.300189455165214   0.744016222207556   1.670238375611805 
  5.080129534190157   2.922637934440483   1.618638157604955 
  3.935346660245920   5.192207461446912   1.595135338702110 
  1.207804747824449   9.475280105014305   1.653495682297875 
 -0.004061630038964  11.614310756409139   1.639093857471375 
  1.283555087286325  13.753507888690574   1.647652230082140 
  8.815798322852379   0.729137276919410   1.671288041212845 
  7.587139788603885   2.885937151593957   1.669323840642825 
  6.378979906483650   5.048271307996189   1.593166832569125 
  3.666895000541183   8.069628037108906   1.969499920199325 
  3.675679798471644   9.418152496596209   1.828018756676985 
  2.507867820406411  11.595254856639746   1.638980409093345 
  3.800809750829831  13.717839332699922   1.651399578750060 
 11.331353943802027   0.714647000656500   1.659499528705290 
 10.096419811940940   2.875066850542833   1.673600927148180 
  8.869979723645292   5.027175375013475   1.676956994803740 
  7.582099110793155   7.169754079534738   1.611328185622800 
  6.198175627099027   9.209297521736820   1.601347671701475 
  5.017442954613655  11.497488839201409   1.652939399962125 
  6.295845000034392  13.696594619834039   1.648485571917825 
 13.835763015059538   0.710876371333869   1.660231851618870 
 12.596937841839077   2.883507645466441   1.660192043437125 
 11.349824859336866   5.048457341263672   1.672608895276065 
 10.070203059003713   7.210264184676050   1.680691128434415 
  8.765736528327990   9.356445959301317   1.639001521815705 
  7.504193510932397  11.484626347465662   1.633898923729740 
