 Al B N 
 1.0
 14.936314146199660   0.000000000000000   0.000000000000000
 -7.468157073099825  12.935227489513863   0.000000000000000
  0.000000000000001   0.000000000000001  13.341276283792837
 Al B N 
   1 143 144
Cartesian
  3.734078536549917   5.030366245922021   5.002978606422314 
  1.220823042596307   0.683172783637785   5.002978606422314 
  5.040659981784107   7.261122096403247   5.002978606422314 
  6.247334030503031   0.683172783637785   5.002978606422314 
  9.967926979997003   7.189648343585207   5.002978606422314 
 11.202235609649751   0.718623749417456   5.002978606422314 
 -3.734078536549858   9.342108742426666  11.673616748318732 
  1.244628660435760   9.342240676897033  11.673616748318732 
  2.488815373365580   2.874503668537452  11.673616748318732 
  6.223528412662827   9.342240676897033  11.673616748318732 
  7.467969505018167   2.874603290153567  11.673616748318732 
 12.446485887490720   2.874655927830949  11.673616748318732 
 -1.252838835685656   9.349396312458103   5.002978606422314 
 -0.010311019642181   2.868541927703496   5.002978606422314 
  5.012679050093993   2.783455596997729   5.002978606422314 
  3.734078536552295   9.354014882358449   5.002978606422314 
  8.720995908786495   9.349396312458103   5.002978606422314 
  9.962807967799545   2.869402570640333   5.002978606422314 
 -4.978404555508982  11.498124323735034  11.673616748318732 
  0.000365665279469  11.498191107625582  11.673616748318732 
  1.244415195874662   5.029868000899464  11.673616748318732 
  6.223741877227877   5.029868000899464  11.673616748318732 
  4.979132035514176  11.498282800448342  11.673616748318732 
 11.202235609650517   5.029944012027411  11.673616748318732 
 -1.287329183930880   5.027419873099908   5.002978606422314 
 -2.487147465338170  11.487281571236990   5.002978606422314 
  2.491163260371235  11.505086004326932   5.002978606422314 
  7.464295394175208  11.500209532045600   5.002978606422314 
  8.755486257030713   5.027419873099908   5.002978606422314 
 -0.000507081998292   7.186530258102109  11.673616748318732 
  1.244610679454402   0.718502196270789  11.673616748318732 
  4.978478714043025   7.186727068329576  11.673616748318732 
  6.223546393646221   0.718502196270789  11.673616748318732 
  9.957234354761558   7.186483008763228  11.673616748318732 
 -2.499769906897808   7.189648343585207   5.002978606422314 
 11.202235609649751   0.718623749417457  11.673616748318732 
  3.734078536549274   0.681701011526084   5.002978606422314 
  2.427497091320867   7.261122096403247   5.002978606422314 
  7.500133102091823   7.204698863120947   5.002978606422314 
  8.719892691621634   0.716610162801568   5.002978606422314 
  2.489678359058754   7.186727068329576  11.673616748318732 
 13.684578527672658   0.716610162801568   5.002978606422314 
 -1.244751262700513   9.341718894782108  11.673616748318732 
  0.000187568083744   2.874603290153567  11.673616748318732 
  4.979341699734523   2.874503668537452  11.673616748318732 
  3.734078536551587   9.341892157460292  11.673616748318732 
  8.712908335801426   9.341718894782108  11.673616748318732 
  9.957985331810685   2.874655927830949  11.673616748318732 
 -3.734078536549858   9.342108742426664   5.002978606422314 
  1.225926310022050   9.380506081029521   5.002978606422314 
  2.455478023006900   2.783455596997729   5.002978606422314 
  6.242230763076920   9.380506081029521   5.002978606422314 
  7.478468092744344   2.868541927703496   5.002978606422314 
 12.441663251497573   2.869402570640333   5.002978606422314 
 -1.244839196660234   5.030355864597416  11.673616748318732 
 -2.489752517588446  11.498124323735034  11.673616748318732 
  2.489025037586037  11.498282800448342  11.673616748318732 
  3.734078536549918   5.030366245922021  11.673616748318732 
  7.467791407821925  11.498191107625582  11.673616748318732 
 -4.981009607760829  11.487281571236990   5.002978606422314 
  8.712996269758651   5.030355864597416  11.673616748318732 
  0.003861678922855  11.500209532045600   5.002978606422314 
  1.148896577776736   5.046521044363161   5.002978606422314 
 -0.031976028992344   7.204698863120947   5.002978606422314 
  6.319260495327070   5.046521044363161   5.002978606422314 
  4.976993812724229  11.505086004326932   5.002978606422314 
 11.202235609648850   5.025907163190252   5.002978606422314 
 -2.489077281660916   7.186483008763228  11.673616748318732 
  3.734078536548945   0.718038221562210  11.673616748318732 
  7.468664155098978   7.186530258102109  11.673616748318732 
  8.712931832844395   0.718160009487603  11.673616748318732 
 13.691539386452570   0.718160009487603  11.673616748318732 
  0.000057989849664   1.436741781731887   1.657980089411444 
  3.734078536551666   7.905906480138611   1.653155425885880 
  4.979363284076046   1.436067255954971   1.652736188251804 
  8.713045120838805   7.904973943647249   1.661950591071752 
  9.957981611601115   1.436994130131783   1.667226760265608 
 -4.978406377624396  10.060521756432777   8.337001196884875 
  0.000239339006658  10.060704471276845   8.342874387908264 
  1.243787644115253   3.592596128813817   8.352801786958066 
  4.979238340848432  10.060935129711705   8.347977123433225 
  6.224369428987420   3.592596128813817   8.352801786958066 
 11.202235609648104   3.593016786409667   8.339880697603116 
 -2.489750695477993  10.060521756432777   1.668956015960993 
 -1.245101814449722   3.593421826320958   1.657980089411444 
  3.734078536549723   3.589877112196334   1.670454579838225 
  2.488918732252390  10.060935129711705   1.657980089411444 
  7.467917734095078  10.060704471276845   1.663082824937125 
  8.713258887548539   3.593421826320958   1.657980089411444 
 -6.223559630562727  12.216825024038227   8.342874387908264 
 -1.244597442535403  12.216825024038227   8.342874387908264 
 -0.001318071322023   5.749067514602607   8.353221024594772 
  4.981578720232085   5.750610812785034   8.335502633006604 
  3.734078536550198  12.217110477504216   8.338730452577712 
  9.957398828108634   5.748796731963184   8.342874387908264 
 -2.489241755007111   5.748796731963183   1.663082824937125 
 -3.734078536550747  12.216378339985219   1.661950591071752 
  1.244781146052580  12.216654720436539   1.666076515242139 
  2.486578352867749   5.750610812785033   1.670454579838225 
  6.223375927043855  12.216654720436539   1.666076515242139 
  7.469475144419333   5.749067514602606   1.652736188251804 
 -1.244888047739701   7.904973943647250   8.344006621774410 
  0.000057989849664   1.436741781731887   8.347977123433225 
  3.734078536551667   7.905906480138611   8.352801786958066 
  4.979363284076047   1.436067255954972   8.353221024594772 
  8.713045120838805   7.904973943647250   8.344006621774410 
 -3.734078536550390   7.905282714420090   1.668956015960993 
  9.957981611601115   1.436994130131784   8.338730452577712 
  2.488793789023097   1.436067255954971   1.652736188251804 
  1.243966676204468   7.905963967209029   1.652736188251804 
  6.224190396892875   7.905963967209029   1.652736188251804 
  7.468099083251884   1.436741781731887   1.657980089411444 
  1.243966676204468   7.905963967209030   8.353221024594772 
 12.446489607697663   1.436994130131783   1.667226760265608 
 -2.489750695477993  10.060521756432777   8.337001196884875 
 -1.245101814449722   3.593421826320959   8.347977123433225 
  3.734078536549723   3.589877112196334   8.335502633006604 
  2.488918732252391  10.060935129711705   8.347977123433225 
  7.467917734095079  10.060704471276845   8.342874387908264 
  8.713258887548539   3.593421826320959   8.347977123433225 
 -4.978406377624397  10.060521756432777   1.668956015960993 
  0.000239339006657  10.060704471276845   1.663082824937125 
  1.243787644115252   3.592596128813816   1.653155425885880 
  4.979238340848431  10.060935129711705   1.657980089411444 
  6.224369428987419   3.592596128813816   1.653155425885880 
 11.202235609648104   3.593016786409666   1.666076515242139 
 -2.489241755007111   5.748796731963184   8.342874387908264 
 -3.734078536550746  12.216378339985219   8.344006621774410 
  1.244781146052581  12.216654720436539   8.339880697603116 
  2.486578352867750   5.750610812785034   8.335502633006604 
  6.223375927043856  12.216654720436539   8.339880697603116 
 -6.223559630562728  12.216825024038227   1.663082824937125 
  7.469475144419334   5.749067514602607   8.353221024594772 
 -1.244597442535404  12.216825024038227   1.663082824937125 
 -0.001318071322023   5.749067514602606   1.652736188251804 
 -1.244888047739701   7.904973943647249   1.661950591071752 
  4.981578720232084   5.750610812785033   1.670454579838225 
  3.734078536550197  12.217110477504216   1.667226760265608 
  9.957398828108634   5.748796731963183   1.663082824937125 
 -3.734078536550389   7.905282714420091   8.337001196884875 
  2.488793789023097   1.436067255954972   8.353221024594772 
  6.224190396892876   7.905963967209030   8.353221024594772 
  7.468099083251885   1.436741781731887   8.347977123433225 
 12.446489607697663   1.436994130131784   8.338730452577712 
  1.244532861198089   0.718409741941210   1.655761162827882 
  4.978827527121600   7.186652260641086   1.653636157038038 
  6.223624211902519   0.718409741941210   1.655761162827882 
  9.957594214365923   7.186286188336578   1.666197909004946 
 11.202235609649751   0.718623749417456   1.669546863676942 
 -3.734078536549858   9.342108742426664   8.334633368494229 
  1.244587501767686   9.342354296645393   8.350196050017614 
  2.489054565266670   2.874238991390869   8.352321055807630 
  6.223569571335961   9.342354296645393   8.350196050017679 
  7.468330095612965   2.874395103076480   8.353295243772832 
 12.446809447916804   2.874479152498762   8.341072283867073 
 -1.244760741015766   9.342128952557335   1.666197909004946 
 -0.000173022511668   2.874395103076479   1.652661969069781 
  4.979102507833222   2.874238991390868   1.653636157038038 
  3.734078536550890   9.342308531615329   1.652661969069781 
  8.712917814112572   9.342128952557335   1.666197909004946 
  9.957661771383945   2.874479152498761   1.664884928978049 
 -4.978754936803306  11.497911086389168   8.339759303839456 
  0.000027542710682  11.497995892470039   8.339846173525792 
  1.244305574692361   5.030207485735660   8.352321055807630 
  6.223851498405803   5.030207485735660   8.352321055807630 
  4.978817163372036  11.498090976565798   8.341072283867073 
 11.202235609650037   5.030334442339342   8.339846173525792 
 -1.244958173586495   5.030334699175359   1.655761162827882 
 -2.489402136297753  11.497911086389168   1.666197909004946 
  2.489339909729209  11.498090976565798   1.664884928978049 
  3.734078536549917   5.030366245922020   1.710318735805646 
  7.468129530389739  11.497995892470039   1.666111039319716 
  8.713115246686209   5.030334699175359   1.655761162827882 
 -0.000133571857246   7.186314611922262   8.352521035213318 
  1.244532861198090   0.718409741941211   8.350196050017614 
  4.978827527121600   7.186652260641087   8.352321055807630 
  6.223624211902520   0.718409741941211   8.350196050017679 
  9.957594214365923   7.186286188336579   8.339759303839456 
 -2.489437141267969   7.186286188336578   1.666197909004946 
 11.202235609649751   0.718623749417456   8.336410349167672 
  3.734078536550431   0.718469513921218   1.653436177630042 
  2.489329545974711   7.186652260641086   1.653636157038038 
  7.468290644956859   7.186314611922261   1.653436177630042 
  8.712923144562135   0.718528608701230   1.664884928978049 
  2.489329545974720   7.186652260641075   8.352321055807630 
 13.691548074737820   0.718528608701230   1.664884928978049 
 -1.244760741015765   9.342128952557335   8.339759303839456 
 -0.000173022511668   2.874395103076480   8.353295243772832 
  4.979102507833223   2.874238991390869   8.352321055807630 
  3.734078536550891   9.342308531615329   8.353295243772832 
  8.712917814112572   9.342128952557335   8.339759303839456 
  9.957661771383945   2.874479152498762   8.341072283867073 
 -3.734078536549859   9.342108742426664   1.671323844350705 
  1.244587501767685   9.342354296645393   1.655761162827882 
  2.489054565266669   2.874238991390868   1.653636157038038 
  6.223569571335960   9.342354296645393   1.655761162827882 
  7.468330095612965   2.874395103076479   1.652661969069781 
 12.446809447916804   2.874479152498761   1.664884928978049 
 -1.244958173586495   5.030334699175360   8.350196050017614 
 -2.489402136297752  11.497911086389168   8.339759303839456 
  2.489339909729209  11.498090976565798   8.341072283867073 
  3.734078536549917   5.030366245922021   8.295638477040383 
  7.468129530389740  11.497995892470039   8.339846173525792 
 -4.978754936803307  11.497911086389168   1.666197909004946 
  8.713115246686209   5.030334699175360   8.350196050017679 
  0.000027542710682  11.497995892470039   1.666111039319716 
  1.244305574692361   5.030207485735660   1.653636157038038 
 -0.000133571857247   7.186314611922261   1.653436177630042 
  6.223851498405802   5.030207485735660   1.653636157038038 
  4.978817163372035  11.498090976565798   1.664884928978049 
 11.202235609650037   5.030334442339341   1.666111039319716 
 -2.489437141267968   7.186286188336579   8.339759303839456 
  3.734078536550431   0.718469513921219   8.352521035213318 
  7.468290644956860   7.186314611922262   8.352521035213318 
  8.712923144562135   0.718528608701231   8.341072283867073 
 13.691548074737820   0.718528608701231   8.341072283867073 
 -0.009738176846682   1.428572540311112   5.002978606422314 
  3.734078536549800   7.919147176014129   5.002978606422314 
  5.005445509706902   1.364989319012693   5.002978606422314 
  8.734434320857305   7.917323004037528   5.002978606422314 
  9.961403534402834   1.435018482079685   5.002978606422314 
 -4.978736574635118  10.060712395764035  11.673616748318732 
  0.000008111723677  10.060745144947546  11.673616748318732 
  1.244722890864529   3.593136093777451  11.673616748318732 
  4.978825992213578  10.060705310276877  11.673616748318732 
  6.223434182235693   3.593136093777451  11.673616748318732 
 11.202235609651016   3.593127501214841  11.673616748318732 
 -2.493546335976182  10.058330342367642   5.002978606422314 
 -1.257074668398106   3.589022717812900   5.002978606422314 
  3.734078536549297   3.355024691879970   5.002978606422314 
  2.486742044998039  10.073503479642271   5.002978606422314 
  7.482081082842274  10.077046134187080   5.002978606422314 
  8.725231741498909   3.589022717812900   5.002978606422314 
 -6.223479241353567  12.216604438507023  11.673616748318732 
 -1.244677831747835  12.216604438507023  11.673616748318732 
 -0.000008461881791   5.748964181828202  11.673616748318732 
  4.978559023078195   5.748867389820355  11.673616748318732 
  3.734078536549100  12.216635095239484  11.673616748318732 
  9.957549666176144   5.748976643828957  11.673616748318732 
 -2.510475724602130   5.752891720325306   5.002978606422314 
 -3.734078536550096  12.191680219207445   5.002978606422314 
  1.247505837196113  12.218227821600905   5.002978606422314 
  2.283190190732882   5.868037022943583   5.002978606422314 
  6.220651235901740  12.218227821600905   5.002978606422314 
  7.544071556277326   5.762018613090200   5.002978606422314 
 -1.244744648101934   7.904891151828311  11.673616748318732 
  0.000050845001762   1.437213795844619  11.673616748318732 
  3.734078536551263   7.904826550211343  11.673616748318732 
  4.978797968163781   1.437253077386179  11.673616748318732 
  8.712901721201192   7.904891151828311  11.673616748318732 
 -3.734078536550091   7.909665542547439   5.002978606422314 
  9.957569918482310   1.437231821264041  11.673616748318732 
  2.462711563393885   1.364989319012693   5.002978606422314 
  1.195452489980355   7.964090805661891   5.002978606422314 
  6.272704583121079   7.964090805661891   5.002978606422314 
  7.477895249946573   1.428572540311112   5.002978606422314 
  1.244710969731254   7.904881478553727  11.673616748318732 
 12.443067684895999   1.435018482079685   5.002978606422314 
 -2.489420498464537  10.060712395764035  11.673616748318732 
 -1.244696610661782   3.593179631645981  11.673616748318732 
  3.734078536550044   3.593363958125110  11.673616748318732 
  2.489331080888159  10.060705310276877  11.673616748318732 
  7.468148961371996  10.060745144947546  11.673616748318732 
  8.712853683761915   3.593179631645981  11.673616748318732 
 -4.974610737124550  10.058330342367642   5.002978606422314 
 -0.013924009739971  10.077046134187080   5.002978606422314 
  1.232320865121493   3.585975780876058   5.002978606422314 
  4.981415028101805  10.073503479642257   5.002978606422314 
  6.235836207977534   3.585975780876058   5.002978606422314 
 11.202235609648103   3.589870584080959   5.002978606422314 
 -2.489392593077906   5.748976643828957  11.673616748318732 
 -3.734078536550216  12.216543923623760  11.673616748318732 
  1.244685264218875  12.216599363031445  11.673616748318732 
  2.489598050021641   5.748867389820355  11.673616748318732 
  6.223471808882071  12.216599363031445  11.673616748318732 
 -6.230630251410843  12.196388372765394   5.002978606422314 
  7.468165534983000   5.748964181828202  11.673616748318732 
 -1.237526821688096  12.196388372765394   5.002978606422314 
 -0.075914483176408   5.762018613090187   5.002978606422314 
 -1.266277247759142   7.917323004037528   5.002978606422314 
  5.184966882366955   5.868037022943583   5.002978606422314 
  3.734078536549033  12.221061773606293   5.002978606422314 
  9.978632797702861   5.752891720325306   5.002978606422314 
 -3.734078536549545   7.904901435750809  11.673616748318732 
  2.489359104935693   1.437253077386179  11.673616748318732 
  6.223446103367957   7.904881478553727  11.673616748318732 
  7.468106228100042   1.437213795844619  11.673616748318732 
 12.446901300815478   1.437231821264041  11.673616748318732 
Generated by cif2cell 2.0.0.  :  Failed to get author information, No journal information. Species order: Al B N 
 1.0
 14.936314146199660   0.000000000000000   0.000000000000000
 -7.468157073099825  12.935227489513863   0.000000000000000
  0.000000000000001   0.000000000000001  13.341276283792837
 Al B N 
   1 143 144
Cartesian
  3.734078536549917   5.030366245922021   5.002978606422314 
  1.220823042596307   0.683172783637785   5.002978606422314 
  5.040659981784107   7.261122096403247   5.002978606422314 
  6.247334030503031   0.683172783637785   5.002978606422314 
  9.967926979997003   7.189648343585207   5.002978606422314 
 11.202235609649751   0.718623749417456   5.002978606422314 
 -3.734078536549858   9.342108742426666  11.673616748318732 
  1.244628660435760   9.342240676897033  11.673616748318732 
  2.488815373365580   2.874503668537452  11.673616748318732 
  6.223528412662827   9.342240676897033  11.673616748318732 
  7.467969505018167   2.874603290153567  11.673616748318732 
 12.446485887490720   2.874655927830949  11.673616748318732 
 -1.252838835685656   9.349396312458103   5.002978606422314 
 -0.010311019642181   2.868541927703496   5.002978606422314 
  5.012679050093993   2.783455596997729   5.002978606422314 
  3.734078536552295   9.354014882358449   5.002978606422314 
  8.720995908786495   9.349396312458103   5.002978606422314 
  9.962807967799545   2.869402570640333   5.002978606422314 
 -4.978404555508982  11.498124323735034  11.673616748318732 
  0.000365665279469  11.498191107625582  11.673616748318732 
  1.244415195874662   5.029868000899464  11.673616748318732 
  6.223741877227877   5.029868000899464  11.673616748318732 
  4.979132035514176  11.498282800448342  11.673616748318732 
 11.202235609650517   5.029944012027411  11.673616748318732 
 -1.287329183930880   5.027419873099908   5.002978606422314 
 -2.487147465338170  11.487281571236990   5.002978606422314 
  2.491163260371235  11.505086004326932   5.002978606422314 
  7.464295394175208  11.500209532045600   5.002978606422314 
  8.755486257030713   5.027419873099908   5.002978606422314 
 -0.000507081998292   7.186530258102109  11.673616748318732 
  1.244610679454402   0.718502196270789  11.673616748318732 
  4.978478714043025   7.186727068329576  11.673616748318732 
  6.223546393646221   0.718502196270789  11.673616748318732 
  9.957234354761558   7.186483008763228  11.673616748318732 
 -2.499769906897808   7.189648343585207   5.002978606422314 
 11.202235609649751   0.718623749417457  11.673616748318732 
  3.734078536549274   0.681701011526084   5.002978606422314 
  2.427497091320867   7.261122096403247   5.002978606422314 
  7.500133102091823   7.204698863120947   5.002978606422314 
  8.719892691621634   0.716610162801568   5.002978606422314 
  2.489678359058754   7.186727068329576  11.673616748318732 
 13.684578527672658   0.716610162801568   5.002978606422314 
 -1.244751262700513   9.341718894782108  11.673616748318732 
  0.000187568083744   2.874603290153567  11.673616748318732 
  4.979341699734523   2.874503668537452  11.673616748318732 
  3.734078536551587   9.341892157460292  11.673616748318732 
  8.712908335801426   9.341718894782108  11.673616748318732 
  9.957985331810685   2.874655927830949  11.673616748318732 
 -3.734078536549858   9.342108742426664   5.002978606422314 
  1.225926310022050   9.380506081029521   5.002978606422314 
  2.455478023006900   2.783455596997729   5.002978606422314 
  6.242230763076920   9.380506081029521   5.002978606422314 
  7.478468092744344   2.868541927703496   5.002978606422314 
 12.441663251497573   2.869402570640333   5.002978606422314 
 -1.244839196660234   5.030355864597416  11.673616748318732 
 -2.489752517588446  11.498124323735034  11.673616748318732 
  2.489025037586037  11.498282800448342  11.673616748318732 
  3.734078536549918   5.030366245922021  11.673616748318732 
  7.467791407821925  11.498191107625582  11.673616748318732 
 -4.981009607760829  11.487281571236990   5.002978606422314 
  8.712996269758651   5.030355864597416  11.673616748318732 
  0.003861678922855  11.500209532045600   5.002978606422314 
  1.148896577776736   5.046521044363161   5.002978606422314 
 -0.031976028992344   7.204698863120947   5.002978606422314 
  6.319260495327070   5.046521044363161   5.002978606422314 
  4.976993812724229  11.505086004326932   5.002978606422314 
 11.202235609648850   5.025907163190252   5.002978606422314 
 -2.489077281660916   7.186483008763228  11.673616748318732 
  3.734078536548945   0.718038221562210  11.673616748318732 
  7.468664155098978   7.186530258102109  11.673616748318732 
  8.712931832844395   0.718160009487603  11.673616748318732 
 13.691539386452570   0.718160009487603  11.673616748318732 
  0.000057989849664   1.436741781731887   1.657980089411444 
  3.734078536551666   7.905906480138611   1.653155425885880 
  4.979363284076046   1.436067255954971   1.652736188251804 
  8.713045120838805   7.904973943647249   1.661950591071752 
  9.957981611601115   1.436994130131783   1.667226760265608 
 -4.978406377624396  10.060521756432777   8.337001196884875 
  0.000239339006658  10.060704471276845   8.342874387908264 
  1.243787644115253   3.592596128813817   8.352801786958066 
  4.979238340848432  10.060935129711705   8.347977123433225 
  6.224369428987420   3.592596128813817   8.352801786958066 
 11.202235609648104   3.593016786409667   8.339880697603116 
 -2.489750695477993  10.060521756432777   1.668956015960993 
 -1.245101814449722   3.593421826320958   1.657980089411444 
  3.734078536549723   3.589877112196334   1.670454579838225 
  2.488918732252390  10.060935129711705   1.657980089411444 
  7.467917734095078  10.060704471276845   1.663082824937125 
  8.713258887548539   3.593421826320958   1.657980089411444 
 -6.223559630562727  12.216825024038227   8.342874387908264 
 -1.244597442535403  12.216825024038227   8.342874387908264 
 -0.001318071322023   5.749067514602607   8.353221024594772 
  4.981578720232085   5.750610812785034   8.335502633006604 
  3.734078536550198  12.217110477504216   8.338730452577712 
  9.957398828108634   5.748796731963184   8.342874387908264 
 -2.489241755007111   5.748796731963183   1.663082824937125 
 -3.734078536550747  12.216378339985219   1.661950591071752 
  1.244781146052580  12.216654720436539   1.666076515242139 
  2.486578352867749   5.750610812785033   1.670454579838225 
  6.223375927043855  12.216654720436539   1.666076515242139 
  7.469475144419333   5.749067514602606   1.652736188251804 
 -1.244888047739701   7.904973943647250   8.344006621774410 
  0.000057989849664   1.436741781731887   8.347977123433225 
  3.734078536551667   7.905906480138611   8.352801786958066 
  4.979363284076047   1.436067255954972   8.353221024594772 
  8.713045120838805   7.904973943647250   8.344006621774410 
 -3.734078536550390   7.905282714420090   1.668956015960993 
  9.957981611601115   1.436994130131784   8.338730452577712 
  2.488793789023097   1.436067255954971   1.652736188251804 
  1.243966676204468   7.905963967209029   1.652736188251804 
  6.224190396892875   7.905963967209029   1.652736188251804 
  7.468099083251884   1.436741781731887   1.657980089411444 
  1.243966676204468   7.905963967209030   8.353221024594772 
 12.446489607697663   1.436994130131783   1.667226760265608 
 -2.489750695477993  10.060521756432777   8.337001196884875 
 -1.245101814449722   3.593421826320959   8.347977123433225 
  3.734078536549723   3.589877112196334   8.335502633006604 
  2.488918732252391  10.060935129711705   8.347977123433225 
  7.467917734095079  10.060704471276845   8.342874387908264 
  8.713258887548539   3.593421826320959   8.347977123433225 
 -4.978406377624397  10.060521756432777   1.668956015960993 
  0.000239339006657  10.060704471276845   1.663082824937125 
  1.243787644115252   3.592596128813816   1.653155425885880 
  4.979238340848431  10.060935129711705   1.657980089411444 
  6.224369428987419   3.592596128813816   1.653155425885880 
 11.202235609648104   3.593016786409666   1.666076515242139 
 -2.489241755007111   5.748796731963184   8.342874387908264 
 -3.734078536550746  12.216378339985219   8.344006621774410 
  1.244781146052581  12.216654720436539   8.339880697603116 
  2.486578352867750   5.750610812785034   8.335502633006604 
  6.223375927043856  12.216654720436539   8.339880697603116 
 -6.223559630562728  12.216825024038227   1.663082824937125 
  7.469475144419334   5.749067514602607   8.353221024594772 
 -1.244597442535404  12.216825024038227   1.663082824937125 
 -0.001318071322023   5.749067514602606   1.652736188251804 
 -1.244888047739701   7.904973943647249   1.661950591071752 
  4.981578720232084   5.750610812785033   1.670454579838225 
  3.734078536550197  12.217110477504216   1.667226760265608 
  9.957398828108634   5.748796731963183   1.663082824937125 
 -3.734078536550389   7.905282714420091   8.337001196884875 
  2.488793789023097   1.436067255954972   8.353221024594772 
  6.224190396892876   7.905963967209030   8.353221024594772 
  7.468099083251885   1.436741781731887   8.347977123433225 
 12.446489607697663   1.436994130131784   8.338730452577712 
  1.244532861198089   0.718409741941210   1.655761162827882 
  4.978827527121600   7.186652260641086   1.653636157038038 
  6.223624211902519   0.718409741941210   1.655761162827882 
  9.957594214365923   7.186286188336578   1.666197909004946 
 11.202235609649751   0.718623749417456   1.669546863676942 
 -3.734078536549858   9.342108742426664   8.334633368494229 
  1.244587501767686   9.342354296645393   8.350196050017614 
  2.489054565266670   2.874238991390869   8.352321055807630 
  6.223569571335961   9.342354296645393   8.350196050017679 
  7.468330095612965   2.874395103076480   8.353295243772832 
 12.446809447916804   2.874479152498762   8.341072283867073 
 -1.244760741015766   9.342128952557335   1.666197909004946 
 -0.000173022511668   2.874395103076479   1.652661969069781 
  4.979102507833222   2.874238991390868   1.653636157038038 
  3.734078536550890   9.342308531615329   1.652661969069781 
  8.712917814112572   9.342128952557335   1.666197909004946 
  9.957661771383945   2.874479152498761   1.664884928978049 
 -4.978754936803306  11.497911086389168   8.339759303839456 
  0.000027542710682  11.497995892470039   8.339846173525792 
  1.244305574692361   5.030207485735660   8.352321055807630 
  6.223851498405803   5.030207485735660   8.352321055807630 
  4.978817163372036  11.498090976565798   8.341072283867073 
 11.202235609650037   5.030334442339342   8.339846173525792 
 -1.244958173586495   5.030334699175359   1.655761162827882 
 -2.489402136297753  11.497911086389168   1.666197909004946 
  2.489339909729209  11.498090976565798   1.664884928978049 
  3.734078536549917   5.030366245922020   1.710318735805646 
  7.468129530389739  11.497995892470039   1.666111039319716 
  8.713115246686209   5.030334699175359   1.655761162827882 
 -0.000133571857246   7.186314611922262   8.352521035213318 
  1.244532861198090   0.718409741941211   8.350196050017614 
  4.978827527121600   7.186652260641087   8.352321055807630 
  6.223624211902520   0.718409741941211   8.350196050017679 
  9.957594214365923   7.186286188336579   8.339759303839456 
 -2.489437141267969   7.186286188336578   1.666197909004946 
 11.202235609649751   0.718623749417456   8.336410349167672 
  3.734078536550431   0.718469513921218   1.653436177630042 
  2.489329545974711   7.186652260641086   1.653636157038038 
  7.468290644956859   7.186314611922261   1.653436177630042 
  8.712923144562135   0.718528608701230   1.664884928978049 
  2.489329545974720   7.186652260641075   8.352321055807630 
 13.691548074737820   0.718528608701230   1.664884928978049 
 -1.244760741015765   9.342128952557335   8.339759303839456 
 -0.000173022511668   2.874395103076480   8.353295243772832 
  4.979102507833223   2.874238991390869   8.352321055807630 
  3.734078536550891   9.342308531615329   8.353295243772832 
  8.712917814112572   9.342128952557335   8.339759303839456 
  9.957661771383945   2.874479152498762   8.341072283867073 
 -3.734078536549859   9.342108742426664   1.671323844350705 
  1.244587501767685   9.342354296645393   1.655761162827882 