Species order: X N B                    
   2.51242800000000     
     5.9449720136058266    0.0000000000000000    0.0000000000000000
    -2.9724860068029120    5.1484967885702053   -0.0000000000000001
     0.0000000000000000    0.0000000000000009    5.3101128803662583
   Al   N    B 
     1   144   143
Direct
  0.4444444444444429  0.3888888888888857  0.3750000000000000
  0.1110921277401280  0.0555390110087817  0.1241081533435691
  0.6111309025123470  0.5555876204316508  0.1239488727961427
  0.4444468832687062  0.0555390110087817  0.1241081533435691
  0.9444497713155654  0.5555593200167718  0.1248904432800829
  0.7777777777777786  0.0555555555555571  0.1251414653412981
  0.1111111111111143  0.7222222222222214  0.6247253404548153
  0.4444468832687062  0.7222412055929367  0.6258918466564956
  0.2777457129018024  0.2222024308208664  0.6260511272039352
  0.7777943223244859  0.7222412055929367  0.6258918466565010
  0.6111188337889880  0.2222144995444919  0.6261241478014009
  0.9444358643180448  0.2222209972595384  0.6252079715941362
  0.2777740133165989  0.7222237846323669  0.1248904432800829
  0.1110956657556017  0.2222144995444919  0.1238758521984481
  0.4444567179190677  0.2222024308208664  0.1239488727961427
  0.6111188337889880  0.7222376675778461  0.1238758521984481
  0.9444497713155654  0.7222237846323669  0.1248904432800829
  0.7777851329415769  0.2222209972595384  0.1247920284059013
  0.1111095487010807  0.8888835620177632  0.6251095567199002
  0.4444469031242538  0.8888901182287717  0.6251160680674275
  0.2777457129018024  0.3888766154142609  0.6260511272039352
  0.6111309025123470  0.3888766154142609  0.6260511272039352
  0.7777851329415769  0.8888974690152838  0.6252079715941362
  0.9444432151045569  0.3888864302090748  0.6251160680674275
  0.1110921277401280  0.3888864500646224  0.1241081533435691
  0.2777740133165989  0.8888835620177632  0.1248904432800829
  0.6111123360738011  0.8888974690152838  0.1247920284059013
  0.4444444444444429  0.3888888888888857  0.1281975351850980
  0.9444432151045569  0.8888901182287717  0.1248839319326388
  0.7777943223244859  0.3888864500646224  0.1241081533435691
  0.2777718159384727  0.5555615173948785  0.6260661167297820
  0.1110921277401280  0.0555390110087817  0.6258918466564956
  0.6111309025123470  0.5555876204316507  0.6260511272039352
  0.4444468832687062  0.0555390110087817  0.6258918466565010
  0.9444497713155654  0.5555593200167718  0.6251095567199002
  0.1111095487010807  0.5555593200167718  0.1248904432800829
  0.7777777777777786  0.0555555555555571  0.6248585346587014
  0.2777718159384727  0.0555436318768767  0.1239338832701229
  0.4444567179190677  0.5555876204316508  0.1239488727961427
  0.7777897014563903  0.5555615173948785  0.1239338832701229
  0.6111123360738011  0.0555482003918150  0.1247920284059013
  0.4444567179190677  0.5555876204316498  0.6260511272039352
  0.9444358643180448  0.0555482003918150  0.1247920284059013
  0.2777740133165989  0.7222237846323669  0.6251095567199002
  0.1110956657556017  0.2222144995444919  0.6261241478014009
  0.4444567179190677  0.2222024308208664  0.6260511272039352
  0.6111188337889880  0.7222376675778461  0.6261241478014009
  0.9444497713155654  0.7222237846323669  0.6251095567199002
  0.7777851329415769  0.2222209972595384  0.6252079715941362
  0.1111111111111143  0.7222222222222214  0.1252746595452076
  0.4444468832687062  0.7222412055929367  0.1241081533435691
  0.2777457129018024  0.2222024308208664  0.1239488727961427
  0.7777943223244859  0.7222412055929367  0.1241081533435691
  0.6111188337889880  0.2222144995444919  0.1238758521984481
  0.9444358643180448  0.2222209972595384  0.1247920284059013
  0.1110921277401280  0.3888864500646224  0.6258918466564956
  0.2777740133165989  0.8888835620177632  0.6251095567199002
  0.6111123360738011  0.8888974690152838  0.6252079715941362
  0.4444444444444429  0.3888888888888857  0.6218024648150074
  0.9444432151045569  0.8888901182287717  0.6251160680674275
  0.1111095487010807  0.8888835620177632  0.1248904432800829
  0.7777943223244859  0.3888864500646224  0.6258918466565010
  0.4444469031242538  0.8888901182287717  0.1248839319326388
  0.2777457129018024  0.3888766154142609  0.1239488727961427
  0.2777718159384727  0.5555615173948785  0.1239338832701228
  0.6111309025123470  0.3888766154142609  0.1239488727961427
  0.7777851329415769  0.8888974690152838  0.1247920284059013
  0.9444432151045569  0.3888864302090748  0.1248839319326389
  0.1111095487010807  0.5555593200167718  0.6251095567199002
  0.2777718159384727  0.0555436318768766  0.6260661167297820
  0.7777897014563903  0.5555615173948785  0.6260661167297820
  0.6111123360738011  0.0555482003918150  0.6252079715941362
  0.9444358643180448  0.0555482003918150  0.6252079715941362
  0.0545682526412458  0.1104404651150670  0.3750000000000000
  0.5561077658832712  0.6122155317665580  0.3750000000000000
  0.3878816690497850  0.1055249565668055  0.3750000000000000
  0.8908156830569179  0.6120745081952229  0.3750000000000000
  0.7223945436410738  0.1109387896921797  0.3750000000000000
  0.0555571091486282  0.7777762241846852  0.8750000000000000
  0.3888899210710046  0.7777787559672555  0.8750000000000000
  0.2222249043072261  0.2777791188203126  0.8750000000000000
  0.7222248277419959  0.7777756764179627  0.8750000000000000
  0.5555542145131130  0.2777791188203126  0.8750000000000000
  0.8888892272721859  0.2777784545442022  0.8750000000000000
  0.2218508102034683  0.7775920717684766  0.3750000000000000
  0.0545682526412458  0.2774611208594825  0.3750000000000000
  0.3796855696816578  0.2593711393633993  0.3750000000000000
  0.5558722124738250  0.7787650806921264  0.3750000000000000
  0.8904517038720320  0.7790389571699603  0.3750000000000000
  0.7228928682183010  0.2774611208594825  0.3750000000000000
  0.0555545773662446  0.9444444984373563  0.8750000000000000
  0.3888899210710046  0.9444444984373563  0.8750000000000000
  0.2222206578925453  0.4444424488466616  0.8750000000000000
  0.5555365987155300  0.4444349660244293  0.8750000000000000
  0.7222234342280278  0.9444468684561663  0.8750000000000000
  0.8888888348959723  0.4444434122623240  0.8750000000000000
  0.0542943761632630  0.4447460800352354  0.3750000000000000
  0.2212588251381929  0.9425176502764107  0.3750000000000000
  0.5558066654034444  0.9445699993684531  0.3750000000000000
  0.3796855696816579  0.4536477636516706  0.3750000000000000
  0.8887633339648755  0.9445699993684531  0.3750000000000000
  0.7278083767665320  0.4454516642835436  0.3750000000000000
  0.2222199100683294  0.6111134232649965  0.8750000000000000
  0.0555576569154327  0.1111085055913950  0.8750000000000000
  0.5555542145131130  0.6111084290260462  0.8750000000000000
  0.3888908844866670  0.1111115423792357  0.8750000000000000
  0.8888935131966295  0.6111134232649965  0.8750000000000000
  0.0557412615649480  0.6114825231299205  0.3750000000000000
  0.7222234342280278  0.1111098991053036  0.8750000000000000
  0.2176432875170838  0.1055249565668055  0.3750000000000000
  0.3878816690497850  0.6156900458162096  0.3750000000000000
  0.7278083767665320  0.6156900458162096  0.3750000000000000
  0.5558722124738250  0.1104404651150670  0.3750000000000000
  0.3888908844866670  0.6111126754409181  0.8750000000000000
  0.8885442460510616  0.1109387896921797  0.3750000000000000
  0.2222191150360675  0.7777762241846852  0.8750000000000000
  0.0555576569154327  0.2777824846574088  0.8750000000000000
  0.3888983673088993  0.2777967346177810  0.8750000000000000
  0.5555508486760943  0.7777756764179627  0.8750000000000000
  0.8888888348959723  0.7777787559672555  0.8750000000000000
  0.7222248277419959  0.2777824846574088  0.8750000000000000
  0.0557412615649480  0.7775920717684766  0.3750000000000000
  0.3885872532980932  0.7790389571699603  0.3750000000000000
  0.2211178015667321  0.2772255674500567  0.3750000000000000
  0.7228928682183010  0.7787650806921247  0.3750000000000000
  0.5561077658832712  0.2772255674500567  0.3750000000000000
  0.8887633339648755  0.2775266679299724  0.3750000000000000
  0.0555545773662446  0.4444434122623240  0.8750000000000000
  0.2222199100683294  0.9444398201366991  0.8750000000000000
  0.5555548787890314  0.9444441060611429  0.8750000000000000
  0.3888983673088993  0.4444349660244293  0.8750000000000000
  0.8888892272721859  0.9444441060611429  0.8750000000000000
  0.0542943761632630  0.9428816294612966  0.3750000000000000
  0.7222217909542087  0.4444424488466616  0.8750000000000000
  0.3885872532980932  0.9428816294612966  0.3750000000000000
  0.2176432875170837  0.4454516642835435  0.3750000000000000
  0.2212588251381929  0.6120745081952229  0.3750000000000000
  0.5739621939700130  0.4536477636516707  0.3750000000000000
  0.7223945436410738  0.9447890872822670  0.3750000000000000
  0.8904517038720320  0.4447460800352354  0.3750000000000000
  0.0555571091486282  0.6111142182972074  0.8750000000000000
  0.2222206578925453  0.1111115423792357  0.8750000000000000
  0.7222217909542087  0.6111126754409181  0.8750000000000000
  0.5555508486760943  0.1111085055913950  0.8750000000000000
  0.8888864648771623  0.1111098991053036  0.8750000000000000
  0.1081426794671150  0.0528149028837422  0.3750000000000000
  0.6181492092619391  0.5613447542603778  0.3750000000000000
  0.4446722234165944  0.0528149028837422  0.3750000000000000
  0.9452715206942135  0.5558192424071086  0.3750000000000000
  0.7777777777777786  0.0555555555555571  0.3750000000000000
  0.1111111111111143  0.7222222222222214  0.8750000000000000
  0.4444452470066407  0.7222324218472743  0.8750000000000000
  0.2777399296490924  0.2222228925519640  0.8750000000000000
  0.7777871748405493  0.7222324218472743  0.8750000000000000
  0.6111027392071886  0.2222305941263036  0.8750000000000000
  0.9444210347464194  0.2222346634538378  0.8750000000000000
  0.2775140909263167  0.7227856116204627  0.3750000000000000
  0.1101906680851324  0.2217620007092198  0.3750000000000000
  0.4431955449987828  0.2151841240715849  0.3750000000000000
  0.6115713326242445  0.7231426652481698  0.3750000000000000
  0.9452715206942135  0.7227856116204627  0.3750000000000000
  0.7779334446663703  0.2218285355218113  0.3750000000000000
  0.1111412495563743  0.8889000470270937  0.8750000000000000
  0.4444770866144360  0.8889052099738304  0.8750000000000000
  0.2777399296490924  0.3888503704304385  0.8750000000000000
  0.6111104407815282  0.3888503704304385  0.8750000000000000
  0.7778136287075469  0.8889122985869092  0.8750000000000000
  0.9444281233594982  0.3888562467188926  0.8750000000000000
  0.1081426794671150  0.3886611099167342  0.3750000000000000
  0.2775140909263167  0.8880618126391151  0.3750000000000000
  0.6115047978113836  0.8894382424780466  0.3750000000000000
  0.9442720824687093  0.8890612508646193  0.3750000000000000
  0.7805184304496185  0.3886611099167342  0.3750000000000000
  0.2777551447062923  0.5555781886269862  0.8750000000000000
  0.1111009114860439  0.0555461584926317  0.8750000000000000
  0.6111104407815282  0.5555934036842879  0.8750000000000000
  0.4444452470066407  0.0555461584926317  0.8750000000000000
  0.9444332863062349  0.5555745358625546  0.8750000000000000
  0.1105477217128526  0.5558192424071086  0.3750000000000000
  0.7777777777777786  0.0555555555555571  0.8750000000000000
  0.2763505613673047  0.0527011227346963  0.3750000000000000
  0.4431955449987828  0.5613447542603778  0.3750000000000000
  0.7806322105987262  0.5569827719660546  0.3750000000000000
  0.6115047978113836  0.0553998886670135  0.3750000000000000
  0.4444829629028901  0.5555934036842879  0.8750000000000000
  0.9438950908552820  0.0553998886670135  0.3750000000000000
  0.2777587974708803  0.7221920837770432  0.8750000000000000
  0.1111278549192541  0.2222305941263036  0.8750000000000000
  0.4444829629028901  0.2222228925519640  0.8750000000000000
  0.6111027392071886  0.7222054784141551  0.8750000000000000
  0.9444332863062349  0.7221920837770432  0.8750000000000000
  0.7778136287075469  0.2222346634538378  0.8750000000000000
  0.1111111111111143  0.7222222222222214  0.3750000000000000
  0.4446722234165944  0.7251906538662711  0.3750000000000000
  0.2719885790728732  0.2151841240715849  0.3750000000000000
  0.7805184304496185  0.7251906538662711  0.3750000000000000
  0.6115713326242445  0.2217620007092198  0.3750000000000000
  0.9438950908552820  0.2218285355218113  0.3750000000000000
  0.1111009114860439  0.3888880863266879  0.8750000000000000
  0.2777587974708803  0.8889000470270937  0.8750000000000000
  0.6110986698793865  0.8889122985869092  0.8750000000000000
  0.4444444444444429  0.3888888888888857  0.8750000000000000
  0.9444281233594982  0.8889052099738304  0.8750000000000000
  0.1105477217128526  0.8880618126391151  0.3750000000000000
  0.7777871748405493  0.3888880863266879  0.8750000000000000
  0.4447891683957907  0.8890612508646193  0.3750000000000000
  0.2719885790728733  0.3901377883345459  0.3750000000000000
  0.2763505613673047  0.5569827719660546  0.3750000000000000
  0.6181492092619391  0.3901377883345458  0.3750000000000000
  0.7779334446663703  0.8894382424780466  0.3750000000000000
  0.9442720824687093  0.3885441649375379  0.3750000000000000
  0.1111412495563743  0.5555745358625546  0.8750000000000000
  0.2777551447062923  0.0555102894127145  0.8750000000000000
  0.7778230439207512  0.5555781886269862  0.8750000000000000
  0.6110986698793865  0.0555197046259749  0.8750000000000000
  0.9444210347464194  0.0555197046259749  0.8750000000000000
  0.0555398899734322  0.1110720149990870  0.1242744737567263
  0.5555959582678649  0.6111919165354959  0.1239128394255773
  0.3888828960091164  0.1110198685812940  0.1238814153230276
  0.8889063141805064  0.6111198237569095  0.1245720840884397
  0.7222418097172500  0.1110915236161641  0.1249675611838559
  0.0555718471448530  0.7777614861886647  0.6249028218546659
  0.3889038297452752  0.7777756115563261  0.6253430489287821
  0.2221414167979130  0.2777373750655878  0.6260871605743721
  0.7222613183341253  0.7777934433598293  0.6257255262432768
  0.5555959582678649  0.2777373750655878  0.6260871605743721
  0.8888849476872193  0.2777698953746582  0.6251186558316399
  0.2221896390436399  0.7777614861886647  0.1250971781454271
  0.0555398899734322  0.2778012083076247  0.1242744737567263
  0.3887635863036107  0.2775271726072478  0.1252095035216019
  0.5555321250257703  0.7777934433598293  0.1242744737567263
  0.8888717818111781  0.7777756115563261  0.1246569510712751
  0.7222613183341253  0.2778012083076247  0.1242744737567263
  0.0555577217769877  0.9444615515221505  0.6253430489287821
  0.3889038297452752  0.9444615515221505  0.6253430489287821
  0.2221369725721318  0.4444504373242122  0.6261185846771176
  0.5558061607261072  0.4445697470297179  0.6247904964784132
  0.7222418097172500  0.9444836194344629  0.6250324388160455
  0.8888717818111781  0.4444295035880534  0.6253430489287821
  0.0555577217769879  0.4444295035880535  0.1246569510712751
  0.2222135095763553  0.9444270191528222  0.1245720840884397
  0.5555634379586619  0.9444483856461093  0.1248813441684070
  0.3887635863036107  0.4445697470297179  0.1252095035216019
  0.8888849476872193  0.9444483856461093  0.1248813441684070
  0.7223134647519107  0.4444504373242122  0.1238814153230276
  0.2222135095763553  0.6111198237569095  0.6254279159116755
  0.0555398899734322  0.1110720149990870  0.6257255262432768
  0.5555959582678649  0.6111919165354959  0.6260871605743721
  0.3888828960091164  0.1110198685812937  0.6261185846771176
  0.8889063141805064  0.6111198237569095  0.6254279159116755
  0.0555718471448530  0.6111436942897703  0.1250971781454271
  0.7222418097172500  0.1110915236161643  0.6250324388160455
  0.2221369725721318  0.1110198685812940  0.1238814153230276
  0.3888828960091164  0.6111963607611935  0.1238814153230276
  0.7223134647519107  0.6111963607611935  0.1238814153230276
  0.5555321250257703  0.1110720149990870  0.1242744737567263
  0.3888828960091164  0.6111963607611935  0.6261185846771176
  0.8888497138988657  0.1110915236161643  0.1249675611838559
  0.2221896390436399  0.7777614861886647  0.6249028218546659
  0.0555398899734322  0.2778012083076247  0.6257255262432768
  0.3887635863036107  0.2775271726072478  0.6247904964784132
  0.5555321250257703  0.7777934433598293  0.6257255262432768
  0.8888717818111781  0.7777756115563261  0.6253430489287821
  0.7222613183341253  0.2778012083076247  0.6257255262432768
  0.0555718471448530  0.7777614861886647  0.1250971781454271
  0.3889038297452752  0.7777756115563261  0.1246569510712751
  0.2221414167979130  0.2777373750655878  0.1239128394255773
  0.7222613183341253  0.7777934433598293  0.1242744737567263
  0.5555959582678649  0.2777373750655878  0.1239128394255773
  0.8888849476872193  0.2777698953746582  0.1248813441684070
  0.0555577217769879  0.4444295035880534  0.6253430489287821
  0.2222135095763553  0.9444270191528222  0.6254279159116755
  0.5555634379586619  0.9444483856461093  0.6251186558316399
  0.3887635863036107  0.4445697470297179  0.6247904964784132
  0.8888849476872193  0.9444483856461093  0.6251186558316399
  0.0555577217769879  0.9444615515221505  0.1246569510712751
  0.7223134647519107  0.4444504373242122  0.6261185846771176
  0.3889038297452752  0.9444615515221505  0.1246569510712751
  0.2221369725721318  0.4444504373242122  0.1238814153230276
  0.2222135095763553  0.6111198237569095  0.1245720840884397
  0.5558061607261072  0.4445697470297179  0.1252095035216019
  0.7222418097172500  0.9444836194344629  0.1249675611838559
  0.8888717818111781  0.4444295035880534  0.1246569510712751
  0.0555718471448530  0.6111436942897703  0.6249028218546659
  0.2221369725721318  0.1110198685812940  0.6261185846771176
  0.7223134647519107  0.6111963607611935  0.6261185846771176
  0.5555321250257703  0.1110720149990870  0.6257255262432768
  0.8888497138988657  0.1110915236161641  0.6250324388160455
 
  0.00000000E+00  0.00000000E+00  0.00000000E+00
  0.00000000E+00  0.00000000E+00  0.00000000E+00
  0.00000000E+00  0.00000000E+00  0.00000000E+00
  0.00000000E+00  0.00000000E+00  0.00000000E+00
  0.00000000E+00  0.00000000E+00  0.00000000E+00
  0.00000000E+00  0.00000000E+00  0.00000000E+00
  0.00000000E+00  0.00000000E+00  0.00000000E+00
  0.00000000E+00  0.00000000E+00  0.00000000E+00
  0.00000000E+00  0.00000000E+00  0.00000000E+00
  0.00000000E+00  0.00000000E+00  0.00000000E+00
  0.00000000E+00  0.00000000E+00  0.00000000E+00
  0.00000000E+00  0.00000000E+00  0.00000000E+00
  0.00000000E+00  0.00000000E+00  0.00000000E+00
  0.00000000E+00  0.00000000E+00  0.00000000E+00
  0.00000000E+00  0.00000000E+00  0.00000000E+00
  0.00000000E+00  0.00000000E+00  0.00000000E+00
  0.00000000E+00  0.00000000E+00  0.00000000E+00
  0.00000000E+00  0.00000000E+00  0.00000000E+00
  0.00000000E+00  0.00000000E+00  0.00000000E+00
  0.00000000E+00  0.00000000E+00  0.00000000E+00
  0.00000000E+00  0.00000000E+00  0.00000000E+00
  0.00000000E+00  0.00000000E+00  0.00000000E+00
  0.00000000E+00  0.00000000E+00  0.00000000E+00
  0.00000000E+00  0.00000000E+00  0.00000000E+00
  0.00000000E+00  0.00000000E+00  0.00000000E+00
  0.00000000E+00  0.00000000E+00  0.00000000E+00
  0.00000000E+00  0.00000000E+00  0.00000000E+00
  0.00000000E+00  0.00000000E+00  0.00000000E+00
  0.00000000E+00  0.00000000E+00  0.00000000E+00
  0.00000000E+00  0.00000000E+00  0.00000000E+00
  0.00000000E+00  0.00000000E+00  0.00000000E+00
  0.00000000E+00  0.00000000E+00  0.00000000E+00
  0.00000000E+00  0.00000000E+00  0.00000000E+00
  0.00000000E+00  0.00000000E+00  0.00000000E+00
  0.00000000E+00  0.00000000E+00  0.00000000E+00
  0.00000000E+00  0.00000000E+00  0.00000000E+00
  0.00000000E+00  0.00000000E+00  0.00000000E+00
  0.00000000E+00  0.00000000E+00  0.00000000E+00
  0.00000000E+00  0.00000000E+00  0.00000000E+00
  0.00000000E+00  0.00000000E+00  0.00000000E+00
  0.00000000E+00  0.00000000E+00  0.00000000E+00
  0.00000000E+00  0.00000000E+00  0.00000000E+00
  0.00000000E+00  0.00000000E+00  0.00000000E+00
  0.00000000E+00  0.00000000E+00  0.00000000E+00
  0.00000000E+00  0.00000000E+00  0.00000000E+00
  0.00000000E+00  0.00000000E+00  0.00000000E+00
  0.00000000E+00  0.00000000E+00  0.00000000E+00
  0.00000000E+00  0.00000000E+00  0.00000000E+00
  0.00000000E+00  0.00000000E+00  0.00000000E+00
  0.00000000E+00  0.00000000E+00  0.00000000E+00
  0.00000000E+00  0.00000000E+00  0.00000000E+00
  0.00000000E+00  0.00000000E+00  0.00000000E+00
  0.00000000E+00  0.00000000E+00  0.00000000E+00
  0.00000000E+00  0.00000000E+00  0.00000000E+00
  0.00000000E+00  0.00000000E+00  0.00000000E+00
  0.00000000E+00  0.00000000E+00  0.00000000E+00
  0.00000000E+00  0.00000000E+00  0.00000000E+00
  0.00000000E+00  0.00000000E+00  0.00000000E+00
  0.00000000E+00  0.00000000E+00  0.00000000E+00
  0.00000000E+00  0.00000000E+00  0.00000000E+00
  0.00000000E+00  0.00000000E+00  0.00000000E+00
  0.00000000E+00  0.00000000E+00  0.00000000E+00
  0.00000000E+00  0.00000000E+00  0.00000000E+00
  0.00000000E+00  0.00000000E+00  0.00000000E+00
  0.00000000E+00  0.00000000E+00  0.00000000E+00
  0.00000000E+00  0.00000000E+00  0.00000000E+00
  0.00000000E+00  0.00000000E+00  0.00000000E+00
  0.00000000E+00  0.00000000E+00  0.00000000E+00
  0.00000000E+00  0.00000000E+00  0.00000000E+00
  0.00000000E+00  0.00000000E+00  0.00000000E+00
  0.00000000E+00  0.00000000E+00  0.00000000E+00
  0.00000000E+00  0.00000000E+00  0.00000000E+00
  0.00000000E+00  0.00000000E+00  0.00000000E+00
  0.00000000E+00  0.00000000E+00  0.00000000E+00
  0.00000000E+00  0.00000000E+00  0.00000000E+00
  0.00000000E+00  0.00000000E+00  0.00000000E+00
  0.00000000E+00  0.00000000E+00  0.00000000E+00
  0.00000000E+00  0.00000000E+00  0.00000000E+00
  0.00000000E+00  0.00000000E+00  0.00000000E+00
  0.00000000E+00  0.00000000E+00  0.00000000E+00
  0.00000000E+00  0.00000000E+00  0.00000000E+00
  0.00000000E+00  0.00000000E+00  0.00000000E+00
  0.00000000E+00  0.00000000E+00  0.00000000E+00
  0.00000000E+00  0.00000000E+00  0.00000000E+00
  0.00000000E+00  0.00000000E+00  0.00000000E+00
  0.00000000E+00  0.00000000E+00  0.00000000E+00
  0.00000000E+00  0.00000000E+00  0.00000000E+00
  0.00000000E+00  0.00000000E+00  0.00000000E+00
  0.00000000E+00  0.00000000E+00  0.00000000E+00
  0.00000000E+00  0.00000000E+00  0.00000000E+00
  0.00000000E+00  0.00000000E+00  0.00000000E+00
  0.00000000E+00  0.00000000E+00  0.00000000E+00
  0.00000000E+00  0.00000000E+00  0.00000000E+00
  0.00000000E+00  0.00000000E+00  0.00000000E+00
  0.00000000E+00  0.00000000E+00  0.00000000E+00
  0.00000000E+00  0.00000000E+00  0.00000000E+00
  0.00000000E+00  0.00000000E+00  0.00000000E+00
  0.00000000E+00  0.00000000E+00  0.00000000E+00
  0.00000000E+00  0.00000000E+00  0.00000000E+00
  0.00000000E+00  0.00000000E+00  0.00000000E+00
  0.00000000E+00  0.00000000E+00  0.00000000E+00
  0.00000000E+00  0.00000000E+00  0.00000000E+00
  0.00000000E+00  0.00000000E+00  0.00000000E+00
  0.00000000E+00  0.00000000E+00  0.00000000E+00
  0.00000000E+00  0.00000000E+00  0.00000000E+00
  0.00000000E+00  0.00000000E+00  0.00000000E+00
  0.00000000E+00  0.00000000E+00  0.00000000E+00
  0.00000000E+00  0.00000000E+00  0.00000000E+00
  0.00000000E+00  0.00000000E+00  0.00000000E+00
  0.00000000E+00  0.00000000E+00  0.00000000E+00
  0.00000000E+00  0.00000000E+00  0.00000000E+00
  0.00000000E+00  0.00000000E+00  0.00000000E+00
  0.00000000E+00  0.00000000E+00  0.00000000E+00
  0.00000000E+00  0.00000000E+00  0.00000000E+00
  0.00000000E+00  0.00000000E+00  0.00000000E+00
  0.00000000E+00  0.00000000E+00  0.00000000E+00
  0.00000000E+00  0.00000000E+00  0.00000000E+00
  0.00000000E+00  0.00000000E+00  0.00000000E+00
  0.00000000E+00  0.00000000E+00  0.00000000E+00
  0.00000000E+00  0.00000000E+00  0.00000000E+00
  0.00000000E+00  0.00000000E+00  0.00000000E+00
  0.00000000E+00  0.00000000E+00  0.00000000E+00
  0.00000000E+00  0.00000000E+00  0.00000000E+00
  0.00000000E+00  0.00000000E+00  0.00000000E+00
  0.00000000E+00  0.00000000E+00  0.00000000E+00
  0.00000000E+00  0.00000000E+00  0.00000000E+00
  0.00000000E+00  0.00000000E+00  0.00000000E+00
  0.00000000E+00  0.00000000E+00  0.00000000E+00
  0.00000000E+00  0.00000000E+00  0.00000000E+00
  0.00000000E+00  0.00000000E+00  0.00000000E+00
  0.00000000E+00  0.00000000E+00  0.00000000E+00
  0.00000000E+00  0.00000000E+00  0.00000000E+00
  0.00000000E+00  0.00000000E+00  0.00000000E+00
  0.00000000E+00  0.00000000E+00  0.00000000E+00
  0.00000000E+00  0.00000000E+00  0.00000000E+00
  0.00000000E+00  0.00000000E+00  0.00000000E+00
  0.00000000E+00  0.00000000E+00  0.00000000E+00
  0.00000000E+00  0.00000000E+00  0.00000000E+00
  0.00000000E+00  0.00000000E+00  0.00000000E+00
  0.00000000E+00  0.00000000E+00  0.00000000E+00
  0.00000000E+00  0.00000000E+00  0.00000000E+00
  0.00000000E+00  0.00000000E+00  0.00000000E+00
  0.00000000E+00  0.00000000E+00  0.00000000E+00
  0.00000000E+00  0.00000000E+00  0.00000000E+00
  0.00000000E+00  0.00000000E+00  0.00000000E+00
  0.00000000E+00  0.00000000E+00  0.00000000E+00
  0.00000000E+00  0.00000000E+00  0.00000000E+00
  0.00000000E+00  0.00000000E+00  0.00000000E+00
  0.00000000E+00  0.00000000E+00  0.00000000E+00
  0.00000000E+00  0.00000000E+00  0.00000000E+00
  0.00000000E+00  0.00000000E+00  0.00000000E+00
  0.00000000E+00  0.00000000E+00  0.00000000E+00
  0.00000000E+00  0.00000000E+00  0.00000000E+00
  0.00000000E+00  0.00000000E+00  0.00000000E+00
  0.00000000E+00  0.00000000E+00  0.00000000E+00
  0.00000000E+00  0.00000000E+00  0.00000000E+00
  0.00000000E+00  0.00000000E+00  0.00000000E+00
  0.00000000E+00  0.00000000E+00  0.00000000E+00
  0.00000000E+00  0.00000000E+00  0.00000000E+00
  0.00000000E+00  0.00000000E+00  0.00000000E+00
  0.00000000E+00  0.00000000E+00  0.00000000E+00
  0.00000000E+00  0.00000000E+00  0.00000000E+00
  0.00000000E+00  0.00000000E+00  0.00000000E+00
  0.00000000E+00  0.00000000E+00  0.00000000E+00
  0.00000000E+00  0.00000000E+00  0.00000000E+00
  0.00000000E+00  0.00000000E+00  0.00000000E+00
  0.00000000E+00  0.00000000E+00  0.00000000E+00
  0.00000000E+00  0.00000000E+00  0.00000000E+00
  0.00000000E+00  0.00000000E+00  0.00000000E+00
  0.00000000E+00  0.00000000E+00  0.00000000E+00
  0.00000000E+00  0.00000000E+00  0.00000000E+00
  0.00000000E+00  0.00000000E+00  0.00000000E+00
  0.00000000E+00  0.00000000E+00  0.00000000E+00
  0.00000000E+00  0.00000000E+00  0.00000000E+00
  0.00000000E+00  0.00000000E+00  0.00000000E+00
  0.00000000E+00  0.00000000E+00  0.00000000E+00
  0.00000000E+00  0.00000000E+00  0.00000000E+00
  0.00000000E+00  0.00000000E+00  0.00000000E+00
  0.00000000E+00  0.00000000E+00  0.00000000E+00
  0.00000000E+00  0.00000000E+00  0.00000000E+00
  0.00000000E+00  0.00000000E+00  0.00000000E+00
  0.00000000E+00  0.00000000E+00  0.00000000E+00
  0.00000000E+00  0.00000000E+00  0.00000000E+00
  0.00000000E+00  0.00000000E+00  0.00000000E+00
  0.00000000E+00  0.00000000E+00  0.00000000E+00
  0.00000000E+00  0.00000000E+00  0.00000000E+00
  0.00000000E+00  0.00000000E+00  0.00000000E+00
  0.00000000E+00  0.00000000E+00  0.00000000E+00
  0.00000000E+00  0.00000000E+00  0.00000000E+00
  0.00000000E+00  0.00000000E+00  0.00000000E+00
  0.00000000E+00  0.00000000E+00  0.00000000E+00
  0.00000000E+00  0.00000000E+00  0.00000000E+00
  0.00000000E+00  0.00000000E+00  0.00000000E+00
  0.00000000E+00  0.00000000E+00  0.00000000E+00
  0.00000000E+00  0.00000000E+00  0.00000000E+00
  0.00000000E+00  0.00000000E+00  0.00000000E+00
  0.00000000E+00  0.00000000E+00  0.00000000E+00
  0.00000000E+00  0.00000000E+00  0.00000000E+00
  0.00000000E+00  0.00000000E+00  0.00000000E+00
  0.00000000E+00  0.00000000E+00  0.00000000E+00
  0.00000000E+00  0.00000000E+00  0.00000000E+00
  0.00000000E+00  0.00000000E+00  0.00000000E+00
  0.00000000E+00  0.00000000E+00  0.00000000E+00
  0.00000000E+00  0.00000000E+00  0.00000000E+00
  0.00000000E+00  0.00000000E+00  0.00000000E+00
  0.00000000E+00  0.00000000E+00  0.00000000E+00
  0.00000000E+00  0.00000000E+00  0.00000000E+00
  0.00000000E+00  0.00000000E+00  0.00000000E+00
  0.00000000E+00  0.00000000E+00  0.00000000E+00
  0.00000000E+00  0.00000000E+00  0.00000000E+00
  0.00000000E+00  0.00000000E+00  0.00000000E+00
  0.00000000E+00  0.00000000E+00  0.00000000E+00
  0.00000000E+00  0.00000000E+00  0.00000000E+00
  0.00000000E+00  0.00000000E+00  0.00000000E+00
  0.00000000E+00  0.00000000E+00  0.00000000E+00
  0.00000000E+00  0.00000000E+00  0.00000000E+00
  0.00000000E+00  0.00000000E+00  0.00000000E+00
  0.00000000E+00  0.00000000E+00  0.00000000E+00
  0.00000000E+00  0.00000000E+00  0.00000000E+00
  0.00000000E+00  0.00000000E+00  0.00000000E+00
  0.00000000E+00  0.00000000E+00  0.00000000E+00
  0.00000000E+00  0.00000000E+00  0.00000000E+00
  0.00000000E+00  0.00000000E+00  0.00000000E+00
  0.00000000E+00  0.00000000E+00  0.00000000E+00
  0.00000000E+00  0.00000000E+00  0.00000000E+00
  0.00000000E+00  0.00000000E+00  0.00000000E+00
  0.00000000E+00  0.00000000E+00  0.00000000E+00
  0.00000000E+00  0.00000000E+00  0.00000000E+00
  0.00000000E+00  0.00000000E+00  0.00000000E+00
  0.00000000E+00  0.00000000E+00  0.00000000E+00
  0.00000000E+00  0.00000000E+00  0.00000000E+00
  0.00000000E+00  0.00000000E+00  0.00000000E+00
  0.00000000E+00  0.00000000E+00  0.00000000E+00
  0.00000000E+00  0.00000000E+00  0.00000000E+00
  0.00000000E+00  0.00000000E+00  0.00000000E+00
  0.00000000E+00  0.00000000E+00  0.00000000E+00
  0.00000000E+00  0.00000000E+00  0.00000000E+00
  0.00000000E+00  0.00000000E+00  0.00000000E+00
  0.00000000E+00  0.00000000E+00  0.00000000E+00
  0.00000000E+00  0.00000000E+00  0.00000000E+00
  0.00000000E+00  0.00000000E+00  0.00000000E+00
  0.00000000E+00  0.00000000E+00  0.00000000E+00
  0.00000000E+00  0.00000000E+00  0.00000000E+00
  0.00000000E+00  0.00000000E+00  0.00000000E+00
  0.00000000E+00  0.00000000E+00  0.00000000E+00
  0.00000000E+00  0.00000000E+00  0.00000000E+00
  0.00000000E+00  0.00000000E+00  0.00000000E+00