Si B N                                  
   1.0000000000000000     
     8.7639499999999995  -15.1796066749929999    0.0000000000000000
     8.7639499999999995   15.1796066749929999    0.0000000000000000
     0.0000000000000000    0.0000000000000000   15.0000000000000000
   Si   B    N 
     1    48    48
Selective dynamics
Direct
  0.3968620100438756  0.4827096677247908  0.1106187963133607   T   T   T
  0.9080002385449717  0.9530717150969679  0.1106969443745172   T   T   T
  0.9086003464170531  0.0962327352687140  0.1107734938967013   T   T   T
  0.9085350168985684  0.2388517457899582  0.1107381615562062   T   T   T
  0.9076051842726116  0.3812101338899652  0.1106714126202064   T   T   T
  0.9052256987834397  0.5234434588763861  0.1107070023413712   T   T   T
  0.9046316189451247  0.6656421551736642  0.1107566873557104   T   T   T
  0.9053664788384950  0.8083588656687368  0.1106895322212367   T   T   T
  0.0490301659831971  0.9513001511198382  0.1106616980338160   T   T   T
  0.0501700403723788  0.0945091267906548  0.1107533513045524   T   T   T
  0.0514770236591389  0.2386624209751602  0.1108341413900433   T   T   T
  0.0508327866658860  0.3816441807403805  0.1107103934889437   T   T   T
  0.0481237624907820  0.5242708469209063  0.1106768440339394   T   T   T
  0.0477506691388356  0.6664631271741186  0.1107438750417700   T   T   T
  0.0480043875872127  0.8085877700393169  0.1107089277961748   T   T   T
  0.1913598863949559  0.9508721624013745  0.1106875388632318   T   T   T
  0.1924715641463024  0.0932407664580381  0.1107107444063544   T   T   T
  0.1921359106712899  0.2351281381268464  0.1108267281658541   T   T   T
  0.1950149345101480  0.3819617457491660  0.1108119003677004   T   T   T
  0.1900635827050863  0.5256115310285026  0.1107347006375932   T   T   T
  0.1905913767700582  0.6679523278250556  0.1107932609498192   T   T   T
  0.1909558131316729  0.8094361635928919  0.1107328600741511   T   T   T
  0.3347022645110727  0.9517262377899840  0.1107863550320261   T   T   T
  0.3349072581997987  0.0913430757310607  0.1107230393146210   T   T   T
  0.3368028657112845  0.2315282717793536  0.1107460980134292   T   T   T
  0.3340855683840189  0.3648283331830058  0.1110238913120654   T   T   T
  0.3310758886545813  0.5357398757827241  0.1105320829833829   T   T   T
  0.3336963321238500  0.6733821501817800  0.1108409267863451   T   T   T
  0.3344145139874470  0.8121461494944455  0.1108849621804708   T   T   T
  0.4786984195657311  0.9535773733516422  0.1108247422997621   T   T   T
  0.4787922795652406  0.0936703732951401  0.1108383327840485   T   T   T
  0.4788047212726525  0.2335395108611280  0.1107164164330001   T   T   T
  0.4850077283668242  0.3782053899765003  0.1107054009066744   T   T   T
  0.4773174849099178  0.6743212433593300  0.1107437986719049   T   T   T
  0.4786327494279021  0.8136802675217609  0.1108084767267101   T   T   T
  0.6226018894279051  0.9544943422839438  0.1107247952620583   T   T   T
  0.6225183472102529  0.0956612679120994  0.1107468953585808   T   T   T
  0.6223850347863333  0.2369740073732416  0.1107876502852960   T   T   T
  0.6221444653055102  0.3785543852260176  0.1106969190051359   T   T   T
  0.6090373393578190  0.5144925000575071  0.1106657677838356   T   T   T
  0.6274699364694101  0.6738251642801529  0.1106195997415966   T   T   T
  0.6230931694032975  0.8132782733588968  0.1106901834652589   T   T   T
  0.7659167412510399  0.9542761143866159  0.1107055939201871   T   T   T
  0.7658051537227735  0.0964144428536500  0.1106893457361835   T   T   T
  0.7655299608999115  0.2384124688932729  0.1107177294706005   T   T   T
  0.7647742302212919  0.3805673322073133  0.1107345568608267   T   T   T
  0.7613011492750914  0.5225742698829450  0.1107645060031430   T   T   T
  0.7604783856945332  0.6640219023912124  0.1106767039832803   T   T   T
  0.7665246574784064  0.8121358200660964  0.1106765370437870   T   T   T
  0.9538243140529090  0.9038733742725711  0.1106537514019337   T   T   T
  0.9554110600258241  0.0478928291621514  0.1107333939345594   T   T   T
  0.9562244065636065  0.1913562712942678  0.1107868816102666   T   T   T
  0.9556474433914559  0.3339087722929150  0.1106741015295682   T   T   T
  0.9532674134233829  0.4762645632971285  0.1106378899876788   T   T   T
  0.9525087178823881  0.6185037000726226  0.1107287801003309   T   T   T
  0.9527055017690955  0.7607845906025545  0.1107000526102624   T   T   T
  0.0961805252384949  0.9035537596256447  0.1106479378416196   T   T   T
  0.0972140493677429  0.0463847720845294  0.1106785243315542   T   T   T
  0.0975071558690814  0.1892426441150405  0.1107962636732225   T   T   T
  0.0992760600746152  0.3342084491077628  0.1107841638486349   T   T   T
  0.0956774534848037  0.4769420445094994  0.1106733613032915   T   T   T
  0.0954946955466838  0.6194358815419676  0.1107111214306542   T   T   T
  0.0956852659875480  0.7614690019589503  0.1107150540009272   T   T   T
  0.2393446594580269  0.9041656992475353  0.1107031484469232   T   T   T
  0.2397484456819896  0.0454789582798156  0.1106823726175321   T   T   T
  0.2410346967265227  0.1879670843302677  0.1107422734008310   T   T   T
  0.2397684307262509  0.3294668109632823  0.1109066822993796   T   T   T
  0.2375773675734294  0.4786723356018570  0.1106743117027236   T   T   T
  0.2384420045764628  0.6215017695571561  0.1107886078472831   T   T   T
  0.2390165513193168  0.7630254405793053  0.1108031442160424   T   T   T
  0.3832759509331254  0.9062180899709986  0.1108336302031248   T   T   T
  0.3834350474666763  0.0458090559905244  0.1107845735634925   T   T   T
  0.3839082639999560  0.1851099048747500  0.1106662659128901   T   T   T
  0.3879219917351051  0.3252574493630220  0.1108437183470130   T   T   T
  0.3824141398942302  0.6293144248093938  0.1106954293918676   T   T   T
  0.3831869343727234  0.7671635005896462  0.1108926369154801   T   T   T
  0.5272910478291237  0.9076675961302101  0.1107675856715815   T   T   T
  0.5272476175145187  0.0478616833964196  0.1107982942097223   T   T   T
  0.5272924949336968  0.1880990478292901  0.1107890684833492   T   T   T
  0.5275114296529608  0.3281424978252403  0.1106325664377010   T   T   T
  0.5063183696712983  0.5484608046730415  0.1109739401504726   T   T   T
  0.5322523277268161  0.6325097270022155  0.1107811710258488   T   T   T
  0.5274696993157093  0.7675707871628887  0.1107051188834447   T   T   T
  0.6706698297338320  0.9075169712009767  0.1106974078022986   T   T   T
  0.6706100349707071  0.0490157157826729  0.1106789956331582   T   T   T
  0.6704189379817507  0.1904406012061983  0.1107384309830692   T   T   T
  0.6699767468467073  0.3321156567622765  0.1107307824895898   T   T   T
  0.6652383109881157  0.4740678531623388  0.1107176819246973   T   T   T
  0.6640416051485118  0.6152447526835161  0.1105732909235115   T   T   T
  0.6723655394957788  0.7670126589888326  0.1106122469314528   T   T   T
  0.8134222340213881  0.9066329209768185  0.1106824498171406   T   T   T
  0.8134698692101736  0.0490609045627934  0.1107056494318925   T   T   T
  0.8133799317188135  0.1913001268662384  0.1106906864860520   T   T   T
  0.8126294127040907  0.3334236267818156  0.1106925061417527   T   T   T
  0.8100047677566593  0.4756097551782830  0.1107285802147899   T   T   T
  0.8090763664392853  0.6175869364738844  0.1107371578231806   T   T   T
  0.8099388289547491  0.7605587164568348  0.1106661436767951   T   T   T

  0.00000000E+00  0.00000000E+00  0.00000000E+00
  0.00000000E+00  0.00000000E+00  0.00000000E+00
  0.00000000E+00  0.00000000E+00  0.00000000E+00
  0.00000000E+00  0.00000000E+00  0.00000000E+00
  0.00000000E+00  0.00000000E+00  0.00000000E+00
  0.00000000E+00  0.00000000E+00  0.00000000E+00
  0.00000000E+00  0.00000000E+00  0.00000000E+00
  0.00000000E+00  0.00000000E+00  0.00000000E+00
  0.00000000E+00  0.00000000E+00  0.00000000E+00
  0.00000000E+00  0.00000000E+00  0.00000000E+00
  0.00000000E+00  0.00000000E+00  0.00000000E+00
  0.00000000E+00  0.00000000E+00  0.00000000E+00
  0.00000000E+00  0.00000000E+00  0.00000000E+00
  0.00000000E+00  0.00000000E+00  0.00000000E+00
  0.00000000E+00  0.00000000E+00  0.00000000E+00
  0.00000000E+00  0.00000000E+00  0.00000000E+00
  0.00000000E+00  0.00000000E+00  0.00000000E+00
  0.00000000E+00  0.00000000E+00  0.00000000E+00
  0.00000000E+00  0.00000000E+00  0.00000000E+00
  0.00000000E+00  0.00000000E+00  0.00000000E+00
  0.00000000E+00  0.00000000E+00  0.00000000E+00
  0.00000000E+00  0.00000000E+00  0.00000000E+00
  0.00000000E+00  0.00000000E+00  0.00000000E+00
  0.00000000E+00  0.00000000E+00  0.00000000E+00
  0.00000000E+00  0.00000000E+00  0.00000000E+00
  0.00000000E+00  0.00000000E+00  0.00000000E+00
  0.00000000E+00  0.00000000E+00  0.00000000E+00
  0.00000000E+00  0.00000000E+00  0.00000000E+00
  0.00000000E+00  0.00000000E+00  0.00000000E+00
  0.00000000E+00  0.00000000E+00  0.00000000E+00
  0.00000000E+00  0.00000000E+00  0.00000000E+00
  0.00000000E+00  0.00000000E+00  0.00000000E+00
  0.00000000E+00  0.00000000E+00  0.00000000E+00
  0.00000000E+00  0.00000000E+00  0.00000000E+00
  0.00000000E+00  0.00000000E+00  0.00000000E+00
  0.00000000E+00  0.00000000E+00  0.00000000E+00
  0.00000000E+00  0.00000000E+00  0.00000000E+00
  0.00000000E+00  0.00000000E+00  0.00000000E+00
  0.00000000E+00  0.00000000E+00  0.00000000E+00
  0.00000000E+00  0.00000000E+00  0.00000000E+00
  0.00000000E+00  0.00000000E+00  0.00000000E+00
  0.00000000E+00  0.00000000E+00  0.00000000E+00
  0.00000000E+00  0.00000000E+00  0.00000000E+00
  0.00000000E+00  0.00000000E+00  0.00000000E+00
  0.00000000E+00  0.00000000E+00  0.00000000E+00
  0.00000000E+00  0.00000000E+00  0.00000000E+00
  0.00000000E+00  0.00000000E+00  0.00000000E+00
  0.00000000E+00  0.00000000E+00  0.00000000E+00
  0.00000000E+00  0.00000000E+00  0.00000000E+00
  0.00000000E+00  0.00000000E+00  0.00000000E+00
  0.00000000E+00  0.00000000E+00  0.00000000E+00
  0.00000000E+00  0.00000000E+00  0.00000000E+00
  0.00000000E+00  0.00000000E+00  0.00000000E+00
  0.00000000E+00  0.00000000E+00  0.00000000E+00
  0.00000000E+00  0.00000000E+00  0.00000000E+00
  0.00000000E+00  0.00000000E+00  0.00000000E+00
  0.00000000E+00  0.00000000E+00  0.00000000E+00
  0.00000000E+00  0.00000000E+00  0.00000000E+00
  0.00000000E+00  0.00000000E+00  0.00000000E+00
  0.00000000E+00  0.00000000E+00  0.00000000E+00
  0.00000000E+00  0.00000000E+00  0.00000000E+00
  0.00000000E+00  0.00000000E+00  0.00000000E+00
  0.00000000E+00  0.00000000E+00  0.00000000E+00
  0.00000000E+00  0.00000000E+00  0.00000000E+00
  0.00000000E+00  0.00000000E+00  0.00000000E+00
  0.00000000E+00  0.00000000E+00  0.00000000E+00
  0.00000000E+00  0.00000000E+00  0.00000000E+00
  0.00000000E+00  0.00000000E+00  0.00000000E+00
  0.00000000E+00  0.00000000E+00  0.00000000E+00
  0.00000000E+00  0.00000000E+00  0.00000000E+00
  0.00000000E+00  0.00000000E+00  0.00000000E+00
  0.00000000E+00  0.00000000E+00  0.00000000E+00
  0.00000000E+00  0.00000000E+00  0.00000000E+00
  0.00000000E+00  0.00000000E+00  0.00000000E+00
  0.00000000E+00  0.00000000E+00  0.00000000E+00
  0.00000000E+00  0.00000000E+00  0.00000000E+00
  0.00000000E+00  0.00000000E+00  0.00000000E+00
  0.00000000E+00  0.00000000E+00  0.00000000E+00
  0.00000000E+00  0.00000000E+00  0.00000000E+00
  0.00000000E+00  0.00000000E+00  0.00000000E+00
  0.00000000E+00  0.00000000E+00  0.00000000E+00
  0.00000000E+00  0.00000000E+00  0.00000000E+00
  0.00000000E+00  0.00000000E+00  0.00000000E+00
  0.00000000E+00  0.00000000E+00  0.00000000E+00
  0.00000000E+00  0.00000000E+00  0.00000000E+00
  0.00000000E+00  0.00000000E+00  0.00000000E+00
  0.00000000E+00  0.00000000E+00  0.00000000E+00
  0.00000000E+00  0.00000000E+00  0.00000000E+00
  0.00000000E+00  0.00000000E+00  0.00000000E+00
  0.00000000E+00  0.00000000E+00  0.00000000E+00
  0.00000000E+00  0.00000000E+00  0.00000000E+00
  0.00000000E+00  0.00000000E+00  0.00000000E+00
  0.00000000E+00  0.00000000E+00  0.00000000E+00
  0.00000000E+00  0.00000000E+00  0.00000000E+00
  0.00000000E+00  0.00000000E+00  0.00000000E+00
  0.00000000E+00  0.00000000E+00  0.00000000E+00
  0.00000000E+00  0.00000000E+00  0.00000000E+00
