B C N                                   
   1.0000000000000000     
     8.7639499999999995  -15.1796066749929999    0.0000000000000000
     8.7639499999999995   15.1796066749929999    0.0000000000000000
     0.0000000000000000    0.0000000000000000   15.0000000000000000
   B    C    N 
    47     4    47
Selective dynamics
Direct
  0.9046266146084023  0.9524253154339883  0.1109567154468231   T   T   T
  0.9049087550998505  0.0953218020893673  0.1109878063438917   T   T   T
  0.9048898291125897  0.2380351210124035  0.1109795304935447   T   T   T
  0.9044669028173689  0.3806085067366499  0.1109243250433961   T   T   T
  0.9044051288483359  0.5236424810579622  0.1109989959959026   T   T   T
  0.9094307856606679  0.6690432546636006  0.1111872950746020   T   T   T
  0.9043478128926081  0.8092253350391240  0.1110324837575143   T   T   T
  0.0478868658957527  0.9527102533837095  0.1109522505365089   T   T   T
  0.0479396691562072  0.0955520995588346  0.1109343350716843   T   T   T
  0.0479930135768491  0.2382565596655188  0.1109444933772169   T   T   T
  0.0478164865962831  0.3808866618197255  0.1109725638466026   T   T   T
  0.0475776417801186  0.5237447033971750  0.1109867741045720   T   T   T
  0.0492369279401777  0.6670076230140587  0.1110438445675082   T   T   T
  0.0492957197729857  0.8108792319587669  0.1110165790850637   T   T   T
  0.1911156057584221  0.9529278842936000  0.1109497120111980   T   T   T
  0.1910899204492139  0.0958850839355444  0.1109551891954619   T   T   T
  0.1911576938363085  0.2386237684292154  0.1109706292314150   T   T   T
  0.1912189886284757  0.3811683059222453  0.1109659344498461   T   T   T
  0.1903077225766568  0.5237684928597733  0.1110496975537227   T   T   T
  0.1910557644637358  0.6667988685170733  0.1110738882365509   T   T   T
  0.1912131595243272  0.8099301059930671  0.1109929260489072   T   T   T
  0.3336814905734492  0.9525562827240751  0.1109596666139031   T   T   T
  0.3333070808047134  0.0949075116758233  0.1110016115480401   T   T   T
  0.3344413574964969  0.2385987593587383  0.1110667563686537   T   T   T
  0.3352527491941773  0.3825747465434736  0.1110938932691918   T   T   T
  0.3329091927950853  0.5238501741737226  0.1110746706988158   T   T   T
  0.3333478368733420  0.6668249750750168  0.1110884254231291   T   T   T
  0.3336512945538604  0.8097873318122855  0.1110476209603433   T   T   T
  0.4763810781177305  0.9527533217328046  0.1109344348648587   T   T   T
  0.4763392378369057  0.0955241733854806  0.1108879690990025   T   T   T
  0.4751239789656134  0.2370427385111071  0.1109928269519829   T   T   T
  0.4757406261913218  0.5237943670610971  0.1112554842712100   T   T   T
  0.4756094540538590  0.6670666093854192  0.1110602071573843   T   T   T
  0.4762126009873499  0.8099342077014635  0.1110338624623039   T   T   T
  0.6190584063027245  0.9523887577561910  0.1109509792242859   T   T   T
  0.6191757368037688  0.0953899589077920  0.1108907907223673   T   T   T
  0.6192478125296867  0.2383824090753565  0.1109590582479285   T   T   T
  0.6167639201975308  0.3801994586501099  0.1110759409427510   T   T   T
  0.6159797235766943  0.6646926732834493  0.1110929635214275   T   T   T
  0.6185666298847164  0.8090483693511837  0.1109732235546348   T   T   T
  0.7617447430379402  0.9525690325149140  0.1109569134711831   T   T   T
  0.7619591314069961  0.0952097841592689  0.1109836706287435   T   T   T
  0.7618471490833385  0.2375883331710148  0.1109581949891312   T   T   T
  0.7606966625990469  0.3791265827916778  0.1109977527323474   T   T   T
  0.7598653721947866  0.5203679492497503  0.1112327909305286   T   T   T
  0.7588360197668739  0.6671556170924906  0.1112198117598881   T   T   T
  0.7610337068866893  0.8099285700798279  0.1110010147313009   T   T   T
  0.4770064393132238  0.3792113473617288  0.1114071065600478   T   T   T
  0.5244035606043651  0.4742603271923218  0.1115046558837035   T   T   T
  0.6186247915168333  0.5218259785682388  0.1113308726409687   T   T   T
  0.8097052971985438  0.6191189996648874  0.1113762373000527   T   T   T
  0.9522549671648803  0.9046315661889063  0.1109565289091082   T   T   T
  0.9526230884153750  0.0477259316628234  0.1109403075130929   T   T   T
  0.9527028469709788  0.1905515085822405  0.1109584799203173   T   T   T
  0.9524292251039678  0.3332651841539680  0.1109405914003940   T   T   T
  0.9519967180320346  0.4760790031067523  0.1109177045069006   T   T   T
  0.9543746181762611  0.6194543274614481  0.1110520284355590   T   T   T
  0.9544886337469937  0.7636145242872203  0.1110448482188181   T   T   T
  0.0962149038143192  0.9057954711335259  0.1109419679636584   T   T   T
  0.0957608172061522  0.0481193510121164  0.1109151291430231   T   T   T
  0.0958769246481186  0.1908175559607667  0.1109231516132320   T   T   T
  0.0957414567591501  0.3333575596431197  0.1109341083268997   T   T   T
  0.0950155926161592  0.4760510584585064  0.1109855605238060   T   T   T
  0.0959892078546001  0.6190493254604295  0.1110207050185215   T   T   T
  0.0961471228383873  0.7624455640503479  0.1110059955717931   T   T   T
  0.2385864388763967  0.9052408125445290  0.1109359630889802   T   T   T
  0.2384914801949249  0.0480893405609475  0.1109618038616236   T   T   T
  0.2393333194785544  0.1915129952901954  0.1109700511122467   T   T   T
  0.2396527029718663  0.3336068323841315  0.1109692380465227   T   T   T
  0.2376266881158203  0.4760738876529772  0.1110088334482743   T   T   T
  0.2380845359227016  0.6190745417132020  0.1110690491581477   T   T   T
  0.2384801594938792  0.7621864619248615  0.1110342561388650   T   T   T
  0.3812109017801665  0.9051298854604199  0.1109658695996339   T   T   T
  0.3811974817957259  0.0478889159633134  0.1109303966483421   T   T   T
  0.3808381740866315  0.1901646773722979  0.1110097941146300   T   T   T
  0.3850609946821917  0.3346347798535859  0.1111858278494937   T   T   T
  0.3797424326295252  0.4764385413587803  0.1110980196140337   T   T   T
  0.3803460834998791  0.6193523725454185  0.1110654646074734   T   T   T
  0.3810090697040198  0.7622826267721531  0.1110569235800340   T   T   T
  0.5239125904826183  0.9052041614084654  0.1109575573141126   T   T   T
  0.5239116227476632  0.0480586300661773  0.1108474550779770   T   T   T
  0.5237275948807117  0.1910943970814510  0.1109022538104098   T   T   T
  0.5209074951299160  0.3333910383207932  0.1111395931623902   T   T   T
  0.5224626119854492  0.6197262414798014  0.1110800956486126   T   T   T
  0.5236353022391188  0.7624173255966457  0.1110014173707224   T   T   T
  0.6665686920683546  0.9045861610527073  0.1109403476900304   T   T   T
  0.6667214178951341  0.0476983678184234  0.1109185399316649   T   T   T
  0.6666248601767897  0.1905204269012801  0.1109177749565967   T   T   T
  0.6654962213291656  0.3331599307982638  0.1110045730916314   T   T   T
  0.6638092459531802  0.4765523923033769  0.1111769128526861   T   T   T
  0.6629276882495395  0.6144239757122631  0.1111554032396806   T   T   T
  0.6658407322610086  0.7606059145922206  0.1109797081452239   T   T   T
  0.8092846963872722  0.9050550669461407  0.1109420640240455   T   T   T
  0.8096446632716727  0.0477358458560977  0.1109759564642321   T   T   T
  0.8096580935200961  0.1902827955425554  0.1109665411027479   T   T   T
  0.8091169725992072  0.3325117188129105  0.1109288575502706   T   T   T
  0.8080555202517895  0.4741452399145364  0.1110069198481472   T   T   T
  0.8080071679416692  0.7621588267378160  0.1110340537833123   T   T   T

  0.00000000E+00  0.00000000E+00  0.00000000E+00
  0.00000000E+00  0.00000000E+00  0.00000000E+00
  0.00000000E+00  0.00000000E+00  0.00000000E+00
  0.00000000E+00  0.00000000E+00  0.00000000E+00
  0.00000000E+00  0.00000000E+00  0.00000000E+00
  0.00000000E+00  0.00000000E+00  0.00000000E+00
  0.00000000E+00  0.00000000E+00  0.00000000E+00
  0.00000000E+00  0.00000000E+00  0.00000000E+00
  0.00000000E+00  0.00000000E+00  0.00000000E+00
  0.00000000E+00  0.00000000E+00  0.00000000E+00
  0.00000000E+00  0.00000000E+00  0.00000000E+00
  0.00000000E+00  0.00000000E+00  0.00000000E+00
  0.00000000E+00  0.00000000E+00  0.00000000E+00
  0.00000000E+00  0.00000000E+00  0.00000000E+00
  0.00000000E+00  0.00000000E+00  0.00000000E+00
  0.00000000E+00  0.00000000E+00  0.00000000E+00
  0.00000000E+00  0.00000000E+00  0.00000000E+00
  0.00000000E+00  0.00000000E+00  0.00000000E+00
  0.00000000E+00  0.00000000E+00  0.00000000E+00
  0.00000000E+00  0.00000000E+00  0.00000000E+00
  0.00000000E+00  0.00000000E+00  0.00000000E+00
  0.00000000E+00  0.00000000E+00  0.00000000E+00
  0.00000000E+00  0.00000000E+00  0.00000000E+00
  0.00000000E+00  0.00000000E+00  0.00000000E+00
  0.00000000E+00  0.00000000E+00  0.00000000E+00
  0.00000000E+00  0.00000000E+00  0.00000000E+00
  0.00000000E+00  0.00000000E+00  0.00000000E+00
  0.00000000E+00  0.00000000E+00  0.00000000E+00
  0.00000000E+00  0.00000000E+00  0.00000000E+00
  0.00000000E+00  0.00000000E+00  0.00000000E+00
  0.00000000E+00  0.00000000E+00  0.00000000E+00
  0.00000000E+00  0.00000000E+00  0.00000000E+00
  0.00000000E+00  0.00000000E+00  0.00000000E+00
  0.00000000E+00  0.00000000E+00  0.00000000E+00
  0.00000000E+00  0.00000000E+00  0.00000000E+00
  0.00000000E+00  0.00000000E+00  0.00000000E+00
  0.00000000E+00  0.00000000E+00  0.00000000E+00
  0.00000000E+00  0.00000000E+00  0.00000000E+00
  0.00000000E+00  0.00000000E+00  0.00000000E+00
  0.00000000E+00  0.00000000E+00  0.00000000E+00
  0.00000000E+00  0.00000000E+00  0.00000000E+00
  0.00000000E+00  0.00000000E+00  0.00000000E+00
  0.00000000E+00  0.00000000E+00  0.00000000E+00
  0.00000000E+00  0.00000000E+00  0.00000000E+00
  0.00000000E+00  0.00000000E+00  0.00000000E+00
  0.00000000E+00  0.00000000E+00  0.00000000E+00
  0.00000000E+00  0.00000000E+00  0.00000000E+00
  0.00000000E+00  0.00000000E+00  0.00000000E+00
  0.00000000E+00  0.00000000E+00  0.00000000E+00
  0.00000000E+00  0.00000000E+00  0.00000000E+00
  0.00000000E+00  0.00000000E+00  0.00000000E+00
  0.00000000E+00  0.00000000E+00  0.00000000E+00
  0.00000000E+00  0.00000000E+00  0.00000000E+00
  0.00000000E+00  0.00000000E+00  0.00000000E+00
  0.00000000E+00  0.00000000E+00  0.00000000E+00
  0.00000000E+00  0.00000000E+00  0.00000000E+00
  0.00000000E+00  0.00000000E+00  0.00000000E+00
  0.00000000E+00  0.00000000E+00  0.00000000E+00
  0.00000000E+00  0.00000000E+00  0.00000000E+00
  0.00000000E+00  0.00000000E+00  0.00000000E+00
  0.00000000E+00  0.00000000E+00  0.00000000E+00
  0.00000000E+00  0.00000000E+00  0.00000000E+00
  0.00000000E+00  0.00000000E+00  0.00000000E+00
  0.00000000E+00  0.00000000E+00  0.00000000E+00
  0.00000000E+00  0.00000000E+00  0.00000000E+00
  0.00000000E+00  0.00000000E+00  0.00000000E+00
  0.00000000E+00  0.00000000E+00  0.00000000E+00
  0.00000000E+00  0.00000000E+00  0.00000000E+00
  0.00000000E+00  0.00000000E+00  0.00000000E+00
  0.00000000E+00  0.00000000E+00  0.00000000E+00
  0.00000000E+00  0.00000000E+00  0.00000000E+00
  0.00000000E+00  0.00000000E+00  0.00000000E+00
  0.00000000E+00  0.00000000E+00  0.00000000E+00
  0.00000000E+00  0.00000000E+00  0.00000000E+00
  0.00000000E+00  0.00000000E+00  0.00000000E+00
  0.00000000E+00  0.00000000E+00  0.00000000E+00
  0.00000000E+00  0.00000000E+00  0.00000000E+00
  0.00000000E+00  0.00000000E+00  0.00000000E+00
  0.00000000E+00  0.00000000E+00  0.00000000E+00
  0.00000000E+00  0.00000000E+00  0.00000000E+00
  0.00000000E+00  0.00000000E+00  0.00000000E+00
  0.00000000E+00  0.00000000E+00  0.00000000E+00
  0.00000000E+00  0.00000000E+00  0.00000000E+00
  0.00000000E+00  0.00000000E+00  0.00000000E+00
  0.00000000E+00  0.00000000E+00  0.00000000E+00
  0.00000000E+00  0.00000000E+00  0.00000000E+00
  0.00000000E+00  0.00000000E+00  0.00000000E+00
  0.00000000E+00  0.00000000E+00  0.00000000E+00
  0.00000000E+00  0.00000000E+00  0.00000000E+00
  0.00000000E+00  0.00000000E+00  0.00000000E+00
  0.00000000E+00  0.00000000E+00  0.00000000E+00
  0.00000000E+00  0.00000000E+00  0.00000000E+00
  0.00000000E+00  0.00000000E+00  0.00000000E+00
  0.00000000E+00  0.00000000E+00  0.00000000E+00
  0.00000000E+00  0.00000000E+00  0.00000000E+00
  0.00000000E+00  0.00000000E+00  0.00000000E+00
  0.00000000E+00  0.00000000E+00  0.00000000E+00
  0.00000000E+00  0.00000000E+00  0.00000000E+00
