Species order: X N B                    
   2.51242800000000     
     5.9449720136058266    0.0000000000000000    0.0000000000000000
    -2.9724860068029120    5.1484967885702053   -0.0000000000000001
     0.0000000000000000    0.0000000000000009    5.3101128803662583
   Ge   N    B 
     1   143   143
Direct
  0.5090855409843952  0.4212094371588619  0.3750000000000000
  0.1105392057148172  0.0552732426703478  0.1248607410510286
  0.6108133691013100  0.5556523993350498  0.1240713502304060
  0.4439810928227198  0.0553110126009107  0.1247497460615290
  0.9439264249051248  0.5552780166354839  0.1248159093715014
  0.7773202096102886  0.0553267714718733  0.1251086036656575
  0.1105917970279615  0.7219625651804839  0.6247224553962093
  0.4439810928227198  0.7220034135545782  0.6252502539386077
  0.2770822445529715  0.2218647504826295  0.6258267349246084
  0.7773367658484712  0.7221129328060455  0.6259637552905130
  0.6106873496769065  0.2218951071368845  0.6259899169053412
  0.9439202260963908  0.2219403451083435  0.6249143685785133
  0.2772851308215925  0.7219741637792338  0.1252022458275483
  0.1104788377987215  0.2219060855660293  0.1247381177819319
  0.4439701877809237  0.2219746600142327  0.1245171401466329
  0.6106873496769065  0.7221255758734586  0.1240100830948728
  0.9439264249051248  0.7219817416024739  0.1248159093715014
  0.7773307371912874  0.2219182530505453  0.1247569906788788
  0.1105936669433336  0.8886421184332398  0.6249042140833984
  0.4439806760463562  0.8886570046896491  0.6249659571021733
  0.2770822445529714  0.3885508274038301  0.6258267349246084
  0.6108133691013100  0.3884943030990763  0.6259286497698745
  0.7773307371912874  0.8887458174741324  0.6252430093211687
  0.9439444419271485  0.3885999959755281  0.6250881114245870
  0.1105392057148171  0.3885992963776942  0.1248607410510286
  0.2772851308215925  0.8886443003762405  0.1252022458275483
  0.6106673801146116  0.8887060182937682  0.1248518747194555
  0.4434725559294002  0.3884029446312871  0.1244797819607256
  0.9439444419271485  0.8886777792846227  0.1249118885757042
  0.7773367658484712  0.3885571663756857  0.1240362447094388
  0.2772742271463376  0.5552961442471966  0.6252217084466475
  0.1105392057148172  0.0552732426703478  0.6251392589487365
  0.6108133691013100  0.5556523993350498  0.6259286497698745
  0.4439810928227198  0.0553110126009107  0.6252502539386077
  0.9439264249051248  0.5552780166354839  0.6251840906282722
  0.1105936669433336  0.5552848818435886  0.1250957859165776
  0.7773202096102886  0.0553267714718733  0.6248913963345631
  0.2772742271463376  0.0553114162322264  0.1247782915535995
  0.4439701877809237  0.5553288611005278  0.1245171401466286
  0.7772867413907512  0.5553100373615375  0.1243229640141086
  0.6106673801146116  0.0552946951536174  0.1248518747194554
  0.4439701877809237  0.5553288611005279  0.6254828598534184
  0.9439202260963908  0.0553132143209585  0.1250856314215641
  0.2772851308215831  0.7219741637792338  0.6247977541719855
  0.1104788377987215  0.2219060855660318  0.6252618822178718
  0.4439701877809237  0.2219746600142327  0.6254828598534184
  0.6106873496769065  0.7221255758734586  0.6259899169053412
  0.9439264249051248  0.7219817416024739  0.6251840906282722
  0.7773307371912874  0.2219182530505453  0.6252430093211687
  0.1105917970279615  0.7219625651804839  0.1252775446034965
  0.4439810928227198  0.7220034135545782  0.1247497460615290
  0.2770822445529715  0.2218647504826295  0.1241732650754305
  0.7773367658484712  0.7221129328060455  0.1240362447094386
  0.6106873496769065  0.2218951071368782  0.1240100830948724
  0.9439202260963908  0.2219403451083435  0.1250856314215641
  0.1105392057148171  0.3885992963776942  0.6251392589487365
  0.2772851308215832  0.8886443003762405  0.6247977541719855
  0.6106673801146116  0.8887060182938475  0.6251481252801786
  0.4434725559294002  0.3884029446312871  0.6255202180390240
  0.9439444419271485  0.8886777792846227  0.6250881114245870
  0.1105936669433336  0.8886421184332398  0.1250957859165776
  0.7773367658484712  0.3885571663756875  0.6259637552905130
  0.4439806760463562  0.8886570046896491  0.1250340428980893
  0.2770822445529714  0.3885508274038301  0.1241732650754305
  0.2772742271463376  0.5552961442471966  0.1247782915535924
  0.6108133691013100  0.3884943030990763  0.1240713502304060
  0.7773307371912874  0.8887458174739667  0.1247569906788788
  0.9439444419271485  0.3885999959755281  0.1249118885757045
  0.1105936669433336  0.5552848818435886  0.6249042140833984
  0.2772742271463376  0.0553114162322263  0.6252217084466475
  0.7772867413907512  0.5553100373615375  0.6256770359862316
  0.6106673801146116  0.0552946951536174  0.6251481252801786
  0.9439202260963908  0.0553132143209585  0.6249143685785133
  0.0602737885357344  0.1136626406519863  0.3750000000000000
  0.5568584753223464  0.6237040787576420  0.3750000000000000
  0.3889273487209900  0.1055286897004452  0.3750000000000000
  0.8864572705750471  0.6098953019548304  0.3750000000000000
  0.7256537094853789  0.1117119104680331  0.3750000000000000
  0.0555755166437241  0.7777839210304981  0.8750000000000000
  0.3888759834742134  0.7777814743870715  0.8750000000000000
  0.2222405043200094  0.2777869188264820  0.8750000000000000
  0.7222158653176508  0.7777611293253125  0.8750000000000000
  0.5555339518695734  0.2777623338618666  0.8750000000000000
  0.8888921636238120  0.2777896893871390  0.8750000000000000
  0.2213819521291485  0.7773576427308729  0.3750000000000000
  0.0602737885357344  0.2799444812171350  0.3750000000000000
  0.3940122668811137  0.2733047947596283  0.3750000000000000
  0.5570630210464759  0.7837654073583163  0.3750000000000000
  0.8896731303248139  0.7787649170875195  0.3750000000000000
  0.7251998951143709  0.2763623612650868  0.3750000000000000
  0.0555620210952062  0.9444382621986775  0.8750000000000000
  0.3888759834742134  0.9444278424204172  0.8750000000000000
  0.2222266405340368  0.4444601131943395  0.8750000000000000
  0.5555502882182445  0.4444418107757865  0.8750000000000000
  0.7222125456786807  0.9444345847123312  0.8750000000000000
  0.8889055320533179  0.4444635822985031  0.8750000000000000
  0.0573610152567499  0.4455404150834461  0.3750000000000000
  0.2218684728974543  0.9427326326065381  0.3750000000000000
  0.5571718702018313  0.9452526017673825  0.3750000000000000
  0.3940122668811137  0.4540408054549557  0.3750000000000000
  0.8926265220192876  0.9471656405746415  0.3750000000000000
  0.7208256649494887  0.4414378053721394  0.3750000000000000
  0.2222161786307475  0.6111226030541962  0.8750000000000000
  0.0555654376012504  0.1111112247044448  0.8750000000000000
  0.5555339518695734  0.6111049513404391  0.8750000000000000
  0.3888730080569772  0.1110812529826889  0.8750000000000000
  0.8889316261685538  0.6111324797509590  0.8750000000000000
  0.0545825651106749  0.6109905643704883  0.3750000000000000
  0.7222125456786807  0.1111112942998645  0.8750000000000000
  0.2251364043190176  0.1112796183762497  0.3750000000000000
  0.3889273487209900  0.6167319923539974  0.3750000000000000
  0.7208256649494887  0.6127211929099580  0.3750000000000000
  0.5570630210464759  0.1066309470214459  0.3750000000000000
  0.3888730080569772  0.6111250884080636  0.8750000000000000
  0.8932953501168492  0.1133143417253554  0.3750000000000000
  0.2222230064899977  0.7777781699113703  0.8750000000000000
  0.0555654376012504  0.2777875462300395  0.8750000000000000
  0.3888949937517444  0.2777598510870956  0.8750000000000000
  0.5555374700282779  0.7777708438576216  0.8750000000000000
  0.8889055320533179  0.7777752830883973  0.8750000000000000
  0.7222158653176508  0.2777880693260876  0.8750000000000000
  0.0545825651106770  0.7769253340739668  0.3750000000000000
  0.3888409015621411  0.7796128346372548  0.3750000000000000
  0.2287807688296297  0.2810570510816776  0.3750000000000000
  0.7251998951143709  0.7821708671826085  0.3750000000000000
  0.5568584753223464  0.2664877298978300  0.3750000000000000
  0.8926265220192876  0.2787942147780796  0.3750000000000000
  0.0555620210952070  0.4444570922298357  0.8750000000000000
  0.2222161786307478  0.9444269089092719  0.8750000000000000
  0.5555394029450514  0.9444363681396877  0.8750000000000000
  0.3888949937517444  0.4444684759979359  0.8750000000000000
  0.8888921636238120  0.9444358075700804  0.8750000000000000
  0.0573610152567503  0.9451539335067402  0.3750000000000000
  0.7222454140980274  0.4444704038572438  0.8750000000000000
  0.3888409015621411  0.9425614002585063  0.3750000000000000
  0.2251364043190176  0.4471901192759575  0.3750000000000000
  0.2218684728974563  0.6124691736242439  0.3750000000000000
  0.7256537094853789  0.9472751323502960  0.3750000000000000
  0.8896731303248139  0.4442415465703995  0.3750000000000000
  0.0555755166437241  0.6111249289458686  0.8750000000000000
  0.2222266405340368  0.1110998606730071  0.8750000000000000
  0.7222454140980360  0.6111083435741199  0.8750000000000000
  0.5555374700282779  0.1110999595038609  0.8750000000000000
  0.8888915436206488  0.1111124384768168  0.8750000000000000
  0.1149090053917885  0.0570335726262298  0.3750000000000000
  0.6075840377872777  0.5647503646712231  0.3750000000000000
  0.4456356243747045  0.0528092975846582  0.3750000000000000
  0.9429606464736943  0.5552104833273295  0.3750000000000000
  0.7820328862891400  0.0576831098114592  0.3750000000000000
  0.1111031613915271  0.7222182473622232  0.8750000000000000
  0.4444291467111135  0.7221450265333480  0.8750000000000000
  0.2779332503136345  0.2223242499937802  0.8750000000000000
  0.7776880073390406  0.7220734233148343  0.8750000000000000
  0.6110405338405416  0.2223162553548060  0.8750000000000000
  0.9444781088545781  0.2222594393329040  0.8750000000000000
  0.2777392113622991  0.7230231759313243  0.3750000000000000
  0.1182851229166448  0.2258092281248630  0.3750000000000000
  0.4452997957177207  0.2164528966804533  0.3750000000000000
  0.6135824241452792  0.7302541675421017  0.3750000000000000
  0.9429606464736944  0.7210834964799634  0.3750000000000000
  0.7814216134699853  0.2228088280030983  0.3750000000000000
  0.1111270553819615  0.8888936871322050  0.8750000000000000
  0.4444207246540248  0.8888770289937804  0.8750000000000000
  0.2779332503136345  0.3889423336531603  0.8750000000000000
  0.6110229039797872  0.3889536075298779  0.8750000000000000
  0.7777302501517118  0.8887862304201725  0.8750000000000000
  0.9444339581377685  0.3889302817284178  0.8750000000000000
  0.1149090053917886  0.3912087660990494  0.3750000000000000
  0.2777392113622991  0.8880493687639931  0.3750000000000000
  0.6140644876537332  0.8925028323930165  0.3750000000000000
  0.9463712648587131  0.8898889899893954  0.3750000000000000
  0.7778727521866792  0.3881471679435011  0.3750000000000000
  0.2778378007211772  0.5555466350463831  0.8750000000000000
  0.1111932035977290  0.0555982282045762  0.8750000000000000
  0.6110229039797872  0.5554026297829420  0.8750000000000000
  0.4444291467111135  0.0556174535113878  0.8750000000000000
  0.9444023922834126  0.5555642116723624  0.8750000000000000
  0.1111446263638837  0.5563724508841561  0.3750000000000000
  0.7777543142706592  0.0555438238015489  0.8750000000000000
  0.2787302407133183  0.0540471927329796  0.3750000000000000
  0.4452997957177207  0.5621802323702930  0.3750000000000000
  0.7729564743358432  0.5531449038344249  0.3750000000000000
  0.6140644876537332  0.0548949885949047  0.3750000000000000
  0.4444793742953465  0.5554814798940795  0.8750000000000000
  0.9493744135623701  0.0582966083407475  0.3750000000000000
  0.2777850664798959  0.7222076605249900  0.8750000000000000
  0.1112394502319746  0.2222863917826780  0.8750000000000000
  0.4444793742953465  0.2223312277340214  0.8750000000000000
  0.6110405338405416  0.7220576118190395  0.8750000000000000
  0.9444023922834126  0.7221715139439780  0.8750000000000000
  0.7777302501517118  0.2222773530643068  0.8750000000000000
  0.1102320273720035  0.7217826803520571  0.3750000000000000
  0.4456356243747045  0.7261596601235932  0.3750000000000000
  0.2860074707546428  0.2250624771280015  0.3750000000000000
  0.7778727521866792  0.7230589175769665  0.3750000000000000
  0.6135824241452792  0.2166615899364055  0.3750000000000000
  0.9493744135623701  0.2244111385550245  0.3750000000000000
  0.1111932035977290  0.3889283087265234  0.8750000000000000
  0.2777850664798959  0.8889107392884495  0.8750000000000000
  0.6110647589664276  0.8888171691738675  0.8750000000000000
  0.4445620104698619  0.3889476719017539  0.8750000000000000
  0.9444339581377685  0.8888370097415780  0.8750000000000000
  0.1111446263638732  0.8881055088129630  0.3750000000000000
  0.7776880073390406  0.3889479173581717  0.8750000000000000
  0.4456400125111525  0.8894866729221831  0.3750000000000000
  0.2860074707546428  0.3942783269597739  0.3750000000000000
  0.2787302407133183  0.5580163813138186  0.3750000000000000
  0.6075840377872774  0.3761670064502065  0.3750000000000000
  0.7814216134699870  0.8919461187998927  0.3750000000000000
  0.9463712648587131  0.3898156082034926  0.3750000000000000
  0.1111270553819615  0.5555667015830149  0.8750000000000000
  0.2778378007211772  0.0556244990078670  0.8750000000000000
  0.7776795762615661  0.5555064547980193  0.8750000000000000
  0.6110647589664276  0.0555809231252477  0.8750000000000000
  0.9444781088545781  0.0555520028547266  0.8750000000000000
  0.0551066182793582  0.1109291621170611  0.1252987842410463
  0.5551950930852187  0.6105913203976211  0.1251857516811095
  0.3885971762139305  0.1112965963967417  0.1252744608907794
  0.8879789048178859  0.6106561190760860  0.1250992863793951
  0.7217480683400167  0.1108982622364324  0.1252546954423334
  0.0549209523241348  0.7774944293296383  0.6245844492985724
  0.3884901948692483  0.7774687665330190  0.6246508945467857
  0.2218561171762308  0.2775947252545513  0.6248948793149230
  0.7216359325923555  0.7774152129610794  0.6252485357240913
  0.5551950930852187  0.2779371060210014  0.6248142483190113
  0.8883584989769613  0.2775001422942670  0.6247332145694284
  0.2217340174585142  0.7775336753957782  0.1255575115398686
  0.0551066182793582  0.2775107894955003  0.1252987842410463
  0.3885272580597754  0.2779070651270467  0.1257595010723717
  0.5551393291575788  0.7774154461906950  0.1249763621306726
  0.8881825408898005  0.7774317745827219  0.1249695595393398
  0.7216359325923555  0.2775540529646630  0.1247514642763515
  0.0550438530096243  0.9442638949656628  0.6246732824197514
  0.3884901948692483  0.9443547616701632  0.6246508945467857
  0.2218494306019321  0.4440753841091510  0.6248300127563605
  0.5548999741221520  0.4441166537277403  0.6178918266767676
  0.7217480683400167  0.9441831394368133  0.6247453045581137
  0.8881825408898005  0.4440840996406837  0.6250304404607662
  0.0550438530096250  0.4441132913772921  0.1253267175804632
  0.2218012520910370  0.9443855502361556  0.1253990781903703
  0.5551304659856070  0.9442318996593382  0.1252610116814120
  0.3885272580597754  0.4439535262663640  0.1257595010723708
  0.8883584989769613  0.9441916900164594  0.1252667854305722
  0.7212183642686708  0.4439490690202026  0.1248498611089658
  0.2218012520910377  0.6107490351882677  0.6246009218094363
  0.0551066182793582  0.1109291621170611  0.6247012157592959
  0.5551950930852187  0.6105913203976211  0.6248142483190146
  0.3885971762139305  0.1112965963967425  0.6247255391090483
  0.8879789048178859  0.6106561190760860  0.6249007136207336
  0.0549209523241329  0.6107598563277977  0.1254155507013911
  0.7217480683400167  0.1108982622364324  0.6247453045581137
  0.2218494306019330  0.1111073798259393  0.1251699872435223
  0.3885971762139305  0.6106339131501859  0.1252744608907789
  0.7212183642686708  0.6106026285817400  0.1248498611089658
  0.5551393291575788  0.1110572163003496  0.1249763621306726
  0.3885971762139305  0.6106339131501859  0.6247255391090483
  0.8884066810806182  0.1108700072071779  0.1254294499601927
  0.2217340174585142  0.7775336753957782  0.6244424884598848
  0.0551066182793582  0.2775107894955003  0.6247012157592959
  0.3885272580597754  0.2779070651270467  0.6242404989275624
  0.5551393291575788  0.7774154461906950  0.6250236378693849
  0.8881825408898005  0.7774317745827219  0.6250304404607662
  0.7216359325923555  0.2775540529646630  0.6252485357240913
  0.0549209523241342  0.7774944293296383  0.1254155507013911
  0.3884901948692481  0.7774687665330190  0.1253491054531970
  0.2218561171762308  0.2775947252545513  0.1251051206850801
  0.7216359325923555  0.7774152129610794  0.1247514642763515
  0.5551950930852187  0.2779371060210014  0.1251857516811105
  0.8883584989769613  0.2775001422942667  0.1252667854305619
  0.0550438530096243  0.4441132913772921  0.6246732824197514
  0.2218012520910377  0.9443855502361556  0.6246009218094363
  0.5551304659856070  0.9442318996593382  0.6247389883183422
  0.3885272580597754  0.4439535262663640  0.6242404989275624
  0.8883584989769613  0.9441916900164594  0.6247332145694284
  0.0550438530096245  0.9442638949656628  0.1253267175804632
  0.7212183642686708  0.4439490690202026  0.6251501388909649
  0.3884901948692481  0.9443547616701632  0.1253491054531970
  0.2218494306019321  0.4440753841091510  0.1251699872435229
  0.2218012520910377  0.6107490351882677  0.1253990781903703
  0.5548999741221520  0.4441166537277403  0.1321081733230955
  0.7217480683400167  0.9441831394368133  0.1252546954423336
  0.8881825408898005  0.4440840996406837  0.1249695595393398
  0.0549209523241329  0.6107598563277977  0.6245844492985724
  0.2218494306019321  0.1111073798259393  0.6248300127563605
  0.7212183642686708  0.6106026285817400  0.6251501388909649
  0.5551393291575788  0.1110572163003496  0.6250236378693849
  0.8884066810806182  0.1108700072071779  0.6245705500397958
 
  0.00000000E+00  0.00000000E+00  0.00000000E+00
  0.00000000E+00  0.00000000E+00  0.00000000E+00
  0.00000000E+00  0.00000000E+00  0.00000000E+00
  0.00000000E+00  0.00000000E+00  0.00000000E+00
  0.00000000E+00  0.00000000E+00  0.00000000E+00
  0.00000000E+00  0.00000000E+00  0.00000000E+00
  0.00000000E+00  0.00000000E+00  0.00000000E+00
  0.00000000E+00  0.00000000E+00  0.00000000E+00
  0.00000000E+00  0.00000000E+00  0.00000000E+00
  0.00000000E+00  0.00000000E+00  0.00000000E+00
  0.00000000E+00  0.00000000E+00  0.00000000E+00
  0.00000000E+00  0.00000000E+00  0.00000000E+00
  0.00000000E+00  0.00000000E+00  0.00000000E+00
  0.00000000E+00  0.00000000E+00  0.00000000E+00
  0.00000000E+00  0.00000000E+00  0.00000000E+00
  0.00000000E+00  0.00000000E+00  0.00000000E+00
  0.00000000E+00  0.00000000E+00  0.00000000E+00
  0.00000000E+00  0.00000000E+00  0.00000000E+00
  0.00000000E+00  0.00000000E+00  0.00000000E+00
  0.00000000E+00  0.00000000E+00  0.00000000E+00
  0.00000000E+00  0.00000000E+00  0.00000000E+00
  0.00000000E+00  0.00000000E+00  0.00000000E+00
  0.00000000E+00  0.00000000E+00  0.00000000E+00
  0.00000000E+00  0.00000000E+00  0.00000000E+00
  0.00000000E+00  0.00000000E+00  0.00000000E+00
  0.00000000E+00  0.00000000E+00  0.00000000E+00
  0.00000000E+00  0.00000000E+00  0.00000000E+00
  0.00000000E+00  0.00000000E+00  0.00000000E+00
  0.00000000E+00  0.00000000E+00  0.00000000E+00
  0.00000000E+00  0.00000000E+00  0.00000000E+00
  0.00000000E+00  0.00000000E+00  0.00000000E+00
  0.00000000E+00  0.00000000E+00  0.00000000E+00
  0.00000000E+00  0.00000000E+00  0.00000000E+00
  0.00000000E+00  0.00000000E+00  0.00000000E+00
  0.00000000E+00  0.00000000E+00  0.00000000E+00
  0.00000000E+00  0.00000000E+00  0.00000000E+00
  0.00000000E+00  0.00000000E+00  0.00000000E+00
  0.00000000E+00  0.00000000E+00  0.00000000E+00
  0.00000000E+00  0.00000000E+00  0.00000000E+00
  0.00000000E+00  0.00000000E+00  0.00000000E+00
  0.00000000E+00  0.00000000E+00  0.00000000E+00
  0.00000000E+00  0.00000000E+00  0.00000000E+00
  0.00000000E+00  0.00000000E+00  0.00000000E+00
  0.00000000E+00  0.00000000E+00  0.00000000E+00
  0.00000000E+00  0.00000000E+00  0.00000000E+00
  0.00000000E+00  0.00000000E+00  0.00000000E+00
  0.00000000E+00  0.00000000E+00  0.00000000E+00
  0.00000000E+00  0.00000000E+00  0.00000000E+00
  0.00000000E+00  0.00000000E+00  0.00000000E+00
  0.00000000E+00  0.00000000E+00  0.00000000E+00
  0.00000000E+00  0.00000000E+00  0.00000000E+00
  0.00000000E+00  0.00000000E+00  0.00000000E+00
  0.00000000E+00  0.00000000E+00  0.00000000E+00
  0.00000000E+00  0.00000000E+00  0.00000000E+00
  0.00000000E+00  0.00000000E+00  0.00000000E+00
  0.00000000E+00  0.00000000E+00  0.00000000E+00
  0.00000000E+00  0.00000000E+00  0.00000000E+00
  0.00000000E+00  0.00000000E+00  0.00000000E+00
  0.00000000E+00  0.00000000E+00  0.00000000E+00
  0.00000000E+00  0.00000000E+00  0.00000000E+00
  0.00000000E+00  0.00000000E+00  0.00000000E+00
  0.00000000E+00  0.00000000E+00  0.00000000E+00
  0.00000000E+00  0.00000000E+00  0.00000000E+00
  0.00000000E+00  0.00000000E+00  0.00000000E+00
  0.00000000E+00  0.00000000E+00  0.00000000E+00
  0.00000000E+00  0.00000000E+00  0.00000000E+00
  0.00000000E+00  0.00000000E+00  0.00000000E+00
  0.00000000E+00  0.00000000E+00  0.00000000E+00
  0.00000000E+00  0.00000000E+00  0.00000000E+00
  0.00000000E+00  0.00000000E+00  0.00000000E+00
  0.00000000E+00  0.00000000E+00  0.00000000E+00
  0.00000000E+00  0.00000000E+00  0.00000000E+00
  0.00000000E+00  0.00000000E+00  0.00000000E+00
  0.00000000E+00  0.00000000E+00  0.00000000E+00
  0.00000000E+00  0.00000000E+00  0.00000000E+00
  0.00000000E+00  0.00000000E+00  0.00000000E+00
  0.00000000E+00  0.00000000E+00  0.00000000E+00
  0.00000000E+00  0.00000000E+00  0.00000000E+00
  0.00000000E+00  0.00000000E+00  0.00000000E+00
  0.00000000E+00  0.00000000E+00  0.00000000E+00
  0.00000000E+00  0.00000000E+00  0.00000000E+00
  0.00000000E+00  0.00000000E+00  0.00000000E+00
  0.00000000E+00  0.00000000E+00  0.00000000E+00
  0.00000000E+00  0.00000000E+00  0.00000000E+00
  0.00000000E+00  0.00000000E+00  0.00000000E+00
  0.00000000E+00  0.00000000E+00  0.00000000E+00
  0.00000000E+00  0.00000000E+00  0.00000000E+00
  0.00000000E+00  0.00000000E+00  0.00000000E+00
  0.00000000E+00  0.00000000E+00  0.00000000E+00
  0.00000000E+00  0.00000000E+00  0.00000000E+00
  0.00000000E+00  0.00000000E+00  0.00000000E+00
  0.00000000E+00  0.00000000E+00  0.00000000E+00
  0.00000000E+00  0.00000000E+00  0.00000000E+00
  0.00000000E+00  0.00000000E+00  0.00000000E+00
  0.00000000E+00  0.00000000E+00  0.00000000E+00
  0.00000000E+00  0.00000000E+00  0.00000000E+00
  0.00000000E+00  0.00000000E+00  0.00000000E+00
  0.00000000E+00  0.00000000E+00  0.00000000E+00
  0.00000000E+00  0.00000000E+00  0.00000000E+00
  0.00000000E+00  0.00000000E+00  0.00000000E+00
  0.00000000E+00  0.00000000E+00  0.00000000E+00
  0.00000000E+00  0.00000000E+00  0.00000000E+00
  0.00000000E+00  0.00000000E+00  0.00000000E+00
  0.00000000E+00  0.00000000E+00  0.00000000E+00
  0.00000000E+00  0.00000000E+00  0.00000000E+00
  0.00000000E+00  0.00000000E+00  0.00000000E+00
  0.00000000E+00  0.00000000E+00  0.00000000E+00
  0.00000000E+00  0.00000000E+00  0.00000000E+00
  0.00000000E+00  0.00000000E+00  0.00000000E+00
  0.00000000E+00  0.00000000E+00  0.00000000E+00
  0.00000000E+00  0.00000000E+00  0.00000000E+00
  0.00000000E+00  0.00000000E+00  0.00000000E+00
  0.00000000E+00  0.00000000E+00  0.00000000E+00
  0.00000000E+00  0.00000000E+00  0.00000000E+00
  0.00000000E+00  0.00000000E+00  0.00000000E+00
  0.00000000E+00  0.00000000E+00  0.00000000E+00
  0.00000000E+00  0.00000000E+00  0.00000000E+00
  0.00000000E+00  0.00000000E+00  0.00000000E+00
  0.00000000E+00  0.00000000E+00  0.00000000E+00
  0.00000000E+00  0.00000000E+00  0.00000000E+00
  0.00000000E+00  0.00000000E+00  0.00000000E+00
  0.00000000E+00  0.00000000E+00  0.00000000E+00
  0.00000000E+00  0.00000000E+00  0.00000000E+00
  0.00000000E+00  0.00000000E+00  0.00000000E+00
  0.00000000E+00  0.00000000E+00  0.00000000E+00
  0.00000000E+00  0.00000000E+00  0.00000000E+00
  0.00000000E+00  0.00000000E+00  0.00000000E+00
  0.00000000E+00  0.00000000E+00  0.00000000E+00
  0.00000000E+00  0.00000000E+00  0.00000000E+00
  0.00000000E+00  0.00000000E+00  0.00000000E+00
  0.00000000E+00  0.00000000E+00  0.00000000E+00
  0.00000000E+00  0.00000000E+00  0.00000000E+00
  0.00000000E+00  0.00000000E+00  0.00000000E+00
  0.00000000E+00  0.00000000E+00  0.00000000E+00
  0.00000000E+00  0.00000000E+00  0.00000000E+00
  0.00000000E+00  0.00000000E+00  0.00000000E+00
  0.00000000E+00  0.00000000E+00  0.00000000E+00
  0.00000000E+00  0.00000000E+00  0.00000000E+00
  0.00000000E+00  0.00000000E+00  0.00000000E+00
  0.00000000E+00  0.00000000E+00  0.00000000E+00
  0.00000000E+00  0.00000000E+00  0.00000000E+00
  0.00000000E+00  0.00000000E+00  0.00000000E+00
  0.00000000E+00  0.00000000E+00  0.00000000E+00
  0.00000000E+00  0.00000000E+00  0.00000000E+00
  0.00000000E+00  0.00000000E+00  0.00000000E+00
  0.00000000E+00  0.00000000E+00  0.00000000E+00
  0.00000000E+00  0.00000000E+00  0.00000000E+00
  0.00000000E+00  0.00000000E+00  0.00000000E+00
  0.00000000E+00  0.00000000E+00  0.00000000E+00
  0.00000000E+00  0.00000000E+00  0.00000000E+00
  0.00000000E+00  0.00000000E+00  0.00000000E+00
  0.00000000E+00  0.00000000E+00  0.00000000E+00
  0.00000000E+00  0.00000000E+00  0.00000000E+00
  0.00000000E+00  0.00000000E+00  0.00000000E+00
  0.00000000E+00  0.00000000E+00  0.00000000E+00
  0.00000000E+00  0.00000000E+00  0.00000000E+00
  0.00000000E+00  0.00000000E+00  0.00000000E+00
  0.00000000E+00  0.00000000E+00  0.00000000E+00
  0.00000000E+00  0.00000000E+00  0.00000000E+00
  0.00000000E+00  0.00000000E+00  0.00000000E+00
  0.00000000E+00  0.00000000E+00  0.00000000E+00
  0.00000000E+00  0.00000000E+00  0.00000000E+00
  0.00000000E+00  0.00000000E+00  0.00000000E+00
  0.00000000E+00  0.00000000E+00  0.00000000E+00
  0.00000000E+00  0.00000000E+00  0.00000000E+00
  0.00000000E+00  0.00000000E+00  0.00000000E+00
  0.00000000E+00  0.00000000E+00  0.00000000E+00
  0.00000000E+00  0.00000000E+00  0.00000000E+00
  0.00000000E+00  0.00000000E+00  0.00000000E+00
  0.00000000E+00  0.00000000E+00  0.00000000E+00
  0.00000000E+00  0.00000000E+00  0.00000000E+00
  0.00000000E+00  0.00000000E+00  0.00000000E+00
  0.00000000E+00  0.00000000E+00  0.00000000E+00
  0.00000000E+00  0.00000000E+00  0.00000000E+00
  0.00000000E+00  0.00000000E+00  0.00000000E+00
  0.00000000E+00  0.00000000E+00  0.00000000E+00
  0.00000000E+00  0.00000000E+00  0.00000000E+00
  0.00000000E+00  0.00000000E+00  0.00000000E+00
  0.00000000E+00  0.00000000E+00  0.00000000E+00
  0.00000000E+00  0.00000000E+00  0.00000000E+00
  0.00000000E+00  0.00000000E+00  0.00000000E+00
  0.00000000E+00  0.00000000E+00  0.00000000E+00
  0.00000000E+00  0.00000000E+00  0.00000000E+00
  0.00000000E+00  0.00000000E+00  0.00000000E+00
  0.00000000E+00  0.00000000E+00  0.00000000E+00
  0.00000000E+00  0.00000000E+00  0.00000000E+00
  0.00000000E+00  0.00000000E+00  0.00000000E+00
  0.00000000E+00  0.00000000E+00  0.00000000E+00
  0.00000000E+00  0.00000000E+00  0.00000000E+00
  0.00000000E+00  0.00000000E+00  0.00000000E+00
  0.00000000E+00  0.00000000E+00  0.00000000E+00
  0.00000000E+00  0.00000000E+00  0.00000000E+00
  0.00000000E+00  0.00000000E+00  0.00000000E+00
  0.00000000E+00  0.00000000E+00  0.00000000E+00
  0.00000000E+00  0.00000000E+00  0.00000000E+00
  0.00000000E+00  0.00000000E+00  0.00000000E+00
  0.00000000E+00  0.00000000E+00  0.00000000E+00
  0.00000000E+00  0.00000000E+00  0.00000000E+00
  0.00000000E+00  0.00000000E+00  0.00000000E+00
  0.00000000E+00  0.00000000E+00  0.00000000E+00
  0.00000000E+00  0.00000000E+00  0.00000000E+00
  0.00000000E+00  0.00000000E+00  0.00000000E+00
  0.00000000E+00  0.00000000E+00  0.00000000E+00
  0.00000000E+00  0.00000000E+00  0.00000000E+00
  0.00000000E+00  0.00000000E+00  0.00000000E+00
  0.00000000E+00  0.00000000E+00  0.00000000E+00
  0.00000000E+00  0.00000000E+00  0.00000000E+00
  0.00000000E+00  0.00000000E+00  0.00000000E+00
  0.00000000E+00  0.00000000E+00  0.00000000E+00
  0.00000000E+00  0.00000000E+00  0.00000000E+00
  0.00000000E+00  0.00000000E+00  0.00000000E+00
  0.00000000E+00  0.00000000E+00  0.00000000E+00
  0.00000000E+00  0.00000000E+00  0.00000000E+00
  0.00000000E+00  0.00000000E+00  0.00000000E+00
  0.00000000E+00  0.00000000E+00  0.00000000E+00
  0.00000000E+00  0.00000000E+00  0.00000000E+00
  0.00000000E+00  0.00000000E+00  0.00000000E+00
  0.00000000E+00  0.00000000E+00  0.00000000E+00
  0.00000000E+00  0.00000000E+00  0.00000000E+00
  0.00000000E+00  0.00000000E+00  0.00000000E+00
  0.00000000E+00  0.00000000E+00  0.00000000E+00
  0.00000000E+00  0.00000000E+00  0.00000000E+00
  0.00000000E+00  0.00000000E+00  0.00000000E+00
  0.00000000E+00  0.00000000E+00  0.00000000E+00
  0.00000000E+00  0.00000000E+00  0.00000000E+00
  0.00000000E+00  0.00000000E+00  0.00000000E+00
  0.00000000E+00  0.00000000E+00  0.00000000E+00
  0.00000000E+00  0.00000000E+00  0.00000000E+00
  0.00000000E+00  0.00000000E+00  0.00000000E+00
  0.00000000E+00  0.00000000E+00  0.00000000E+00
  0.00000000E+00  0.00000000E+00  0.00000000E+00
  0.00000000E+00  0.00000000E+00  0.00000000E+00
  0.00000000E+00  0.00000000E+00  0.00000000E+00
  0.00000000E+00  0.00000000E+00  0.00000000E+00
  0.00000000E+00  0.00000000E+00  0.00000000E+00
  0.00000000E+00  0.00000000E+00  0.00000000E+00
  0.00000000E+00  0.00000000E+00  0.00000000E+00
  0.00000000E+00  0.00000000E+00  0.00000000E+00
  0.00000000E+00  0.00000000E+00  0.00000000E+00
  0.00000000E+00  0.00000000E+00  0.00000000E+00
  0.00000000E+00  0.00000000E+00  0.00000000E+00
  0.00000000E+00  0.00000000E+00  0.00000000E+00
  0.00000000E+00  0.00000000E+00  0.00000000E+00
  0.00000000E+00  0.00000000E+00  0.00000000E+00
  0.00000000E+00  0.00000000E+00  0.00000000E+00
  0.00000000E+00  0.00000000E+00  0.00000000E+00
  0.00000000E+00  0.00000000E+00  0.00000000E+00
  0.00000000E+00  0.00000000E+00  0.00000000E+00