 Sn N B 
 1.0
 14.936314146199660   0.000000000000000   0.000000000000000
 -7.468157073099825  12.935227489513863   0.000000000000000
  0.000000000000001   0.000000000000001  13.341276283792837
 Sn N B 
   1 143 143
Cartesian
  4.195886058317020   5.296990942928038   5.002978606422314 
  1.246678353696281   0.719366715524696   1.668317278972009 
  4.980575189086856   7.187916332643088   1.666560121828514 
  6.225556026282570   0.719419442782499   1.668291976404505 
  9.959370963971629   7.187406394687593   1.668631632346166 
 11.204243487224328   0.719782998075715   1.665905192146035 
 -3.732144041124613   9.343225623881244   8.338510686133748 
  1.246427835533981   9.343522446557616   8.337665236440216 
  2.491140887976218   2.875155559638895   8.334337200682709 
  6.225324406344379   9.343063540513853   8.335854553594691 
  7.470066688047887   2.875335680533443   8.336130295945788 
 12.448848977460459   2.875766054029953   8.339191710795721 
 -1.242825206177558   9.343413223634487   1.666876666490143 
  0.001932652301907   2.875610814996336   1.670374726158970 
  4.980852731085299   2.875295038571693   1.673139026850400 
  3.735761396740375   9.343342176051394   1.669826916898933 
  8.714776316074653   9.343107559673468   1.668631632346166 
  9.959377456156718   2.875697716842713   1.667012977827309 
 -4.976740801011041  11.498845106601907   8.338652482598576 
  0.001992978297715  11.499130637235632   8.340797791147551 
  1.246142507434266   5.031556010078543   8.334337200682709 
  6.225820047856087   5.031088969390837   8.339397091016220 
  4.980730313435698  11.498967520993199   8.338944235017411 
 11.204008432827328   5.031675229835177   8.339212667454415 
 -1.243056663903805   5.031714263391469   1.668317278972009 
 -2.487322157498869  11.498945173187584   1.666876666490143 
  2.491267145169743  11.499201186536700   1.666273320671148 
  3.735571351614395   5.031228123101218   1.692948733299278 
  7.470177098010669  11.498860808630395   1.666744545390118 
  8.714606887396073   5.031499808941179   1.670102659249923 
  0.001661879065320   7.187677448347442   8.335810387331680 
  1.246678353696282   0.719366715524696   8.337639933872605 
  4.980575189086857   7.187916332643089   8.339397091016220 
  6.225556026282571   0.719419442782500   8.337665236440216 
  9.959370963971629   7.187406394687594   8.337325580498275 
 -2.487621188138933   7.187563470991210   1.667304730245958 
 11.204243487224328   0.719782998075715   8.340052020698501 
  3.736156512976668   0.719343001819608   1.670146825512961 
  2.491119221287896   7.187639974847611   1.673139026850400 
  7.469973491503993   7.187286203829141   1.671420179845976 
  8.714848232320611   0.719642538566575   1.666273320671148 
  2.491119221287896   7.187639974847611   8.332818185994228 
 13.693682328927558   0.719651442332677   1.666765502048733 
 -1.242825206177557   9.343413223634487   8.339080546354671 
  0.001932652301907   2.875610814996337   8.335582486685858 
  4.980852731085299   2.875295038571694   8.332818185994228 
  3.735761396740375   9.343342176051394   8.336130295945788 
  8.714776316074653   9.343107559673468   8.337325580498275 
  9.959377456156718   2.875697716842714   8.338944235017411 
 -3.732144041124613   9.343225623881244   1.667446526710786 
  1.246427835533980   9.343522446557616   1.668291976404505 
  2.491140887976217   2.875155559638894   1.671620012162105 
  6.225324406344378   9.343063540513853   1.670102659249923 
  7.470066688047886   2.875335680533442   1.669826916898933 
 12.448848977460459   2.875766054029952   1.666765502048733 
 -1.243056663903805   5.031714263391470   8.337639933872605 
 -2.487322157498868  11.498945173187584   8.339080546354671 
  2.491267145169743  11.499201186536700   8.339683892173481 
  3.735571351614396   5.031228123101219   8.313008479545269 
  7.470177098010669  11.498860808630395   8.339212667454415 
 -4.976740801011042  11.498845106601907   1.667304730245958 
  8.714606887396073   5.031499808941180   8.335854553594691 
  0.001992978297714  11.499130637235632   1.665159421697076 
  1.246142507434265   5.031556010078542   1.671620012162105 
  0.001661879065267   7.187677448347531   1.670146825512961 
  6.225820047856086   5.031088969390836   1.666560121828514 
  4.980730313435697  11.498967520993199   1.667012977827309 
 11.204008432827328   5.031675229835177   1.666744545390118 
 -2.487621188138933   7.187563470991211   8.338652482598576 
  3.736156512976668   0.719343001819608   8.335810387331680 
  7.469973491503993   7.187286203829142   8.334537032998453 
  8.714848232320611   0.719642538566576   8.339683892173481 
 13.693682328927558   0.719651442332678   8.339191710795721 
  0.000077241476585   1.438671177131379   5.002978606422314 
  3.671439231503669   7.960123330620017   5.002978606422314 
  4.993842278513659   1.340782037036979   5.002978606422314 
  8.698594178998420   7.896630688486169   5.002978606422314 
  9.961359007815798   1.430477363959269   5.002978606422314 
 -4.979425290339823  10.060390920784839  11.673616748318732 
 -0.000505276615917  10.060423526024840  11.673616748318732 
  1.243985261448187   3.592710223234865  11.673616748318732 
  4.978161507341756  10.060396431206314  11.673616748318732 
  6.222808690287397   3.592743825176389  11.673616748318732 
 11.201638255020057   3.592758802399080  11.673616748318732 
 -2.515583242966315  10.045607328183124   5.002978606422314 
 -1.243421283206819   3.592473801019991   5.002978606422314 
  3.779110788902341   3.415559808121741   5.002978606422314 
  2.460526146485410  10.087683029805136   5.002978606422314 
  7.458562311274679  10.061745215512136   5.002978606422314 
  8.720957181068894   3.576176125819824   5.002978606422314 
 -6.224150234061007  12.216266916367017  11.673616748318732 
 -1.245213056073113  12.216320640620957  11.673616748318732 
 -0.000653589145094   5.748544998434928  11.673616748318732 
  4.978038384320779   5.748566798893687  11.673616748318732 
  3.733493502410847  12.216272435981674  11.673616748318732 
  9.956930074158198   5.748610045795128  11.673616748318732 
 -2.507834345908257   5.744884034640240   5.002978606422314 
 -3.751792905756863  12.181577064186543   5.002978606422314 
  1.236608315498316  12.211936134514216   5.002978606422314 
  2.358131265396335   5.876768539349356   5.002978606422314 
  6.218902941872812  12.221872508994162   5.002978606422314 
  7.479288932915422   5.747903978598457   5.002978606422314 
 -1.245272751406698   7.904454901498418  11.673616748318732 
 -0.000693317958950   1.436873154148111  11.673616748318732 
  3.733426076002922   7.904480992595769  11.673616748318732 
  4.978151315326985   1.436947211915920  11.673616748318732 
  8.712189995006806   7.904480236518333  11.673616748318732 
 -3.758381401663887   7.895060254042856   5.002978606422314 
  9.956963329283795   1.436906496465767  11.673616748318732 
  2.479417145713825   1.398977550420279   5.002978606422314 
  1.168686753235236   7.966145753672071   5.002978606422314 
  6.228089639404229   7.915044725354143   5.002978606422314 
  7.477067151345813   1.398779131134229   5.002978606422314 
  1.244122756046598   7.904474393502809  11.673616748318732 
 12.448525085035063   1.438169313519419   5.002978606422314 
 -2.489954951690351  10.060403829050683  11.673616748318732 
 -1.245363696504648   3.592705488465263  11.673616748318732 
  3.733423304668722   3.592810805791968  11.673616748318732 
  2.488814971490279  10.060406497644616  11.673616748318732 
  7.467521682154847  10.060391861533304  11.673616748318732 
  8.712253944204505   3.592758610401305  11.673616748318732 
 -4.999410720555167  10.044586088045163   5.002978606422314 
 -0.034480658908017  10.071228358430737   5.002978606422314 
  1.257120232226182   3.600293702149415   5.002978606422314 
  4.968152272868412  10.076224897716958   5.002978606422314 
  6.240002946292946   3.511240474127101   5.002978606422314 
 11.204517854506657   3.586534173339213   5.002978606422314 
 -2.490020392178427   5.748564308167206  11.673616748318732 
 -3.734720392070327  12.216304697910324  11.673616748318732 
  1.244165611181413  12.216299341211132  11.673616748318732 
  2.488791390107913   5.748576518533029  11.673616748318732 
  6.222853829024589  12.216266388155940  11.673616748318732 
 -6.236244421293023  12.202679716658404   5.002978606422314 
  7.467499612728243   5.748610666990891  11.673616748318732 
 -1.252843487871745  12.181494680249280   5.002978606422314 
 -0.038127020188303   5.759491956061406   5.002978606422314 
 -1.283884021268291   7.907033487801673   5.002978606422314 
  3.730123549602031  12.223293771510324   5.002978606422314 
  9.953622427644023   5.740174326021687   5.002978606422314 
 -3.734701299900937   7.904465727944794  11.673616748318732 
  2.488673517836749   1.436903972483901  11.673616748318732 
  6.222806989411225   7.904481530382172  11.673616748318732 
  7.467589394070055   1.436916238311984  11.673616748318732 
 12.446323836551032   1.436898422114627  11.673616748318732 
  1.231813420592916   0.700611939932581   5.002978606422314 
  4.952895290909461   7.385744807506175   5.002978606422314 
  6.239507355753245   0.660730361007517   5.002978606422314 
  9.946209620597081   7.176839344735183   5.002978606422314 
 11.206914755756518   0.721325255681852   5.002978606422314 
 -3.734568866567413   9.341825650259098  11.673616748318732 
  1.243843779582623   9.342056744642674  11.673616748318732 
  2.488010997780193   2.873539399569107  11.673616748318732 
  6.223033880749790   9.342459542390024  11.673616748318732 
  7.468098938000667   2.873668352419441  11.673616748318732 
 12.446331934352489   2.873996635477414  11.673616748318732 
 -1.273633510645156   9.340057025111813   5.002978606422314 
  0.005776122671861   2.877829843649233   5.002978606422314 
  5.005034407227107   2.737639298046559   5.002978606422314 
  3.704097576126702   9.404544394832138   5.002978606422314 
  8.699044310685586   9.336993026939293   5.002978606422314 
  9.971067217937419   2.861482174689133   5.002978606422314 
 -4.979462028482827  11.497682134460936  11.673616748318732 
 -0.000536537936612  11.497670220356731  11.673616748318732 
  1.243177926659181   5.029653525692714  11.673616748318732 
  6.223310364928071   5.029720725277350  11.673616748318732 
  4.978221317107245  11.498176062199239  11.673616748318732 
 11.201937175955297   5.029842626163808  11.673616748318732 
 -1.266731242560483   5.028218241494366   5.002978606422314 
 -2.505632862913612  11.473942498132740   5.002978606422314 
  2.481015221677601  11.516620130935516   5.002978606422314 
  7.457421696482648  11.500706225110378   5.002978606422314 
  8.738198102947269   5.009334439004556   5.002978606422314 
 -0.001078730194308   7.185842245281663  11.673616748318732 
  1.243688184557348   0.718098706245248  11.673616748318732 
  4.978135413461937   7.186427005528819  11.673616748318732 
  6.222994663214055   0.717914435641503  11.673616748318732 
  9.957360012389280   7.185955611255709  11.673616748318732 
 -2.516458830194212   7.179819791913250   5.002978606422314 
 11.201822428523386   0.718385199183115  11.673616748318732 
  3.720667775333259   0.670413501444463   5.002978606422314 
  2.383996691087006   7.277409790955540   5.002978606422314 
  7.472526330933530   7.188760086360707   5.002978606422314 
  8.724807518931023   0.702054640185318   5.002978606422314 
  2.488198633645034   7.186228256703827  11.673616748318732 
 13.691904968227492   0.724467117340979   5.002978606422314 
 -1.245389203951111   9.341787594802632  11.673616748318732 
 -0.001176460806459   2.873815767706350  11.673616748318732 
  4.978169853488359   2.873471594550903  11.673616748318732 
  3.733333573213693   9.342471718579038  11.673616748318732 
  8.712514424976129   9.342091416233227  11.673616748318732 
  9.957437534570865   2.873920591681266  11.673616748318732 
 -3.756136393568688   9.329373632739163   5.002978606422314 
  1.202577264527439   9.384949193183214   5.002978606422314 
  2.483021061079944   2.831804456175993   5.002978606422314 
  6.217924240670544   9.374576817455720   5.002978606422314 
  7.507237453973080   2.817312898110872   5.002978606422314 
 12.452130794003992   2.871818977007844   5.002978606422314 
 -1.245649876721450   5.029758705595161  11.673616748318732 
 -2.490011992251104  11.497537500396279  11.673616748318732 
  2.488839976169642  11.497975652750323  11.673616748318732 
  3.732965012110752   5.029723352287320  11.673616748318732 
  7.467554388240142  11.497983349397204  11.673616748318732 
 -4.997865844838980  11.477742815535825   5.002978606422314 
  8.712938546879538   5.029818154650449  11.673616748318732 
 -0.009960289435644  11.492229414892055   5.002978606422314 
  1.204539437105100   5.046199585443605   5.002978606422314 
 -0.048456680075688   7.198728558263179   5.002978606422314 
  6.383304583590526   4.908203236963891   5.002978606422314 
  4.974264173692629  11.516198922736006   5.002978606422314 
 11.199228909615499   5.019706019836527   5.002978606422314 
 -2.489988965293035   7.185788304942056  11.673616748318732 
  3.733196875870890   0.717887166111633  11.673616748318732 
  7.468041471800751   7.186170751733109  11.673616748318732 
  8.712573304428149   0.718153315446763  11.673616748318732 
 13.690891445956984   0.718356328335309  11.673616748318732 
  0.001830720163750   1.437983490543281   1.666554079041921 
  3.734131284409707   7.908329263959623   1.662584157684266 
  4.980677914676035   1.435290867694135   1.667141952891943 
  8.716613813831646   7.907034329507623   1.665248272578230 
  9.959916752362156   1.437951289526656   1.663643105447381 
 -4.975901356751634  10.062232689136570   8.341106799623574 
  0.000962910736652  10.062372783163017   8.342073794737180 
  1.245009662692565   3.593301661569082   8.336879361856074 
  4.980564697644547  10.063424092945388   8.341603718223771 
  6.226493995252516   3.591430417889754   8.343373055160241 
 11.204839132684246   3.594240216389084   8.341975535908354 
 -2.487395683380620  10.061881423298303   1.664436704988344 
 -1.243140097918372   3.594336201402120   1.666554079041921 
  3.734499720694558   3.588780033389681   1.672098392148030 
  2.489965752382341  10.063195693404971   1.664735354859133 
  7.471202183611710  10.062995734003779   1.664621969303572 
  8.716077571335948   3.593326003384213   1.664353494620843 
 -6.221089798037692  12.217514086311519   8.341072071823174 
 -1.242790856196509  12.216617499596447   8.342073794737180 
 -0.000117173947922   5.750754055257273   8.338278730490329 
  4.983077949623449   5.751476393277705   8.338754479714053 
  3.735875031282560  12.218307778865030   8.342314107397341 
  9.961025344594256   5.750495517320236   8.341335243541042 
 -2.487410093312030   5.750591138537864   1.664885141021479 
 -3.731938546323624  12.216624784803674   1.665721517806225 
  1.246384251087738  12.217580273557868   1.663038981517937 
  2.485838846823690   5.751524108357393   1.672098392148030 
  6.225737210005339  12.218297722532892   1.663981676936275 
  7.472605894502204   5.750561142799472   1.661860009673278 
 -1.243604625152256   7.906704007137746   8.340235695038189 
  0.001830720163751   1.437983490543282   8.339403133802707 
  3.734131284409707   7.908329263959624   8.343373055160241 
  4.980677914676036   1.435290867694136   8.338815259952872 
  8.716613813831646   7.907034329507624   8.340708940266211 
 -3.731344314926402   7.906596659777626   1.664850413221240 
  9.959916752362156   1.437951289526656   8.342314107397341 
  2.490854824761947   1.436263993260352   1.667678482354205 
  1.243951619547431   7.907490664835538   1.667141952891943 
  6.227049291897538   7.907928462213645   1.661860009673278 
  7.470580298900629   1.436518245918613   1.664735354859133 
  1.243951619547432   7.907490664835539   8.338815259952872 
 12.449122476952784   1.438514217903884   1.664290907166055 
 -2.487395683380619  10.061881423298303   8.341520507856178 
 -1.243140097918371   3.594336201402121   8.339403133802707 
  3.734499720694558   3.588780033389682   8.333858820696785 
  2.489965752382342  10.063195693404971   8.341221857985389 
  7.471202183611711  10.062995734003779   8.341335243541042 
  8.716077571335948   3.593326003384214   8.341603718223771 
 -4.975901356751635  10.062232689136570   1.664850413221240 
  0.000962910736652  10.062372783163017   1.663883418107649 
  1.245009662692565   3.593301661569081   1.669077850988380 
  4.980564697644546  10.063424092945388   1.664353494620843 
  6.226493995252515   3.591430417889753   1.662584157684266 
 11.204839132684246   3.594240216389083   1.663981676936275 
 -2.487410093312030   5.750591138537865   8.341072071823174 
 -3.731938546323624  12.216624784803674   8.340235695038189 
  1.246384251087739  12.217580273557868   8.342918231326783 
  2.485838846823690   5.751524108357394   8.333858820696785 
  6.225737210005340  12.218297722532892   8.341975535908354 
 -6.221089798037693  12.217514086311519   1.664885141021479 
  7.472605894502204   5.750561142799473   8.344097203171565 
 -1.242790856196510  12.216617499596447   1.663883418107649 
 -0.000117173947975   5.750754055257363   1.667678482354205 
 -1.243604625152257   7.906704007137745   1.665721517806225 
  4.983077949623448   5.751476393277704   1.667202733130574 
  3.735875031282560  12.218307778865030   1.663643105447381 
  9.961025344594256   5.750495517320235   1.664621969303572 
 -3.731344314926401   7.906596659777627   8.341106799623574 
  2.490854824761948   1.436263993260353   8.338278730490329 
  6.227049291897539   7.907928462213646   8.344097203171565 
  7.470580298900630   1.436518245918613   8.341221857985389 
 12.449122476952784   1.438514217903884   8.341666305678586 
Generated by cif2cell 2.0.0.  :  Failed to get author information, No journal information. Species order: Sn N B 
 1.0
 14.936314146199660   0.000000000000000   0.000000000000000
 -7.468157073099825  12.935227489513863   0.000000000000000
  0.000000000000001   0.000000000000001  13.341276283792837
 Sn N B 
   1 143 143
Cartesian
  4.195886058317020   5.296990942928038   5.002978606422314 
  1.246678353696281   0.719366715524696   1.668317278972009 
  4.980575189086856   7.187916332643088   1.666560121828514 
  6.225556026282570   0.719419442782499   1.668291976404505 
  9.959370963971629   7.187406394687593   1.668631632346166 
 11.204243487224328   0.719782998075715   1.665905192146035 
 -3.732144041124613   9.343225623881244   8.338510686133748 
  1.246427835533981   9.343522446557616   8.337665236440216 
  2.491140887976218   2.875155559638895   8.334337200682709 
  6.225324406344379   9.343063540513853   8.335854553594691 
  7.470066688047887   2.875335680533443   8.336130295945788 
 12.448848977460459   2.875766054029953   8.339191710795721 
 -1.242825206177558   9.343413223634487   1.666876666490143 
  0.001932652301907   2.875610814996336   1.670374726158970 
  4.980852731085299   2.875295038571693   1.673139026850400 
  3.735761396740375   9.343342176051394   1.669826916898933 
  8.714776316074653   9.343107559673468   1.668631632346166 
  9.959377456156718   2.875697716842713   1.667012977827309 
 -4.976740801011041  11.498845106601907   8.338652482598576 
  0.001992978297715  11.499130637235632   8.340797791147551 
  1.246142507434266   5.031556010078543   8.334337200682709 
  6.225820047856087   5.031088969390837   8.339397091016220 
  4.980730313435698  11.498967520993199   8.338944235017411 
 11.204008432827328   5.031675229835177   8.339212667454415 
 -1.243056663903805   5.031714263391469   1.668317278972009 
 -2.487322157498869  11.498945173187584   1.666876666490143 
  2.491267145169743  11.499201186536700   1.666273320671148 
  3.735571351614395   5.031228123101218   1.692948733299278 
  7.470177098010669  11.498860808630395   1.666744545390118 
  8.714606887396073   5.031499808941179   1.670102659249923 
  0.001661879065320   7.187677448347442   8.335810387331680 
  1.246678353696282   0.719366715524696   8.337639933872605 
  4.980575189086857   7.187916332643089   8.339397091016220 
  6.225556026282571   0.719419442782500   8.337665236440216 
  9.959370963971629   7.187406394687594   8.337325580498275 
 -2.487621188138933   7.187563470991210   1.667304730245958 
 11.204243487224328   0.719782998075715   8.340052020698501 
  3.736156512976668   0.719343001819608   1.670146825512961 
  2.491119221287896   7.187639974847611   1.673139026850400 
  7.469973491503993   7.187286203829141   1.671420179845976 
  8.714848232320611   0.719642538566575   1.666273320671148 
  2.491119221287896   7.187639974847611   8.332818185994228 
 13.693682328927558   0.719651442332677   1.666765502048733 
 -1.242825206177557   9.343413223634487   8.339080546354671 
  0.001932652301907   2.875610814996337   8.335582486685858 
  4.980852731085299   2.875295038571694   8.332818185994228 
  3.735761396740375   9.343342176051394   8.336130295945788 
  8.714776316074653   9.343107559673468   8.337325580498275 
  9.959377456156718   2.875697716842714   8.338944235017411 
 -3.732144041124613   9.343225623881244   1.667446526710786 
  1.246427835533980   9.343522446557616   1.668291976404505 
  2.491140887976217   2.875155559638894   1.671620012162105 
  6.225324406344378   9.343063540513853   1.670102659249923 
  7.470066688047886   2.875335680533442   1.669826916898933 
 12.448848977460459   2.875766054029952   1.666765502048733 
 -1.243056663903805   5.031714263391470   8.337639933872605 
 -2.487322157498868  11.498945173187584   8.339080546354671 
  2.491267145169743  11.499201186536700   8.339683892173481 
  3.735571351614396   5.031228123101219   8.313008479545269 
  7.470177098010669  11.498860808630395   8.339212667454415 
 -4.976740801011042  11.498845106601907   1.667304730245958 
  8.714606887396073   5.031499808941180   8.335854553594691 
  0.001992978297714  11.499130637235632   1.665159421697076 
  1.246142507434265   5.031556010078542   1.671620012162105 
  0.001661879065267   7.187677448347531   1.670146825512961 
  6.225820047856086   5.031088969390836   1.666560121828514 
  4.980730313435697  11.498967520993199   1.667012977827309 
 11.204008432827328   5.031675229835177   1.666744545390118 
 -2.487621188138933   7.187563470991211   8.338652482598576 
  3.736156512976668   0.719343001819608   8.335810387331680 
  7.469973491503993   7.187286203829142   8.334537032998453 
  8.714848232320611   0.719642538566576   8.339683892173481 
 13.693682328927558   0.719651442332678   8.339191710795721 
  0.000077241476585   1.438671177131379   5.002978606422314 
  3.671439231503669   7.960123330620017   5.002978606422314 
  4.993842278513659   1.340782037036979   5.002978606422314 
  8.698594178998420   7.896630688486169   5.002978606422314 
  9.961359007815798   1.430477363959269   5.002978606422314 
 -4.979425290339823  10.060390920784839  11.673616748318732 
 -0.000505276615917  10.060423526024840  11.673616748318732 
  1.243985261448187   3.592710223234865  11.673616748318732 
  4.978161507341756  10.060396431206314  11.673616748318732 
  6.222808690287397   3.592743825176389  11.673616748318732 
 11.201638255020057   3.592758802399080  11.673616748318732 
 -2.515583242966315  10.045607328183124   5.002978606422314 
 -1.243421283206819   3.592473801019991   5.002978606422314 
  3.779110788902341   3.415559808121741   5.002978606422314 
  2.460526146485410  10.087683029805136   5.002978606422314 
  7.458562311274679  10.061745215512136   5.002978606422314 
  8.720957181068894   3.576176125819824   5.002978606422314 
 -6.224150234061007  12.216266916367017  11.673616748318732 
 -1.245213056073113  12.216320640620957  11.673616748318732 
 -0.000653589145094   5.748544998434928  11.673616748318732 
  4.978038384320779   5.748566798893687  11.673616748318732 
  3.733493502410847  12.216272435981674  11.673616748318732 
  9.956930074158198   5.748610045795128  11.673616748318732 
 -2.507834345908257   5.744884034640240   5.002978606422314 
 -3.751792905756863  12.181577064186543   5.002978606422314 
  1.236608315498316  12.211936134514216   5.002978606422314 
  2.358131265396335   5.876768539349356   5.002978606422314 
  6.218902941872812  12.221872508994162   5.002978606422314 
  7.479288932915422   5.747903978598457   5.002978606422314 
 -1.245272751406698   7.904454901498418  11.673616748318732 
 -0.000693317958950   1.436873154148111  11.673616748318732 
  3.733426076002922   7.904480992595769  11.673616748318732 
  4.978151315326985   1.436947211915920  11.673616748318732 
  8.712189995006806   7.904480236518333  11.673616748318732 
 -3.758381401663887   7.895060254042856   5.002978606422314 
  9.956963329283795   1.436906496465767  11.673616748318732 
  2.479417145713825   1.398977550420279   5.002978606422314 
  1.168686753235236   7.966145753672071   5.002978606422314 
  6.228089639404229   7.915044725354143   5.002978606422314 
  7.477067151345813   1.398779131134229   5.002978606422314 
  1.244122756046598   7.904474393502809  11.673616748318732 
 12.448525085035063   1.438169313519419   5.002978606422314 
 -2.489954951690351  10.060403829050683  11.673616748318732 
 -1.245363696504648   3.592705488465263  11.673616748318732 
  3.733423304668722   3.592810805791968  11.673616748318732 
  2.488814971490279  10.060406497644616  11.673616748318732 
  7.467521682154847  10.060391861533304  11.673616748318732 
  8.712253944204505   3.592758610401305  11.673616748318732 
 -4.999410720555167  10.044586088045163   5.002978606422314 
 -0.034480658908017  10.071228358430737   5.002978606422314 
  1.257120232226182   3.600293702149415   5.002978606422314 
  4.968152272868412  10.076224897716958   5.002978606422314 
  6.240002946292946   3.511240474127101   5.002978606422314 
 11.204517854506657   3.586534173339213   5.002978606422314 
 -2.490020392178427   5.748564308167206  11.673616748318732 
 -3.734720392070327  12.216304697910324  11.673616748318732 
  1.244165611181413  12.216299341211132  11.673616748318732 
  2.488791390107913   5.748576518533029  11.673616748318732 
  6.222853829024589  12.216266388155940  11.673616748318732 
 -6.236244421293023  12.202679716658404   5.002978606422314 
  7.467499612728243   5.748610666990891  11.673616748318732 
 -1.252843487871745  12.181494680249280   5.002978606422314 
 -0.038127020188303   5.759491956061406   5.002978606422314 
 -1.283884021268291   7.907033487801673   5.002978606422314 
  3.730123549602031  12.223293771510324   5.002978606422314 
  9.953622427644023   5.740174326021687   5.002978606422314 
 -3.734701299900937   7.904465727944794  11.673616748318732 
  2.488673517836749   1.436903972483901  11.673616748318732 
  6.222806989411225   7.904481530382172  11.673616748318732 
  7.467589394070055   1.436916238311984  11.673616748318732 
 12.446323836551032   1.436898422114627  11.673616748318732 
  1.231813420592916   0.700611939932581   5.002978606422314 
  4.952895290909461   7.385744807506175   5.002978606422314 
  6.239507355753245   0.660730361007517   5.002978606422314 
  9.946209620597081   7.176839344735183   5.002978606422314 
 11.206914755756518   0.721325255681852   5.002978606422314 
 -3.734568866567413   9.341825650259098  11.673616748318732 
  1.243843779582623   9.342056744642674  11.673616748318732 
  2.488010997780193   2.873539399569107  11.673616748318732 
  6.223033880749790   9.342459542390024  11.673616748318732 
  7.468098938000667   2.873668352419441  11.673616748318732 
 12.446331934352489   2.873996635477414  11.673616748318732 
 -1.273633510645156   9.340057025111813   5.002978606422314 
  0.005776122671861   2.877829843649233   5.002978606422314 
  5.005034407227107   2.737639298046559   5.002978606422314 
  3.704097576126702   9.404544394832138   5.002978606422314 
  8.699044310685586   9.336993026939293   5.002978606422314 
  9.971067217937419   2.861482174689133   5.002978606422314 
 -4.979462028482827  11.497682134460936  11.673616748318732 
 -0.000536537936612  11.497670220356731  11.673616748318732 
  1.243177926659181   5.029653525692714  11.673616748318732 
  6.223310364928071   5.029720725277350  11.673616748318732 
  4.978221317107245  11.498176062199239  11.673616748318732 
 11.201937175955297   5.029842626163808  11.673616748318732 
 -1.266731242560483   5.028218241494366   5.002978606422314 
 -2.505632862913612  11.473942498132740   5.002978606422314 
  2.481015221677601  11.516620130935516   5.002978606422314 
  7.457421696482648  11.500706225110378   5.002978606422314 
  8.738198102947269   5.009334439004556   5.002978606422314 
 -0.001078730194308   7.185842245281663  11.673616748318732 
  1.243688184557348   0.718098706245248  11.673616748318732 
  4.978135413461937   7.186427005528819  11.673616748318732 
  6.222994663214055   0.717914435641503  11.673616748318732 
  9.957360012389280   7.185955611255709  11.673616748318732 
 -2.516458830194212   7.179819791913250   5.002978606422314 
 11.201822428523386   0.718385199183115  11.673616748318732 
  3.720667775333259   0.670413501444463   5.002978606422314 
  2.383996691087006   7.277409790955540   5.002978606422314 
  7.472526330933530   7.188760086360707   5.002978606422314 
  8.724807518931023   0.702054640185318   5.002978606422314 
  2.488198633645034   7.186228256703827  11.673616748318732 
 13.691904968227492   0.724467117340979   5.002978606422314 
 -1.245389203951111   9.341787594802632  11.673616748318732 
 -0.001176460806459   2.873815767706350  11.673616748318732 
  4.978169853488359   2.873471594550903  11.673616748318732 
  3.733333573213693   9.342471718579038  11.673616748318732 
  8.712514424976129   9.342091416233227  11.673616748318732 
  9.957437534570865   2.873920591681266  11.673616748318732 
 -3.756136393568688   9.329373632739163   5.002978606422314 
  1.202577264527439   9.384949193183214   5.002978606422314 
  2.483021061079944   2.831804456175993   5.002978606422314 
  6.217924240670544   9.374576817455720   5.002978606422314 