 B N C 
 1.0
 14.936314146199660   0.000000000000000   0.000000000000000
 -7.468157073099825  12.935227489513863   0.000000000000000
  0.000000000000001   0.000000000000001  13.341276283792837
 B N C 
 143 144   1
Cartesian
  1.245906727371388   0.725071428794126   5.002978606422314 
  4.959595448652204   7.191043310251166   5.002978606422314 
  6.222250345728442   0.725071428794126   5.002978606422314 
  9.955398381530006   7.184919346442730   5.002978606422314 
 11.202235609649751   0.718623749417456   5.002978606422314 
 -3.734078536549858   9.342108742426666  11.673616748318732 
  1.244613352566399   9.342429085087739  11.673616748318732 
  2.489139356140113   2.874190793265509  11.673616748318732 
  6.223543720533454   9.342429085087739  11.673616748318732 
  7.468555241938446   2.874265114783615  11.673616748318732 
 12.446745468634809   2.874365796780940  11.673616748318732 
 -1.242479104793523   9.340910726482814   5.002978606422314 
 -0.010821061809077   2.868247454721313   5.002978606422314 
  4.992521307582146   2.888698935109493   5.002978606422314 
  3.734078536549978   9.354603828323516   5.002978606422314 
  8.710636177893360   9.340910726482814   5.002978606422314 
  9.959834941227786   2.873512699690499   5.002978606422314 
 -4.978823998293192  11.497872047660262  11.673616748318732 
  0.000065387617114  11.498017742237293  11.673616748318732 
  1.244306229328076   5.030305015848803  11.673616748318732 
  6.223850843771864   5.030305015848803  11.673616748318732 
  4.978750984080495  11.498203062108235  11.673616748318732 
 11.202235609649755   5.030290742805331  11.673616748318732 
 -1.238502050453560   5.028193658757064   5.002978606422314 
 -2.489316332913210  11.500496154354472   5.002978606422314 
  2.489090297490117  11.500456223262523   5.002978606422314 
  7.467924115678554  11.498114488708831   5.002978606422314 
  8.706659123553498   5.028193658757064   5.002978606422314 
 -0.000253011815564   7.186383570614209  11.673616748318732 
  1.244455167109381   0.718394735172598  11.673616748318732 
  4.978911663362009   7.186602928651845  11.673616748318732 
  6.223701905990451   0.718394735172598  11.673616748318732 
  9.957662553642772   7.186245898694740  11.673616748318732 
 -2.487241308430172   7.184919346442730   5.002978606422314 
 11.202235609649751   0.718623749417457  11.673616748318732 
  3.734078536549915   0.725319503112678   5.002978606422314 
  2.508561624447647   7.191043310251166   5.002978606422314 
  7.462358380302291   7.182889617326784   5.002978606422314 
  8.714846702167936   0.717129814813120   5.002978606422314 
  2.489245409737814   7.186602928651845  11.673616748318732 
 13.689624517131554   0.717129814813120   5.002978606422314 
 -1.244760018799600   9.342208280924991  11.673616748318732 
 -0.000398168838507   2.874265114783615  11.673616748318732 
  4.979017716959707   2.874190793265509  11.673616748318732 
  3.734078536549974   9.342568508198926  11.673616748318732 
  8.712917091899438   9.342208280924991  11.673616748318732 
  9.957725750664700   2.874365796780940  11.673616748318732 
 -3.734078536549858   9.342108742426664   5.002978606422314 
  1.249669758724925   9.337833650214950   5.002978606422314 
  2.475635765517687   2.888698935109493   5.002978606422314 
  6.218487314374928   9.337833650214950   5.002978606422314 
  7.478978134909029   2.868247454721313   5.002978606422314 
 12.444636278071707   2.873512699690499   5.002978606422314 
 -1.245010016874093   5.030274917505806  11.673616748318732 
 -2.489333074806522  11.497872047660262  11.673616748318732 
  2.489406089019450  11.498203062108235  11.673616748318732 
  3.734078536549918   5.030366245922021  11.673616748318732 
  7.468091685482727  11.498017742237293  11.673616748318732 
 -4.978840740186506  11.500496154354472   5.002978606422314 
  8.713167089974030   5.030274917505806  11.673616748318732 
  0.000232957421288  11.498114488708831   5.002978606422314 
  1.250118853415462   5.011356492405484   5.002978606422314 
  0.005798692797545   7.182889617326784   5.002978606422314 
  6.218038219684479   5.011356492405484   5.002978606422314 
  4.979066775609813  11.500456223262523   5.002978606422314 
 11.202235609649740   5.030097249862252   5.002978606422314 
 -2.489505480542936   7.186245898694740  11.673616748318732 
  3.734078536549908   0.718331596537814  11.673616748318732 
  7.468410084915400   7.186383570614209  11.673616748318732 
  8.713053303134169   0.718529878876968  11.673616748318732 
 13.691417916165323   0.718529878876968  11.673616748318732 
 -0.000452956134146   1.436387856292322   1.668264331242912 
  3.734078536549926   7.906381055697365   1.667132238394709 
  4.979053296861988   1.435282675135661   1.667949309197838 
  8.714058921421898   7.905559261687053   1.668545469557892 
  9.957726899370542   1.437141188305997   1.668765552450938 
 -4.978399542810328  10.060517810349465   8.337109018800430 
 -0.000857703130342  10.061066776753337   8.337359716993364 
  1.243376649624270   3.592358841034433   8.338824974449933 
  4.979289376279523  10.061554584634385   8.337692881601715 
  6.224780423475580   3.592358841034433   8.338824974449933 
 11.202235609649687   3.593372841157490   8.337262764875684 
 -2.489757530289477  10.060517810349465   1.668848194044197 
 -1.245663795863754   3.593156296839524   1.668264331242912 
  3.734078536549865   3.591882870524564   1.663972146934416 
  2.488867696820317  10.061554584634385   1.668264331242912 
  7.469014776230075  10.061066776753337   1.668597495851263 
  8.713820868963573   3.593156296839524   1.668264331242912 
 -6.223324875241478  12.215693804942065   8.337359716993364 
 -1.244832197858339  12.215693804942065   8.337359716993364 
 -0.001842544635255   5.749728261814485   8.338007903646790 
  4.979841682565772   5.749607933620795   8.341985065910212 
  3.734078536549930  12.216816361154235   8.337191660393689 
  9.958261114921696   5.749565645584616   8.337359716993364 
 -2.490104041821863   5.749565645584615   1.668597495851263 
 -3.734078536549910  12.215207703906001   1.668545469557892 
  1.244472793596851  12.216476693061269   1.668694447968944 
  2.488315390534062   5.749607933620794   1.663972146934416 
  6.223684279502975  12.216476693061269   1.668694447968944 
  7.469999617735091   5.749728261814484   1.667949309197838 
 -1.245901848322166   7.905559261687054   8.337411743286737 
 -0.000452956134146   1.436387856292322   8.337692881601715 
  3.734078536549927   7.906381055697365   8.338824974449933 
  4.979053296861989   1.435282675135662   8.338007903646790 
  8.714058921421898   7.905559261687054   8.337411743286737 
 -3.734078536549904   7.905290606581163   1.668848194044197 
  9.957726899370542   1.437141188305998   8.337191660393689 
  2.489103776237739   1.435282675135661   1.667949309197838 
  1.243132215676810   7.906087800816086   1.667949309197838 
  6.225024857422907   7.906087800816086   1.667949309197838 
  7.468610029233976   1.436387856292322   1.668264331242912 
  1.243132215676810   7.906087800816087   8.338007903646790 
 12.446744319928859   1.437141188305997   1.668765552450938 
 -2.489757530289477  10.060517810349465   8.337109018800430 
 -1.245663795863754   3.593156296839525   8.337692881601715 
  3.734078536549865   3.591882870524565   8.341985065910212 
  2.488867696820317  10.061554584634385   8.337692881601715 
  7.469014776230076  10.061066776753337   8.337359716993364 
  8.713820868963573   3.593156296839525   8.337692881601715 
 -4.978399542810329  10.060517810349465   1.668848194044197 
 -0.000857703130342  10.061066776753337   1.668597495851263 
  1.243376649624270   3.592358841034432   1.667132238394709 
  4.979289376279522  10.061554584634385   1.668264331242912 
  6.224780423475579   3.592358841034432   1.667132238394709 
 11.202235609649687   3.593372841157489   1.668694447968944 
 -2.490104041821862   5.749565645584616   8.337359716993364 
 -3.734078536549910  12.215207703906001   8.337411743286737 
  1.244472793596852  12.216476693061269   8.337262764875684 
  2.488315390534063   5.749607933620795   8.341985065910212 
  6.223684279502976  12.216476693061269   8.337262764875684 
 -6.223324875241479  12.215693804942065   1.668597495851263 
  7.469999617735092   5.749728261814485   8.338007903646790 
 -1.244832197858339  12.215693804942065   1.668597495851263 
 -0.001842544635255   5.749728261814484   1.667949309197838 
 -1.245901848322167   7.905559261687053   1.668545469557892 
  4.979841682565771   5.749607933620794   1.663972146934416 
  3.734078536549929  12.216816361154235   1.668765552450938 
  9.958261114921696   5.749565645584615   1.668597495851263 
 -3.734078536549904   7.905290606581164   8.337109018800430 
  2.489103776237739   1.435282675135662   8.338007903646790 
  6.225024857422908   7.906087800816087   8.338007903646790 
  7.468610029233977   1.436387856292322   8.337692881601715 
 12.446744319928859   1.437141188305998   8.337191660393689 
  1.244851380597491   0.718573925962717   1.667587607055139 
  4.978768703620427   7.186021144842183   1.670715003918400 
  6.223305692502324   0.718573925962717   1.667587607055139 
  9.957583968214111   7.186324353558512   1.667000318095087 
 11.202235609649751   0.718623749417456   1.666976670009713 
 -3.734078536549858   9.342108742426664   8.339103222500050 
  1.244570429598696   9.341996358746652   8.338369605789502 
  2.489571715827997   2.874605491938267   8.335242208926228 
  6.223586643501141   9.341996358746652   8.338369605789502 
  7.467962130496788   2.874607547834116   8.337889350556438 
 12.447012862110991   2.874645535373432   8.338882700266568 
 -1.244788669990355   9.342100996515526   1.667000318095087 
  0.000194942603151   2.874607547834115   1.668067862288190 
  4.978585357271835   2.874605491938266   1.670715003918400 
  3.734078536549973   9.341883642097921   1.668067862288190 
  8.712945743090179   9.342100996515526   1.667000318095087 
  9.957458357188486   2.874645535373431   1.667074512578072 
 -4.978716761673782  11.497900877205963   8.338956894749540 
 -0.000137931303333  11.497900356003841   8.338981659408846 
  1.244881548757542   5.030472100985704   8.335242208926228 
  6.223275524342399   5.030472100985704   8.335242208926228 
  4.978859548069899  11.497831623268793   8.338882700266568 
 11.202235609649748   5.030525515272245   8.338981659408846 
 -1.244656726353677   5.030528453056784   1.667587607055139 
 -2.489440311425933  11.497900877205963   1.667000318095087 
  2.489297525030048  11.497831623268793   1.667074512578072 
  3.734078536549917   5.030366245922020   1.671824237283804 
  7.468295004403172  11.497900356003841   1.666975553435782 
  8.712813799453599   5.030528453056784   1.667587607055139 
 -0.000068920018970   7.186277285165898   8.337923196416920 
  1.244851380597492   0.718573925962717   8.338369605789502 
  4.978768703620428   7.186021144842184   8.335242208926228 
  6.223305692502325   0.718573925962717   8.338369605789502 
  9.957583968214111   7.186324353558513   8.338956894749540 
 -2.489426895114273   7.186324353558512   1.667000318095087 
 11.202235609649751   0.718623749417456   8.338980542834914 
  3.734078536549922   0.718544167434433   1.668034016427721 
  2.489388369479410   7.186021144842183   1.670715003918400 
  7.468225993118821   7.186277285165898   1.668034016427721 
  8.712677345668560   0.718621579123929   1.667074512578072 
  2.489388369479410   7.186021144842184   8.335242208926228 
 13.691793873630916   0.718621579123929   1.667074512578072 
 -1.244788669990355   9.342100996515526   8.338956894749540 
  0.000194942603152   2.874607547834116   8.337889350556438 
  4.978585357271836   2.874605491938267   8.335242208926228 
  3.734078536549973   9.341883642097921   8.337889350556438 
  8.712945743090179   9.342100996515526   8.338956894749540 
  9.957458357188486   2.874645535373432   8.338882700266568 
 -3.734078536549859   9.342108742426664   1.666853990344577 
  1.244570429598696   9.341996358746652   1.667587607055139 
  2.489571715827997   2.874605491938266   1.670715003918400 
  6.223586643501140   9.341996358746652   1.667587607055139 
  7.467962130496787   2.874607547834115   1.668067862288190 
 12.447012862110991   2.874645535373431   1.667074512578072 
 -1.244656726353677   5.030528453056785   8.338369605789502 
 -2.489440311425933  11.497900877205963   8.338956894749540 
  2.489297525030048  11.497831623268793   8.338882700266568 
  3.734078536549917   5.030366245922021   8.334132975560824 
  7.468295004403172  11.497900356003841   8.338981659408846 
 -4.978716761673783  11.497900877205963   1.667000318095087 
  8.712813799453599   5.030528453056785   8.338369605789502 
 -0.000137931303334  11.497900356003841   1.666975553435782 
  1.244881548757542   5.030472100985703   1.670715003918400 
 -0.000068920018971   7.186277285165898   1.668034016427721 
  6.223275524342398   5.030472100985703   1.670715003918400 
  4.978859548069898  11.497831623268793   1.667074512578072 
 11.202235609649748   5.030525515272244   1.666975553435782 
 -2.489426895114273   7.186324353558513   8.338956894749540 
  3.734078536549923   0.718544167434434   8.337923196416920 
  7.468225993118822   7.186277285165898   8.337923196416920 
  8.712677345668560   0.718621579123930   8.338882700266568 
 13.691793873630916   0.718621579123930   8.338882700266568 
  0.001445387859792   1.438956500926562   5.002978606422314 
  3.734078536549925   7.904199838386041   5.002978606422314 
  4.970810646694526   1.461984558365724   5.002978606422314 
  8.704187106070975   7.899859766436808   5.002978606422314 
  9.956948912719280   1.437590359108528   5.002978606422314 
 -4.978792624868387  10.060744756381501  11.673616748318732 
  0.000034261523979  10.060766326196694  11.673616748318732 
  1.244672154897667   3.593106801352784  11.673616748318732 
  4.978758919377170  10.060781544849092  11.673616748318732 
  6.223484918202152   3.593106801352784  11.673616748318732 
 11.202235609649685   3.593101281154656  11.673616748318732 
 -2.487587062175018  10.061770930699616   5.002978606422314 
 -1.242490112360239   3.593515988646276   5.002978606422314 
  3.734078536549857   3.670269013642005   5.002978606422314 
  2.490143036329901  10.058626248193407   5.002978606422314 
  7.463133926303076  10.055822720386923   5.002978606422314 
  8.710647185460072   3.593515988646276   5.002978606422314 
 -6.223510659754012  12.216616494270296  11.673616748318732 
 -1.244646413345805  12.216616494270296  11.673616748318732 
  0.000006465648145   5.748949983650995  11.673616748318732 
  4.978755184314165   5.748980643562755  11.673616748318732 
  3.734078536549912  12.216620881128522  11.673616748318732 
  9.957554934779909   5.748943406813004  11.673616748318732 
 -2.482622130826163   5.747094708335183   5.002978606422314 
 -3.734078536549910  12.226606694406494   5.002978606422314 
  1.244143214873770  12.216286410696771   5.002978606422314 
  2.556199781778444   5.710414862062068   5.002978606422314 
  6.224013858226071  12.216286410696771   5.002978606422314 
  7.442753783445253   5.743515664638983   5.002978606422314 
 -1.244678370004204   7.904852886150831  11.673616748318732 
 -0.000048712493114   1.437233765338031  11.673616748318732 
  3.734078536549919   7.904885135060680  11.673616748318732 
  4.978802800381081   1.437273104094690  11.673616748318732 
  8.712835443103923   7.904852886150831  11.673616748318732 
 -3.734078536549911   7.902784365880850   5.002978606422314 
  9.957557608702322   1.437238928318857  11.673616748318732 
  2.497346426405186   1.461984558365724   5.002978606422314 
  1.262135399799200   7.885598514761524   5.002978606422314 
  6.206021673300533   7.885598514761524   5.002978606422314 
  7.466711685240053   1.438956500926562   5.002978606422314 
  1.244730729479304   7.904875650020548  11.673616748318732 
 12.447522306580122   1.437590359108528   5.002978606422314 
 -2.489364448231433  10.060744756381501  11.673616748318732 
 -1.244729095320363   3.593083427579122  11.673616748318732 
  3.734078536549872   3.593137450640634  11.673616748318732 
  2.489398153722669  10.060781544849092  11.673616748318732 
  7.468122811575755  10.060766326196694  11.673616748318732 
  8.712886168420196   3.593083427579122  11.673616748318732 
 -4.980570010924803  10.061770930699616   5.002978606422314 
  0.005023146796657  10.055822720386923   5.002978606422314 
  1.245265639227038   3.593449449690095   5.002978606422314 
  4.978014036769949  10.058626248193407   5.002978606422314 
  6.222891433872796   3.593449449690095   5.002978606422314 
 11.202235609649703   3.593753405886460   5.002978606422314 
 -2.489397861680073   5.748943406813004  11.673616748318732 
 -3.734078536549917  12.216620454978461  11.673616748318732 
  1.244707971457965  12.216612473062675  11.673616748318732 
  2.489401888785672   5.748980643562755  11.673616748318732 
  6.223449101641876  12.216612473062675  11.673616748318732 
 -6.221723814172789  12.223408798557896   5.002978606422314 
  7.468150607451691   5.748949983650995  11.673616748318732 
 -1.246433258927031  12.223408798557896   5.002978606422314 
  0.025403289654581   5.743515664638983   5.002978606422314 
 -1.236030032971242   7.899859766436808   5.002978606422314 
  4.911957291321391   5.710414862062068   5.002978606422314 
  3.734078536549928  12.215918019549175   5.002978606422314 
  9.950779203926013   5.747094708335183   5.002978606422314 
 -3.734078536549911   7.904836714517109  11.673616748318732 
  2.489354272718646   1.437273104094690  11.673616748318732 
  6.223426343620415   7.904875650020548  11.673616748318732 
  7.468205785592946   1.437233765338031  11.673616748318732 
 12.446913610597063   1.437238928318857  11.673616748318732 
  3.734078536549917   5.030366245922021   5.002978606422314 
Generated by cif2cell 2.0.0.  :  Failed to get author information, No journal information. Species order: B N C 
 1.0
 14.936314146199660   0.000000000000000   0.000000000000000
 -7.468157073099825  12.935227489513863   0.000000000000000
  0.000000000000001   0.000000000000001  13.341276283792837
 B N C 
 143 144   1
Cartesian
  1.245906727371388   0.725071428794126   5.002978606422314 
  4.959595448652204   7.191043310251166   5.002978606422314 
  6.222250345728442   0.725071428794126   5.002978606422314 
  9.955398381530006   7.184919346442730   5.002978606422314 
 11.202235609649751   0.718623749417456   5.002978606422314 
 -3.734078536549858   9.342108742426666  11.673616748318732 
  1.244613352566399   9.342429085087739  11.673616748318732 
  2.489139356140113   2.874190793265509  11.673616748318732 
  6.223543720533454   9.342429085087739  11.673616748318732 
  7.468555241938446   2.874265114783615  11.673616748318732 
 12.446745468634809   2.874365796780940  11.673616748318732 
 -1.242479104793523   9.340910726482814   5.002978606422314 
 -0.010821061809077   2.868247454721313   5.002978606422314 
  4.992521307582146   2.888698935109493   5.002978606422314 
  3.734078536549978   9.354603828323516   5.002978606422314 
  8.710636177893360   9.340910726482814   5.002978606422314 
  9.959834941227786   2.873512699690499   5.002978606422314 
 -4.978823998293192  11.497872047660262  11.673616748318732 
  0.000065387617114  11.498017742237293  11.673616748318732 
  1.244306229328076   5.030305015848803  11.673616748318732 
  6.223850843771864   5.030305015848803  11.673616748318732 
  4.978750984080495  11.498203062108235  11.673616748318732 
 11.202235609649755   5.030290742805331  11.673616748318732 
 -1.238502050453560   5.028193658757064   5.002978606422314 
 -2.489316332913210  11.500496154354472   5.002978606422314 
  2.489090297490117  11.500456223262523   5.002978606422314 
  7.467924115678554  11.498114488708831   5.002978606422314 
  8.706659123553498   5.028193658757064   5.002978606422314 
 -0.000253011815564   7.186383570614209  11.673616748318732 
  1.244455167109381   0.718394735172598  11.673616748318732 
  4.978911663362009   7.186602928651845  11.673616748318732 
  6.223701905990451   0.718394735172598  11.673616748318732 
  9.957662553642772   7.186245898694740  11.673616748318732 
 -2.487241308430172   7.184919346442730   5.002978606422314 
 11.202235609649751   0.718623749417457  11.673616748318732 
  3.734078536549915   0.725319503112678   5.002978606422314 
  2.508561624447647   7.191043310251166   5.002978606422314 
  7.462358380302291   7.182889617326784   5.002978606422314 
  8.714846702167936   0.717129814813120   5.002978606422314 
  2.489245409737814   7.186602928651845  11.673616748318732 
 13.689624517131554   0.717129814813120   5.002978606422314 
 -1.244760018799600   9.342208280924991  11.673616748318732 
 -0.000398168838507   2.874265114783615  11.673616748318732 
  4.979017716959707   2.874190793265509  11.673616748318732 
  3.734078536549974   9.342568508198926  11.673616748318732 
  8.712917091899438   9.342208280924991  11.673616748318732 
  9.957725750664700   2.874365796780940  11.673616748318732 
 -3.734078536549858   9.342108742426664   5.002978606422314 
  1.249669758724925   9.337833650214950   5.002978606422314 
  2.475635765517687   2.888698935109493   5.002978606422314 
  6.218487314374928   9.337833650214950   5.002978606422314 
  7.478978134909029   2.868247454721313   5.002978606422314 
 12.444636278071707   2.873512699690499   5.002978606422314 
 -1.245010016874093   5.030274917505806  11.673616748318732 
 -2.489333074806522  11.497872047660262  11.673616748318732 
  2.489406089019450  11.498203062108235  11.673616748318732 
  3.734078536549918   5.030366245922021  11.673616748318732 
  7.468091685482727  11.498017742237293  11.673616748318732 
 -4.978840740186506  11.500496154354472   5.002978606422314 
  8.713167089974030   5.030274917505806  11.673616748318732 
  0.000232957421288  11.498114488708831   5.002978606422314 
  1.250118853415462   5.011356492405484   5.002978606422314 
  0.005798692797545   7.182889617326784   5.002978606422314 
  6.218038219684479   5.011356492405484   5.002978606422314 
  4.979066775609813  11.500456223262523   5.002978606422314 
 11.202235609649740   5.030097249862252   5.002978606422314 
 -2.489505480542936   7.186245898694740  11.673616748318732 
  3.734078536549908   0.718331596537814  11.673616748318732 
  7.468410084915400   7.186383570614209  11.673616748318732 
  8.713053303134169   0.718529878876968  11.673616748318732 
 13.691417916165323   0.718529878876968  11.673616748318732 
 -0.000452956134146   1.436387856292322   1.668264331242912 
  3.734078536549926   7.906381055697365   1.667132238394709 
  4.979053296861988   1.435282675135661   1.667949309197838 
  8.714058921421898   7.905559261687053   1.668545469557892 
  9.957726899370542   1.437141188305997   1.668765552450938 
 -4.978399542810328  10.060517810349465   8.337109018800430 
 -0.000857703130342  10.061066776753337   8.337359716993364 
  1.243376649624270   3.592358841034433   8.338824974449933 
  4.979289376279523  10.061554584634385   8.337692881601715 
  6.224780423475580   3.592358841034433   8.338824974449933 
 11.202235609649687   3.593372841157490   8.337262764875684 
 -2.489757530289477  10.060517810349465   1.668848194044197 
 -1.245663795863754   3.593156296839524   1.668264331242912 
  3.734078536549865   3.591882870524564   1.663972146934416 
  2.488867696820317  10.061554584634385   1.668264331242912 
  7.469014776230075  10.061066776753337   1.668597495851263 
  8.713820868963573   3.593156296839524   1.668264331242912 
 -6.223324875241478  12.215693804942065   8.337359716993364 
 -1.244832197858339  12.215693804942065   8.337359716993364 
 -0.001842544635255   5.749728261814485   8.338007903646790 
  4.979841682565772   5.749607933620795   8.341985065910212 
  3.734078536549930  12.216816361154235   8.337191660393689 
  9.958261114921696   5.749565645584616   8.337359716993364 
 -2.490104041821863   5.749565645584615   1.668597495851263 
 -3.734078536549910  12.215207703906001   1.668545469557892 
  1.244472793596851  12.216476693061269   1.668694447968944 
  2.488315390534062   5.749607933620794   1.663972146934416 
  6.223684279502975  12.216476693061269   1.668694447968944 
  7.469999617735091   5.749728261814484   1.667949309197838 
 -1.245901848322166   7.905559261687054   8.337411743286737 
 -0.000452956134146   1.436387856292322   8.337692881601715 
  3.734078536549927   7.906381055697365   8.338824974449933 
  4.979053296861989   1.435282675135662   8.338007903646790 
  8.714058921421898   7.905559261687054   8.337411743286737 
 -3.734078536549904   7.905290606581163   1.668848194044197 
  9.957726899370542   1.437141188305998   8.337191660393689 
  2.489103776237739   1.435282675135661   1.667949309197838 
  1.243132215676810   7.906087800816086   1.667949309197838 
  6.225024857422907   7.906087800816086   1.667949309197838 
  7.468610029233976   1.436387856292322   1.668264331242912 
  1.243132215676810   7.906087800816087   8.338007903646790 
 12.446744319928859   1.437141188305997   1.668765552450938 
 -2.489757530289477  10.060517810349465   8.337109018800430 
 -1.245663795863754   3.593156296839525   8.337692881601715 
  3.734078536549865   3.591882870524565   8.341985065910212 
  2.488867696820317  10.061554584634385   8.337692881601715 
  7.469014776230076  10.061066776753337   8.337359716993364 
  8.713820868963573   3.593156296839525   8.337692881601715 
 -4.978399542810329  10.060517810349465   1.668848194044197 
 -0.000857703130342  10.061066776753337   1.668597495851263 
  1.243376649624270   3.592358841034432   1.667132238394709 
  4.979289376279522  10.061554584634385   1.668264331242912 
  6.224780423475579   3.592358841034432   1.667132238394709 
 11.202235609649687   3.593372841157489   1.668694447968944 
 -2.490104041821862   5.749565645584616   8.337359716993364 
 -3.734078536549910  12.215207703906001   8.337411743286737 
  1.244472793596852  12.216476693061269   8.337262764875684 
  2.488315390534063   5.749607933620795   8.341985065910212 
  6.223684279502976  12.216476693061269   8.337262764875684 
 -6.223324875241479  12.215693804942065   1.668597495851263 
  7.469999617735092   5.749728261814485   8.338007903646790 
 -1.244832197858339  12.215693804942065   1.668597495851263 
 -0.001842544635255   5.749728261814484   1.667949309197838 
 -1.245901848322167   7.905559261687053   1.668545469557892 
  4.979841682565771   5.749607933620794   1.663972146934416 
  3.734078536549929  12.216816361154235   1.668765552450938 
  9.958261114921696   5.749565645584615   1.668597495851263 
 -3.734078536549904   7.905290606581164   8.337109018800430 
  2.489103776237739   1.435282675135662   8.338007903646790 
  6.225024857422908   7.906087800816087   8.338007903646790 
  7.468610029233977   1.436387856292322   8.337692881601715 
 12.446744319928859   1.437141188305998   8.337191660393689 
  1.244851380597491   0.718573925962717   1.667587607055139 
  4.978768703620427   7.186021144842183   1.670715003918400 
  6.223305692502324   0.718573925962717   1.667587607055139 
  9.957583968214111   7.186324353558512   1.667000318095087 
 11.202235609649751   0.718623749417456   1.666976670009713 
 -3.734078536549858   9.342108742426664   8.339103222500050 
  1.244570429598696   9.341996358746652   8.338369605789502 
  2.489571715827997   2.874605491938267   8.335242208926228 
  6.223586643501141   9.341996358746652   8.338369605789502 
  7.467962130496788   2.874607547834116   8.337889350556438 
 12.447012862110991   2.874645535373432   8.338882700266568 
 -1.244788669990355   9.342100996515526   1.667000318095087 
  0.000194942603151   2.874607547834115   1.668067862288190 
  4.978585357271835   2.874605491938266   1.670715003918400 
  3.734078536549973   9.341883642097921   1.668067862288190 
  8.712945743090179   9.342100996515526   1.667000318095087 
  9.957458357188486   2.874645535373431   1.667074512578072 
 -4.978716761673782  11.497900877205963   8.338956894749540 
 -0.000137931303333  11.497900356003841   8.338981659408846 
  1.244881548757542   5.030472100985704   8.335242208926228 
  6.223275524342399   5.030472100985704   8.335242208926228 
  4.978859548069899  11.497831623268793   8.338882700266568 
 11.202235609649748   5.030525515272245   8.338981659408846 
 -1.244656726353677   5.030528453056784   1.667587607055139 
 -2.489440311425933  11.497900877205963   1.667000318095087 
  2.489297525030048  11.497831623268793   1.667074512578072 
  3.734078536549917   5.030366245922020   1.671824237283804 
  7.468295004403172  11.497900356003841   1.666975553435782 
  8.712813799453599   5.030528453056784   1.667587607055139 
 -0.000068920018970   7.186277285165898   8.337923196416920 
  1.244851380597492   0.718573925962717   8.338369605789502 
  4.978768703620428   7.186021144842184   8.335242208926228 
  6.223305692502325   0.718573925962717   8.338369605789502 
  9.957583968214111   7.186324353558513   8.338956894749540 
 -2.489426895114273   7.186324353558512   1.667000318095087 
 11.202235609649751   0.718623749417456   8.338980542834914 
  3.734078536549922   0.718544167434433   1.668034016427721 
  2.489388369479410   7.186021144842183   1.670715003918400 
  7.468225993118821   7.186277285165898   1.668034016427721 
  8.712677345668560   0.718621579123929   1.667074512578072 
  2.489388369479410   7.186021144842184   8.335242208926228 
 13.691793873630916   0.718621579123929   1.667074512578072 
 -1.244788669990355   9.342100996515526   8.338956894749540 
  0.000194942603152   2.874607547834116   8.337889350556438 
  4.978585357271836   2.874605491938267   8.335242208926228 
  3.734078536549973   9.341883642097921   8.337889350556438 
  8.712945743090179   9.342100996515526   8.338956894749540 
  9.957458357188486   2.874645535373432   8.338882700266568 
 -3.734078536549859   9.342108742426664   1.666853990344577 
  1.244570429598696   9.341996358746652   1.667587607055139 
  2.489571715827997   2.874605491938266   1.670715003918400 