 B N 
 1.0
 17.527899999999772   0.000000000000000   0.000000000000000
 -8.763949999999658  15.179606674993195   0.000000000000000
  0.000000000000001   0.000000000000002  15.000000000000000
 B N 
  48  49
Cartesian
  7.476830783660679  14.484023898891058   1.666806560665920 
 14.989955114920868   1.473079061745353   1.666745609878380 
 13.738880161341127   3.640836072672355   1.667132394343260 
 12.486783656922348   5.808722644836623   1.667115424606755 
 11.234059902213989   7.976389452842490   1.666792624165755 
  9.980757258123887  10.144432191308210   1.666655716159335 
  8.728116055304456  12.314379955479296   1.667159025353340 
 -7.546363716524763  14.484636338681844   1.666823874089145 
 -0.034358903750056   1.474303234251722   1.666841074471005 
 -1.285220754053311   3.642664274322915   1.666885481810175 
 -2.535606535703236   5.808613127815085   1.666633464192435 
 -3.788135143837671   7.976261727711944   1.666977454744140 
 -5.041133339771316  10.144945625914627   1.666722172839615 
 -6.294067786679859  12.314533730997601   1.666825365173445 
 -5.041166897625295  14.484825969559825   1.666977337563810 
  2.470314075642355   1.475573662120307   1.667100527476290 
  1.218528784603241   3.645032895263213   1.667094836178360 
 -0.029229601522929   5.811976714358762   1.666684346286150 
 -1.281723812155536   7.975508042045131   1.666695926109435 
 -2.534842490457057  10.144443469025209   1.667076138933210 
 -3.788054111217260  12.314589010240997   1.667113366352730 
 -2.535606393218814  14.484590472726602   1.667093748184050 
  4.975809542621658   1.475415183049244   1.667105298684720 
  3.723211832293322   3.645693099488068   1.667166589998630 
  2.480614587549689   5.823187283696334   1.667125859786715 
  1.234131325834052   7.982159623772066   1.666908484724190 
 -0.028674420412384  10.143959941889900   1.667154764604495 
 -1.282084224034498  12.314371069800663   1.667326127267025 
 -0.030887887477487  14.483818534269682   1.667054767874220 
  7.480117737512876   1.474122913348139   1.667176828912170 
  6.227508389339769   3.644816458704749   1.667103825546015 
  4.962414071874427   5.823094147591794   1.666575689585535 
  2.476639960740621  10.128387022912065   1.666842015693540 
  1.222766438191067  12.313354017554611   1.666930146617175 
  2.472485020545918  14.482794258118762   1.666738919787915 
  9.983735444190659   1.472877141840834   1.667255032105935 
  8.730887150077042   3.642573611941968   1.667306280582420 
  7.474813081386456   5.811823598845140   1.666696802743320 
  6.208753474298718   7.981876078401948   1.666676800324950 
  4.969427866188006  10.128280721994857   1.667137753607595 
  3.722751019886805  12.310459272720193   1.666915313219190 
  4.973339498975234  14.483089956520184   1.667047665358380 
 12.486888460788661   1.472500335470756   1.667220845549070 
 11.234920590290523   3.640921887912925   1.667470108199370 
  9.981379303353233   5.808779411496130   1.667252053127520 
  8.727780566175383   7.975713516941916   1.666929506434050 
  7.474830510183168  10.144147833265560   1.667019958828365 
  6.223134538218982  12.313568931501921   1.667190691158765 
  8.731032202235731  13.762630800076215   1.666789965458430 
 16.241496278407777   0.750550397906058   1.666567584591435 
 14.988868544355155   2.917570159303998   1.666706556590655 
 13.737326288308697   5.085233042872142   1.666779939467130 
 12.486873324748917   7.253904177189813   1.666779932929140 
 11.236355009029092   9.423075081567708   1.666483958378010 
  9.984247235649701  11.593027390941659   1.666747122999225 
 -6.293109756675022  13.760840565943733   1.666609231502340 
  1.217535937132398   0.748930538643617   1.666753366460745 
 -0.036680887626371   2.915781363118610   1.666759101532785 
 -1.289244106334287   5.084290438899935   1.666428391984710 
 -2.540942409869205   7.253327560814558   1.666497851002275 
 -3.790565544018951   9.423056159461627   1.666738428325155 
 -5.041053168310495  11.592237503057028   1.666609591288965 
 -3.789018224062481  13.760884725056762   1.666923170608095 
  3.722991520128812   0.748188776215745   1.666973538776505 
  2.468823638305692   2.913314687771385   1.666866070688385 
  1.212228556258401   5.079097602940725   1.666875936178515 
 -0.042988616838494   7.253286696851519   1.666499422007475 
 -1.290373144695876   9.424189244539331   1.666839272024865 
 -2.538377342662451  11.593063814850300   1.666966555487595 
 -1.285133665819137  13.762549845102173   1.666927793326320 
  6.228379207963095   0.748789630074191   1.666898343177000 
  4.977328906541662   2.913138730333055   1.666883496317505 
  3.723102759600679   5.072368516292086   1.666702911823680 
  2.405804178002924   7.217463020704570   1.666465962057720 
  1.206805323681220   9.430693891467159   1.666635279583215 
 -0.036178830157577  11.596561742617205   1.666932787297860 
  1.218657868770711  13.765050215510206   1.666665053647440 
  8.732186759093032   0.750384278830710   1.666913310211455 
  7.482536714452691   2.915583225440895   1.666953004489545 
  6.233679267413306   5.078821433704479   1.666621411671885 
  5.040271816298120   7.217370240021657   1.666117939543215 
  3.723014430493127   9.498747651015638   1.666400166808020 
  2.467620979248982  11.601722155233668   1.666738466200800 
  3.722926923323156  13.765596565107552   1.666684029927870 
 11.235388120205966   0.751656886946870   1.666886139981615 
  9.984838446909000   2.917526572617701   1.667191176340380 
  8.734943074316186   5.084269982858519   1.666885989324210 
  7.489021398584314   7.253184670978717   1.666618764074655 
  6.240501728498910   9.430609508176234   1.666642103050065 
  4.978169406327700  11.601739684790394   1.666900318891005 
  6.227180336149337  13.765277246090308   1.666833572296710 
 13.738351976313371   0.751813156519772   1.666734010651545 
 12.486895132472425   2.918102239724367   1.667061239346660 
 11.236273469682359   5.085300261368767   1.667016101064735 
  9.986856198314406   7.253464437807838   1.666714023240660 
  8.736344166699457   9.424282599571976   1.666635767935170 
  7.482098183608911  11.596739109905769   1.666939860428685 
