 N In B 
 1.0
 17.527899999999772   0.000000000000000   0.000000000000000
 -8.763949999999658  15.179606674993195   0.000000000000000
  0.000000000000001   0.000000000000002  15.000000000000000
 N In B 
  48   1  48
Cartesian
  8.756845963895616  13.724786890463164   1.664825691459450 
 16.283195889522688   0.726202476514198   1.664603342970000 
 15.041547350818290   2.903836283095946   1.665881653096830 
 13.791562165068203   5.068874133523590   1.665881653096830 
 12.526500237780736   7.232990213904561   1.664603342970000 
 11.256464590683647   9.395320429320597   1.664825691459450 
 10.000892144611422  11.556726313689490   1.665187682182890 
 -6.269827971436849  13.720563856773223   1.664562019120935 
  1.251099379736481   0.704150982633173   1.664744802183090 
  0.005793791297225   2.878969570480800   1.664499024883215 
 -1.236571730283464   5.068773520499494   1.665013909369395 
 -2.511814819516824   7.239595597983783   1.664499024883215 
 -3.772610171004469   9.405471166985818   1.664744802183090 
 -5.024494631430224  11.563583239522226   1.664562019120935 
 -3.764389933735544  13.729092104110487   1.664959296247230 
  3.761205202379689   0.695129530723899   1.665659515898430 
  2.518320329401877   2.848238756511015   1.665216302753910 
  1.253541826170848   5.026711501245936   1.665207911972955 
 -0.027941729264126   7.246306128323396   1.665207911972955 
 -1.282165216049904   9.430872814664845   1.665216302753910 
 -2.525370066215125  11.583797301536455   1.665659515898430 
 -1.260518593083481  13.761879056538827   1.665406937640120 
  6.279905070296760   0.701482160969156   1.665406937640120 
  5.063504587983500   2.816806131057968   1.665468985459350 
  3.869855339820444   4.916572284977453   1.665415529021730 
  1.184831668310363   9.567169703558200   1.665415529021730 
 -0.036794538909214  11.650783352635640   1.665468985459350 
  1.245536555534225  13.801215316357672   1.664570055680295 
  8.785133270434983   0.735052496586717   1.664385457524255 
  7.566998844898376   2.852121453047912   1.664570055680295 
  6.362366270580074   4.959827758160444   1.665236905097715 
  5.165489689515392   7.045058771792593   1.665199438448820 
  3.675972212351978   9.624978721001531   1.665199438448820 
  2.468547472319116  11.704119752215442   1.665236905097715 
  3.765012381947651  13.788808880179207   1.664475915587355 
 11.288447927833730   0.752720588030551   1.664575471850520 
 10.052091615161231   2.894152537837906   1.664575471850520 
  8.815992469204305   5.040254741031696   1.664475915587355 
  7.556795406853079   7.199090103801995   1.665432638593140 
  6.224656813109252   9.376515828532746   1.665874279000815 
  5.005020117519527  11.618894554426634   1.665432638593140 
  6.265128334880276  13.754728416755231   1.664850428069220 
 13.789699667707763   0.748259297268170   1.664975946089460 
 12.545548595634262   2.906129296845256   1.665800395949940 
 11.300390707742615   5.059868891664398   1.664975946089460 
 10.036535898581604   7.222458900374749   1.664850428069220 
  8.749568781352862   9.387171773476496   1.665977607433245 
  7.496341116262170  11.557825762864562   1.665977607433245 
  3.200327389370406   7.630435742279281   1.669639387770645 
  7.514467507478667  14.461965890047852   1.664888315491410 
 15.040606708989500   1.461598230072463   1.665459371044650 
 13.794375172461603   3.627156977817496   1.666633316587680 
 12.542062051790353   5.789204521321298   1.665459371044650 
 11.273676103111132   7.950825606162550   1.664888315491410 
  9.995527507089470  10.110441910111849   1.665680184468210 
  8.745675791115112  12.275248584106658   1.665680184468210 
 -7.519952741829442  14.442325013085430   1.664903960005290 
  0.006410368981085   1.438477091993419   1.664800841485530 
 -1.235136742141039   3.626237228667199   1.665432423580935 
 -2.485142310960123   5.791310383605961   1.665432423580935 
 -3.759024611154195   7.960401790185055   1.664800841485530 
 -5.024305841133898  10.119737783328796   1.664903960005290 
 -6.277050410186710  12.278424222320032   1.664803024623630 
 -5.016020468123729  14.440222533371326   1.665237994920210 
  2.507974578345774   1.417156048667028   1.665591285258540 
  1.260554133384029   3.583201164297548   1.664973278382255 
  0.024011087743290   5.796588670493299   1.665099331326135 
 -1.274567198229461   7.974160114003934   1.664973278382255 
 -2.526707071627520  10.137480466355781   1.665591285258540 
 -3.774363183926229  12.289609031553193   1.665237994920210 
 -2.509749578355737  14.453476371685763   1.665563168388705 
  5.028670654528245   1.398846862491001   1.665963599392050 
  3.813917074053432   3.513839635213855   1.665763484050305 
  2.585860153766520   5.535899758308156   1.666766917215615 
  1.079172400317836   8.145559498423175   1.666766917215615 
 -0.057308136671628  10.218998387731423   1.665763484050305 
 -1.282215253878642  12.329621896622575   1.665963599392050 
 -0.004582972233910  14.486493406523980   1.665072778505085 
  7.535392315624085   1.426873120139709   1.665072778505085 
  6.318895780004511   3.544011434181864   1.665207561051405 
  5.123023854286647   5.657249140955491   1.665696618681045 
  2.452845898684020  10.282133025309795   1.665696618681045 
  1.220664323242060  12.374407346040627   1.665207561051405 
  2.512062172839729  14.496578692316103   1.664666411944680 
 10.037494731397826   1.458121043856114   1.664595711818460 
  8.802449001861614   3.601309105187739   1.664666411944680 
  7.563604186457690   5.750441211944376   1.665367561700910 
  6.272215068187325   7.899401429502132   1.665858870294225 
  4.969202346660360  10.156285666095512   1.665858870294225 
  3.753842765677246  12.349141557451944   1.665367561700910 
  5.020290876988787  14.486256388791711   1.664782176245490 
 12.540774382128792   1.466739483778811   1.665425003537790 
 11.296598344677482   3.621715594204272   1.665425003537790 
 10.047623976858338   5.778660033244606   1.664782176245490 
  8.777441007044079   7.937734254922226   1.665777903814260 
  7.474179458280784  10.097945384741367   1.666402015621560 
  6.255012516701369  12.306708558655213   1.665777903814260 
