 B Pb N 
 1.0
 14.936314146199660   0.000000000000000   0.000000000000000
 -7.468157073099825  12.935227489513863   0.000000000000000
  0.000000000000001   0.000000000000001  13.341276283792837
 B Pb N 
 143   1 143
Cartesian
  1.235913899629271   0.701845193638736   5.002978606422314 
  4.934907514893477   7.442972803488397   5.002978606422314 
  6.244162663391373   0.652334499025987   5.002978606422314 
  9.943569300341256   7.175305748567902   5.002978606422314 
 11.213811000775253   0.725306804599749   5.002978606422314 
 -3.733862848802194   9.342233269805838  11.673616748318732 
  1.244580478370314   9.342333308699084  11.673616748318732 
  2.488964723209331   2.874202076663724  11.673616748318732 
  6.223717118135604   9.342769872578527  11.673616748318732 
  7.468628509366174   2.874172949268964  11.673616748318732 
 12.447182781840183   2.874444883114478  11.673616748318732 
 -1.276935858263724   9.340711651455056   5.002978606422314 
  0.014267513015421   2.882732350149829   5.002978606422314 
  5.011398716797039   2.721722523927185   5.002978606422314 
  3.696645024144717   9.427026215436292   5.002978606422314 
  8.696396017317610   9.335473240607353   5.002978606422314 
  9.980860009483354   2.859358534809794   5.002978606422314 
 -4.978719959706323  11.498182189598909  11.673616748318732 
  0.000095014922906  11.498034847570260  11.673616748318732 
  1.244228684572187   5.030148137595288  11.673616748318732 
  6.223792346034444   5.030215852379349  11.673616748318732 
  4.978924816397810  11.498562597985527  11.673616748318732 
 11.202737958824144   5.030244104392886  11.673616748318732 
 -1.263612974003457   5.031152733654443   5.002978606422314 
 -2.506717113679600  11.470755268031208   5.002978606422314 
  2.481907651579828  11.524994198131575   5.002978606422314 
  7.459375840585134  11.504616478645300   5.002978606422314 
  8.747190523108767   5.003132580640223   5.002978606422314 
 -0.000198734848201   7.186188924527059  11.673616748318732 
  1.244551112969016   0.718690766658317  11.673616748318732 
  4.978805196663648   7.186596849859927  11.673616748318732 
  6.223602524106735   0.718414153478013  11.673616748318732 
  9.958093691832451   7.186337833978108  11.673616748318732 
 -2.518828189773302   7.180381748943345   5.002978606422314 
 11.202537042608487   0.718797781817334  11.673616748318732 
  3.722568616547026   0.664983639254360   5.002978606422314 
  2.373394515138460   7.290879831780051   5.002978606422314 
  7.467247611893784   7.185712416502246   5.002978606422314 
  8.732505888806807   0.698640473553907   5.002978606422314 
  2.489028095735932   7.186400837792936  11.673616748318732 
 13.698426596419459   0.730010259431279   5.002978606422314 
 -1.244657078773714   9.342154786913962  11.673616748318732 
 -0.000194550580771   2.874382673839531  11.673616748318732 
  4.978734044141079   2.874103639248736  11.673616748318732 
  3.734035352586804   9.342678042409922  11.673616748318732 
  8.713212279285187   9.342535689908097  11.673616748318732 
  9.958124034026664   2.874336572045089  11.673616748318732 
 -3.759122800825451   9.327649429705509   5.002978606422314 
  1.197633888583898   9.393178738850912   5.002978606422314 
  2.489033480911525   2.831540347381343   5.002978606422314 
  6.217049483857151   9.385465410939171   5.002978606422314 
  7.522981005748766   2.799617888469101   5.002978606422314 
 12.460192109967023   2.874695301650869   5.002978606422314 
 -1.244705673157315   5.030209993314766  11.673616748318732 
 -2.489327931966073  11.497987943343247  11.673616748318732 
  2.489477154307059  11.498314954417889  11.673616748318732 
  3.733749947282818   5.030176534820192  11.673616748318732 
  7.468302470019945  11.498476108590120  11.673616748318732 
 -4.998563855564695  11.475409911434703   5.002978606422314 
  8.713548919399422   5.030254690488830  11.673616748318732 
 -0.009709965574668  11.492373939440585   5.002978606422314 
  1.207316922095370   5.051538548153284   5.002978606422314 
 -0.052208658064490   7.203089666137926   5.002978606422314 
  6.423871593911096   4.864011367984863   5.002978606422314 
  4.977321443381568  11.525741548928474   5.002978606422314 
 11.203592360563171   5.019443231504566   5.002978606422314 
 -2.489184870451863   7.186180927784632  11.673616748318732 
  3.733937106577377   0.718475924813953  11.673616748318732 
  7.468684126146107   7.186541788392527  11.673616748318732 
  8.713185737360622   0.718535477066537  11.673616748318732 
 13.691705063541937   0.718869060055478  11.673616748318732 
  0.000214566834800   1.437268549287967   1.666984024623725 
  3.732270365170105   7.906760781246779   1.653023341447603 
  4.978794907092056   1.434886050269196   1.664837617110223 
  8.714862254561869   7.906023066291648   1.665639814629188 
  9.958168794205561   1.436788840407532   1.665867646864921 
 -4.977541852689115  10.061419940736080   8.339209201427979 
 -0.000766545432856  10.061217972919410   8.339265794313214 
  1.243759811184673   3.592580059464475   8.342778779612196 
  4.978642590608565  10.062572607349713   8.342365023401696 
  6.224205189757919   3.590603055910420   8.352933871397026 
 11.203298574711390   3.593105458249126   8.339435136147195 
 -2.489061877356327  10.060919445757674   1.666769021281100 
 -1.244567331872110   3.593294042190405   1.666984024623725 
  3.732665180976256   3.589249141943805   1.656789656010517 
  2.488057572689283  10.062117752471790   1.665083228985052 
  7.469483190485173  10.062188906378791   1.666256197188424 
  8.714379109661190   3.592087152660021   1.663592189442919 
 -6.222776614973776  12.216866735038657   8.338889179716457 
 -1.244655679288807  12.215697151740775   8.339265794313214 
 -0.001223765722717   5.749459897294445   8.340368645953552 
  4.979659378162794   5.749502680124652   8.359657243828623 
  3.733994341736397  12.217375227256397   8.340089565979692 
  9.959467114811229   5.749410239416296   8.339701015656203 
 -2.488814124427491   5.749453987856022   1.667068033128157 
 -3.733686586240832  12.216028967246858   1.667136206350511 
  1.244467537155817  12.216473658253598   1.666236803697054 
  2.485327836889655   5.749700796079837   1.656789656010517 
  6.223984201642652  12.217530939262209   1.666522076697446 
  7.470275271976592   5.749201004927155   1.655457368022184 
 -1.244994638251248   7.905488068941308   8.338821006494117 
  0.000214566834800   1.437268549287968   8.338973188220889 
  3.732270365170106   7.906760781246780   8.352933871397026 
  4.978794907092057   1.434886050269196   8.341119595734419 
  8.714862254561869   7.906023066291649   8.340317398215452 
 -3.732868423656978   7.905582322821427   1.666748011416648 
  9.958168794205561   1.436788840407533   8.340089565979692 
  2.489180755202171   1.435952735653278   1.665588566891089 
  1.242659533581706   7.906062341144493   1.664837617110223 
  6.224706066684911   7.906590152835551   1.655457368022184 
  7.468692684822256   1.435404684295911   1.665083228985052 
  1.242659533581706   7.906062341144493   8.341119595734419 
 12.447411353174916   1.437526300130174   1.666483216265736 
 -2.489061877356327  10.060919445757674   8.339188191563542 
 -1.244567331872110   3.593294042190406   8.338973188220889 
  3.732665180976257   3.589249141943806   8.349167556834111 
  2.488057572689284  10.062117752471790   8.340873983859588 
  7.469483190485174  10.062188906378791   8.339701015656203 
  8.714379109661190   3.592087152660022   8.342365023401696 
 -4.977541852689116  10.061419940736080   1.666748011416648 
 -0.000766545432857  10.061217972919410   1.666691418531414 
  1.243759811184673   3.592580059464475   1.663178433232419 
  4.978642590608565  10.062572607349713   1.663592189442919 
  6.224205189757918   3.590603055910419   1.653023341447603 
 11.203298574711390   3.593105458249125   1.666522076697446 
 -2.488814124427491   5.749453987856023   8.338889179716457 
 -3.733686586240831  12.216028967246858   8.338821006494117 
  1.244467537155817  12.216473658253598   8.339720409147574 
  2.485327836889655   5.749700796079837   8.349167556834111 
  6.223984201642653  12.217530939262209   8.339435136147195 
 -6.222776614973777  12.216866735038657   1.667068033128157 
  7.470275271976593   5.749201004927156   8.350499844822444 
 -1.244655679288807  12.215697151740775   1.666691418531414 
 -0.001223765722718   5.749459897294444   1.665588566891089 
 -1.244994638251248   7.905488068941307   1.667136206350511 
  4.979659378162793   5.749502680124651   1.646299969016004 
  3.733994341736397  12.217375227256397   1.665867646864921 
  9.959467114811229   5.749410239416295   1.666256197188424 
 -3.732868423656978   7.905582322821428   8.339209201427979 
  2.489180755202171   1.435952735653279   8.340368645953552 
  6.224706066684912   7.906590152835552   8.350499844822444 
  7.468692684822257   1.435404684295911   8.340873983859588 
 12.447411353174916   1.437526300130174   8.339473996578878 
  4.272383627374452   5.341156835015706   5.002978606422314 
  1.244903317007915   0.718412433345860   1.669253296738402 
  4.978787478822136   7.187107800921761   1.653933425655341 
  6.223841535741919   0.718355103568817   1.669681603766226 
  9.957733714824549   7.186397328353102   1.670883246319388 
 11.202470470198618   0.718759346218565   1.668567065544315 
 -3.733883374453606   9.342221419315479   8.336634360980986 
  1.244648845466453   9.342569823801549   8.336275609078401 
  2.489299331781509   2.874073929456870   8.341675335342520 
  6.223602710134812   9.342265737064604   8.335474705059944 
  7.468539293456755   2.874178288871745   8.337768319434963 
 12.447117501802467   2.874698580181524   8.336828303399253 
 -1.244599747907720   9.342347223057658   1.669506139156136 
  0.000145660386969   2.874579094733336   1.668877291003115 
  4.979264725353417   2.874212187911386   1.664715833914240 
  3.733995368863732   9.342598109364577   1.668188893409679 
  8.713083814421370   9.342194193486964   1.670883246319388 
  9.957799583571687   2.874554900047414   1.669361408081740 
 -4.978499543526629  11.497916018471981   8.336467642698446 
  0.000177448951836  11.498082440879060   8.336785902363026 
  1.244285010121710   5.030501990722558   8.341675335342520 
  6.224225983713350   5.029945032747545   8.352023787189299 
  4.978951668766695  11.498172451648081   8.336595804762888 
 11.202365868296086   5.030599357114875   8.335896124121890 
 -1.244770614857172   5.030654177615995   1.669253296738402 
 -2.489132611944043  11.497941375257795   1.669506139156136 
  2.489454798121670  11.498261632012971   1.669189505756248 
  3.733493289460698   5.030028353357509   1.661308991232989 
  7.468424082637922  11.497976242379318   1.670061088722739 
  8.713055121237003   5.030407678010733   1.670482507784671 
 -0.000032966107415   7.186636581521029   8.336377934734054 
  1.244903317007915   0.718412433345860   8.336703916106226 
  4.978787478822137   7.187107800921762   8.352023787189299 
  6.223841535741920   0.718355103568817   8.336275609078401 
  9.957733714824549   7.186397328353103   8.335073966525240 
 -2.489305173319688   7.186504899359114   1.669489570146180 
 11.202470470198618   0.718759346218566   8.337390147300313 
  3.734407673276729   0.718395656257641   1.669579278110574 
  2.489387442241512   7.186806146872794   1.664715833914240 
  7.468309794228535   7.186325667759166   1.669144884639965 
  8.713128380710685   0.718542777244504   1.669189505756248 
  2.489387442241512   7.186806146872795   8.341241378930388 
 13.691892131628007   0.718685677350932   1.669128909445374 
 -1.244599747907719   9.342347223057658   8.336451073688478 
  0.000145660386969   2.874579094733337   8.337079921841525 
  4.979264725353418   2.874212187911386   8.341241378930388 
  3.733995368863732   9.342598109364577   8.337768319434963 
  8.713083814421370   9.342194193486964   8.335073966525240 
  9.957799583571687   2.874554900047415   8.336595804762888 
 -3.733883374453607   9.342221419315479   1.669322851863655 
  1.244648845466452   9.342569823801549   1.669681603766226 
  2.489299331781509   2.874073929456869   1.664281877502095 
  6.223602710134811   9.342265737064604   1.670482507784671 
  7.468539293456754   2.874178288871744   1.668188893409679 
 12.447117501802467   2.874698580181523   1.669128909445374 
 -1.244770614857172   5.030654177615996   8.336703916106226 
 -2.489132611944042  11.497941375257795   8.336451073688478 
  2.489454798121671  11.498261632012971   8.336767707088367 
  3.733493289460699   5.030028353357510   8.344648221611651 
  7.468424082637923  11.497976242379318   8.335896124121890 
 -4.978499543526630  11.497916018471981   1.669489570146180 
  8.713055121237003   5.030407678010734   8.335474705059944 
  0.000177448951836  11.498082440879060   1.669171310481602 
  1.244285010121709   5.030501990722557   1.664281877502095 
 -0.000032966107415   7.186636581521028   1.669579278110574 
  6.224225983713350   5.029945032747544   1.653933425655341 
  4.978951668766694  11.498172451648081   1.669361408081740 
 11.202365868296086   5.030599357114874   1.670061088722739 
 -2.489305173319688   7.186504899359115   8.336467642698446 
  3.734407673276730   0.718395656257641   8.336377934734054 
  7.468309794228536   7.186325667759167   8.336812328204662 
  8.713128380710685   0.718542777244505   8.336767707088367 
 13.691892131628007   0.718685677350933   8.336828303399253 
  0.006396078665624   1.442915962347335   5.002978606422314 
  3.658533734816811   7.988540641678801   5.002978606422314 
  4.999378654763027   1.327944312763806   5.002978606422314 
  8.692480792168187   7.893101122953841   5.002978606422314 
  9.967603040050591   1.430228367696335   5.002978606422314 
 -4.978732553877699  10.060806042825524  11.673616748318732 
  0.000173437846748  10.060805753615334  11.673616748318732 
  1.244769716184844   3.593163128388198  11.673616748318732 
  4.978919131898675  10.060824738060388  11.673616748318732 
  6.223597595242334   3.593190742082806  11.673616748318732 
 11.202360159944178   3.593170447072816  11.673616748318732 
 -2.519009453784241  10.043629204445457   5.002978606422314 
 -1.236585772781629   3.595823681940022   5.002978606422314 
  3.789289129170923   3.390001210603797   5.002978606422314 
  2.455348723173480  10.099897222189327   5.002978606422314 
  7.457961407666672  10.064514326378559   5.002978606422314 
  8.729116010607784   3.570744882125707   5.002978606422314 
 -6.223426636668154  12.216679365437546  11.673616748318732 
 -1.244542680038281  12.216717310792111  11.673616748318732 
  0.000093258037227   5.748999922852128  11.673616748318732 
  4.978885804145627   5.749056056957603  11.673616748318732 
  3.734195584962912  12.216678647345793  11.673616748318732 
  9.957678107472733   5.749018761196814  11.673616748318732 
 -2.506294047955542   5.745922578387522   5.002978606422314 
 -3.752407016013636  12.177019362524870   5.002978606422314 
  1.237905193703414  12.212684887494847   5.002978606422314 
  2.341086040795037   5.898362539349010   5.002978606422314 
  6.222759445169406  12.227349875657469   5.002978606422314 
  7.481252443077302   5.740021493735461   5.002978606422314 
 -1.244574799344687   7.904864706630803  11.673616748318732 
  0.000058881197288   1.437290424134103  11.673616748318732 
  3.734207569874630   7.904940745874876  11.673616748318732 
  4.978889302546555   1.437366927954827  11.673616748318732 
  8.712966866833913   7.904928763676711  11.673616748318732 
 -3.762346328136477   7.893589102584080   5.002978606422314 
  9.957666159920468   1.437311412109338  11.673616748318732 
  2.483543239959560   1.396874334487014   5.002978606422314 
  1.160337146012684   7.977359258285324   5.002978606422314 
  6.222244962348934   7.920686417466306   5.002978606422314 
  7.485056240581237   1.388188254827908   5.002978606422314 
  1.244855234408407   7.904903651163250  11.673616748318732 
 12.454909057901476   1.441855101972358   5.002978606422314 
 -2.489291864902560  10.060786662385954  11.673616748318732 
 -1.244626230518416   3.593148277050261  11.673616748318732 
  3.734209950851825   3.593211392373424  11.673616748318732 
  2.489541495664255  10.060814582498098  11.673616748318732 
  7.468249656732819  10.060835319685852  11.673616748318732 
  8.713003681099194   3.593200579087115  11.673616748318732 
 -5.002667238327590  10.041887936725177   5.002978606422314 
 -0.038633236109737  10.074068223392683   5.002978606422314 
  1.265522062075522   3.605144500874479   5.002978606422314 
  4.967528092624719  10.086006273209650   5.002978606422314 
  6.258160311233340   3.485855330619004   5.002978606422314 
 11.211189644831212   3.587135319832202   5.002978606422314 
 -2.489301402109154   5.748984737356261  11.673616748318732 
 -3.734016514384210  12.216704239560691  11.673616748318732 
  1.244828029499110  12.216681788605056  11.673616748318732 
  2.489531631355637   5.749057480820283  11.673616748318732 
  6.223571276231331  12.216685753822661  11.673616748318732 
 -6.234574867048682  12.203494381941393   5.002978606422314 
  7.468324504554425   5.749084918464700  11.673616748318732 
 -1.252460381272415  12.176478510420738   5.002978606422314 
 -0.037885411493287   5.764116866463228   5.002978606422314 
 -1.288138161818481   7.908780503549291   5.002978606422314 
  3.733029928630172  12.228825760179355   5.002978606422314 
  9.955720096196252   5.738269372798691   5.002978606422314 
 -3.733995425437128   7.904858094299052  11.673616748318732 
  2.489440917530006   1.437323298907936  11.673616748318732 
  6.223630149148290   7.904958781922335  11.673616748318732 
  7.468306068007050   1.437341384276382  11.673616748318732 
 12.447033918471011   1.437308388102283  11.673616748318732 
Generated by cif2cell 2.0.0.  :  Failed to get author information, No journal information. Species order: B Pb N 
 1.0
 14.936314146199660   0.000000000000000   0.000000000000000
 -7.468157073099825  12.935227489513863   0.000000000000000
  0.000000000000001   0.000000000000001  13.341276283792837
 B Pb N 
 143   1 143
Cartesian
  1.235913899629271   0.701845193638736   5.002978606422314 
  4.934907514893477   7.442972803488397   5.002978606422314 
  6.244162663391373   0.652334499025987   5.002978606422314 
  9.943569300341256   7.175305748567902   5.002978606422314 
 11.213811000775253   0.725306804599749   5.002978606422314 
 -3.733862848802194   9.342233269805838  11.673616748318732 
  1.244580478370314   9.342333308699084  11.673616748318732 
  2.488964723209331   2.874202076663724  11.673616748318732 
  6.223717118135604   9.342769872578527  11.673616748318732 
  7.468628509366174   2.874172949268964  11.673616748318732 
 12.447182781840183   2.874444883114478  11.673616748318732 
 -1.276935858263724   9.340711651455056   5.002978606422314 
  0.014267513015421   2.882732350149829   5.002978606422314 
  5.011398716797039   2.721722523927185   5.002978606422314 
  3.696645024144717   9.427026215436292   5.002978606422314 
  8.696396017317610   9.335473240607353   5.002978606422314 
  9.980860009483354   2.859358534809794   5.002978606422314 
 -4.978719959706323  11.498182189598909  11.673616748318732 
  0.000095014922906  11.498034847570260  11.673616748318732 
  1.244228684572187   5.030148137595288  11.673616748318732 
  6.223792346034444   5.030215852379349  11.673616748318732 
  4.978924816397810  11.498562597985527  11.673616748318732 
 11.202737958824144   5.030244104392886  11.673616748318732 
 -1.263612974003457   5.031152733654443   5.002978606422314 
 -2.506717113679600  11.470755268031208   5.002978606422314 
  2.481907651579828  11.524994198131575   5.002978606422314 
  7.459375840585134  11.504616478645300   5.002978606422314 
  8.747190523108767   5.003132580640223   5.002978606422314 
 -0.000198734848201   7.186188924527059  11.673616748318732 
  1.244551112969016   0.718690766658317  11.673616748318732 
  4.978805196663648   7.186596849859927  11.673616748318732 
  6.223602524106735   0.718414153478013  11.673616748318732 
  9.958093691832451   7.186337833978108  11.673616748318732 
 -2.518828189773302   7.180381748943345   5.002978606422314 
 11.202537042608487   0.718797781817334  11.673616748318732 
  3.722568616547026   0.664983639254360   5.002978606422314 
  2.373394515138460   7.290879831780051   5.002978606422314 
  7.467247611893784   7.185712416502246   5.002978606422314 
  8.732505888806807   0.698640473553907   5.002978606422314 
  2.489028095735932   7.186400837792936  11.673616748318732 
 13.698426596419459   0.730010259431279   5.002978606422314 
 -1.244657078773714   9.342154786913962  11.673616748318732 
 -0.000194550580771   2.874382673839531  11.673616748318732 
  4.978734044141079   2.874103639248736  11.673616748318732 
  3.734035352586804   9.342678042409922  11.673616748318732 
  8.713212279285187   9.342535689908097  11.673616748318732 
  9.958124034026664   2.874336572045089  11.673616748318732 
 -3.759122800825451   9.327649429705509   5.002978606422314 
  1.197633888583898   9.393178738850912   5.002978606422314 
  2.489033480911525   2.831540347381343   5.002978606422314 
  6.217049483857151   9.385465410939171   5.002978606422314 
  7.522981005748766   2.799617888469101   5.002978606422314 
 12.460192109967023   2.874695301650869   5.002978606422314 
 -1.244705673157315   5.030209993314766  11.673616748318732 
 -2.489327931966073  11.497987943343247  11.673616748318732 
  2.489477154307059  11.498314954417889  11.673616748318732 
  3.733749947282818   5.030176534820192  11.673616748318732 
  7.468302470019945  11.498476108590120  11.673616748318732 
 -4.998563855564695  11.475409911434703   5.002978606422314 
  8.713548919399422   5.030254690488830  11.673616748318732 
 -0.009709965574668  11.492373939440585   5.002978606422314 
  1.207316922095370   5.051538548153284   5.002978606422314 
 -0.052208658064490   7.203089666137926   5.002978606422314 
  6.423871593911096   4.864011367984863   5.002978606422314 
  4.977321443381568  11.525741548928474   5.002978606422314 
 11.203592360563171   5.019443231504566   5.002978606422314 
 -2.489184870451863   7.186180927784632  11.673616748318732 
  3.733937106577377   0.718475924813953  11.673616748318732 
  7.468684126146107   7.186541788392527  11.673616748318732 
  8.713185737360622   0.718535477066537  11.673616748318732 
 13.691705063541937   0.718869060055478  11.673616748318732 
  0.000214566834800   1.437268549287967   1.666984024623725 
  3.732270365170105   7.906760781246779   1.653023341447603 
  4.978794907092056   1.434886050269196   1.664837617110223 
  8.714862254561869   7.906023066291648   1.665639814629188 
  9.958168794205561   1.436788840407532   1.665867646864921 
 -4.977541852689115  10.061419940736080   8.339209201427979 
 -0.000766545432856  10.061217972919410   8.339265794313214 
  1.243759811184673   3.592580059464475   8.342778779612196 
  4.978642590608565  10.062572607349713   8.342365023401696 
  6.224205189757919   3.590603055910420   8.352933871397026 
 11.203298574711390   3.593105458249126   8.339435136147195 
 -2.489061877356327  10.060919445757674   1.666769021281100 
 -1.244567331872110   3.593294042190405   1.666984024623725 
  3.732665180976256   3.589249141943805   1.656789656010517 
  2.488057572689283  10.062117752471790   1.665083228985052 
  7.469483190485173  10.062188906378791   1.666256197188424 
  8.714379109661190   3.592087152660021   1.663592189442919 
 -6.222776614973776  12.216866735038657   8.338889179716457 
 -1.244655679288807  12.215697151740775   8.339265794313214 
 -0.001223765722717   5.749459897294445   8.340368645953552 
  4.979659378162794   5.749502680124652   8.359657243828623 
  3.733994341736397  12.217375227256397   8.340089565979692 
  9.959467114811229   5.749410239416296   8.339701015656203 
 -2.488814124427491   5.749453987856022   1.667068033128157 
 -3.733686586240832  12.216028967246858   1.667136206350511 
  1.244467537155817  12.216473658253598   1.666236803697054 
  2.485327836889655   5.749700796079837   1.656789656010517 
  6.223984201642652  12.217530939262209   1.666522076697446 
  7.470275271976592   5.749201004927155   1.655457368022184 
 -1.244994638251248   7.905488068941308   8.338821006494117 
  0.000214566834800   1.437268549287968   8.338973188220889 
  3.732270365170106   7.906760781246780   8.352933871397026 
  4.978794907092057   1.434886050269196   8.341119595734419 
  8.714862254561869   7.906023066291649   8.340317398215452 
 -3.732868423656978   7.905582322821427   1.666748011416648 
  9.958168794205561   1.436788840407533   8.340089565979692 
  2.489180755202171   1.435952735653278   1.665588566891089 
  1.242659533581706   7.906062341144493   1.664837617110223 
  6.224706066684911   7.906590152835551   1.655457368022184 
  7.468692684822256   1.435404684295911   1.665083228985052 
  1.242659533581706   7.906062341144493   8.341119595734419 
 12.447411353174916   1.437526300130174   1.666483216265736 
 -2.489061877356327  10.060919445757674   8.339188191563542 
 -1.244567331872110   3.593294042190406   8.338973188220889 
  3.732665180976257   3.589249141943806   8.349167556834111 
  2.488057572689284  10.062117752471790   8.340873983859588 
  7.469483190485174  10.062188906378791   8.339701015656203 
  8.714379109661190   3.592087152660022   8.342365023401696 
 -4.977541852689116  10.061419940736080   1.666748011416648 
 -0.000766545432857  10.061217972919410   1.666691418531414 
  1.243759811184673   3.592580059464475   1.663178433232419 
  4.978642590608565  10.062572607349713   1.663592189442919 
  6.224205189757918   3.590603055910419   1.653023341447603 
 11.203298574711390   3.593105458249125   1.666522076697446 
 -2.488814124427491   5.749453987856023   8.338889179716457 
 -3.733686586240831  12.216028967246858   8.338821006494117 
  1.244467537155817  12.216473658253598   8.339720409147574 
  2.485327836889655   5.749700796079837   8.349167556834111 
  6.223984201642653  12.217530939262209   8.339435136147195 
 -6.222776614973777  12.216866735038657   1.667068033128157 
  7.470275271976593   5.749201004927156   8.350499844822444 
 -1.244655679288807  12.215697151740775   1.666691418531414 
 -0.001223765722718   5.749459897294444   1.665588566891089 
 -1.244994638251248   7.905488068941307   1.667136206350511 
  4.979659378162793   5.749502680124651   1.646299969016004 
  3.733994341736397  12.217375227256397   1.665867646864921 
  9.959467114811229   5.749410239416295   1.666256197188424 
 -3.732868423656978   7.905582322821428   8.339209201427979 
  2.489180755202171   1.435952735653279   8.340368645953552 
  6.224706066684912   7.906590152835552   8.350499844822444 
  7.468692684822257   1.435404684295911   8.340873983859588 
 12.447411353174916   1.437526300130174   8.339473996578878 
  4.272383627374452   5.341156835015706   5.002978606422314 
  1.244903317007915   0.718412433345860   1.669253296738402 
  4.978787478822136   7.187107800921761   1.653933425655341 
  6.223841535741919   0.718355103568817   1.669681603766226 
  9.957733714824549   7.186397328353102   1.670883246319388 
 11.202470470198618   0.718759346218565   1.668567065544315 
 -3.733883374453606   9.342221419315479   8.336634360980986 
  1.244648845466453   9.342569823801549   8.336275609078401 
  2.489299331781509   2.874073929456870   8.341675335342520 
  6.223602710134812   9.342265737064604   8.335474705059944 
  7.468539293456755   2.874178288871745   8.337768319434963 
 12.447117501802467   2.874698580181524   8.336828303399253 
 -1.244599747907720   9.342347223057658   1.669506139156136 
  0.000145660386969   2.874579094733336   1.668877291003115 
  4.979264725353417   2.874212187911386   1.664715833914240 
  3.733995368863732   9.342598109364577   1.668188893409679 
  8.713083814421370   9.342194193486964   1.670883246319388 
  9.957799583571687   2.874554900047414   1.669361408081740 
 -4.978499543526629  11.497916018471981   8.336467642698446 
  0.000177448951836  11.498082440879060   8.336785902363026 
  1.244285010121710   5.030501990722558   8.341675335342520 
  6.224225983713350   5.029945032747545   8.352023787189299 
  4.978951668766695  11.498172451648081   8.336595804762888 
 11.202365868296086   5.030599357114875   8.335896124121890 
 -1.244770614857172   5.030654177615995   1.669253296738402 
 -2.489132611944043  11.497941375257795   1.669506139156136 
  2.489454798121670  11.498261632012971   1.669189505756248 
  3.733493289460698   5.030028353357509   1.661308991232989 
  7.468424082637922  11.497976242379318   1.670061088722739 
  8.713055121237003   5.030407678010733   1.670482507784671 
 -0.000032966107415   7.186636581521029   8.336377934734054 
  1.244903317007915   0.718412433345860   8.336703916106226 
  4.978787478822137   7.187107800921762   8.352023787189299 
  6.223841535741920   0.718355103568817   8.336275609078401 
  9.957733714824549   7.186397328353103   8.335073966525240 
 -2.489305173319688   7.186504899359114   1.669489570146180 
 11.202470470198618   0.718759346218566   8.337390147300313 
  3.734407673276729   0.718395656257641   1.669579278110574 
  2.489387442241512   7.186806146872794   1.664715833914240 
  7.468309794228535   7.186325667759166   1.669144884639965 
  8.713128380710685   0.718542777244504   1.669189505756248 
  2.489387442241512   7.186806146872795   8.341241378930388 
 13.691892131628007   0.718685677350932   1.669128909445374 
 -1.244599747907719   9.342347223057658   8.336451073688478 
  0.000145660386969   2.874579094733337   8.337079921841525 
  4.979264725353418   2.874212187911386   8.341241378930388 
  3.733995368863732   9.342598109364577   8.337768319434963 
  8.713083814421370   9.342194193486964   8.335073966525240 
  9.957799583571687   2.874554900047415   8.336595804762888 
 -3.733883374453607   9.342221419315479   1.669322851863655 
  1.244648845466452   9.342569823801549   1.669681603766226 
  2.489299331781509   2.874073929456869   1.664281877502095 