B As N                                  
   1.0000000000000000     
     8.7639499999999995  -15.1796066749929999    0.0000000000000000
     8.7639499999999995   15.1796066749929999    0.0000000000000000
     0.0000000000000000    0.0000000000000000   15.0000000000000000
   B    As   N 
    47     1    49
Selective dynamics
Direct
  0.9067352322375707  0.9558592000885685  0.1110240384088358   T   T   T
  0.9066860151319414  0.0976950411995430  0.1110509032381243   T   T   T
  0.9059347802477360  0.2392428579524012  0.1110735203960325   T   T   T
  0.9041075646017962  0.3808652015311358  0.1109810206527125   T   T   T
  0.8983163762422153  0.5221122917967004  0.1110456315367828   T   T   T
  0.8972826191862046  0.6640349029908663  0.1110006970958191   T   T   T
  0.9036488862172817  0.8113667409960751  0.1110174366147854   T   T   T
  0.0477935056094749  0.9538832428894415  0.1109853310069270   T   T   T
  0.0496631673923413  0.0976089168831989  0.1109647709178542   T   T   T
  0.0495469069166763  0.2399042449056471  0.1110006855897885   T   T   T
  0.0477986285992177  0.3817984254207987  0.1110139754120545   T   T   T
  0.0439292944939405  0.5234153850045561  0.1110747101879008   T   T   T
  0.0423943785116645  0.6650717551995081  0.1110731851313408   T   T   T
  0.0434674379000617  0.8080094687274822  0.1109498300999158   T   T   T
  0.1879262841455268  0.9510029402397010  0.1109445268398879   T   T   T
  0.1921173574741673  0.0970207920059015  0.1108631485613419   T   T   T
  0.1929217456097940  0.2397750428506991  0.1108833186868862   T   T   T
  0.1919351699991108  0.3823231596121267  0.1109730118679786   T   T   T
  0.1880778880109924  0.5243037673460981  0.1110932138019066   T   T   T
  0.1869395618977001  0.6660074784239043  0.1111351689888205   T   T   T
  0.1865848251118615  0.8079008369656036  0.1110111566972501   T   T   T
  0.3303580030025725  0.9500113658759152  0.1109116188445146   T   T   T
  0.3312963861266993  0.0925456613095724  0.1109108685792049   T   T   T
  0.3381132804991684  0.2411379881589886  0.1109311388536289   T   T   T
  0.3364503395345178  0.3829490642119848  0.1111395498269872   T   T   T
  0.3314397909896857  0.5252553017159168  0.1112114563865204   T   T   T
  0.3312203372316309  0.6673626550695180  0.1110844433676055   T   T   T
  0.3303478522695639  0.8085820138474337  0.1109571824415230   T   T   T
  0.4741501349857301  0.9506385482417072  0.1109074846568595   T   T   T
  0.4740275731238046  0.0898990929567701  0.1109241825344407   T   T   T
  0.4737701939076135  0.2280629167154114  0.1108892666970204   T   T   T
  0.4910218736686930  0.3785606783313260  0.1114822384785790   T   T   T
  0.4753667449869124  0.6717458716538524  0.1111710718665534   T   T   T
  0.4746679992072559  0.8112061135775752  0.1109006292207152   T   T   T
  0.6188206453063892  0.9539136511868265  0.1109234353433419   T   T   T
  0.6184010202751024  0.0929108229878788  0.1110128832342782   T   T   T
  0.6180326613135896  0.2314648090415307  0.1108950154494781   T   T   T
  0.6171014428533459  0.3672246295304054  0.1112740893352228   T   T   T
  0.6261102827699300  0.6794538496519680  0.1109227652965621   T   T   T
  0.6198173510172162  0.8152123478258095  0.1109580058766259   T   T   T
  0.7634189427944358  0.9558736466872780  0.1109232846073770   T   T   T
  0.7628632834035998  0.0964063239660524  0.1110593289450996   T   T   T
  0.7622296825821891  0.2372185752421148  0.1109922580779647   T   T   T
  0.7607370828740672  0.3784833013865984  0.1110171182313677   T   T   T
  0.7499152201851044  0.5202705376054795  0.1113856377921668   T   T   T
  0.7560617402252637  0.6690302719425578  0.1108355653407034   T   T   T
  0.7644755466466582  0.8154988926436271  0.1109711683784353   T   T   T
  0.5006695332655962  0.5208813523160174  0.1111977494118288   T   T   T
  0.9532614770655529  0.9073600148012455  0.1110371967397968   T   T   T
  0.9547633414482655  0.0508780413576143  0.1110173495810718   T   T   T
  0.9542783228413233  0.1925794683810821  0.1110546005542915   T   T   T
  0.9527201440048028  0.3341275488513532  0.1109942924171309   T   T   T
  0.9485510197905769  0.4757558336977844  0.1109762377308722   T   T   T
  0.9468102606813232  0.6173617166368579  0.1110122169335923   T   T   T
  0.9485571739090729  0.7607265371975257  0.1109171701776441   T   T   T
  0.0930273521455827  0.9039520369964034  0.1109322956837398   T   T   T
  0.0967660600703820  0.0495969818340717  0.1109132013425728   T   T   T
  0.0974489913778298  0.1925392711836534  0.1109219975989322   T   T   T
  0.0963368409018264  0.3348034216236128  0.1109602636978781   T   T   T
  0.0928636618831841  0.4767179424216835  0.1110402699320973   T   T   T
  0.0913652016553083  0.6184288649763026  0.1111259278502253   T   T   T
  0.0912591469897643  0.7604263391682116  0.1110009365037511   T   T   T
  0.2350932189086907  0.9030043981506423  0.1109335788677142   T   T   T
  0.2365573810502243  0.0462662616021204  0.1108940662955900   T   T   T
  0.2414185706445397  0.1928339600977962  0.1108130022202516   T   T   T
  0.2400093964365422  0.3342698493566123  0.1109122048055673   T   T   T
  0.2359907480394707  0.4774333308795456  0.1110511359519748   T   T   T
  0.2355085481566290  0.6194603827041819  0.1111134609011847   T   T   T
  0.2348204055670574  0.7610256105731945  0.1110419521901202   T   T   T
  0.3785539650210957  0.9033434976684361  0.1108783462468012   T   T   T
  0.3786764310630998  0.0445216404667276  0.1108936876018703   T   T   T
  0.3796251933122896  0.1868804731033445  0.1108838314714291   T   T   T
  0.3897858975370822  0.3378318873365455  0.1111560092903136   T   T   T
  0.3755569669906421  0.4764408015629439  0.1113226747907474   T   T   T
  0.3796218025432980  0.6211465925233840  0.1111630649546980   T   T   T
  0.3788451248078069  0.7624767403386647  0.1109317778539688   T   T   T
  0.5230633643492775  0.9056446655129844  0.1108692851742331   T   T   T
  0.5228160083766156  0.0446260113995269  0.1109554225192723   T   T   T
  0.5227472193574967  0.1830341140156704  0.1108774971094101   T   T   T
  0.5234833603438716  0.3191872173842276  0.1109929369320073   T   T   T
  0.5752688421657632  0.4668500954044052  0.1120008181923087   T   T   T
  0.5295233245551844  0.6336303096254662  0.1112939405627668   T   T   T
  0.5235189727415319  0.7666377313921265  0.1109434202518199   T   T   T
  0.6679455960570817  0.9094716904043690  0.1108614607429609   T   T   T
  0.6674137544856568  0.0481212587563268  0.1110178316983997   T   T   T
  0.6670458885761520  0.1868975720000367  0.1109594330878105   T   T   T
  0.6670293471764336  0.3249856143939822  0.1108849299125906   T   T   T
  0.6528804055893334  0.4593473344671839  0.1118790387972432   T   T   T
  0.6663228581543421  0.6302494856770204  0.1103968650029981   T   T   T
  0.6705376957761595  0.7732279416725565  0.1110365356000258   T   T   T
  0.8123978590836984  0.9103758417207167  0.1109182462284097   T   T   T
  0.8115027358992516  0.0506024340659566  0.1109923754759756   T   T   T
  0.8107827904317497  0.1911643664300643  0.1110653609176582   T   T   T
  0.8095320786987774  0.3322396241631390  0.1109466741181394   T   T   T
  0.8023023396604548  0.4736735867140704  0.1111178413999068   T   T   T
  0.8018369483938865  0.6165435141377127  0.1110887623344202   T   T   T
  0.8103186612463775  0.7665712259388554  0.1109957012702591   T   T   T

  0.00000000E+00  0.00000000E+00  0.00000000E+00
  0.00000000E+00  0.00000000E+00  0.00000000E+00
  0.00000000E+00  0.00000000E+00  0.00000000E+00
  0.00000000E+00  0.00000000E+00  0.00000000E+00
  0.00000000E+00  0.00000000E+00  0.00000000E+00
  0.00000000E+00  0.00000000E+00  0.00000000E+00
  0.00000000E+00  0.00000000E+00  0.00000000E+00
  0.00000000E+00  0.00000000E+00  0.00000000E+00
  0.00000000E+00  0.00000000E+00  0.00000000E+00
  0.00000000E+00  0.00000000E+00  0.00000000E+00
  0.00000000E+00  0.00000000E+00  0.00000000E+00
  0.00000000E+00  0.00000000E+00  0.00000000E+00
  0.00000000E+00  0.00000000E+00  0.00000000E+00
  0.00000000E+00  0.00000000E+00  0.00000000E+00
  0.00000000E+00  0.00000000E+00  0.00000000E+00
  0.00000000E+00  0.00000000E+00  0.00000000E+00
  0.00000000E+00  0.00000000E+00  0.00000000E+00
  0.00000000E+00  0.00000000E+00  0.00000000E+00
  0.00000000E+00  0.00000000E+00  0.00000000E+00
  0.00000000E+00  0.00000000E+00  0.00000000E+00
  0.00000000E+00  0.00000000E+00  0.00000000E+00
  0.00000000E+00  0.00000000E+00  0.00000000E+00
  0.00000000E+00  0.00000000E+00  0.00000000E+00
  0.00000000E+00  0.00000000E+00  0.00000000E+00
  0.00000000E+00  0.00000000E+00  0.00000000E+00
  0.00000000E+00  0.00000000E+00  0.00000000E+00
  0.00000000E+00  0.00000000E+00  0.00000000E+00
  0.00000000E+00  0.00000000E+00  0.00000000E+00
  0.00000000E+00  0.00000000E+00  0.00000000E+00
  0.00000000E+00  0.00000000E+00  0.00000000E+00
  0.00000000E+00  0.00000000E+00  0.00000000E+00
  0.00000000E+00  0.00000000E+00  0.00000000E+00
  0.00000000E+00  0.00000000E+00  0.00000000E+00
  0.00000000E+00  0.00000000E+00  0.00000000E+00
  0.00000000E+00  0.00000000E+00  0.00000000E+00
  0.00000000E+00  0.00000000E+00  0.00000000E+00
  0.00000000E+00  0.00000000E+00  0.00000000E+00
  0.00000000E+00  0.00000000E+00  0.00000000E+00
  0.00000000E+00  0.00000000E+00  0.00000000E+00
  0.00000000E+00  0.00000000E+00  0.00000000E+00
  0.00000000E+00  0.00000000E+00  0.00000000E+00
  0.00000000E+00  0.00000000E+00  0.00000000E+00
  0.00000000E+00  0.00000000E+00  0.00000000E+00
  0.00000000E+00  0.00000000E+00  0.00000000E+00
  0.00000000E+00  0.00000000E+00  0.00000000E+00
  0.00000000E+00  0.00000000E+00  0.00000000E+00
  0.00000000E+00  0.00000000E+00  0.00000000E+00
  0.00000000E+00  0.00000000E+00  0.00000000E+00
  0.00000000E+00  0.00000000E+00  0.00000000E+00
  0.00000000E+00  0.00000000E+00  0.00000000E+00
  0.00000000E+00  0.00000000E+00  0.00000000E+00
  0.00000000E+00  0.00000000E+00  0.00000000E+00
  0.00000000E+00  0.00000000E+00  0.00000000E+00
  0.00000000E+00  0.00000000E+00  0.00000000E+00
  0.00000000E+00  0.00000000E+00  0.00000000E+00
  0.00000000E+00  0.00000000E+00  0.00000000E+00
  0.00000000E+00  0.00000000E+00  0.00000000E+00
  0.00000000E+00  0.00000000E+00  0.00000000E+00
  0.00000000E+00  0.00000000E+00  0.00000000E+00
  0.00000000E+00  0.00000000E+00  0.00000000E+00
  0.00000000E+00  0.00000000E+00  0.00000000E+00
  0.00000000E+00  0.00000000E+00  0.00000000E+00
  0.00000000E+00  0.00000000E+00  0.00000000E+00
  0.00000000E+00  0.00000000E+00  0.00000000E+00
  0.00000000E+00  0.00000000E+00  0.00000000E+00
  0.00000000E+00  0.00000000E+00  0.00000000E+00
  0.00000000E+00  0.00000000E+00  0.00000000E+00
  0.00000000E+00  0.00000000E+00  0.00000000E+00
  0.00000000E+00  0.00000000E+00  0.00000000E+00
  0.00000000E+00  0.00000000E+00  0.00000000E+00
  0.00000000E+00  0.00000000E+00  0.00000000E+00
  0.00000000E+00  0.00000000E+00  0.00000000E+00
  0.00000000E+00  0.00000000E+00  0.00000000E+00
  0.00000000E+00  0.00000000E+00  0.00000000E+00
  0.00000000E+00  0.00000000E+00  0.00000000E+00
  0.00000000E+00  0.00000000E+00  0.00000000E+00
  0.00000000E+00  0.00000000E+00  0.00000000E+00
  0.00000000E+00  0.00000000E+00  0.00000000E+00
  0.00000000E+00  0.00000000E+00  0.00000000E+00
  0.00000000E+00  0.00000000E+00  0.00000000E+00
  0.00000000E+00  0.00000000E+00  0.00000000E+00
  0.00000000E+00  0.00000000E+00  0.00000000E+00
  0.00000000E+00  0.00000000E+00  0.00000000E+00
  0.00000000E+00  0.00000000E+00  0.00000000E+00
  0.00000000E+00  0.00000000E+00  0.00000000E+00
  0.00000000E+00  0.00000000E+00  0.00000000E+00
  0.00000000E+00  0.00000000E+00  0.00000000E+00
  0.00000000E+00  0.00000000E+00  0.00000000E+00
  0.00000000E+00  0.00000000E+00  0.00000000E+00
  0.00000000E+00  0.00000000E+00  0.00000000E+00
  0.00000000E+00  0.00000000E+00  0.00000000E+00
  0.00000000E+00  0.00000000E+00  0.00000000E+00
  0.00000000E+00  0.00000000E+00  0.00000000E+00
  0.00000000E+00  0.00000000E+00  0.00000000E+00
  0.00000000E+00  0.00000000E+00  0.00000000E+00
  0.00000000E+00  0.00000000E+00  0.00000000E+00
  0.00000000E+00  0.00000000E+00  0.00000000E+00
