 N B Si 
 1.0
 17.527899999999772   0.000000000000000   0.000000000000000
 -8.763949999999658  15.179606674993195   0.000000000000000
  0.000000000000001   0.000000000000002  15.000000000000000
 N B Si 
  47  49   1
Cartesian
  8.771158547677674  13.735836660709570   1.615193228491980 
 16.276405728889145   0.704091055970765   1.647083258949045 
 15.025090160778362   2.864936092739412   1.671662079830205 
 13.772762076117926   5.033303241387255   1.681603977208560 
 12.528368078522849   7.208363207985451   1.669614336691605 
 11.288780881017281   9.390714753961172   1.625105146364160 
 10.032860639310503  11.571486993618842   1.589358291950280 
 -6.258130495731572  13.745727461182629   1.681341520820175 
  1.253653128614548   0.733116071553793   1.630659302067765 
  0.008546333502489   2.903392387902415   1.625771220893685 
 -1.254801163118066   5.048215783079496   1.659343764777735 
 -2.519749778176195   7.212216821405676   1.721180809281585 
 -3.769359981226276   9.389205154285527   1.771253506816305 
 -5.009781720759019  11.570627306090074   1.749310697730225 
 -3.761113482807285  13.745489324207290   1.732769945674440 
  3.754519133325743   0.739366910242270   1.641754855029780 
  2.501948466611922   2.911833037588928   1.574484702927180 
  1.272057816038809   5.117015664489229   1.596970378523115 
 -0.039386755872409   7.225135644678370   1.614696335225910 
 -1.299252980229441   9.393111983376599   1.701172628080230 
 -2.520794907169904  11.569741141564101   1.771200046237845 
 -1.261126203781934  13.734554789657469   1.693903401706590 
  6.257557883754939   0.730120008376875   1.644007457400600 
  5.006177103250979   2.909846099845447   1.625022085244280 
  3.746746117126742   5.087192098208193   1.661352074469210 
  2.502969614929557   7.382063786110194   1.628224405771275 
  1.153490316231635   9.401584749382256   1.601447688594285 
 -0.030037741195741  11.562889179925754   1.688586228165510 
  1.251989166902256  13.689246932743018   1.656596761993695 
  8.767066050998112   0.701708672410551   1.615243869918885 
  7.516358335902565   2.886516445299678   1.609463278357920 
  6.263189644965711   5.065368280068377   1.830252079670700 
  2.492025853943296  11.468205029867768   1.703981594592690 
  3.755265168670925  13.653061612041439   1.659821031215670 
 11.272759005781111   0.675529804883830   1.636105319686065 
 10.023491292136033   2.863388453121464   1.597855282351245 
  8.772440359753803   5.045163157196206   1.609602564828870 
  7.593819402221622   7.227412898031980   1.665494190183270 
  6.374389667787680   9.405406372397417   1.486799716604220 
  4.989969151323050  11.436564094433315   1.611192230546865 
  6.253618697562801  13.678305448743952   1.624214840927310 
 13.771809489474366   0.674166145493929   1.664023876731150 
 12.524296266243862   2.854287698626788   1.649275116705765 
 11.277900599767060   5.032082907957427   1.603393404201315 
 10.057718871610872   7.209888941146103   1.512509010281790 
  8.824475600461138   9.396024413633251   1.444734779421630 
  7.539339987547352  11.569143495122740   1.480810198434345 
  7.508183796086309  14.432816410979129   1.626621377741010 
 15.021263478989782   1.416329377268373   1.662760063412940 
 13.773281315236732   3.585693950203431   1.669549912938075 
 12.525430232644284   5.760014899586844   1.650545206467435 
 11.293180580056950   7.940849382337442   1.595487661560795 
 10.054222559796393  10.123328378537297   1.545375204401910 
  8.785856913659796  12.297688427538422   1.557079988411520 
 -7.507549016493130  14.468128068769888   1.643921938054575 
  0.001224938574827   1.450584757695996   1.632758726116020 
 -1.252731552946760   3.603475482284959   1.653853169301960 
 -2.508507351644268   5.765470261428947   1.690522836296295 
 -3.762036496325917   7.940651472758256   1.729229941683735 
 -5.004477560548697  10.119737783328796   1.725441262383165 
 -6.252194919886088  12.298940578691143   1.679952535173660 
 -5.008785455466812  14.472814172479367   1.689979483652265 
  2.503071887150935   1.464390586780600   1.613632574013825 
  1.261884544674731   3.654706129104240   1.596971101448730 
 -0.007775568051428   5.785424614584069   1.622172479060610 
 -1.284439696441996   7.946748562500937   1.680553744803840 
 -2.532002035173207  10.119737783328796   1.759099171543755 
 -3.764699936862917  12.298513567757917   1.763171793600765 
 -2.509280137009375  14.465938471052839   1.692838940359365 
  5.007254296111786   1.463481996525514   1.633255074950295 
  3.749775308032257   3.638025766377575   1.594682998205430 
  2.532930927744329   5.891456251435638   1.633629316486590 
  1.185996881293731   7.962886366958995   1.598331775042095 
 -0.070095817655233  10.127763833540673   1.656342930523845 
 -1.273528689186927  12.293443823469545   1.722296275704420 
  0.000943531770007  14.434403133101908   1.652151237995880 
  7.515713681186463   1.440284114000154   1.616014338374700 
  6.266061877352767   3.624857801512217   1.674274574112135 
  4.973195360119496   5.738110268596565   2.029224442811220 
  3.498140945401017   8.555085564463100   1.918165883313405 
  2.429669808774570  10.013084077606084   1.719549555937185 
  1.242010158216265  12.238918113639672   1.680466589475960 
  2.506156585654988  14.403471819014362   1.652119775212260 
 10.022682242526223   1.414619110692516   1.613119308507585 
  8.773120408394163   3.597740119943469   1.604938406067045 
  7.528735565032633   5.779499644641826   1.728224319657240 
  6.461318765592765   8.041536310099604   1.960826550943575 
  5.105748021967261   9.994180987992520   1.612996583359170 
  3.741798561995052  12.196481339518169   1.666809924734010 
  5.002717413618173  14.401499079099684   1.652233122838260 
 12.522207482669351   1.404535700344031   1.651565456125680 
 11.275391287107196   3.584237479080276   1.616944430353470 
 10.031741448914232   5.762552497174938   1.569631383265185 
  8.825453840657831   7.943059366675953   1.501953234862050 
  7.595955639934574  10.139050909906539   1.431448673440245 
  6.259298364548982  12.226160132080308   1.568801244442590 
  4.883858332818248   7.526328513301781   2.917203264423030 
