Species order: X N B                    
   2.51242800000000     
     5.9449720136058266    0.0000000000000000    0.0000000000000000
    -2.9724860068029120    5.1484967885702053   -0.0000000000000001
     0.0000000000000000    0.0000000000000009    5.3101128803662583
   Pb   N    B 
     1   144   143
Direct
  0.4444444444444429  0.3888888888888857  0.3750000000000000
  0.1110813643399061  0.0555314000848600  0.1248099090091936
  0.6111450072206961  0.5555962089878667  0.1238489469961716
  0.4444500357449488  0.0555314000848600  0.1248099090091936
  0.9444527283886857  0.5555588546157009  0.1251597638039032
  0.7777777777777786  0.0555555555555571  0.1249324325163946
  0.1111111111111143  0.7222222222222214  0.6246518771480777
  0.4444500357449488  0.7222519689934198  0.6251900909908509
  0.2777371243454606  0.2221883261126779  0.6261510530038426
  0.7778019332484365  0.7222519689934198  0.6251900909908509
  0.6111248389087262  0.2222084944246657  0.6252657522361328
  0.9444320100604696  0.2222160585184748  0.6250572655264572
  0.2777744787176466  0.7222272071062878  0.1251597638039032
  0.1110836555160051  0.2222084944246656  0.1247342477638366
  0.4444512017672273  0.2221883261126779  0.1238489469961720
  0.6111248389087262  0.7222496778173479  0.1247342477638366
  0.9444527283886857  0.7222272071062878  0.1251597638039032
  0.7777840484580042  0.2222160585184748  0.1249427344735585
  0.1111061262270544  0.8888806049446429  0.6248402361961126
  0.4444484514615915  0.8888908923974621  0.6250032914475621
  0.2777371243454606  0.3888821315661013  0.6261510530038424
  0.6111450072206961  0.3888821315661013  0.6261510530038424
  0.7777840484580042  0.8889013232728590  0.6250572655264572
  0.9444424409358665  0.3888848818717371  0.6250032914475621
  0.1110813643399061  0.3888832975883798  0.1248099090091936
  0.2777744787176466  0.8888806049446429  0.1251597638039032
  0.6111172748149153  0.8889013232728590  0.1249427344735585
  0.4444444444444429  0.3888888888888857  0.1239958471065658
  0.9444424409358665  0.8888908923974621  0.1249967085524128
  0.7778019332484521  0.3888832975883798  0.1248099090091936
  0.2777677292231179  0.5555656041101924  0.6252181306089525
  0.1110813643399061  0.0555314000848600  0.6251900909908509
  0.6111450072206961  0.5555962089878667  0.6261510530038424
  0.4444500357449488  0.0555314000848602  0.6251900909908509
  0.9444527283886857  0.5555588546157009  0.6248402361961126
  0.1111061262270544  0.5555588546157009  0.1251597638039032
  0.7777777777777786  0.0555555555555571  0.6250675674835917
  0.2777677292231179  0.0555354584462676  0.1247818693910553
  0.4444512017672273  0.5555962089878667  0.1238489469961716
  0.7777978748870999  0.5555656041101924  0.1247818693910553
  0.6111172748149153  0.0555492848754107  0.1249427344735585
  0.4444512017672273  0.5555962089878667  0.6261510530038426
  0.9444320100604696  0.0555492848754107  0.1249427344735585
  0.2777744787176466  0.7222272071062878  0.6248402361961126
  0.1110836555160051  0.2222084944246656  0.6252657522361328
  0.4444512017672273  0.2221883261126800  0.6261510530038426
  0.6111248389087262  0.7222496778173479  0.6252657522361328
  0.9444527283886857  0.7222272071062878  0.6248402361961126
  0.7777840484580042  0.2222160585184748  0.6250572655264572
  0.1111111111111143  0.7222222222222214  0.1253481228519073
  0.4444500357449488  0.7222519689934198  0.1248099090091936
  0.2777371243454606  0.2221883261126779  0.1238489469961720
  0.7778019332484521  0.7222519689934198  0.1248099090091936
  0.6111248389087262  0.2222084944246656  0.1247342477638366
  0.9444320100604696  0.2222160585184748  0.1249427344735585
  0.1110813643399061  0.3888832975883798  0.6251900909908509
  0.2777744787176466  0.8888806049446429  0.6248402361961126
  0.6111172748149153  0.8889013232728590  0.6250572655264572
  0.4444444444444429  0.3888888888888857  0.6260041528934479
  0.9444424409358665  0.8888908923974621  0.6250032914475621
  0.1111061262270544  0.8888806049446429  0.1251597638039032
  0.7778019332484521  0.3888832975883798  0.6251900909908509
  0.4444484514615915  0.8888908923974621  0.1249967085524130
  0.2777371243454606  0.3888821315661013  0.1238489469961707
  0.2777677292231179  0.5555656041101924  0.1247818693910553
  0.6111450072206961  0.3888821315661013  0.1238489469961720
  0.7777840484580042  0.8889013232728590  0.1249427344735585
  0.9444424409358665  0.3888848818717371  0.1249967085524128
  0.1111061262270544  0.5555588546157009  0.6248402361961126
  0.2777677292231179  0.0555354584462676  0.6252181306089525
  0.7777978748870999  0.5555656041101924  0.6252181306089525
  0.6111172748149153  0.0555492848754107  0.6250572655264572
  0.9444320100604696  0.0555492848754107  0.6250572655264572
  0.0536416496280433  0.1099248565810445  0.3750000000000000
  0.5563561905765186  0.6127123811529613  0.3750000000000000
  0.3870442121410889  0.0998139168213142  0.3750000000000000
  0.8927733871383905  0.6130533602358368  0.3750000000000000
  0.7225773745577180  0.1107559587756553  0.3750000000000000
  0.0555557501413642  0.7777775831919608  0.8750000000000000
  0.3888872203627028  0.7777782430613934  0.8750000000000000
  0.2222202266343766  0.2777767799838396  0.8750000000000000
  0.7222239854225140  0.7777786161487839  0.8750000000000000
  0.5555565533494897  0.2777767799838396  0.8750000000000000
  0.8888903507714074  0.2777807015427944  0.8750000000000000
  0.2214767869327857  0.7774050601330915  0.3750000000000000
  0.0536416496280433  0.2770501263803328  0.3750000000000000
  0.3694691567262690  0.2389383134525586  0.3750000000000000
  0.5562832069530305  0.7796916837053193  0.3750000000000000
  0.8920809404471352  0.7803759977184818  0.3750000000000000
  0.7234084767522901  0.2770501263803328  0.3750000000000000
  0.0555550902719266  0.9444423106346393  0.8750000000000000
  0.3888872203627028  0.9444423106346393  0.8750000000000000
  0.2222214169848991  0.4444442252502229  0.8750000000000000
  0.5555505115091802  0.4444419224212544  0.8750000000000000
  0.7222218941459773  0.9444437882919586  0.8750000000000000
  0.8888910226986892  0.4444461129706258  0.8750000000000000
  0.0529573356148565  0.4450382760620192  0.3750000000000000
  0.2202799730974920  0.9405599461949381  0.3750000000000000
  0.5561293239554793  0.9447313286444285  0.3750000000000000
  0.3694691567262690  0.4638641766070596  0.3750000000000000
  0.8886020046889000  0.9447313286444285  0.3750000000000000
  0.7335194165120379  0.4462891211922397  0.3750000000000000
  0.2222219092721727  0.6111114240612217  0.8750000000000000
  0.0555547171845768  0.1111093479108432  0.8750000000000000
  0.5555565533494897  0.6111131066989922  0.8750000000000000
  0.3888891080831057  0.1111105250680017  0.8750000000000000
  0.8888895147889986  0.6111114240612217  0.8750000000000000
  0.0559282732002767  0.6118565464005918  0.3750000000000000
  0.7222218941459773  0.1111114391873531  0.8750000000000000
  0.2127697046802079  0.0998139168213142  0.3750000000000000
  0.3870442121410889  0.6205636286531202  0.3750000000000000
  0.7335194165120379  0.6205636286531204  0.3750000000000000
  0.5562832069530305  0.1099248565810445  0.3750000000000000
  0.3888891080831057  0.6111119163484570  0.8750000000000000
  0.8881785842179798  0.1107559587756553  0.3750000000000000
  0.2222218330506173  0.7777775831919608  0.8750000000000000
  0.0555547171845768  0.2777787026070818  0.8750000000000000
  0.3888914109120742  0.2777828218241742  0.8750000000000000
  0.5555546307262467  0.7777786161487839  0.8750000000000000
  0.8888910226986892  0.7777782430613934  0.8750000000000000
  0.7222239854225140  0.2777787026070818  0.8750000000000000
  0.0559282732002751  0.7774050601330915  0.3750000000000000
  0.3882950572713094  0.7803759977184818  0.3750000000000000
  0.2206209521803553  0.2769771427568550  0.3750000000000000
  0.7234084767522901  0.7796916837053193  0.3750000000000000
  0.5563561905765186  0.2769771427568550  0.3750000000000000
  0.8886020046889000  0.2772040093778462  0.3750000000000000
  0.0555550902719266  0.4444461129706258  0.8750000000000000
  0.2222219092721727  0.9444438185443300  0.8750000000000000
  0.5555526317905551  0.9444429825619212  0.8750000000000000
  0.3888914109120742  0.4444419224212544  0.8750000000000000
  0.8888903507714074  0.9444429825619212  0.8750000000000000
  0.0529573356148565  0.9412523928861934  0.3750000000000000
  0.7222228082653257  0.4444442252502229  0.8750000000000000
  0.3882950572713094  0.9412523928861934  0.3750000000000000
  0.2127697046802079  0.4462891211922397  0.3750000000000000
  0.2202799730974920  0.6130533602358368  0.3750000000000000
  0.5943950198807907  0.4638641766070596  0.3750000000000000
  0.7225773745577180  0.9451547491153488  0.3750000000000000
  0.8920809404471352  0.4450382760620192  0.3750000000000000
  0.0555557501413642  0.6111115002827345  0.8750000000000000
  0.2222214169848991  0.1111105250680003  0.8750000000000000
  0.7222228082653257  0.6111119163484570  0.8750000000000000
  0.5555546307262467  0.1111093479108432  0.8750000000000000
  0.8888895450413700  0.1111114391873531  0.8750000000000000
  0.1049257515669527  0.0500210118892004  0.3750000000000000
  0.6249049882698966  0.5672533664738036  0.3750000000000000
  0.4450952603222681  0.0500210118892004  0.3750000000000000
  0.9461368122115429  0.5560284034266559  0.3750000000000000
  0.7777777777777786  0.0555555555555571  0.3750000000000000
  0.1111111111111143  0.7222222222222214  0.8750000000000000
  0.4444471168603517  0.7222335178163096  0.8750000000000000
  0.2777594439694298  0.2222107865780605  0.8750000000000000
  0.7777864009559808  0.7222335178163096  0.8750000000000000
  0.6111205283968224  0.2222128049365598  0.8750000000000000
  0.9444376831801903  0.2222194015277480  0.8750000000000000
  0.2773049299066827  0.7234417421182332  0.3750000000000000
  0.1093178372250653  0.2213255852791917  0.3750000000000000
  0.4423483782039059  0.2084283450634717  0.3750000000000000
  0.6120077480540934  0.7240154961082986  0.3750000000000000
  0.9461368122115429  0.7234417421182332  0.3750000000000000
  0.7780044960262475  0.2213300783384376  0.3750000000000000
  0.1111079080169696  0.8888857052029955  0.8750000000000000
  0.4444464449222773  0.8888898891278104  0.8750000000000000
  0.2777594439694298  0.3888819907246928  0.8750000000000000
  0.6111225467552674  0.3888819907246928  0.8750000000000000
  0.7777817183475881  0.8888956501531383  0.8750000000000000
  0.9444434442055182  0.3888868884110513  0.8750000000000000
  0.1049257515669524  0.3882380730110604  0.3750000000000000
  0.2773049299066827  0.8871965211217857  0.3750000000000000
  0.6120032549949320  0.8900077510211414  0.3750000000000000
  0.9440887065107864  0.8892446268225422  0.3750000000000000
  0.7833123214441375  0.3882380730110604  0.3750000000000000
  0.2777732768076259  0.5555600565257197  0.8750000000000000
  0.1110998155170449  0.0555469323773828  0.8750000000000000
  0.6111225467552674  0.5555738893639307  0.8750000000000000
  0.4444471168603517  0.0555469323773828  0.8750000000000000
  0.9444476281303331  0.5555555361472970  0.8750000000000000
  0.1098915912150737  0.5560284034266559  0.3750000000000000
  0.7777777777777786  0.0555555555555571  0.8750000000000000
  0.2749066249117401  0.0498132498234891  0.3750000000000000
  0.4423483782039059  0.5672533664738036  0.3750000000000000
  0.7835200835098556  0.5584267084215636  0.3750000000000000
  0.6120032549949320  0.0553288373070891  0.3750000000000000
  0.4444513426086358  0.5555738893639307  0.8750000000000000
  0.9433255823121872  0.0553288373070891  0.3750000000000000
  0.2777777971860422  0.7222254253163672  0.8750000000000000
  0.1110922765397902  0.2222128049365598  0.8750000000000000
  0.4444513426086358  0.2222107865780607  0.8750000000000000
  0.6111205283968224  0.7222410567935200  0.8750000000000000
  0.9444476281303331  0.7222254253163672  0.8750000000000000
  0.7777817183475881  0.2222194015277480  0.8750000000000000
  0.1111111111111143  0.7222222222222214  0.3750000000000000
  0.4450952603222681  0.7284075817663875  0.3750000000000000
  0.2660799668595488  0.2084283450634717  0.3750000000000000
  0.7833123214441375  0.7284075817663875  0.3750000000000000
  0.6120077480540934  0.2213255852791917  0.3750000000000000
  0.9433255823121872  0.2213300783384376  0.3750000000000000
  0.1110998155170449  0.3888862164729769  0.8750000000000000
  0.2777777971860423  0.8888857052029955  0.8750000000000000
  0.6111139318055784  0.8888956501531383  0.8750000000000000
  0.4444444444444429  0.3888888888888857  0.8750000000000000
  0.9444434442055182  0.8888898891278104  0.8750000000000000
  0.1098915912150723  0.8871965211217857  0.3750000000000000
  0.7777864009559808  0.3888862164729769  0.8750000000000000
  0.4451559203116399  0.8892446268225422  0.3750000000000000
  0.2660799668595455  0.3909849551294227  0.3750000000000000
  0.2749066249117401  0.5584267084215636  0.3750000000000000
  0.6249049882698967  0.3909849551294227  0.3750000000000000
  0.7780044960262475  0.8900077510211414  0.3750000000000000
  0.9440887065107864  0.3881774130216887  0.3750000000000000
  0.1111079080169696  0.5555555361472970  0.8750000000000000
  0.2777732768076259  0.0555465536152084  0.8750000000000000
  0.7777867797180840  0.5555600565257197  0.8750000000000000
  0.6111139318055784  0.0555516149857457  0.8750000000000000
  0.9444376831801903  0.0555516149857457  0.8750000000000000
  0.0555136338135178  0.1110769554079110  0.1248817490314288
  0.5556009539157478  0.6112019078315456  0.1241474773049028
  0.3888529581374990  0.1110031343131458  0.1245586214160576
  0.8889259548635104  0.6111296440984233  0.1250882154796421
  0.7222286233865886  0.1111047099467243  0.1249805669890744
  0.0555580957693532  0.7777752375639559  0.6247439374090161
  0.3888862585208682  0.7777990854521837  0.6249780743851507
  0.2221314255017994  0.2777323794175629  0.6258525226950832
  0.7222563779254780  0.7778196995198519  0.6251182509685318
  0.5556009539157478  0.2777323794175629  0.6258525226950832
  0.8888857863467603  0.2777715726935774  0.6250044980521766
  0.2222171417946182  0.7777752375639559  0.1252560625909621
  0.0555136338135178  0.2777700117389486  0.1248817490314288
  0.3887277659126492  0.2774555318253114  0.1234955875809215
  0.5555633215943849  0.7778196995198519  0.1248817490314288
  0.8889128269312669  0.7777990854521837  0.1250219256148455
  0.7222563779254780  0.2777700117389486  0.1248817490314288
  0.0555342478811776  0.9444205064020617  0.6249780743851507
  0.3888862585208682  0.9444205064020617  0.6249780743851507
  0.2221501761756148  0.4444803751958296  0.6254413785839094
  0.5558778015080301  0.4446055674206794  0.6265044124190507
  0.7222286233865886  0.9444572467732902  0.6250194330109307
  0.8889128269312669  0.4444470748124604  0.6249780743851507
  0.0555342478811776  0.4444470748124604  0.1250219256148455
  0.2222036892348863  0.9444073784698181  0.1250882154796421
  0.5555617606397590  0.9444475469865683  0.1249955019477725
  0.3887277659126492  0.4446055674206794  0.1234955875809193
  0.8888857863467603  0.9444475469865683  0.1249955019477725
  0.7223301990202139  0.4444803751958296  0.1245586214160576
  0.2222036892348863  0.6111296440984233  0.6249117845203800
  0.0555136338135178  0.1110769554079110  0.6251182509685318
  0.5556009539157478  0.6112019078315456  0.6258525226950832
  0.3888529581374990  0.1110031343131458  0.6254413785839094
  0.8889259548635104  0.6111296440984233  0.6249117845203800
  0.0555580957693532  0.6111161915387038  0.1252560625909623
  0.7222286233865886  0.1111047099467243  0.6250194330109307
  0.2221501761756148  0.1110031343131458  0.1245586214160575
  0.3888529581374990  0.6111831571577239  0.1245586214160576
  0.7223301990202139  0.6111831571577239  0.1245586214160576
  0.5555633215943849  0.1110769554079110  0.1248817490314288
  0.3888529581374990  0.6111831571577239  0.6254413785839094
  0.8888760865600384  0.1111047099467243  0.1249805669890744
  0.2222171417946182  0.7777752375639559  0.6247439374090161
  0.0555136338135177  0.2777700117389486  0.6251182509685318
  0.3887277659126492  0.2774555318253114  0.6265044124190507
  0.5555633215943849  0.7778196995198519  0.6251182509685318
  0.8889128269312669  0.7777990854521837  0.6249780743851507
  0.7222563779254780  0.2777700117389485  0.6251182509685318
  0.0555580957693532  0.7777752375639559  0.1252560625909621
  0.3888862585208682  0.7777990854521837  0.1250219256148455
  0.2221314255017994  0.2777323794175629  0.1241474773049028
  0.7222563779254780  0.7778196995198519  0.1248817490314288
  0.5556009539157478  0.2777323794175629  0.1241474773049028
  0.8888857863467603  0.2777715726935774  0.1249955019477725
  0.0555342478811776  0.4444470748124604  0.6249780743851507
  0.2222036892348863  0.9444073784698181  0.6249117845203800
  0.5555617606397590  0.9444475469865683  0.6250044980521766
  0.3887277659126492  0.4446055674206794  0.6265044124190507
  0.8888857863467603  0.9444475469865683  0.6250044980521766
  0.0555342478811776  0.9444205064020617  0.1250219256148455
  0.7223301990202139  0.4444803751958296  0.6254413785839094
  0.3888862585208682  0.9444205064020617  0.1250219256148455
  0.2221501761756148  0.4444803751958296  0.1245586214160576
  0.2222036892348863  0.6111296440984233  0.1250882154796421
  0.5558778015080301  0.4446055674206794  0.1234955875809208
  0.7222286233865886  0.9444572467732902  0.1249805669890744
  0.8889128269312669  0.4444470748124604  0.1250219256148455
  0.0555580957693532  0.6111161915387038  0.6247439374090161
  0.2221501761756148  0.1110031343131458  0.6254413785839094
  0.7223301990202139  0.6111831571577239  0.6254413785839094
  0.5555633215943849  0.1110769554079110  0.6251182509685318
  0.8888760865600384  0.1111047099467243  0.6250194330109307
 
  0.00000000E+00  0.00000000E+00  0.00000000E+00
  0.00000000E+00  0.00000000E+00  0.00000000E+00
  0.00000000E+00  0.00000000E+00  0.00000000E+00
  0.00000000E+00  0.00000000E+00  0.00000000E+00
  0.00000000E+00  0.00000000E+00  0.00000000E+00
  0.00000000E+00  0.00000000E+00  0.00000000E+00
  0.00000000E+00  0.00000000E+00  0.00000000E+00
  0.00000000E+00  0.00000000E+00  0.00000000E+00
  0.00000000E+00  0.00000000E+00  0.00000000E+00
  0.00000000E+00  0.00000000E+00  0.00000000E+00
  0.00000000E+00  0.00000000E+00  0.00000000E+00
  0.00000000E+00  0.00000000E+00  0.00000000E+00
  0.00000000E+00  0.00000000E+00  0.00000000E+00
  0.00000000E+00  0.00000000E+00  0.00000000E+00
  0.00000000E+00  0.00000000E+00  0.00000000E+00
  0.00000000E+00  0.00000000E+00  0.00000000E+00
  0.00000000E+00  0.00000000E+00  0.00000000E+00
  0.00000000E+00  0.00000000E+00  0.00000000E+00
  0.00000000E+00  0.00000000E+00  0.00000000E+00
  0.00000000E+00  0.00000000E+00  0.00000000E+00
  0.00000000E+00  0.00000000E+00  0.00000000E+00
  0.00000000E+00  0.00000000E+00  0.00000000E+00
  0.00000000E+00  0.00000000E+00  0.00000000E+00
  0.00000000E+00  0.00000000E+00  0.00000000E+00
  0.00000000E+00  0.00000000E+00  0.00000000E+00
  0.00000000E+00  0.00000000E+00  0.00000000E+00
  0.00000000E+00  0.00000000E+00  0.00000000E+00
  0.00000000E+00  0.00000000E+00  0.00000000E+00
  0.00000000E+00  0.00000000E+00  0.00000000E+00
  0.00000000E+00  0.00000000E+00  0.00000000E+00
  0.00000000E+00  0.00000000E+00  0.00000000E+00
  0.00000000E+00  0.00000000E+00  0.00000000E+00
  0.00000000E+00  0.00000000E+00  0.00000000E+00
  0.00000000E+00  0.00000000E+00  0.00000000E+00
  0.00000000E+00  0.00000000E+00  0.00000000E+00
  0.00000000E+00  0.00000000E+00  0.00000000E+00
  0.00000000E+00  0.00000000E+00  0.00000000E+00
  0.00000000E+00  0.00000000E+00  0.00000000E+00
  0.00000000E+00  0.00000000E+00  0.00000000E+00
  0.00000000E+00  0.00000000E+00  0.00000000E+00
  0.00000000E+00  0.00000000E+00  0.00000000E+00
  0.00000000E+00  0.00000000E+00  0.00000000E+00
  0.00000000E+00  0.00000000E+00  0.00000000E+00
  0.00000000E+00  0.00000000E+00  0.00000000E+00
  0.00000000E+00  0.00000000E+00  0.00000000E+00
  0.00000000E+00  0.00000000E+00  0.00000000E+00
  0.00000000E+00  0.00000000E+00  0.00000000E+00
  0.00000000E+00  0.00000000E+00  0.00000000E+00
  0.00000000E+00  0.00000000E+00  0.00000000E+00
  0.00000000E+00  0.00000000E+00  0.00000000E+00
  0.00000000E+00  0.00000000E+00  0.00000000E+00
  0.00000000E+00  0.00000000E+00  0.00000000E+00
  0.00000000E+00  0.00000000E+00  0.00000000E+00
  0.00000000E+00  0.00000000E+00  0.00000000E+00
  0.00000000E+00  0.00000000E+00  0.00000000E+00
  0.00000000E+00  0.00000000E+00  0.00000000E+00
  0.00000000E+00  0.00000000E+00  0.00000000E+00
  0.00000000E+00  0.00000000E+00  0.00000000E+00
  0.00000000E+00  0.00000000E+00  0.00000000E+00
  0.00000000E+00  0.00000000E+00  0.00000000E+00
  0.00000000E+00  0.00000000E+00  0.00000000E+00
  0.00000000E+00  0.00000000E+00  0.00000000E+00
  0.00000000E+00  0.00000000E+00  0.00000000E+00
  0.00000000E+00  0.00000000E+00  0.00000000E+00
  0.00000000E+00  0.00000000E+00  0.00000000E+00
  0.00000000E+00  0.00000000E+00  0.00000000E+00
  0.00000000E+00  0.00000000E+00  0.00000000E+00
  0.00000000E+00  0.00000000E+00  0.00000000E+00
  0.00000000E+00  0.00000000E+00  0.00000000E+00
  0.00000000E+00  0.00000000E+00  0.00000000E+00
  0.00000000E+00  0.00000000E+00  0.00000000E+00
  0.00000000E+00  0.00000000E+00  0.00000000E+00
  0.00000000E+00  0.00000000E+00  0.00000000E+00
  0.00000000E+00  0.00000000E+00  0.00000000E+00
  0.00000000E+00  0.00000000E+00  0.00000000E+00
  0.00000000E+00  0.00000000E+00  0.00000000E+00
  0.00000000E+00  0.00000000E+00  0.00000000E+00
  0.00000000E+00  0.00000000E+00  0.00000000E+00
  0.00000000E+00  0.00000000E+00  0.00000000E+00
  0.00000000E+00  0.00000000E+00  0.00000000E+00
  0.00000000E+00  0.00000000E+00  0.00000000E+00
  0.00000000E+00  0.00000000E+00  0.00000000E+00
  0.00000000E+00  0.00000000E+00  0.00000000E+00
  0.00000000E+00  0.00000000E+00  0.00000000E+00
  0.00000000E+00  0.00000000E+00  0.00000000E+00
  0.00000000E+00  0.00000000E+00  0.00000000E+00
  0.00000000E+00  0.00000000E+00  0.00000000E+00
  0.00000000E+00  0.00000000E+00  0.00000000E+00
  0.00000000E+00  0.00000000E+00  0.00000000E+00
  0.00000000E+00  0.00000000E+00  0.00000000E+00
  0.00000000E+00  0.00000000E+00  0.00000000E+00
  0.00000000E+00  0.00000000E+00  0.00000000E+00
  0.00000000E+00  0.00000000E+00  0.00000000E+00
  0.00000000E+00  0.00000000E+00  0.00000000E+00
  0.00000000E+00  0.00000000E+00  0.00000000E+00
  0.00000000E+00  0.00000000E+00  0.00000000E+00
  0.00000000E+00  0.00000000E+00  0.00000000E+00
  0.00000000E+00  0.00000000E+00  0.00000000E+00
  0.00000000E+00  0.00000000E+00  0.00000000E+00
  0.00000000E+00  0.00000000E+00  0.00000000E+00
  0.00000000E+00  0.00000000E+00  0.00000000E+00
  0.00000000E+00  0.00000000E+00  0.00000000E+00
  0.00000000E+00  0.00000000E+00  0.00000000E+00
  0.00000000E+00  0.00000000E+00  0.00000000E+00
  0.00000000E+00  0.00000000E+00  0.00000000E+00
  0.00000000E+00  0.00000000E+00  0.00000000E+00
  0.00000000E+00  0.00000000E+00  0.00000000E+00
  0.00000000E+00  0.00000000E+00  0.00000000E+00
  0.00000000E+00  0.00000000E+00  0.00000000E+00
  0.00000000E+00  0.00000000E+00  0.00000000E+00
  0.00000000E+00  0.00000000E+00  0.00000000E+00
  0.00000000E+00  0.00000000E+00  0.00000000E+00
  0.00000000E+00  0.00000000E+00  0.00000000E+00
  0.00000000E+00  0.00000000E+00  0.00000000E+00
  0.00000000E+00  0.00000000E+00  0.00000000E+00
  0.00000000E+00  0.00000000E+00  0.00000000E+00
  0.00000000E+00  0.00000000E+00  0.00000000E+00
  0.00000000E+00  0.00000000E+00  0.00000000E+00
  0.00000000E+00  0.00000000E+00  0.00000000E+00
  0.00000000E+00  0.00000000E+00  0.00000000E+00
  0.00000000E+00  0.00000000E+00  0.00000000E+00
  0.00000000E+00  0.00000000E+00  0.00000000E+00
  0.00000000E+00  0.00000000E+00  0.00000000E+00
  0.00000000E+00  0.00000000E+00  0.00000000E+00
  0.00000000E+00  0.00000000E+00  0.00000000E+00
  0.00000000E+00  0.00000000E+00  0.00000000E+00
  0.00000000E+00  0.00000000E+00  0.00000000E+00
  0.00000000E+00  0.00000000E+00  0.00000000E+00
  0.00000000E+00  0.00000000E+00  0.00000000E+00
  0.00000000E+00  0.00000000E+00  0.00000000E+00
  0.00000000E+00  0.00000000E+00  0.00000000E+00
  0.00000000E+00  0.00000000E+00  0.00000000E+00
  0.00000000E+00  0.00000000E+00  0.00000000E+00
  0.00000000E+00  0.00000000E+00  0.00000000E+00
  0.00000000E+00  0.00000000E+00  0.00000000E+00
  0.00000000E+00  0.00000000E+00  0.00000000E+00
  0.00000000E+00  0.00000000E+00  0.00000000E+00
  0.00000000E+00  0.00000000E+00  0.00000000E+00
  0.00000000E+00  0.00000000E+00  0.00000000E+00
  0.00000000E+00  0.00000000E+00  0.00000000E+00
  0.00000000E+00  0.00000000E+00  0.00000000E+00
  0.00000000E+00  0.00000000E+00  0.00000000E+00
  0.00000000E+00  0.00000000E+00  0.00000000E+00
  0.00000000E+00  0.00000000E+00  0.00000000E+00
  0.00000000E+00  0.00000000E+00  0.00000000E+00
  0.00000000E+00  0.00000000E+00  0.00000000E+00
  0.00000000E+00  0.00000000E+00  0.00000000E+00
  0.00000000E+00  0.00000000E+00  0.00000000E+00
  0.00000000E+00  0.00000000E+00  0.00000000E+00
  0.00000000E+00  0.00000000E+00  0.00000000E+00
  0.00000000E+00  0.00000000E+00  0.00000000E+00
  0.00000000E+00  0.00000000E+00  0.00000000E+00
  0.00000000E+00  0.00000000E+00  0.00000000E+00
  0.00000000E+00  0.00000000E+00  0.00000000E+00
  0.00000000E+00  0.00000000E+00  0.00000000E+00
  0.00000000E+00  0.00000000E+00  0.00000000E+00
  0.00000000E+00  0.00000000E+00  0.00000000E+00
  0.00000000E+00  0.00000000E+00  0.00000000E+00
  0.00000000E+00  0.00000000E+00  0.00000000E+00
  0.00000000E+00  0.00000000E+00  0.00000000E+00
  0.00000000E+00  0.00000000E+00  0.00000000E+00
  0.00000000E+00  0.00000000E+00  0.00000000E+00
  0.00000000E+00  0.00000000E+00  0.00000000E+00
  0.00000000E+00  0.00000000E+00  0.00000000E+00
  0.00000000E+00  0.00000000E+00  0.00000000E+00
  0.00000000E+00  0.00000000E+00  0.00000000E+00
  0.00000000E+00  0.00000000E+00  0.00000000E+00
  0.00000000E+00  0.00000000E+00  0.00000000E+00
  0.00000000E+00  0.00000000E+00  0.00000000E+00
  0.00000000E+00  0.00000000E+00  0.00000000E+00
  0.00000000E+00  0.00000000E+00  0.00000000E+00
  0.00000000E+00  0.00000000E+00  0.00000000E+00
  0.00000000E+00  0.00000000E+00  0.00000000E+00
  0.00000000E+00  0.00000000E+00  0.00000000E+00
  0.00000000E+00  0.00000000E+00  0.00000000E+00
  0.00000000E+00  0.00000000E+00  0.00000000E+00
  0.00000000E+00  0.00000000E+00  0.00000000E+00
  0.00000000E+00  0.00000000E+00  0.00000000E+00
  0.00000000E+00  0.00000000E+00  0.00000000E+00
  0.00000000E+00  0.00000000E+00  0.00000000E+00
  0.00000000E+00  0.00000000E+00  0.00000000E+00
  0.00000000E+00  0.00000000E+00  0.00000000E+00
  0.00000000E+00  0.00000000E+00  0.00000000E+00
  0.00000000E+00  0.00000000E+00  0.00000000E+00
  0.00000000E+00  0.00000000E+00  0.00000000E+00
  0.00000000E+00  0.00000000E+00  0.00000000E+00
  0.00000000E+00  0.00000000E+00  0.00000000E+00
  0.00000000E+00  0.00000000E+00  0.00000000E+00
  0.00000000E+00  0.00000000E+00  0.00000000E+00
  0.00000000E+00  0.00000000E+00  0.00000000E+00
  0.00000000E+00  0.00000000E+00  0.00000000E+00
  0.00000000E+00  0.00000000E+00  0.00000000E+00
  0.00000000E+00  0.00000000E+00  0.00000000E+00
  0.00000000E+00  0.00000000E+00  0.00000000E+00
  0.00000000E+00  0.00000000E+00  0.00000000E+00
  0.00000000E+00  0.00000000E+00  0.00000000E+00
  0.00000000E+00  0.00000000E+00  0.00000000E+00
  0.00000000E+00  0.00000000E+00  0.00000000E+00
  0.00000000E+00  0.00000000E+00  0.00000000E+00
  0.00000000E+00  0.00000000E+00  0.00000000E+00
  0.00000000E+00  0.00000000E+00  0.00000000E+00
  0.00000000E+00  0.00000000E+00  0.00000000E+00
  0.00000000E+00  0.00000000E+00  0.00000000E+00
  0.00000000E+00  0.00000000E+00  0.00000000E+00
  0.00000000E+00  0.00000000E+00  0.00000000E+00
  0.00000000E+00  0.00000000E+00  0.00000000E+00
  0.00000000E+00  0.00000000E+00  0.00000000E+00
  0.00000000E+00  0.00000000E+00  0.00000000E+00
  0.00000000E+00  0.00000000E+00  0.00000000E+00
  0.00000000E+00  0.00000000E+00  0.00000000E+00
  0.00000000E+00  0.00000000E+00  0.00000000E+00
  0.00000000E+00  0.00000000E+00  0.00000000E+00
  0.00000000E+00  0.00000000E+00  0.00000000E+00
  0.00000000E+00  0.00000000E+00  0.00000000E+00
  0.00000000E+00  0.00000000E+00  0.00000000E+00
  0.00000000E+00  0.00000000E+00  0.00000000E+00
  0.00000000E+00  0.00000000E+00  0.00000000E+00
  0.00000000E+00  0.00000000E+00  0.00000000E+00
  0.00000000E+00  0.00000000E+00  0.00000000E+00
  0.00000000E+00  0.00000000E+00  0.00000000E+00
  0.00000000E+00  0.00000000E+00  0.00000000E+00
  0.00000000E+00  0.00000000E+00  0.00000000E+00
  0.00000000E+00  0.00000000E+00  0.00000000E+00
  0.00000000E+00  0.00000000E+00  0.00000000E+00
  0.00000000E+00  0.00000000E+00  0.00000000E+00
  0.00000000E+00  0.00000000E+00  0.00000000E+00
  0.00000000E+00  0.00000000E+00  0.00000000E+00
  0.00000000E+00  0.00000000E+00  0.00000000E+00
  0.00000000E+00  0.00000000E+00  0.00000000E+00
  0.00000000E+00  0.00000000E+00  0.00000000E+00
  0.00000000E+00  0.00000000E+00  0.00000000E+00
  0.00000000E+00  0.00000000E+00  0.00000000E+00
  0.00000000E+00  0.00000000E+00  0.00000000E+00
  0.00000000E+00  0.00000000E+00  0.00000000E+00
  0.00000000E+00  0.00000000E+00  0.00000000E+00
  0.00000000E+00  0.00000000E+00  0.00000000E+00
  0.00000000E+00  0.00000000E+00  0.00000000E+00
  0.00000000E+00  0.00000000E+00  0.00000000E+00
  0.00000000E+00  0.00000000E+00  0.00000000E+00
  0.00000000E+00  0.00000000E+00  0.00000000E+00
  0.00000000E+00  0.00000000E+00  0.00000000E+00
  0.00000000E+00  0.00000000E+00  0.00000000E+00
  0.00000000E+00  0.00000000E+00  0.00000000E+00
  0.00000000E+00  0.00000000E+00  0.00000000E+00
  0.00000000E+00  0.00000000E+00  0.00000000E+00
  0.00000000E+00  0.00000000E+00  0.00000000E+00
  0.00000000E+00  0.00000000E+00  0.00000000E+00