 N B Pb 
 1.0
 14.936314146199660   0.000000000000000   0.000000000000000
 -7.468157073099825  12.935227489513863   0.000000000000000
  0.000000000000001   0.000000000000001  13.341276283792837
 N B Pb 
 144 143   1
Cartesian
  1.244428935246413   0.718311292908874   1.665123479046702 
  4.978974058789587   7.186763355569546   1.652303019332745 
  6.223728137853342   0.718311292908874   1.665123479046702 
  9.957641857827312   7.186280168267851   1.669790988522124 
 11.202235609649751   0.718623749417456   1.666758099007530 
 -3.734078536549858   9.342108742426664   8.333653274222330 
  1.244554205377742   9.342493523679201   8.340833733798526 
  2.489031620067317   2.874056543781784   8.353654193512082 
  6.223602867721575   9.342493523679201   8.340833733798526 
  7.468464637145962   2.874317425485429   8.341843151375809 
 12.446788762808863   2.874415268759600   8.339061672580524 
 -1.244779349212329   9.342173223036079   1.669790988522124 
 -0.000307564045157   2.874317425485428   1.664114061468418 
  4.979125453032665   2.874056543781784   1.652303019332745 
  3.734078536550697   9.342463886795491   1.664114061468418 
  8.712936422312840   9.342173223036079   1.669790988522124 
  9.957682456490613   2.874415268759599   1.666895540264305 
 -4.978783972063995  11.497872835975659   8.336166224322715 
  0.000044887550189  11.498005906518159   8.338341589481821 
  1.244136097828410   5.030278838414578   8.353654193512069 
  6.224020975272262   5.030278838414578   8.353654193512069 
  4.978772180983732  11.498140832264335   8.339061672580524 
 11.202235609649712   5.030314414243644   8.338341589481821 
 -1.245095395925748   5.030293921178013   1.665123479046702 
 -2.489373101034960  11.497872835975659   1.669790988522124 
  2.489384892117005  11.498140832264335   1.666895540264305 
  3.734078536549917   5.030366245922020   1.654262854291632 
  7.468112185549592  11.498005906518159   1.667615623362473 
  8.713252469025253   5.030293921178013   1.665123479046702 
 -0.000225132553492   7.186367474514532   8.341207818090504 
  1.244428935246413   0.718311292908875   8.340833733798526 
  4.978974058789588   7.186763355569547   8.353654193512069 
  6.223728137853343   0.718311292908875   8.340833733798526 
  9.957641857827312   7.186280168267852   8.336166224322715 
 -2.489484784726893   7.186280168267851   1.669790988522124 
 11.202235609649751   0.718623749417456   8.339199113836925 
  3.734078536549676   0.718363788736921   1.664749394754217 
  2.489183014311085   7.186763355569546   1.652303019332745 
  7.468382205653716   7.186367474514531   1.664749394754217 
  8.712988812057063   0.718542636743253   1.666895540264305 
  2.489183014311086   7.186763355569547   8.353654193512082 
 13.691482407242040   0.718542636743253   1.666895540264305 
 -1.244779349212328   9.342173223036079   8.336166224322715 
 -0.000307564045156   2.874317425485429   8.341843151375809 
  4.979125453032652   2.874056543781810   8.353654193512082 
  3.734078536550697   9.342463886795491   8.341843151375809 
  8.712936422312840   9.342173223036079   8.336166224322715 
  9.957682456490613   2.874415268759600   8.339061672580524 
 -3.734078536549859   9.342108742426664   1.672303938622098 
  1.244554205377741   9.342493523679201   1.665123479046702 
  2.489031620067316   2.874056543781784   1.652303019332745 
  6.223602867721812   9.342493523679201   1.665123479046702 
  7.468464637145961   2.874317425485428   1.664114061468418 
 12.446788762808863   2.874415268759599   1.666895540264305 
 -1.245095395925747   5.030293921178014   8.340833733798526 
 -2.489373101034959  11.497872835975659   8.336166224322715 
  2.489384892117005  11.498140832264335   8.339061672580524 
  3.734078536549917   5.030366245922021   8.351694358553184 
  7.468112185549593  11.498005906518159   8.338341589481821 
 -4.978783972063995  11.497872835975659   1.669790988522124 
  8.713252469025253   5.030293921178014   8.340833733798526 
  0.000044887550189  11.498005906518159   1.667615623362473 
  1.244136097828410   5.030278838414577   1.652303019332732 
 -0.000225132553493   7.186367474514531   1.664749394754217 
  6.224020975272261   5.030278838414577   1.652303019332745 
  4.978772180983731  11.498140832264335   1.666895540264305 
 11.202235609649712   5.030314414243644   1.667615623362473 
 -2.489484784726893   7.186280168267852   8.336166224322715 
  3.734078536549677   0.718363788736922   8.341207818090504 
  7.468382205653717   7.186367474514532   8.341207818090504 
  8.712988812057063   0.718542636743254   8.339061672580524 
 13.691482407242040   0.718542636743254   8.339061672580524 
 -0.019727565020390   1.421903026628003   5.002978606422314 
  3.734078536550493   7.925574035855278   5.002978606422314 
  5.035587932104756   1.291115720703112   5.002978606422314 
  8.756364983232841   7.929984677861445   5.002978606422314 
  9.965499764411893   1.432653522582317   5.002978606422314 
 -4.978767022474341  10.060729974832311  11.673616748318732 
 -0.000028396442391  10.060738510393527  11.673616748318732 
  1.244670490471532   3.593105840395613  11.673616748318732 
  4.978791456693659  10.060743336363803  11.673616748318732 
  6.223486582628706   3.593105840395613  11.673616748318732 
 11.202235609649895   3.593156566652796  11.673616748318732 
 -2.497736232777525  10.055911304320750   5.002978606422314 
 -1.267845330765659   3.583706410728174   5.002978606422314 
  3.734078536549760   3.090721440469622   5.002978606422314 
  2.485960770804867  10.085489300410391   5.002978606422314 
  7.496430643317025  10.094341057844916   5.002978606422314 
  8.736002403865493   3.583706410728174   5.002978606422314 
 -6.223455241578838  12.216576138781177  11.673616748318732 
 -1.244701831521115  12.216576138781177  11.673616748318732 
 -0.000010390300744   5.748987160012376  11.673616748318732 
  4.978714877470651   5.748957372395794  11.673616748318732 
  3.734078536549884  12.216595252614761  11.673616748318732 
  9.957562174571009   5.749011578105226  11.673616748318732 
 -2.532628348083488   5.756671342403289   5.002978606422314 
 -3.734078536549565  12.166356871556442   5.002978606422314 
  1.251120334317787  12.220314652486374   5.002978606422314 
  2.054296860709390   6.000188648648357   5.002978606422314 
  6.217036738781307  12.220314652486374   5.002978606422314 
  7.623119180281542   5.772851308716848   5.002978606422314 
 -1.244699856997466   7.904865291672683  11.673616748318732 
  0.000000645684248   1.437224691438297  11.673616748318732 
  3.734078536549829   7.904887056975021  11.673616748318732 
  4.978779032682231   1.437239918233940  11.673616748318732 
  8.712856930096557   7.904865291672683  11.673616748318732 
 -3.734078536550195   7.914503618639952   5.002978606422314 
  9.957535413758338   1.437251742575698  11.673616748318732 
  2.432569140994822   1.291115720703112   5.002978606422314 
  1.146547288373358   8.027131708346310   5.002978606422314 
  6.321609784726583   8.027131708346310   5.002978606422314 
  7.487884638120641   1.421903026628003   5.002978606422314 
  1.244690105831348   7.904871659520058  11.673616748318732 
 12.438971454888241   1.432653522582317   5.002978606422314 
 -2.489390050625180  10.060729974832311  11.673616748318732 
 -1.244712274459453   3.593130709964624  11.673616748318732 
  3.734078536549724   3.593183992974789  11.673616748318732 
  2.489365616405837  10.060743336363803  11.673616748318732 
  7.468185469542217  10.060738510393527  11.673616748318732 
  8.712869347559421   3.593130709964624  11.673616748318732 
 -4.970420840322758  10.055911304320750   5.002978606422314 
 -0.028273570217755  10.094341057844916   5.002978606422314 
  1.226755041232889   3.582762350955476   5.002978606422314 
  4.982196302294988  10.085489300410391   5.002978606422314 
  6.241402031867227   3.582762350955476   5.002978606422314 
 11.202235609649405   3.585696922307773   5.002978606422314 
 -2.489405101471321   5.749011578105226  11.673616748318732 
 -3.734078536549790  12.216595643936062  11.673616748318732 
  1.244660092812413  12.216584830313426  11.673616748318732 
  2.489442195629185   5.748957372395794  11.673616748318732 
  6.223496980288040  12.216584830313426  11.673616748318732 
 -6.238433314415926  12.175313827032188   5.002978606422314 
  7.468167463400611   5.748987160012376  11.673616748318732 
 -1.229723758684298  12.175313827032188   5.002978606422314 
 -0.154962107181617   5.772851308716848   5.002978606422314 
 -1.288207910132330   7.929984677861445   5.002978606422314 
  5.413860212390446   6.000188648648357   5.002978606422314 
  3.734078536550570  12.225791692601442   5.002978606422314 
 10.000785421182918   5.756671342403289   5.002978606422314 
 -3.734078536549963   7.904866277615294  11.673616748318732 
  2.489378040417662   1.437239918233914  11.673616748318732 
  6.223466967268118   7.904871659520058  11.673616748318732 
  7.468156427415300   1.437224691438297  11.673616748318732 
 12.446935805541063   1.437251742575698  11.673616748318732 
  1.193639213686172   0.647033168042480   5.002978606422314 
  5.097439975255370   7.337551339531232   5.002978606422314 
  6.274517859413972   0.647033168042480   5.002978606422314 
  9.979289198580336   7.192353888954987   5.002978606422314 
 11.202235609649751   0.718623749417456   5.002978606422314 
 -3.734078536549858   9.342108742426666  11.673616748318732 
  1.244648404289286   9.342254853505835  11.673616748318732 
  2.489197254699127   2.874347075011034  11.673616748318732 
  6.223508668810896   9.342254853505835  11.673616748318732 
  7.468368062406141   2.874373182937374  11.673616748318732 
 12.446848532188842   2.874458511345046  11.673616748318732 
 -1.260863015999846   9.357883509709566   5.002978606422314 
 -0.020088676584066   2.862896794836149   5.002978606422314 
  5.050478719495219   2.696068058658904   5.002978606422314 
  3.734078536549076   9.365305148094086   5.002978606422314 
  8.729020089099579   9.357883509709566   5.002978606422314 
  9.967591769770841   2.862954913579621   5.002978606422314 
 -4.978795448220553  11.497938808977699  11.673616748318732 
  0.000022409823981  11.497992928996979  11.673616748318732 
  1.244470522569393   5.030277016598925  11.673616748318732 
  6.223686550530501   5.030277016598925  11.673616748318732 
  4.978779745471734  11.498067449170170  11.673616748318732 
 11.202235609649634   5.030340369286138  11.673616748318732 
 -1.332218923574097   5.021947794488555   5.002978606422314 
 -2.483809427069130  11.476088828615595   5.002978606422314 
  2.494355194198838  11.512452726889075   5.002978606422314 
  7.460186952803611  11.502581541777442   5.002978606422314 
  8.800375996674379   5.021947794488555   5.002978606422314 
 -0.000100841856315   7.186295715247371  11.673616748318732 
  1.244588530224262   0.718512206646093  11.673616748318732 
  4.978805268679436   7.186474646156456  11.673616748318732 
  6.223568542875779   0.718512206646093  11.673616748318732 
  9.957590461609609   7.186237243124130  11.673616748318732 
 -2.511132125481084   7.192353888954987   5.002978606422314 
 11.202235609649751   0.718623749417457  11.673616748318732 
  3.734078536549849   0.644345718458817   5.002978606422314 
  2.370717097844453   7.337551339531232   5.002978606422314 
  7.532483734853444   7.223376509653360   5.002978606422314 
  8.727868427419715   0.715691097297498   5.002978606422314 
  2.489351804419981   7.186474646156456  11.673616748318732 
 13.676602791880224   0.715691097297498   5.002978606422314 
 -1.244716476838896   9.342150175178114  11.673616748318732 
 -0.000210989305532   2.874373182937374  11.673616748318732 
  4.978959818400781   2.874347075011034  11.673616748318732 
  3.734078536550845   9.342352371891085  11.673616748318732 
  8.712873549938854   9.342150175178114  11.673616748318732 
  9.957622687111096   2.874458511345046  11.673616748318732 
 -3.734078536549858   9.342108742426664   5.002978606422314 
  1.208220399289722   9.422117775234899   5.002978606422314 
  2.417678353604359   2.696068058658904   5.002978606422314 
  6.259936673810384   9.422117775234899   5.002978606422314 
  7.488245749683390   2.862896794836149   5.002978606422314 
 12.436879449528606   2.862954913579621   5.002978606422314 
 -1.244841602036280   5.030331677614292  11.673616748318732 
 -2.489361624879013  11.497938808977699  11.673616748318732 
  2.489377327628527  11.498067449170170  11.673616748318732 
  3.734078536549918   5.030366245922021  11.673616748318732 
  7.468134663275634  11.497992928996979  11.673616748318732 
 -4.984347646031154  11.476088828615595   5.002978606422314 
  8.712998675136845   5.030331677614292  11.673616748318732 
  0.007970120294496  11.502581541777442   5.002978606422314 
  1.054316914899141   5.057479339576457   5.002978606422314 
 -0.064326661753131   7.223376509653360   5.002978606422314 
  6.413840158200978   5.057479339576457   5.002978606422314 
  4.973801878901583  11.512452726889075   5.002978606422314 
 11.202235609648874   5.021163143726529   5.002978606422314 
 -2.489433388509681   7.186237243124130  11.673616748318732 
  3.734078536550245   0.718507307271195  11.673616748318732 
  7.468257914956004   7.186295715247371  11.673616748318732 
  8.712921478189433   0.718572777250513  11.673616748318732 
 13.691549741110386   0.718572777250513  11.673616748318732 
 -0.000371076152187   1.436805687043916   1.666081916631573 
  3.734078536549545   7.906035719825933   1.656285794660612 
  4.979041096763739   1.435850794389606   1.661770981839985 
  8.713265140397269   7.905100971998745   1.668836442560516 
  9.957686178836084   1.437164698317329   1.667400274306315 
 -4.978714469919450  10.060699633600459   8.334881475598262 
 -0.000198417062404  10.061008111459833   8.338005161685130 
  1.243675719261899   3.592531508970156   8.349671418183828 
  4.978968464225683  10.061274759114603   8.339875296212535 
  6.224481353837696   3.592531508970156   8.349671418183828 
 11.202235609649319   3.593038482911457   8.338357687127354 
 -2.489442603180145  10.060699633600459   1.671075737246073 
 -1.245261003827456   3.593018291608242   1.666081916631573 
  3.734078536549819   3.588950422384451   1.647588753746402 
  2.489188608874320  10.061274759114603   1.666081916631573 
  7.468355490161510  10.061008111459833   1.667952051159457 
  8.713418076927992   3.593018291608242   1.666081916631573 
 -6.223603712640879  12.216294096072556   8.338005161685130 
 -1.244553360459178  12.216294096072556   8.338005161685130 
 -0.001344438880217   5.749454767782537   8.344186231004203 
  4.982381257150451   5.751074157690877   8.358368459097852 
  3.734078536549084  12.216769341132439   8.338556938538380 
  9.957880666252613   5.749024019748158   8.338005161685130 
 -2.489723593153002   5.749024019748157   1.667952051159457 
 -3.734078536550253  12.216124283282513   1.668836442560516 
  1.244762356331705  12.216643872184591   1.667599525716592 
  2.485775815949384   5.751074157690876   1.647588753746376 
  6.223394716767402  12.216643872184591   1.667599525716592 
  7.469501511980035   5.749454767782536   1.661770981839985 
 -1.245108067297835   7.905100971998746   8.337120770284406 
 -0.000371076152187   1.436805687043917   8.339875296212535 
  3.734078536549545   7.906035719825934   8.349671418183828 
  4.979041096763740   1.435850794389607   8.344186231004203 
  8.713265140397269   7.905100971998746   8.337120770284406 
 -3.734078536549896   7.904926960078464   1.671075737246073 
  9.957686178836084   1.437164698317330   8.338556938538380 
  2.489115976335614   1.435850794389606   1.661770981839985 
  1.243618121333772   7.905793175594463   1.661770981839985 
  6.224538951765899   7.905793175594463   1.661770981839985 
  7.468528149251899   1.436805687043916   1.666081916631573 
  1.243618121333772   7.905793175594463   8.344186231004203 
 12.446785040461958   1.437164698317329   1.667400274306315 
 -2.489442603180145  10.060699633600459   8.334881475598262 
 -1.245261003827456   3.593018291608243   8.339875296212535 
  3.734078536549820   3.588950422384452   8.358368459097852 
  2.489188608874321  10.061274759114603   8.339875296212535 
  7.468355490161511  10.061008111459833   8.338005161685130 
  8.713418076927999   3.593018291608229   8.339875296212535 
 -4.978714469919451  10.060699633600459   1.671075737246073 
 -0.000198417062404  10.061008111459833   1.667952051159457 
  1.243675719261899   3.592531508970155   1.656285794660612 
  4.978968464225682  10.061274759114603   1.666081916631573 
  6.224481353837695   3.592531508970155   1.656285794660612 
 11.202235609649319   3.593038482911456   1.667599525716592 
 -2.489723593153002   5.749024019748158   8.338005161685130 
 -3.734078536550253  12.216124283282513   8.337120770284406 
  1.244762356331706  12.216643872184591   8.338357687127354 
  2.485775815949385   5.751074157690877   8.358368459097852 
  6.223394716767403  12.216643872184591   8.338357687127354 
 -6.223603712640880  12.216294096072556   1.667952051159457 
  7.469501511980036   5.749454767782537   8.344186231004203 
 -1.244553360459179  12.216294096072556   1.667952051159457 
 -0.001344438880217   5.749454767782536   1.661770981839985 
 -1.245108067297835   7.905100971998745   1.668836442560516 
  4.982381257150450   5.751074157690876   1.647588753746402 
  3.734078536549084  12.216769341132439   1.667400274306315 
  9.957880666252613   5.749024019748157   1.667952051159457 
 -3.734078536549896   7.904926960078464   8.334881475598262 
  2.489115976335614   1.435850794389607   8.344186231004203 
  6.224538951765900   7.905793175594463   8.344186231004203 
  7.468528149251900   1.436805687043917   8.339875296212535 
 12.446785040461958   1.437164698317330   8.338556938538380 
  3.734078536549917   5.030366245922021   5.002978606422314 
Generated by cif2cell 2.0.0.  :  Failed to get author information, No journal information. Species order: N B Pb 
 1.0
 14.936314146199660   0.000000000000000   0.000000000000000
 -7.468157073099825  12.935227489513863   0.000000000000000
  0.000000000000001   0.000000000000001  13.341276283792837
 N B Pb 
 144 143   1
Cartesian
  1.244428935246413   0.718311292908874   1.665123479046702 
  4.978974058789587   7.186763355569546   1.652303019332745 
  6.223728137853342   0.718311292908874   1.665123479046702 
  9.957641857827312   7.186280168267851   1.669790988522124 
 11.202235609649751   0.718623749417456   1.666758099007530 
 -3.734078536549858   9.342108742426664   8.333653274222330 
  1.244554205377742   9.342493523679201   8.340833733798526 
  2.489031620067317   2.874056543781784   8.353654193512082 
  6.223602867721575   9.342493523679201   8.340833733798526 
  7.468464637145962   2.874317425485429   8.341843151375809 
 12.446788762808863   2.874415268759600   8.339061672580524 
 -1.244779349212329   9.342173223036079   1.669790988522124 
 -0.000307564045157   2.874317425485428   1.664114061468418 
  4.979125453032665   2.874056543781784   1.652303019332745 
  3.734078536550697   9.342463886795491   1.664114061468418 
  8.712936422312840   9.342173223036079   1.669790988522124 
  9.957682456490613   2.874415268759599   1.666895540264305 
 -4.978783972063995  11.497872835975659   8.336166224322715 
  0.000044887550189  11.498005906518159   8.338341589481821 
  1.244136097828410   5.030278838414578   8.353654193512069 
  6.224020975272262   5.030278838414578   8.353654193512069 
  4.978772180983732  11.498140832264335   8.339061672580524 
 11.202235609649712   5.030314414243644   8.338341589481821 
 -1.245095395925748   5.030293921178013   1.665123479046702 
 -2.489373101034960  11.497872835975659   1.669790988522124 
  2.489384892117005  11.498140832264335   1.666895540264305 
  3.734078536549917   5.030366245922020   1.654262854291632 
  7.468112185549592  11.498005906518159   1.667615623362473 
  8.713252469025253   5.030293921178013   1.665123479046702 
 -0.000225132553492   7.186367474514532   8.341207818090504 
  1.244428935246413   0.718311292908875   8.340833733798526 
  4.978974058789588   7.186763355569547   8.353654193512069 
  6.223728137853343   0.718311292908875   8.340833733798526 
  9.957641857827312   7.186280168267852   8.336166224322715 
 -2.489484784726893   7.186280168267851   1.669790988522124 
 11.202235609649751   0.718623749417456   8.339199113836925 
  3.734078536549676   0.718363788736921   1.664749394754217 
  2.489183014311085   7.186763355569546   1.652303019332745 
  7.468382205653716   7.186367474514531   1.664749394754217 
  8.712988812057063   0.718542636743253   1.666895540264305 
  2.489183014311086   7.186763355569547   8.353654193512082 
 13.691482407242040   0.718542636743253   1.666895540264305 
 -1.244779349212328   9.342173223036079   8.336166224322715 
 -0.000307564045156   2.874317425485429   8.341843151375809 
  4.979125453032652   2.874056543781810   8.353654193512082 
  3.734078536550697   9.342463886795491   8.341843151375809 
  8.712936422312840   9.342173223036079   8.336166224322715 
  9.957682456490613   2.874415268759600   8.339061672580524 
 -3.734078536549859   9.342108742426664   1.672303938622098 
  1.244554205377741   9.342493523679201   1.665123479046702 
  2.489031620067316   2.874056543781784   1.652303019332745 
  6.223602867721812   9.342493523679201   1.665123479046702 
  7.468464637145961   2.874317425485428   1.664114061468418 
 12.446788762808863   2.874415268759599   1.666895540264305 
 -1.245095395925747   5.030293921178014   8.340833733798526 
 -2.489373101034959  11.497872835975659   8.336166224322715 
  2.489384892117005  11.498140832264335   8.339061672580524 
  3.734078536549917   5.030366245922021   8.351694358553184 
  7.468112185549593  11.498005906518159   8.338341589481821 
 -4.978783972063995  11.497872835975659   1.669790988522124 
  8.713252469025253   5.030293921178014   8.340833733798526 
  0.000044887550189  11.498005906518159   1.667615623362473 
  1.244136097828410   5.030278838414577   1.652303019332732 
 -0.000225132553493   7.186367474514531   1.664749394754217 
  6.224020975272261   5.030278838414577   1.652303019332745 
  4.978772180983731  11.498140832264335   1.666895540264305 
 11.202235609649712   5.030314414243644   1.667615623362473 
 -2.489484784726893   7.186280168267852   8.336166224322715 
  3.734078536549677   0.718363788736922   8.341207818090504 
  7.468382205653717   7.186367474514532   8.341207818090504 
  8.712988812057063   0.718542636743254   8.339061672580524 
 13.691482407242040   0.718542636743254   8.339061672580524 
 -0.019727565020390   1.421903026628003   5.002978606422314 
  3.734078536550493   7.925574035855278   5.002978606422314 
  5.035587932104756   1.291115720703112   5.002978606422314 
  8.756364983232841   7.929984677861445   5.002978606422314 
  9.965499764411893   1.432653522582317   5.002978606422314 
 -4.978767022474341  10.060729974832311  11.673616748318732 
 -0.000028396442391  10.060738510393527  11.673616748318732 
  1.244670490471532   3.593105840395613  11.673616748318732 
  4.978791456693659  10.060743336363803  11.673616748318732 
  6.223486582628706   3.593105840395613  11.673616748318732 
 11.202235609649895   3.593156566652796  11.673616748318732 
 -2.497736232777525  10.055911304320750   5.002978606422314 
 -1.267845330765659   3.583706410728174   5.002978606422314 
  3.734078536549760   3.090721440469622   5.002978606422314 
  2.485960770804867  10.085489300410391   5.002978606422314 
  7.496430643317025  10.094341057844916   5.002978606422314 
  8.736002403865493   3.583706410728174   5.002978606422314 
 -6.223455241578838  12.216576138781177  11.673616748318732 
 -1.244701831521115  12.216576138781177  11.673616748318732 
 -0.000010390300744   5.748987160012376  11.673616748318732 
  4.978714877470651   5.748957372395794  11.673616748318732 
  3.734078536549884  12.216595252614761  11.673616748318732 
  9.957562174571009   5.749011578105226  11.673616748318732 
 -2.532628348083488   5.756671342403289   5.002978606422314 
 -3.734078536549565  12.166356871556442   5.002978606422314 
  1.251120334317787  12.220314652486374   5.002978606422314 
  2.054296860709390   6.000188648648357   5.002978606422314 
  6.217036738781307  12.220314652486374   5.002978606422314 
  7.623119180281542   5.772851308716848   5.002978606422314 
 -1.244699856997466   7.904865291672683  11.673616748318732 
  0.000000645684248   1.437224691438297  11.673616748318732 
  3.734078536549829   7.904887056975021  11.673616748318732 
  4.978779032682231   1.437239918233940  11.673616748318732 
  8.712856930096557   7.904865291672683  11.673616748318732 
 -3.734078536550195   7.914503618639952   5.002978606422314 
  9.957535413758338   1.437251742575698  11.673616748318732 
  2.432569140994822   1.291115720703112   5.002978606422314 
  1.146547288373358   8.027131708346310   5.002978606422314 
  6.321609784726583   8.027131708346310   5.002978606422314 
  7.487884638120641   1.421903026628003   5.002978606422314 
  1.244690105831348   7.904871659520058  11.673616748318732 
 12.438971454888241   1.432653522582317   5.002978606422314 
 -2.489390050625180  10.060729974832311  11.673616748318732 
 -1.244712274459453   3.593130709964624  11.673616748318732 
  3.734078536549724   3.593183992974789  11.673616748318732 
  2.489365616405837  10.060743336363803  11.673616748318732 
  7.468185469542217  10.060738510393527  11.673616748318732 
  8.712869347559421   3.593130709964624  11.673616748318732 
 -4.970420840322758  10.055911304320750   5.002978606422314 
 -0.028273570217755  10.094341057844916   5.002978606422314 
  1.226755041232889   3.582762350955476   5.002978606422314 
  4.982196302294988  10.085489300410391   5.002978606422314 
  6.241402031867227   3.582762350955476   5.002978606422314 
 11.202235609649405   3.585696922307773   5.002978606422314 
 -2.489405101471321   5.749011578105226  11.673616748318732 
 -3.734078536549790  12.216595643936062  11.673616748318732 
  1.244660092812413  12.216584830313426  11.673616748318732 
  2.489442195629185   5.748957372395794  11.673616748318732 
  6.223496980288040  12.216584830313426  11.673616748318732 
 -6.238433314415926  12.175313827032188   5.002978606422314 
  7.468167463400611   5.748987160012376  11.673616748318732 
 -1.229723758684298  12.175313827032188   5.002978606422314 
 -0.154962107181617   5.772851308716848   5.002978606422314 
 -1.288207910132330   7.929984677861445   5.002978606422314 
  5.413860212390446   6.000188648648357   5.002978606422314 
  3.734078536550570  12.225791692601442   5.002978606422314 
 10.000785421182918   5.756671342403289   5.002978606422314 
 -3.734078536549963   7.904866277615294  11.673616748318732 
  2.489378040417662   1.437239918233914  11.673616748318732 
  6.223466967268118   7.904871659520058  11.673616748318732 
  7.468156427415300   1.437224691438297  11.673616748318732 
 12.446935805541063   1.437251742575698  11.673616748318732 
  1.193639213686172   0.647033168042480   5.002978606422314 
  5.097439975255370   7.337551339531232   5.002978606422314 
  6.274517859413972   0.647033168042480   5.002978606422314 
  9.979289198580336   7.192353888954987   5.002978606422314 
 11.202235609649751   0.718623749417456   5.002978606422314 
 -3.734078536549858   9.342108742426666  11.673616748318732 
  1.244648404289286   9.342254853505835  11.673616748318732 
  2.489197254699127   2.874347075011034  11.673616748318732 
  6.223508668810896   9.342254853505835  11.673616748318732 
  7.468368062406141   2.874373182937374  11.673616748318732 
 12.446848532188842   2.874458511345046  11.673616748318732 
 -1.260863015999846   9.357883509709566   5.002978606422314 
 -0.020088676584066   2.862896794836149   5.002978606422314 
  5.050478719495219   2.696068058658904   5.002978606422314 
  3.734078536549076   9.365305148094086   5.002978606422314 
  8.729020089099579   9.357883509709566   5.002978606422314 
  9.967591769770841   2.862954913579621   5.002978606422314 
 -4.978795448220553  11.497938808977699  11.673616748318732 
  0.000022409823981  11.497992928996979  11.673616748318732 
  1.244470522569393   5.030277016598925  11.673616748318732 
  6.223686550530501   5.030277016598925  11.673616748318732 
  4.978779745471734  11.498067449170170  11.673616748318732 
 11.202235609649634   5.030340369286138  11.673616748318732 
 -1.332218923574097   5.021947794488555   5.002978606422314 
 -2.483809427069130  11.476088828615595   5.002978606422314 
  2.494355194198838  11.512452726889075   5.002978606422314 
  7.460186952803611  11.502581541777442   5.002978606422314 
  8.800375996674379   5.021947794488555   5.002978606422314 
 -0.000100841856315   7.186295715247371  11.673616748318732 
  1.244588530224262   0.718512206646093  11.673616748318732 
  4.978805268679436   7.186474646156456  11.673616748318732 
  6.223568542875779   0.718512206646093  11.673616748318732 
  9.957590461609609   7.186237243124130  11.673616748318732 
 -2.511132125481084   7.192353888954987   5.002978606422314 
 11.202235609649751   0.718623749417457  11.673616748318732 
  3.734078536549849   0.644345718458817   5.002978606422314 
  2.370717097844453   7.337551339531232   5.002978606422314 
  7.532483734853444   7.223376509653360   5.002978606422314 
  8.727868427419715   0.715691097297498   5.002978606422314 
  2.489351804419981   7.186474646156456  11.673616748318732 
 13.676602791880224   0.715691097297498   5.002978606422314 
 -1.244716476838896   9.342150175178114  11.673616748318732 
 -0.000210989305532   2.874373182937374  11.673616748318732 
  4.978959818400781   2.874347075011034  11.673616748318732 
  3.734078536550845   9.342352371891085  11.673616748318732 
  8.712873549938854   9.342150175178114  11.673616748318732 
  9.957622687111096   2.874458511345046  11.673616748318732 
 -3.734078536549858   9.342108742426664   5.002978606422314 
  1.208220399289722   9.422117775234899   5.002978606422314 
  2.417678353604359   2.696068058658904   5.002978606422314 