Species order: X N B                    
   2.51242800000000     
     5.9449720136058266    0.0000000000000000    0.0000000000000000
    -2.9724860068029120    5.1484967885702053   -0.0000000000000001
     0.0000000000000000    0.0000000000000009    5.3101128803662583
   Sb   N    B 
     1   143   143
Direct
  0.4968819672873886  0.4151076503102845  0.3750000000000000
  0.1113063710015496  0.0556359837008700  0.1250035224243932
  0.6113530078804814  0.5557359189579686  0.1204635244336282
  0.4446840798549845  0.0556763783229251  0.1247529420721316
  0.9446581609463179  0.5556672229814336  0.1250106663444999
  0.7780256498636944  0.0556794915985033  0.1250646162778631
  0.1113469052190856  0.7223401192762795  0.6247915981561519
  0.4446840798549845  0.7223410348654911  0.6252470579281366
  0.2779183434712636  0.2222763092701104  0.6270664910237040
  0.7779765692291538  0.7223219113808358  0.6257346916009153
  0.6113332295189333  0.2223177999173176  0.6260783225714801
  0.9446650569188222  0.2223394700032522  0.6248531524236313
  0.2780282711595542  0.7223528274987157  0.1251699394197519
  0.1112959380673765  0.2223146357003645  0.1246830328984600
  0.4446609341563373  0.2223280571274625  0.1224363429851271
  0.6113332295189333  0.7223487629351274  0.1239216774285777
  0.9446581609463179  0.7223242712984554  0.1250106663444999
  0.7780117645137949  0.2223369084807858  0.1249901986244749
  0.1113382025612202  0.8889919572157672  0.6247804741395285
  0.4446983396705124  0.8890158365017831  0.6248622083227788
  0.2779183434712636  0.3889753675344966  0.6270664910237035
  0.6113530078804814  0.3889504222556658  0.6295364755664220
  0.7780117645137949  0.8890081893663678  0.6250098013756588
  0.9446587237494845  0.3890097828779122  0.6248012593141146
  0.1113063710015496  0.3890037206339365  0.1250035224243932
  0.2780282711595542  0.8890087769942325  0.1251699394197489
  0.6113612120260790  0.8890200409912209  0.1250111666242071
  0.4444042274453101  0.3888687803893811  0.1184167041353396
  0.9446587237494845  0.8889822742049422  0.1251987406857535
  0.7779765692291538  0.3889879911818137  0.1242653083991075
  0.2779998710413774  0.5556744460238136  0.6253662468123271
  0.1113063710015496  0.0556359837008700  0.6249964775755519
  0.6113530078804814  0.5557359189579680  0.6295364755664189
  0.4446840798549845  0.0556763783229251  0.6252470579281366
  0.9446581609463179  0.5556672229814336  0.6249893336553997
  0.1113382025612202  0.5556795786787292  0.1252195258604334
  0.7780256498636944  0.0556794915985033  0.6249353837222258
  0.2779998710413808  0.0556587583509908  0.1246337531875355
  0.4446609341563372  0.5556662103620643  0.1224363429851085
  0.7779673665157669  0.5556503499243060  0.1235899414794765
  0.6113612120260790  0.0556745043681707  0.1250111666242071
  0.4446609341563373  0.5556662103620643  0.6275636570149191
  0.9446650569188222  0.0556589202487857  0.1251468475764037
  0.2780282711595542  0.7223528274987157  0.6248300605803684
  0.1112959380673774  0.2223146357003645  0.6253169671015310
  0.4446609341563373  0.2223280571274625  0.6275636570149191
  0.6113332295189333  0.7223487629351274  0.6260783225714703
  0.9446581609463179  0.7223242712984554  0.6249893336553997
  0.7780117645137949  0.2223369084807858  0.6250098013756588
  0.1113469052190856  0.7223401192762795  0.1252084018437860
  0.4446840798549845  0.7223410348654911  0.1247529420721376
  0.2779183434712636  0.2222763092701105  0.1229335089764279
  0.7779765692291538  0.7223219113808360  0.1242653083991075
  0.6113332295189333  0.2223177999173176  0.1239216774285773
  0.9446650569188222  0.2223394700032522  0.1251468475764037
  0.1113063710015488  0.3890037206339365  0.6249964775755519
  0.2780282711595542  0.8890087769942325  0.6248300605803684
  0.6113612120260790  0.8890200409912209  0.6249888333756558
  0.4444042274453109  0.3888687803893803  0.6315832958646982
  0.9446587237494845  0.8889822742049422  0.6248012593141146
  0.1113382025612202  0.8889919572157672  0.1252195258604334
  0.7779765692291538  0.3889879911818137  0.6257346916009137
  0.4446983396705124  0.8890158365017831  0.1251377916772559
  0.2779183434712636  0.3889753675344966  0.1229335089764249
  0.2779998710413719  0.5556744460238136  0.1246337531875355
  0.6113530078804814  0.3889504222556658  0.1204635244336293
  0.7780117645137949  0.8890081893663678  0.1249901986244749
  0.9446587237494845  0.3890097828779122  0.1251987406857535
  0.1113382025612202  0.5556795786787292  0.6247804741395285
  0.2779998710413808  0.0556587583509893  0.6253662468123271
  0.7779673665157669  0.5556503499243060  0.6264100585206271
  0.6113612120260790  0.0556745043681707  0.6249888333756558
  0.9446650569188222  0.0556589202487857  0.6248531524236313
  0.0583909914172962  0.1127250217709067  0.3750000000000000
  0.5551872188870353  0.6207619526294632  0.3750000000000000
  0.3873873329530740  0.1037494025312862  0.3750000000000000
  0.8866957885710962  0.6100145609524142  0.3750000000000000
  0.7241872275895814  0.1111495391874698  0.3750000000000000
  0.0554101688895054  0.7777040643613891  0.8750000000000000
  0.3887412872054989  0.7777065395363664  0.8750000000000000
  0.2220811191861642  0.2777072262597703  0.8750000000000000
  0.7220719064797898  0.7776955871386902  0.8750000000000000
  0.5554013350953116  0.2776971512507784  0.8750000000000000
  0.8887424336562020  0.2777102013367257  0.8750000000000000
  0.2204032161423526  0.7768682747377866  0.3750000000000000
  0.0583909914172857  0.2789993029797402  0.3750000000000000
  0.3894714498594138  0.2669890396470156  0.3750000000000000
  0.5559580254836013  0.7823154065378225  0.3750000000000000
  0.8890613337182881  0.7785385173390834  0.3750000000000000
  0.7238153956148051  0.2761681481419662  0.3750000000000000
  0.0554083411410862  0.9443663112905223  0.8750000000000000
  0.3887412872054989  0.9443680810025933  0.8750000000000000
  0.2220751374701327  0.4443800854560360  0.8750000000000000
  0.5554152190349526  0.4443742761841406  0.8750000000000000
  0.7220716008405852  0.9443658750880081  0.8750000000000000
  0.8887429453390323  0.4443757503130096  0.8750000000000000
  0.0559342123333943  0.4448239749062818  0.3750000000000000
  0.2206176296859182  0.9420214817967515  0.3750000000000000
  0.5560979471299284  0.9447156402316245  0.3750000000000000
  0.3894714498594130  0.4558157435456428  0.3750000000000000
  0.8909926885254762  0.9463046773805348  0.3750000000000000
  0.7220854808363119  0.4426345092002544  0.3750000000000000
  0.2220736702873435  0.6110423244323735  0.8750000000000000
  0.0554125922435399  0.1110361126721850  0.8750000000000000
  0.5554013350953116  0.6110375171778203  0.8750000000000000
  0.3887367093955472  0.1110254274086022  0.8750000000000000
  0.8887493255300359  0.6110413294317243  0.8750000000000000
  0.0538346507070820  0.6105551255805961  0.3750000000000000
  0.7220716008405852  0.1110390590859614  0.8750000000000000
  0.2229753913683596  0.1098362062486895  0.3750000000000000
  0.3873873329530744  0.6169712637551302  0.3750000000000000
  0.7220854808363119  0.6127843049693777  0.3750000000000000
  0.5559580254836097  0.1069759522790743  0.3750000000000000
  0.3887367093955472  0.6110446153201944  0.8750000000000000
  0.8915296970220459  0.1124315151777105  0.3750000000000000
  0.2220769396328744  0.7777051364830965  0.8750000000000000
  0.0554125922435399  0.2777098129048090  0.8750000000000000
  0.3887408070845441  0.2776885963938054  0.8750000000000000
  0.5554031409906521  0.7777003224079487  0.8750000000000000
  0.8887429453390342  0.7777005283595722  0.8750000000000000
  0.7220719064797898  0.2777096526745774  0.8750000000000000
  0.0538346507070821  0.7766128584596396  0.3750000000000000
  0.3877981788024844  0.7792721611872564  0.3750000000000000
  0.2267384585027630  0.2800358959180381  0.3750000000000000
  0.7238153956148051  0.7809805808060445  0.3750000000000000
  0.5551872188870353  0.2677585995907119  0.3750000000000000
  0.8909926885254762  0.2780213444782053  0.3750000000000000
  0.0554083411410861  0.4443753631839725  0.8750000000000000
  0.2220736702873435  0.9443646791882039  0.8750000000000000
  0.5554046246464115  0.9443689789899771  0.8750000000000000
  0.3887408070845441  0.4443855440241370  0.8750000000000000
  0.8887424336562020  0.9443655656527853  0.8750000000000000
  0.0559342123333956  0.9444435707604295  0.3750000000000000
  0.7220832244707366  0.4443786901991684  0.8750000000000000
  0.3877981788024844  0.9418593509485661  0.3750000000000000
  0.2229753913683593  0.4464725184529311  0.3750000000000000
  0.2206176296859181  0.6119294812225735  0.3750000000000000
  0.7241872275895814  0.9463710217356989  0.3750000000000000
  0.8890613337182881  0.4438561497126849  0.3750000000000000
  0.0554101688895054  0.6110394378617396  0.8750000000000000
  0.2220751374701327  0.1110283853473961  0.8750000000000000
  0.7220832244707366  0.6110378676052602  0.8750000000000000
  0.5554031409906521  0.1110361519159553  0.8750000000000000
  0.8887432825565493  0.1110383079449888  0.8750000000000000
  0.1123562842652805  0.0556510098702852  0.3750000000000000
  0.6139707450479982  0.5710642249368220  0.3750000000000000
  0.4444946653276953  0.0513215008869913  0.3750000000000000
  0.9430307701272665  0.5549233678788965  0.3750000000000000
  0.7805004013222181  0.0569168673277685  0.3750000000000000
  0.1109624206519640  0.7221478769926233  0.8750000000000000
  0.4442898381164672  0.7221347695143338  0.8750000000000000
  0.2776530039232770  0.2221615311601775  0.8750000000000000
  0.7776163289198686  0.7221215324446203  0.8750000000000000
  0.6109455317469078  0.2221624566253491  0.8750000000000000
  0.9443100579075451  0.2221576385012828  0.8750000000000000
  0.2765892362840773  0.7226092804564184  0.3750000000000000
  0.1151428581616188  0.2242380957474584  0.3750000000000000
  0.4432879794991664  0.2124015035494714  0.3750000000000000
  0.6129317768123250  0.7298858887206087  0.3750000000000000
  0.9430307701272665  0.7214407355817515  0.3750000000000000
  0.7801896668570591  0.2218587153734562  0.3750000000000000
  0.1109653016235574  0.8888169134591063  0.8750000000000000
  0.4442936301074216  0.8888134817205017  0.8750000000000000
  0.2776530039232770  0.3888248060964565  0.8750000000000000
  0.6109392865200091  0.3888335351068850  0.8750000000000000
  0.7776251001023140  0.8888000590705839  0.8750000000000000
  0.9442991946955214  0.3888225339644219  0.8750000000000000
  0.1123562842652808  0.3900386077284067  0.3750000000000000
  0.2765892362840773  0.8873132891610089  0.3750000000000000
  0.6129648062979492  0.8918722118783787  0.3750000000000000
  0.9453233035684864  0.8898012095383342  0.3750000000000000
  0.7787428030501904  0.3873574345288675  0.3750000000000000
  0.2776348743068719  0.5554783195422818  0.8750000000000000
  0.1109777246614620  0.0554894378387872  0.8750000000000000
  0.6109392865200091  0.5554390847461697  0.8750000000000000
  0.4442898381164672  0.0554884019353415  0.8750000000000000
  0.9442945289383283  0.5554848968794768  0.8750000000000000
  0.1099514899313584  0.5557067891485402  0.3750000000000000
  0.7776310719768021  0.0554822026550811  0.8750000000000000
  0.2767453931465255  0.0524421230233816  0.3750000000000000
  0.4432879794991664  0.5642198092829515  0.3750000000000000
  0.7756033515082020  0.5544683424209035  0.3750000000000000
  0.6129648062979497  0.0544259277528720  0.3750000000000000
  0.4442929682835935  0.5554655116089394  0.8750000000000000
  0.9473679513582804  0.0574165132074747  0.3750000000000000
  0.2776298672385891  0.7221452968543243  0.8750000000000000
  0.1109897815207879  0.2221615574270450  0.8750000000000000
  0.4442929682835918  0.2221607900077652  0.8750000000000000
  0.6109455317469078  0.7221164084547815  0.8750000000000000
  0.9442945289383283  0.7221429653921915  0.8750000000000000
  0.7776251001023140  0.2221583743652682  0.8750000000000000
  0.1094739876204594  0.7214036604769398  0.3750000000000000
  0.4444946653276949  0.7265064977738190  0.3750000000000000
  0.2803287131535322  0.2214768587567287  0.3750000000000000
  0.7787428030501904  0.7247187018550083  0.3750000000000000
  0.6129317768123250  0.2163792214248893  0.3750000000000000
  0.9473679513582804  0.2232847714842125  0.3750000000000000
  0.1109777246614620  0.3888216201559996  0.8750000000000000
  0.2776298672385891  0.8888179037175923  0.8750000000000000
  0.6109546467623006  0.8888024904278377  0.8750000000000000
  0.4443189462806356  0.3888261398070243  0.8750000000000000
  0.9442991946955214  0.8888099940644255  0.8750000000000000
  0.1099514899313587  0.8875780341162625  0.3750000000000000
  0.7776163289198686  0.3888281298085949  0.8750000000000000
  0.4446412550559224  0.8889872941944985  0.3750000000000000
  0.2803287131535322  0.3921851877301633  0.3750000000000000
  0.2767453931465255  0.5576366034565641  0.3750000000000000
  0.6139707450479986  0.3762398534446289  0.3750000000000000
  0.7801896668570591  0.8916642848166947  0.3750000000000000
  0.9453233035684864  0.3888554273635325  0.3750000000000000
  0.1109653016235574  0.5554817214979128  0.8750000000000000
  0.2776348743068719  0.0554898880981011  0.8750000000000000
  0.7776157332057300  0.5554745332694980  0.8750000000000000
  0.6109546467623006  0.0554854896677083  0.8750000000000000
  0.9443100579075451  0.0554857527395551  0.8750000000000000
  0.0557918283887914  0.1112342844863522  0.1249624831374602
  0.5557699049201708  0.6111549425629431  0.1220954181434010
  0.3891241476511658  0.1112748890392080  0.1240485500859031
  0.8890432661842530  0.6111882997588294  0.1245655367845933
  0.7224653313066375  0.1112279877574437  0.1249802338812999
  0.0557874495226358  0.7778945728169037  0.6248617478987204
  0.3891413917719156  0.7778962763097277  0.6249614334425586
  0.2224260425260058  0.2778796879296428  0.6264988435257284
  0.7224233928453936  0.7778848792470449  0.6256919015289093
  0.5557699049201708  0.2779482956904714  0.6279045818567558
  0.8891242539522982  0.2778918233930921  0.6249139346774196
  0.2224788883326169  0.7779061108329692  0.1251721118033844
  0.0557918283887945  0.2778908772357154  0.1249624831374602
  0.3890300489982659  0.2778823868501563  0.1211143091416657
  0.5557825139914614  0.7778877674955191  0.1245547792149217
  0.8890892182640120  0.7778758749292738  0.1248198446126053
  0.7224233928453936  0.2778718469316626  0.1243080984708752
  0.0557889970570002  0.9445609858510472  0.6248331161095193
  0.3891413917719156  0.9445784487954474  0.6249614334425586
  0.2224372140307930  0.4445320661878486  0.6256872212703900
  0.5556668582975054  0.4445000958154170  0.6291353534862684
  0.7224653313066375  0.9445706768824826  0.6250197661186347
  0.8890892182640120  0.4445466766681987  0.6251801553875672
  0.0557889970570002  0.4445613445391278  0.1251668838904833
  0.2224713569019529  0.9445860326283468  0.1250531402834142
  0.5558088454432806  0.9445710893881429  0.1250418897712389
  0.3890300489982659  0.4444809954814827  0.1211143091416719
  0.8891242539522982  0.9445657638923431  0.1250860653225050
  0.7223021983714003  0.4444922015553487  0.1226410453757736
  0.2224713569019529  0.6112186576068185  0.6249468597166185
  0.0557918283887914  0.1112342844863522  0.6250375168626050
  0.5557699049201708  0.6111549425629431  0.6279045818567558
  0.3891241476511658  0.1112748890392098  0.6259514499141817
  0.8890432661842530  0.6111882997588294  0.6254344632154254
  0.0557874495226358  0.6112262100389532  0.1251382521013708
  0.7224653313066375  0.1112279877574352  0.6250197661186347
  0.2224372140307930  0.1112384811762599  0.1243127787296607
  0.3891241476511658  0.6111825919451378  0.1240485500859031
  0.7223021983714003  0.6111433301494077  0.1226410453757736
  0.5557825139914614  0.1112280798294791  0.1245547792149217
  0.3891241476511686  0.6111825919451378  0.6259514499141817
  0.8891375000329460  0.1112354166831212  0.1250878498298594
  0.2224788883326169  0.7779061108329692  0.6248278881965875
  0.0557918283887945  0.2778908772357154  0.6250375168626050
  0.3890300489982659  0.2778823868501725  0.6288856908581503
  0.5557825139914614  0.7778877674955191  0.6254452207850124
  0.8890892182640120  0.7778758749292738  0.6251801553875672
  0.7224233928453936  0.2778718469316626  0.6256919015289091
  0.0557874495226337  0.7778945728169037  0.1251382521013708
  0.3891413917719156  0.7778962763097277  0.1250385665574989
  0.2224260425260058  0.2778796879296428  0.1235011564742261
  0.7224233928453936  0.7778848792470449  0.1243080984708752
  0.5557699049201708  0.2779482956904714  0.1220954181434084
  0.8891242539522982  0.2778918233930921  0.1250860653225050
  0.0557889970570004  0.4445613445391278  0.6248331161095193
  0.2224713569019529  0.9445860326283468  0.6249468597166185
  0.5558088454432806  0.9445710893881429  0.6249581102287545
  0.3890300489982659  0.4444809954814588  0.6288856908581503
  0.8891242539522982  0.9445657638923431  0.6249139346774196
  0.0557889970569990  0.9445609858510472  0.1251668838904834
  0.7223021983714003  0.4444922015553487  0.6273589546243317
  0.3891413917719156  0.9445784487954474  0.1250385665574989
  0.2224372140307930  0.4445320661878486  0.1243127787296607
  0.2224713569019518  0.6112186576068185  0.1250531402834143
  0.5556668582975054  0.4445000958154170  0.1208646465138465
  0.7224653313066375  0.9445706768824826  0.1249802338812999
  0.8890892182640120  0.4445466766681987  0.1248198446126053
  0.0557874495226338  0.6112262100391339  0.6248617478987256
  0.2224372140307930  0.1112384811762595  0.6256872212703900
  0.7223021983714003  0.6111433301494077  0.6273589546243253
  0.5557825139914614  0.1112280798294791  0.6254452207850124
  0.8891375000329460  0.1112354166831210  0.6249121501702523
 
  0.00000000E+00  0.00000000E+00  0.00000000E+00
  0.00000000E+00  0.00000000E+00  0.00000000E+00
  0.00000000E+00  0.00000000E+00  0.00000000E+00
  0.00000000E+00  0.00000000E+00  0.00000000E+00
  0.00000000E+00  0.00000000E+00  0.00000000E+00
  0.00000000E+00  0.00000000E+00  0.00000000E+00
  0.00000000E+00  0.00000000E+00  0.00000000E+00
  0.00000000E+00  0.00000000E+00  0.00000000E+00
  0.00000000E+00  0.00000000E+00  0.00000000E+00
  0.00000000E+00  0.00000000E+00  0.00000000E+00
  0.00000000E+00  0.00000000E+00  0.00000000E+00
  0.00000000E+00  0.00000000E+00  0.00000000E+00
  0.00000000E+00  0.00000000E+00  0.00000000E+00
  0.00000000E+00  0.00000000E+00  0.00000000E+00
  0.00000000E+00  0.00000000E+00  0.00000000E+00
  0.00000000E+00  0.00000000E+00  0.00000000E+00
  0.00000000E+00  0.00000000E+00  0.00000000E+00
  0.00000000E+00  0.00000000E+00  0.00000000E+00
  0.00000000E+00  0.00000000E+00  0.00000000E+00
  0.00000000E+00  0.00000000E+00  0.00000000E+00
  0.00000000E+00  0.00000000E+00  0.00000000E+00
  0.00000000E+00  0.00000000E+00  0.00000000E+00
  0.00000000E+00  0.00000000E+00  0.00000000E+00
  0.00000000E+00  0.00000000E+00  0.00000000E+00
  0.00000000E+00  0.00000000E+00  0.00000000E+00
  0.00000000E+00  0.00000000E+00  0.00000000E+00
  0.00000000E+00  0.00000000E+00  0.00000000E+00
  0.00000000E+00  0.00000000E+00  0.00000000E+00
  0.00000000E+00  0.00000000E+00  0.00000000E+00
  0.00000000E+00  0.00000000E+00  0.00000000E+00
  0.00000000E+00  0.00000000E+00  0.00000000E+00
  0.00000000E+00  0.00000000E+00  0.00000000E+00
  0.00000000E+00  0.00000000E+00  0.00000000E+00
  0.00000000E+00  0.00000000E+00  0.00000000E+00
  0.00000000E+00  0.00000000E+00  0.00000000E+00
  0.00000000E+00  0.00000000E+00  0.00000000E+00
  0.00000000E+00  0.00000000E+00  0.00000000E+00
  0.00000000E+00  0.00000000E+00  0.00000000E+00
  0.00000000E+00  0.00000000E+00  0.00000000E+00
  0.00000000E+00  0.00000000E+00  0.00000000E+00
  0.00000000E+00  0.00000000E+00  0.00000000E+00
  0.00000000E+00  0.00000000E+00  0.00000000E+00
  0.00000000E+00  0.00000000E+00  0.00000000E+00
  0.00000000E+00  0.00000000E+00  0.00000000E+00
  0.00000000E+00  0.00000000E+00  0.00000000E+00
  0.00000000E+00  0.00000000E+00  0.00000000E+00
  0.00000000E+00  0.00000000E+00  0.00000000E+00
  0.00000000E+00  0.00000000E+00  0.00000000E+00
  0.00000000E+00  0.00000000E+00  0.00000000E+00
  0.00000000E+00  0.00000000E+00  0.00000000E+00
  0.00000000E+00  0.00000000E+00  0.00000000E+00
  0.00000000E+00  0.00000000E+00  0.00000000E+00
  0.00000000E+00  0.00000000E+00  0.00000000E+00
  0.00000000E+00  0.00000000E+00  0.00000000E+00
  0.00000000E+00  0.00000000E+00  0.00000000E+00
  0.00000000E+00  0.00000000E+00  0.00000000E+00
  0.00000000E+00  0.00000000E+00  0.00000000E+00
  0.00000000E+00  0.00000000E+00  0.00000000E+00
  0.00000000E+00  0.00000000E+00  0.00000000E+00
  0.00000000E+00  0.00000000E+00  0.00000000E+00
  0.00000000E+00  0.00000000E+00  0.00000000E+00
  0.00000000E+00  0.00000000E+00  0.00000000E+00
  0.00000000E+00  0.00000000E+00  0.00000000E+00
  0.00000000E+00  0.00000000E+00  0.00000000E+00
  0.00000000E+00  0.00000000E+00  0.00000000E+00
  0.00000000E+00  0.00000000E+00  0.00000000E+00
  0.00000000E+00  0.00000000E+00  0.00000000E+00
  0.00000000E+00  0.00000000E+00  0.00000000E+00
  0.00000000E+00  0.00000000E+00  0.00000000E+00
  0.00000000E+00  0.00000000E+00  0.00000000E+00
  0.00000000E+00  0.00000000E+00  0.00000000E+00
  0.00000000E+00  0.00000000E+00  0.00000000E+00
  0.00000000E+00  0.00000000E+00  0.00000000E+00
  0.00000000E+00  0.00000000E+00  0.00000000E+00
  0.00000000E+00  0.00000000E+00  0.00000000E+00
  0.00000000E+00  0.00000000E+00  0.00000000E+00
  0.00000000E+00  0.00000000E+00  0.00000000E+00
  0.00000000E+00  0.00000000E+00  0.00000000E+00
  0.00000000E+00  0.00000000E+00  0.00000000E+00
  0.00000000E+00  0.00000000E+00  0.00000000E+00
  0.00000000E+00  0.00000000E+00  0.00000000E+00
  0.00000000E+00  0.00000000E+00  0.00000000E+00
  0.00000000E+00  0.00000000E+00  0.00000000E+00
  0.00000000E+00  0.00000000E+00  0.00000000E+00
  0.00000000E+00  0.00000000E+00  0.00000000E+00
  0.00000000E+00  0.00000000E+00  0.00000000E+00
  0.00000000E+00  0.00000000E+00  0.00000000E+00
  0.00000000E+00  0.00000000E+00  0.00000000E+00
  0.00000000E+00  0.00000000E+00  0.00000000E+00
  0.00000000E+00  0.00000000E+00  0.00000000E+00
  0.00000000E+00  0.00000000E+00  0.00000000E+00
  0.00000000E+00  0.00000000E+00  0.00000000E+00
  0.00000000E+00  0.00000000E+00  0.00000000E+00
  0.00000000E+00  0.00000000E+00  0.00000000E+00
  0.00000000E+00  0.00000000E+00  0.00000000E+00
  0.00000000E+00  0.00000000E+00  0.00000000E+00
  0.00000000E+00  0.00000000E+00  0.00000000E+00
  0.00000000E+00  0.00000000E+00  0.00000000E+00
  0.00000000E+00  0.00000000E+00  0.00000000E+00
  0.00000000E+00  0.00000000E+00  0.00000000E+00
  0.00000000E+00  0.00000000E+00  0.00000000E+00
  0.00000000E+00  0.00000000E+00  0.00000000E+00
  0.00000000E+00  0.00000000E+00  0.00000000E+00
  0.00000000E+00  0.00000000E+00  0.00000000E+00
  0.00000000E+00  0.00000000E+00  0.00000000E+00
  0.00000000E+00  0.00000000E+00  0.00000000E+00
  0.00000000E+00  0.00000000E+00  0.00000000E+00
  0.00000000E+00  0.00000000E+00  0.00000000E+00
  0.00000000E+00  0.00000000E+00  0.00000000E+00
  0.00000000E+00  0.00000000E+00  0.00000000E+00
  0.00000000E+00  0.00000000E+00  0.00000000E+00
  0.00000000E+00  0.00000000E+00  0.00000000E+00
  0.00000000E+00  0.00000000E+00  0.00000000E+00
  0.00000000E+00  0.00000000E+00  0.00000000E+00
  0.00000000E+00  0.00000000E+00  0.00000000E+00
  0.00000000E+00  0.00000000E+00  0.00000000E+00
  0.00000000E+00  0.00000000E+00  0.00000000E+00
  0.00000000E+00  0.00000000E+00  0.00000000E+00
  0.00000000E+00  0.00000000E+00  0.00000000E+00
  0.00000000E+00  0.00000000E+00  0.00000000E+00
  0.00000000E+00  0.00000000E+00  0.00000000E+00
  0.00000000E+00  0.00000000E+00  0.00000000E+00
  0.00000000E+00  0.00000000E+00  0.00000000E+00
  0.00000000E+00  0.00000000E+00  0.00000000E+00
  0.00000000E+00  0.00000000E+00  0.00000000E+00
  0.00000000E+00  0.00000000E+00  0.00000000E+00
  0.00000000E+00  0.00000000E+00  0.00000000E+00
  0.00000000E+00  0.00000000E+00  0.00000000E+00
  0.00000000E+00  0.00000000E+00  0.00000000E+00
  0.00000000E+00  0.00000000E+00  0.00000000E+00
  0.00000000E+00  0.00000000E+00  0.00000000E+00
  0.00000000E+00  0.00000000E+00  0.00000000E+00
  0.00000000E+00  0.00000000E+00  0.00000000E+00
  0.00000000E+00  0.00000000E+00  0.00000000E+00
  0.00000000E+00  0.00000000E+00  0.00000000E+00
  0.00000000E+00  0.00000000E+00  0.00000000E+00
  0.00000000E+00  0.00000000E+00  0.00000000E+00
  0.00000000E+00  0.00000000E+00  0.00000000E+00
  0.00000000E+00  0.00000000E+00  0.00000000E+00
  0.00000000E+00  0.00000000E+00  0.00000000E+00
  0.00000000E+00  0.00000000E+00  0.00000000E+00
  0.00000000E+00  0.00000000E+00  0.00000000E+00
  0.00000000E+00  0.00000000E+00  0.00000000E+00
  0.00000000E+00  0.00000000E+00  0.00000000E+00
  0.00000000E+00  0.00000000E+00  0.00000000E+00
  0.00000000E+00  0.00000000E+00  0.00000000E+00
  0.00000000E+00  0.00000000E+00  0.00000000E+00
  0.00000000E+00  0.00000000E+00  0.00000000E+00
  0.00000000E+00  0.00000000E+00  0.00000000E+00
  0.00000000E+00  0.00000000E+00  0.00000000E+00
  0.00000000E+00  0.00000000E+00  0.00000000E+00
  0.00000000E+00  0.00000000E+00  0.00000000E+00
  0.00000000E+00  0.00000000E+00  0.00000000E+00
  0.00000000E+00  0.00000000E+00  0.00000000E+00
  0.00000000E+00  0.00000000E+00  0.00000000E+00
  0.00000000E+00  0.00000000E+00  0.00000000E+00
  0.00000000E+00  0.00000000E+00  0.00000000E+00
  0.00000000E+00  0.00000000E+00  0.00000000E+00
  0.00000000E+00  0.00000000E+00  0.00000000E+00
  0.00000000E+00  0.00000000E+00  0.00000000E+00
  0.00000000E+00  0.00000000E+00  0.00000000E+00
  0.00000000E+00  0.00000000E+00  0.00000000E+00
  0.00000000E+00  0.00000000E+00  0.00000000E+00
  0.00000000E+00  0.00000000E+00  0.00000000E+00
  0.00000000E+00  0.00000000E+00  0.00000000E+00
  0.00000000E+00  0.00000000E+00  0.00000000E+00
  0.00000000E+00  0.00000000E+00  0.00000000E+00
  0.00000000E+00  0.00000000E+00  0.00000000E+00
  0.00000000E+00  0.00000000E+00  0.00000000E+00
  0.00000000E+00  0.00000000E+00  0.00000000E+00
  0.00000000E+00  0.00000000E+00  0.00000000E+00
  0.00000000E+00  0.00000000E+00  0.00000000E+00
  0.00000000E+00  0.00000000E+00  0.00000000E+00
  0.00000000E+00  0.00000000E+00  0.00000000E+00
  0.00000000E+00  0.00000000E+00  0.00000000E+00
  0.00000000E+00  0.00000000E+00  0.00000000E+00
  0.00000000E+00  0.00000000E+00  0.00000000E+00
  0.00000000E+00  0.00000000E+00  0.00000000E+00
  0.00000000E+00  0.00000000E+00  0.00000000E+00
  0.00000000E+00  0.00000000E+00  0.00000000E+00
  0.00000000E+00  0.00000000E+00  0.00000000E+00
  0.00000000E+00  0.00000000E+00  0.00000000E+00
  0.00000000E+00  0.00000000E+00  0.00000000E+00
  0.00000000E+00  0.00000000E+00  0.00000000E+00
  0.00000000E+00  0.00000000E+00  0.00000000E+00
  0.00000000E+00  0.00000000E+00  0.00000000E+00
  0.00000000E+00  0.00000000E+00  0.00000000E+00
  0.00000000E+00  0.00000000E+00  0.00000000E+00
  0.00000000E+00  0.00000000E+00  0.00000000E+00
  0.00000000E+00  0.00000000E+00  0.00000000E+00
  0.00000000E+00  0.00000000E+00  0.00000000E+00
  0.00000000E+00  0.00000000E+00  0.00000000E+00
  0.00000000E+00  0.00000000E+00  0.00000000E+00
  0.00000000E+00  0.00000000E+00  0.00000000E+00
  0.00000000E+00  0.00000000E+00  0.00000000E+00
  0.00000000E+00  0.00000000E+00  0.00000000E+00
  0.00000000E+00  0.00000000E+00  0.00000000E+00
  0.00000000E+00  0.00000000E+00  0.00000000E+00
  0.00000000E+00  0.00000000E+00  0.00000000E+00
  0.00000000E+00  0.00000000E+00  0.00000000E+00
  0.00000000E+00  0.00000000E+00  0.00000000E+00
  0.00000000E+00  0.00000000E+00  0.00000000E+00
  0.00000000E+00  0.00000000E+00  0.00000000E+00
  0.00000000E+00  0.00000000E+00  0.00000000E+00
  0.00000000E+00  0.00000000E+00  0.00000000E+00
  0.00000000E+00  0.00000000E+00  0.00000000E+00
  0.00000000E+00  0.00000000E+00  0.00000000E+00
  0.00000000E+00  0.00000000E+00  0.00000000E+00
  0.00000000E+00  0.00000000E+00  0.00000000E+00
  0.00000000E+00  0.00000000E+00  0.00000000E+00
  0.00000000E+00  0.00000000E+00  0.00000000E+00
  0.00000000E+00  0.00000000E+00  0.00000000E+00
  0.00000000E+00  0.00000000E+00  0.00000000E+00
  0.00000000E+00  0.00000000E+00  0.00000000E+00
  0.00000000E+00  0.00000000E+00  0.00000000E+00
  0.00000000E+00  0.00000000E+00  0.00000000E+00
  0.00000000E+00  0.00000000E+00  0.00000000E+00
  0.00000000E+00  0.00000000E+00  0.00000000E+00
  0.00000000E+00  0.00000000E+00  0.00000000E+00
  0.00000000E+00  0.00000000E+00  0.00000000E+00
  0.00000000E+00  0.00000000E+00  0.00000000E+00
  0.00000000E+00  0.00000000E+00  0.00000000E+00
  0.00000000E+00  0.00000000E+00  0.00000000E+00
  0.00000000E+00  0.00000000E+00  0.00000000E+00
  0.00000000E+00  0.00000000E+00  0.00000000E+00
  0.00000000E+00  0.00000000E+00  0.00000000E+00
  0.00000000E+00  0.00000000E+00  0.00000000E+00
  0.00000000E+00  0.00000000E+00  0.00000000E+00
  0.00000000E+00  0.00000000E+00  0.00000000E+00
  0.00000000E+00  0.00000000E+00  0.00000000E+00
  0.00000000E+00  0.00000000E+00  0.00000000E+00
  0.00000000E+00  0.00000000E+00  0.00000000E+00
  0.00000000E+00  0.00000000E+00  0.00000000E+00
  0.00000000E+00  0.00000000E+00  0.00000000E+00
  0.00000000E+00  0.00000000E+00  0.00000000E+00
  0.00000000E+00  0.00000000E+00  0.00000000E+00
  0.00000000E+00  0.00000000E+00  0.00000000E+00
  0.00000000E+00  0.00000000E+00  0.00000000E+00
  0.00000000E+00  0.00000000E+00  0.00000000E+00
  0.00000000E+00  0.00000000E+00  0.00000000E+00
  0.00000000E+00  0.00000000E+00  0.00000000E+00
  0.00000000E+00  0.00000000E+00  0.00000000E+00
  0.00000000E+00  0.00000000E+00  0.00000000E+00
  0.00000000E+00  0.00000000E+00  0.00000000E+00
  0.00000000E+00  0.00000000E+00  0.00000000E+00
  0.00000000E+00  0.00000000E+00  0.00000000E+00
  0.00000000E+00  0.00000000E+00  0.00000000E+00
  0.00000000E+00  0.00000000E+00  0.00000000E+00