Species order: X N B                    
   2.51242800000000     
     5.9449720136058266    0.0000000000000000    0.0000000000000000
    -2.9724860068029120    5.1484967885702053   -0.0000000000000001
     0.0000000000000000    0.0000000000000009    5.3101128803662583
   Se   N    B 
     1   144   143
Direct
  0.4444444444444429  0.3888888888888857  0.3750000000000000
  0.1111191333386032  0.0555707550294693  0.1252432172895040
  0.6110686980614179  0.5555258647347676  0.1240606252972932
  0.4444516216908668  0.0555707550294693  0.1252432172895040
  0.9444344130652218  0.5555502366555974  0.1250606970086217
  0.7777777777777786  0.0555555555555571  0.1249529602776712
  0.1111111111111143  0.7222222222222214  0.6249851373364795
  0.4444516216908668  0.7222141999947327  0.6247567827104972
  0.2778074685985675  0.2222646352719187  0.6259393747027047
  0.7777625783038667  0.7222141999947327  0.6247567827104972
  0.6111131715265522  0.2222201618067851  0.6248416064975656
  0.9444408342720462  0.2222201955553688  0.6249779936417618
  0.2777830966777370  0.7222175097429603  0.1250606970086217
  0.1111069902802416  0.2222201618067851  0.1251583935024349
  0.4444571666733515  0.2222646352719187  0.1240606252972932
  0.6111131715265522  0.7222263430530943  0.1251583935024349
  0.9444344130652218  0.7222175097429603  0.1250606970086217
  0.7777793612833229  0.2222201955553688  0.1250220063582389
  0.1111158235903762  0.8888989202681068  0.6249393029913796
  0.4444493649497282  0.8888913491415283  0.6249836196044681
  0.2778074685985675  0.3888761666599771  0.6259393747027047
  0.6110686980614179  0.3888761666599771  0.6259393747027047
  0.7777793612833229  0.8888924990612824  0.6249779936417618
  0.9444419841918003  0.3888839683836004  0.6249836196044681
  0.1111191333386032  0.3888817116424618  0.1252432172895040
  0.2777830966777370  0.8888989202681068  0.1250606970086217
  0.6111131377779673  0.8888924990612824  0.1250220063582389
  0.4444444444444429  0.3888888888888857  0.1179382881724761
  0.9444419841918003  0.8888913491415283  0.1250163803955327
  0.7777625783038667  0.3888817116424618  0.1252432172895040
  0.2777906915950461  0.5555426417382887  0.6247847931842387
  0.1111191333386032  0.0555707550294693  0.6247567827104972
  0.6110686980614179  0.5555258647347676  0.6259393747027047
  0.4444516216908668  0.0555707550294693  0.6247567827104972
  0.9444344130652218  0.5555502366555974  0.6249393029913796
  0.1111158235903762  0.5555502366555974  0.1250606970086217
  0.7777777777777786  0.0555555555555571  0.6250470397223293
  0.2777906915950461  0.0555813831900919  0.1252152068157611
  0.4444571666733515  0.5555258647347676  0.1240606252972932
  0.7777519501432435  0.5555426417382887  0.1252152068157611
  0.6111131377779673  0.0555539720500130  0.1250220063582389
  0.4444571666733515  0.5555258647347676  0.6259393747027047
  0.9444408342720462  0.0555539720500130  0.1250220063582389
  0.2777830966777370  0.7222175097429603  0.6249393029913796
  0.1111069902802416  0.2222201618067851  0.6248416064975656
  0.4444571666733515  0.2222646352719187  0.6259393747027047
  0.6111131715265522  0.7222263430530943  0.6248416064975656
  0.9444344130652218  0.7222175097429603  0.6249393029913796
  0.7777793612833229  0.2222201955553688  0.6249779936417618
  0.1111111111111143  0.7222222222222214  0.1250148626635205
  0.4444516216908668  0.7222141999947327  0.1252432172895040
  0.2778074685985675  0.2222646352719187  0.1240606252972932
  0.7777625783038667  0.7222141999947327  0.1252432172895040
  0.6111131715265522  0.2222201618067851  0.1251583935024349
  0.9444408342720462  0.2222201955553688  0.1250220063582389
  0.1111191333386032  0.3888817116424618  0.6247567827104972
  0.2777830966777370  0.8888989202681068  0.6249393029913796
  0.6111131377779673  0.8888924990612824  0.6249779936417618
  0.4444444444444429  0.3888888888888857  0.6320617118275242
  0.9444419841918003  0.8888913491415283  0.6249836196044681
  0.1111158235903762  0.8888989202681068  0.1250606970086217
  0.7777625783038667  0.3888817116424618  0.6247567827104972
  0.4444493649497282  0.8888913491415283  0.1250163803955327
  0.2778074685985675  0.3888761666599771  0.1240606252972932
  0.2777906915950461  0.5555426417382887  0.1252152068157611
  0.6110686980614179  0.3888761666599771  0.1240606252972932
  0.7777793612833229  0.8888924990612824  0.1250220063582389
  0.9444419841918003  0.3888839683836004  0.1250163803955327
  0.1111158235903762  0.5555502366555974  0.6249393029913796
  0.2777906915950461  0.0555813831900919  0.6247847931842387
  0.7777519501432435  0.5555426417382887  0.6247847931842387
  0.6111131377779673  0.0555539720500130  0.6249779936417618
  0.9444408342720462  0.0555539720500130  0.6249779936417618
  0.0544264023567455  0.1103717702028867  0.3750000000000000
  0.5560013919348575  0.6120027838697186  0.3750000000000000
  0.3873691741030990  0.1036594712944575  0.3750000000000000
  0.8915818017603516  0.6124575675468468  0.3750000000000000
  0.7224302715448908  0.1109030617884463  0.3750000000000000
  0.0555553072669999  0.7777780260663357  0.8750000000000000
  0.3888887018175958  0.7777785354859871  0.8750000000000000
  0.2222247267583949  0.2777790300458657  0.8750000000000000
  0.7222212608667645  0.7777742933014312  0.8750000000000000
  0.5555543032874698  0.2777790300458657  0.8750000000000000
  0.8888900278993499  0.2777800557987078  0.8750000000000000
  0.2217146489263092  0.7775239911298222  0.3750000000000000
  0.0544264023567455  0.2773879654871949  0.3750000000000000
  0.3753011734174005  0.2506023468348070  0.3750000000000000
  0.5559453678461419  0.7789069309765898  0.3750000000000000
  0.8909312983190376  0.7794121990445659  0.3750000000000000
  0.7229615631304487  0.2773879654871949  0.3750000000000000
  0.0555547978473489  0.9444434996649438  0.8750000000000000
  0.3888887018175958  0.9444434996649438  0.8750000000000000
  0.2222203402480787  0.4444478498502675  0.8750000000000000
  0.5555778115343735  0.4444555724338510  0.8750000000000000
  0.7222212750676044  0.9444425501352113  0.8750000000000000
  0.8888898336683848  0.4444446315157328  0.8750000000000000
  0.0539211342887713  0.4448524326078089  0.3750000000000000
  0.2208757657864888  0.9417515315729770  0.3750000000000000
  0.5558932649904316  0.9446132991618815  0.3750000000000000
  0.3753011734174005  0.4580321599159281  0.3750000000000000
  0.8887200341714471  0.9446132991618815  0.3750000000000000
  0.7296738620388772  0.4459641592302296  0.3750000000000000
  0.2222209428803405  0.6111123904529945  0.8750000000000000
  0.0555590400319047  0.1111120724665708  0.8750000000000000
  0.5555543032874698  0.6111086065749400  0.8750000000000000
  0.3888854834830611  0.1111058237311459  0.8750000000000000
  0.8888914475726475  0.6111123904529945  0.8750000000000000
  0.0558093422035133  0.6116186844070254  0.3750000000000000
  0.7222212750676044  0.1111120582657305  0.8750000000000000
  0.2162902971913518  0.1036594712944575  0.3750000000000000
  0.3873691741030990  0.6170430361419846  0.3750000000000000
  0.7296738620388772  0.6170430361419846  0.3750000000000000
  0.5559453678461419  0.1103717702028867  0.3750000000000000
  0.3888854834830611  0.6111129930852577  0.8750000000000000
  0.8884727902435479  0.1109030617884463  0.3750000000000000
  0.2222227187993355  0.7777780260663357  0.8750000000000000
  0.0555590400319047  0.2777803008986692  0.8750000000000000
  0.3888777608994776  0.2777555217989604  0.8750000000000000
  0.5555530324346659  0.7777742933014312  0.8750000000000000
  0.8888898336683848  0.7777785354859871  0.8750000000000000
  0.7222212608667645  0.2777803008986692  0.8750000000000000
  0.0558093422035133  0.7775239911298222  0.3750000000000000
  0.3884809007255197  0.7794121990445659  0.3750000000000000
  0.2213305494636166  0.2773319413984764  0.3750000000000000
  0.7229615631304487  0.7789069309765898  0.3750000000000000
  0.5560013919348575  0.2773319413984764  0.3750000000000000
  0.8887200341714471  0.2774400683429029  0.3750000000000000
  0.0555547978473489  0.4444446315157328  0.8750000000000000
  0.2222209428803405  0.9444418857606811  0.8750000000000000
  0.5555532775346259  0.9444433054339787  0.8750000000000000
  0.3888777608994776  0.4444555724338510  0.8750000000000000
  0.8888900278993499  0.9444433054339787  0.8750000000000000
  0.0539211342887713  0.9424020350142910  0.3750000000000000
  0.7222275096021878  0.4444478498502675  0.8750000000000000
  0.3884809007255197  0.9424020350142910  0.3750000000000000
  0.2162902971913518  0.4459641592302296  0.3750000000000000
  0.2208757657864888  0.6124575675468468  0.3750000000000000
  0.5827309864985276  0.4580321599159281  0.3750000000000000
  0.7224302715448908  0.9448605430897807  0.3750000000000000
  0.8909312983190376  0.4448524326078089  0.3750000000000000
  0.0555553072669999  0.6111106145340002  0.8750000000000000
  0.2222203402480787  0.1111058237311459  0.8750000000000000
  0.7222275096021878  0.6111129930852577  0.8750000000000000
  0.5555530324346659  0.1111120724665708  0.8750000000000000
  0.8888907831981173  0.1111120582657305  0.8750000000000000
  0.1072049300874852  0.0519272761737988  0.3750000000000000
  0.6206185014848165  0.5639579830925183  0.3750000000000000
  0.4447223460863138  0.0519272761737988  0.3750000000000000
  0.9456236941196967  0.5558990450701530  0.3750000000000000
  0.7777777777777786  0.0555555555555571  0.3750000000000000
  0.1111111111111143  0.7222222222222214  0.8750000000000000
  0.4444418139987794  0.7222119998687940  0.8750000000000000
  0.2777973967533573  0.2222339988186766  0.8750000000000000
  0.7777701858700151  0.7222119998687940  0.8750000000000000
  0.6111024138236990  0.2222309195096370  0.8750000000000000
  0.9444518866843262  0.2222267358649060  0.8750000000000000
  0.2774342882631837  0.7230579823828769  0.3750000000000000
  0.1098836765884137  0.2216085049608713  0.3750000000000000
  0.4433394816077011  0.2127148318485172  0.3750000000000000
  0.6117248283724677  0.7234496567449233  0.3750000000000000
  0.9456236941196967  0.7230579823828769  0.3750000000000000
  0.7779235292881892  0.2216764551316842  0.3750000000000000
  0.1111129915043938  0.8888931077248422  0.8750000000000000
  0.4444444899107061  0.8888889116220170  0.8750000000000000
  0.2777973967533573  0.3888967312680093  0.8750000000000000
  0.6110993345146585  0.3888967312680093  0.8750000000000000
  0.7777748491805810  0.8888814466490024  0.8750000000000000
  0.9444444217113116  0.3888888434226225  0.8750000000000000
  0.1072049300874851  0.3886109872470148  0.3750000000000000
  0.2774342882631837  0.8877096392136319  0.3750000000000000
  0.6116568782016504  0.8895804074898299  0.3750000000000000
  0.9442300951923240  0.8891032381410046  0.3750000000000000
  0.7814060571595369  0.3886109872470148  0.3750000000000000
  0.2777823157128539  0.5555510176204801  0.8750000000000000
  0.1111213334645413  0.0555631474633210  0.8750000000000000
  0.6110993345146585  0.5555359365799787  0.8750000000000000
  0.4444418139987794  0.0555631474633210  0.8750000000000000
  0.9444402256084864  0.5555532171128816  0.8750000000000000
  0.1102753509504572  0.5558990450701530  0.3750000000000000
  0.7777777777777786  0.0555555555555571  0.8750000000000000
  0.2757395044178526  0.0514790088357034  0.3750000000000000
  0.4433394816077013  0.5639579830925183  0.3750000000000000
  0.7818543244976305  0.5575938289154837  0.3750000000000000
  0.6116568782016504  0.0554098040451479  0.3750000000000000
  0.4444366020653193  0.5555359365799787  0.8750000000000000
  0.9437529258434987  0.0554098040451479  0.3750000000000000
  0.2777801162204566  0.7222203418289419  0.8750000000000000
  0.1111285056859450  0.2222309195096370  0.8750000000000000
  0.4444366020653193  0.2222339988186766  0.8750000000000000
  0.6111024138236990  0.7222048276473878  0.8750000000000000
  0.9444402256084864  0.7222203418289419  0.8750000000000000
  0.7777748491805810  0.2222267358649060  0.8750000000000000
  0.1111111111111143  0.7222222222222214  0.3750000000000000
  0.4447223460863138  0.7261284032458500  0.3750000000000000
  0.2693753502408163  0.2127148318485173  0.3750000000000000
  0.7814060571595369  0.7261284032458500  0.3750000000000000
  0.6117248283724677  0.2216085049608713  0.3750000000000000
  0.9437529258434987  0.2216764551316842  0.3750000000000000
  0.1111213334645413  0.3888915193345492  0.8750000000000000
  0.2777801162204566  0.8888931077248422  0.8750000000000000
  0.6111065974684294  0.8888814466490024  0.8750000000000000
  0.4444444444444429  0.3888888888888857  0.8750000000000000
  0.9444444217113116  0.8888889116220170  0.8750000000000000
  0.1102753509504572  0.8877096392136319  0.3750000000000000
  0.7777701858700151  0.3888915193345492  0.8750000000000000
  0.4448731429486799  0.8891032381410046  0.3750000000000000
  0.2693753502408163  0.3899938517256273  0.3750000000000000
  0.2757395044178526  0.5575938289154837  0.3750000000000000
  0.6206185014848165  0.3899938517256273  0.3750000000000000
  0.7779235292881892  0.8895804074898299  0.3750000000000000
  0.9442300951923240  0.3884601903846487  0.3750000000000000
  0.1111129915043938  0.5555532171128816  0.8750000000000000
  0.2777823157128539  0.0555646314257089  0.8750000000000000
  0.7777687019076278  0.5555510176204801  0.8750000000000000
  0.6111065974684294  0.0555584841527547  0.8750000000000000
  0.9444518866843262  0.0555584841527547  0.8750000000000000
  0.0555603795350754  0.1111251885531772  0.1251171308323357
  0.5555293262540002  0.6110586525079978  0.1243518084624227
  0.3889179689557796  0.1111947674940293  0.1249737893817073
  0.8888533299653417  0.6110933316493435  0.1250987817380529
  0.7222232099030502  0.1111101234302873  0.1249811345909524
  0.0555507522605172  0.7777825810728183  0.6250068545739447
  0.3889077030345645  0.7777704528914751  0.6249264556357447
  0.2222746808253359  0.2778040070793368  0.6256481915375776
  0.7222081447801574  0.7777729537982594  0.6248828691676627
  0.5555293262540002  0.2778040070793368  0.6256481915375776
  0.8888835674095144  0.2777671348190360  0.6250023888136227
  0.2222318288123010  0.7777825810728183  0.1249931454260551
  0.0555603795350754  0.2777685243152341  0.1251171308323357
  0.3889900778052955  0.2779801556105992  0.1220235814375559
  0.5555648090181020  0.7777729537982594  0.1251171308323357
  0.8888627498569031  0.7777704528914751  0.1250735443642567
  0.7222081447801574  0.2777685243152341  0.1251171308323357
  0.0555628804418609  0.9444705834764255  0.6249264556357447
  0.3889077030345645  0.9444705834764255  0.6249264556357447
  0.2222767985382436  0.4444153643775490  0.6250262106182918
  0.5553531777227375  0.4443432555280331  0.6279764185624445
  0.7222232099030502  0.9444464198060972  0.6250188654090481
  0.8888627498569031  0.4444256302987641  0.6249264556357447
  0.0555628804418609  0.4444256302987641  0.1250735443642567
  0.2222400016839928  0.9444800033679869  0.1250987817380529
  0.5555661985143008  0.9444497659238142  0.1249976111863759
  0.3889900778052955  0.4443432555280331  0.1220235814375559
  0.8888835674095144  0.9444497659238142  0.1249976111863759
  0.7221385658393076  0.4444153643775490  0.1249737893817073
  0.2222400016839928  0.6110933316493435  0.6249012182619474
  0.0555603795350754  0.1111251885531771  0.6248828691676627
  0.5555293262540002  0.6110586525079978  0.6256481915375776
  0.3889179689557796  0.1111947674940293  0.6250262106182918
  0.8888533299653417  0.6110933316493435  0.6249012182619474
  0.0555507522605172  0.6111015045210361  0.1249931454260551
  0.7222232099030502  0.1111101234302873  0.6250188654090481
  0.2222767985382436  0.1111947674940293  0.1249737893817073
  0.3889179689557796  0.6110565347950911  0.1249737893817073
  0.7221385658393076  0.6110565347950911  0.1249737893817073
  0.5555648090181020  0.1111251885531771  0.1251171308323357
  0.3889179689557796  0.6110565347950911  0.6250262106182918
  0.8888869135272314  0.1111101234302873  0.1249811345909524
  0.2222318288123010  0.7777825810728183  0.6250068545739447
  0.0555603795350754  0.2777685243152341  0.6248828691676627
  0.3889900778052955  0.2779801556105992  0.6279764185624445
  0.5555648090181020  0.7777729537982594  0.6248828691676627
  0.8888627498569031  0.7777704528914751  0.6249264556357447
  0.7222081447801574  0.2777685243152341  0.6248828691676627
  0.0555507522605172  0.7777825810728183  0.1249931454260551
  0.3889077030345645  0.7777704528914751  0.1250735443642567
  0.2222746808253359  0.2778040070793368  0.1243518084624227
  0.7222081447801574  0.7777729537982594  0.1251171308323357
  0.5555293262540002  0.2778040070793368  0.1243518084624227
  0.8888835674095144  0.2777671348190360  0.1249976111863759
  0.0555628804418609  0.4444256302987641  0.6249264556357447
  0.2222400016839928  0.9444800033679869  0.6249012182619474
  0.5555661985143008  0.9444497659238142  0.6250023888136227
  0.3889900778052955  0.4443432555280331  0.6279764185624445
  0.8888835674095144  0.9444497659238142  0.6250023888136227
  0.0555628804418609  0.9444705834764255  0.1250735443642567
  0.7221385658393076  0.4444153643775490  0.6250262106182918
  0.3889077030345645  0.9444705834764255  0.1250735443642567
  0.2222767985382436  0.4444153643775490  0.1249737893817073
  0.2222400016839928  0.6110933316493435  0.1250987817380529
  0.5553531777227375  0.4443432555280331  0.1220235814375559
  0.7222232099030502  0.9444464198060972  0.1249811345909524
  0.8888627498569031  0.4444256302987641  0.1250735443642567
  0.0555507522605172  0.6111015045210361  0.6250068545739447
  0.2222767985382436  0.1111947674940293  0.6250262106182918
  0.7221385658393076  0.6110565347950911  0.6250262106182918
  0.5555648090181020  0.1111251885531772  0.6248828691676627
  0.8888869135272314  0.1111101234302873  0.6250188654090481
 
  0.00000000E+00  0.00000000E+00  0.00000000E+00
  0.00000000E+00  0.00000000E+00  0.00000000E+00
  0.00000000E+00  0.00000000E+00  0.00000000E+00
  0.00000000E+00  0.00000000E+00  0.00000000E+00
  0.00000000E+00  0.00000000E+00  0.00000000E+00
  0.00000000E+00  0.00000000E+00  0.00000000E+00
  0.00000000E+00  0.00000000E+00  0.00000000E+00
  0.00000000E+00  0.00000000E+00  0.00000000E+00
  0.00000000E+00  0.00000000E+00  0.00000000E+00
  0.00000000E+00  0.00000000E+00  0.00000000E+00
  0.00000000E+00  0.00000000E+00  0.00000000E+00
  0.00000000E+00  0.00000000E+00  0.00000000E+00
  0.00000000E+00  0.00000000E+00  0.00000000E+00
  0.00000000E+00  0.00000000E+00  0.00000000E+00
  0.00000000E+00  0.00000000E+00  0.00000000E+00
  0.00000000E+00  0.00000000E+00  0.00000000E+00
  0.00000000E+00  0.00000000E+00  0.00000000E+00
  0.00000000E+00  0.00000000E+00  0.00000000E+00
  0.00000000E+00  0.00000000E+00  0.00000000E+00
  0.00000000E+00  0.00000000E+00  0.00000000E+00
  0.00000000E+00  0.00000000E+00  0.00000000E+00
  0.00000000E+00  0.00000000E+00  0.00000000E+00
  0.00000000E+00  0.00000000E+00  0.00000000E+00
  0.00000000E+00  0.00000000E+00  0.00000000E+00
  0.00000000E+00  0.00000000E+00  0.00000000E+00
  0.00000000E+00  0.00000000E+00  0.00000000E+00
  0.00000000E+00  0.00000000E+00  0.00000000E+00
  0.00000000E+00  0.00000000E+00  0.00000000E+00
  0.00000000E+00  0.00000000E+00  0.00000000E+00
  0.00000000E+00  0.00000000E+00  0.00000000E+00
  0.00000000E+00  0.00000000E+00  0.00000000E+00
  0.00000000E+00  0.00000000E+00  0.00000000E+00
  0.00000000E+00  0.00000000E+00  0.00000000E+00
  0.00000000E+00  0.00000000E+00  0.00000000E+00
  0.00000000E+00  0.00000000E+00  0.00000000E+00
  0.00000000E+00  0.00000000E+00  0.00000000E+00
  0.00000000E+00  0.00000000E+00  0.00000000E+00
  0.00000000E+00  0.00000000E+00  0.00000000E+00
  0.00000000E+00  0.00000000E+00  0.00000000E+00
  0.00000000E+00  0.00000000E+00  0.00000000E+00
  0.00000000E+00  0.00000000E+00  0.00000000E+00
  0.00000000E+00  0.00000000E+00  0.00000000E+00
  0.00000000E+00  0.00000000E+00  0.00000000E+00
  0.00000000E+00  0.00000000E+00  0.00000000E+00
  0.00000000E+00  0.00000000E+00  0.00000000E+00
  0.00000000E+00  0.00000000E+00  0.00000000E+00
  0.00000000E+00  0.00000000E+00  0.00000000E+00
  0.00000000E+00  0.00000000E+00  0.00000000E+00
  0.00000000E+00  0.00000000E+00  0.00000000E+00
  0.00000000E+00  0.00000000E+00  0.00000000E+00
  0.00000000E+00  0.00000000E+00  0.00000000E+00
  0.00000000E+00  0.00000000E+00  0.00000000E+00
  0.00000000E+00  0.00000000E+00  0.00000000E+00
  0.00000000E+00  0.00000000E+00  0.00000000E+00
  0.00000000E+00  0.00000000E+00  0.00000000E+00
  0.00000000E+00  0.00000000E+00  0.00000000E+00
  0.00000000E+00  0.00000000E+00  0.00000000E+00
  0.00000000E+00  0.00000000E+00  0.00000000E+00
  0.00000000E+00  0.00000000E+00  0.00000000E+00
  0.00000000E+00  0.00000000E+00  0.00000000E+00
  0.00000000E+00  0.00000000E+00  0.00000000E+00
  0.00000000E+00  0.00000000E+00  0.00000000E+00
  0.00000000E+00  0.00000000E+00  0.00000000E+00
  0.00000000E+00  0.00000000E+00  0.00000000E+00
  0.00000000E+00  0.00000000E+00  0.00000000E+00
  0.00000000E+00  0.00000000E+00  0.00000000E+00
  0.00000000E+00  0.00000000E+00  0.00000000E+00
  0.00000000E+00  0.00000000E+00  0.00000000E+00
  0.00000000E+00  0.00000000E+00  0.00000000E+00
  0.00000000E+00  0.00000000E+00  0.00000000E+00
  0.00000000E+00  0.00000000E+00  0.00000000E+00
  0.00000000E+00  0.00000000E+00  0.00000000E+00
  0.00000000E+00  0.00000000E+00  0.00000000E+00
  0.00000000E+00  0.00000000E+00  0.00000000E+00
  0.00000000E+00  0.00000000E+00  0.00000000E+00
  0.00000000E+00  0.00000000E+00  0.00000000E+00
  0.00000000E+00  0.00000000E+00  0.00000000E+00
  0.00000000E+00  0.00000000E+00  0.00000000E+00
  0.00000000E+00  0.00000000E+00  0.00000000E+00
  0.00000000E+00  0.00000000E+00  0.00000000E+00
  0.00000000E+00  0.00000000E+00  0.00000000E+00
  0.00000000E+00  0.00000000E+00  0.00000000E+00
  0.00000000E+00  0.00000000E+00  0.00000000E+00
  0.00000000E+00  0.00000000E+00  0.00000000E+00
  0.00000000E+00  0.00000000E+00  0.00000000E+00
  0.00000000E+00  0.00000000E+00  0.00000000E+00
  0.00000000E+00  0.00000000E+00  0.00000000E+00
  0.00000000E+00  0.00000000E+00  0.00000000E+00
  0.00000000E+00  0.00000000E+00  0.00000000E+00
  0.00000000E+00  0.00000000E+00  0.00000000E+00
  0.00000000E+00  0.00000000E+00  0.00000000E+00
  0.00000000E+00  0.00000000E+00  0.00000000E+00
  0.00000000E+00  0.00000000E+00  0.00000000E+00
  0.00000000E+00  0.00000000E+00  0.00000000E+00
  0.00000000E+00  0.00000000E+00  0.00000000E+00
  0.00000000E+00  0.00000000E+00  0.00000000E+00
  0.00000000E+00  0.00000000E+00  0.00000000E+00
  0.00000000E+00  0.00000000E+00  0.00000000E+00
  0.00000000E+00  0.00000000E+00  0.00000000E+00
  0.00000000E+00  0.00000000E+00  0.00000000E+00
  0.00000000E+00  0.00000000E+00  0.00000000E+00
  0.00000000E+00  0.00000000E+00  0.00000000E+00
  0.00000000E+00  0.00000000E+00  0.00000000E+00
  0.00000000E+00  0.00000000E+00  0.00000000E+00
  0.00000000E+00  0.00000000E+00  0.00000000E+00
  0.00000000E+00  0.00000000E+00  0.00000000E+00
  0.00000000E+00  0.00000000E+00  0.00000000E+00
  0.00000000E+00  0.00000000E+00  0.00000000E+00
  0.00000000E+00  0.00000000E+00  0.00000000E+00
  0.00000000E+00  0.00000000E+00  0.00000000E+00
  0.00000000E+00  0.00000000E+00  0.00000000E+00
  0.00000000E+00  0.00000000E+00  0.00000000E+00
  0.00000000E+00  0.00000000E+00  0.00000000E+00
  0.00000000E+00  0.00000000E+00  0.00000000E+00
  0.00000000E+00  0.00000000E+00  0.00000000E+00
  0.00000000E+00  0.00000000E+00  0.00000000E+00
  0.00000000E+00  0.00000000E+00  0.00000000E+00
  0.00000000E+00  0.00000000E+00  0.00000000E+00
  0.00000000E+00  0.00000000E+00  0.00000000E+00
  0.00000000E+00  0.00000000E+00  0.00000000E+00
  0.00000000E+00  0.00000000E+00  0.00000000E+00
  0.00000000E+00  0.00000000E+00  0.00000000E+00
  0.00000000E+00  0.00000000E+00  0.00000000E+00
  0.00000000E+00  0.00000000E+00  0.00000000E+00
  0.00000000E+00  0.00000000E+00  0.00000000E+00
  0.00000000E+00  0.00000000E+00  0.00000000E+00
  0.00000000E+00  0.00000000E+00  0.00000000E+00
  0.00000000E+00  0.00000000E+00  0.00000000E+00
  0.00000000E+00  0.00000000E+00  0.00000000E+00
  0.00000000E+00  0.00000000E+00  0.00000000E+00
  0.00000000E+00  0.00000000E+00  0.00000000E+00
  0.00000000E+00  0.00000000E+00  0.00000000E+00
  0.00000000E+00  0.00000000E+00  0.00000000E+00
  0.00000000E+00  0.00000000E+00  0.00000000E+00
  0.00000000E+00  0.00000000E+00  0.00000000E+00
  0.00000000E+00  0.00000000E+00  0.00000000E+00
  0.00000000E+00  0.00000000E+00  0.00000000E+00
  0.00000000E+00  0.00000000E+00  0.00000000E+00
  0.00000000E+00  0.00000000E+00  0.00000000E+00
  0.00000000E+00  0.00000000E+00  0.00000000E+00
  0.00000000E+00  0.00000000E+00  0.00000000E+00
  0.00000000E+00  0.00000000E+00  0.00000000E+00
  0.00000000E+00  0.00000000E+00  0.00000000E+00
  0.00000000E+00  0.00000000E+00  0.00000000E+00
  0.00000000E+00  0.00000000E+00  0.00000000E+00
  0.00000000E+00  0.00000000E+00  0.00000000E+00
  0.00000000E+00  0.00000000E+00  0.00000000E+00
  0.00000000E+00  0.00000000E+00  0.00000000E+00
  0.00000000E+00  0.00000000E+00  0.00000000E+00
  0.00000000E+00  0.00000000E+00  0.00000000E+00
  0.00000000E+00  0.00000000E+00  0.00000000E+00
  0.00000000E+00  0.00000000E+00  0.00000000E+00
  0.00000000E+00  0.00000000E+00  0.00000000E+00
  0.00000000E+00  0.00000000E+00  0.00000000E+00
  0.00000000E+00  0.00000000E+00  0.00000000E+00
  0.00000000E+00  0.00000000E+00  0.00000000E+00
  0.00000000E+00  0.00000000E+00  0.00000000E+00
  0.00000000E+00  0.00000000E+00  0.00000000E+00
  0.00000000E+00  0.00000000E+00  0.00000000E+00
  0.00000000E+00  0.00000000E+00  0.00000000E+00
  0.00000000E+00  0.00000000E+00  0.00000000E+00
  0.00000000E+00  0.00000000E+00  0.00000000E+00
  0.00000000E+00  0.00000000E+00  0.00000000E+00
  0.00000000E+00  0.00000000E+00  0.00000000E+00
  0.00000000E+00  0.00000000E+00  0.00000000E+00
  0.00000000E+00  0.00000000E+00  0.00000000E+00
  0.00000000E+00  0.00000000E+00  0.00000000E+00
  0.00000000E+00  0.00000000E+00  0.00000000E+00
  0.00000000E+00  0.00000000E+00  0.00000000E+00
  0.00000000E+00  0.00000000E+00  0.00000000E+00
  0.00000000E+00  0.00000000E+00  0.00000000E+00
  0.00000000E+00  0.00000000E+00  0.00000000E+00
  0.00000000E+00  0.00000000E+00  0.00000000E+00
  0.00000000E+00  0.00000000E+00  0.00000000E+00
  0.00000000E+00  0.00000000E+00  0.00000000E+00
  0.00000000E+00  0.00000000E+00  0.00000000E+00
  0.00000000E+00  0.00000000E+00  0.00000000E+00
  0.00000000E+00  0.00000000E+00  0.00000000E+00
  0.00000000E+00  0.00000000E+00  0.00000000E+00
  0.00000000E+00  0.00000000E+00  0.00000000E+00
  0.00000000E+00  0.00000000E+00  0.00000000E+00
  0.00000000E+00  0.00000000E+00  0.00000000E+00
  0.00000000E+00  0.00000000E+00  0.00000000E+00
  0.00000000E+00  0.00000000E+00  0.00000000E+00
  0.00000000E+00  0.00000000E+00  0.00000000E+00
  0.00000000E+00  0.00000000E+00  0.00000000E+00
  0.00000000E+00  0.00000000E+00  0.00000000E+00
  0.00000000E+00  0.00000000E+00  0.00000000E+00
  0.00000000E+00  0.00000000E+00  0.00000000E+00
  0.00000000E+00  0.00000000E+00  0.00000000E+00
  0.00000000E+00  0.00000000E+00  0.00000000E+00
  0.00000000E+00  0.00000000E+00  0.00000000E+00
  0.00000000E+00  0.00000000E+00  0.00000000E+00
  0.00000000E+00  0.00000000E+00  0.00000000E+00
  0.00000000E+00  0.00000000E+00  0.00000000E+00
  0.00000000E+00  0.00000000E+00  0.00000000E+00
  0.00000000E+00  0.00000000E+00  0.00000000E+00
  0.00000000E+00  0.00000000E+00  0.00000000E+00
  0.00000000E+00  0.00000000E+00  0.00000000E+00
  0.00000000E+00  0.00000000E+00  0.00000000E+00
  0.00000000E+00  0.00000000E+00  0.00000000E+00
  0.00000000E+00  0.00000000E+00  0.00000000E+00
  0.00000000E+00  0.00000000E+00  0.00000000E+00
  0.00000000E+00  0.00000000E+00  0.00000000E+00
  0.00000000E+00  0.00000000E+00  0.00000000E+00
  0.00000000E+00  0.00000000E+00  0.00000000E+00
  0.00000000E+00  0.00000000E+00  0.00000000E+00
  0.00000000E+00  0.00000000E+00  0.00000000E+00
  0.00000000E+00  0.00000000E+00  0.00000000E+00
  0.00000000E+00  0.00000000E+00  0.00000000E+00
  0.00000000E+00  0.00000000E+00  0.00000000E+00
  0.00000000E+00  0.00000000E+00  0.00000000E+00
  0.00000000E+00  0.00000000E+00  0.00000000E+00
  0.00000000E+00  0.00000000E+00  0.00000000E+00
  0.00000000E+00  0.00000000E+00  0.00000000E+00
  0.00000000E+00  0.00000000E+00  0.00000000E+00
  0.00000000E+00  0.00000000E+00  0.00000000E+00
  0.00000000E+00  0.00000000E+00  0.00000000E+00
  0.00000000E+00  0.00000000E+00  0.00000000E+00
  0.00000000E+00  0.00000000E+00  0.00000000E+00
  0.00000000E+00  0.00000000E+00  0.00000000E+00
  0.00000000E+00  0.00000000E+00  0.00000000E+00
  0.00000000E+00  0.00000000E+00  0.00000000E+00
  0.00000000E+00  0.00000000E+00  0.00000000E+00
  0.00000000E+00  0.00000000E+00  0.00000000E+00
  0.00000000E+00  0.00000000E+00  0.00000000E+00
  0.00000000E+00  0.00000000E+00  0.00000000E+00
  0.00000000E+00  0.00000000E+00  0.00000000E+00
  0.00000000E+00  0.00000000E+00  0.00000000E+00
  0.00000000E+00  0.00000000E+00  0.00000000E+00
  0.00000000E+00  0.00000000E+00  0.00000000E+00
  0.00000000E+00  0.00000000E+00  0.00000000E+00
  0.00000000E+00  0.00000000E+00  0.00000000E+00
  0.00000000E+00  0.00000000E+00  0.00000000E+00
  0.00000000E+00  0.00000000E+00  0.00000000E+00
  0.00000000E+00  0.00000000E+00  0.00000000E+00
  0.00000000E+00  0.00000000E+00  0.00000000E+00
  0.00000000E+00  0.00000000E+00  0.00000000E+00
  0.00000000E+00  0.00000000E+00  0.00000000E+00
  0.00000000E+00  0.00000000E+00  0.00000000E+00
  0.00000000E+00  0.00000000E+00  0.00000000E+00
  0.00000000E+00  0.00000000E+00  0.00000000E+00
  0.00000000E+00  0.00000000E+00  0.00000000E+00
  0.00000000E+00  0.00000000E+00  0.00000000E+00
  0.00000000E+00  0.00000000E+00  0.00000000E+00
  0.00000000E+00  0.00000000E+00  0.00000000E+00
  0.00000000E+00  0.00000000E+00  0.00000000E+00