 B O N 
 1.0
 17.527899999999772   0.000000000000000   0.000000000000000
 -8.763949999999658  15.179606674993195   0.000000000000000
  0.000000000000001   0.000000000000002  15.000000000000000
 B O N 
  48   2  47
Cartesian
  7.510548611770828  14.443194614637381   1.665234401559015 
 15.023008949450274   1.431144953452890   1.666707057104355 
 13.771874896613053   3.598242424569943   1.659364707003675 
 12.521967347440938   5.766107903542510   1.653252688330830 
 11.270018876491015   7.934278678341690   1.656900462908385 
 10.005802269562968  10.100907950372958   1.660548761411415 
  8.754969353371468  12.266149587992922   1.660840301963025 
 -7.515786223651564  14.443430368833322   1.659637178765625 
 -0.002768794504967   1.432073677806283   1.662693829295850 
 -1.254162546786756   3.599466404846068   1.660641255535320 
 -2.504219759584719   5.765999803872984   1.652503302518970 
 -3.754943705860161   7.934566653003304   1.649984440637910 
 -5.008173446157574  10.103403956190656   1.656139403705775 
 -6.264478723382586  12.272589499817718   1.658381200994385 
 -5.011124200609482  14.445076023024907   1.661983689153480 
  2.503858169633380   1.442562334240912   1.670069548227165 
  1.245842591417210   3.606020952242885   1.672486700010960 
  0.000661308586793   5.767522444893610   1.661372506842885 
 -1.247603255030118   7.928321274437351   1.642220667861855 
 -2.493366121711450  10.100834488386116   1.647485162821440 
 -3.756260902198744  12.272583990776742   1.657628593770390 
 -2.505908482894817  14.442554860061900   1.663862463249690 
  5.006517111030144   1.436040871454378   1.671561073850745 
  3.759999371617225   3.626676444584748   1.691744461379565 
  2.484515668101429   5.829121125090442   1.730538212447490 
  1.297514869753797   7.888900646507690   1.699883050301385 
  0.026855702534677  10.095076213729911   1.643404428353355 
 -1.249566294575584  12.270842151080689   1.652346576693285 
 -0.003369167248779  14.443967998733111   1.666329530740395 
  7.512528084877124   1.428725987439357   1.667201221564470 
  6.264894932250964   3.592113952383403   1.679762571403410 
  5.023446853594075   5.771225969241747   1.696365346633905 
  2.514505845149913  10.119737783328796   1.644207520655595 
  1.246919538547369  12.281406599144583   1.656685889509650 
  2.499986107213315  14.446791395203498   1.673512438864875 
 10.015681350964325   1.430182467165388   1.666633216970955 
  8.768379736766576   3.593851817220089   1.663649725268760 
  7.520775970111616   5.756513451515518   1.674493989655140 
  6.256229882183201   7.894446418949548   1.672172073543165 
  4.971827821874411  10.119737783328796   1.650728758938825 
  3.750793580589696  12.286357957162387   1.666505372853885 
  5.006791880449233  14.445947297945079   1.674945561026880 
 12.519531458839451   1.431155592422240   1.670134786049415 
 11.270431447935261   3.596915764024726   1.657948328914140 
 10.021263346725851   5.763304938151557   1.658970938461065 
  8.769515967963510   7.930631269016287   1.665333931901835 
  7.480353069978117  10.085787006378387   1.664279243294880 
  6.258161792981387  12.279401608518342   1.669955211445380 
  3.756631311743370   9.525004850644153   1.618139554501830 
  5.131849001721313   7.141448006368078   1.680625218771555 
  8.759665955580747  13.714305747334153   1.660079291888160 
 16.272713921417552   0.704988746801865   1.663661188026285 
 15.018115960444321   2.871806578803372   1.661777842858650 
 13.766431406775315   5.041084268663838   1.654136467408005 
 12.517535352388279   7.212008812131840   1.652642348489025 
 11.262754526628662   9.381275980372198   1.658177537055780 
 10.009959321740991  11.547391882396779   1.658766567489510 
 -6.263846395072926  13.717873887343361   1.658364461476920 
  1.250241831067083   0.706385547822435   1.662202879406055 
 -0.008810299739216   2.866577602814066   1.662894140006595 
 -1.265468599056586   5.036824390698078   1.656584301360315 
 -2.515523154143251   7.211446343267982   1.646356029382170 
 -3.757796640862884   9.383192597639503   1.651015708272645 
 -5.012056963221244  11.550814692099378   1.657933962726795 
 -3.759217706073481  13.719448477914938   1.661254266633105 
  3.755144193506921   0.707698035710431   1.667087293906035 
  2.506990618201221   2.878389999559257   1.680625247842920 
  1.234063694051137   5.023783417187589   1.676650877361375 
 -0.025556046361188   7.208237824776464   1.648738672408155 
 -1.247718420253155   9.384705958944789   1.640465243890335 
 -2.506150941094648  11.552253441240188   1.652277517618380 
 -1.254686585760328  13.721020615814592   1.661779054973820 
  6.260081930731392   0.707243507105366   1.666911867155580 
  5.012824639370912   2.875040512488471   1.681017069528840 
  3.771082591615660   5.059868891664398   1.711299843713880 
  2.463534497236808   7.190322033148299   1.789283610316695 
  1.273148821377365   9.389645377820935   1.653432917409645 
  0.000202496380487  11.556056120495667   1.643780422858305 
  1.247843361410664  13.729692808969208   1.667924399455320 
  8.764310324107710   0.708631327178254   1.666791744214005 
  7.520172443091553   2.869270529779004   1.668529466733135 
  6.279146150443404   5.028555432437551   1.685719728628635 
  2.499066242765943  11.575748231487903   1.655714512437930 
  3.757183524104565  13.731842809548102   1.675118895277440 
 11.266983634297818   0.711506906308409   1.672663725596730 
 10.020124632246251   2.873357480905525   1.659676603972740 
  8.777152978959045   5.037000661296005   1.664353144592745 
  7.532486522076304   7.204361228351963   1.672070364694620 
  6.220844602673486   9.359169115022286   1.662452880015720 
  5.010503850496305  11.572483581096646   1.668657131907330 
  6.259774941878304  13.724351280742608   1.671605777597940 
 13.770224188632966   0.709568762791576   1.672853641437120 
 12.519116786199087   2.874297173795866   1.661455286876865 
 11.270893608087055   5.041097069736107   1.653997515429015 
 10.022246573526493   7.209608834520090   1.659952027424580 
  8.751557934761784   9.377582331294786   1.663353562968615 
  7.502361480531412  11.540696563343028   1.664078706776325 
