 N B Ga 
 1.0
 17.527899999999772   0.000000000000000   0.000000000000000
 -8.763949999999658  15.179606674993195   0.000000000000000
  0.000000000000001   0.000000000000002  15.000000000000000
 N B Ga 
  48  48   1
Cartesian
  8.757128639215235  13.725082143521247   1.664719067698425 
 16.285678191731275   0.726002833959923   1.664663401916295 
 15.048629397404888   2.906284143406325   1.666016461402470 
 13.797223097575102   5.073783435623361   1.666016461402470 
 12.527568493361446   7.235239771954039   1.664663401916295 
 11.256861624992274   9.395417606799414   1.664719067698425 
  9.997849826962376  11.554969830775134   1.665176351999790 
 -6.268801242883875  13.722874458224242   1.664432154274545 
  1.254303231004349   0.710314154698667   1.664808034163280 
  0.018280456215157   2.891783399394275   1.664799431427285 
 -1.222949283562393   5.076638443780937   1.665226031471760 
 -2.494474385699049   7.244002452554533   1.664799431427285 
 -3.765670781793897   9.405164197540946   1.664808034163280 
 -5.021980227599256  11.563317111806596   1.664432154274545 
 -3.761882572016779  13.730539730074025   1.664786708179635 
  3.760350771907716   0.704759090802667   1.665594777882855 
  2.517687175833833   2.867012697034220   1.665268636296195 
  1.278768484217965   5.059868891664398   1.665651684388125 
  0.013932615963051   7.250628878717481   1.665651684388125 
 -1.266223083411728   9.420937517328882   1.665268636296195 
 -2.517457837795822  11.578242563002908   1.665594777882855 
 -1.256126650478040  13.750318168752520   1.665286771743630 
  6.272089019086211   0.711066138730630   1.665286771743630 
  5.038988851462541   2.851859591664278   1.665367391402340 
  3.809229221725668   4.990897419539429   1.665472813332345 
  1.218886063933270   9.477503377874422   1.665472813332345 
 -0.018695219793995  11.612025371712711   1.665367391402340 
  1.247931514894380  13.777073547309847   1.664687194706865 
  8.779888376319310   0.732024355557405   1.664468501941425 
  7.547288939291039   2.866266433218233   1.664687194706865 
  6.321393476192503   4.995905439669977   1.664683671406440 
  5.080636427653785   7.105687884601588   1.665991980198360 
  3.686051933322296   9.521179084231560   1.665991980198360 
  2.479305263822440  11.650597430656639   1.664683671406440 
  3.762287331889343  13.769061358264674   1.664398106254095 
 11.285691082334596   0.744179882384352   1.664562242965605 
 10.043316724355583   2.896035392424842   1.664562242965605 
  8.797528088535509   5.047768539411656   1.664398106254095 
  7.525343528824443   7.205198230324066   1.665219322797705 
  6.221111467446852   9.374468922260334   1.666151737088610 
  4.993398775998826  11.590655184175610   1.665219322797705 
  6.260975365151152  13.741836740619512   1.664602329426570 
 13.789285634497116   0.742288613361399   1.664939786063490 
 12.545324609488542   2.905999978383821   1.665772442486370 
 11.293476113426442   5.065157509870103   1.664939786063490 
 10.023294894686131   7.225308161156070   1.664602329426570 
  8.744253456317463   9.385398385191097   1.665919718917560 
  7.492147654438672  11.554109250497007   1.665919718917560 
  7.515791388746498  14.461102443417802   1.664778183677970 
 15.040819305480385   1.460660034285859   1.665615217343115 
 13.796974234980258   3.628657547262423   1.666660397730885 
 12.541355848651197   5.789857733175902   1.665615217343115 
 11.273590277028973   7.952403844286489   1.664778183677970 
 10.004004179866776  10.110476719585620   1.665625133309685 
  8.749944273392570  12.282572193334092   1.665625133309685 
 -7.517203573060560  14.445300982304127   1.664844976640490 
  0.010951826813372   1.442130891519133   1.664916439417425 
 -1.229043479184351   3.624880788881815   1.665662267831700 
 -2.483270390794634   5.797265524011100   1.665662267831700 
 -3.753589599028447   7.962507908275174   1.664916439417425 
 -5.019838495735501  10.119737783328796   1.664844976640490 
 -6.270736631317152  12.282069484249488   1.664665887620265 
 -5.013498009736004  14.442674233013234   1.665074734283265 
  2.508512572820952   1.421161911859696   1.665597693536340 
  1.270078180596360   3.595007304001810   1.665241090623525 
  0.022094660599646   5.795482220765892   1.665627889839030 
 -1.259580757718813   7.976505110984585   1.665241090623525 
 -2.522968895101198  10.135943451642397   1.665597693536340 
 -3.770978720559984  12.290567694775923   1.665074734283265 
 -2.509096063405888  14.453853678717676   1.665378281202780 
  5.020976260843917   1.412342553423269   1.666028470851585 
  3.784993958887731   3.549557080781307   1.665575345768970 
  2.553933242911779   5.659544242260673   1.666791151410615 
  1.170288209031240   8.056087740582210   1.666791151410615 
 -0.041483916480931  10.177211174958270   1.665575345768970 
 -1.274374839531919  12.316210510759232   1.666028470851585 
 -0.004343750499069  14.477879758003949   1.665030929019435 
  7.528052288053811   1.431387116499369   1.665030929019435 
  6.300788253053970   3.560901466920227   1.665037502321925 
  5.086510327899236   5.693697127479756   1.665684175052730 
  2.466154017737260  10.232287390614166   1.665684175052730 
  1.226237757188865  12.350280751332731   1.665037502321925 
  2.507642236116521  14.488262165522997   1.664730777304740 
 10.032946452089247   1.455495093573068   1.664688492701370 
  8.793036710025586   3.601639591099468   1.664730777304740 
  7.548568115756383   5.757502333998448   1.664875498789380 
  6.257618563091038   7.895480001205618   1.666099908681930 
  4.958508037588507  10.145605436023583   1.666099908681930 
  3.752439841404763  12.332589377224446   1.664875498789380 
  5.016811497884051  14.481957671639377   1.664639261174325 
 12.539279201467821   1.463667138412384   1.665380629775040 
 11.293190025210340   3.621956902452064   1.665380629775040 
 10.042161489048146   5.777796161127054   1.664639261174325 
  8.767475708490208   7.934269698928881   1.665549247233225 
  7.492173837768847  10.108334444582418   1.666571422732575 
  6.247029473921589  12.299810634947544   1.665549247233225 
  3.296763812532023   7.686113337151022   1.669260934751385 
