 C N B 
 1.0
 17.527899999999772   0.000000000000000   0.000000000000000
 -8.763949999999658  15.179606674993195   0.000000000000000
  0.000000000000001   0.000000000000002  15.000000000000000
 C N B 
   1  49  47
Cartesian
  3.766671717860412   7.920812258309609   1.667363210511990 
  8.761652951941590  13.731671871743911   1.664734808703960 
 16.275073215989600   0.718568010058851   1.664972521350735 
 15.026476592530365   2.888451384749429   1.665147519019215 
 13.775617630614921   5.059868891664398   1.664806779432405 
 12.530395585769957   7.226750775983526   1.664193641657310 
 11.277220351307072   9.399302316317796   1.665001735481865 
 10.019630804814369  11.569961784423816   1.665233561340945 
 -6.260455590642416  13.738336685364095   1.664135998223610 
  1.250347295593059   0.724511102705596   1.664837137173495 
  0.002912026700739   2.895333513165153   1.664394373093425 
 -1.245409574346778   5.059868891664398   1.664487851100300 
 -2.495703701877800   7.228201119078565   1.665121583063610 
 -3.752763091449210   9.397756010395954   1.665179973556545 
 -5.006262082222451  11.569233999156435   1.664560750304730 
 -3.756770494067761  13.739122086995135   1.664418026917515 
  3.754262362052563   0.729141653373107   1.665131094195420 
  2.502020787072139   2.897458362881135   1.665435275306625 
  1.258247394785747   5.074532452457670   1.664701622976480 
  0.013062337663358   7.231235143298457   1.665649073057970 
 -1.253587219122985   9.397255192170562   1.666547151919485 
 -2.504593034800990  11.568190074521860   1.665666538417425 
 -1.253637707270638  13.736887940959942   1.665295636155765 
  6.257372453073253   0.729408761930681   1.664854913356890 
  5.002814277141740   2.900908180530927   1.665857669514120 
  3.747636820780649   5.069528287725913   1.666030425820170 
  2.530637243022007   7.256686806760286   1.666533758227785 
  1.240397313716620   9.396335427126381   1.665989867998545 
 -0.002854215686323  11.565065273673184   1.666334700898200 
  1.252359905085814  13.725220409709383   1.665106242853695 
  8.761264415968611   0.724588691578251   1.664148797349570 
  7.502458543773024   2.903530224723219   1.664741819727960 
  6.226680724908457   5.088197407725222   1.665841820964660 
  4.892790353564545   7.281203640439320   1.667658072782070 
  3.730017859035898   9.320796786453837   1.665898463675850 
  2.505399647542568  11.539271036376586   1.664781644262090 
  3.754014542992721  13.720245333390341   1.664603437157265 
 11.267686193891576   0.716011055331131   1.665110159993160 
 10.017666723513267   2.888367828240494   1.665149273957820 
  8.768607314443958   5.051802186420574   1.664382837460800 
  7.648575443923982   7.158496569710977   1.663560902134530 
  6.251697885134679   9.498727321638778   1.665015002978985 
  4.991278267948535  11.541125991812910   1.664404924204020 
  6.255310820618815  13.719760779999730   1.664786804352300 
 13.771861545209140   0.714662526873828   1.665490095736350 
 12.521931621311309   2.886590392795460   1.665761448715005 
 11.272621473493910   5.056662080835213   1.665103576325985 
 10.038871043863407   7.225774809531096   1.664291604606255 
  8.782331789841066   9.405118281179602   1.665881356412385 
  7.511148857160725  11.562619186231192   1.665648296493975 
  7.507486979145902  14.448353255747538   1.665066907561785 
 15.023531497846369   1.440371524010429   1.665654254291715 
 13.773388319657784   3.610769010612852   1.665579538841790 
 12.522843641738227   5.780523566632472   1.664815300311825 
 11.280086942691717   7.952209188711042   1.664707337863695 
 10.025926100756504  10.124767232792040   1.666009867587045 
  8.762534539427532  12.284915690558567   1.665517248943800 
 -7.515143285068493  14.456440556698665   1.664725991725275 
 -0.001424795643721   1.445242014551528   1.664937644271465 
 -1.250556696396915   3.613311502450623   1.664717813711835 
 -2.501048343526140   5.781623624703965   1.665050048590410 
 -3.750681988321321   7.951308403689699   1.665013286055675 
 -5.003634269406399  10.119737783328796   1.665170595943530 
 -6.259620537002642  12.292155305407743   1.664674685412165 
 -5.009625992415268  14.461617204827917   1.664596511387535 
  2.501213743795253   1.448388916280710   1.665562952882595 
  1.253731270433596   3.621375278080190   1.664973262404540 
  0.002751424344405   5.784737631398498   1.664964728878590 
 -1.247780419749819   7.952435509014792   1.666248135351195 
 -2.505450087031402  10.119737783328796   1.666267954525215 
 -3.757454103124061  12.293016423346629   1.664948911578750 
 -2.507583033394091  14.462999001365459   1.665173621228550 
  5.003638609818443   1.453181488409911   1.665638405643705 
  3.753357892576796   3.618731214396176   1.666192126716315 
  2.513025224052101   5.788048806521847   1.666036704332250 
  1.252367203654269   7.965195354916235   1.666473341852925 
 -0.011021873290810  10.124450467242449   1.666832334497400 
 -1.254579371284264  12.292732996521298   1.666260004991025 
 -0.000190125214892  14.457205570768185   1.665027270959565 
  7.508324349199798   1.455775343337474   1.664751252413160 
  6.247989669944246   3.638052912258119   1.665936363068160 
  4.978801054887552   5.833613007890827   1.667008099518000 
  2.491458102882294  10.094079693608256   1.665611815878030 
  1.253913319441565  12.278244361389724   1.665833279479845 
  2.504773498632190  14.449057332643331   1.665253895620080 
 10.015922183202441   1.444072305822567   1.664897311742115 
  8.763629159343502   3.614045133014106   1.664889950936625 
  7.496009666527151   5.773281103942297   1.664927649608070 
  4.992214573676887  10.076676830279229   1.665392402359485 
  3.754205518279907  12.273222866750181   1.664573481111960 
  5.007393621462779  14.445562995627823   1.665145306164825 
 12.520336764732340   1.439837379422896   1.665978473320155 
 11.268993740740841   3.612226824189774   1.665813462735750 
 10.018136259088315   5.781636114805083   1.664688890650740 
  8.788357681925259   7.970308531808016   1.665080385735120 
  7.527143323205403  10.104346040794274   1.666218642680370 
  6.252410422801557  12.267312595804283   1.665216462543960 
