B C N                                   
   1.0000000000000000     
     8.7639499999999995  -15.1796066749929999    0.0000000000000000
     8.7639499999999995   15.1796066749929999    0.0000000000000000
     0.0000000000000000    0.0000000000000000   15.0000000000000000
   B    C    N 
    47     1    49
Selective dynamics
Direct
  0.9042296921307437  0.9518265897857338  0.1110044605041191   T   T   T
  0.9045653150101864  0.0948885932850483  0.1110436169527807   T   T   T
  0.9047328419215538  0.2378697345670500  0.1110386359227858   T   T   T
  0.9048562850649852  0.3808085209582721  0.1109876866874548   T   T   T
  0.9054876544506927  0.5238745218485445  0.1109804891909135   T   T   T
  0.9054971324626051  0.6669979960331600  0.1110673245058028   T   T   T
  0.9045712219001326  0.8093039532306637  0.1110344832629204   T   T   T
  0.0474264778932462  0.9523593638637643  0.1109817327816852   T   T   T
  0.0475234380902305  0.0952094507779577  0.1109958429514311   T   T   T
  0.0476719785147600  0.2380372284878216  0.1109811875807890   T   T   T
  0.0477509349408483  0.3808809904296518  0.1110033365726944   T   T   T
  0.0479240558742642  0.5238151800592199  0.1110008857370451   T   T   T
  0.0478664907904948  0.6668440606591577  0.1110113730629022   T   T   T
  0.0477671961555559  0.8097808835625352  0.1109783123608113   T   T   T
  0.1905415134562160  0.9527003903633362  0.1109731007591695   T   T   T
  0.1904073776380065  0.0954167619288044  0.1110375301921730   T   T   T
  0.1908119775939973  0.2385684527680170  0.1109982174936361   T   T   T
  0.1907000412498707  0.3810861345260179  0.1109976485919057   T   T   T
  0.1907564718016927  0.5238894313457800  0.1110832090234130   T   T   T
  0.1903926452285641  0.6668469869093512  0.1110845303016805   T   T   T
  0.1905489099120485  0.8098376121693643  0.1109965941052504   T   T   T
  0.3334397776292792  0.9527914201618757  0.1110115747485699   T   T   T
  0.3334780271937383  0.0957324863235015  0.1110425603762474   T   T   T
  0.3333314708281180  0.2383942675114013  0.1110794751144211   T   T   T
  0.3340249978936525  0.3813042676564903  0.1110691136221499   T   T   T
  0.3338149399507659  0.5247300226848466  0.1110982227901946   T   T   T
  0.3328597452842905  0.6669771281967023  0.1111221556331601   T   T   T
  0.3332887429220530  0.8098189406167080  0.1110840003327353   T   T   T
  0.4761940336719001  0.9524097613533630  0.1110018180639708   T   T   T
  0.4763158527579109  0.0959033639346999  0.1109834168275442   T   T   T
  0.4762932523669471  0.2396671396137967  0.1110624242045435   T   T   T
  0.4762030303311527  0.3843059397251114  0.1111338733012000   T   T   T
  0.4746306021376467  0.6649763666299202  0.1110407877252020   T   T   T
  0.4759703676233765  0.8088644603431548  0.1110555519653231   T   T   T
  0.6188385738833518  0.9518729728647471  0.1110169263746724   T   T   T
  0.6189935883761603  0.0951323928703322  0.1109931541161407   T   T   T
  0.6190244746805222  0.2380855584992107  0.1109926633957751   T   T   T
  0.6178272962531528  0.3803314030167307  0.1109951766405379   T   T   T
  0.6167302788226431  0.6638299032398185  0.1110261601572986   T   T   T
  0.6184513857462836  0.8085336550234222  0.1109715654074640   T   T   T
  0.7615027074312430  0.9516427734208268  0.1110096870776545   T   T   T
  0.7617357049807207  0.0948534049828097  0.1110652315546775   T   T   T
  0.7619003913795087  0.2379657722054507  0.1110542308490500   T   T   T
  0.7619946158026661  0.3808818132507815  0.1109792593767162   T   T   T
  0.7639259385487714  0.5250668678351375  0.1110053590490080   T   T   T
  0.7622641748208904  0.6656526916102591  0.1110812428453580   T   T   T
  0.7607840444218863  0.8081442990228064  0.1110144308362638   T   T   T
  0.4757988582429102  0.5218061592701424  0.1111575473674662   T   T   T
  0.9521755260765120  0.9046131540658034  0.1109823205802644   T   T   T
  0.9521927127624149  0.0473377226066480  0.1109981680900487   T   T   T
  0.9524315392635034  0.1902849952962122  0.1110098346012813   T   T   T
  0.9525918277307430  0.3331795028413951  0.1109871186288266   T   T   T
  0.9529243144729523  0.4760828742610865  0.1109462427771543   T   T   T
  0.9529898090374693  0.6192059199927860  0.1110001156987909   T   T   T
  0.9527411358785215  0.7622043200555464  0.1110155707560627   T   T   T
  0.0953552218388974  0.9050522177229110  0.1109423998815738   T   T   T
  0.0951993094307371  0.0477292408306696  0.1109891424782327   T   T   T
  0.0955353242499303  0.1907383751869476  0.1109596248728952   T   T   T
  0.0956136840305913  0.3334369412332301  0.1109658567400199   T   T   T
  0.0957045715675494  0.4761784197601293  0.1110081055375736   T   T   T
  0.0954497612909221  0.6191040526680954  0.1110119982371031   T   T   T
  0.0954614233027394  0.7621563751197539  0.1109707166869816   T   T   T
  0.2382210841736774  0.9051039583014293  0.1109612017945005   T   T   T
  0.2382049470789391  0.0480342915982334  0.1110087396130279   T   T   T
  0.2381842178953152  0.1908783557385837  0.1110290183537752   T   T   T
  0.2389350733529757  0.3342993373350992  0.1109801081984317   T   T   T
  0.2389343785747362  0.4763782947822459  0.1110432715371979   T   T   T
  0.2380159971086194  0.6190710598352688  0.1111031434612985   T   T   T
  0.2381520101530006  0.7620876035990604  0.1110444358944950   T   T   T
  0.3809559755173252  0.9049567775422017  0.1110197090770506   T   T   T
  0.3810209322350810  0.0480518881383343  0.1109903275571258   T   T   T
  0.3809728715970357  0.1911056223419715  0.1110571779676076   T   T   T
  0.3807946383972758  0.3339696736726009  0.1110686950546776   T   T   T
  0.3834051611619081  0.4780549958988666  0.1111022505485186   T   T   T
  0.3802722574845794  0.6190104676826609  0.1110659911999034   T   T   T
  0.3807780357752116  0.7618817484069209  0.1110889800598799   T   T   T
  0.5235435849884080  0.9041881455545380  0.1110070828569131   T   T   T
  0.5237139584378716  0.0477343522195432  0.1109432531566375   T   T   T
  0.5236686939460656  0.1912783570015995  0.1109827879818640   T   T   T
  0.5228437444273751  0.3351995553420694  0.1110561213976439   T   T   T
  0.5189780427430922  0.4796701124301417  0.1111772048521381   T   T   T
  0.5198216781677640  0.6140341437047159  0.1110598975783898   T   T   T
  0.5230290500656972  0.7601824792592495  0.1109854429508060   T   T   T
  0.6661038618187702  0.9038603981744144  0.1109735624771507   T   T   T
  0.6664275451953684  0.0471692759016400  0.1110073439995439   T   T   T
  0.6666080578159883  0.1902794907722331  0.1110099515971875   T   T   T
  0.6666301769700271  0.3328019160564206  0.1109588558307198   T   T   T
  0.6721589788531219  0.4715864332310963  0.1109040601423022   T   T   T
  0.6695491565584952  0.6257558265516152  0.1110010001985993   T   T   T
  0.6649142490585311  0.7603046797533757  0.1109603282802683   T   T   T
  0.8087916065340875  0.9038284768340933  0.1109857869568200   T   T   T
  0.8092510881212039  0.0470804377330247  0.1110326730490897   T   T   T
  0.8094811906521650  0.1901623971292233  0.1110507632476668   T   T   T
  0.8096855120730481  0.3331220754991979  0.1110069050883986   T   T   T
  0.8107459578871306  0.4760185796799861  0.1109527736404170   T   T   T
  0.8108432476931284  0.6195890633104181  0.1110587570941591   T   T   T
  0.8093856170373167  0.7617206054014164  0.1110432197662646   T   T   T

  0.00000000E+00  0.00000000E+00  0.00000000E+00
  0.00000000E+00  0.00000000E+00  0.00000000E+00
  0.00000000E+00  0.00000000E+00  0.00000000E+00
  0.00000000E+00  0.00000000E+00  0.00000000E+00
  0.00000000E+00  0.00000000E+00  0.00000000E+00
  0.00000000E+00  0.00000000E+00  0.00000000E+00
  0.00000000E+00  0.00000000E+00  0.00000000E+00
  0.00000000E+00  0.00000000E+00  0.00000000E+00
  0.00000000E+00  0.00000000E+00  0.00000000E+00
  0.00000000E+00  0.00000000E+00  0.00000000E+00
  0.00000000E+00  0.00000000E+00  0.00000000E+00
  0.00000000E+00  0.00000000E+00  0.00000000E+00
  0.00000000E+00  0.00000000E+00  0.00000000E+00
  0.00000000E+00  0.00000000E+00  0.00000000E+00
  0.00000000E+00  0.00000000E+00  0.00000000E+00
  0.00000000E+00  0.00000000E+00  0.00000000E+00
  0.00000000E+00  0.00000000E+00  0.00000000E+00
  0.00000000E+00  0.00000000E+00  0.00000000E+00
  0.00000000E+00  0.00000000E+00  0.00000000E+00
  0.00000000E+00  0.00000000E+00  0.00000000E+00
  0.00000000E+00  0.00000000E+00  0.00000000E+00
  0.00000000E+00  0.00000000E+00  0.00000000E+00
  0.00000000E+00  0.00000000E+00  0.00000000E+00
  0.00000000E+00  0.00000000E+00  0.00000000E+00
  0.00000000E+00  0.00000000E+00  0.00000000E+00
  0.00000000E+00  0.00000000E+00  0.00000000E+00
  0.00000000E+00  0.00000000E+00  0.00000000E+00
  0.00000000E+00  0.00000000E+00  0.00000000E+00
  0.00000000E+00  0.00000000E+00  0.00000000E+00
  0.00000000E+00  0.00000000E+00  0.00000000E+00
  0.00000000E+00  0.00000000E+00  0.00000000E+00
  0.00000000E+00  0.00000000E+00  0.00000000E+00
  0.00000000E+00  0.00000000E+00  0.00000000E+00
  0.00000000E+00  0.00000000E+00  0.00000000E+00
  0.00000000E+00  0.00000000E+00  0.00000000E+00
  0.00000000E+00  0.00000000E+00  0.00000000E+00
  0.00000000E+00  0.00000000E+00  0.00000000E+00
  0.00000000E+00  0.00000000E+00  0.00000000E+00
  0.00000000E+00  0.00000000E+00  0.00000000E+00
  0.00000000E+00  0.00000000E+00  0.00000000E+00
  0.00000000E+00  0.00000000E+00  0.00000000E+00
  0.00000000E+00  0.00000000E+00  0.00000000E+00
  0.00000000E+00  0.00000000E+00  0.00000000E+00
  0.00000000E+00  0.00000000E+00  0.00000000E+00
  0.00000000E+00  0.00000000E+00  0.00000000E+00
  0.00000000E+00  0.00000000E+00  0.00000000E+00
  0.00000000E+00  0.00000000E+00  0.00000000E+00
  0.00000000E+00  0.00000000E+00  0.00000000E+00
  0.00000000E+00  0.00000000E+00  0.00000000E+00
  0.00000000E+00  0.00000000E+00  0.00000000E+00
  0.00000000E+00  0.00000000E+00  0.00000000E+00
  0.00000000E+00  0.00000000E+00  0.00000000E+00
  0.00000000E+00  0.00000000E+00  0.00000000E+00
  0.00000000E+00  0.00000000E+00  0.00000000E+00
  0.00000000E+00  0.00000000E+00  0.00000000E+00
  0.00000000E+00  0.00000000E+00  0.00000000E+00
  0.00000000E+00  0.00000000E+00  0.00000000E+00
  0.00000000E+00  0.00000000E+00  0.00000000E+00
  0.00000000E+00  0.00000000E+00  0.00000000E+00
  0.00000000E+00  0.00000000E+00  0.00000000E+00
  0.00000000E+00  0.00000000E+00  0.00000000E+00
  0.00000000E+00  0.00000000E+00  0.00000000E+00
  0.00000000E+00  0.00000000E+00  0.00000000E+00
  0.00000000E+00  0.00000000E+00  0.00000000E+00
  0.00000000E+00  0.00000000E+00  0.00000000E+00
  0.00000000E+00  0.00000000E+00  0.00000000E+00
  0.00000000E+00  0.00000000E+00  0.00000000E+00
  0.00000000E+00  0.00000000E+00  0.00000000E+00
  0.00000000E+00  0.00000000E+00  0.00000000E+00
  0.00000000E+00  0.00000000E+00  0.00000000E+00
  0.00000000E+00  0.00000000E+00  0.00000000E+00
  0.00000000E+00  0.00000000E+00  0.00000000E+00
  0.00000000E+00  0.00000000E+00  0.00000000E+00
  0.00000000E+00  0.00000000E+00  0.00000000E+00
  0.00000000E+00  0.00000000E+00  0.00000000E+00
  0.00000000E+00  0.00000000E+00  0.00000000E+00
  0.00000000E+00  0.00000000E+00  0.00000000E+00
  0.00000000E+00  0.00000000E+00  0.00000000E+00
  0.00000000E+00  0.00000000E+00  0.00000000E+00
  0.00000000E+00  0.00000000E+00  0.00000000E+00
  0.00000000E+00  0.00000000E+00  0.00000000E+00
  0.00000000E+00  0.00000000E+00  0.00000000E+00
  0.00000000E+00  0.00000000E+00  0.00000000E+00
  0.00000000E+00  0.00000000E+00  0.00000000E+00
  0.00000000E+00  0.00000000E+00  0.00000000E+00
  0.00000000E+00  0.00000000E+00  0.00000000E+00
  0.00000000E+00  0.00000000E+00  0.00000000E+00
  0.00000000E+00  0.00000000E+00  0.00000000E+00
  0.00000000E+00  0.00000000E+00  0.00000000E+00
  0.00000000E+00  0.00000000E+00  0.00000000E+00
  0.00000000E+00  0.00000000E+00  0.00000000E+00
  0.00000000E+00  0.00000000E+00  0.00000000E+00
  0.00000000E+00  0.00000000E+00  0.00000000E+00
  0.00000000E+00  0.00000000E+00  0.00000000E+00
  0.00000000E+00  0.00000000E+00  0.00000000E+00
  0.00000000E+00  0.00000000E+00  0.00000000E+00
  0.00000000E+00  0.00000000E+00  0.00000000E+00
