Species order: X N B                    
   2.51242800000000     
     5.9449720136058266    0.0000000000000000    0.0000000000000000
    -2.9724860068029120    5.1484967885702053   -0.0000000000000001
     0.0000000000000000    0.0000000000000009    5.3101128803662583
   Ga   N    B 
     1   143   144
Direct
  0.5555555555555571  0.4444444444444429  0.3750000000000000
  0.1111064593463495  0.0555463877495539  0.1251336715846640
  0.6111428066049148  0.5556189465431591  0.1243585807867117
  0.4444392645521553  0.0555485824664827  0.1252092305069505
  0.9444514175335175  0.5555607354478446  0.1252092305069505
  0.7777770957579050  0.0555552145456204  0.1250807165772412
  0.1111150701486206  0.7222242017409748  0.6248782906150590
  0.4444392645521553  0.7222240154190085  0.6247907694930499
  0.2777605803692683  0.2222097417662992  0.6247810036849175
  0.7777902582337007  0.7222394196307319  0.6247810036849175
  0.6111158280637022  0.2222097417662992  0.6247810036849175
  0.9444447854543803  0.2222229042420948  0.6249192834227593
  0.2777757982590252  0.7222242017409748  0.1251217093849414
  0.1110975162716222  0.2222154248024753  0.1251083895262106
  0.4444455409364207  0.2222244152061771  0.1253055856841150
  0.6111158280637022  0.7222394196307319  0.1252189963150829
  0.9444514175335175  0.7222240154190085  0.1252092305069505
  0.7777845751975244  0.2222154248024753  0.1251083895262106
  0.1111143875791291  0.8888856124208707  0.6248791841950008
  0.4444378915084131  0.8888856124208707  0.6248791841950008
  0.2777605803692683  0.3888841719362979  0.6247810036849175
  0.6111428066049148  0.3888571933950847  0.6256414192132883
  0.7777845751975244  0.8889024837283779  0.6248916104737898
  0.9444536122504462  0.3888934049301241  0.6248663284153357
  0.1111064593463495  0.3888934049301241  0.1251336715846640
  0.2777757982590252  0.8888849298513790  0.1251217093849414
  0.6111065950698756  0.8888935406536509  0.1251336715846640
  0.4443810534568405  0.3888571933950847  0.1243585807867117
  0.9444536122504462  0.8888935406536509  0.1251336715846640
  0.7777902582337007  0.3888841719362979  0.1252189963150829
  0.2777759845809917  0.5555607354478446  0.6247907694930499
  0.1111064593463495  0.0555463877495539  0.6248663284153357
  0.6111428066049148  0.5556189465431591  0.6256414192132883
  0.4444392645521553  0.0555485824664827  0.6247907694930499
  0.9444514175335175  0.5555607354478446  0.6247907694930499
  0.1111143875791291  0.5555621084915867  0.1251208158049993
  0.7777770957579050  0.0555552145456204  0.6249192834227593
  0.2777759845809917  0.0555485824664827  0.1252092305069505
  0.4444455409364207  0.5555544590635794  0.1253055856841150
  0.7777755847938229  0.5555544590635794  0.1253055856841150
  0.6111065950698756  0.0555463877495539  0.1251336715846640
  0.4444455409364207  0.5555544590635794  0.6246944143158849
  0.9444447854543803  0.0555552145456204  0.1250807165772412
  0.2777757982590252  0.7222242017409748  0.6248782906150590
  0.1110975162716222  0.2222154248024753  0.6248916104737898
  0.4444455409364207  0.2222244152061771  0.6246944143158849
  0.6111158280637022  0.7222394196307319  0.6247810036849175
  0.9444514175335175  0.7222240154190085  0.6247907694930499
  0.7777845751975244  0.2222154248024753  0.6248916104737898
  0.1111150701486206  0.7222242017409748  0.1251217093849414
  0.4444392645521553  0.7222240154190085  0.1252092305069505
  0.2777605803692683  0.2222097417662992  0.1252189963150829
  0.7777902582337007  0.7222394196307319  0.1252189963150829
  0.6111158280637022  0.2222097417662992  0.1252189963150829
  0.9444447854543803  0.2222229042420948  0.1250807165772412
  0.1111064593463495  0.3888934049301241  0.6248663284153357
  0.2777757982590252  0.8888849298513790  0.6248782906150590
  0.6111065950698756  0.8888935406536509  0.6248663284153357
  0.4443810534568405  0.3888571933950847  0.6256414192132883
  0.9444536122504462  0.8888935406536509  0.6248663284153357
  0.1111143875791291  0.8888856124208707  0.1251208158049993
  0.7777902582337007  0.3888841719362979  0.6247810036849175
  0.4444378915084131  0.8888856124208707  0.1251208158049993
  0.2777605803692683  0.3888841719362979  0.1252189963150829
  0.2777759845809917  0.5555607354478446  0.1252092305069505
  0.6111428066049148  0.3888571933950847  0.1243585807867117
  0.7777845751975244  0.8889024837283779  0.1251083895262106
  0.9444536122504462  0.3888934049301241  0.1251336715846640
  0.1111143875791291  0.5555621084915867  0.6248791841950008
  0.2777759845809917  0.0555485824664827  0.6247907694930499
  0.7777755847938229  0.5555544590635794  0.6246944143158849
  0.6111065950698756  0.0555463877495539  0.6248663284153357
  0.9444447854543803  0.0555552145456204  0.6249192834227593
  0.0545461324170291  0.1104645989864722  0.3750000000000000
  0.5548623766306330  0.6194739884262093  0.3750000000000000
  0.3875588549927694  0.1084510433188812  0.3750000000000000
  0.8915489566811184  0.6124411450072309  0.3750000000000000
  0.7225851332361070  0.1104645989864722  0.3750000000000000
  0.0555523189876262  0.7777784779370267  0.8750000000000000
  0.3888928256160653  0.7777784779370267  0.8750000000000000
  0.2222226628137493  0.2777779980735423  0.8750000000000000
  0.7222220019264579  0.7777773371862511  0.8750000000000000
  0.5555538276930850  0.2777767588965050  0.8750000000000000
  0.8888892901303698  0.2777773668898429  0.8750000000000000
  0.2222222222222214  0.7777777777777786  0.3750000000000000
  0.0545461324170291  0.2774148667638928  0.3750000000000000
  0.3805260115737912  0.2687217215377594  0.3750000000000000
  0.5551110749986899  0.7812463810663444  0.3750000000000000
  0.8928019727343185  0.7812463810663444  0.3750000000000000
  0.7237908526027083  0.2762091473972917  0.3750000000000000
  0.0555540838623570  0.9444459161376427  0.8750000000000000
  0.3888928256160653  0.9444476810123736  0.8750000000000000
  0.2222215851824657  0.4444420634082755  0.8750000000000000
  0.5555555555555571  0.4444444444444429  0.8750000000000000
  0.7222226331101576  0.9444452565738624  0.8750000000000000
  0.8888871448924734  0.4444420634082755  0.8750000000000000
  0.0557214211778733  0.4447761756890751  0.3750000000000000
  0.2218057927560199  0.9434231981669005  0.3750000000000000
  0.5552238243109247  0.9442785788221266  0.3750000000000000
  0.3805260115737908  0.4451376233693674  0.3750000000000000
  0.8895354010135280  0.9454538675829707  0.3750000000000000
  0.7312782784622401  0.4451376233693674  0.3750000000000000
  0.2222215220629727  0.6111071743839344  0.8750000000000000
  0.0555547434261374  0.1111107098696302  0.8750000000000000
  0.5555538276930850  0.6111104021299161  0.8750000000000000
  0.3888905434268999  0.1111144201871426  0.8750000000000000
  0.8888855798128573  0.6111094565730998  0.8750000000000000
  0.0565768018331001  0.6117159279224554  0.3750000000000000
  0.7222226331101576  0.1111107098696302  0.8750000000000000
  0.2187536189336556  0.1071980272656815  0.3750000000000000
  0.3875588549927694  0.6124411450072309  0.3750000000000000
  0.7312782784622401  0.6194739884262093  0.3750000000000000
  0.5551110749986899  0.1071980272656815  0.3750000000000000
  0.3888905434268999  0.6111094565730998  0.8750000000000000
  0.8888888888888857  0.1111111111111143  0.3750000000000000
  0.2222222222222214  0.7777777777777786  0.8750000000000000
  0.0555547434261374  0.2777773668898429  0.8750000000000000
  0.3888895978700842  0.2777767588965050  0.8750000000000000
  0.5555579365917241  0.7777784148175340  0.8750000000000000
  0.8888871448924734  0.7777784148175340  0.8750000000000000
  0.7222220019264579  0.2777779980735423  0.8750000000000000
  0.0565768018331001  0.7781942072439805  0.3750000000000000
  0.3882840720775441  0.7781942072439805  0.3750000000000000
  0.2190849614612478  0.2762091473972917  0.3750000000000000
  0.7237908526027083  0.7809150385387522  0.3750000000000000
  0.5548623766306330  0.2687217215377594  0.3750000000000000
  0.8895354010135280  0.2774148667638928  0.3750000000000000
  0.0555540838623570  0.4444415010580425  0.8750000000000000
  0.2222215220629727  0.9444476810123736  0.8750000000000000
  0.5555584989419573  0.9444459161376427  0.8750000000000000
  0.3888895978700841  0.4444461723069151  0.8750000000000000
  0.8888892901303698  0.9444452565738624  0.8750000000000000
  0.0557214211778733  0.9442785788221266  0.3750000000000000
  0.7222232411034950  0.4444461723069151  0.8750000000000000
  0.3882840720775441  0.9434231981669005  0.3750000000000000
  0.2187536189336556  0.4448889250013096  0.3750000000000000
  0.2218057927560199  0.6117159279224554  0.3750000000000000
  0.7225851332361070  0.9454538675829707  0.3750000000000000
  0.8928019727343185  0.4448889250013096  0.3750000000000000
  0.0555523189876262  0.6111071743839344  0.8750000000000000
  0.2222215851824657  0.1111128551075261  0.8750000000000000
  0.7222232411034950  0.6111104021299161  0.8750000000000000
  0.5555579365917241  0.1111128551075261  0.8750000000000000
  0.8888888888888857  0.1111111111111143  0.8750000000000000
  0.1088154554356968  0.0538849329573761  0.3750000000000000
  0.6266237173374966  0.5865807680083220  0.3750000000000000
  0.4438826290130753  0.0533638127550534  0.3750000000000000
  0.9466361872449467  0.5561173709869248  0.3750000000000000
  0.7783554924392588  0.0558444128862974  0.3750000000000000
  0.1111153196213690  0.7222243264773490  0.8750000000000000
  0.4444442847112899  0.7222364929612982  0.8750000000000000
  0.2777532991400234  0.2222058160538783  0.8750000000000000
  0.7777941839461217  0.7222467008599769  0.8750000000000000
  0.6111191835805259  0.2222058160538783  0.8750000000000000
  0.9444399714714260  0.2222132762761878  0.8750000000000000
  0.2774550341302869  0.7225449658697133  0.3750000000000000
  0.1085118306407654  0.2209225819870469  0.3750000000000000
  0.4421708629806490  0.2176750592946341  0.3750000000000000
  0.6124558160373592  0.7300574531686196  0.3750000000000000
  0.9466361872449467  0.7238521495913576  0.3750000000000000
  0.7790774180129529  0.2209225819870469  0.3750000000000000
  0.1111086278298200  0.8888913721701801  0.8750000000000000
  0.4444494110070312  0.8888913721701801  0.8750000000000000
  0.2777532991400234  0.3888808164194736  0.8750000000000000
  0.6111147366651893  0.3888852633348107  0.8750000000000000
  0.7777898333282548  0.8889129999898383  0.8750000000000000
  0.9444506037183772  0.3888775536082473  0.8750000000000000
  0.1088154554356968  0.3882638558116491  0.3750000000000000
  0.2774550341302869  0.8882434015939025  0.3750000000000000
  0.6117361441883508  0.8911845445643028  0.3750000000000000
  0.4134192319916784  0.3733762826625033  0.3750000000000000
  0.9461150670426238  0.8911845445643028  0.3750000000000000
  0.7842683037979330  0.3875441839626413  0.3750000000000000
  0.2777635070387015  0.5555557152887097  0.8750000000000000
  0.1110936165565413  0.0555493962816225  0.8750000000000000
  0.6111147366651893  0.5555628066637072  0.8750000000000000
  0.4444442847112899  0.0555411250833275  0.8750000000000000
  0.9444588749166728  0.5555557152887097  0.8750000000000000
  0.1112213759712392  0.5557760852758070  0.3750000000000000
  0.7777867237238122  0.0555600285285740  0.8750000000000000
  0.2761478504086425  0.0533638127550534  0.3750000000000000
  0.4421708629806491  0.5578291370193506  0.3750000000000000
  0.7823249407053662  0.5578291370193506  0.3750000000000000
  0.6117361441883508  0.0538849329573761  0.3750000000000000
  0.4444355663135912  0.5555644336864084  0.8750000000000000
  0.9441555871137028  0.0558444128862974  0.3750000000000000
  0.2777756735226509  0.7222243264773490  0.8750000000000000
  0.1110870000101616  0.2222101666717451  0.8750000000000000
  0.4444355663135912  0.2222044659605183  0.8750000000000000
  0.6111191835805259  0.7222467008599769  0.8750000000000000
  0.9444588749166728  0.7222364929612982  0.8750000000000000
  0.7777898333282548  0.2222101666717451  0.8750000000000000
  0.1117565984060981  0.7225449658697133  0.3750000000000000
  0.4438826290130753  0.7238521495913576  0.3750000000000000
  0.2699425468313800  0.2157316962020670  0.3750000000000000
  0.7842683037979330  0.7300574531686196  0.3750000000000000
  0.6124558160373592  0.2157316962020670  0.3750000000000000
  0.9441555871137028  0.2216445075607409  0.3750000000000000
  0.1110936165565413  0.3888775536082473  0.8750000000000000
  0.2777756735226509  0.8888846803786303  0.8750000000000000
  0.6111224463917528  0.8889063834434596  0.8750000000000000
  0.4444371933362932  0.3888852633348107  0.8750000000000000
  0.9444506037183772  0.8889063834434596  0.8750000000000000
  0.1112213759712392  0.8887786240287604  0.3750000000000000
  0.7777941839461217  0.3888808164194736  0.8750000000000000
  0.4442239147241931  0.8887786240287604  0.3750000000000000
  0.2699425468313800  0.3875441839626413  0.3750000000000000
  0.2761478504086425  0.5561173709869248  0.3750000000000000
  0.6266237173374966  0.3733762826625033  0.3750000000000000
  0.7790774180129529  0.8914881693592346  0.3750000000000000
  0.9461150670426238  0.3882638558116491  0.3750000000000000
  0.1111086278298200  0.5555505889929685  0.8750000000000000
  0.2777635070387015  0.0555411250833275  0.8750000000000000
  0.7777955340394820  0.5555644336864084  0.8750000000000000
  0.6111224463917528  0.0555493962816225  0.8750000000000000
  0.9444399714714260  0.0555600285285740  0.8750000000000000
  0.0555148824218930  0.1110820630436421  0.1248730761357269
  0.5555565353456604  0.6111929593689718  0.1243972337287214
  0.3888333879303944  0.1110001091941317  0.1249145932024205
  0.8889998908058684  0.6111666120696053  0.1249145932024205
  0.7222338472884131  0.1110820630436421  0.1248730761357269
  0.0556108462414103  0.7777986999462269  0.6251049584908658
  0.3888545203714813  0.7777986999462269  0.6251049584908658
  0.2221152180847238  0.2777242757090297  0.6252188044413581
  0.7222757242909704  0.7778847819152762  0.6252188044413581
  0.5555565353456604  0.2776969093100239  0.6256027662712786
  0.8889179369563578  0.2777661527115864  0.6251269238642730
  0.2222222222222214  0.7777777777777786  0.1248900729406020
  0.0555148824218930  0.2777661527115864  0.1248730761357269
  0.3888070406310280  0.2776969093100239  0.1243972337287214
  0.5555382164312783  0.7778509170549961  0.1248772987631912
  0.8889793672903832  0.7778509170549961  0.1248772987631912
  0.7222757242909704  0.2777242757090297  0.1247811955586419
  0.0555658744673044  0.9444341255326955  0.6251153527090316
  0.3888545203714813  0.9443891537585897  0.6251049584908658
  0.2221490829450040  0.4444617835687220  0.6251227012368090
  0.5555555555555571  0.4444444444444429  0.6257527083026354
  0.7222338472884131  0.9444851175781072  0.6251269238642730
  0.8889793672903832  0.4444617835687220  0.6251227012368090
  0.0555658744673044  0.4444650822679377  0.1248846472909684
  0.2222013000537728  0.9443891537585897  0.1248950415091332
  0.5555349177320621  0.9444341255326955  0.1248846472909684
  0.3888070406310280  0.4444434646543401  0.1243972337287214
  0.8889179369563578  0.9444851175781072  0.1248730761357269
  0.7223030906899760  0.4444434646543401  0.1243972337287214
  0.2222013000537728  0.6111454796285192  0.6251049584908658
  0.0555148824218930  0.1110820630436421  0.6251269238642730
  0.5555565353456604  0.6111929593689718  0.6256027662712786
  0.3888333879303944  0.1110001091941317  0.6250854067975793
  0.8889998908058684  0.6111666120696053  0.6250854067975793
  0.0556108462414103  0.6111454796285192  0.1248950415091332
  0.7222338472884131  0.1110820630436421  0.6251269238642730
  0.2221490829450040  0.1110206327096177  0.1248772987631912
  0.3888333879303944  0.6111666120696053  0.1249145932024205
  0.7223030906899760  0.6111929593689718  0.1243972337287214
  0.5555382164312783  0.1110206327096177  0.1248772987631912
  0.3888333879303944  0.6111666120696053  0.6250854067975793
  0.8888888888888857  0.1111111111111143  0.1248812919025022
  0.2222222222222214  0.7777777777777786  0.6251099270593979
  0.0555148824218930  0.2777661527115864  0.6251269238642730
  0.3888070406310280  0.2776969093100239  0.6256027662712786
  0.5555382164312783  0.7778509170549961  0.6251227012368090
  0.8889793672903832  0.7778509170549961  0.6251227012368090
  0.7222757242909704  0.2777242757090297  0.6252188044413581
  0.0556108462414103  0.7777986999462269  0.1248950415091332
  0.3888545203714813  0.7777986999462269  0.1248950415091332
  0.2221152180847238  0.2777242757090297  0.1247811955586419
  0.7222757242909704  0.7778847819152762  0.1247811955586419
  0.5555565353456604  0.2776969093100239  0.1243972337287214
  0.8889179369563578  0.2777661527115864  0.1248730761357269
  0.0555658744673044  0.4444650822679377  0.6251153527090316
  0.2222013000537728  0.9443891537585897  0.6251049584908658
  0.5555349177320621  0.9444341255326955  0.6251153527090316
  0.3888070406310280  0.4444434646543401  0.6256027662712786
  0.8889179369563578  0.9444851175781072  0.6251269238642730
  0.0555658744673044  0.9444341255326955  0.1248846472909684
  0.7223030906899757  0.4444434646543401  0.6256027662712786
  0.3888545203714813  0.9443891537585897  0.1248950415091332
  0.2221490829450040  0.4444617835687220  0.1248772987631912
  0.2222013000537728  0.6111454796285192  0.1248950415091332
  0.5555555555555571  0.4444444444444429  0.1242472916973645
  0.7222338472884131  0.9444851175781072  0.1248730761357269
  0.8889793672903832  0.4444617835687220  0.1248772987631912
  0.0556108462414103  0.6111454796285192  0.6251049584908658
  0.2221490829450040  0.1110206327096177  0.6251227012368090
  0.7223030906899760  0.6111929593689718  0.6256027662712786
  0.5555382164312783  0.1110206327096177  0.6251227012368090
  0.8888888888888857  0.1111111111111143  0.6251187080974978
 
  0.00000000E+00  0.00000000E+00  0.00000000E+00
  0.00000000E+00  0.00000000E+00  0.00000000E+00
  0.00000000E+00  0.00000000E+00  0.00000000E+00
  0.00000000E+00  0.00000000E+00  0.00000000E+00
  0.00000000E+00  0.00000000E+00  0.00000000E+00
  0.00000000E+00  0.00000000E+00  0.00000000E+00
  0.00000000E+00  0.00000000E+00  0.00000000E+00
  0.00000000E+00  0.00000000E+00  0.00000000E+00
  0.00000000E+00  0.00000000E+00  0.00000000E+00
  0.00000000E+00  0.00000000E+00  0.00000000E+00
  0.00000000E+00  0.00000000E+00  0.00000000E+00
  0.00000000E+00  0.00000000E+00  0.00000000E+00
  0.00000000E+00  0.00000000E+00  0.00000000E+00
  0.00000000E+00  0.00000000E+00  0.00000000E+00
  0.00000000E+00  0.00000000E+00  0.00000000E+00
  0.00000000E+00  0.00000000E+00  0.00000000E+00
  0.00000000E+00  0.00000000E+00  0.00000000E+00
  0.00000000E+00  0.00000000E+00  0.00000000E+00
  0.00000000E+00  0.00000000E+00  0.00000000E+00
  0.00000000E+00  0.00000000E+00  0.00000000E+00
  0.00000000E+00  0.00000000E+00  0.00000000E+00
  0.00000000E+00  0.00000000E+00  0.00000000E+00
  0.00000000E+00  0.00000000E+00  0.00000000E+00
  0.00000000E+00  0.00000000E+00  0.00000000E+00
  0.00000000E+00  0.00000000E+00  0.00000000E+00
  0.00000000E+00  0.00000000E+00  0.00000000E+00
  0.00000000E+00  0.00000000E+00  0.00000000E+00
  0.00000000E+00  0.00000000E+00  0.00000000E+00
  0.00000000E+00  0.00000000E+00  0.00000000E+00
  0.00000000E+00  0.00000000E+00  0.00000000E+00
  0.00000000E+00  0.00000000E+00  0.00000000E+00
  0.00000000E+00  0.00000000E+00  0.00000000E+00
  0.00000000E+00  0.00000000E+00  0.00000000E+00
  0.00000000E+00  0.00000000E+00  0.00000000E+00
  0.00000000E+00  0.00000000E+00  0.00000000E+00
  0.00000000E+00  0.00000000E+00  0.00000000E+00
  0.00000000E+00  0.00000000E+00  0.00000000E+00
  0.00000000E+00  0.00000000E+00  0.00000000E+00
  0.00000000E+00  0.00000000E+00  0.00000000E+00
  0.00000000E+00  0.00000000E+00  0.00000000E+00
  0.00000000E+00  0.00000000E+00  0.00000000E+00
  0.00000000E+00  0.00000000E+00  0.00000000E+00
  0.00000000E+00  0.00000000E+00  0.00000000E+00
  0.00000000E+00  0.00000000E+00  0.00000000E+00
  0.00000000E+00  0.00000000E+00  0.00000000E+00
  0.00000000E+00  0.00000000E+00  0.00000000E+00
  0.00000000E+00  0.00000000E+00  0.00000000E+00
  0.00000000E+00  0.00000000E+00  0.00000000E+00
  0.00000000E+00  0.00000000E+00  0.00000000E+00
  0.00000000E+00  0.00000000E+00  0.00000000E+00
  0.00000000E+00  0.00000000E+00  0.00000000E+00
  0.00000000E+00  0.00000000E+00  0.00000000E+00
  0.00000000E+00  0.00000000E+00  0.00000000E+00
  0.00000000E+00  0.00000000E+00  0.00000000E+00
  0.00000000E+00  0.00000000E+00  0.00000000E+00
  0.00000000E+00  0.00000000E+00  0.00000000E+00
  0.00000000E+00  0.00000000E+00  0.00000000E+00
  0.00000000E+00  0.00000000E+00  0.00000000E+00
  0.00000000E+00  0.00000000E+00  0.00000000E+00
  0.00000000E+00  0.00000000E+00  0.00000000E+00
  0.00000000E+00  0.00000000E+00  0.00000000E+00
  0.00000000E+00  0.00000000E+00  0.00000000E+00
  0.00000000E+00  0.00000000E+00  0.00000000E+00
  0.00000000E+00  0.00000000E+00  0.00000000E+00
  0.00000000E+00  0.00000000E+00  0.00000000E+00
  0.00000000E+00  0.00000000E+00  0.00000000E+00
  0.00000000E+00  0.00000000E+00  0.00000000E+00
  0.00000000E+00  0.00000000E+00  0.00000000E+00
  0.00000000E+00  0.00000000E+00  0.00000000E+00
  0.00000000E+00  0.00000000E+00  0.00000000E+00
  0.00000000E+00  0.00000000E+00  0.00000000E+00
  0.00000000E+00  0.00000000E+00  0.00000000E+00
  0.00000000E+00  0.00000000E+00  0.00000000E+00
  0.00000000E+00  0.00000000E+00  0.00000000E+00
  0.00000000E+00  0.00000000E+00  0.00000000E+00
  0.00000000E+00  0.00000000E+00  0.00000000E+00
  0.00000000E+00  0.00000000E+00  0.00000000E+00
  0.00000000E+00  0.00000000E+00  0.00000000E+00
  0.00000000E+00  0.00000000E+00  0.00000000E+00
  0.00000000E+00  0.00000000E+00  0.00000000E+00
  0.00000000E+00  0.00000000E+00  0.00000000E+00
  0.00000000E+00  0.00000000E+00  0.00000000E+00
  0.00000000E+00  0.00000000E+00  0.00000000E+00
  0.00000000E+00  0.00000000E+00  0.00000000E+00
  0.00000000E+00  0.00000000E+00  0.00000000E+00
  0.00000000E+00  0.00000000E+00  0.00000000E+00
  0.00000000E+00  0.00000000E+00  0.00000000E+00
  0.00000000E+00  0.00000000E+00  0.00000000E+00
  0.00000000E+00  0.00000000E+00  0.00000000E+00
  0.00000000E+00  0.00000000E+00  0.00000000E+00
  0.00000000E+00  0.00000000E+00  0.00000000E+00
  0.00000000E+00  0.00000000E+00  0.00000000E+00
  0.00000000E+00  0.00000000E+00  0.00000000E+00
  0.00000000E+00  0.00000000E+00  0.00000000E+00
  0.00000000E+00  0.00000000E+00  0.00000000E+00
  0.00000000E+00  0.00000000E+00  0.00000000E+00
  0.00000000E+00  0.00000000E+00  0.00000000E+00
  0.00000000E+00  0.00000000E+00  0.00000000E+00
  0.00000000E+00  0.00000000E+00  0.00000000E+00
  0.00000000E+00  0.00000000E+00  0.00000000E+00
  0.00000000E+00  0.00000000E+00  0.00000000E+00
  0.00000000E+00  0.00000000E+00  0.00000000E+00
  0.00000000E+00  0.00000000E+00  0.00000000E+00
  0.00000000E+00  0.00000000E+00  0.00000000E+00
  0.00000000E+00  0.00000000E+00  0.00000000E+00
  0.00000000E+00  0.00000000E+00  0.00000000E+00
  0.00000000E+00  0.00000000E+00  0.00000000E+00
  0.00000000E+00  0.00000000E+00  0.00000000E+00
  0.00000000E+00  0.00000000E+00  0.00000000E+00
  0.00000000E+00  0.00000000E+00  0.00000000E+00
  0.00000000E+00  0.00000000E+00  0.00000000E+00
  0.00000000E+00  0.00000000E+00  0.00000000E+00
  0.00000000E+00  0.00000000E+00  0.00000000E+00
  0.00000000E+00  0.00000000E+00  0.00000000E+00
  0.00000000E+00  0.00000000E+00  0.00000000E+00
  0.00000000E+00  0.00000000E+00  0.00000000E+00
  0.00000000E+00  0.00000000E+00  0.00000000E+00
  0.00000000E+00  0.00000000E+00  0.00000000E+00
  0.00000000E+00  0.00000000E+00  0.00000000E+00
  0.00000000E+00  0.00000000E+00  0.00000000E+00
  0.00000000E+00  0.00000000E+00  0.00000000E+00
  0.00000000E+00  0.00000000E+00  0.00000000E+00
  0.00000000E+00  0.00000000E+00  0.00000000E+00
  0.00000000E+00  0.00000000E+00  0.00000000E+00
  0.00000000E+00  0.00000000E+00  0.00000000E+00
  0.00000000E+00  0.00000000E+00  0.00000000E+00
  0.00000000E+00  0.00000000E+00  0.00000000E+00
  0.00000000E+00  0.00000000E+00  0.00000000E+00
  0.00000000E+00  0.00000000E+00  0.00000000E+00
  0.00000000E+00  0.00000000E+00  0.00000000E+00
  0.00000000E+00  0.00000000E+00  0.00000000E+00
  0.00000000E+00  0.00000000E+00  0.00000000E+00
  0.00000000E+00  0.00000000E+00  0.00000000E+00
  0.00000000E+00  0.00000000E+00  0.00000000E+00
  0.00000000E+00  0.00000000E+00  0.00000000E+00
  0.00000000E+00  0.00000000E+00  0.00000000E+00
  0.00000000E+00  0.00000000E+00  0.00000000E+00
  0.00000000E+00  0.00000000E+00  0.00000000E+00
  0.00000000E+00  0.00000000E+00  0.00000000E+00
  0.00000000E+00  0.00000000E+00  0.00000000E+00
  0.00000000E+00  0.00000000E+00  0.00000000E+00
  0.00000000E+00  0.00000000E+00  0.00000000E+00
  0.00000000E+00  0.00000000E+00  0.00000000E+00
  0.00000000E+00  0.00000000E+00  0.00000000E+00
  0.00000000E+00  0.00000000E+00  0.00000000E+00
  0.00000000E+00  0.00000000E+00  0.00000000E+00
  0.00000000E+00  0.00000000E+00  0.00000000E+00
  0.00000000E+00  0.00000000E+00  0.00000000E+00
  0.00000000E+00  0.00000000E+00  0.00000000E+00
  0.00000000E+00  0.00000000E+00  0.00000000E+00
  0.00000000E+00  0.00000000E+00  0.00000000E+00
  0.00000000E+00  0.00000000E+00  0.00000000E+00
  0.00000000E+00  0.00000000E+00  0.00000000E+00
  0.00000000E+00  0.00000000E+00  0.00000000E+00
  0.00000000E+00  0.00000000E+00  0.00000000E+00
  0.00000000E+00  0.00000000E+00  0.00000000E+00
  0.00000000E+00  0.00000000E+00  0.00000000E+00
  0.00000000E+00  0.00000000E+00  0.00000000E+00
  0.00000000E+00  0.00000000E+00  0.00000000E+00
  0.00000000E+00  0.00000000E+00  0.00000000E+00
  0.00000000E+00  0.00000000E+00  0.00000000E+00
  0.00000000E+00  0.00000000E+00  0.00000000E+00
  0.00000000E+00  0.00000000E+00  0.00000000E+00
  0.00000000E+00  0.00000000E+00  0.00000000E+00
  0.00000000E+00  0.00000000E+00  0.00000000E+00
  0.00000000E+00  0.00000000E+00  0.00000000E+00
  0.00000000E+00  0.00000000E+00  0.00000000E+00
  0.00000000E+00  0.00000000E+00  0.00000000E+00
  0.00000000E+00  0.00000000E+00  0.00000000E+00
  0.00000000E+00  0.00000000E+00  0.00000000E+00
  0.00000000E+00  0.00000000E+00  0.00000000E+00
  0.00000000E+00  0.00000000E+00  0.00000000E+00
  0.00000000E+00  0.00000000E+00  0.00000000E+00
  0.00000000E+00  0.00000000E+00  0.00000000E+00
  0.00000000E+00  0.00000000E+00  0.00000000E+00
  0.00000000E+00  0.00000000E+00  0.00000000E+00
  0.00000000E+00  0.00000000E+00  0.00000000E+00
  0.00000000E+00  0.00000000E+00  0.00000000E+00
  0.00000000E+00  0.00000000E+00  0.00000000E+00
  0.00000000E+00  0.00000000E+00  0.00000000E+00
  0.00000000E+00  0.00000000E+00  0.00000000E+00
  0.00000000E+00  0.00000000E+00  0.00000000E+00
  0.00000000E+00  0.00000000E+00  0.00000000E+00
  0.00000000E+00  0.00000000E+00  0.00000000E+00
  0.00000000E+00  0.00000000E+00  0.00000000E+00
  0.00000000E+00  0.00000000E+00  0.00000000E+00
  0.00000000E+00  0.00000000E+00  0.00000000E+00
  0.00000000E+00  0.00000000E+00  0.00000000E+00
  0.00000000E+00  0.00000000E+00  0.00000000E+00
  0.00000000E+00  0.00000000E+00  0.00000000E+00
  0.00000000E+00  0.00000000E+00  0.00000000E+00
  0.00000000E+00  0.00000000E+00  0.00000000E+00
  0.00000000E+00  0.00000000E+00  0.00000000E+00
  0.00000000E+00  0.00000000E+00  0.00000000E+00
  0.00000000E+00  0.00000000E+00  0.00000000E+00
  0.00000000E+00  0.00000000E+00  0.00000000E+00
  0.00000000E+00  0.00000000E+00  0.00000000E+00
  0.00000000E+00  0.00000000E+00  0.00000000E+00
  0.00000000E+00  0.00000000E+00  0.00000000E+00
  0.00000000E+00  0.00000000E+00  0.00000000E+00
  0.00000000E+00  0.00000000E+00  0.00000000E+00
  0.00000000E+00  0.00000000E+00  0.00000000E+00
  0.00000000E+00  0.00000000E+00  0.00000000E+00
  0.00000000E+00  0.00000000E+00  0.00000000E+00
  0.00000000E+00  0.00000000E+00  0.00000000E+00
  0.00000000E+00  0.00000000E+00  0.00000000E+00
  0.00000000E+00  0.00000000E+00  0.00000000E+00
  0.00000000E+00  0.00000000E+00  0.00000000E+00
  0.00000000E+00  0.00000000E+00  0.00000000E+00
  0.00000000E+00  0.00000000E+00  0.00000000E+00
  0.00000000E+00  0.00000000E+00  0.00000000E+00
  0.00000000E+00  0.00000000E+00  0.00000000E+00
  0.00000000E+00  0.00000000E+00  0.00000000E+00
  0.00000000E+00  0.00000000E+00  0.00000000E+00
  0.00000000E+00  0.00000000E+00  0.00000000E+00
  0.00000000E+00  0.00000000E+00  0.00000000E+00
  0.00000000E+00  0.00000000E+00  0.00000000E+00
  0.00000000E+00  0.00000000E+00  0.00000000E+00
  0.00000000E+00  0.00000000E+00  0.00000000E+00
  0.00000000E+00  0.00000000E+00  0.00000000E+00
  0.00000000E+00  0.00000000E+00  0.00000000E+00
  0.00000000E+00  0.00000000E+00  0.00000000E+00
  0.00000000E+00  0.00000000E+00  0.00000000E+00
  0.00000000E+00  0.00000000E+00  0.00000000E+00
  0.00000000E+00  0.00000000E+00  0.00000000E+00
  0.00000000E+00  0.00000000E+00  0.00000000E+00
  0.00000000E+00  0.00000000E+00  0.00000000E+00
  0.00000000E+00  0.00000000E+00  0.00000000E+00
  0.00000000E+00  0.00000000E+00  0.00000000E+00
  0.00000000E+00  0.00000000E+00  0.00000000E+00
  0.00000000E+00  0.00000000E+00  0.00000000E+00
  0.00000000E+00  0.00000000E+00  0.00000000E+00
  0.00000000E+00  0.00000000E+00  0.00000000E+00
  0.00000000E+00  0.00000000E+00  0.00000000E+00
  0.00000000E+00  0.00000000E+00  0.00000000E+00
  0.00000000E+00  0.00000000E+00  0.00000000E+00
  0.00000000E+00  0.00000000E+00  0.00000000E+00
  0.00000000E+00  0.00000000E+00  0.00000000E+00
  0.00000000E+00  0.00000000E+00  0.00000000E+00
  0.00000000E+00  0.00000000E+00  0.00000000E+00
  0.00000000E+00  0.00000000E+00  0.00000000E+00
  0.00000000E+00  0.00000000E+00  0.00000000E+00
  0.00000000E+00  0.00000000E+00  0.00000000E+00
  0.00000000E+00  0.00000000E+00  0.00000000E+00
  0.00000000E+00  0.00000000E+00  0.00000000E+00
  0.00000000E+00  0.00000000E+00  0.00000000E+00
  0.00000000E+00  0.00000000E+00  0.00000000E+00