B C N O                                 
   1.0000000000000000     
     8.7639499999999995  -15.1796066749929999    0.0000000000000000
     8.7639499999999995   15.1796066749929999    0.0000000000000000
     0.0000000000000000    0.0000000000000000   15.0000000000000000
   B    C    N    O 
    48     1    48     1
Selective dynamics
Direct
  0.9044942072497903  0.9516550373726079  0.1081596593165578   T   T   T
  0.9051887372568139  0.0948132839391824  0.1067075254928871   T   T   T
  0.9054169745839037  0.2376982501368988  0.1061599526128510   T   T   T
  0.9052743826068175  0.3805025012857294  0.1076254900675409   T   T   T
  0.9048915532445261  0.5233663312826549  0.1119014358869652   T   T   T
  0.9042463970488395  0.6660975403925924  0.1141980806490538   T   T   T
  0.9038248888222054  0.8085636516510004  0.1115217705306607   T   T   T
  0.0476353817228861  0.9523666394731181  0.1091951473244220   T   T   T
  0.0483469838233950  0.0955078139462064  0.1081596593165578   T   T   T
  0.0484549222979772  0.2380709373391652  0.1060392302440044   T   T   T
  0.0482181137639359  0.3808204765227927  0.1044311215850493   T   T   T
  0.0475182642593664  0.5237317698459109  0.1059974420834383   T   T   T
  0.0472932960613700  0.6666002787144273  0.1085672181352322   T   T   T
  0.0472482636268901  0.8094395830839898  0.1096570494310904   T   T   T
  0.1905624381120130  0.9527537575691134  0.1096570494310904   T   T   T
  0.1914383695450028  0.0961771323737905  0.1115217705306607   T   T   T
  0.1923441211952775  0.2396397394736778  0.1099456503603801   T   T   T
  0.1913571446583485  0.3812535285554238  0.1042688091139270   T   T   T
  0.1900367207847405  0.5241383123527094  0.1011257450441939   T   T   T
  0.1900179237721471  0.6669646392728965  0.1038163495167337   T   T   T
  0.1902159645173554  0.8097860566786476  0.1072772978663358   T   T   T
  0.3334017424825707  0.9527087251346332  0.1085672181352322   T   T   T
  0.3339044808044059  0.0957556241471568  0.1141980806490538   T   T   T
  0.3351145700314336  0.2398595778309457  0.1200452443190844   T   T   T
  0.3366441754615878  0.3841087860305318  0.1153690077195749   T   T   T
  0.3319098168744207  0.5247611021307437  0.1036995948860465   T   T   T
  0.3326062985225606  0.6673957226744379  0.1000371240078170   T   T   T
  0.3330373819241019  0.8099840974238567  0.1038163495167337   T   T   T
  0.4762702513510875  0.9524837569366364  0.1059974420834383   T   T   T
  0.4766356899143426  0.0951104679514699  0.1119014358869652   T   T   T
  0.4769100834456024  0.2376121035542942  0.1214356500053980   T   T   T
  0.4784370744497966  0.3808146779530174  0.1316137637880646   T   T   T
  0.4752409190662547  0.6680922043225779  0.1036995948860465   T   T   T
  0.4758637088442888  0.8099653004112629  0.1011257450441939   T   T   T
  0.6191815446732110  0.9517839074320680  0.1044311215850493   T   T   T
  0.6194995199102735  0.0947276385891788  0.1076254900675409   T   T   T
  0.6197299416464176  0.2373993078971322  0.1147852592750486   T   T   T
  0.6201302932659842  0.3798717279300189  0.1253701659712992   T   T   T
  0.6191873432429864  0.5215649467472020  0.1316137637880646   T   T   T
  0.6158932351654723  0.6633578457354111  0.1153690077195749   T   T   T
  0.6187484926405799  0.8086448765376553  0.1042688091139270   T   T   T
  0.7619310838568381  0.9515470988980262  0.1060392302440044   T   T   T
  0.7623037710591040  0.0945850466120924  0.1061599526128510   T   T   T
  0.7625367662159347  0.2374652549800690  0.1083294838207138   T   T   T
  0.7626027132988703  0.3802720795495857  0.1147852592750486   T   T   T
  0.7623899176417092  0.5230919377513954  0.1214356500053980   T   T   T
  0.7601424433650573  0.6648874511655657  0.1200452443190844   T   T   T
  0.7603622817223251  0.8076579000007260  0.1099456503603801   T   T   T
  0.4592329768083472  0.5407690443886508  0.1574492791577234   T   T   T
  0.9520740993728191  0.9040869323136059  0.1092336220937602   T   T   T
  0.9527715863870949  0.0472298155309110  0.1074739132209318   T   T   T
  0.9530901819822294  0.1901609285733039  0.1062195972219222   T   T   T
  0.9529748923038379  0.3329875108141040  0.1056627781881747   T   T   T
  0.9524350322828097  0.4758030274049524  0.1082542525157241   T   T   T
  0.9520439728375836  0.6186424597120712  0.1114847487044948   T   T   T
  0.9518559989070107  0.7613663697027380  0.1116781682529719   T   T   T
  0.0952039934135380  0.9047974085044610  0.1092550924436832   T   T   T
  0.0959144696043925  0.0479273025451868  0.1092336220937602   T   T   T
  0.0966315602039511  0.1910737801851072  0.1076326698764991   T   T   T
  0.0960774560351075  0.3333406927873064  0.1045219845678893   T   T   T
  0.0950907455100436  0.4761169776466550  0.1037257850425476   T   T   T
  0.0948623775693409  0.6190284314306533  0.1061308931200813   T   T   T
  0.0948872324398349  0.7619242529919041  0.1084716208399026   T   T   T
  0.2380771489261019  0.9051141694781627  0.1084716208399026   T   T   T
  0.2386350322152677  0.0481454030109956  0.1116781682529719   T   T   T
  0.2397960746868865  0.1918187093049291  0.1137244673562965   T   T   T
  0.2405680359148300  0.3352204621627444  0.1082467901144076   T   T   T
  0.2376028885212353  0.4764261194716506  0.1002696632769342   T   T   T
  0.2374619668512369  0.6193691881169802  0.1009353098479254   T   T   T
  0.2377691661374880  0.7622322357805175  0.1049039250444863   T   T   T
  0.3809729704873452  0.9051390243486572  0.1061308931200813   T   T   T
  0.3813589422059280  0.0479574290804220  0.1114847487044948   T   T   T
  0.3818388379173686  0.1911203490239623  0.1196298658591094   T   T   T
  0.3836560853791903  0.3357302288898638  0.1254636684551913   T   T   T
  0.3817367132715310  0.4789595356632512  0.1144448099273360   T   T   T
  0.3800674469402114  0.6199339549777875  0.1006402333539746   T   T   T
  0.3806322138010189  0.7625394350667692  0.1009353098479254   T   T   T
  0.5238844242703412  0.9049106564079550  0.1037257850425476   T   T   T
  0.5241983745120448  0.0475663696351956  0.1082542525157241   T   T   T
  0.5244736038372726  0.1901812227407371  0.1162946203183155   T   T   T
  0.5249968730329181  0.3326635848107316  0.1277168546832753   T   T   T
  0.5210418662537462  0.6182646886464674  0.1144448099273360   T   T   T
  0.5235752824453470  0.7623985133967714  0.1002696632769342   T   T   T
  0.6666607091296896  0.9039239458828915  0.1045219845678893   T   T   T
  0.6670138911028922  0.0470265096141680  0.1056627781881747   T   T   T
  0.6672657619112995  0.1899189241159900  0.1095107869647664   T   T   T
  0.6674704238936694  0.3325309780233274  0.1185349987747966   T   T   T
  0.6673378171062644  0.4750045288840787  0.1277168546832753   T   T   T
  0.6642711730271332  0.6163453165388082  0.1254636684551913   T   T   T
  0.6647809397542530  0.7594333660031758  0.1082467901144076   T   T   T
  0.8089276217328913  0.9033698417140476  0.1076326698764991   T   T   T
  0.8098404733446946  0.0469112199357761  0.1062195972219222   T   T   T
  0.8101059651168674  0.1898954368011317  0.1067268260238367   T   T   T
  0.8100824778020086  0.3327356400056980  0.1095107869647664   T   T   T
  0.8098201791772625  0.4755277980797244  0.1162946203183155   T   T   T
  0.8088810528940364  0.6181625640006303  0.1196298658591094   T   T   T
  0.8081826926130694  0.7602053272311192  0.1137244673562965   T   T   T
  0.5273115745909246  0.4726898273260728  0.1388260239002411   T   T   T

  0.00000000E+00  0.00000000E+00  0.00000000E+00
  0.00000000E+00  0.00000000E+00  0.00000000E+00
  0.00000000E+00  0.00000000E+00  0.00000000E+00
  0.00000000E+00  0.00000000E+00  0.00000000E+00
  0.00000000E+00  0.00000000E+00  0.00000000E+00
  0.00000000E+00  0.00000000E+00  0.00000000E+00
  0.00000000E+00  0.00000000E+00  0.00000000E+00
  0.00000000E+00  0.00000000E+00  0.00000000E+00
  0.00000000E+00  0.00000000E+00  0.00000000E+00
  0.00000000E+00  0.00000000E+00  0.00000000E+00
  0.00000000E+00  0.00000000E+00  0.00000000E+00
  0.00000000E+00  0.00000000E+00  0.00000000E+00
  0.00000000E+00  0.00000000E+00  0.00000000E+00
  0.00000000E+00  0.00000000E+00  0.00000000E+00
  0.00000000E+00  0.00000000E+00  0.00000000E+00
  0.00000000E+00  0.00000000E+00  0.00000000E+00
  0.00000000E+00  0.00000000E+00  0.00000000E+00
  0.00000000E+00  0.00000000E+00  0.00000000E+00
  0.00000000E+00  0.00000000E+00  0.00000000E+00
  0.00000000E+00  0.00000000E+00  0.00000000E+00
  0.00000000E+00  0.00000000E+00  0.00000000E+00
  0.00000000E+00  0.00000000E+00  0.00000000E+00
  0.00000000E+00  0.00000000E+00  0.00000000E+00
  0.00000000E+00  0.00000000E+00  0.00000000E+00
  0.00000000E+00  0.00000000E+00  0.00000000E+00
  0.00000000E+00  0.00000000E+00  0.00000000E+00
  0.00000000E+00  0.00000000E+00  0.00000000E+00
  0.00000000E+00  0.00000000E+00  0.00000000E+00
  0.00000000E+00  0.00000000E+00  0.00000000E+00
  0.00000000E+00  0.00000000E+00  0.00000000E+00
  0.00000000E+00  0.00000000E+00  0.00000000E+00
  0.00000000E+00  0.00000000E+00  0.00000000E+00
  0.00000000E+00  0.00000000E+00  0.00000000E+00
  0.00000000E+00  0.00000000E+00  0.00000000E+00
  0.00000000E+00  0.00000000E+00  0.00000000E+00
  0.00000000E+00  0.00000000E+00  0.00000000E+00
  0.00000000E+00  0.00000000E+00  0.00000000E+00
  0.00000000E+00  0.00000000E+00  0.00000000E+00
  0.00000000E+00  0.00000000E+00  0.00000000E+00
  0.00000000E+00  0.00000000E+00  0.00000000E+00
  0.00000000E+00  0.00000000E+00  0.00000000E+00
  0.00000000E+00  0.00000000E+00  0.00000000E+00
  0.00000000E+00  0.00000000E+00  0.00000000E+00
  0.00000000E+00  0.00000000E+00  0.00000000E+00
  0.00000000E+00  0.00000000E+00  0.00000000E+00
  0.00000000E+00  0.00000000E+00  0.00000000E+00
  0.00000000E+00  0.00000000E+00  0.00000000E+00
  0.00000000E+00  0.00000000E+00  0.00000000E+00
  0.00000000E+00  0.00000000E+00  0.00000000E+00
  0.00000000E+00  0.00000000E+00  0.00000000E+00
  0.00000000E+00  0.00000000E+00  0.00000000E+00
  0.00000000E+00  0.00000000E+00  0.00000000E+00
  0.00000000E+00  0.00000000E+00  0.00000000E+00
  0.00000000E+00  0.00000000E+00  0.00000000E+00
  0.00000000E+00  0.00000000E+00  0.00000000E+00
  0.00000000E+00  0.00000000E+00  0.00000000E+00
  0.00000000E+00  0.00000000E+00  0.00000000E+00
  0.00000000E+00  0.00000000E+00  0.00000000E+00
  0.00000000E+00  0.00000000E+00  0.00000000E+00
  0.00000000E+00  0.00000000E+00  0.00000000E+00
  0.00000000E+00  0.00000000E+00  0.00000000E+00
  0.00000000E+00  0.00000000E+00  0.00000000E+00
  0.00000000E+00  0.00000000E+00  0.00000000E+00
  0.00000000E+00  0.00000000E+00  0.00000000E+00
  0.00000000E+00  0.00000000E+00  0.00000000E+00
  0.00000000E+00  0.00000000E+00  0.00000000E+00
  0.00000000E+00  0.00000000E+00  0.00000000E+00
  0.00000000E+00  0.00000000E+00  0.00000000E+00
  0.00000000E+00  0.00000000E+00  0.00000000E+00
  0.00000000E+00  0.00000000E+00  0.00000000E+00
  0.00000000E+00  0.00000000E+00  0.00000000E+00
  0.00000000E+00  0.00000000E+00  0.00000000E+00
  0.00000000E+00  0.00000000E+00  0.00000000E+00
  0.00000000E+00  0.00000000E+00  0.00000000E+00
  0.00000000E+00  0.00000000E+00  0.00000000E+00
  0.00000000E+00  0.00000000E+00  0.00000000E+00
  0.00000000E+00  0.00000000E+00  0.00000000E+00
  0.00000000E+00  0.00000000E+00  0.00000000E+00
  0.00000000E+00  0.00000000E+00  0.00000000E+00
  0.00000000E+00  0.00000000E+00  0.00000000E+00
  0.00000000E+00  0.00000000E+00  0.00000000E+00
  0.00000000E+00  0.00000000E+00  0.00000000E+00
  0.00000000E+00  0.00000000E+00  0.00000000E+00
  0.00000000E+00  0.00000000E+00  0.00000000E+00
  0.00000000E+00  0.00000000E+00  0.00000000E+00
  0.00000000E+00  0.00000000E+00  0.00000000E+00
  0.00000000E+00  0.00000000E+00  0.00000000E+00
  0.00000000E+00  0.00000000E+00  0.00000000E+00
  0.00000000E+00  0.00000000E+00  0.00000000E+00
  0.00000000E+00  0.00000000E+00  0.00000000E+00
  0.00000000E+00  0.00000000E+00  0.00000000E+00
  0.00000000E+00  0.00000000E+00  0.00000000E+00
  0.00000000E+00  0.00000000E+00  0.00000000E+00
  0.00000000E+00  0.00000000E+00  0.00000000E+00
  0.00000000E+00  0.00000000E+00  0.00000000E+00
  0.00000000E+00  0.00000000E+00  0.00000000E+00
  0.00000000E+00  0.00000000E+00  0.00000000E+00
  0.00000000E+00  0.00000000E+00  0.00000000E+00
