B Si N                                  
   1.0000000000000000     
     8.7639499999999995  -15.1796066749929999    0.0000000000000000
     8.7639499999999995   15.1796066749929999    0.0000000000000000
     0.0000000000000000    0.0000000000000000   15.0000000000000000
   B    Si   N 
    48     1    49
Selective dynamics
Direct
  0.9054289748945826  0.9530579128392981  0.1082856433529491   T   T   T
  0.9047368962021937  0.0952648504898062  0.1088074668910379   T   T   T
  0.9045745631190650  0.2378548149673810  0.1094045138157335   T   T   T
  0.9053522626035453  0.3811418948885210  0.1086837444132729   T   T   T
  0.9059880823528734  0.5239904289687913  0.1083141313548121   T   T   T
  0.9051363382893789  0.6672080664694475  0.1094520083520999   T   T   T
  0.9055231509506724  0.8101178870111575  0.1091401185736919   T   T   T
  0.0476774216840922  0.9523243016809035  0.1092582026096161   T   T   T
  0.0469438025026957  0.0945727455774460  0.1082856428799479   T   T   T
  0.0466604579643258  0.2374303974524255  0.1083744378316590   T   T   T
  0.0469881899093183  0.3808307825455180  0.1085191684755203   T   T   T
  0.0474384367842694  0.5240734074318046  0.1085701526315775   T   T   T
  0.0480942517731900  0.6671326116999691  0.1094924887123011   T   T   T
  0.0478303315222585  0.8097407188820357  0.1101271173337925   T   T   T
  0.1902610308109541  0.9521714315707357  0.1101271158077954   T   T   T
  0.1898838140248348  0.0944785617573262  0.1091401144496947   T   T   T
  0.1879562039223633  0.2358849684989761  0.1094023588288755   T   T   T
  0.1881389404303601  0.3796771318255194  0.1106753702149839   T   T   T
  0.1886914077523706  0.5240619599359971  0.1098029719568565   T   T   T
  0.1902784596089569  0.6671029296355798  0.1095455549150172   T   T   T
  0.1903616021810749  0.8096400923599227  0.1102258198192598   T   T   T
  0.3328691240050273  0.9519074720608143  0.1094924911262990   T   T   T
  0.3327936475075576  0.0948654016306286  0.1094520039750998   T   T   T
  0.3321289805772001  0.2369738022011433  0.1119601403835027   T   T   T
  0.3274778302520211  0.3750272039129298  0.1178014796860347   T   T   T
  0.3283063203345030  0.5237644759737597  0.1180411120669915   T   T   T
  0.3326372983355049  0.6673644044385038  0.1122469865058155   T   T   T
  0.3328987236844166  0.8097231692340376  0.1095455584480204   T   T   T
  0.4759282799872036  0.9525631441457172  0.1085701579425790   T   T   T
  0.4760113125372122  0.0940137403231183  0.1083141400478122   T   T   T
  0.4759581250885406  0.2357978711391462  0.1096069243423403   T   T   T
  0.4751601036649331  0.3764090095293996  0.1220595731563859   T   T   T
  0.4762373084592343  0.6716955370054918  0.1180411125809981   T   T   T
  0.4759397558540017  0.8113102793156299  0.1098029776938567   T   T   T
  0.6191709564265000  0.9530134945076820  0.1085191705825211   T   T   T
  0.6188597754594770  0.0946494246784602  0.1086837454992735   T   T   T
  0.6196107449760682  0.2374455220820740  0.1076655397889022   T   T   T
  0.6204998142566139  0.3795019199523941  0.1109316095972985   T   T   T
  0.6235925594406013  0.5248415635380753  0.1220595678983839   T   T   T
  0.6249744455420713  0.6725238934639759  0.1178014793990322   T   T   T
  0.6203246113344858  0.8118628289726447  0.1106753658669810   T   T   T
  0.7625713430755749  0.9533412615626787  0.1083744400576544   T   T   T
  0.7621468807936197  0.0954271134149401  0.1094045162187322   T   T   T
  0.7623143317520922  0.2376873734279129  0.1090441867385562   T   T   T
  0.7625563003019346  0.3803910104549431  0.1076655313819026   T   T   T
  0.7642038810368518  0.5240435577184689  0.1096069163783428   T   T   T
  0.7630278565698485  0.6678726999677904  0.1119601490115024   T   T   T
  0.7641167029250321  0.8120455127596442  0.1094023613028717   T   T   T
  0.4764945910081593  0.5235070645388369  0.1328045473640635   T   T   T
  0.9526538391972736  0.9050331180912824  0.1087550266947483   T   T   T
  0.9522579261660123  0.0477437911439857  0.1083875689697814   T   T   T
  0.9518186798775942  0.1903273943679153  0.1089422902290100   T   T   T
  0.9519776192330529  0.3331847128789416  0.1089529621756383   T   T   T
  0.9526105169135695  0.4761269971016586  0.1084598999171015   T   T   T
  0.9525597530675738  0.6189973318803290  0.1089842652570413   T   T   T
  0.9527253418565081  0.7621123445456867  0.1095993428925441   T   T   T
  0.0952728967052646  0.9047288557627443  0.1101812998659209   T   T   T
  0.0949685873467144  0.0473478796177259  0.1087550331917451   T   T   T
  0.0936482393435196  0.1893351563176494  0.1080124424434530   T   T   T
  0.0938081015294990  0.3327099671385111  0.1085171509181937   T   T   T
  0.0941404036082441  0.4760739754221994  0.1083876963926491   T   T   T
  0.0951032108809561  0.6192020032693418  0.1090619326648778   T   T   T
  0.0953017825525224  0.7619859904591227  0.1103116422195254   T   T   T
  0.2380157217018738  0.9046999282054756  0.1103116431115265   T   T   T
  0.2378893848313330  0.0472764271074826  0.1095993354695467   T   T   T
  0.2372636549845704  0.1896832997158636  0.1095335167392011   T   T   T
  0.2341679886273798  0.3304768334733531  0.1116745339817245   T   T   T
  0.2350019726664449  0.4756648667760296  0.1118000776241116   T   T   T
  0.2376221153089635  0.6192924150229859  0.1101951251203590   T   T   T
  0.2379185585887368  0.7620830756062561  0.1097891710462142   T   T   T
  0.3807996678336517  0.9048984149020448  0.1090619368148808   T   T   T
  0.3810043953066695  0.0474419978524322  0.1089842730050409   T   T   T
  0.3806521669499624  0.1897298972108025  0.1101263046733069   T   T   T
  0.3793795088816572  0.3321179950966259  0.1175196645563993   T   T   T
  0.3701402495183539  0.4707061476762977  0.1250790797570397   T   T   T
  0.3805110472855615  0.6194907506734333  0.1171352034565782   T   T   T
  0.3807093234660158  0.7623795915710233  0.1101951297413595   T   T   T
  0.5239277568058093  0.9058611919077301  0.1083877101706483   T   T   T
  0.5238746612473490  0.0473911448464262  0.1084599003621071   T   T   T
  0.5242695017538802  0.1892156875453221  0.1076559774007305   T   T   T
  0.5248962389794646  0.3299536043705262  0.1130509464008023   T   T   T
  0.5295014203333412  0.4705001762916635  0.1278344481913020   T   T   T
  0.5292955116067142  0.6298614326206423  0.1250790813350414   T   T   T
  0.5243369158369818  0.7649998836615467  0.1118000748081099   T   T   T
  0.6672918234734854  0.9061936459435088  0.1085171487051941   T   T   T
  0.6668169568520412  0.0480240350159504  0.1089529607076428   T   T   T
  0.6669913315907615  0.1901625722074256  0.1084694642368829   T   T   T
  0.6676316024479458  0.3323702081010556  0.1074250615870857   T   T   T
  0.6700480597614595  0.4751054770305341  0.1130509260018025   T   T   T
  0.6678836355473746  0.6206221856633510  0.1175196671913973   T   T   T
  0.6695248329806360  0.7658337688406122  0.1116745268507247   T   T   T
  0.8106665561983610  0.9063534756904824  0.1080124428194580   T   T   T
  0.8096743309090859  0.0481830291954108  0.1089422999160097   T   T   T
  0.8095582948236922  0.1904433598683008  0.1098606228751691   T   T   T
  0.8098391659005870  0.3330103535702569  0.1084694582968878   T   T   T
  0.8107862040096867  0.4757322526961169  0.1076559568897278   T   T   T
  0.8102718241561903  0.6193495370970286  0.1101263200263094   T   T   T
  0.8103183623781424  0.7627380367994383  0.1095335280351964   T   T   T

  0.00000000E+00  0.00000000E+00  0.00000000E+00
  0.00000000E+00  0.00000000E+00  0.00000000E+00
  0.00000000E+00  0.00000000E+00  0.00000000E+00
  0.00000000E+00  0.00000000E+00  0.00000000E+00
  0.00000000E+00  0.00000000E+00  0.00000000E+00
  0.00000000E+00  0.00000000E+00  0.00000000E+00
  0.00000000E+00  0.00000000E+00  0.00000000E+00
  0.00000000E+00  0.00000000E+00  0.00000000E+00
  0.00000000E+00  0.00000000E+00  0.00000000E+00
  0.00000000E+00  0.00000000E+00  0.00000000E+00
  0.00000000E+00  0.00000000E+00  0.00000000E+00
  0.00000000E+00  0.00000000E+00  0.00000000E+00
  0.00000000E+00  0.00000000E+00  0.00000000E+00
  0.00000000E+00  0.00000000E+00  0.00000000E+00
  0.00000000E+00  0.00000000E+00  0.00000000E+00
  0.00000000E+00  0.00000000E+00  0.00000000E+00
  0.00000000E+00  0.00000000E+00  0.00000000E+00
  0.00000000E+00  0.00000000E+00  0.00000000E+00
  0.00000000E+00  0.00000000E+00  0.00000000E+00
  0.00000000E+00  0.00000000E+00  0.00000000E+00
  0.00000000E+00  0.00000000E+00  0.00000000E+00
  0.00000000E+00  0.00000000E+00  0.00000000E+00
  0.00000000E+00  0.00000000E+00  0.00000000E+00
  0.00000000E+00  0.00000000E+00  0.00000000E+00
  0.00000000E+00  0.00000000E+00  0.00000000E+00
  0.00000000E+00  0.00000000E+00  0.00000000E+00
  0.00000000E+00  0.00000000E+00  0.00000000E+00
  0.00000000E+00  0.00000000E+00  0.00000000E+00
  0.00000000E+00  0.00000000E+00  0.00000000E+00
  0.00000000E+00  0.00000000E+00  0.00000000E+00
  0.00000000E+00  0.00000000E+00  0.00000000E+00
  0.00000000E+00  0.00000000E+00  0.00000000E+00
  0.00000000E+00  0.00000000E+00  0.00000000E+00
  0.00000000E+00  0.00000000E+00  0.00000000E+00
  0.00000000E+00  0.00000000E+00  0.00000000E+00
  0.00000000E+00  0.00000000E+00  0.00000000E+00
  0.00000000E+00  0.00000000E+00  0.00000000E+00
  0.00000000E+00  0.00000000E+00  0.00000000E+00
  0.00000000E+00  0.00000000E+00  0.00000000E+00
  0.00000000E+00  0.00000000E+00  0.00000000E+00
  0.00000000E+00  0.00000000E+00  0.00000000E+00
  0.00000000E+00  0.00000000E+00  0.00000000E+00
  0.00000000E+00  0.00000000E+00  0.00000000E+00
  0.00000000E+00  0.00000000E+00  0.00000000E+00
  0.00000000E+00  0.00000000E+00  0.00000000E+00
  0.00000000E+00  0.00000000E+00  0.00000000E+00
  0.00000000E+00  0.00000000E+00  0.00000000E+00
  0.00000000E+00  0.00000000E+00  0.00000000E+00
  0.00000000E+00  0.00000000E+00  0.00000000E+00
  0.00000000E+00  0.00000000E+00  0.00000000E+00
  0.00000000E+00  0.00000000E+00  0.00000000E+00
  0.00000000E+00  0.00000000E+00  0.00000000E+00
  0.00000000E+00  0.00000000E+00  0.00000000E+00
  0.00000000E+00  0.00000000E+00  0.00000000E+00
  0.00000000E+00  0.00000000E+00  0.00000000E+00
  0.00000000E+00  0.00000000E+00  0.00000000E+00
  0.00000000E+00  0.00000000E+00  0.00000000E+00
  0.00000000E+00  0.00000000E+00  0.00000000E+00
  0.00000000E+00  0.00000000E+00  0.00000000E+00
  0.00000000E+00  0.00000000E+00  0.00000000E+00
  0.00000000E+00  0.00000000E+00  0.00000000E+00
  0.00000000E+00  0.00000000E+00  0.00000000E+00
  0.00000000E+00  0.00000000E+00  0.00000000E+00
  0.00000000E+00  0.00000000E+00  0.00000000E+00
  0.00000000E+00  0.00000000E+00  0.00000000E+00
  0.00000000E+00  0.00000000E+00  0.00000000E+00
  0.00000000E+00  0.00000000E+00  0.00000000E+00
  0.00000000E+00  0.00000000E+00  0.00000000E+00
  0.00000000E+00  0.00000000E+00  0.00000000E+00
  0.00000000E+00  0.00000000E+00  0.00000000E+00
  0.00000000E+00  0.00000000E+00  0.00000000E+00
  0.00000000E+00  0.00000000E+00  0.00000000E+00
  0.00000000E+00  0.00000000E+00  0.00000000E+00
  0.00000000E+00  0.00000000E+00  0.00000000E+00
  0.00000000E+00  0.00000000E+00  0.00000000E+00
  0.00000000E+00  0.00000000E+00  0.00000000E+00
  0.00000000E+00  0.00000000E+00  0.00000000E+00
  0.00000000E+00  0.00000000E+00  0.00000000E+00
  0.00000000E+00  0.00000000E+00  0.00000000E+00
  0.00000000E+00  0.00000000E+00  0.00000000E+00
  0.00000000E+00  0.00000000E+00  0.00000000E+00
  0.00000000E+00  0.00000000E+00  0.00000000E+00
  0.00000000E+00  0.00000000E+00  0.00000000E+00
  0.00000000E+00  0.00000000E+00  0.00000000E+00
  0.00000000E+00  0.00000000E+00  0.00000000E+00
  0.00000000E+00  0.00000000E+00  0.00000000E+00
  0.00000000E+00  0.00000000E+00  0.00000000E+00
  0.00000000E+00  0.00000000E+00  0.00000000E+00
  0.00000000E+00  0.00000000E+00  0.00000000E+00
  0.00000000E+00  0.00000000E+00  0.00000000E+00
  0.00000000E+00  0.00000000E+00  0.00000000E+00
  0.00000000E+00  0.00000000E+00  0.00000000E+00
  0.00000000E+00  0.00000000E+00  0.00000000E+00
  0.00000000E+00  0.00000000E+00  0.00000000E+00
  0.00000000E+00  0.00000000E+00  0.00000000E+00
  0.00000000E+00  0.00000000E+00  0.00000000E+00
  0.00000000E+00  0.00000000E+00  0.00000000E+00
  0.00000000E+00  0.00000000E+00  0.00000000E+00
