Al As B N                               
   1.0000000000000000     
     8.7639499999999995  -15.1796066749929999    0.0000000000000000
     8.7639499999999995   15.1796066749929999    0.0000000000000000
     0.0000000000000000    0.0000000000000000   15.0000000000000000
   Al   As   B    N 
     1     1    48    48
Selective dynamics
Direct
  0.5413605731199166  0.4586408287970877  0.1109091563160445   T   T   T
  0.4755144350804080  0.5244875861165932  0.1115203955782517   T   T   T
  0.9061672992516914  0.9546686056258088  0.1110402118479826   T   T   T
  0.9039469537071282  0.0960550674888632  0.1110519344765375   T   T   T
  0.9034893087480055  0.2383827432305860  0.1110754420820610   T   T   T
  0.9046111282161766  0.3813459181205688  0.1109554558338029   T   T   T
  0.9084241528370406  0.5251471908212670  0.1109734873974727   T   T   T
  0.9093826309004973  0.6694426635313192  0.1110690623059022   T   T   T
  0.9100673764240068  0.8141343934160746  0.1110580753256116   T   T   T
  0.0478792564445543  0.9521227647514541  0.1110240561730246   T   T   T
  0.0453334155701874  0.0938347219443167  0.1110402118479826   T   T   T
  0.0445361935015868  0.2369882344987162  0.1110069205952859   T   T   T
  0.0452930672481958  0.3806381776120382  0.1109717470671525   T   T   T
  0.0475713560706130  0.5243025397124931  0.1109709353423599   T   T   T
  0.0494670476913648  0.6674555549383060  0.1110180311037822   T   T   T
  0.0495290201561166  0.8101783213278956  0.1110562749750209   T   T   T
  0.1898236998681155  0.9504730010398867  0.1110562749750209   T   T   T
  0.1858676277799244  0.0899346447719877  0.1110580753256116   T   T   T
  0.1840773937116518  0.2330364879102755  0.1110453901603223   T   T   T
  0.1849863449501046  0.3787173333332532  0.1110092946958511   T   T   T
  0.1868755589022246  0.5238090335251597  0.1110499146547173   T   T   T
  0.1906774473089804  0.6669066209222996  0.1110825276007356   T   T   T
  0.1909308540366030  0.8090711671594011  0.1110331139178726   T   T   T
  0.3325464662586811  0.9505349735046453  0.1110180311037822   T   T   T
  0.3305593576656773  0.0906193902954990  0.1110690623059022   T   T   T
  0.3224143842477067  0.2262113821169102  0.1110534737228165   T   T   T
  0.3220100661262478  0.3724864461200635  0.1110250023412310   T   T   T
  0.3244249606351910  0.5225266686735711  0.1110594873490975   T   T   T
  0.3328271941592728  0.6671748270377249  0.1111505303185394   T   T   T
  0.3330954002746975  0.8093245738870055  0.1110825276007356   T   T   T
  0.4756994814845079  0.9524306651253894  0.1109709353423599   T   T   T
  0.4748548303757296  0.0915778683589480  0.1109734873974727   T   T   T
  0.4730659537742837  0.2286031597656310  0.1109749853069972   T   T   T
  0.4542017676172493  0.3496358936793867  0.1111062014136389   T   T   T
  0.4774753525234248  0.6755770605618243  0.1110594873490975   T   T   T
  0.4761929876718370  0.8131264622937783  0.1110499146547173   T   T   T
  0.6193638435839729  0.9547089539477982  0.1109717470671525   T   T   T
  0.6186561030754327  0.0953908929798125  0.1109554558338029   T   T   T
  0.6184814377345379  0.2364711676980893  0.1109506910491612   T   T   T
  0.6207384935281300  0.3792635276678804  0.1109218367845536   T   T   T
  0.6503661275166093  0.5458002535797459  0.1111062014136389   T   T   T
  0.6275155750759335  0.6779919550707512  0.1110250023412310   T   T   T
  0.6212846878627699  0.8150156762459102  0.1110092946958511   T   T   T
  0.7630137866972753  0.9554658276944097  0.1110069205952859   T   T   T
  0.7616192779654221  0.0965127124480000  0.1110754420820610   T   T   T
  0.7615857747310942  0.2384162464649068  0.1110295789461536   T   T   T
  0.7635308534978975  0.3815205834614578  0.1109506910491612   T   T   T
  0.7713988614303751  0.5269360674227125  0.1109749853069972   T   T   T
  0.7737906390790927  0.6775876369492830  0.1110534737228166   T   T   T
  0.7669655332857228  0.8159246274843509  0.1110453901603223   T   T   T
  0.9544237680616069  0.9075656644804775  0.1110098708992225   T   T   T
  0.9514607407694868  0.0485406611485236  0.1110227978503731   T   T   T
  0.9503312601513370  0.1905160683884662  0.1110387578003652   T   T   T
  0.9508319432986257  0.3331889749452364  0.1109897407474903   T   T   T
  0.9534117897798653  0.4763760460833678  0.1109133707468357   T   T   T
  0.9551077778078138  0.6202396597812203  0.1110010718573819   T   T   T
  0.9555013614098591  0.7642226804754663  0.1110591232107949   T   T   T
  0.0955101257585051  0.9044912761594935  0.1110261724775334   T   T   T
  0.0924357374375235  0.0455776338563930  0.1110098708992225   T   T   T
  0.0905503707750653  0.1879467137364585  0.1110123333523518   T   T   T
  0.0910233236249053  0.3318051613167072  0.1109582836509643   T   T   T
  0.0928578327376399  0.4757534755131183  0.1109623162598281   T   T   T
  0.0958898204286220  0.6192982185078290  0.1109999338518557   T   T   T
  0.0964327360267440  0.7621667143306208  0.1110184617317776   T   T   T
  0.2378346875873881  0.9035686658912740  0.1110184617317779   T   T   T
  0.2357787214425418  0.0445000405081510  0.1110591232107949   T   T   T
  0.2295959247455131  0.1828660808724798  0.1110644660577787   T   T   T
  0.2288161401702075  0.3273949250387125  0.1110177983633322   T   T   T
  0.2308972700672365  0.4745081795093798  0.1110288526922596   T   T   T
  0.2374012765027702  0.6191137372247094  0.1111027617277323   T   T   T
  0.2382727463041667  0.7617286556138431  0.1110545922576900   T   T   T
  0.3807031834101758  0.9041115814893839  0.1109999338518557   T   T   T
  0.3797617421367679  0.0448936241101772  0.1110010718573819   T   T   T
  0.3769042026120826  0.1844394562358898  0.1110473587975867   T   T   T
  0.3642300365274602  0.3182616885566925  0.1109853717931970   T   T   T
  0.3601607789691681  0.4668416928094979  0.1109832193596067   T   T   T
  0.3802691457782982  0.6197322561396972  0.1111032621038349   T   T   T
  0.3808876646932923  0.7626001254152422  0.1111027617277323   T   T   T
  0.5242479264038841  0.9071435691803600  0.1109623162598281   T   T   T
  0.5236253558336367  0.0465896121381376  0.1109133707468357   T   T   T
  0.5231083517367634  0.1854538298151269  0.1109658792354855   T   T   T
  0.5208394299352576  0.3218376306750405  0.1108768376804138   T   T   T
  0.5331597091075186  0.6398406229488279  0.1109832193596070   T   T   T
  0.5254932224076095  0.7691041318507537  0.1110288526922596   T   T   T
  0.6681962406003025  0.9089780782930860  0.1109582836509643   T   T   T
  0.6668124269717641  0.0491694586193810  0.1109897407474903   T   T   T
  0.6665681729266717  0.1903723218110230  0.1109617828933019   T   T   T
  0.6675103198777399  0.3324910820392502  0.1109295056089920   T   T   T
  0.6781637712419600  0.4791619719817512  0.1108768376804138   T   T   T
  0.6817397133603232  0.6357713653905278  0.1109853717931970   T   T   T
  0.6726064768782769  0.7711852617477812  0.1110177983633322   T   T   T
  0.8120546881815509  0.9094510311429359  0.1110123333523518   T   T   T
  0.8094853335295294  0.0496701417666716  0.1110387578003653   T   T   T
  0.8088253599442330  0.1911760419737622  0.1110826574294678   T   T   T
  0.8096290801069842  0.3334332289903349  0.1109617828933019   T   T   T
  0.8145475721028722  0.4768930501802285  0.1109658792354855   T   T   T
  0.8155619456821067  0.6230971993059194  0.1110473587975867   T   T   T
  0.8171353210455099  0.7704054771724972  0.1110644660577787   T   T   T

  0.00000000E+00  0.00000000E+00  0.00000000E+00
  0.00000000E+00  0.00000000E+00  0.00000000E+00
  0.00000000E+00  0.00000000E+00  0.00000000E+00
  0.00000000E+00  0.00000000E+00  0.00000000E+00
  0.00000000E+00  0.00000000E+00  0.00000000E+00
  0.00000000E+00  0.00000000E+00  0.00000000E+00
  0.00000000E+00  0.00000000E+00  0.00000000E+00
  0.00000000E+00  0.00000000E+00  0.00000000E+00
  0.00000000E+00  0.00000000E+00  0.00000000E+00
  0.00000000E+00  0.00000000E+00  0.00000000E+00
  0.00000000E+00  0.00000000E+00  0.00000000E+00
  0.00000000E+00  0.00000000E+00  0.00000000E+00
  0.00000000E+00  0.00000000E+00  0.00000000E+00
  0.00000000E+00  0.00000000E+00  0.00000000E+00
  0.00000000E+00  0.00000000E+00  0.00000000E+00
  0.00000000E+00  0.00000000E+00  0.00000000E+00
  0.00000000E+00  0.00000000E+00  0.00000000E+00
  0.00000000E+00  0.00000000E+00  0.00000000E+00
  0.00000000E+00  0.00000000E+00  0.00000000E+00
  0.00000000E+00  0.00000000E+00  0.00000000E+00
  0.00000000E+00  0.00000000E+00  0.00000000E+00
  0.00000000E+00  0.00000000E+00  0.00000000E+00
  0.00000000E+00  0.00000000E+00  0.00000000E+00
  0.00000000E+00  0.00000000E+00  0.00000000E+00
  0.00000000E+00  0.00000000E+00  0.00000000E+00
  0.00000000E+00  0.00000000E+00  0.00000000E+00
  0.00000000E+00  0.00000000E+00  0.00000000E+00
  0.00000000E+00  0.00000000E+00  0.00000000E+00
  0.00000000E+00  0.00000000E+00  0.00000000E+00
  0.00000000E+00  0.00000000E+00  0.00000000E+00
  0.00000000E+00  0.00000000E+00  0.00000000E+00
  0.00000000E+00  0.00000000E+00  0.00000000E+00
  0.00000000E+00  0.00000000E+00  0.00000000E+00
  0.00000000E+00  0.00000000E+00  0.00000000E+00
  0.00000000E+00  0.00000000E+00  0.00000000E+00
  0.00000000E+00  0.00000000E+00  0.00000000E+00
  0.00000000E+00  0.00000000E+00  0.00000000E+00
  0.00000000E+00  0.00000000E+00  0.00000000E+00
  0.00000000E+00  0.00000000E+00  0.00000000E+00
  0.00000000E+00  0.00000000E+00  0.00000000E+00
  0.00000000E+00  0.00000000E+00  0.00000000E+00
  0.00000000E+00  0.00000000E+00  0.00000000E+00
  0.00000000E+00  0.00000000E+00  0.00000000E+00
  0.00000000E+00  0.00000000E+00  0.00000000E+00
  0.00000000E+00  0.00000000E+00  0.00000000E+00
  0.00000000E+00  0.00000000E+00  0.00000000E+00
  0.00000000E+00  0.00000000E+00  0.00000000E+00
  0.00000000E+00  0.00000000E+00  0.00000000E+00
  0.00000000E+00  0.00000000E+00  0.00000000E+00
  0.00000000E+00  0.00000000E+00  0.00000000E+00
  0.00000000E+00  0.00000000E+00  0.00000000E+00
  0.00000000E+00  0.00000000E+00  0.00000000E+00
  0.00000000E+00  0.00000000E+00  0.00000000E+00
  0.00000000E+00  0.00000000E+00  0.00000000E+00
  0.00000000E+00  0.00000000E+00  0.00000000E+00
  0.00000000E+00  0.00000000E+00  0.00000000E+00
  0.00000000E+00  0.00000000E+00  0.00000000E+00
  0.00000000E+00  0.00000000E+00  0.00000000E+00
  0.00000000E+00  0.00000000E+00  0.00000000E+00
  0.00000000E+00  0.00000000E+00  0.00000000E+00
  0.00000000E+00  0.00000000E+00  0.00000000E+00
  0.00000000E+00  0.00000000E+00  0.00000000E+00
  0.00000000E+00  0.00000000E+00  0.00000000E+00
  0.00000000E+00  0.00000000E+00  0.00000000E+00
  0.00000000E+00  0.00000000E+00  0.00000000E+00
  0.00000000E+00  0.00000000E+00  0.00000000E+00
  0.00000000E+00  0.00000000E+00  0.00000000E+00
  0.00000000E+00  0.00000000E+00  0.00000000E+00
  0.00000000E+00  0.00000000E+00  0.00000000E+00
  0.00000000E+00  0.00000000E+00  0.00000000E+00
  0.00000000E+00  0.00000000E+00  0.00000000E+00
  0.00000000E+00  0.00000000E+00  0.00000000E+00
  0.00000000E+00  0.00000000E+00  0.00000000E+00
  0.00000000E+00  0.00000000E+00  0.00000000E+00
  0.00000000E+00  0.00000000E+00  0.00000000E+00
  0.00000000E+00  0.00000000E+00  0.00000000E+00
  0.00000000E+00  0.00000000E+00  0.00000000E+00
  0.00000000E+00  0.00000000E+00  0.00000000E+00
  0.00000000E+00  0.00000000E+00  0.00000000E+00
  0.00000000E+00  0.00000000E+00  0.00000000E+00
  0.00000000E+00  0.00000000E+00  0.00000000E+00
  0.00000000E+00  0.00000000E+00  0.00000000E+00
  0.00000000E+00  0.00000000E+00  0.00000000E+00
  0.00000000E+00  0.00000000E+00  0.00000000E+00
  0.00000000E+00  0.00000000E+00  0.00000000E+00
  0.00000000E+00  0.00000000E+00  0.00000000E+00
  0.00000000E+00  0.00000000E+00  0.00000000E+00
  0.00000000E+00  0.00000000E+00  0.00000000E+00
  0.00000000E+00  0.00000000E+00  0.00000000E+00
  0.00000000E+00  0.00000000E+00  0.00000000E+00
  0.00000000E+00  0.00000000E+00  0.00000000E+00
  0.00000000E+00  0.00000000E+00  0.00000000E+00
  0.00000000E+00  0.00000000E+00  0.00000000E+00
  0.00000000E+00  0.00000000E+00  0.00000000E+00
  0.00000000E+00  0.00000000E+00  0.00000000E+00
  0.00000000E+00  0.00000000E+00  0.00000000E+00
  0.00000000E+00  0.00000000E+00  0.00000000E+00
  0.00000000E+00  0.00000000E+00  0.00000000E+00
