 B O N 
 1.0
 17.527899999999772   0.000000000000000   0.000000000000000
 -8.763949999999658  15.179606674993195   0.000000000000000
  0.000000000000001   0.000000000000002  15.000000000000000
 B O N 
  48   1  49
Cartesian
  7.516688801534995  14.460801197823892   1.665247747320765 
 15.024185004401888   1.445540980656055   1.665349698993885 
 13.770677896228356   3.613475349005393   1.665712367284575 
 12.519945213587359   5.783011532682624   1.665349698993885 
 11.273778097086161   7.953331649355888   1.665247747320765 
 10.025754561424911  10.124262390824377   1.665800975924115 
  8.772758205672616  12.294515740686078   1.665800975924115 
 -7.509592456706506  14.455423463686413   1.665355119135270 
 -0.001109081963736   1.439593302570300   1.665247747320765 
 -1.256498182450008   3.608695107282367   1.665319296049845 
 -2.511014953870212   5.781581894329507   1.665319296049845 
 -3.761817669911052   7.953331649355888   1.665247747320765 
 -5.006383162030517  10.119737783328796   1.665355119135270 
 -6.256867847765141  12.290076630166572   1.665096604387890 
 -5.007984786403467  14.453205545157147   1.665096604387890 
  2.502983857835206   1.434948018239609   1.665800975924115 
  1.244076458927898   3.595015485463106   1.665532172264280 
 -0.014807126954693   5.774176963787685   1.665242475076320 
 -1.272574533199652   7.953982868746795   1.665532172264280 
 -2.513794134249721  10.124262390824377   1.665800975924115 
 -3.759101725041839  12.290076630166572   1.665096604387890 
 -2.503209294675838  14.455423463686413   1.665355119135270 
  5.008976569357286   1.434948018239609   1.665800975924115 
  3.755980213604990   3.588205772564783   1.665730189726710 
  2.495278368833902   5.729026299841237   1.665254808385770 
  1.201133998964290   7.970550100784693   1.665254808385770 
 -0.022520040214727  10.132760188592657   1.665730189726710 
 -1.260797778479938  12.294515740686078   1.665800975924115 
 -0.004728374342255  14.460801197823892   1.665247747320765 
  7.513069509156227   1.439593302570300   1.665247747320765 
  6.267883968264519   3.595015485463106   1.665532172264280 
  5.016682058376158   5.729026299841237   1.665254808385770 
  2.461835843735440  10.154149749124135   1.665254808385770 
  1.239329221477435  12.304727795540286   1.665532172264280 
  2.501463442176197  14.463449148123088   1.665319296049845 
 10.015705422772841   1.445540980656055   1.665349698993885 
  8.768458609642549   3.608695107282367   1.665319296049845 
  7.526767554147316   5.774176963787685   1.665242475076320 
  6.310826428228418   7.970550100784693   1.665254808385770 
  5.050124583457312  10.154149749124135   1.665254808385770 
  3.755980213596418  12.305372222159592   1.665242475076320 
  5.010496985016685  14.463449148123088   1.665319296049845 
 12.519945213587365   1.447142795984068   1.665712367284575 
 11.269212530946296   3.613475349005393   1.665712367284575 
 10.022975381062832   5.781581894329507   1.665319296049845 
  8.784534960374758   7.953982868746795   1.665532172264280 
  7.534480467407461  10.132760188592657   1.665730189726710 
  6.272631205715225  12.304727795540286   1.665532172264280 
  3.755980213596274   7.951242049921758   1.666318808608545 
  8.765960116588079  13.735270423249709   1.665235357097355 
 16.276242103290844   0.722659210640848   1.664890097434005 
 15.023115958171818   2.890556753087808   1.665280137000255 
 13.770663011008345   5.059868891664398   1.665280137000255 
 12.519954786406227   7.228739691311806   1.664890097434005 
 11.270100672744345   9.397971750693120   1.665235357097355 
 10.018425573353424  11.566849243492914   1.665358238824440 
 -6.259318975587257  13.733571465870515   1.664858461524285 
  1.251849230249836   0.720448594405898   1.665235357097355 
 -0.003383296851111   2.885830168418199   1.665131952930030 
 -1.257405012366934   5.059868891664398   1.664993350157910 
 -2.510461911492001   7.228217707545764   1.665131952930030 
 -3.758121099931629   9.397971750693120   1.665235357097355 
 -5.007975213584789  11.566180492347790   1.664858461524285 
 -3.756631451582135  13.733571465870515   1.664858461524285 
  3.755989786406219   0.719992281362990   1.665358238824440 
  2.502415080044516   2.885221883827020   1.665498427585200 
  1.240923454498672   5.046309936704740   1.665068967002895 
 -0.017278172118608   7.225579080171752   1.665068967002895 
 -1.258089512961567   9.398606901009902   1.665498427585200 
 -2.506446000540643  11.566849243492914   1.665358238824440 
 -1.253980543775234  13.735270423249709   1.665235357097355 
  6.260130342562497   0.720448594405898   1.665235357097355 
  5.009564492768004   2.885221883827020   1.665498427585200 
  3.755989786406293   5.048317533643171   1.665219207742200 
  2.398142836663692   7.167276954153840   1.664654377520205 
  1.241993623775685   9.402686617352725   1.665219207742200 
 -0.004514806599851  11.569861983511807   1.665498427585200 
  1.248911171756634  13.739642892369538   1.665131952930030 
  8.763667469503728   0.722659210640848   1.664890097434005 
  7.515362869663509   2.885830168418199   1.665131952930030 
  6.271056118313932   5.046309936704740   1.665068967002895 
  5.113836736148939   7.167276954153840   1.664654377520205 
  3.755989786397571   9.519136860025716   1.664654377520205 
  2.497788159780244  11.581801751457009   1.665068967002895 
  3.753260207477405  13.738638193280522   1.664993350157910 
 11.267294219164778   0.723949515236947   1.665280137000255 
 10.016402947163435   2.890556753087808   1.665280137000255 
  8.763949999999962   5.059868891664398   1.664993350157910 
  7.529257744931260   7.225579080171752   1.665068967002895 
  6.269985949019468   9.402686617352725   1.665219207742200 
  5.014191413014853  11.581801751457009   1.665068967002895 
  6.263068401056089  13.739642892369538   1.665131952930030 
 13.772224686170269   0.723949515236947   1.665280137000255 
 12.519954786406029   2.891352704197829   1.665481578605130 
 11.268880467005452   5.059868891664398   1.665280137000255 
 10.022441484322075   7.228217707545764   1.665131952930030 
  8.770069085774281   9.398606901009902   1.665498427585200 
  7.516494379412508  11.569861983511807   1.665498427585200 
