 N S B 
 1.0
 17.527899999999772   0.000000000000000   0.000000000000000
 -8.763949999999658  15.179606674993195   0.000000000000000
  0.000000000000001   0.000000000000002  15.000000000000000
 N S B 
  48   1  48
Cartesian
  8.791576580873329  13.712135374072078   1.660520066532120 
 16.331872405198382   0.719901241233053   1.661468328134820 
 15.092151117832172   2.894354119937720   1.661301183081135 
 13.832847379467783   5.059868891664398   1.659812815810365 
 12.549380260974770   7.226053275052959   1.660108168692510 
 11.276918940868876   9.390729779947936   1.661325866579070 
 10.024457359937415  11.547782308398720   1.660354146707820 
 -6.238184451239329  13.731779746307309   1.659706232665995 
  1.303177793249061   0.727471795227306   1.660209547949235 
  0.065511212442350   2.896393099351933   1.661666648221755 
 -1.190939344044081   5.072558403244386   1.661405540302560 
 -2.502977983376875   7.238126016021099   1.659826861462605 
 -3.755735356954250   9.408978940383866   1.660691543887320 
 -5.002711105843035  11.570367679864328   1.660313480214345 
 -3.737703472936857  13.745557348168269   1.659915522707175 
  3.800078960352080   0.727364531452770   1.659717923728515 
  2.592500714479000   2.918025251739630   1.661261823176970 
  1.327245343374582   5.063021181186610   1.662719071779885 
 -0.047335275339343   7.257013504980598   1.661099678260080 
 -1.268732348189835   9.435529805093529   1.661050863191820 
 -2.504577624005069  11.591965769929136   1.661323821077160 
 -1.232763868981762  13.764725131562875   1.661748024295020 
  6.308153148539218   0.724714747525320   1.660770908939010 
  5.099444806228451   2.874342675730267   1.660149177151905 
  3.972115226945643   5.081409868004154   1.662321056376645 
  1.200668014172604   9.534433558302185   1.660095636294945 
 -0.009611709460953  11.637872784389243   1.661542768202265 
  1.282202235394583  13.773933629832134   1.660880120529975 
  8.819196336408144   0.729245424148360   1.661448118404255 
  7.598035158077443   2.868883455359230   1.660792697439735 
  6.400201803277271   5.014714150750708   1.660891235639205 
  3.894257943408665   8.226404316533101   1.666690355718420 
  3.723402139676703   9.538787125445918   1.660631340968265 
  2.507849270944582  11.642827635050068   1.659830410083870 
  3.802568799660420  13.747363008301209   1.660539361412250 
 11.331259074944423   0.726434095259642   1.660411764184455 
 10.098476565601826   2.875117277053853   1.660390521013140 
  8.875705946018680   5.020959155573175   1.660341485233005 
  7.583122523244479   7.165349934844737   1.661278648144740 
  6.213181353927441   9.245897806758942   1.660897531954545 
  5.040695777670331  11.567908721861864   1.660035581903025 
  6.304602423648412  13.725131642231057   1.661078821152135 
 13.834426393581808   0.722765639245629   1.661257122469500 
 12.593391160151644   2.886591479861619   1.660433545186305 
 11.345836288343357   5.047294857758794   1.659752135697465 
 10.065092006670483   7.209317852129268   1.660775049625500 
  8.768460433746824   9.360519545139713   1.661217277321020 
  7.513346420142796  11.503715348578742   1.660281131286285 
  2.589051116665956   7.344854270663692   1.664913098671155 
  7.555050632010547  14.449430680115537   1.661443628286810 
 15.085894876853240   1.446278768975739   1.661678004309435 
 13.838819091995354   3.613414926080901   1.660685194598655 
 12.579416465782142   5.780240807648328   1.659839294527740 
 11.295589784293178   7.944252828936180   1.661246637093600 
 10.015695618071405  10.100134239288934   1.661343297721110 
  8.768254825942996  12.251989759626692   1.660461240187200 
 -7.483819628813492  14.452720580961948   1.660261777428120 
  0.055429452561766   1.446976987647929   1.661368523826675 
 -1.186678756362303   3.619649828565461   1.662043253777085 
 -2.457805583833439   5.790968257401598   1.660462675859985 
 -3.749647313547851   7.962098012629027   1.660257503329740 
 -5.008639748906694  10.124980351132931   1.661120590358325 
 -6.254387897407828  12.284667058861007   1.660289687897640 
 -4.986387857152529  14.463323765635025   1.659929750185365 
  2.561618683307898   1.464329571204857   1.660396849533810 
  1.321875342940257   3.614498067182067   1.662185949724095 
  0.049270177480893   5.804638548689113   1.662086594244090 
 -1.284376679637220   7.978667817076845   1.660685526535365 
 -2.517928530328275  10.147941204951302   1.661385947067900 
 -3.755646188484123  12.303864203183281   1.660579248797205 
 -2.483302627013347  14.471008703872583   1.660926812661015 
  5.062274195793337   1.439957488112170   1.660351682802945 
  3.890177389199783   3.630770238774091   1.661577515561895 
  2.673165536259206   5.630427072356958   1.663380462305040 
  1.083609308014149   8.124970156054275   1.662264379819035 
 -0.049871688175663  10.216333302742685   1.661185735362885 
 -1.262067734142585  12.334457385188355   1.662206458370835 
  0.028679826655980  14.479681931257231   1.661739378481080 
  7.569294253678585   1.439259923993257   1.661693444330820 
  6.355429634845966   3.587647816533445   1.660557748598655 
  5.285108470664543   5.895114272285343   1.661660035678770 
  2.447400150537538  10.232331160326202   1.659802081811520 
  1.254230030654401  12.350129074672184   1.661073187126230 
  2.550478922402764  14.471567074372166   1.660706686325145 
 10.079751171776953   1.440582657993457   1.660839007568190 
  8.851047666760993   3.587010768160543   1.660758089190900 
  7.642320213439211   5.728961141248494   1.661185641232755 
  6.232390713452455   7.673757391043670   1.661389008235695 
  5.060721119861997  10.126485123090324   1.660808582246310 
  3.791015881603624  12.312245740030621   1.660479855333870 
  5.061570683044462  14.458764500542289   1.661300002952835 
 12.585081725175364   1.444901262812019   1.660902311793375 
 11.343021034252869   3.604845519359174   1.660313265869625 
 10.098346795936383   5.766107312966190   1.660373415042120 
  8.801277444521853   7.916795347161447   1.661480595909225 
  7.482284740149552  10.022785701100574   1.660914103925415 
  6.296884221874845  12.276072915197650   1.660407229833690 
