Species order: X N B                    
   2.51242800000000     
     5.9449720136058266    0.0000000000000000    0.0000000000000000
    -2.9724860068029120    5.1484967885702053   -0.0000000000000001
     0.0000000000000000    0.0000000000000009    5.3101128803662583
   Ga   N    B 
     1   144   143
Direct
  0.4444444444444429  0.3888888888888857  0.3750000000000000
  0.1110979474399665  0.0555443115237409  0.1226365276542656
  0.6111248310639082  0.5555727108909346  0.1233766837066595
  0.4444463640837951  0.0555443115237409  0.1226365276542654
  0.9444481059423045  0.5555573472603900  0.1228809660117678
  0.7777777777777786  0.0555555555555571  0.1227491302755674
  0.1111111111111143  0.7222222222222214  0.6269338081198360
  0.4444463640837951  0.7222353858933795  0.6273634723457199
  0.2777606224424212  0.2222085022694490  0.6266233162933292
  0.7777890218095365  0.7222353858933795  0.6273634723457436
  0.6111146969962040  0.2222186363371484  0.6272984820345856
  0.9444411713845808  0.2222214311294142  0.6273271854948107
  0.2777759860730271  0.7222240920153198  0.1228809660117678
  0.1111039393409617  0.2222186363371484  0.1227015179654366
  0.4444478798270299  0.2222085022694490  0.1233766837066595
  0.6111146969962040  0.7222293939923423  0.1227015179654369
  0.9444481059423045  0.7222240920153198  0.1228809660117679
  0.7777802597448448  0.2222214311294142  0.1226728145052038
  0.1111092413180534  0.8888852273910240  0.6271190339882801
  0.4444460818838631  0.8888897076086012  0.6272533196190625
  0.2777606224424212  0.3888854535062987  0.6266233162933292
  0.6111248310639082  0.3888854535062987  0.6266233162933292
  0.7777802597448448  0.8888921619487478  0.6273271854948107
  0.9444436257247274  0.3888872514494655  0.6272533196190625
  0.1110979474399706  0.3888869692495335  0.1226365276542656
  0.2777759860730271  0.8888852273910240  0.1228809660117729
  0.6111119022039362  0.8888921619487478  0.1226728145052038
  0.4444444444444429  0.3888888888888857  0.1272176146065608
  0.9444436257247274  0.8888897076086012  0.1227466803809518
  0.7777890218095365  0.3888869692495335  0.1226365276542656
  0.2777735684898170  0.5555597648435184  0.6271965285979367
  0.1110979474399665  0.0555443115237409  0.6273634723457199
  0.6111248310639082  0.5555727108909346  0.6266233162933292
  0.4444463640837951  0.0555443115237409  0.6273634723457199
  0.9444481059423045  0.5555573472603900  0.6271190339882801
  0.1111092413180534  0.5555573472603900  0.1228809660117729
  0.7777777777777786  0.0555555555555571  0.6272508697243884
  0.2777735684898170  0.0555471369796600  0.1228034714020586
  0.4444478798270299  0.5555727108909346  0.1233766837066621
  0.7777861963537017  0.5555597648435184  0.1228034714020586
  0.6111119022039362  0.0555530735885187  0.1226728145052038
  0.4444478798270299  0.5555727108909346  0.6266233162933292
  0.9444411713845808  0.0555530735885187  0.1226728145052038
  0.2777759860730271  0.7222240920153198  0.6271190339882801
  0.1111039393409617  0.2222186363371484  0.6272984820345856
  0.4444478798270299  0.2222085022694490  0.6266233162933292
  0.6111146969962040  0.7222293939923607  0.6272984820345856
  0.9444481059423045  0.7222240920153198  0.6271190339882801
  0.7777802597448108  0.2222214311294142  0.6273271854948107
  0.1111111111111143  0.7222222222222214  0.1230661918801451
  0.4444463640837951  0.7222353858933795  0.1226365276542656
  0.2777606224424212  0.2222085022694490  0.1233766837066595
  0.7777890218095365  0.7222353858933795  0.1226365276542656
  0.6111146969962040  0.2222186363371484  0.1227015179654369
  0.9444411713845808  0.2222214311294142  0.1226728145052038
  0.1110979474399706  0.3888869692495335  0.6273634723457199
  0.2777759860730271  0.8888852273910240  0.6271190339882801
  0.6111119022039362  0.8888921619487478  0.6273271854948107
  0.4444444444444429  0.3888888888888857  0.6227823853934547
  0.9444436257247274  0.8888897076086012  0.6272533196190625
  0.1111092413180534  0.8888852273910240  0.1228809660117729
  0.7777890218095365  0.3888869692495335  0.6273634723457199
  0.4444460818838631  0.8888897076086012  0.1227466803809518
  0.2777606224424212  0.3888854535062987  0.1233766837066595
  0.2777735684898170  0.5555597648435184  0.1228034714020586
  0.6111248310639082  0.3888854535062987  0.1233766837066595
  0.7777802597448448  0.8888921619487478  0.1226728145052038
  0.9444436257247274  0.3888872514494655  0.1227466803809518
  0.1111092413180534  0.5555573472603900  0.6271190339882801
  0.2777735684898170  0.0555471369796599  0.6271965285979367
  0.7777861963537017  0.5555597648435184  0.6271965285979367
  0.6111119022039362  0.0555530735885187  0.6273271854948107
  0.9444411713845808  0.0555530735885187  0.6273271854948107
  0.0544635363631005  0.1103739017969486  0.3750000000000000
  0.5561126333697142  0.6122252667394378  0.3750000000000000
  0.3877363282448471  0.1046270671250426  0.3750000000000000
  0.8910958025510823  0.6122145679422853  0.3750000000000000
  0.7224177113331988  0.1109156220001164  0.3750000000000000
  0.0555550191697723  0.7777783141635313  0.8750000000000000
  0.3888894633436583  0.7777798898754509  0.8750000000000000
  0.2222207822295464  0.2777770577814679  0.8750000000000000
  0.7222251933528080  0.7777811520650594  0.8750000000000000
  0.5555562755518786  0.2777770577814679  0.8750000000000000
  0.8888899280596602  0.2777798561193155  0.8750000000000000
  0.2217970703281798  0.7775652018307798  0.3750000000000000
  0.0544635363631005  0.2774229678994952  0.3750000000000000
  0.3778281899141394  0.2556563798283166  0.3750000000000000
  0.5559103654338371  0.7788697969702222  0.3750000000000000
  0.8907266621427409  0.7792450621068343  0.3750000000000000
  0.7229594315363658  0.2774229678994952  0.3750000000000000
  0.0555534434578818  0.9444429068015963  0.8750000000000000
  0.3888894633436583  0.9444429068015963  0.8750000000000000
  0.2222216353737270  0.4444415363758608  0.8750000000000000
  0.5555430315856277  0.4444381824594781  0.8750000000000000
  0.7222225591368178  0.9444451182736638  0.8750000000000000
  0.8888904265317323  0.4444438699896703  0.8750000000000000
  0.0540882712265048  0.4448149333692297  0.3750000000000000
  0.2211187653911056  0.9422375307822463  0.3750000000000000
  0.5558359915260286  0.9445846624296560  0.3750000000000000
  0.3778281899141394  0.4555051434191892  0.3750000000000000
  0.8887486709036726  0.9445846624296560  0.3750000000000000
  0.7287062662082709  0.4455970050884815  0.3750000000000000
  0.2222230908704816  0.6111102424627831  0.8750000000000000
  0.0555521812682266  0.1111081399805051  0.8750000000000000
  0.5555562755518786  0.6111125511037356  0.8750000000000000
  0.3888917969574678  0.1111134323311719  0.8750000000000000
  0.8888871515923255  0.6111102424627831  0.8750000000000000
  0.0557681315025768  0.6115362630052038  0.3750000000000000
  0.7222225591368178  0.1111107741965051  0.8750000000000000
  0.2168907388801779  0.1046270671250426  0.3750000000000000
  0.3877363282448471  0.6164425944531862  0.3750000000000000
  0.7287062662082709  0.6164425944531862  0.3750000000000000
  0.5559103654338371  0.1103739017969486  0.3750000000000000
  0.3888917969574678  0.6111116979596192  0.8750000000000000
  0.8884979106668934  0.1109156220001164  0.3750000000000000
  0.2222232949937943  0.7777783141635313  0.8750000000000000
  0.0555521812682266  0.2777773746210682  0.8750000000000000
  0.3888951508738505  0.2777903017477054  0.8750000000000000
  0.5555559587123163  0.7777811520650594  0.8750000000000000
  0.8888904265317323  0.7777798898754509  0.8750000000000000
  0.7222251933528080  0.2777773746210682  0.8750000000000000
  0.0557681315025768  0.7775652018307798  0.3750000000000000
  0.3885183999640989  0.7792450621068343  0.3750000000000000
  0.2211080665938935  0.2772206999636169  0.3750000000000000
  0.7229594315363658  0.7788697969702222  0.3750000000000000
  0.5561126333697142  0.2772206999636166  0.3750000000000000
  0.8887486709036726  0.2774973418073529  0.3750000000000000
  0.0555534434578818  0.4444438699896703  0.8750000000000000
  0.2222230908704816  0.9444461817410031  0.8750000000000000
  0.5555534772140382  0.9444434052736684  0.8750000000000000
  0.3888951508738505  0.4444381824594781  0.8750000000000000
  0.8888899280596602  0.9444434052736684  0.8750000000000000
  0.0540882712265048  0.9426066711905877  0.3750000000000000
  0.7222199010021452  0.4444415363758608  0.8750000000000000
  0.3885183999640989  0.9426066711905877  0.3750000000000000
  0.2168907388801779  0.4455970050884815  0.3750000000000000
  0.2211187653911056  0.6122145679422853  0.3750000000000000
  0.5776769535050499  0.4555051434191892  0.3750000000000000
  0.7224177113331988  0.9448354226664352  0.3750000000000000
  0.8907266621427409  0.4448149333692297  0.3750000000000000
  0.0555550191697723  0.6111100383395629  0.8750000000000000
  0.2222216353737268  0.1111134323311719  0.8750000000000000
  0.7222199010021452  0.6111116979596192  0.8750000000000000
  0.5555559587123163  0.1111081399805051  0.8750000000000000
  0.8888882150596648  0.1111107741965051  0.8750000000000000
  0.1076402896121472  0.0523332554640436  0.3750000000000000
  0.6192544434875279  0.5624588614665693  0.3750000000000000
  0.4446929658519300  0.0523332554640371  0.3750000000000000
  0.9454185496147142  0.5558219789342619  0.3750000000000000
  0.7777777777777786  0.0555555555555571  0.3750000000000000
  0.1111111111111143  0.7222222222222214  0.8750000000000000
  0.4444501151912045  0.7222333786585030  0.8750000000000000
  0.2777587041143810  0.2222109993907872  0.8750000000000000
  0.7777832634672647  0.7222333786585030  0.8750000000000000
  0.6111204396189257  0.2222128937143935  0.8750000000000000
  0.9444370180767787  0.2222174394261219  0.8750000000000000
  0.2775113543990572  0.7229299040137768  0.3750000000000000
  0.1100794462219938  0.2217063897776517  0.3750000000000000
  0.4432044179790299  0.2140788898457971  0.3750000000000000
  0.6116269435557321  0.7232538871113072  0.3750000000000000
  0.9454185496147142  0.7229299040137768  0.3750000000000000
  0.7779235180184396  0.2217534796747813  0.3750000000000000
  0.1111086031307484  0.8888887610871499  0.8750000000000000
  0.4444496572936710  0.8888914953134753  0.8750000000000000
  0.2777587041143810  0.3888810380568693  0.8750000000000000
  0.6111223339425301  0.3888810380568693  0.8750000000000000
  0.7777804213494171  0.8888963152565499  0.8750000000000000
  0.9444418380198533  0.3888836760396576  0.8750000000000000
  0.1076402896121472  0.3886403674813986  0.3750000000000000
  0.2775113543990572  0.8879147837186144  0.3750000000000000
  0.6115798536586310  0.8895033716770068  0.3750000000000000
  0.9442804520466599  0.8890528812866687  0.3750000000000000
  0.7810000778692625  0.3886403674813986  0.3750000000000000
  0.2777756920324687  0.5555576413008660  0.8750000000000000
  0.1110999546748251  0.0555500698660696  0.8750000000000000
  0.6111223339425301  0.5555746292189896  0.8750000000000000
  0.4444501151912045  0.0555500698660696  0.8750000000000000
  0.9444445722461787  0.5555531753770028  0.8750000000000000
  0.1104034293195417  0.5558219789342619  0.3750000000000000
  0.7777777777777786  0.0555555555555571  0.8750000000000000
  0.2761240143094330  0.0522480286188926  0.3750000000000000
  0.4432044179790300  0.5624588614665693  0.3750000000000000
  0.7810853047144697  0.5572093190238919  0.3750000000000000
  0.6115798536586310  0.0554098153149195  0.3750000000000000
  0.4444522952764593  0.5555746292189896  0.8750000000000000
  0.9438299616563218  0.0554098153149195  0.3750000000000000
  0.2777801579563666  0.7222247302026142  0.8750000000000000
  0.1110924540954367  0.2222128937143935  0.8750000000000000
  0.4444522952764593  0.2222109993907872  0.8750000000000000
  0.6111204396189257  0.7222408792379390  0.8750000000000000
  0.9444445722461787  0.7222247302026142  0.8750000000000000
  0.7777804213494171  0.2222174394261219  0.8750000000000000
  0.1111111111111143  0.7222222222222214  0.3750000000000000
  0.4446929658519300  0.7256930437212060  0.3750000000000000
  0.2708744718667742  0.2140788898457971  0.3750000000000000
  0.7810000778692974  0.7256930437212060  0.3750000000000000
  0.6116269435557321  0.2217063897776506  0.3750000000000000
  0.9438299616563218  0.2217534796747813  0.3750000000000000
  0.1110999546748251  0.3888832181421241  0.8750000000000000
  0.2777801579563666  0.8888887610871499  0.8750000000000000
  0.6111158939072128  0.8888963152565499  0.8750000000000000
  0.4444444444444429  0.3888888888888857  0.8750000000000000
  0.9444418380198533  0.8888914953134753  0.8750000000000000
  0.1104034293195515  0.8879147837186144  0.3750000000000000
  0.7777832634672647  0.3888832181421241  0.8750000000000000
  0.4447724292399855  0.8890528812866687  0.3750000000000000
  0.2708744718667742  0.3901289153542986  0.3750000000000000
  0.2761240143094330  0.5572093190238919  0.3750000000000000
  0.6192544434875283  0.3901289153542986  0.3750000000000000
  0.7779235180183844  0.8895033716770068  0.3750000000000000
  0.9442804520466599  0.3885609040933431  0.3750000000000000
  0.1111086031307484  0.5555531753770028  0.8750000000000000
  0.2777756920324687  0.0555513840649197  0.8750000000000000
  0.7777819492683984  0.5555576413008660  0.8750000000000000
  0.6111158939072128  0.0555529119840036  0.8750000000000000
  0.9444370180767787  0.0555529119840036  0.8750000000000000
  0.0555326761147276  0.1110931029505443  0.1227323295768029
  0.5555863784870123  0.6111727569740575  0.1232604665498911
  0.3888642818223280  0.1110403742541999  0.1229536958013098
  0.8889130766132283  0.6111232049733348  0.1229025860801492
  0.7222251397073720  0.1111081936258832  0.1227792778102722
  0.0555568089664437  0.7777765243668774  0.6269745597671272
  0.3888879843538665  0.7777914728113217  0.6271908630384009
  0.2221605763592990  0.2777469548463070  0.6267395334501072
  0.7222402303828133  0.7778006572186413  0.6272676704231924
  0.5555863784870123  0.2777469548463070  0.6267395334501072
  0.8888865349750635  0.2777730699501674  0.6272335037885804
  0.2222197154004511  0.7777765243668774  0.1230254402329390
  0.0555326761147276  0.2777729064975087  0.1227323295768029
  0.3887646582450721  0.2775293164901145  0.1246093800336372
  0.5555604268358071  0.7778006572186413  0.1227323295768029
  0.8889034884575507  0.7777914728113217  0.1228091369616383
  0.7222402303828133  0.2777729064975087  0.1227323295767979
  0.0555418605219464  0.9444298448757779  0.6271908630384009
  0.3888879843538665  0.9444298448757779  0.6271908630384009
  0.2221760924318506  0.4444690515110006  0.6270463041987434
  0.5558040168431844  0.4445686750882565  0.6253906199664079
  0.7222251397073720  0.9444502794149606  0.6272207221897738
  0.8889034884575507  0.4444453489794621  0.6271908630384009
  0.0555418605219464  0.4444453489794622  0.1228091369616383
  0.2222101283600236  0.9444202567201003  0.1229025860801550
  0.5555602633832102  0.9444467983582651  0.1227664962114821
  0.3887646582450721  0.4445686750882565  0.1246093800336372
  0.8888865349750635  0.9444467983582651  0.1227664962114821
  0.7222929590791389  0.4444690515110006  0.1229536958013170
  0.2222101283600236  0.6111232049733348  0.6270974139198630
  0.0555326761147276  0.1110931029505443  0.6272676704231924
  0.5555863784870123  0.6111727569740575  0.6267395334501072
  0.3888642818223280  0.1110403742541999  0.6270463041987434
  0.8889130766132283  0.6111232049733348  0.6270974139198630
  0.0555568089664437  0.6111136179328206  0.1230254402329418
  0.7222251397073720  0.1111081936258832  0.6272207221897738
  0.2221760924318506  0.1110403742541999  0.1229536958013170
  0.3888642818223280  0.6111572409014692  0.1229536958013101
  0.7222929590791389  0.6111572409014692  0.1229536958013101
  0.5555604268358071  0.1110931029505443  0.1227323295768029
  0.3888642818223280  0.6111572409014692  0.6270463041987434
  0.8888830539183680  0.1111081936258832  0.1227792778102765
  0.2222197154004511  0.7777765243668774  0.6269745597671272
  0.0555326761147276  0.2777729064975087  0.6272676704231924
  0.3887646582450721  0.2775293164901145  0.6253906199664080
  0.5555604268358071  0.7778006572186413  0.6272676704231924
  0.8889034884575507  0.7777914728113217  0.6271908630384009
  0.7222402303828133  0.2777729064975087  0.6272676704231924
  0.0555568089664437  0.7777765243668774  0.1230254402329424
  0.3888879843538665  0.7777914728113217  0.1228091369616383
  0.2221605763592990  0.2777469548463070  0.1232604665498911
  0.7222402303828133  0.7778006572186413  0.1227323295768020
  0.5555863784870123  0.2777469548463070  0.1232604665498911
  0.8888865349750635  0.2777730699501674  0.1227664962114821
  0.0555418605219464  0.4444453489794621  0.6271908630384009
  0.2222101283600236  0.9444202567201003  0.6270974139198436
  0.5555602633832102  0.9444467983582651  0.6272335037885804
  0.3887646582450721  0.4445686750882565  0.6253906199664080
  0.8888865349750635  0.9444467983582651  0.6272335037885804
  0.0555418605219464  0.9444298448757779  0.1228091369616383
  0.7222929590791389  0.4444690515110006  0.6270463041987434
  0.3888879843538665  0.9444298448757779  0.1228091369616383
  0.2221760924318506  0.4444690515110006  0.1229536958013133
  0.2222101283600236  0.6111232049733348  0.1229025860801493
  0.5558040168431844  0.4445686750882565  0.1246093800336381
  0.7222251397073720  0.9444502794149606  0.1227792778102765
  0.8889034884575507  0.4444453489794622  0.1228091369616383
  0.0555568089664437  0.6111136179328206  0.6269745597671272
  0.2221760924318506  0.1110403742542000  0.6270463041987434
  0.7222929590791389  0.6111572409014692  0.6270463041987434
  0.5555604268358071  0.1110931029505443  0.6272676704231924
  0.8888830539183680  0.1111081936258832  0.6272207221897738
 
  0.00000000E+00  0.00000000E+00  0.00000000E+00
  0.00000000E+00  0.00000000E+00  0.00000000E+00
  0.00000000E+00  0.00000000E+00  0.00000000E+00
  0.00000000E+00  0.00000000E+00  0.00000000E+00
  0.00000000E+00  0.00000000E+00  0.00000000E+00
  0.00000000E+00  0.00000000E+00  0.00000000E+00
  0.00000000E+00  0.00000000E+00  0.00000000E+00
  0.00000000E+00  0.00000000E+00  0.00000000E+00
  0.00000000E+00  0.00000000E+00  0.00000000E+00
  0.00000000E+00  0.00000000E+00  0.00000000E+00
  0.00000000E+00  0.00000000E+00  0.00000000E+00
  0.00000000E+00  0.00000000E+00  0.00000000E+00
  0.00000000E+00  0.00000000E+00  0.00000000E+00
  0.00000000E+00  0.00000000E+00  0.00000000E+00
  0.00000000E+00  0.00000000E+00  0.00000000E+00
  0.00000000E+00  0.00000000E+00  0.00000000E+00
  0.00000000E+00  0.00000000E+00  0.00000000E+00
  0.00000000E+00  0.00000000E+00  0.00000000E+00
  0.00000000E+00  0.00000000E+00  0.00000000E+00
  0.00000000E+00  0.00000000E+00  0.00000000E+00
  0.00000000E+00  0.00000000E+00  0.00000000E+00
  0.00000000E+00  0.00000000E+00  0.00000000E+00
  0.00000000E+00  0.00000000E+00  0.00000000E+00
  0.00000000E+00  0.00000000E+00  0.00000000E+00
  0.00000000E+00  0.00000000E+00  0.00000000E+00
  0.00000000E+00  0.00000000E+00  0.00000000E+00
  0.00000000E+00  0.00000000E+00  0.00000000E+00
  0.00000000E+00  0.00000000E+00  0.00000000E+00
  0.00000000E+00  0.00000000E+00  0.00000000E+00
  0.00000000E+00  0.00000000E+00  0.00000000E+00
  0.00000000E+00  0.00000000E+00  0.00000000E+00
  0.00000000E+00  0.00000000E+00  0.00000000E+00
  0.00000000E+00  0.00000000E+00  0.00000000E+00
  0.00000000E+00  0.00000000E+00  0.00000000E+00
  0.00000000E+00  0.00000000E+00  0.00000000E+00
  0.00000000E+00  0.00000000E+00  0.00000000E+00
  0.00000000E+00  0.00000000E+00  0.00000000E+00
  0.00000000E+00  0.00000000E+00  0.00000000E+00
  0.00000000E+00  0.00000000E+00  0.00000000E+00
  0.00000000E+00  0.00000000E+00  0.00000000E+00
  0.00000000E+00  0.00000000E+00  0.00000000E+00
  0.00000000E+00  0.00000000E+00  0.00000000E+00
  0.00000000E+00  0.00000000E+00  0.00000000E+00
  0.00000000E+00  0.00000000E+00  0.00000000E+00
  0.00000000E+00  0.00000000E+00  0.00000000E+00
  0.00000000E+00  0.00000000E+00  0.00000000E+00
  0.00000000E+00  0.00000000E+00  0.00000000E+00
  0.00000000E+00  0.00000000E+00  0.00000000E+00
  0.00000000E+00  0.00000000E+00  0.00000000E+00
  0.00000000E+00  0.00000000E+00  0.00000000E+00
  0.00000000E+00  0.00000000E+00  0.00000000E+00
  0.00000000E+00  0.00000000E+00  0.00000000E+00
  0.00000000E+00  0.00000000E+00  0.00000000E+00
  0.00000000E+00  0.00000000E+00  0.00000000E+00
  0.00000000E+00  0.00000000E+00  0.00000000E+00
  0.00000000E+00  0.00000000E+00  0.00000000E+00
  0.00000000E+00  0.00000000E+00  0.00000000E+00
  0.00000000E+00  0.00000000E+00  0.00000000E+00
  0.00000000E+00  0.00000000E+00  0.00000000E+00
  0.00000000E+00  0.00000000E+00  0.00000000E+00
  0.00000000E+00  0.00000000E+00  0.00000000E+00
  0.00000000E+00  0.00000000E+00  0.00000000E+00
  0.00000000E+00  0.00000000E+00  0.00000000E+00
  0.00000000E+00  0.00000000E+00  0.00000000E+00
  0.00000000E+00  0.00000000E+00  0.00000000E+00
  0.00000000E+00  0.00000000E+00  0.00000000E+00
  0.00000000E+00  0.00000000E+00  0.00000000E+00
  0.00000000E+00  0.00000000E+00  0.00000000E+00
  0.00000000E+00  0.00000000E+00  0.00000000E+00
  0.00000000E+00  0.00000000E+00  0.00000000E+00
  0.00000000E+00  0.00000000E+00  0.00000000E+00
  0.00000000E+00  0.00000000E+00  0.00000000E+00
  0.00000000E+00  0.00000000E+00  0.00000000E+00
  0.00000000E+00  0.00000000E+00  0.00000000E+00
  0.00000000E+00  0.00000000E+00  0.00000000E+00
  0.00000000E+00  0.00000000E+00  0.00000000E+00
  0.00000000E+00  0.00000000E+00  0.00000000E+00
  0.00000000E+00  0.00000000E+00  0.00000000E+00
  0.00000000E+00  0.00000000E+00  0.00000000E+00
  0.00000000E+00  0.00000000E+00  0.00000000E+00
  0.00000000E+00  0.00000000E+00  0.00000000E+00
  0.00000000E+00  0.00000000E+00  0.00000000E+00
  0.00000000E+00  0.00000000E+00  0.00000000E+00
  0.00000000E+00  0.00000000E+00  0.00000000E+00
  0.00000000E+00  0.00000000E+00  0.00000000E+00
  0.00000000E+00  0.00000000E+00  0.00000000E+00
  0.00000000E+00  0.00000000E+00  0.00000000E+00
  0.00000000E+00  0.00000000E+00  0.00000000E+00
  0.00000000E+00  0.00000000E+00  0.00000000E+00
  0.00000000E+00  0.00000000E+00  0.00000000E+00
  0.00000000E+00  0.00000000E+00  0.00000000E+00
  0.00000000E+00  0.00000000E+00  0.00000000E+00
  0.00000000E+00  0.00000000E+00  0.00000000E+00
  0.00000000E+00  0.00000000E+00  0.00000000E+00
  0.00000000E+00  0.00000000E+00  0.00000000E+00
  0.00000000E+00  0.00000000E+00  0.00000000E+00
  0.00000000E+00  0.00000000E+00  0.00000000E+00
  0.00000000E+00  0.00000000E+00  0.00000000E+00
  0.00000000E+00  0.00000000E+00  0.00000000E+00
  0.00000000E+00  0.00000000E+00  0.00000000E+00
  0.00000000E+00  0.00000000E+00  0.00000000E+00
  0.00000000E+00  0.00000000E+00  0.00000000E+00
  0.00000000E+00  0.00000000E+00  0.00000000E+00
  0.00000000E+00  0.00000000E+00  0.00000000E+00
  0.00000000E+00  0.00000000E+00  0.00000000E+00
  0.00000000E+00  0.00000000E+00  0.00000000E+00
  0.00000000E+00  0.00000000E+00  0.00000000E+00
  0.00000000E+00  0.00000000E+00  0.00000000E+00
  0.00000000E+00  0.00000000E+00  0.00000000E+00
  0.00000000E+00  0.00000000E+00  0.00000000E+00
  0.00000000E+00  0.00000000E+00  0.00000000E+00
  0.00000000E+00  0.00000000E+00  0.00000000E+00
  0.00000000E+00  0.00000000E+00  0.00000000E+00
  0.00000000E+00  0.00000000E+00  0.00000000E+00
  0.00000000E+00  0.00000000E+00  0.00000000E+00
  0.00000000E+00  0.00000000E+00  0.00000000E+00
  0.00000000E+00  0.00000000E+00  0.00000000E+00
  0.00000000E+00  0.00000000E+00  0.00000000E+00
  0.00000000E+00  0.00000000E+00  0.00000000E+00
  0.00000000E+00  0.00000000E+00  0.00000000E+00
  0.00000000E+00  0.00000000E+00  0.00000000E+00
  0.00000000E+00  0.00000000E+00  0.00000000E+00
  0.00000000E+00  0.00000000E+00  0.00000000E+00
  0.00000000E+00  0.00000000E+00  0.00000000E+00
  0.00000000E+00  0.00000000E+00  0.00000000E+00
  0.00000000E+00  0.00000000E+00  0.00000000E+00
  0.00000000E+00  0.00000000E+00  0.00000000E+00
  0.00000000E+00  0.00000000E+00  0.00000000E+00
  0.00000000E+00  0.00000000E+00  0.00000000E+00
  0.00000000E+00  0.00000000E+00  0.00000000E+00
  0.00000000E+00  0.00000000E+00  0.00000000E+00
  0.00000000E+00  0.00000000E+00  0.00000000E+00
  0.00000000E+00  0.00000000E+00  0.00000000E+00
  0.00000000E+00  0.00000000E+00  0.00000000E+00
  0.00000000E+00  0.00000000E+00  0.00000000E+00
  0.00000000E+00  0.00000000E+00  0.00000000E+00
  0.00000000E+00  0.00000000E+00  0.00000000E+00
  0.00000000E+00  0.00000000E+00  0.00000000E+00
  0.00000000E+00  0.00000000E+00  0.00000000E+00
  0.00000000E+00  0.00000000E+00  0.00000000E+00
  0.00000000E+00  0.00000000E+00  0.00000000E+00
  0.00000000E+00  0.00000000E+00  0.00000000E+00
  0.00000000E+00  0.00000000E+00  0.00000000E+00
  0.00000000E+00  0.00000000E+00  0.00000000E+00
  0.00000000E+00  0.00000000E+00  0.00000000E+00
  0.00000000E+00  0.00000000E+00  0.00000000E+00
  0.00000000E+00  0.00000000E+00  0.00000000E+00
  0.00000000E+00  0.00000000E+00  0.00000000E+00
  0.00000000E+00  0.00000000E+00  0.00000000E+00
  0.00000000E+00  0.00000000E+00  0.00000000E+00
  0.00000000E+00  0.00000000E+00  0.00000000E+00
  0.00000000E+00  0.00000000E+00  0.00000000E+00
  0.00000000E+00  0.00000000E+00  0.00000000E+00
  0.00000000E+00  0.00000000E+00  0.00000000E+00
  0.00000000E+00  0.00000000E+00  0.00000000E+00
  0.00000000E+00  0.00000000E+00  0.00000000E+00
  0.00000000E+00  0.00000000E+00  0.00000000E+00
  0.00000000E+00  0.00000000E+00  0.00000000E+00
  0.00000000E+00  0.00000000E+00  0.00000000E+00
  0.00000000E+00  0.00000000E+00  0.00000000E+00
  0.00000000E+00  0.00000000E+00  0.00000000E+00
  0.00000000E+00  0.00000000E+00  0.00000000E+00
  0.00000000E+00  0.00000000E+00  0.00000000E+00
  0.00000000E+00  0.00000000E+00  0.00000000E+00
  0.00000000E+00  0.00000000E+00  0.00000000E+00
  0.00000000E+00  0.00000000E+00  0.00000000E+00
  0.00000000E+00  0.00000000E+00  0.00000000E+00
  0.00000000E+00  0.00000000E+00  0.00000000E+00
  0.00000000E+00  0.00000000E+00  0.00000000E+00
  0.00000000E+00  0.00000000E+00  0.00000000E+00
  0.00000000E+00  0.00000000E+00  0.00000000E+00
  0.00000000E+00  0.00000000E+00  0.00000000E+00
  0.00000000E+00  0.00000000E+00  0.00000000E+00
  0.00000000E+00  0.00000000E+00  0.00000000E+00
  0.00000000E+00  0.00000000E+00  0.00000000E+00
  0.00000000E+00  0.00000000E+00  0.00000000E+00
  0.00000000E+00  0.00000000E+00  0.00000000E+00
  0.00000000E+00  0.00000000E+00  0.00000000E+00
  0.00000000E+00  0.00000000E+00  0.00000000E+00
  0.00000000E+00  0.00000000E+00  0.00000000E+00
  0.00000000E+00  0.00000000E+00  0.00000000E+00
  0.00000000E+00  0.00000000E+00  0.00000000E+00
  0.00000000E+00  0.00000000E+00  0.00000000E+00
  0.00000000E+00  0.00000000E+00  0.00000000E+00
  0.00000000E+00  0.00000000E+00  0.00000000E+00
  0.00000000E+00  0.00000000E+00  0.00000000E+00
  0.00000000E+00  0.00000000E+00  0.00000000E+00
  0.00000000E+00  0.00000000E+00  0.00000000E+00
  0.00000000E+00  0.00000000E+00  0.00000000E+00
  0.00000000E+00  0.00000000E+00  0.00000000E+00
  0.00000000E+00  0.00000000E+00  0.00000000E+00
  0.00000000E+00  0.00000000E+00  0.00000000E+00
  0.00000000E+00  0.00000000E+00  0.00000000E+00
  0.00000000E+00  0.00000000E+00  0.00000000E+00
  0.00000000E+00  0.00000000E+00  0.00000000E+00
  0.00000000E+00  0.00000000E+00  0.00000000E+00
  0.00000000E+00  0.00000000E+00  0.00000000E+00
  0.00000000E+00  0.00000000E+00  0.00000000E+00
  0.00000000E+00  0.00000000E+00  0.00000000E+00
  0.00000000E+00  0.00000000E+00  0.00000000E+00
  0.00000000E+00  0.00000000E+00  0.00000000E+00
  0.00000000E+00  0.00000000E+00  0.00000000E+00
  0.00000000E+00  0.00000000E+00  0.00000000E+00
  0.00000000E+00  0.00000000E+00  0.00000000E+00
  0.00000000E+00  0.00000000E+00  0.00000000E+00
  0.00000000E+00  0.00000000E+00  0.00000000E+00
  0.00000000E+00  0.00000000E+00  0.00000000E+00
  0.00000000E+00  0.00000000E+00  0.00000000E+00
  0.00000000E+00  0.00000000E+00  0.00000000E+00
  0.00000000E+00  0.00000000E+00  0.00000000E+00
  0.00000000E+00  0.00000000E+00  0.00000000E+00
  0.00000000E+00  0.00000000E+00  0.00000000E+00
  0.00000000E+00  0.00000000E+00  0.00000000E+00
  0.00000000E+00  0.00000000E+00  0.00000000E+00
  0.00000000E+00  0.00000000E+00  0.00000000E+00
  0.00000000E+00  0.00000000E+00  0.00000000E+00
  0.00000000E+00  0.00000000E+00  0.00000000E+00
  0.00000000E+00  0.00000000E+00  0.00000000E+00
  0.00000000E+00  0.00000000E+00  0.00000000E+00
  0.00000000E+00  0.00000000E+00  0.00000000E+00
  0.00000000E+00  0.00000000E+00  0.00000000E+00
  0.00000000E+00  0.00000000E+00  0.00000000E+00
  0.00000000E+00  0.00000000E+00  0.00000000E+00
  0.00000000E+00  0.00000000E+00  0.00000000E+00
  0.00000000E+00  0.00000000E+00  0.00000000E+00
  0.00000000E+00  0.00000000E+00  0.00000000E+00
  0.00000000E+00  0.00000000E+00  0.00000000E+00
  0.00000000E+00  0.00000000E+00  0.00000000E+00
  0.00000000E+00  0.00000000E+00  0.00000000E+00
  0.00000000E+00  0.00000000E+00  0.00000000E+00
  0.00000000E+00  0.00000000E+00  0.00000000E+00
  0.00000000E+00  0.00000000E+00  0.00000000E+00
  0.00000000E+00  0.00000000E+00  0.00000000E+00
  0.00000000E+00  0.00000000E+00  0.00000000E+00
  0.00000000E+00  0.00000000E+00  0.00000000E+00
  0.00000000E+00  0.00000000E+00  0.00000000E+00
  0.00000000E+00  0.00000000E+00  0.00000000E+00
  0.00000000E+00  0.00000000E+00  0.00000000E+00
  0.00000000E+00  0.00000000E+00  0.00000000E+00
  0.00000000E+00  0.00000000E+00  0.00000000E+00
  0.00000000E+00  0.00000000E+00  0.00000000E+00
  0.00000000E+00  0.00000000E+00  0.00000000E+00
  0.00000000E+00  0.00000000E+00  0.00000000E+00
  0.00000000E+00  0.00000000E+00  0.00000000E+00
  0.00000000E+00  0.00000000E+00  0.00000000E+00
  0.00000000E+00  0.00000000E+00  0.00000000E+00
  0.00000000E+00  0.00000000E+00  0.00000000E+00