Species order: X N B                    
   2.51242800000000     
     5.9449720136058266    0.0000000000000000    0.0000000000000000
    -2.9724860068029120    5.1484967885702053   -0.0000000000000001
     0.0000000000000000    0.0000000000000009    5.3101128803662583
   Sn   N    B 
     1   143   144
Direct
  0.5555555555555571  0.4444444444444429  0.3750000000000000
  0.1110953217544046  0.0555504965255439  0.1249708399906960
  0.6111681734308546  0.5556696801949659  0.1208488613172801
  0.4444504387399297  0.0555656606947796  0.1251565463419395
  0.9444343393051838  0.5555495612601111  0.1251565463419395
  0.7777866534542575  0.0555599933938076  0.1247916316649811
  0.1111079335534829  0.7222206334433946  0.6250117364745887
  0.4444504387399306  0.7222181113784661  0.6248434536580819
  0.2777421848577579  0.2222068619127048  0.6254803874886407
  0.7777931380872629  0.7222578151422177  0.6254803874886387
  0.6111313437215803  0.2222068619127060  0.6254803874886387
  0.9444400066061864  0.2222133465457177  0.6252083683349950
  0.2777793665565896  0.7222206334433736  0.1249882635254258
  0.1110774931873797  0.2222054132603520  0.1249773751425232
  0.4444580042796044  0.2222493418925323  0.1240699859011625
  0.6111313437215802  0.7222578151422204  0.1245196125113426
  0.9444343393051838  0.7222181113784661  0.1251565463419395
  0.7777945867396572  0.2222054132603536  0.1249773751425232
  0.1111089286661392  0.8888910713338527  0.6250912553617043
  0.4444488093343600  0.8888910713338527  0.6250912553617043
  0.2777421848577519  0.3888686562783826  0.6254803874886387
  0.6111681734308460  0.3888318265691827  0.6291511386826862
  0.7777945867396571  0.8889225068125918  0.6250226248574428
  0.9444495034744510  0.3888781585621688  0.6250291600093252
  0.1110953217544036  0.3888781585621682  0.1249708399906960
  0.2777793665565879  0.8888920664465078  0.1249882635254268
  0.6111218414377610  0.8889046782456066  0.1249708399906960
  0.4443303198050546  0.3888318265691789  0.1208488613172805
  0.9444495034744510  0.8889046782456066  0.1249708399906960
  0.7777931380872629  0.3888686562783826  0.1245196125113441
  0.2777818886215214  0.5555495612601091  0.6248434536580819
  0.1110953217544037  0.0555504965255439  0.6250291600093252
  0.6111681734308553  0.5556696801949698  0.6291511386826862
  0.4444504387399297  0.0555656606947795  0.6248434536580819
  0.9444343393051838  0.5555495612601091  0.6248434536580820
  0.1111089286661392  0.5555511906656058  0.1249087446382708
  0.7777866534542511  0.0555599933938069  0.6252083683349950
  0.2777818886215265  0.0555656606947801  0.1251565463419395
  0.4444580042796026  0.5555419957204213  0.1240699859011591
  0.7777506581074561  0.5555419957204104  0.1240699859011594
  0.6111218414377610  0.0555504965255439  0.1249708399906960
  0.4444580042795973  0.5555419957204220  0.6259300140988477
  0.9444400066061864  0.0555599933938081  0.1247916316649811
  0.2777793665565876  0.7222206334433946  0.6250117364745887
  0.1110774931873797  0.2222054132603520  0.6250226248574428
  0.4444580042795997  0.2222493418925301  0.6259300140988409
  0.6111313437215802  0.7222578151422177  0.6254803874886387
  0.9444343393051853  0.7222181113784661  0.6248434536580819
  0.7777945867396571  0.2222054132603520  0.6250226248574428
  0.1111079335534811  0.7222206334433946  0.1249882635254258
  0.4444504387399307  0.7222181113784646  0.1251565463419395
  0.2777421848577586  0.2222068619127057  0.1245196125113426
  0.7777931380872629  0.7222578151422193  0.1245196125113426
  0.6111313437215803  0.2222068619127037  0.1245196125113427
  0.9444400066061813  0.2222133465457180  0.1247916316649811
  0.1110953217544039  0.3888781585621726  0.6250291600093248
  0.2777793665565879  0.8888920664465078  0.6250117364745887
  0.6111218414377587  0.8889046782456038  0.6250291600093252
  0.4443303198050542  0.3888318265691791  0.6291511386826820
  0.9444495034744510  0.8889046782456066  0.6250291600093252
  0.1111089286661391  0.8888910713338525  0.1249087446382708
  0.7777931380872629  0.3888686562783826  0.6254803874886387
  0.4444488093343643  0.8888910713338527  0.1249087446382708
  0.2777421848577578  0.3888686562783799  0.1245196125113441
  0.2777818886215265  0.5555495612601091  0.1251565463419395
  0.6111681734308458  0.3888318265691794  0.1208488613172793
  0.7777945867396571  0.8889225068125908  0.1249773751425237
  0.9444495034744510  0.3888781585621682  0.1249708399906960
  0.1111089286661394  0.5555511906656058  0.6250912553617043
  0.2777818886215214  0.0555656606947798  0.6248434536580819
  0.7777506581074561  0.5555419957204220  0.6259300140988409
  0.6111218414377670  0.0555504965255439  0.6250291600093252
  0.9444400066061813  0.0555599933938075  0.6252083683349950
  0.0539198385778761  0.1100303149131517  0.3750000000000000
  0.5561489458910212  0.6246975083121468  0.3750000000000000
  0.3872429620494237  0.1078192574322189  0.3750000000000000
  0.8921807425677922  0.6127570379505490  0.3750000000000000
  0.7227771430019233  0.1100303149131493  0.3750000000000000
  0.0555566741110015  0.7777793812021547  0.8750000000000000
  0.3888893737578181  0.7777793812021547  0.8750000000000000
  0.2222229398572828  0.2777781365953073  0.8750000000000000
  0.7222218634046861  0.7777770601427195  0.8750000000000000
  0.5555477064668659  0.2777642288396807  0.8750000000000000
  0.8888893057476894  0.2777792671032889  0.8750000000000000
  0.2222222222222214  0.7777777777777786  0.3750000000000000
  0.0539198385778755  0.2772228569980769  0.3750000000000000
  0.3753024916878067  0.2647847709121866  0.3750000000000000
  0.5550167460867832  0.7832350508820372  0.3750000000000000
  0.8948849714619803  0.7832350508820073  0.3750000000000000
  0.7248545800911839  0.2751454199088030  0.3750000000000000
  0.0555553255673859  0.9444446744326078  0.8750000000000000
  0.3888893737578181  0.9444433258889919  0.8750000000000000
  0.2222203320819209  0.4444472220668343  0.8750000000000000
  0.5555555555555571  0.4444444444444429  0.8750000000000000
  0.7222207328967448  0.9444433719778448  0.8750000000000000
  0.8888935566515659  0.4444472220668343  0.8750000000000000
  0.0558454754470874  0.4450242842275252  0.3750000000000000
  0.2217167953772726  0.9430508524951953  0.3750000000000000
  0.5549757157725028  0.9441545245529647  0.3750000000000000
  0.3753024916878081  0.4438510541089646  0.3750000000000000
  0.8899696850868289  0.9460801614220816  0.3750000000000000
  0.7352152290878051  0.4438510541089672  0.3750000000000000
  0.2222206187978238  0.6111106262421425  0.8750000000000000
  0.0555566280222261  0.1111106942522951  0.8750000000000000
  0.5555477064668699  0.6111168109604570  0.8750000000000000
  0.3888848227969481  0.1111029789272640  0.8750000000000000
  0.8888970210727701  0.6111151772030907  0.8750000000000000
  0.0569491475047962  0.6119992762154269  0.3750000000000000
  0.7222207328967499  0.1111106942522961  0.8750000000000000
  0.2167649491179544  0.1051150285380635  0.3750000000000000
  0.3872429620494313  0.6127570379505460  0.3750000000000000
  0.7352152290878129  0.6246975083121367  0.3750000000000000
  0.5550167460867902  0.1051150285380635  0.3750000000000000
  0.3888848227969446  0.6111151772030901  0.8750000000000000
  0.8888888888888857  0.1111111111111143  0.3750000000000000
  0.2222222222222214  0.7777777777777786  0.8750000000000000
  0.0555566280222265  0.2777792671032889  0.8750000000000000
  0.3888831890395516  0.2777642288396835  0.8750000000000000
  0.5555527779331808  0.7777796679180640  0.8750000000000000
  0.8888935566515652  0.7777796679180545  0.8750000000000000
  0.7222218634046861  0.2777781365953048  0.8750000000000000
  0.0569491475047966  0.7782832046227168  0.3750000000000000
  0.3880007237846240  0.7782832046227049  0.3750000000000000
  0.2169575064842521  0.2751454199087988  0.3750000000000000
  0.7248545800911951  0.7830424935157436  0.3750000000000000
  0.5561489458910126  0.2647847709121836  0.3750000000000000
  0.8899696850868272  0.2772228569980769  0.3750000000000000
  0.0555553255673862  0.4444439844680885  0.8750000000000000
  0.2222206187978262  0.9444433258889919  0.8750000000000000
  0.5555560155318747  0.9444446744326156  0.8750000000000000
  0.3888831890395471  0.4444522935331888  0.8750000000000000
  0.8888893057477224  0.9444433719778429  0.8750000000000000
  0.0558454754470870  0.9441545245529562  0.3750000000000000
  0.7222357711602901  0.4444522935331888  0.8750000000000000
  0.3880007237846191  0.9430508524952055  0.3750000000000000
  0.2167649491179507  0.4449832539132196  0.3750000000000000
  0.2217167953772734  0.6119992762154269  0.3750000000000000
  0.7227771430019264  0.9460801614220888  0.3750000000000000
  0.8948849714619803  0.4449832539132202  0.3750000000000000
  0.0555566741110014  0.6111106262421305  0.8750000000000000
  0.2222203320819230  0.1111064433484315  0.8750000000000000
  0.7222357711603005  0.6111168109604572  0.8750000000000000
  0.5555527779331808  0.1111064433484311  0.8750000000000000
  0.8888888888888857  0.1111111111111143  0.8750000000000000
  0.1079781056297099  0.0531533785582784  0.3750000000000000
  0.6286141019404682  0.5905615372142022  0.3750000000000000
  0.4438724274051105  0.0530912025205042  0.3750000000000000
  0.9469087974794740  0.5561275725949023  0.3750000000000000
  0.7785211091372392  0.0559272212352932  0.3750000000000000
  0.1111068042738481  0.7222200688035739  0.8750000000000000
  0.4444471988926572  0.7222175536404773  0.8750000000000000
  0.2777919874667706  0.2222308913256544  0.8750000000000000
  0.7777691086743455  0.7222080125332222  0.8750000000000000
  0.6111055705255322  0.2222308913256542  0.8750000000000000
  0.9444449688805849  0.2222232710943716  0.8750000000000000
  0.2773910213371917  0.7226089786627952  0.3750000000000000
  0.1076056780247265  0.2204695056790471  0.3750000000000000
  0.4422771567386472  0.2178876468105920  0.3750000000000000
  0.6128133960785150  0.7326545508697617  0.3750000000000000
  0.9469087974795141  0.7241145582178977  0.3750000000000000
  0.7795304943209923  0.2204695056790452  0.3750000000000000
  0.1111086005264009  0.8888913994735892  0.8750000000000000
  0.4444494656138878  0.8888913994735832  0.8750000000000000
  0.2777919874667735  0.3888944294744323  0.8750000000000000
  0.6111038914852736  0.3888961085147738  0.8750000000000000
  0.7777728986252678  0.8888791305839463  0.8750000000000000
  0.9444395955347713  0.3888878129177511  0.8750000000000000
  0.1079781056297087  0.3881580604047648  0.3750000000000000
  0.2773910213371932  0.8881153760077134  0.3750000000000000
  0.6118419395952713  0.8920218943702983  0.3750000000000000
  0.4094384627857673  0.3713858980595685  0.3750000000000000
  0.9468466214416984  0.8920218943702920  0.3750000000000000
  0.7865078214578601  0.3871866039214274  0.3750000000000000
  0.2777824463595616  0.5555528011073843  0.8750000000000000
  0.1111148840496809  0.0555604044652529  0.8750000000000000
  0.6111038914852736  0.5555411163037813  0.8750000000000000
  0.4444471988926541  0.0555629785855324  0.8750000000000000
  0.9444370214144647  0.5555528011073843  0.8750000000000000
  0.1113042280944878  0.5559417895223489  0.3750000000000000
  0.7777767289056358  0.0555550311194771  0.8750000000000000
  0.2758854417820479  0.0530912025205033  0.3750000000000000
  0.4422771567386447  0.5577228432613716  0.3750000000000000
  0.7821123531893786  0.5577228432613716  0.3750000000000000
  0.6118419395952828  0.0531533785582785  0.3750000000000000
  0.4444498248511891  0.5555501751488154  0.8750000000000000
  0.9440727787647175  0.0559272212352932  0.3750000000000000
  0.2777799311964044  0.7222200688035739  0.8750000000000000
  0.1111208694160937  0.2222271013747044  0.8750000000000000
  0.4444498248511881  0.2222329830356932  0.8750000000000000
  0.6111055705255319  0.7222080125332222  0.8750000000000000
  0.9444370214144923  0.7222175536404773  0.8750000000000000
  0.7777728986252695  0.2222271013747051  0.8750000000000000
  0.1118846239923138  0.7226089786627952  0.3750000000000000
  0.4438724274051105  0.7241145582178976  0.3750000000000000
  0.2673454491302821  0.2134921785421445  0.3750000000000000
  0.7865078214578605  0.7326545508697527  0.3750000000000000
  0.6128133960785282  0.2134921785421393  0.3750000000000000
  0.9440727787647181  0.2214788908627415  0.3750000000000000
  0.1111148840496815  0.3888878129177511  0.8750000000000000
  0.2777799311964059  0.8888931957261407  0.8750000000000000
  0.6111121870822256  0.8888851159503208  0.8750000000000000
  0.4444588836962082  0.3888961085147719  0.8750000000000000
  0.9444395955347705  0.8888851159503219  0.8750000000000000
  0.1113042280944882  0.8886957719055030  0.3750000000000000
  0.7777691086743352  0.3888944294744325  0.8750000000000000
  0.4440582104776816  0.8886957719055004  0.3750000000000000
  0.2673454491302684  0.3871866039214282  0.3750000000000000
  0.2758854417820437  0.5561275725949012  0.3750000000000000
  0.6286141019404569  0.3713858980595607  0.3750000000000000
  0.7795304943209884  0.8923943219753128  0.3750000000000000
  0.9468466214416984  0.3881580604047630  0.3750000000000000
  0.1111086005264012  0.5555505343861294  0.8750000000000000
  0.2777824463595617  0.0555629785855325  0.8750000000000000
  0.7777670169642861  0.5555501751488144  0.8750000000000000
  0.6111121870822170  0.0555604044652527  0.8750000000000000
  0.9444449688805849  0.0555550311194775  0.8750000000000000
  0.0555358107507745  0.1111113353753322  0.1249118245600203
  0.5556021935977887  0.6111174181908191  0.1230856283186043
  0.3889132994181469  0.1111599321696366  0.1249169148547394
  0.8888400678303705  0.6110867005819012  0.1249169148547394
  0.7222421912911925  0.1111113353753322  0.1249118245600203
  0.0555378680800966  0.7777751075987784  0.6250082341998715
  0.3889039061853257  0.7777751075987784  0.6250082341998715
  0.2221914352673469  0.2777623843003272  0.6253367594169982
  0.7222376156996232  0.7778085647326205  0.6253367594169982
  0.5556021935977884  0.2778181087402637  0.6269143716814297
  0.8888886646246372  0.2777578087087876  0.6250881754399514
  0.2222222222222214  0.7777777777777786  0.1249124428460319
  0.0555358107507761  0.2777578087087824  0.1249118245600203
  0.3888825818091888  0.2778181087402695  0.1230856283186057
  0.5555832968614811  0.7777883182221356  0.1249418670208866
  0.8888716880273371  0.7777883182221356  0.1249418670208866
  0.7222376156996232  0.2777623843003272  0.1246632405829768
  0.0555445785847811  0.9444554214152051  0.6250873830864515
  0.3889039061853257  0.9444621319198633  0.6250082341998715
  0.2222116817778065  0.4444167031384777  0.6250581329791571
  0.5555555555555571  0.4444444444444429  0.6286322785192832
  0.7222421912911925  0.9444641892492729  0.6250881754399514
  0.8888716880273357  0.4444167031384738  0.6250581329791571
  0.0555445785847803  0.4444224905028719  0.1249126169135565
  0.2222248924012193  0.9444621319198633  0.1249917658001379
  0.5555775094970622  0.9444554214152051  0.1249126169135564
  0.3888825818091851  0.4443978064022348  0.1230856283186042
  0.8888886646246372  0.9444641892492707  0.1249118245600203
  0.7221818912597483  0.4443978064022347  0.1230856283186042
  0.2222248924012158  0.6110960938146408  0.6250082341998715
  0.0555358107507746  0.1111113353753351  0.6250881754399514
  0.5556021935977884  0.6111174181908331  0.6269143716814297
  0.3889132994181499  0.1111599321696359  0.6250830851452754
  0.8888400678303705  0.6110867005818993  0.6250830851452754
  0.0555378680800966  0.6110960938146490  0.1249917658001381
  0.7222421912911925  0.1111113353753322  0.6250881754399514
  0.2222116817778117  0.1111283119726694  0.1249418670208875
  0.3889132994181410  0.6110867005819012  0.1249169148547383
  0.7221818912597483  0.6111174181908191  0.1230856283186044
  0.5555832968614738  0.1111283119726702  0.1249418670208866
  0.3889132994181469  0.6110867005819012  0.6250830851452754
  0.8888888888888857  0.1111111111111143  0.1247750397027906
  0.2222222222222214  0.7777777777777786  0.6250875571539829
  0.0555358107507776  0.2777578087087834  0.6250881754399514
  0.3888825818091903  0.2778181087402694  0.6269143716814297
  0.5555832968614786  0.7777883182221356  0.6250581329791571
  0.8888716880273410  0.7777883182221356  0.6250581329791571
  0.7222376156996232  0.2777623843003272  0.6253367594169982
  0.0555378680800962  0.7777751075987784  0.1249917658001381
  0.3889039061853258  0.7777751075987784  0.1249917658001381
  0.2221914352673434  0.2777623843003272  0.1246632405829768
  0.7222376156996232  0.7778085647326684  0.1246632405829768
  0.5556021935977888  0.2778181087402685  0.1230856283186040
  0.8888886646246372  0.2777578087087876  0.1249118245600203
  0.0555445785847806  0.4444224905028712  0.6250873830864515
  0.2222248924012193  0.9444621319198635  0.6250082341998715
  0.5555775094970775  0.9444554214152051  0.6250873830864515
  0.3888825818091948  0.4443978064022347  0.6269143716814297
  0.8888886646246379  0.9444641892492729  0.6250881754399514
  0.0555445785847809  0.9444554214152051  0.1249126169135564
  0.7221818912597443  0.4443978064022346  0.6269143716814297
  0.3889039061853276  0.9444621319198635  0.1249917658001381
  0.2222116817778069  0.4444167031384777  0.1249418670208879
  0.2222248924012193  0.6110960938146408  0.1249917658001381
  0.5555555555555571  0.4444444444444429  0.1213677214807480
  0.7222421912911925  0.9444641892492729  0.1249118245600203
  0.8888716880273388  0.4444167031384740  0.1249418670208875
  0.0555378680800968  0.6110960938146408  0.6250082341998715
  0.2222116817778109  0.1111283119726698  0.6250581329791571
  0.7221818912597441  0.6111174181908219  0.6269143716814297
  0.5555832968614738  0.1111283119726698  0.6250581329791571
  0.8888888888888857  0.1111111111111143  0.6252249602972091
 
  0.00000000E+00  0.00000000E+00  0.00000000E+00
  0.00000000E+00  0.00000000E+00  0.00000000E+00
  0.00000000E+00  0.00000000E+00  0.00000000E+00
  0.00000000E+00  0.00000000E+00  0.00000000E+00
  0.00000000E+00  0.00000000E+00  0.00000000E+00
  0.00000000E+00  0.00000000E+00  0.00000000E+00
  0.00000000E+00  0.00000000E+00  0.00000000E+00
  0.00000000E+00  0.00000000E+00  0.00000000E+00
  0.00000000E+00  0.00000000E+00  0.00000000E+00
  0.00000000E+00  0.00000000E+00  0.00000000E+00
  0.00000000E+00  0.00000000E+00  0.00000000E+00
  0.00000000E+00  0.00000000E+00  0.00000000E+00
  0.00000000E+00  0.00000000E+00  0.00000000E+00
  0.00000000E+00  0.00000000E+00  0.00000000E+00
  0.00000000E+00  0.00000000E+00  0.00000000E+00
  0.00000000E+00  0.00000000E+00  0.00000000E+00
  0.00000000E+00  0.00000000E+00  0.00000000E+00
  0.00000000E+00  0.00000000E+00  0.00000000E+00
  0.00000000E+00  0.00000000E+00  0.00000000E+00
  0.00000000E+00  0.00000000E+00  0.00000000E+00
  0.00000000E+00  0.00000000E+00  0.00000000E+00
  0.00000000E+00  0.00000000E+00  0.00000000E+00
  0.00000000E+00  0.00000000E+00  0.00000000E+00
  0.00000000E+00  0.00000000E+00  0.00000000E+00
  0.00000000E+00  0.00000000E+00  0.00000000E+00
  0.00000000E+00  0.00000000E+00  0.00000000E+00
  0.00000000E+00  0.00000000E+00  0.00000000E+00
  0.00000000E+00  0.00000000E+00  0.00000000E+00
  0.00000000E+00  0.00000000E+00  0.00000000E+00
  0.00000000E+00  0.00000000E+00  0.00000000E+00
  0.00000000E+00  0.00000000E+00  0.00000000E+00
  0.00000000E+00  0.00000000E+00  0.00000000E+00
  0.00000000E+00  0.00000000E+00  0.00000000E+00
  0.00000000E+00  0.00000000E+00  0.00000000E+00
  0.00000000E+00  0.00000000E+00  0.00000000E+00
  0.00000000E+00  0.00000000E+00  0.00000000E+00
  0.00000000E+00  0.00000000E+00  0.00000000E+00
  0.00000000E+00  0.00000000E+00  0.00000000E+00
  0.00000000E+00  0.00000000E+00  0.00000000E+00
  0.00000000E+00  0.00000000E+00  0.00000000E+00
  0.00000000E+00  0.00000000E+00  0.00000000E+00
  0.00000000E+00  0.00000000E+00  0.00000000E+00
  0.00000000E+00  0.00000000E+00  0.00000000E+00
  0.00000000E+00  0.00000000E+00  0.00000000E+00
  0.00000000E+00  0.00000000E+00  0.00000000E+00
  0.00000000E+00  0.00000000E+00  0.00000000E+00
  0.00000000E+00  0.00000000E+00  0.00000000E+00
  0.00000000E+00  0.00000000E+00  0.00000000E+00
  0.00000000E+00  0.00000000E+00  0.00000000E+00
  0.00000000E+00  0.00000000E+00  0.00000000E+00
  0.00000000E+00  0.00000000E+00  0.00000000E+00
  0.00000000E+00  0.00000000E+00  0.00000000E+00
  0.00000000E+00  0.00000000E+00  0.00000000E+00
  0.00000000E+00  0.00000000E+00  0.00000000E+00
  0.00000000E+00  0.00000000E+00  0.00000000E+00
  0.00000000E+00  0.00000000E+00  0.00000000E+00
  0.00000000E+00  0.00000000E+00  0.00000000E+00
  0.00000000E+00  0.00000000E+00  0.00000000E+00
  0.00000000E+00  0.00000000E+00  0.00000000E+00
  0.00000000E+00  0.00000000E+00  0.00000000E+00
  0.00000000E+00  0.00000000E+00  0.00000000E+00
  0.00000000E+00  0.00000000E+00  0.00000000E+00
  0.00000000E+00  0.00000000E+00  0.00000000E+00
  0.00000000E+00  0.00000000E+00  0.00000000E+00
  0.00000000E+00  0.00000000E+00  0.00000000E+00
  0.00000000E+00  0.00000000E+00  0.00000000E+00
  0.00000000E+00  0.00000000E+00  0.00000000E+00
  0.00000000E+00  0.00000000E+00  0.00000000E+00
  0.00000000E+00  0.00000000E+00  0.00000000E+00
  0.00000000E+00  0.00000000E+00  0.00000000E+00
  0.00000000E+00  0.00000000E+00  0.00000000E+00
  0.00000000E+00  0.00000000E+00  0.00000000E+00
  0.00000000E+00  0.00000000E+00  0.00000000E+00
  0.00000000E+00  0.00000000E+00  0.00000000E+00
  0.00000000E+00  0.00000000E+00  0.00000000E+00
  0.00000000E+00  0.00000000E+00  0.00000000E+00
  0.00000000E+00  0.00000000E+00  0.00000000E+00
  0.00000000E+00  0.00000000E+00  0.00000000E+00
  0.00000000E+00  0.00000000E+00  0.00000000E+00
  0.00000000E+00  0.00000000E+00  0.00000000E+00
  0.00000000E+00  0.00000000E+00  0.00000000E+00
  0.00000000E+00  0.00000000E+00  0.00000000E+00
  0.00000000E+00  0.00000000E+00  0.00000000E+00
  0.00000000E+00  0.00000000E+00  0.00000000E+00
  0.00000000E+00  0.00000000E+00  0.00000000E+00
  0.00000000E+00  0.00000000E+00  0.00000000E+00
  0.00000000E+00  0.00000000E+00  0.00000000E+00
  0.00000000E+00  0.00000000E+00  0.00000000E+00
  0.00000000E+00  0.00000000E+00  0.00000000E+00
  0.00000000E+00  0.00000000E+00  0.00000000E+00
  0.00000000E+00  0.00000000E+00  0.00000000E+00
  0.00000000E+00  0.00000000E+00  0.00000000E+00
  0.00000000E+00  0.00000000E+00  0.00000000E+00
  0.00000000E+00  0.00000000E+00  0.00000000E+00
  0.00000000E+00  0.00000000E+00  0.00000000E+00
  0.00000000E+00  0.00000000E+00  0.00000000E+00
  0.00000000E+00  0.00000000E+00  0.00000000E+00
  0.00000000E+00  0.00000000E+00  0.00000000E+00
  0.00000000E+00  0.00000000E+00  0.00000000E+00
  0.00000000E+00  0.00000000E+00  0.00000000E+00
  0.00000000E+00  0.00000000E+00  0.00000000E+00
  0.00000000E+00  0.00000000E+00  0.00000000E+00
  0.00000000E+00  0.00000000E+00  0.00000000E+00
  0.00000000E+00  0.00000000E+00  0.00000000E+00
  0.00000000E+00  0.00000000E+00  0.00000000E+00
  0.00000000E+00  0.00000000E+00  0.00000000E+00
  0.00000000E+00  0.00000000E+00  0.00000000E+00
  0.00000000E+00  0.00000000E+00  0.00000000E+00
  0.00000000E+00  0.00000000E+00  0.00000000E+00
  0.00000000E+00  0.00000000E+00  0.00000000E+00
  0.00000000E+00  0.00000000E+00  0.00000000E+00
  0.00000000E+00  0.00000000E+00  0.00000000E+00
  0.00000000E+00  0.00000000E+00  0.00000000E+00
  0.00000000E+00  0.00000000E+00  0.00000000E+00
  0.00000000E+00  0.00000000E+00  0.00000000E+00
  0.00000000E+00  0.00000000E+00  0.00000000E+00
  0.00000000E+00  0.00000000E+00  0.00000000E+00
  0.00000000E+00  0.00000000E+00  0.00000000E+00
  0.00000000E+00  0.00000000E+00  0.00000000E+00
  0.00000000E+00  0.00000000E+00  0.00000000E+00
  0.00000000E+00  0.00000000E+00  0.00000000E+00
  0.00000000E+00  0.00000000E+00  0.00000000E+00
  0.00000000E+00  0.00000000E+00  0.00000000E+00
  0.00000000E+00  0.00000000E+00  0.00000000E+00
  0.00000000E+00  0.00000000E+00  0.00000000E+00
  0.00000000E+00  0.00000000E+00  0.00000000E+00
  0.00000000E+00  0.00000000E+00  0.00000000E+00
  0.00000000E+00  0.00000000E+00  0.00000000E+00
  0.00000000E+00  0.00000000E+00  0.00000000E+00
  0.00000000E+00  0.00000000E+00  0.00000000E+00
  0.00000000E+00  0.00000000E+00  0.00000000E+00
  0.00000000E+00  0.00000000E+00  0.00000000E+00
  0.00000000E+00  0.00000000E+00  0.00000000E+00
  0.00000000E+00  0.00000000E+00  0.00000000E+00
  0.00000000E+00  0.00000000E+00  0.00000000E+00
  0.00000000E+00  0.00000000E+00  0.00000000E+00
  0.00000000E+00  0.00000000E+00  0.00000000E+00
  0.00000000E+00  0.00000000E+00  0.00000000E+00
  0.00000000E+00  0.00000000E+00  0.00000000E+00
  0.00000000E+00  0.00000000E+00  0.00000000E+00
  0.00000000E+00  0.00000000E+00  0.00000000E+00
  0.00000000E+00  0.00000000E+00  0.00000000E+00
  0.00000000E+00  0.00000000E+00  0.00000000E+00
  0.00000000E+00  0.00000000E+00  0.00000000E+00
  0.00000000E+00  0.00000000E+00  0.00000000E+00
  0.00000000E+00  0.00000000E+00  0.00000000E+00
  0.00000000E+00  0.00000000E+00  0.00000000E+00
  0.00000000E+00  0.00000000E+00  0.00000000E+00
  0.00000000E+00  0.00000000E+00  0.00000000E+00
  0.00000000E+00  0.00000000E+00  0.00000000E+00
  0.00000000E+00  0.00000000E+00  0.00000000E+00
  0.00000000E+00  0.00000000E+00  0.00000000E+00
  0.00000000E+00  0.00000000E+00  0.00000000E+00
  0.00000000E+00  0.00000000E+00  0.00000000E+00
  0.00000000E+00  0.00000000E+00  0.00000000E+00
  0.00000000E+00  0.00000000E+00  0.00000000E+00
  0.00000000E+00  0.00000000E+00  0.00000000E+00
  0.00000000E+00  0.00000000E+00  0.00000000E+00
  0.00000000E+00  0.00000000E+00  0.00000000E+00
  0.00000000E+00  0.00000000E+00  0.00000000E+00
  0.00000000E+00  0.00000000E+00  0.00000000E+00
  0.00000000E+00  0.00000000E+00  0.00000000E+00
  0.00000000E+00  0.00000000E+00  0.00000000E+00
  0.00000000E+00  0.00000000E+00  0.00000000E+00
  0.00000000E+00  0.00000000E+00  0.00000000E+00
  0.00000000E+00  0.00000000E+00  0.00000000E+00
  0.00000000E+00  0.00000000E+00  0.00000000E+00
  0.00000000E+00  0.00000000E+00  0.00000000E+00
  0.00000000E+00  0.00000000E+00  0.00000000E+00
  0.00000000E+00  0.00000000E+00  0.00000000E+00
  0.00000000E+00  0.00000000E+00  0.00000000E+00
  0.00000000E+00  0.00000000E+00  0.00000000E+00
  0.00000000E+00  0.00000000E+00  0.00000000E+00
  0.00000000E+00  0.00000000E+00  0.00000000E+00
  0.00000000E+00  0.00000000E+00  0.00000000E+00
  0.00000000E+00  0.00000000E+00  0.00000000E+00
  0.00000000E+00  0.00000000E+00  0.00000000E+00
  0.00000000E+00  0.00000000E+00  0.00000000E+00
  0.00000000E+00  0.00000000E+00  0.00000000E+00
  0.00000000E+00  0.00000000E+00  0.00000000E+00
  0.00000000E+00  0.00000000E+00  0.00000000E+00
  0.00000000E+00  0.00000000E+00  0.00000000E+00
  0.00000000E+00  0.00000000E+00  0.00000000E+00
  0.00000000E+00  0.00000000E+00  0.00000000E+00
  0.00000000E+00  0.00000000E+00  0.00000000E+00
  0.00000000E+00  0.00000000E+00  0.00000000E+00
  0.00000000E+00  0.00000000E+00  0.00000000E+00
  0.00000000E+00  0.00000000E+00  0.00000000E+00
  0.00000000E+00  0.00000000E+00  0.00000000E+00
  0.00000000E+00  0.00000000E+00  0.00000000E+00
  0.00000000E+00  0.00000000E+00  0.00000000E+00
  0.00000000E+00  0.00000000E+00  0.00000000E+00
  0.00000000E+00  0.00000000E+00  0.00000000E+00
  0.00000000E+00  0.00000000E+00  0.00000000E+00
  0.00000000E+00  0.00000000E+00  0.00000000E+00
  0.00000000E+00  0.00000000E+00  0.00000000E+00
  0.00000000E+00  0.00000000E+00  0.00000000E+00
  0.00000000E+00  0.00000000E+00  0.00000000E+00
  0.00000000E+00  0.00000000E+00  0.00000000E+00
  0.00000000E+00  0.00000000E+00  0.00000000E+00
  0.00000000E+00  0.00000000E+00  0.00000000E+00
  0.00000000E+00  0.00000000E+00  0.00000000E+00
  0.00000000E+00  0.00000000E+00  0.00000000E+00
  0.00000000E+00  0.00000000E+00  0.00000000E+00
  0.00000000E+00  0.00000000E+00  0.00000000E+00
  0.00000000E+00  0.00000000E+00  0.00000000E+00
  0.00000000E+00  0.00000000E+00  0.00000000E+00
  0.00000000E+00  0.00000000E+00  0.00000000E+00
  0.00000000E+00  0.00000000E+00  0.00000000E+00
  0.00000000E+00  0.00000000E+00  0.00000000E+00
  0.00000000E+00  0.00000000E+00  0.00000000E+00
  0.00000000E+00  0.00000000E+00  0.00000000E+00
  0.00000000E+00  0.00000000E+00  0.00000000E+00
  0.00000000E+00  0.00000000E+00  0.00000000E+00
  0.00000000E+00  0.00000000E+00  0.00000000E+00
  0.00000000E+00  0.00000000E+00  0.00000000E+00
  0.00000000E+00  0.00000000E+00  0.00000000E+00
  0.00000000E+00  0.00000000E+00  0.00000000E+00
  0.00000000E+00  0.00000000E+00  0.00000000E+00
  0.00000000E+00  0.00000000E+00  0.00000000E+00
  0.00000000E+00  0.00000000E+00  0.00000000E+00
  0.00000000E+00  0.00000000E+00  0.00000000E+00
  0.00000000E+00  0.00000000E+00  0.00000000E+00
  0.00000000E+00  0.00000000E+00  0.00000000E+00
  0.00000000E+00  0.00000000E+00  0.00000000E+00
  0.00000000E+00  0.00000000E+00  0.00000000E+00
  0.00000000E+00  0.00000000E+00  0.00000000E+00
  0.00000000E+00  0.00000000E+00  0.00000000E+00
  0.00000000E+00  0.00000000E+00  0.00000000E+00
  0.00000000E+00  0.00000000E+00  0.00000000E+00
  0.00000000E+00  0.00000000E+00  0.00000000E+00
  0.00000000E+00  0.00000000E+00  0.00000000E+00
  0.00000000E+00  0.00000000E+00  0.00000000E+00
  0.00000000E+00  0.00000000E+00  0.00000000E+00
  0.00000000E+00  0.00000000E+00  0.00000000E+00
  0.00000000E+00  0.00000000E+00  0.00000000E+00
  0.00000000E+00  0.00000000E+00  0.00000000E+00
  0.00000000E+00  0.00000000E+00  0.00000000E+00
  0.00000000E+00  0.00000000E+00  0.00000000E+00
  0.00000000E+00  0.00000000E+00  0.00000000E+00
  0.00000000E+00  0.00000000E+00  0.00000000E+00
  0.00000000E+00  0.00000000E+00  0.00000000E+00
  0.00000000E+00  0.00000000E+00  0.00000000E+00
  0.00000000E+00  0.00000000E+00  0.00000000E+00
  0.00000000E+00  0.00000000E+00  0.00000000E+00
  0.00000000E+00  0.00000000E+00  0.00000000E+00
  0.00000000E+00  0.00000000E+00  0.00000000E+00