 B P N 
 1.0
 17.527899999999772   0.000000000000000   0.000000000000000
 -8.763949999999658  15.179606674993195   0.000000000000000
  0.000000000000001   0.000000000000002  15.000000000000000
 B P N 
  47   1  49
Cartesian
  7.518897081936819  14.464169362149317   1.664982838677135 
 15.024376349618784   1.444110858863021   1.665779583749490 
 13.770926803223675   3.610192268702538   1.665675896088090 
 12.522086963256527   5.779385068282218   1.664798776009680 
 11.280230054020610   7.951824269665190   1.665085377665040 
 10.032708754209182  10.126328911922553   1.666318242159585 
  8.779376060570939  12.300391397126472   1.665697264044450 
 -7.508835922413439  14.456116463277107   1.664768545426635 
 -0.002350552983913   1.436356001945037   1.664878527240360 
 -1.259027504923061   3.604341891242422   1.664855643955110 
 -2.514520622832279   5.779322857316092   1.665069522610245 
 -3.765149560351918   7.954344632382071   1.665170311010055 
 -5.008762955939282  10.125170187826068   1.665377739664335 
 -6.256624111995539  12.292000576899190   1.664719038278085 
 -5.011392448032661  14.453040666818781   1.664620539082305 
  2.500625655956841   1.431380951216262   1.665613349555400 
  1.239970919161758   3.585011543047273   1.665016614577155 
 -0.022363073342134   5.769013302377854   1.665235426972230 
 -1.286397159574491   7.957360896180390   1.666136788280550 
 -2.521878326355798  10.129184030755399   1.666410460668255 
 -3.763987950527402  12.293745614859343   1.665075463598115 
 -2.511805464852323  14.456444179982128   1.665219468813300 
  5.004502089676636   1.428689845651417   1.665933885978585 
  3.754197870959632   3.579710946098785   1.666078988628180 
  2.483498170815404   5.703777428516104   1.665940677563055 
  1.168358229016708   7.971490796552060   1.665900755811525 
 -0.037921863584874  10.139459860458961   1.666749673371360 
 -1.270760250594510  12.299700998285749   1.666353920268150 
 -0.011116556018967  14.463237427722529   1.665022908181875 
  7.512163266686474   1.432862416930917   1.665007471792365 
  6.268770762549877   3.572406738301335   1.666075019557620 
  5.043696258474823   5.712560482773477   1.666807178745825 
  2.435866450295993  10.178752591158347   1.665637417198800 
  1.224120166991096  12.313717597608139   1.665825232206840 
  2.494102147059982  14.471201146042578   1.665174340691445 
 10.015685269527161   1.442614342320829   1.664985254796360 
  8.775590142750005   3.592855353172508   1.664990250645000 
  7.525946174065236   5.733163061945910   1.665106152983925 
  5.023179833659342  10.211746812718244   1.664937448450125 
  3.741115229445552  12.329066948783789   1.664989937413200 
  5.009509434714657  14.469427697489753   1.665057693754155 
 12.520056711388056   1.446902663415712   1.665985182644280 
 11.273277944022460   3.608768533796395   1.665778812348225 
 10.030028818357714   5.772562194849203   1.664857413934935 
  8.796009896785005   7.962693246416021   1.665352350443205 
  7.561925216308817  10.138353455301004   1.665844018598445 
  6.274750994738839  12.320832282916573   1.665036344293290 
  3.830917486958547   7.913932063765182   1.665282738764100 
  8.767341087299224  13.739993947899977   1.664873894683650 
 16.275891456841073   0.723631089449207   1.665007704689505 
 15.022952963467407   2.888011930345898   1.665342620387610 
 13.772979494695306   5.055690806102155   1.664862858084765 
 12.524980425491670   7.225371796423035   1.664351085906015 
 11.275940732699578   9.398494411822956   1.665309979958100 
 10.022327556770840  11.570164947684832   1.665462642437265 
 -6.260406039117000  13.734596638956237   1.664096927226120 
  1.249801024510028   0.719822269177227   1.664877017846550 
 -0.006965545394118   2.882142835797641   1.664406414636840 
 -1.258754407340513   5.054854455791356   1.664595677079240 
 -2.514774802795653   7.227064219546236   1.665154601439780 
 -3.759752153534792   9.399183614688910   1.665432492198240 
 -5.008474647837597  11.568594093047572   1.664647566054090 
 -3.760368012352744  13.735080124680364   1.664512431097095 
  3.751553201327593   0.716968014847844   1.665275137108095 
  2.497768937063633   2.880549116248130   1.665423984992265 
  1.234812718667626   5.039936650955516   1.665005850246930 
 -0.028851509927333   7.225891513240597   1.665729985090050 
 -1.267157493859695   9.401124463176483   1.666545760859730 
 -2.512257746744164  11.570284003580175   1.665987253645095 
 -1.259359220365933  13.737401615637607   1.665340490872680 
  6.256880624326601   0.717255723325901   1.665032206283760 
  5.004463557628800   2.873434942973211   1.666023359509155 
  3.754291921360874   5.039976746018713   1.666087687655400 
  2.425185843145873   7.194181956148790   1.665263486329725 
  1.228172009210609   9.406170276207172   1.665970274862345 
 -0.015031463924891  11.574347254718349   1.666378194549375 
  1.242213873956429  13.743696777888701   1.665032603739825 
  8.763306795440505   0.719682686049342   1.664255363990475 
  7.518921665757967   2.871142975114663   1.664956366558950 
  6.269673912118729   5.010628345376133   1.666156574840850 
  5.128421818914870   7.165127174514199   1.667373477686610 
  3.739180929523922   9.480710996959063   1.665003428475240 
  2.483328554395177  11.590188409878960   1.665158734187640 
  3.744954496860379  13.753024106062176   1.664651586803685 
 11.266532579494172   0.725268713843499   1.665226861149960 
 10.021893389042043   2.881047028798055   1.665086797845090 
  8.787251145138004   5.030117527780066   1.664727239634570 
  7.669978632293457   7.123449101309111   1.662263078006940 
  6.257228305245747   9.590124622257164   1.663648479546675 
  4.997723181394358  11.626758505525901   1.664522770342080 
  6.263188393140084  13.751650523253433   1.664601003055305 
 13.772009065975533   0.726126296915301   1.665609823013025 
 12.523442732146986   2.887745554390889   1.665844992991215 
 11.278232193814206   5.051924466992730   1.664964002814135 
 10.041178692906524   7.219736081602187   1.664845126358220 
  8.783437826762139   9.403414629271534   1.666362797916150 
  7.519869034962803  11.589251233982425   1.665532512953295 
