B N O Se                                
   1.0000000000000000     
     8.7639499999999995  -15.1796066749929999    0.0000000000000000
     8.7639499999999995   15.1796066749929999    0.0000000000000000
     0.0000000000000000    0.0000000000000000   15.0000000000000000
   B    N    O    Se
    48    48     1     1
Selective dynamics
Direct
  0.9050674770304549  0.9527633639614417  0.1110310398599606   T   T   T
  0.9048970656729896  0.0951049555230090  0.1110509276929229   T   T   T
  0.9049342857883561  0.2376669745343374  0.1110497346821586   T   T   T
  0.9055531155765723  0.3806641146657304  0.1110228430089647   T   T   T
  0.9070011388675885  0.5241192417309557  0.1110384532697727   T   T   T
  0.9050823947181950  0.6671698098057918  0.1110848666318529   T   T   T
  0.9040750492647247  0.8092447462732006  0.1110683343106601   T   T   T
  0.0473403698856266  0.9526616513103811  0.1109866354819703   T   T   T
  0.0472386572345637  0.0949345441655381  0.1110310398599606   T   T   T
  0.0468455755481097  0.2375953096751809  0.1110337119859682   T   T   T
  0.0465369755299821  0.3809232855853797  0.1110242705909620   T   T   T
  0.0467910873158894  0.5245498137128860  0.1110121818748919   T   T   T
  0.0472210537700420  0.6675692501028452  0.1110350647915552   T   T   T
  0.0471508859738194  0.8101229906660107  0.1110081676808280   T   T   T
  0.1898790305299831  0.9528511352221853  0.1110081676808280   T   T   T
  0.1907572749228084  0.0959269719312753  0.1110683343106601   T   T   T
  0.1888056162247194  0.2369218066055197  0.1110775406883390   T   T   T
  0.1874646757714470  0.3807308294469405  0.1110252367997044   T   T   T
  0.1862446097139318  0.5250408037611571  0.1110396349519038   T   T   T
  0.1890040007985453  0.6681146670522365  0.1110837162490947   T   T   T
  0.1895075345429318  0.8104944866530668  0.1110543404988815   T   T   T
  0.3324327710941465  0.9527809674259635  0.1110350647915552   T   T   T
  0.3328322113912047  0.0949196264778015  0.1110848666318529   T   T   T
  0.3346964968973629  0.2394147762783183  0.1111069575461599   T   T   T
  0.3281285685910365  0.3794035992054994  0.1109370910439115   T   T   T
  0.3240792247103065  0.5256645191656847  0.1109816198419954   T   T   T
  0.3309671727042070  0.6690348484927886  0.1110787293679728   T   T   T
  0.3318873541447566  0.8109980203974609  0.1110837162490947   T   T   T
  0.4754522074841085  0.9532109338801105  0.1110121818748919   T   T   T
  0.4758827794660375  0.0930008823284083  0.1110384532697727   T   T   T
  0.4763755270631649  0.2317500576020259  0.1110669936613245   T   T   T
  0.4805055594047050  0.3712871387359987  0.1108401220208202   T   T   T
  0.4743375020313102  0.6759227964866859  0.1109816198419954   T   T   T
  0.4749612174358365  0.8137574114820659  0.1110396349519038   T   T   T
  0.6190787356106215  0.9534650456660139  0.1110242705909620   T   T   T
  0.6193379065302803  0.0944489056194220  0.1110228430089647   T   T   T
  0.6202268508585265  0.2354962121875293  0.1110051536098661   T   T   T
  0.6228882306359956  0.3771137905600080  0.1109925154567611   T   T   T
  0.6287148824600056  0.5194964617922950  0.1108401220208202   T   T   T
  0.6205984219905107  0.6718734526059620  0.1109370910439115   T   T   T
  0.6192711917490628  0.8125373454245542  0.1110252367997044   T   T   T
  0.7624067115208195  0.9531564456478905  0.1110337119859682   T   T   T
  0.7623350466616663  0.0950677354076437  0.1110497346821586   T   T   T
  0.7628610751154304  0.2371409460805772  0.1110242330380055   T   T   T
  0.7645058090084772  0.3797751703374823  0.1110051536098661   T   T   T
  0.7682519635939765  0.5236264941338359  0.1110669936613245   T   T   T
  0.7605872449176914  0.6653055242996366  0.1111069575461599   T   T   T
  0.7630802145904848  0.8111964049712862  0.1110775406883390   T   T   T
  0.9520339608034841  0.9046671238062979  0.1110073693529496   T   T   T
  0.9524096879540705  0.0475917139639379  0.1110145078384070   T   T   T
  0.9521240162274577  0.1900025750013499  0.1110301653277833   T   T   T
  0.9520910704756360  0.3326997936833006  0.1110155778489202   T   T   T
  0.9527960672056952  0.4759094198864091  0.1109917741804284   T   T   T
  0.9524810548153320  0.6193881810048908  0.1110542743042110   T   T   T
  0.9520704409046935  0.7621995784630559  0.1110345737865531   T   T   T
  0.0947996623976764  0.9052017395203229  0.1109630171761936   T   T   T
  0.0953342781116980  0.0479674411145203  0.1110073693529496   T   T   T
  0.0941529234851653  0.1896796123487683  0.1110355870350736   T   T   T
  0.0931540164338752  0.3326018754463133  0.1110131124513825   T   T   T
  0.0924354977740140  0.4762018960377469  0.1110147288949413   T   T   T
  0.0941566463275889  0.6198096086561344  0.1110185841435956   T   T   T
  0.0945339900477938  0.7626635376495505  0.1110146177746432   T   T   T
  0.2373378642684564  0.9054674118702014  0.1110146177746432   T   T   T
  0.2378018234549537  0.0479309610133146  0.1110345737865531   T   T   T
  0.2389026591973449  0.1914449532330583  0.1111069970835932   T   T   T
  0.2339694289086195  0.3311132661352483  0.1110174237134897   T   T   T
  0.2307173992859632  0.4762084977072267  0.1109898037890222   T   T   T
  0.2357190813322251  0.6204755182627681  0.1110607300513536   T   T   T
  0.2368231652503519  0.7631782366676512  0.1110883111804364   T   T   T
  0.3801917932618753  0.9058447555904141  0.1110185841435956   T   T   T
  0.3806132209131047  0.0475203471026739  0.1110542743042110   T   T   T
  0.3811856588768334  0.1898765786859546  0.1110835985456207   T   T   T
  0.3842118014458874  0.3363152978993437  0.1109831053158725   T   T   T
  0.3602301234527405  0.4712521882635841  0.1108566040368161   T   T   T
  0.3780688956089310  0.6219325063090700  0.1110499746239857   T   T   T
  0.3795258836552389  0.7642823205857837  0.1110607300513536   T   T   T
  0.5237995058792417  0.9075659041439836  0.1110147288949413   T   T   T
  0.5240919820305924  0.0472053347123101  0.1109917741804284   T   T   T
  0.5248756458201033  0.1867357165830356  0.1110117192453427   T   T   T
  0.5264902749334684  0.3243380424774668  0.1110092633394195   T   T   T
  0.5287492136534139  0.6397712784652608  0.1108566040368161   T   T   T
  0.5237929042097691  0.7692840026320478  0.1109898037890222   T   T   T
  0.6673995264706827  0.9068473854841285  0.1110131124513825   T   T   T
  0.6673016082337038  0.0479103314423741  0.1110155778489202   T   T   T
  0.6678554565034104  0.1890554164630068  0.1110041493098659   T   T   T
  0.6695656123958976  0.3304357895210905  0.1109664136327972   T   T   T
  0.6756633594395154  0.4735111269835228  0.1110092633394195   T   T   T
  0.6636861040176540  0.6157896004721130  0.1109831053158725   T   T   T
  0.6688881357817456  0.7660319730093832  0.1110174237134897   T   T   T
  0.8103217895692313  0.9058484784328356  0.1110355870350736   T   T   T
  0.8099988269166479  0.0478773856905560  0.1110301653277833   T   T   T
  0.8101185324102572  0.1898828695077394  0.1110298421475849   T   T   T
  0.8109459854549956  0.3321459454135886  0.1110041493098659   T   T   T
  0.8132656853349640  0.4751257560968947  0.1110117192453427   T   T   T
  0.8101248232320425  0.6188157430411603  0.1110835985456207   T   T   T
  0.8085564486849409  0.7610987427206608  0.1111069970835932   T   T   T
  0.5441535135959602  0.4558478883210390  0.1104393283270842   T   T   T
  0.4764860675050774  0.5235159536919196  0.1113682342738451   T   T   T

  0.00000000E+00  0.00000000E+00  0.00000000E+00
  0.00000000E+00  0.00000000E+00  0.00000000E+00
  0.00000000E+00  0.00000000E+00  0.00000000E+00
  0.00000000E+00  0.00000000E+00  0.00000000E+00
  0.00000000E+00  0.00000000E+00  0.00000000E+00
  0.00000000E+00  0.00000000E+00  0.00000000E+00
  0.00000000E+00  0.00000000E+00  0.00000000E+00
  0.00000000E+00  0.00000000E+00  0.00000000E+00
  0.00000000E+00  0.00000000E+00  0.00000000E+00
  0.00000000E+00  0.00000000E+00  0.00000000E+00
  0.00000000E+00  0.00000000E+00  0.00000000E+00
  0.00000000E+00  0.00000000E+00  0.00000000E+00
  0.00000000E+00  0.00000000E+00  0.00000000E+00
  0.00000000E+00  0.00000000E+00  0.00000000E+00
  0.00000000E+00  0.00000000E+00  0.00000000E+00
  0.00000000E+00  0.00000000E+00  0.00000000E+00
  0.00000000E+00  0.00000000E+00  0.00000000E+00
  0.00000000E+00  0.00000000E+00  0.00000000E+00
  0.00000000E+00  0.00000000E+00  0.00000000E+00
  0.00000000E+00  0.00000000E+00  0.00000000E+00
  0.00000000E+00  0.00000000E+00  0.00000000E+00
  0.00000000E+00  0.00000000E+00  0.00000000E+00
  0.00000000E+00  0.00000000E+00  0.00000000E+00
  0.00000000E+00  0.00000000E+00  0.00000000E+00
  0.00000000E+00  0.00000000E+00  0.00000000E+00
  0.00000000E+00  0.00000000E+00  0.00000000E+00
  0.00000000E+00  0.00000000E+00  0.00000000E+00
  0.00000000E+00  0.00000000E+00  0.00000000E+00
  0.00000000E+00  0.00000000E+00  0.00000000E+00
  0.00000000E+00  0.00000000E+00  0.00000000E+00
  0.00000000E+00  0.00000000E+00  0.00000000E+00
  0.00000000E+00  0.00000000E+00  0.00000000E+00
  0.00000000E+00  0.00000000E+00  0.00000000E+00
  0.00000000E+00  0.00000000E+00  0.00000000E+00
  0.00000000E+00  0.00000000E+00  0.00000000E+00
  0.00000000E+00  0.00000000E+00  0.00000000E+00
  0.00000000E+00  0.00000000E+00  0.00000000E+00
  0.00000000E+00  0.00000000E+00  0.00000000E+00
  0.00000000E+00  0.00000000E+00  0.00000000E+00
  0.00000000E+00  0.00000000E+00  0.00000000E+00
  0.00000000E+00  0.00000000E+00  0.00000000E+00
  0.00000000E+00  0.00000000E+00  0.00000000E+00
  0.00000000E+00  0.00000000E+00  0.00000000E+00
  0.00000000E+00  0.00000000E+00  0.00000000E+00
  0.00000000E+00  0.00000000E+00  0.00000000E+00
  0.00000000E+00  0.00000000E+00  0.00000000E+00
  0.00000000E+00  0.00000000E+00  0.00000000E+00
  0.00000000E+00  0.00000000E+00  0.00000000E+00
  0.00000000E+00  0.00000000E+00  0.00000000E+00
  0.00000000E+00  0.00000000E+00  0.00000000E+00
  0.00000000E+00  0.00000000E+00  0.00000000E+00
  0.00000000E+00  0.00000000E+00  0.00000000E+00
  0.00000000E+00  0.00000000E+00  0.00000000E+00
  0.00000000E+00  0.00000000E+00  0.00000000E+00
  0.00000000E+00  0.00000000E+00  0.00000000E+00
  0.00000000E+00  0.00000000E+00  0.00000000E+00
  0.00000000E+00  0.00000000E+00  0.00000000E+00
  0.00000000E+00  0.00000000E+00  0.00000000E+00
  0.00000000E+00  0.00000000E+00  0.00000000E+00
  0.00000000E+00  0.00000000E+00  0.00000000E+00
  0.00000000E+00  0.00000000E+00  0.00000000E+00
  0.00000000E+00  0.00000000E+00  0.00000000E+00
  0.00000000E+00  0.00000000E+00  0.00000000E+00
  0.00000000E+00  0.00000000E+00  0.00000000E+00
  0.00000000E+00  0.00000000E+00  0.00000000E+00
  0.00000000E+00  0.00000000E+00  0.00000000E+00
  0.00000000E+00  0.00000000E+00  0.00000000E+00
  0.00000000E+00  0.00000000E+00  0.00000000E+00
  0.00000000E+00  0.00000000E+00  0.00000000E+00
  0.00000000E+00  0.00000000E+00  0.00000000E+00
  0.00000000E+00  0.00000000E+00  0.00000000E+00
  0.00000000E+00  0.00000000E+00  0.00000000E+00
  0.00000000E+00  0.00000000E+00  0.00000000E+00
  0.00000000E+00  0.00000000E+00  0.00000000E+00
  0.00000000E+00  0.00000000E+00  0.00000000E+00
  0.00000000E+00  0.00000000E+00  0.00000000E+00
  0.00000000E+00  0.00000000E+00  0.00000000E+00
  0.00000000E+00  0.00000000E+00  0.00000000E+00
  0.00000000E+00  0.00000000E+00  0.00000000E+00
  0.00000000E+00  0.00000000E+00  0.00000000E+00
  0.00000000E+00  0.00000000E+00  0.00000000E+00
  0.00000000E+00  0.00000000E+00  0.00000000E+00
  0.00000000E+00  0.00000000E+00  0.00000000E+00
  0.00000000E+00  0.00000000E+00  0.00000000E+00
  0.00000000E+00  0.00000000E+00  0.00000000E+00
  0.00000000E+00  0.00000000E+00  0.00000000E+00
  0.00000000E+00  0.00000000E+00  0.00000000E+00
  0.00000000E+00  0.00000000E+00  0.00000000E+00
  0.00000000E+00  0.00000000E+00  0.00000000E+00
  0.00000000E+00  0.00000000E+00  0.00000000E+00
  0.00000000E+00  0.00000000E+00  0.00000000E+00
  0.00000000E+00  0.00000000E+00  0.00000000E+00
  0.00000000E+00  0.00000000E+00  0.00000000E+00
  0.00000000E+00  0.00000000E+00  0.00000000E+00
  0.00000000E+00  0.00000000E+00  0.00000000E+00
  0.00000000E+00  0.00000000E+00  0.00000000E+00
  0.00000000E+00  0.00000000E+00  0.00000000E+00
  0.00000000E+00  0.00000000E+00  0.00000000E+00
