 B S N 
 1.0
 17.527899999999772   0.000000000000000   0.000000000000000
 -8.763949999999658  15.179606674993195   0.000000000000000
  0.000000000000001   0.000000000000002  15.000000000000000
 B S N 
  49   1  47
Cartesian
  7.496514745577139  14.423109624080737   1.465489260091770 
 15.020945510535755   1.414835214801427   1.531195861273530 
 13.778465034822634   3.587822310107477   1.577058192138915 
 12.530349568434914   5.761490505128031   1.604308874782170 
 11.289206724509285   7.939797991669731   1.588360460229495 
 10.035838874181053  10.115857763575146   1.518560482334700 
  8.762784901894445  12.279268800036771   1.427851915488915 
 -7.515285756177771  14.463571266456263   1.486685696710800 
  0.001843673962917   1.453697635439372   1.492706421778815 
 -1.246147522990133   3.611210019639716   1.503242173110030 
 -2.499692471915150   5.771705045337949   1.531440672538920 
 -3.755415851032196   7.942957777693179   1.565186453757450 
 -5.007284809339732  10.119737783328796   1.558163837182485 
 -6.260402563372741  12.294600484871468   1.514518705549980 
 -5.011511811548977  14.472457465560494   1.593976108140390 
  2.504966568097054   1.472236381388930   1.557757850075985 
  1.271502459642297   3.672833986514252   1.517984727734235 
  0.006518520310189   5.802681367477077   1.492023446463885 
 -1.267061773594676   7.952673334368440   1.570628997311655 
 -2.524801420316918  10.119737783328796   1.627690051074450 
 -3.764174280532071  12.296850701788284   1.626342725225115 
 -2.508062072743659  14.463828721857736   1.725656157383190 
  5.006421736994842   1.466093641987377   1.710251978112330 
  3.755244207778403   3.656518213980308   1.686483220138155 
  2.541542976520913   5.946198737307149   1.576248953739375 
  1.223775336558785   7.978466881654748   1.609583335301310 
 -0.055007263034993  10.123998388610493   1.769816672669985 
 -1.267713594454450  12.289178236693429   1.769155236611805 
  0.005009743542766  14.430044710128795   1.805985883978515 
  7.517214378960089   1.438663088611366   1.798067608536585 
  6.266230060709981   3.621828641568928   1.882518418822245 
  4.984559387113396   5.736841505764221   2.123034207523500 
  3.595778331959861   8.673372220649833   1.834668976445430 
  2.442227009018020   9.993061395803215   2.096301693348825 
  1.254774690561714  12.231810898567955   1.898494064480295 
  2.510619902139878  14.397338891220871   1.754081784716685 
 10.027010498927849   1.412096820478409   1.768905456560445 
  8.779168174248269   3.596468083201852   1.832900686423095 
  7.543261003062224   5.779842988613590   1.979357604574695 
  6.422572936511656   8.036380938603923   2.035426244011125 
  4.975421592065247   9.922295595074912   1.407767088991605 
  3.739401374191448  12.174132885758707   1.704956684729850 
  4.994670670187965  14.391519022700646   1.568995639290345 
 12.524717769425182   1.402357296585856   1.649269080828075 
 11.280436145472599   3.584190139786367   1.698125127775350 
 10.036896778830814   5.763172219658097   1.736200520862615 
  8.817075208636354   7.943769570638674   1.700659521088395 
  7.550375230786297  10.109223141657315   1.492455402913800 
  6.222129165387743  12.201739235978305   1.433433987780810 
  4.903765589184928   7.472838268586309   2.872979685552825 
  8.762151425806291  13.724686236712655   1.442648465227785 
 16.276612567457882   0.701528916372814   1.489786647647565 
 15.030682657629589   2.867763141132399   1.533889442960205 
 13.778322785049287   5.037211717985097   1.566632668045470 
 12.528706622382746   7.210235864362878   1.579133299101255 
 11.278266009506559   9.387914340023281   1.547950812139095 
 10.019402360186838  11.561978213321838   1.468987846392555 
 -6.261618748884174  13.743969720535638   1.522782778268715 
  1.256107090937659   0.735339893061924   1.502742738386700 
  0.018777582822397   2.911787062261189   1.496089118965785 
 -1.245459694799354   5.059868891664398   1.494750186676680 
 -2.510841110149906   7.218415867955906   1.548390772373100 
 -3.767655696682518   9.392093962737231   1.576293229505925 
 -5.012436449483068  11.569828722335433   1.561091580011355 
 -3.763007160296202  13.746034608099841   1.649017848970590 
  3.755572167689260   0.745033524192490   1.615592238878760 
  2.514906163778605   2.928383104255276   1.565135807203785 
  1.292655202942681   5.136293809786794   1.503254166020220 
 -0.017586404255427   7.237860975924318   1.530229506779625 
 -1.290124325272707   9.397353111661007   1.637160252575895 
 -2.519928438075445  11.570257504778242   1.674653450796735 
 -1.262009992714593  13.734237173551543   1.780255988056215 
  6.255918599779420   0.734075658132400   1.750995022868130 
  5.007237930057914   2.921872144774835   1.771995380808045 
  3.761326556508597   5.121974009967535   1.765968838921005 
  2.542620484831967   7.412281733626416   1.509427950020400 
  1.164961230925338   9.397316168896802   1.837429725084105 
 -0.026778192084810  11.560660757796533   1.850467243765515 
  1.254362742205121  13.688287449817825   1.831675127212950 
  8.767485646888986   0.703241076213350   1.797522201834525 
  7.516236378813430   2.891309097685736   1.845949043709660 
  6.265315685137943   5.078869306821498   2.044570144499745 
  2.501766845429278  11.467038197259413   1.981478214634995 
  3.751943584630598  13.646824357514744   1.672235500977540 
 11.274833137938892   0.675520513088406   1.726597466498310 
 10.025600958786782   2.865092076724135   1.769568491056920 
  8.779118168903372   5.047347564276792   1.860380067097230 
  7.581541231654472   7.226314700987825   1.933481584321095 
  6.316527934711845   9.367351534172824   1.582476779382420 
  4.965439877155622  11.416296896847731   1.453311556552335 
  6.242970762238709  13.666217544979245   1.479094367274915 
 13.771297614535733   0.671839198254648   1.579243987854540 
 12.527495868846898   2.855909635702754   1.638239272898835 
 11.279513299340824   5.033818288073305   1.675326160006155 
 10.046380760535364   7.208765023925947   1.660392441140085 
  8.795395123638109   9.382470141030586   1.562830355738310 
  7.513463693467790  11.539184269758405   1.394082699828360 
