B N As P                                
   1.0000000000000000     
     8.7639499999999995  -15.1796066749929999    0.0000000000000000
     8.7639499999999995   15.1796066749929999    0.0000000000000000
     0.0000000000000000    0.0000000000000000   15.0000000000000000
   B    N    As   P 
    48    48     1     1
Selective dynamics
Direct
  0.9062459433350953  0.9539352392344047  0.1109770932031296   T   T   T
  0.9045099308137631  0.0954920903822545  0.1110341032858958   T   T   T
  0.9040959716490647  0.2378729211101300  0.1110271085619395   T   T   T
  0.9049502837913038  0.3808426245894548  0.1109543114959927   T   T   T
  0.9075136951723757  0.5243625072843398  0.1109703828832881   T   T   T
  0.9075270576462875  0.6681015256874225  0.1109974634055683   T   T   T
  0.9081339529640472  0.8121219896953702  0.1109931491529422   T   T   T
  0.0479353569892209  0.9520666642068772  0.1110249053588420   T   T   T
  0.0460667819613721  0.0937560778607802  0.1109770932031296   T   T   T
  0.0452236362274081  0.2366652202264435  0.1109265045013407   T   T   T
  0.0456103560178338  0.3803979649869479  0.1109103381831613   T   T   T
  0.0470436336608592  0.5241499285778699  0.1109518518324751   T   T   T
  0.0485852469946727  0.6672379067703342  0.1110277032072575   T   T   T
  0.0487424483302896  0.8098855997990451  0.1110425936909548   T   T   T
  0.1901164213972557  0.9512595728654394  0.1110425936909548   T   T   T
  0.1878800315005751  0.0918680682317546  0.1109931491529422   T   T   T
  0.1852242295916073  0.2333983655294078  0.1108714744272823   T   T   T
  0.1853519074060994  0.3784871875290640  0.1108816034361626   T   T   T
  0.1861651141995255  0.5239624720528191  0.1108545280732999   T   T   T
  0.1901322734495154  0.6671805173334674  0.1109972400144643   T   T   T
  0.1905480083965158  0.8094540127993687  0.1110014138082133   T   T   T
  0.3327641144264156  0.9514167742015031  0.1110277032072575   T   T   T
  0.3319004955094900  0.0924749635496635  0.1109974634055653   T   T   T
  0.3269646326078106  0.2307724584339940  0.1109530555232760   T   T   T
  0.3229740109032659  0.3716673688243237  0.1113843842363403   T   T   T
  0.3227093159597424  0.5230187860320684  0.1113276703758310   T   T   T
  0.3322892316206203  0.6677127895762777  0.1109946891133111   T   T   T
  0.3328215038633531  0.8098697477467974  0.1109972400144642   T   T   T
  0.4758520926190037  0.9529583875353437  0.1109518518324751   T   T   T
  0.4756395139125671  0.0924883260235713  0.1109703828832881   T   T   T
  0.4754542715265685  0.2308789502773483  0.1109492855147688   T   T   T
  0.4642448246233469  0.3574477820109378  0.1112910827885761   T   T   T
  0.4769832351651678  0.6772927052369082  0.1113276703758310   T   T   T
  0.4760395491442321  0.8138369069964985  0.1108545280732999   T   T   T
  0.6196040562091762  0.9543916651782861  0.1109103381831613   T   T   T
  0.6191593966066891  0.0950517374048012  0.1109543114959927   T   T   T
  0.6195277160519798  0.2361514215139962  0.1109383721630802   T   T   T
  0.6215514552611665  0.3784505659348752  0.1110614833721901   T   T   T
  0.6425542391850686  0.5357571965735854  0.1112910827885761   T   T   T
  0.6283346523721163  0.6770280102936269  0.1113843842363403   T   T   T
  0.6215148336667856  0.8146501137899353  0.1108816034361626   T   T   T
  0.7633368009695247  0.9547783849686616  0.1109265045013407   T   T   T
  0.7621291000860971  0.0959060495470588  0.1110271085619395   T   T   T
  0.7622451706953959  0.2377568505003189  0.1110008383969081   T   T   T
  0.7638505996821042  0.3804743051440589  0.1109383721630802   T   T   T
  0.7691230709184066  0.5245477496703449  0.1109492855147689   T   T   T
  0.7692295627621651  0.6730373885890695  0.1109530555232760   T   T   T
  0.7666036556664865  0.8147777916043688  0.1108714744272823   T   T   T
  0.9538058299823203  0.9062727122199503  0.1109947445838718   T   T   T
  0.9520201590647266  0.0479812428535791  0.1110001717247485   T   T   T
  0.9510363620700290  0.1900348078720082  0.1110066681445731   T   T   T
  0.9513636698791991  0.3327471900352625  0.1109529449662652   T   T   T
  0.9530656805521074  0.4759591593081846  0.1109489783244119   T   T   T
  0.9541209201531168  0.6196442942849274  0.1110019289012075   T   T   T
  0.9543168135178023  0.7631473614096023  0.1110271974345717   T   T   T
  0.0954756295327260  0.9045257723856391  0.1110235508482286   T   T   T
  0.0937286896979947  0.0461955719357622  0.1109947445838718   T   T   T
  0.0915900061493977  0.1879557961710017  0.1108849797630815   T   T   T
  0.0916270905023318  0.3316149702526070  0.1108665010440558   T   T   T
  0.0924920887474581  0.4756472268862805  0.1108721002104694   T   T   T
  0.0953788511432739  0.6192880906420349  0.1109871980936212   T   T   T
  0.0958894390449206  0.7621169647432477  0.1110011489008998   T   T   T
  0.2378844371746236  0.9041119628731767  0.1110011489008998   T   T   T
  0.2368540405084511  0.0456845884003252  0.1110271974345717   T   T   T
  0.2331106189694460  0.1857590047561513  0.1108850714232198   T   T   T
  0.2299286279266023  0.3275976794634761  0.1109026237726931   T   T   T
  0.2300829105924567  0.4745158871236263  0.1108333905303730   T   T   T
  0.2370515351893503  0.6193420119816873  0.1109256661831426   T   T   T
  0.2379500027292647  0.7620513991887773  0.1109983282668556   T   T   T
  0.3807133112764420  0.9046225507748246  0.1109871980936212   T   T   T
  0.3803571076331974  0.0458804817645274  0.1110019289012075   T   T   T
  0.3789627163731378  0.1866872567192184  0.1108994535868739   T   T   T
  0.3711492587184703  0.3242786189096461  0.1111842078700478   T   T   T
  0.3576964154207088  0.4658612317154377  0.1120143419358808   T   T   T
  0.3800381772902013  0.6199632246279382  0.1111735913987173   T   T   T
  0.3806593899362856  0.7629498667284628  0.1109256661831426   T   T   T
  0.5243541750307239  0.9075093131704044  0.1108721002104694   T   T   T
  0.5240422426089978  0.0469357213656914  0.1109489783244119   T   T   T
  0.5242251046012152  0.1861746932719666  0.1109060231546890   T   T   T
  0.5242782022590246  0.3233933641585637  0.1110640058460206   T   T   T
  0.5341401702016556  0.6423049864975422  0.1120143419358808   T   T   T
  0.5254855147933234  0.7699184913256516  0.1108333905303730   T   T   T
  0.6683864316643281  0.9083743114154944  0.1108665010440558   T   T   T
  0.6672542118817981  0.0486377320387517  0.1109529449662652   T   T   T
  0.6673371393280877  0.1897248224868476  0.1109461381278987   T   T   T
  0.6684868640709807  0.3315145378458926  0.1109506221063522   T   T   T
  0.6766080377584217  0.4757231996578932  0.1110640058460206   T   T   T
  0.6757227830072680  0.6288521431997195  0.1111842078700478   T   T   T
  0.6724037224534338  0.7700727739915577  0.1109026237726931   T   T   T
  0.8120456057470654  0.9084113957685652  0.1108849797630815   T   T   T
  0.8099665940457198  0.0489650398479479  0.1110066681445714   T   T   T
  0.8095085464782085  0.1904928554396454  0.1110286783810721   T   T   T
  0.8102765794313562  0.3326642625886460  0.1109461381278987   T   T   T
  0.8138267086457998  0.4757762973157961  0.1109060231546890   T   T   T
  0.8133141451988057  0.6210386855447521  0.1108994535868739   T   T   T
  0.8142423971617524  0.7668907829486712  0.1108850714232198   T   T   T
  0.4692215567825821  0.5307804644144095  0.1117636950362888   T   T   T
  0.5336039698565936  0.4663974320605854  0.1112389099643158   T   T   T

  0.00000000E+00  0.00000000E+00  0.00000000E+00
  0.00000000E+00  0.00000000E+00  0.00000000E+00
  0.00000000E+00  0.00000000E+00  0.00000000E+00
  0.00000000E+00  0.00000000E+00  0.00000000E+00
  0.00000000E+00  0.00000000E+00  0.00000000E+00
  0.00000000E+00  0.00000000E+00  0.00000000E+00
  0.00000000E+00  0.00000000E+00  0.00000000E+00
  0.00000000E+00  0.00000000E+00  0.00000000E+00
  0.00000000E+00  0.00000000E+00  0.00000000E+00
  0.00000000E+00  0.00000000E+00  0.00000000E+00
  0.00000000E+00  0.00000000E+00  0.00000000E+00
  0.00000000E+00  0.00000000E+00  0.00000000E+00
  0.00000000E+00  0.00000000E+00  0.00000000E+00
  0.00000000E+00  0.00000000E+00  0.00000000E+00
  0.00000000E+00  0.00000000E+00  0.00000000E+00
  0.00000000E+00  0.00000000E+00  0.00000000E+00
  0.00000000E+00  0.00000000E+00  0.00000000E+00
  0.00000000E+00  0.00000000E+00  0.00000000E+00
  0.00000000E+00  0.00000000E+00  0.00000000E+00
  0.00000000E+00  0.00000000E+00  0.00000000E+00
  0.00000000E+00  0.00000000E+00  0.00000000E+00
  0.00000000E+00  0.00000000E+00  0.00000000E+00
  0.00000000E+00  0.00000000E+00  0.00000000E+00
  0.00000000E+00  0.00000000E+00  0.00000000E+00
  0.00000000E+00  0.00000000E+00  0.00000000E+00
  0.00000000E+00  0.00000000E+00  0.00000000E+00
  0.00000000E+00  0.00000000E+00  0.00000000E+00
  0.00000000E+00  0.00000000E+00  0.00000000E+00
  0.00000000E+00  0.00000000E+00  0.00000000E+00
  0.00000000E+00  0.00000000E+00  0.00000000E+00
  0.00000000E+00  0.00000000E+00  0.00000000E+00
  0.00000000E+00  0.00000000E+00  0.00000000E+00
  0.00000000E+00  0.00000000E+00  0.00000000E+00
  0.00000000E+00  0.00000000E+00  0.00000000E+00
  0.00000000E+00  0.00000000E+00  0.00000000E+00
  0.00000000E+00  0.00000000E+00  0.00000000E+00
  0.00000000E+00  0.00000000E+00  0.00000000E+00
  0.00000000E+00  0.00000000E+00  0.00000000E+00
  0.00000000E+00  0.00000000E+00  0.00000000E+00
  0.00000000E+00  0.00000000E+00  0.00000000E+00
  0.00000000E+00  0.00000000E+00  0.00000000E+00
  0.00000000E+00  0.00000000E+00  0.00000000E+00
  0.00000000E+00  0.00000000E+00  0.00000000E+00
  0.00000000E+00  0.00000000E+00  0.00000000E+00
  0.00000000E+00  0.00000000E+00  0.00000000E+00
  0.00000000E+00  0.00000000E+00  0.00000000E+00
  0.00000000E+00  0.00000000E+00  0.00000000E+00
  0.00000000E+00  0.00000000E+00  0.00000000E+00
  0.00000000E+00  0.00000000E+00  0.00000000E+00
  0.00000000E+00  0.00000000E+00  0.00000000E+00
  0.00000000E+00  0.00000000E+00  0.00000000E+00
  0.00000000E+00  0.00000000E+00  0.00000000E+00
  0.00000000E+00  0.00000000E+00  0.00000000E+00
  0.00000000E+00  0.00000000E+00  0.00000000E+00
  0.00000000E+00  0.00000000E+00  0.00000000E+00
  0.00000000E+00  0.00000000E+00  0.00000000E+00
  0.00000000E+00  0.00000000E+00  0.00000000E+00
  0.00000000E+00  0.00000000E+00  0.00000000E+00
  0.00000000E+00  0.00000000E+00  0.00000000E+00
  0.00000000E+00  0.00000000E+00  0.00000000E+00
  0.00000000E+00  0.00000000E+00  0.00000000E+00
  0.00000000E+00  0.00000000E+00  0.00000000E+00
  0.00000000E+00  0.00000000E+00  0.00000000E+00
  0.00000000E+00  0.00000000E+00  0.00000000E+00
  0.00000000E+00  0.00000000E+00  0.00000000E+00
  0.00000000E+00  0.00000000E+00  0.00000000E+00
  0.00000000E+00  0.00000000E+00  0.00000000E+00
  0.00000000E+00  0.00000000E+00  0.00000000E+00
  0.00000000E+00  0.00000000E+00  0.00000000E+00
  0.00000000E+00  0.00000000E+00  0.00000000E+00
  0.00000000E+00  0.00000000E+00  0.00000000E+00
  0.00000000E+00  0.00000000E+00  0.00000000E+00
  0.00000000E+00  0.00000000E+00  0.00000000E+00
  0.00000000E+00  0.00000000E+00  0.00000000E+00
  0.00000000E+00  0.00000000E+00  0.00000000E+00
  0.00000000E+00  0.00000000E+00  0.00000000E+00
  0.00000000E+00  0.00000000E+00  0.00000000E+00
  0.00000000E+00  0.00000000E+00  0.00000000E+00
  0.00000000E+00  0.00000000E+00  0.00000000E+00
  0.00000000E+00  0.00000000E+00  0.00000000E+00
  0.00000000E+00  0.00000000E+00  0.00000000E+00
  0.00000000E+00  0.00000000E+00  0.00000000E+00
  0.00000000E+00  0.00000000E+00  0.00000000E+00
  0.00000000E+00  0.00000000E+00  0.00000000E+00
  0.00000000E+00  0.00000000E+00  0.00000000E+00
  0.00000000E+00  0.00000000E+00  0.00000000E+00
  0.00000000E+00  0.00000000E+00  0.00000000E+00
  0.00000000E+00  0.00000000E+00  0.00000000E+00
  0.00000000E+00  0.00000000E+00  0.00000000E+00
  0.00000000E+00  0.00000000E+00  0.00000000E+00
  0.00000000E+00  0.00000000E+00  0.00000000E+00
  0.00000000E+00  0.00000000E+00  0.00000000E+00
  0.00000000E+00  0.00000000E+00  0.00000000E+00
  0.00000000E+00  0.00000000E+00  0.00000000E+00
  0.00000000E+00  0.00000000E+00  0.00000000E+00
  0.00000000E+00  0.00000000E+00  0.00000000E+00
  0.00000000E+00  0.00000000E+00  0.00000000E+00
  0.00000000E+00  0.00000000E+00  0.00000000E+00
