Species order:X N B                     
   2.51242800000000     
     5.9449720136058266    0.0000000000000000    0.0000000000000000
    -2.9724860068029120    5.1484967885702053   -0.0000000000000001
     0.0000000000000000    0.0000000000000009    5.3101128803662583
   C    O    N    B 
     1     1   143   143
Direct
  0.4418244526678428  0.3875788930005856  0.3750000000000000
  0.5531258347478835  0.4432295840406096  0.3750000000000000
  0.1110217654531322  0.0555129744604799  0.1250817448290289
  0.6109156276971608  0.5554150663959293  0.1258485815577048
  0.4443803323429906  0.0555364449381776  0.1250757113996672
  0.9443595331067158  0.5555151760261533  0.1250315560808221
  0.7776763592172565  0.0555048462752960  0.1250056841195444
  0.1110444095314181  0.7221888714323769  0.6250013793426290
  0.4443803323429906  0.7221772207381487  0.6249242886003326
  0.2776483405148066  0.2221683021421366  0.6247610831234763
  0.7776725964155665  0.7221385956988733  0.6248016037255947
  0.6110302906183515  0.2222087821875158  0.6248434589331912
  0.9443408913606322  0.2221755672144696  0.6249925099477646
  0.2777226310015258  0.7221906787315017  0.1250222123524611
  0.1109773928224227  0.2221553630778756  0.1250248418744639
  0.4443365026515220  0.2221820156165270  0.1252288552080242
  0.6110302906183515  0.7221548417641638  0.1251565410668089
  0.9443595331067158  0.7221776904138985  0.1250315560808221
  0.7776973231406257  0.2222062010289567  0.1250621799531414
  0.1110455861027491  0.8888556809414002  0.6249683864222824
  0.4443792315832240  0.8888562824582763  0.6249677936639383
  0.2776483405148066  0.3888133717059984  0.6247610831234763
  0.6109156276971608  0.3888338946345605  0.6241514184422952
  0.7776973231406257  0.8888244554449976  0.6249378200468584
  0.9443772274136079  0.3888650293628542  0.6249682675996197
  0.1110217654531322  0.3888421243259809  0.1250817448290289
  0.2777226310015258  0.8888652856033531  0.1250222123524611
  0.6110339643147955  0.8888416600744273  0.1250379210861856
  0.4442957696781233  0.3888145515057259  0.1249764564599151
  0.9443772274136079  0.8888455313840822  0.1250317324003803
  0.7776725964155665  0.3888673340500289  0.1251983962744053
  0.2777000583455826  0.5555069938348595  0.6249091006123879
  0.1110217654531322  0.0555129744604799  0.6249182551709712
  0.6109156276971608  0.5554150663959293  0.6241514184422952
  0.4443803323429906  0.0555364449381776  0.6249242886003326
  0.9443595331067158  0.5555151760261533  0.6249684439191781
  0.1110455861027491  0.5555232384946844  0.1250316135777176
  0.7776763592172565  0.0555048462752960  0.6249943158804556
  0.2777000583455826  0.0555263978440588  0.1250908993876122
  0.4443365026515220  0.5554878203683308  0.1252288552080242
  0.7776361910672246  0.5554847622002838  0.1252493245500753
  0.6110339643147955  0.0555256375736897  0.1250379210861856
  0.4443365026515220  0.5554878203683308  0.6247711447919758
  0.9443408913606322  0.0554986574794982  0.1250074900522355
  0.2777226310015258  0.7221906787315017  0.6249777876475389
  0.1109773928224227  0.2221553630778756  0.6249751581255362
  0.4443365026515220  0.2221820156165270  0.6247711447919758
  0.6110302906183515  0.7221548417641638  0.6248434589331912
  0.9443595331067158  0.7221776904138985  0.6249684439191781
  0.7776973231406257  0.2222062010289567  0.6249378200468584
  0.1110444095314181  0.7221888714323769  0.1249986206573710
  0.4443803323429906  0.7221772207381487  0.1250757113996672
  0.2776483405148066  0.2221683021421366  0.1252389168765239
  0.7776725964155665  0.7221385956988733  0.1251983962744053
  0.6110302906183515  0.2222087821875158  0.1251565410668089
  0.9443408913606322  0.2221755672144696  0.1250074900522355
  0.1110217654531322  0.3888421243259809  0.6249182551709712
  0.2777226310015258  0.8888652856033531  0.6249777876475389
  0.6110339643147955  0.8888416600744273  0.6249620789138144
  0.4442957696781233  0.3888145515057259  0.6250235435400846
  0.9443772274136079  0.8888455313840822  0.6249682675996197
  0.1110455861027491  0.8888556809414002  0.1250316135777176
  0.7776725964155665  0.3888673340500289  0.6248016037255947
  0.4443792315832240  0.8888562824582763  0.1250322063360618
  0.2776483405148066  0.3888133717059984  0.1252389168765239
  0.2777000583455826  0.5555069938348595  0.1250908993876122
  0.6109156276971608  0.3888338946345605  0.1258485815577048
  0.7776973231406257  0.8888244554449976  0.1250621799531414
  0.9443772274136079  0.3888650293628542  0.1250317324003803
  0.1110455861027491  0.5555232384946844  0.6249683864222824
  0.2777000583455826  0.0555263978440588  0.6249091006123879
  0.7776361910672246  0.5554847622002838  0.6247506754499247
  0.6110339643147955  0.0555256375736897  0.6249620789138144
  0.9443408913606322  0.0554986574794982  0.6249925099477646
  0.0559276183608617  0.1113449279095070  0.3750000000000000
  0.5552999932509596  0.6102561438702747  0.3750000000000000
  0.3889339632344799  0.1118847086630111  0.3750000000000000
  0.8892155373567270  0.6112744353450383  0.3750000000000000
  0.7222543862312398  0.1112015141787789  0.3750000000000000
  0.0555839268020648  0.7777958050651455  0.8750000000000000
  0.3889236694345433  0.7777919650835926  0.8750000000000000
  0.2222677871083664  0.2778005602208511  0.8750000000000000
  0.7222714916254259  0.7778071422276377  0.8750000000000000
  0.5556073052424630  0.2778050750688761  0.8750000000000000
  0.8889332798177481  0.2777994096926757  0.8750000000000000
  0.2223919764177399  0.7778626548755376  0.3750000000000000
  0.0559276183608617  0.2779160237846904  0.3750000000000000
  0.3908735752183944  0.2807882800735601  0.3750000000000000
  0.5555337328046647  0.7774598280752705  0.3750000000000000
  0.8885338610985978  0.7773569523066131  0.3750000000000000
  0.7219978755583251  0.2779907958862113  0.3750000000000000
  0.0556000726756807  0.9444672344790132  0.8750000000000000
  0.3889236694345433  0.9444650376842862  0.8750000000000000
  0.2222680576486077  0.4444660548523030  0.8750000000000000
  0.5556103576684349  0.4444718455008782  0.8750000000000000
  0.7222544523012573  0.9444593348737222  0.8750000000000000
  0.8889343332175365  0.4444595420541814  0.8750000000000000
  0.0557982173571188  0.4443573891800097  0.3750000000000000
  0.2223814047013979  0.9446630275503564  0.3750000000000000
  0.5555820806748639  0.9444577070040960  0.3750000000000000
  0.3908735752183944  0.4434186284781701  0.3750000000000000
  0.8889314268520941  0.9444114972198995  0.3750000000000000
  0.7210828620220489  0.4448343592631746  0.3750000000000000
  0.2222579691742342  0.6111245888483963  0.8750000000000000
  0.0555947056102733  0.1111300436832899  0.8750000000000000
  0.5556073052424630  0.6111355635069154  0.8750000000000000
  0.3889347997736776  0.1111401044246324  0.8750000000000000
  0.8889166773298137  0.6111250053315748  0.8750000000000000
  0.0557442086527747  0.6111712078733732  0.3750000000000000
  0.7222544523012573  0.1111284507608706  0.8750000000000000
  0.2233613520790083  0.1121920136852841  0.3750000000000000
  0.3889339632344799  0.6103825879048114  0.3750000000000000
  0.7210828620220489  0.6095818360922171  0.3750000000000000
  0.5555337328046647  0.1114072380627225  0.3750000000000000
  0.3889347997736776  0.6111280286823807  0.8750000000000000
  0.8890993944015639  0.1112163638674497  0.3750000000000000
  0.2222500946670121  0.7777917140001703  0.8750000000000000
  0.0555947056102733  0.2777979952603191  0.8750000000000000
  0.3889404002945362  0.2778017159630805  0.8750000000000000
  0.5555962231162976  0.7777944075045874  0.8750000000000000
  0.8889343332175365  0.7778081244966908  0.8750000000000000
  0.7222714916254259  0.2777976827311239  0.8750000000000000
  0.0557442086527747  0.7779063341127443  0.3750000000000000
  0.3889902825289751  0.7776240663836574  0.3750000000000000
  0.2226989900787236  0.2780161617060333  0.3750000000000000
  0.7219978755583251  0.7773404130054495  0.3750000000000000
  0.5552999932509596  0.2783771827140277  0.3750000000000000
  0.8889314268520941  0.2778532629655233  0.3750000000000000
  0.0556000726756807  0.4444661715299960  0.8750000000000000
  0.2222579691742342  0.9444667136591735  0.8750000000000000
  0.5555837101646255  0.9444585217489805  0.8750000000000000
  0.3889404002945362  0.4444720176647843  0.8750000000000000
  0.8889332798177481  0.9444672034584084  0.8750000000000000
  0.0557982173571188  0.9447741615104376  0.3750000000000000
  0.7222621151650076  0.4444621879845815  0.8750000000000000
  0.3889902825289751  0.9446995494786532  0.3750000000000000
  0.2233613520790083  0.4445026717270598  0.3750000000000000
  0.2223814047013979  0.6110517104843772  0.3750000000000000
  0.7222543862312398  0.9443862053857965  0.3750000000000000
  0.8885338610985978  0.4445102421253203  0.3750000000000000
  0.0555839268020648  0.6111214550702549  0.8750000000000000
  0.2222680576486077  0.1111353361296404  0.8750000000000000
  0.7222621151650077  0.6111332605137616  0.8750000000000000
  0.5555962231162976  0.1111351489450456  0.8750000000000000
  0.8889220925348905  0.1111277129341132  0.8750000000000000
  0.1117682831083285  0.0561045147819528  0.3750000000000000
  0.6125534539605698  0.5588230541899489  0.3750000000000000
  0.4442461359315171  0.0557597317680298  0.3750000000000000
  0.9449028777945938  0.5559961421061523  0.3750000000000000
  0.7780185974845646  0.0556759654089501  0.3750000000000000
  0.1111402356605824  0.7222367844969519  0.8750000000000000
  0.4444802745027520  0.7222472953302678  0.8750000000000000
  0.2778035687357048  0.2222350549185387  0.8750000000000000
  0.7778444259086196  0.7222770697590072  0.8750000000000000
  0.6111696640850777  0.2222364662428888  0.8750000000000000
  0.9444899428222970  0.2222453991588122  0.8750000000000000
  0.2778816789271866  0.7221786658662077  0.3750000000000000
  0.1115908409362248  0.2224620871347803  0.3750000000000000
  0.4443871057152166  0.2225793522028581  0.3750000000000000
  0.6111746810044744  0.7224567538386542  0.3750000000000000
  0.9449028777945938  0.7222400690217771  0.3750000000000000
  0.7779468536263016  0.2222423999854877  0.3750000000000000
  0.1111557595251123  0.8889155538308110  0.8750000000000000
  0.4444758131182910  0.8889045732258135  0.8750000000000000
  0.2778035687357048  0.3889018471504947  0.8750000000000000
  0.6111632622155302  0.3888970555093117  0.8750000000000000
  0.7778386545955646  0.8889339312862933  0.8750000000000000
  0.9445075316457747  0.3889034871458685  0.8750000000000000
  0.1117682831083285  0.3889971016597044  0.3750000000000000
  0.2778816789271866  0.8890363463943004  0.3750000000000000
  0.6111798912367779  0.8889426246412148  0.3750000000000000
  0.9446170346185284  0.8889903941298818  0.3750000000000000
  0.7777582841879682  0.3888721692990704  0.3750000000000000
  0.2778149678139055  0.5555819376062898  0.8750000000000000
  0.1111496820179579  0.0555750347454621  0.8750000000000000
  0.6111632622155302  0.5555995400395474  0.8750000000000000
  0.4444802745027520  0.0555663125058199  0.8750000000000000
  0.9444969679729128  0.5555769101412144  0.8750000000000000
  0.1113244089790831  0.5556394559693447  0.3750000000000000
  0.7778114919328790  0.0555724126331072  0.8750000000000000
  0.2779049370380006  0.0556490053196551  0.3750000000000000
  0.4443871057152166  0.5551410868456941  0.3750000000000000
  0.7788775732183294  0.5561054532758363  0.3750000000000000
  0.6111798912367779  0.0555705999288916  0.3750000000000000
  0.4444808258886448  0.5555846083962140  0.8750000000000000
  0.9448157737491107  0.0557298234627977  0.3750000000000000
  0.2778097420109345  0.7222345334322997  0.8750000000000000
  0.1111448541078503  0.2222390937205930  0.8750000000000000
  0.4444808258886448  0.2222295508257735  0.8750000000000000
  0.6111696640850777  0.7222665311755107  0.8750000000000000
  0.9444969679729128  0.7222533911650341  0.8750000000000000
  0.7778386545955646  0.2222380566426000  0.8750000000000000
  0.1113440453479502  0.7223386893406395  0.3750000000000000
  0.4442461359315171  0.7218197374968230  0.3750000000000000
  0.2787524902255566  0.2233325859011720  0.3750000000000000
  0.7777582841879682  0.7222194482222265  0.3750000000000000
  0.6111746810044744  0.2220512604991490  0.3750000000000000
  0.9448157737491107  0.2224192836196488  0.3750000000000000
  0.1111496820179579  0.3889079806058173  0.8750000000000000
  0.2778097420109345  0.8889085419119561  0.8750000000000000
  0.6111492288514654  0.8889185207536189  0.8750000000000000
  0.4444612500668811  0.3888972917001048  0.8750000000000000
  0.9445075316457747  0.8889373778332350  0.8750000000000000
  0.1113244089790831  0.8890182863430672  0.3750000000000000
  0.7778444259086196  0.3889006894829338  0.8750000000000000
  0.4444693086862222  0.8889013210097753  0.3750000000000000
  0.2787524902255566  0.3887532376577131  0.3750000000000000
  0.2779049370380006  0.5555892650516742  0.3750000000000000
  0.6125534539605698  0.3870637331039492  0.3750000000000000
  0.7779468536263016  0.8890377869741424  0.3750000000000000
  0.9446170346185284  0.3889599738219751  0.3750000000000000
  0.1111557595251123  0.5555735390276300  0.8750000000000000
  0.2778149678139055  0.0555663635409512  0.8750000000000000
  0.7778396970334599  0.5555865151833975  0.8750000000000000
  0.6111492288514654  0.0555640414311679  0.8750000000000000
  0.9444899428222970  0.0555778769968134  0.8750000000000000
  0.0554343214514996  0.1110326744383336  0.1250066270104389
  0.5553538996284625  0.6110897659519605  0.1251598469063720
  0.3887337064424171  0.1109804599912331  0.1251041219462628
  0.8888810402596380  0.6111071867964905  0.1250907901227901
  0.7221268217106469  0.1110502467597502  0.1249883901724297
  0.0555005737246706  0.7777325909774051  0.6249688490156876
  0.3887934262933600  0.7777322462629161  0.6249626934865412
  0.2220510052059227  0.2776921692696291  0.6249120537721388
  0.7221248092703394  0.7777250933685110  0.6249780855206417
  0.5553538996284625  0.2775974670098377  0.6248401530936281
  0.8888232237071600  0.2777530793583470  0.6250070249474062
  0.2221480310644234  0.7777406821988796  0.1250172340208694
  0.0554343214514996  0.2777349803465016  0.1250066270104389
  0.3886574959028053  0.2776491713677527  0.1251018687025404
  0.5554339327748115  0.7777453834826981  0.1250022530988051
  0.8888364371526549  0.7777392164574070  0.1250157858250937
  0.7221248092703394  0.2777330492351641  0.1250219144793512
  0.0554716500902581  0.9444041965681776  0.6249703266605184
  0.3887934262933600  0.9443945133637792  0.6249626934865412
  0.2220757998653001  0.4443892170277368  0.6248906059274476
  0.5552575154659117  0.4442954243996166  0.6253798901770143
  0.7221268217106469  0.9444099082842321  0.6250116098275704
  0.8888364371526549  0.4444305540285837  0.6249842141749062
  0.0554716500902581  0.4444007868554088  0.1250296733394815
  0.2221430369945593  0.9443906599181850  0.1250406952741600
  0.5554672390512243  0.9444002861922730  0.1250110017437424
  0.3886574959028053  0.4443416578683885  0.1251018687025404
  0.8888232237071600  0.9444034776821557  0.1249929750525933
  0.7221526534512721  0.4443931279498241  0.1252414048494651
  0.2221430369945593  0.6110857104097026  0.6249593047258398
  0.0554343214514996  0.1110326744383336  0.6249933729895613
  0.5553538996284625  0.6110897659519605  0.6248401530936281
  0.3887337064424171  0.1109804599912331  0.6248958780537371
  0.8888810402596380  0.6111071867964905  0.6249092098772100
  0.0555005737246706  0.6111013160805940  0.1250311509843122
  0.7221268217106469  0.1110502467597502  0.6250116098275704
  0.2220757998653001  0.1110199161708991  0.1251093940725524
  0.3887337064424171  0.6110865797845271  0.1251041219462628
  0.7221526534512721  0.6110928588347838  0.1252414048494651
  0.5554339327748115  0.1110218826254490  0.1250022530988051
  0.3887337064424171  0.6110865797845271  0.6248958780537371
  0.8887895999216383  0.1110614666274870  0.1249758487965351
  0.2221480310644234  0.7777406821988796  0.6249827659791308
  0.0554343214514996  0.2777349803465016  0.6249933729895613
  0.3886574959028053  0.2776491713677527  0.6248981312974594
  0.5554339327748115  0.7777453834826981  0.6249977469011879
  0.8888364371526549  0.7777392164574070  0.6249842141749062
  0.7221248092703394  0.2777330492351641  0.6249780855206417
  0.0555005737246706  0.7777325909774051  0.1250311509843122
  0.3887934262933600  0.7777322462629161  0.1250373065134590
  0.2220510052059227  0.2776921692696291  0.1250879462278613
  0.7221248092703394  0.7777250933685110  0.1250219144793512
  0.5553538996284625  0.2775974670098377  0.1251598469063720
  0.8888232237071600  0.2777530793583470  0.1249929750525933
  0.0554716500902581  0.4444007868554088  0.6249703266605184
  0.2221430369945593  0.9443906599181850  0.6249593047258398
  0.5554672390512243  0.9444002861922730  0.6249889982562578
  0.3886574959028053  0.4443416578683885  0.6248981312974594
  0.8888232237071600  0.9444034776821557  0.6250070249474062
  0.0554716500902581  0.9444041965681776  0.1250296733394815
  0.7221526534512721  0.4443931279498241  0.6247585951505350
  0.3887934262933600  0.9443945133637792  0.1250373065134590
  0.2220757998653001  0.4443892170277368  0.1251093940725524
  0.2221430369945593  0.6110857104097026  0.1250406952741600
  0.5552575154659117  0.4442954243996166  0.1246201098229855
  0.7221268217106469  0.9444099082842321  0.1249883901724297
  0.8888364371526549  0.4444305540285837  0.1250157858250937
  0.0555005737246706  0.6111013160805940  0.6249688490156876
  0.2220757998653001  0.1110199161708991  0.6248906059274476
  0.7221526534512721  0.6110928588347838  0.6247585951505350
  0.5554339327748115  0.1110218826254490  0.6249977469011879
  0.8887895999216383  0.1110614666274870  0.6250241512034648
 
  0.00000000E+00  0.00000000E+00  0.00000000E+00
  0.00000000E+00  0.00000000E+00  0.00000000E+00
  0.00000000E+00  0.00000000E+00  0.00000000E+00
  0.00000000E+00  0.00000000E+00  0.00000000E+00
  0.00000000E+00  0.00000000E+00  0.00000000E+00
  0.00000000E+00  0.00000000E+00  0.00000000E+00
  0.00000000E+00  0.00000000E+00  0.00000000E+00
  0.00000000E+00  0.00000000E+00  0.00000000E+00
  0.00000000E+00  0.00000000E+00  0.00000000E+00
  0.00000000E+00  0.00000000E+00  0.00000000E+00
  0.00000000E+00  0.00000000E+00  0.00000000E+00
  0.00000000E+00  0.00000000E+00  0.00000000E+00
  0.00000000E+00  0.00000000E+00  0.00000000E+00
  0.00000000E+00  0.00000000E+00  0.00000000E+00
  0.00000000E+00  0.00000000E+00  0.00000000E+00
  0.00000000E+00  0.00000000E+00  0.00000000E+00
  0.00000000E+00  0.00000000E+00  0.00000000E+00
  0.00000000E+00  0.00000000E+00  0.00000000E+00
  0.00000000E+00  0.00000000E+00  0.00000000E+00
  0.00000000E+00  0.00000000E+00  0.00000000E+00
  0.00000000E+00  0.00000000E+00  0.00000000E+00
  0.00000000E+00  0.00000000E+00  0.00000000E+00
  0.00000000E+00  0.00000000E+00  0.00000000E+00
  0.00000000E+00  0.00000000E+00  0.00000000E+00
  0.00000000E+00  0.00000000E+00  0.00000000E+00
  0.00000000E+00  0.00000000E+00  0.00000000E+00
  0.00000000E+00  0.00000000E+00  0.00000000E+00
  0.00000000E+00  0.00000000E+00  0.00000000E+00
  0.00000000E+00  0.00000000E+00  0.00000000E+00
  0.00000000E+00  0.00000000E+00  0.00000000E+00
  0.00000000E+00  0.00000000E+00  0.00000000E+00
  0.00000000E+00  0.00000000E+00  0.00000000E+00
  0.00000000E+00  0.00000000E+00  0.00000000E+00
  0.00000000E+00  0.00000000E+00  0.00000000E+00
  0.00000000E+00  0.00000000E+00  0.00000000E+00
  0.00000000E+00  0.00000000E+00  0.00000000E+00
  0.00000000E+00  0.00000000E+00  0.00000000E+00
  0.00000000E+00  0.00000000E+00  0.00000000E+00
  0.00000000E+00  0.00000000E+00  0.00000000E+00
  0.00000000E+00  0.00000000E+00  0.00000000E+00
  0.00000000E+00  0.00000000E+00  0.00000000E+00
  0.00000000E+00  0.00000000E+00  0.00000000E+00
  0.00000000E+00  0.00000000E+00  0.00000000E+00
  0.00000000E+00  0.00000000E+00  0.00000000E+00
  0.00000000E+00  0.00000000E+00  0.00000000E+00
  0.00000000E+00  0.00000000E+00  0.00000000E+00
  0.00000000E+00  0.00000000E+00  0.00000000E+00
  0.00000000E+00  0.00000000E+00  0.00000000E+00
  0.00000000E+00  0.00000000E+00  0.00000000E+00
  0.00000000E+00  0.00000000E+00  0.00000000E+00
  0.00000000E+00  0.00000000E+00  0.00000000E+00
  0.00000000E+00  0.00000000E+00  0.00000000E+00
  0.00000000E+00  0.00000000E+00  0.00000000E+00
  0.00000000E+00  0.00000000E+00  0.00000000E+00
  0.00000000E+00  0.00000000E+00  0.00000000E+00
  0.00000000E+00  0.00000000E+00  0.00000000E+00
  0.00000000E+00  0.00000000E+00  0.00000000E+00
  0.00000000E+00  0.00000000E+00  0.00000000E+00
  0.00000000E+00  0.00000000E+00  0.00000000E+00
  0.00000000E+00  0.00000000E+00  0.00000000E+00
  0.00000000E+00  0.00000000E+00  0.00000000E+00
  0.00000000E+00  0.00000000E+00  0.00000000E+00
  0.00000000E+00  0.00000000E+00  0.00000000E+00
  0.00000000E+00  0.00000000E+00  0.00000000E+00
  0.00000000E+00  0.00000000E+00  0.00000000E+00
  0.00000000E+00  0.00000000E+00  0.00000000E+00
  0.00000000E+00  0.00000000E+00  0.00000000E+00
  0.00000000E+00  0.00000000E+00  0.00000000E+00
  0.00000000E+00  0.00000000E+00  0.00000000E+00
  0.00000000E+00  0.00000000E+00  0.00000000E+00
  0.00000000E+00  0.00000000E+00  0.00000000E+00
  0.00000000E+00  0.00000000E+00  0.00000000E+00
  0.00000000E+00  0.00000000E+00  0.00000000E+00
  0.00000000E+00  0.00000000E+00  0.00000000E+00
  0.00000000E+00  0.00000000E+00  0.00000000E+00
  0.00000000E+00  0.00000000E+00  0.00000000E+00
  0.00000000E+00  0.00000000E+00  0.00000000E+00
  0.00000000E+00  0.00000000E+00  0.00000000E+00
  0.00000000E+00  0.00000000E+00  0.00000000E+00
  0.00000000E+00  0.00000000E+00  0.00000000E+00
  0.00000000E+00  0.00000000E+00  0.00000000E+00
  0.00000000E+00  0.00000000E+00  0.00000000E+00
  0.00000000E+00  0.00000000E+00  0.00000000E+00
  0.00000000E+00  0.00000000E+00  0.00000000E+00
  0.00000000E+00  0.00000000E+00  0.00000000E+00
  0.00000000E+00  0.00000000E+00  0.00000000E+00
  0.00000000E+00  0.00000000E+00  0.00000000E+00
  0.00000000E+00  0.00000000E+00  0.00000000E+00
  0.00000000E+00  0.00000000E+00  0.00000000E+00
  0.00000000E+00  0.00000000E+00  0.00000000E+00
  0.00000000E+00  0.00000000E+00  0.00000000E+00
  0.00000000E+00  0.00000000E+00  0.00000000E+00
  0.00000000E+00  0.00000000E+00  0.00000000E+00
  0.00000000E+00  0.00000000E+00  0.00000000E+00
  0.00000000E+00  0.00000000E+00  0.00000000E+00
  0.00000000E+00  0.00000000E+00  0.00000000E+00
  0.00000000E+00  0.00000000E+00  0.00000000E+00
  0.00000000E+00  0.00000000E+00  0.00000000E+00
  0.00000000E+00  0.00000000E+00  0.00000000E+00
  0.00000000E+00  0.00000000E+00  0.00000000E+00
  0.00000000E+00  0.00000000E+00  0.00000000E+00
  0.00000000E+00  0.00000000E+00  0.00000000E+00
  0.00000000E+00  0.00000000E+00  0.00000000E+00
  0.00000000E+00  0.00000000E+00  0.00000000E+00
  0.00000000E+00  0.00000000E+00  0.00000000E+00
  0.00000000E+00  0.00000000E+00  0.00000000E+00
  0.00000000E+00  0.00000000E+00  0.00000000E+00
  0.00000000E+00  0.00000000E+00  0.00000000E+00
  0.00000000E+00  0.00000000E+00  0.00000000E+00
  0.00000000E+00  0.00000000E+00  0.00000000E+00
  0.00000000E+00  0.00000000E+00  0.00000000E+00
  0.00000000E+00  0.00000000E+00  0.00000000E+00
  0.00000000E+00  0.00000000E+00  0.00000000E+00
  0.00000000E+00  0.00000000E+00  0.00000000E+00
  0.00000000E+00  0.00000000E+00  0.00000000E+00
  0.00000000E+00  0.00000000E+00  0.00000000E+00
  0.00000000E+00  0.00000000E+00  0.00000000E+00
  0.00000000E+00  0.00000000E+00  0.00000000E+00
  0.00000000E+00  0.00000000E+00  0.00000000E+00
  0.00000000E+00  0.00000000E+00  0.00000000E+00
  0.00000000E+00  0.00000000E+00  0.00000000E+00
  0.00000000E+00  0.00000000E+00  0.00000000E+00
  0.00000000E+00  0.00000000E+00  0.00000000E+00
  0.00000000E+00  0.00000000E+00  0.00000000E+00
  0.00000000E+00  0.00000000E+00  0.00000000E+00
  0.00000000E+00  0.00000000E+00  0.00000000E+00
  0.00000000E+00  0.00000000E+00  0.00000000E+00
  0.00000000E+00  0.00000000E+00  0.00000000E+00
  0.00000000E+00  0.00000000E+00  0.00000000E+00
  0.00000000E+00  0.00000000E+00  0.00000000E+00
  0.00000000E+00  0.00000000E+00  0.00000000E+00
  0.00000000E+00  0.00000000E+00  0.00000000E+00
  0.00000000E+00  0.00000000E+00  0.00000000E+00
  0.00000000E+00  0.00000000E+00  0.00000000E+00
  0.00000000E+00  0.00000000E+00  0.00000000E+00
  0.00000000E+00  0.00000000E+00  0.00000000E+00
  0.00000000E+00  0.00000000E+00  0.00000000E+00
  0.00000000E+00  0.00000000E+00  0.00000000E+00
  0.00000000E+00  0.00000000E+00  0.00000000E+00
  0.00000000E+00  0.00000000E+00  0.00000000E+00
  0.00000000E+00  0.00000000E+00  0.00000000E+00
  0.00000000E+00  0.00000000E+00  0.00000000E+00
  0.00000000E+00  0.00000000E+00  0.00000000E+00
  0.00000000E+00  0.00000000E+00  0.00000000E+00
  0.00000000E+00  0.00000000E+00  0.00000000E+00
  0.00000000E+00  0.00000000E+00  0.00000000E+00
  0.00000000E+00  0.00000000E+00  0.00000000E+00
  0.00000000E+00  0.00000000E+00  0.00000000E+00
  0.00000000E+00  0.00000000E+00  0.00000000E+00
  0.00000000E+00  0.00000000E+00  0.00000000E+00
  0.00000000E+00  0.00000000E+00  0.00000000E+00
  0.00000000E+00  0.00000000E+00  0.00000000E+00
  0.00000000E+00  0.00000000E+00  0.00000000E+00
  0.00000000E+00  0.00000000E+00  0.00000000E+00
  0.00000000E+00  0.00000000E+00  0.00000000E+00
  0.00000000E+00  0.00000000E+00  0.00000000E+00
  0.00000000E+00  0.00000000E+00  0.00000000E+00
  0.00000000E+00  0.00000000E+00  0.00000000E+00
  0.00000000E+00  0.00000000E+00  0.00000000E+00
  0.00000000E+00  0.00000000E+00  0.00000000E+00
  0.00000000E+00  0.00000000E+00  0.00000000E+00
  0.00000000E+00  0.00000000E+00  0.00000000E+00
  0.00000000E+00  0.00000000E+00  0.00000000E+00
  0.00000000E+00  0.00000000E+00  0.00000000E+00
  0.00000000E+00  0.00000000E+00  0.00000000E+00
  0.00000000E+00  0.00000000E+00  0.00000000E+00
  0.00000000E+00  0.00000000E+00  0.00000000E+00
  0.00000000E+00  0.00000000E+00  0.00000000E+00
  0.00000000E+00  0.00000000E+00  0.00000000E+00
  0.00000000E+00  0.00000000E+00  0.00000000E+00
  0.00000000E+00  0.00000000E+00  0.00000000E+00
  0.00000000E+00  0.00000000E+00  0.00000000E+00
  0.00000000E+00  0.00000000E+00  0.00000000E+00
  0.00000000E+00  0.00000000E+00  0.00000000E+00
  0.00000000E+00  0.00000000E+00  0.00000000E+00
  0.00000000E+00  0.00000000E+00  0.00000000E+00
  0.00000000E+00  0.00000000E+00  0.00000000E+00
  0.00000000E+00  0.00000000E+00  0.00000000E+00
  0.00000000E+00  0.00000000E+00  0.00000000E+00
  0.00000000E+00  0.00000000E+00  0.00000000E+00
  0.00000000E+00  0.00000000E+00  0.00000000E+00
  0.00000000E+00  0.00000000E+00  0.00000000E+00
  0.00000000E+00  0.00000000E+00  0.00000000E+00
  0.00000000E+00  0.00000000E+00  0.00000000E+00
  0.00000000E+00  0.00000000E+00  0.00000000E+00
  0.00000000E+00  0.00000000E+00  0.00000000E+00
  0.00000000E+00  0.00000000E+00  0.00000000E+00
  0.00000000E+00  0.00000000E+00  0.00000000E+00
  0.00000000E+00  0.00000000E+00  0.00000000E+00
  0.00000000E+00  0.00000000E+00  0.00000000E+00
  0.00000000E+00  0.00000000E+00  0.00000000E+00
  0.00000000E+00  0.00000000E+00  0.00000000E+00
  0.00000000E+00  0.00000000E+00  0.00000000E+00
  0.00000000E+00  0.00000000E+00  0.00000000E+00
  0.00000000E+00  0.00000000E+00  0.00000000E+00
  0.00000000E+00  0.00000000E+00  0.00000000E+00
  0.00000000E+00  0.00000000E+00  0.00000000E+00
  0.00000000E+00  0.00000000E+00  0.00000000E+00
  0.00000000E+00  0.00000000E+00  0.00000000E+00
  0.00000000E+00  0.00000000E+00  0.00000000E+00
  0.00000000E+00  0.00000000E+00  0.00000000E+00
  0.00000000E+00  0.00000000E+00  0.00000000E+00
  0.00000000E+00  0.00000000E+00  0.00000000E+00
  0.00000000E+00  0.00000000E+00  0.00000000E+00
  0.00000000E+00  0.00000000E+00  0.00000000E+00
  0.00000000E+00  0.00000000E+00  0.00000000E+00
  0.00000000E+00  0.00000000E+00  0.00000000E+00
  0.00000000E+00  0.00000000E+00  0.00000000E+00
  0.00000000E+00  0.00000000E+00  0.00000000E+00
  0.00000000E+00  0.00000000E+00  0.00000000E+00
  0.00000000E+00  0.00000000E+00  0.00000000E+00
  0.00000000E+00  0.00000000E+00  0.00000000E+00
  0.00000000E+00  0.00000000E+00  0.00000000E+00
  0.00000000E+00  0.00000000E+00  0.00000000E+00
  0.00000000E+00  0.00000000E+00  0.00000000E+00
  0.00000000E+00  0.00000000E+00  0.00000000E+00
  0.00000000E+00  0.00000000E+00  0.00000000E+00
  0.00000000E+00  0.00000000E+00  0.00000000E+00
  0.00000000E+00  0.00000000E+00  0.00000000E+00
  0.00000000E+00  0.00000000E+00  0.00000000E+00
  0.00000000E+00  0.00000000E+00  0.00000000E+00
  0.00000000E+00  0.00000000E+00  0.00000000E+00
  0.00000000E+00  0.00000000E+00  0.00000000E+00
  0.00000000E+00  0.00000000E+00  0.00000000E+00
  0.00000000E+00  0.00000000E+00  0.00000000E+00
  0.00000000E+00  0.00000000E+00  0.00000000E+00
  0.00000000E+00  0.00000000E+00  0.00000000E+00
  0.00000000E+00  0.00000000E+00  0.00000000E+00
  0.00000000E+00  0.00000000E+00  0.00000000E+00
  0.00000000E+00  0.00000000E+00  0.00000000E+00
  0.00000000E+00  0.00000000E+00  0.00000000E+00
  0.00000000E+00  0.00000000E+00  0.00000000E+00
  0.00000000E+00  0.00000000E+00  0.00000000E+00
  0.00000000E+00  0.00000000E+00  0.00000000E+00
  0.00000000E+00  0.00000000E+00  0.00000000E+00
  0.00000000E+00  0.00000000E+00  0.00000000E+00
  0.00000000E+00  0.00000000E+00  0.00000000E+00
  0.00000000E+00  0.00000000E+00  0.00000000E+00
  0.00000000E+00  0.00000000E+00  0.00000000E+00
  0.00000000E+00  0.00000000E+00  0.00000000E+00
  0.00000000E+00  0.00000000E+00  0.00000000E+00
  0.00000000E+00  0.00000000E+00  0.00000000E+00
  0.00000000E+00  0.00000000E+00  0.00000000E+00
  0.00000000E+00  0.00000000E+00  0.00000000E+00
  0.00000000E+00  0.00000000E+00  0.00000000E+00
  0.00000000E+00  0.00000000E+00  0.00000000E+00
  0.00000000E+00  0.00000000E+00  0.00000000E+00