 N Sb B 
 1.0
 17.527899999999772   0.000000000000000   0.000000000000000
 -8.763949999999658  15.179606674993195   0.000000000000000
  0.000000000000001   0.000000000000002  15.000000000000000
 N Sb B 
  48   1  49
Cartesian
  8.766030169507371  13.739379878281792   1.578799861366530 
 16.273631305367424   0.722815732960880   1.586414282710740 
 15.020964394615119   2.889539941945581   1.592213874262995 
 13.769291749298912   5.059868891664398   1.586905335312390 
 12.525423951268483   7.226999508516089   1.580253747601965 
 11.274295497488984   9.398362665965434   1.576896430810305 
 10.020780189015026  11.569759885891333   1.575859987674855 
 -6.258752195698424  13.735565014261056   1.591488315657870 
  1.249674248047376   0.722693671251904   1.597195281848355 
 -0.004532006219661   2.889949140199613   1.619393451450885 
 -1.255697666558559   5.056557216206529   1.619827946244810 
 -2.505701808928614   7.226407397495812   1.596811084033335 
 -3.753934431361106   9.397027564341304   1.589814757253595 
 -5.005169148652046  11.566957660627628   1.590593817949035 
 -3.755358004099826  13.734225101916723   1.593837564571215 
  3.754105279821916   0.721403843608686   1.609616483974410 
  2.495159726447339   2.885263952282650   1.654434365819955 
  1.244717757626387   5.059868891664398   1.734998909823735 
 -0.010143705298591   7.223839075372316   1.652259959805525 
 -1.254061297123966   9.396017647530581   1.603967630803935 
 -2.503305182348780  11.565843378803676   1.590584916006015 
 -1.252122044937694  13.733869067592133   1.577333419582755 
  6.258925084303094   0.721895767968734   1.592323724786910 
  5.002773552820712   2.886168524378086   1.684983090789285 
  3.735245587312813   5.029756907626443   1.957163580935385 
  2.467172519842777   7.226174505564168   1.954356265910175 
  1.245073620134279   9.394906387477487   1.677847021609215 
 -0.001086830448114  11.565057293885365   1.585811459672655 
  1.250965037772513  13.733797535351773   1.567815575042370 
  8.763074164202244   0.721952893885146   1.570039789830555 
  7.510651097132286   2.888852245486898   1.599352192574880 
  6.258345662127164   5.046325829304433   1.834297157564010 
  3.743603627220176   9.402704345281274   1.828205651679735 
  2.501513986048502  11.565631075048341   1.593495769053330 
  3.756050489656810  13.733805282778338   1.575120210083370 
 11.268422609898863   0.721995085154724   1.570157161241535 
 10.016790594664334   2.889885327920826   1.577165857534515 
  8.763949999999962   5.059868891664398   1.633776245232255 
  7.549544541035792   7.223195563328288   1.757370148819365 
  6.274497706701969   9.431925478375371   1.755344270633325 
  5.007703706452867  11.565878317830471   1.630005189445845 
  6.258410396086663  13.735330202061517   1.578094686033015 
 13.769967951920677   0.722122542396921   1.579435787096220 
 12.518451018205184   2.889681306556827   1.579429572111495 
 11.266490553538089   5.059868891664398   1.579503734761200 
 10.032329572118719   7.226140457525530   1.583763368869230 
  8.774104618959747   9.402413160239272   1.598413727938350 
  7.518757043915140  11.580561895227527   1.581477183295950 
  4.994448463187532   7.224091796346106   3.877888907301975 
  7.511356429869116  14.458707516295567   1.579787638684410 
 15.021517859532029   1.444928495390932   1.586109583695750 
 13.770180863349818   3.612315926594678   1.585860084687705 
 12.520862299463586   5.780813812294972   1.580797476699990 
 11.280938485976714   7.952362955379698   1.575981800309670 
 10.027001739650920  10.125692686908973   1.577741980376460 
  8.772120003761714  12.298753065772752   1.574092796467020 
 -7.510026965504007  14.459759414910168   1.588585314119760 
 -0.002321571186362   1.445511887869366   1.599209773505910 
 -1.255773431313671   3.611846619022835   1.611136268596260 
 -2.505610711364652   5.780785627857511   1.599839941754460 
 -3.752894589002960   7.951215037593883   1.588353349037310 
 -5.001017931649025  10.119737783328796   1.585413858813180 
 -6.255024320273303  12.291858510777693   1.585654489638120 
 -5.006979317749780  14.457270440202356   1.597629695773200 
  2.501000175360788   1.442889572473105   1.615327675273590 
  1.245785155011999   3.611240499651344   1.671358665788790 
 -0.005933358972565   5.778909501896254   1.670817649860810 
 -1.256398026507773   7.950034971549744   1.612552372362735 
 -2.502541959382615  10.119737783328796   1.593366819050790 
 -3.753625677810227  12.289587149415297   1.592263415295870 
 -2.503904621669102  14.456627805366622   1.586541062918925 
  5.009326437293711   1.443329882238060   1.624099286247540 
  3.743022782032634   3.600907956824456   1.747925844184230 
  2.488189858339200   5.774095047318596   1.899293233036620 
  1.233653864967435   7.946689171559440   1.743894708686820 
  0.000000000000152  10.119737783328796   1.616795950641600 
 -1.252209747448870  12.288628687643572   1.582886131936620 
 -0.000769152118595  14.456382810203047   1.570724215719555 
  7.510800599483984   1.443380628534575   1.583255716282425 
  6.257834992399987   3.604518165433605   1.685515622747160 
  5.007218292022696   5.650452527164075   2.245763491995675 
  3.640255020825380   8.018345866196578   2.242352797175025 
  2.496456240229469  10.119737783328796   1.678484072420400 
  1.249731523986009  12.288639438815201   1.578153644924880 
  2.502287156027531  14.456387140815895   1.569448166899965 
 10.014558295179558   1.444049608997715   1.570944497719200 
  8.763347059617164   3.610243126913435   1.601606738620185 
  7.511840542053489   5.766942340766797   1.762266041578260 
  6.444072444267849   8.057590745303292   2.000173684572675 
  4.994597061813085  10.127838168410225   1.758118916584635 
  3.752859242798089  12.289637132409997   1.597756787473245 
  5.005937984269009  14.457564915641701   1.578007013487105 
 12.518255555102911   1.444510417650134   1.576151550913875 
 11.267491177653925   3.611314497653792   1.578938225093565 
 10.018219495564542   5.777992749053087   1.596577871769015 
  8.798898092088493   7.955066758586524   1.628463309927480 
  7.533228923510144  10.147792928058639   1.627044857872500 
  6.257683718586006  12.292687390063360   1.594197154413210 
