 Sn N B 
 1.0
 17.527899999999772   0.000000000000000   0.000000000000000
 -8.763949999999658  15.179606674993195   0.000000000000000
  0.000000000000001   0.000000000000002  15.000000000000000
 Sn N B 
   1  49  47
Cartesian
  4.499861133923766   7.722862143460692   1.204689207698835 
  8.745254042586183  13.744787764948645   1.775330463783405 
 16.254101509989965   0.743400121040341   1.783773062252835 
 14.995217893507782   2.907371138258614   1.725965824305120 
 13.740705305265553   5.070901614216964   1.680548206886235 
 12.481957398052263   7.230531557731711   1.677251693538150 
 11.223083078740185   9.386850277107218   1.740215241481470 
  9.984928806676521  11.554558620221592   1.732299554548200 
 -6.281656624531707  13.710901409471882   1.743490248395160 
  1.226859254267988   0.705771424397066   1.740486838352775 
 -0.029500019100412   2.881003564437803   1.713378927408030 
 -1.275279455591448   5.059868891664398   1.718597016371040 
 -2.516824954542760   7.227263273513159   1.728002365162230 
 -3.774106750684262   9.385253552520677   1.753818836277375 
 -5.029725302511558  11.543980071237126   1.759790371385370 
 -3.772159550621493  13.702919952079920   1.727866372968075 
  3.733092912403523   0.684018013471795   1.673543635502325 
  2.470336818445979   2.842352260829283   1.645334162206710 
  1.218527041251343   5.016551152737283   1.658203791828150 
  0.012746577381147   7.216028420326167   1.747436465038560 
 -1.241739709231021   9.382663251312616   1.779768406039320 
 -2.512294425002948  11.542534623171512   1.778043995389425 
 -1.264074734504737  13.710342026637878   1.759516231962690 
  6.241227830360994   0.686560393423130   1.652442687551025 
  4.980728070611080   2.832164159311514   1.511819594327685 
  3.707256507800459   4.961778911440783   1.381161532356060 
  2.519690597248943   7.137174073473741   1.714293780189525 
  1.298153765609006   9.379462559231772   1.703167061317395 
  0.003602582954955  11.548033486729604   1.786053878062290 
  1.234571467848667  13.740670447883994   1.803851245520655 
  8.740925869864634   0.712548406802302   1.700610262426665 
  7.485482872610280   2.859565486470713   1.541650518076605 
  6.221136221231829   4.991079578246021   1.292575064152620 
  6.342480816541134   7.636177161828920   2.495364061888695 
  3.816497301407742   9.592150772809772   1.194461724911205 
  2.502619514100810  11.593896482547233   1.698267592679085 
  3.729805076209066  13.787347931958859   1.811570304928890 
 11.236919872774516   0.747247846358306   1.762368043453110 
  9.980671930100321   2.896220205562720   1.610350628955225 
  8.717721348425256   5.052066434344640   1.471687119201795 
  7.437127797767911   7.163979282558610   1.804773223556295 
  6.258879276575565   9.669811191337635   0.822300953744670 
  5.001480328680752  11.709222857839407   1.543576648685160 
  6.248523425341790  13.791736701415475   1.791609780583890 
 13.744963498425490   0.757552654818683   1.790603893802025 
 12.486152200032853   2.910880717901044   1.688218822385355 
 11.225711526236893   5.068944274904028   1.618275983594085 
  9.950694091269606   7.226591221419056   1.637584870326135 
  8.688949560633608   9.390127891532034   1.674833848071120 
  7.495120210134276  11.611865857906121   1.606236607588395 
  7.501820685010404  14.486879558005073   1.790519183641695 
 15.000267638150500   1.467589842374612   1.767537334317735 
 13.741832661122917   3.628886633060795   1.696824796870680 
 12.484499349789585   5.788600409951880   1.658227808783205 
 11.218655734085194   7.945654823428808   1.680750920387955 
  9.962264175523256  10.106925733174872   1.727711970824235 
  8.746930148730364  12.303567128596669   1.715698550158095 
 -7.529700130231553  14.444945682326953   1.757172985803120 
 -0.020976463746697   1.443113966246903   1.746694281007575 
 -1.276740058072719   3.618262451130267   1.718096219211150 
 -2.526391300378869   5.785220549905092   1.709795915054880 
 -3.778053222480735   7.943591806839658   1.721065230711240 
 -5.036541694749448  10.100690822031517   1.754576285603355 
 -6.283517682078765  12.266123124687345   1.749130246270425 
 -5.026703808037229  14.421354384190462   1.716263093867175 
  2.478794347247457   1.405701172839271   1.688553120111900 
  1.221571257056104   3.582223492190464   1.667277327764655 
 -0.014924037999448   5.771898706412903   1.717051237747290 
 -1.245037065705930   7.937694538128605   1.754439499010415 
 -2.506005579829654  10.097908441215557   1.774724231727375 
 -3.770015157760023  12.258876332841897   1.757744710204800 
 -2.518703178796536  14.422169826727167   1.715482299397725 
  4.985721217950625   1.393335498022014   1.614364139878110 
  3.718297092560673   3.528783111811706   1.523268101348910 
  2.461129950060426   5.731500928516875   1.589117716026000 
  1.307074357642679   7.914452276912605   1.728701799861435 
  0.028483066397803  10.095287104965815   1.765257656037000 
 -1.255786810308666  12.262350088644938   1.781050933885065 
 -0.019282571341305  14.446521704937872   1.760734405893165 
  7.488431620955242   1.416368902485977   1.633786766157585 
  6.230288832094361   3.549084671077251   1.451194667257080 
  4.943809278492719   5.579393625457484   1.107686321243085 
  2.529970559772496  10.144376740984120   1.554258149965890 
  1.244420065993384  12.292695900983901   1.777089139638090 
  2.474727597474011  14.485397614735696   1.802060322571125 
  9.983865663893022   1.452286903515960   1.691837381561955 
  8.728253428980979   3.601926925746983   1.525659203052210 
  7.455780695367879   5.745560888561452   1.465621700739615 
  5.021676817053353  10.340544591115542   1.187442909068700 
  3.733435896663083  12.355895465159062   1.693991135718825 
  4.985657782955110  14.499138099058666   1.804368107029095 
 12.489335334169892   1.469708915699129   1.747613831182860 
 11.231917747880127   3.624649786049033   1.634360874773910 
  9.969154431175520   5.783452532522198   1.582072366153440 
  8.687779915536769   7.944470058229338   1.714303843041780 
  7.481039644952161  10.167958646487756   1.411609871512335 
  6.259559032656784  12.369894863243557   1.644188451641460 
