Sb B N                                  
   1.0000000000000000     
     8.7639499999999995  -15.1796066749929999    0.0000000000000000
     8.7639499999999995   15.1796066749929999    0.0000000000000000
     0.0000000000000000    0.0000000000000000   15.0000000000000000
   Sb   B    N 
     1    48    48
Selective dynamics
Direct
  0.3796215872580460  0.4753021592966990  0.9741380040110944   T   T   T
  0.9105667587640293  0.9566546802767075  0.1098198677668776   T   T   T
  0.9093268032441627  0.0985941126021634  0.1106442830371293   T   T   T
  0.9086877784419319  0.2409107684023402  0.1099014051529952   T   T   T
  0.9082318018359731  0.3834403789121435  0.1113508487749588   T   T   T
  0.9078802153833476  0.5261932646314448  0.1123517359981779   T   T   T
  0.9056679279495492  0.6689764180436526  0.1107791639008638   T   T   T
  0.9093679500286120  0.8126391235140734  0.1088792075234284   T   T   T
  0.0514993406735370  0.9540222411405070  0.1093212799320100   T   T   T
  0.0518099668542349  0.0974081848767537  0.1139807659313245   T   T   T
  0.0516744547848661  0.2405135311055047  0.1142170365049926   T   T   T
  0.0514178816371628  0.3833762679165567  0.1146961404124766   T   T   T
  0.0508927534558733  0.5259389404857082  0.1161008494728953   T   T   T
  0.0500776448009324  0.6682087364074952  0.1120541562328929   T   T   T
  0.0508098547535373  0.8107301448669463  0.1079215767912249   T   T   T
  0.1934965042260884  0.9525802999745350  0.1100486799356633   T   T   T
  0.1932682709718162  0.0951601774011684  0.1152214742349537   T   T   T
  0.1933217791728714  0.2384474154168263  0.1157368685089456   T   T   T
  0.1943189300307389  0.3827902034564930  0.1074335416090767   T   T   T
  0.1938805433989551  0.5256972546753873  0.1170114923421882   T   T   T
  0.1941914513734051  0.6680813264828470  0.1176408882412119   T   T   T
  0.1937451088721039  0.8102110444046758  0.1115608230874600   T   T   T
  0.3364143247057800  0.9523028329444674  0.1113382672755381   T   T   T
  0.3357038577137417  0.0940227112865714  0.1151350783844606   T   T   T
  0.3348504484522881  0.2355613562829660  0.1162305456814096   T   T   T
  0.3310975750543183  0.3705803086491722  0.0786241110340512   T   T   T
  0.3328525242814735  0.5305354199068968  0.0802060409517067   T   T   T
  0.3385700499830340  0.6684102597048031  0.1188996642018449   T   T   T
  0.3371119022347956  0.8103880719182442  0.1169893165241567   T   T   T
  0.4797456187091405  0.9531217353131632  0.1123066816428987   T   T   T
  0.4790175068211032  0.0947490284491291  0.1112627275897895   T   T   T
  0.4777453169110860  0.2355543598694131  0.1171020205684408   T   T   T
  0.4758424731360100  0.3764926037330942  0.1109901287802135   T   T   T
  0.4835623710851554  0.6699488381271231  0.1120498538816288   T   T   T
  0.4807321338594522  0.8113448198107543  0.1180918052863207   T   T   T
  0.6232481121092219  0.9550059219149178  0.1126381618982463   T   T   T
  0.6224702345086923  0.0965684475666764  0.1083601841366252   T   T   T
  0.6217034267196467  0.2380708532367175  0.1115325397595473   T   T   T
  0.6189953671007166  0.3774183684026687  0.1170734426251776   T   T   T
  0.5370735720915146  0.4868129042815778  0.1113255915737342   T   T   T
  0.6387929676785441  0.6773925602105991  0.1216982227758179   T   T   T
  0.6247134292445855  0.8139304082812798  0.1178155257337919   T   T   T
  0.7670079024954924  0.9568836750643772  0.1119991311461758   T   T   T
  0.7659496846220448  0.0982734141303305  0.1085901136964965   T   T   T
  0.7653395902093517  0.2402741617339855  0.1081101037338211   T   T   T
  0.7648230942442792  0.3826646217629792  0.1121179217240395   T   T   T
  0.7664472674688271  0.5271716617336072  0.1147091258075082   T   T   T
  0.7616503168252071  0.6726013543973558  0.1154050352518471   T   T   T
  0.7700705857966010  0.8174051041505198  0.1140419286703315   T   T   T
  0.9563086076431129  0.9072112472360252  0.1083111069299516   T   T   T
  0.9569804405881328  0.0508974480488458  0.1110112060949463   T   T   T
  0.9564967652280518  0.1934703267634071  0.1113392190333070   T   T   T
  0.9560222473766677  0.3360767792724333  0.1116435359328941   T   T   T
  0.9552972857476411  0.4786921395794221  0.1130824726079507   T   T   T
  0.9534998142744749  0.6211257794400380  0.1113379800004296   T   T   T
  0.9547612808820838  0.7634886675776111  0.1080872059253889   T   T   T
  0.0982180621935064  0.9055666128488753  0.1079529555858155   T   T   T
  0.0984501446123395  0.0487112750603201  0.1128890249747336   T   T   T
  0.0986473258179429  0.1921697634690187  0.1171099711520434   T   T   T
  0.0993970357663412  0.3358327149181986  0.1139639004394503   T   T   T
  0.0986088695132898  0.4784620718131304  0.1182196058416842   T   T   T
  0.0982587932993748  0.6209380501201093  0.1157630077187627   T   T   T
  0.0980851720524588  0.7629970573704119  0.1096420933495569   T   T   T
  0.2412189571120412  0.9050885449217873  0.1100223481954323   T   T   T
  0.2408028676196250  0.0474102955607358  0.1134686327209607   T   T   T
  0.2403317503590400  0.1899053003472139  0.1175393520455204   T   T   T
  0.2407241180875359  0.3331564139648249  0.1055649128816194   T   T   T
  0.2415618638408435  0.4786785581726160  0.1066167383800093   T   T   T
  0.2427900184934811  0.6209972302809628  0.1194001719073701   T   T   T
  0.2417898062309547  0.7630068083483130  0.1159276854320967   T   T   T
  0.3846169180411443  0.9052598790885080  0.1131565576620165   T   T   T
  0.3839734031853139  0.0473109304049753  0.1119134942517728   T   T   T
  0.3832346075202517  0.1889662042421034  0.1190297662703587   T   T   T
  0.3821279148147785  0.3300272713707608  0.1053883185524178   T   T   T
  0.3880617097926573  0.6212774541200521  0.1094522043766861   T   T   T
  0.3857780199226380  0.7633399565709654  0.1205998702411586   T   T   T
  0.5281292784856247  0.9061610926590449  0.1146664747044383   T   T   T
  0.5273153035492287  0.0481839456779404  0.1094048461704779   T   T   T
  0.5267071194871327  0.1900634987103416  0.1131207448613449   T   T   T
  0.5251177145367061  0.3312879203230253  0.1184284904639948   T   T   T
  0.5021530777275105  0.5422840183660268  0.1015720867559006   T   T   T
  0.5416250637008366  0.6272257942809876  0.1158185212019266   T   T   T
  0.5298110536007742  0.7640495299170196  0.1182570040334372   T   T   T
  0.6716811831363919  0.9080870818068237  0.1146611514583778   T   T   T
  0.6706782668227105  0.0498115350459175  0.1088928832452328   T   T   T
  0.6700489658011187  0.1919409098468867  0.1080165654349157   T   T   T
  0.6692638605038022  0.3341333823684202  0.1139796352161485   T   T   T
  0.6693660076877547  0.4759737784549541  0.1169367271214365   T   T   T
  0.6290553185443254  0.5210711652584111  0.1170230183898076   T   T   T
  0.6754052340517763  0.7685871017417406  0.1191812077051191   T   T   T
  0.8156283491214753  0.9102354622370342  0.1112858350315686   T   T   T
  0.8140138367078240  0.0511982910885007  0.1098575000609670   T   T   T
  0.8133382611381935  0.1933138625366270  0.1076935133003357   T   T   T
  0.8125936489434235  0.3358543792393479  0.1096605152140620   T   T   T
  0.8118551740332861  0.4787235045504621  0.1129729127117848   T   T   T
  0.8070759082109845  0.6218369279415122  0.1138440310556189   T   T   T
  0.8134575941301829  0.7659515589943009  0.1119877678283892   T   T   T

  0.00000000E+00  0.00000000E+00  0.00000000E+00
  0.00000000E+00  0.00000000E+00  0.00000000E+00
  0.00000000E+00  0.00000000E+00  0.00000000E+00
  0.00000000E+00  0.00000000E+00  0.00000000E+00
  0.00000000E+00  0.00000000E+00  0.00000000E+00
  0.00000000E+00  0.00000000E+00  0.00000000E+00
  0.00000000E+00  0.00000000E+00  0.00000000E+00
  0.00000000E+00  0.00000000E+00  0.00000000E+00
  0.00000000E+00  0.00000000E+00  0.00000000E+00
  0.00000000E+00  0.00000000E+00  0.00000000E+00
  0.00000000E+00  0.00000000E+00  0.00000000E+00
  0.00000000E+00  0.00000000E+00  0.00000000E+00
  0.00000000E+00  0.00000000E+00  0.00000000E+00
  0.00000000E+00  0.00000000E+00  0.00000000E+00
  0.00000000E+00  0.00000000E+00  0.00000000E+00
  0.00000000E+00  0.00000000E+00  0.00000000E+00
  0.00000000E+00  0.00000000E+00  0.00000000E+00
  0.00000000E+00  0.00000000E+00  0.00000000E+00
  0.00000000E+00  0.00000000E+00  0.00000000E+00
  0.00000000E+00  0.00000000E+00  0.00000000E+00
  0.00000000E+00  0.00000000E+00  0.00000000E+00
  0.00000000E+00  0.00000000E+00  0.00000000E+00
  0.00000000E+00  0.00000000E+00  0.00000000E+00
  0.00000000E+00  0.00000000E+00  0.00000000E+00
  0.00000000E+00  0.00000000E+00  0.00000000E+00
  0.00000000E+00  0.00000000E+00  0.00000000E+00
  0.00000000E+00  0.00000000E+00  0.00000000E+00
  0.00000000E+00  0.00000000E+00  0.00000000E+00
  0.00000000E+00  0.00000000E+00  0.00000000E+00
  0.00000000E+00  0.00000000E+00  0.00000000E+00
  0.00000000E+00  0.00000000E+00  0.00000000E+00
  0.00000000E+00  0.00000000E+00  0.00000000E+00
  0.00000000E+00  0.00000000E+00  0.00000000E+00
  0.00000000E+00  0.00000000E+00  0.00000000E+00
  0.00000000E+00  0.00000000E+00  0.00000000E+00
  0.00000000E+00  0.00000000E+00  0.00000000E+00
  0.00000000E+00  0.00000000E+00  0.00000000E+00
  0.00000000E+00  0.00000000E+00  0.00000000E+00
  0.00000000E+00  0.00000000E+00  0.00000000E+00
  0.00000000E+00  0.00000000E+00  0.00000000E+00
  0.00000000E+00  0.00000000E+00  0.00000000E+00
  0.00000000E+00  0.00000000E+00  0.00000000E+00
  0.00000000E+00  0.00000000E+00  0.00000000E+00
  0.00000000E+00  0.00000000E+00  0.00000000E+00
  0.00000000E+00  0.00000000E+00  0.00000000E+00
  0.00000000E+00  0.00000000E+00  0.00000000E+00
  0.00000000E+00  0.00000000E+00  0.00000000E+00
  0.00000000E+00  0.00000000E+00  0.00000000E+00
  0.00000000E+00  0.00000000E+00  0.00000000E+00
  0.00000000E+00  0.00000000E+00  0.00000000E+00
  0.00000000E+00  0.00000000E+00  0.00000000E+00
  0.00000000E+00  0.00000000E+00  0.00000000E+00
  0.00000000E+00  0.00000000E+00  0.00000000E+00
  0.00000000E+00  0.00000000E+00  0.00000000E+00
  0.00000000E+00  0.00000000E+00  0.00000000E+00
  0.00000000E+00  0.00000000E+00  0.00000000E+00
  0.00000000E+00  0.00000000E+00  0.00000000E+00
  0.00000000E+00  0.00000000E+00  0.00000000E+00
  0.00000000E+00  0.00000000E+00  0.00000000E+00
  0.00000000E+00  0.00000000E+00  0.00000000E+00
  0.00000000E+00  0.00000000E+00  0.00000000E+00
  0.00000000E+00  0.00000000E+00  0.00000000E+00
  0.00000000E+00  0.00000000E+00  0.00000000E+00
  0.00000000E+00  0.00000000E+00  0.00000000E+00
  0.00000000E+00  0.00000000E+00  0.00000000E+00
  0.00000000E+00  0.00000000E+00  0.00000000E+00
  0.00000000E+00  0.00000000E+00  0.00000000E+00
  0.00000000E+00  0.00000000E+00  0.00000000E+00
  0.00000000E+00  0.00000000E+00  0.00000000E+00
  0.00000000E+00  0.00000000E+00  0.00000000E+00
  0.00000000E+00  0.00000000E+00  0.00000000E+00
  0.00000000E+00  0.00000000E+00  0.00000000E+00
  0.00000000E+00  0.00000000E+00  0.00000000E+00
  0.00000000E+00  0.00000000E+00  0.00000000E+00
  0.00000000E+00  0.00000000E+00  0.00000000E+00
  0.00000000E+00  0.00000000E+00  0.00000000E+00
  0.00000000E+00  0.00000000E+00  0.00000000E+00
  0.00000000E+00  0.00000000E+00  0.00000000E+00
  0.00000000E+00  0.00000000E+00  0.00000000E+00
  0.00000000E+00  0.00000000E+00  0.00000000E+00
  0.00000000E+00  0.00000000E+00  0.00000000E+00
  0.00000000E+00  0.00000000E+00  0.00000000E+00
  0.00000000E+00  0.00000000E+00  0.00000000E+00
  0.00000000E+00  0.00000000E+00  0.00000000E+00
  0.00000000E+00  0.00000000E+00  0.00000000E+00
  0.00000000E+00  0.00000000E+00  0.00000000E+00
  0.00000000E+00  0.00000000E+00  0.00000000E+00
  0.00000000E+00  0.00000000E+00  0.00000000E+00
  0.00000000E+00  0.00000000E+00  0.00000000E+00
  0.00000000E+00  0.00000000E+00  0.00000000E+00
  0.00000000E+00  0.00000000E+00  0.00000000E+00
  0.00000000E+00  0.00000000E+00  0.00000000E+00
  0.00000000E+00  0.00000000E+00  0.00000000E+00
  0.00000000E+00  0.00000000E+00  0.00000000E+00
  0.00000000E+00  0.00000000E+00  0.00000000E+00
  0.00000000E+00  0.00000000E+00  0.00000000E+00
  0.00000000E+00  0.00000000E+00  0.00000000E+00
