 N Sb B 
 1.0
 17.527899999999772   0.000000000000000   0.000000000000000
 -8.763949999999658  15.179606674993195   0.000000000000000
  0.000000000000001   0.000000000000002  15.000000000000000
 N Sb B 
  48   1  48
Cartesian
  8.811327633693649  13.771109904172867   1.624666603949280 
 16.327794774756853   0.772603242142382   1.665168091424190 
 15.069815381002460   2.936803463550928   1.670088285499605 
 13.811702260088754   5.101513321954039   1.674653038993410 
 12.549121318188945   7.266358397226569   1.696237089119265 
 11.269334119898046   9.428445027598352   1.670069700006450 
 10.043783746956318  11.589457674642764   1.621308088880835 
 -6.214784144355057  13.746145001051762   1.619294333787225 
  1.298721110685737   0.739417996053063   1.693335374621010 
  0.044914263650057   2.917061424286184   1.756649567280645 
 -1.200999818698410   5.097808521053381   1.709458506591750 
 -2.464811270324544   7.262866059025662   1.773294087625260 
 -3.719599721277825   9.425595370360467   1.736445115781445 
 -4.967640973722888  11.581995225060073   1.644631400243355 
 -3.704088994902898  13.738888117954637   1.650335222931480 
  3.805267123570474   0.719669638957149   1.702029490814415 
  2.548190330140261   2.882687764767157   1.763090280682800 
  1.298071602759915   5.059868891664398   1.583473693224285 
  0.038957243319122   7.266152236813160   1.599251075700135 
 -1.186789511168803   9.426493701925192   1.791002578610550 
 -2.448885973388436  11.582143241069305   1.738915281481455 
 -1.192125439604141  13.741488903215449   1.697348364930255 
  6.315616785169112   0.718161314975497   1.678702413776595 
  5.061207511486624   2.868432655261554   1.785446494055385 
  3.805557373152191   5.009684171429394   1.580824778286270 
  1.357062299039406   9.430747389583519   1.641783065650290 
  0.072005343012071  11.587200300053636   1.808998053617385 
  1.315446672359138  13.755168970746366   1.719997120566570 
  8.820448218356244   0.731413343440368   1.641072692557170 
  7.566362720135961   2.885089153696068   1.696811172920175 
  6.300820019312946   5.028820326680004   1.776427356959925 
  4.049138908341152   8.231658104931077   1.523581301338515 
  3.996574454253127   9.521040853595593   1.737277818028905 
  2.590383288692878  11.597971344353811   1.773855060501555 
  3.814730829295608  13.784404728469957   1.719917271875670 
 11.319035790475970   0.756119509874675   1.633393248678495 
 10.062390730812719   2.913587516316073   1.620248481523740 
  8.802461764116840   5.072013321337722   1.709694528242220 
  7.561170050459918   7.225094744556552   1.754050906821555 
  6.459377079146656   7.909655338303058   1.755345275847120 
  5.102576471626700  11.666849899912606   1.787718115576785 
  6.318994061294172  13.817016298388797   1.669287525473535 
 13.819253865245832   0.777169921155255   1.647862500914505 
 12.561918681826157   2.934428398129700   1.615402699505040 
 11.299649232380668   5.098137376927303   1.644907728210930 
 10.034607447232990   7.266834505150328   1.694593690676775 
  8.696598066898337   9.439239982138238   1.707660465834285 
  7.545442198706407  11.626843397631335   1.679816517425835 
  2.488444860332076   7.214899829898853  14.612070060166410 
  7.576249305729089  14.521641770391797   1.647298016503170 
 15.074515401443465   1.496619849770824   1.659664245556935 
 13.816058583012527   3.656930708117900   1.648521077294925 
 12.558943890633598   5.820474135196686   1.670262731624385 
 11.301702165651005   7.987406792135944   1.685276039972670 
 10.011580995393249  10.154798900748474   1.661687458512960 
  8.817381844785420  12.335542263654842   1.633188112851420 
 -7.458327926851343  14.481682379708408   1.639819198980150 
  0.054439456173739   1.478617933354146   1.709711488969875 
 -1.202103884908368   3.650900802195307   1.713255547574895 
 -2.458642955659161   5.819500955500148   1.720442106187155 
 -3.717259484170357   7.983546251635702   1.741512742093425 
 -4.978392005131993  10.143145795459979   1.680812343493395 
 -6.214608399971884  12.306564718640493   1.618823651868375 
 -4.956778743537097  14.459794279960471   1.650730199034945 
  2.553607890031916   1.444494064072307   1.728322113524310 
  1.298783586821910   3.619537978696127   1.736053027634190 
  0.051248570103345   5.810604727510184   1.611503124136155 
 -1.208865678469679   7.979877556096102   1.755172385132820 
 -2.451263000701258  10.141211762917333   1.764613323618180 
 -3.704704188810775  12.298684977798427   1.673412346311900 
 -2.449297770772972  14.455582439578762   1.670074009133070 
  5.060173307040710   1.427227775846591   1.727026175766915 
  3.804777227030763   3.575728736203361   1.743458185221150 
  2.555697889808720   5.625263326792010   1.179361665510765 
  1.184619867060285   8.053319001339052   1.203090614275605 
  0.076507883557866  10.146204839848963   1.783494963027675 
 -1.193336831706415  12.301372185825043   1.754839747862355 
  0.055821997974373  14.468013055440787   1.684600224643485 
  7.565795209932791   1.438252984695519   1.668940913846850 
  6.309485508108255   3.575622533397491   1.756530308526615 
  5.040956930394042   5.715009640712442   1.664851931703195 
  2.604434764239406  10.169559855138413   1.680747808224435 
  1.315639335494799  12.315895242520472   1.771377079294815 
  2.554606434873172  14.496614266957719   1.689572428473690 
 10.064274977392824   1.465871051276846   1.625402762049375 
  8.810714438975303   3.613821912913410   1.672988096393205 
  7.542013185242073   5.729062384270195   1.756101639377670 
  5.147367911784373   7.389628411305464   1.669883873606010 
  5.260064730115158  10.282552628563538   1.825473341637270 
  3.816669114799589  12.355143458526456   1.767232886006880 
  5.057957130070438  14.525117821199236   1.679986967192640 
 12.564226189319097   1.491751773107128   1.628851705447455 
 11.309045063501850   3.647267269285593   1.621651556007315 
 10.052089101704594   5.808698446797062   1.681768825860600 
  8.814104974616612   8.002258475318715   1.720636887112620 
  7.455485948409893  10.209824008819568   1.731075528777705 
  6.334022758264397  12.407887975136742   1.710628930054965 
