 B N Sb 
 1.0
 17.527899999999772   0.000000000000000   0.000000000000000
 -8.763949999999658  15.179606674993195   0.000000000000000
  0.000000000000001   0.000000000000002  15.000000000000000
 B N Sb 
  48  48   1
Cartesian
  7.517024457367709  14.467908973858487   1.778665150758435 
 15.017042615060051   1.451073747008433   1.771999915207245 
 13.760319292828077   3.619171786087946   1.759177067320710 
 12.509946349472251   5.787688839110378   1.740954329450805 
 11.270979742513862   7.956627068860256   1.725045420207705 
 10.033845848403486  10.128880688409158   1.741356232098450 
  8.781922590248369  12.304473858204014   1.773892290724260 
 -7.504621377256443  14.454110318398447   1.770490801190295 
 -0.005816924960945   1.437905185599697   1.778595192144765 
 -1.264443641148192   3.610598403477312   1.762526880106020 
 -2.512692362206981   5.782231829334212   1.726868194944555 
 -3.749133229392274   7.950295358996956   1.718553615532725 
 -4.991787005385114  10.119737783328796   1.732262185716645 
 -6.244647742213362  12.287766620156322   1.755992118783360 
 -4.998568432745168  14.446152382601573   1.756076594244690 
  2.500280198444957   1.424388584964160   1.774003900932465 
  1.232114321722102   3.587439529626850   1.769031898238940 
 -0.014831558000122   5.770916528778393   1.667865355068960 
 -1.238824018073816   7.942433734666326   1.622061368493420 
 -2.481635164948579  10.111623765869913   1.664668048994715 
 -3.739506363361822  12.280287181540428   1.724427620646075 
 -2.493373372681610  14.445101489497416   1.732085495453655 
  5.010385897882883   1.427927761297126   1.741306487877720 
  3.737425936669665   3.567512426575406   1.723766512423575 
  2.448827600265751   5.730694515926104   1.526100816054375 
  1.273581400188263   7.913830090628201   1.369405137171855 
  0.035655037041985  10.100764191407713   1.507560087127335 
 -1.232527981012239  12.275115447265360   1.664568757510320 
  0.005488982260655  14.453574358260600   1.718326448944890 
  7.510131093308615   1.442628449395712   1.724777850731055 
  6.247759507796765   3.603734828105617   1.644540215811105 
  4.944949781838059   5.670755397444766   1.378335188268015 
  2.549814860741054  10.119737783328796   1.369396073985855 
  1.267573338794961  12.283652690372875   1.622054460929850 
  2.501428485108008  14.466699154157148   1.726964655360555 
 10.007873290616423   1.454111996557638   1.740758681415675 
  8.748811657698671   3.624160591477560   1.680912669586830 
  7.488010758202917   5.798100191448755   1.530276956948025 
  6.326795413728918   8.064024408811894   1.378198127575425 
  5.026884765226981  10.195816695747251   1.525822231064490 
  3.760131240949419  12.309043571864636   1.667974519853250 
  5.006040026452416  14.471521642797459   1.762857289717740 
 12.511161873554038   1.455549837142884   1.759205999617455 
 11.254802408036255   3.623336434212979   1.738918410061785 
 10.000938773052336   5.793024293190331   1.681053830419245 
  8.768275757472532   7.969275016495772   1.644694633307910 
  7.544488895954307  10.161483038346473   1.723534954091100 
  6.274529560550252  12.321137176220244   1.768987241646525 
  8.771256222181028  13.743576427174975   1.775094625344135 
 16.270583255230456   0.727359411833870   1.775567638918485 
 15.011221300373636   2.893970874977219   1.767839446333740 
 13.759753398287643   5.063555690848572   1.750519533989085 
 12.519503251500854   7.232063519287250   1.737209049747855 
 11.279772481191021   9.400533216145734   1.735944372499770 
 10.029751900123181  11.571811210815552   1.760714646316665 
 -6.251151647514419  13.730404565067980   1.763065806119040 
  1.248667124073447   0.713995795583545   1.775169512282340 
 -0.016779824041468   2.876985240231970   1.781476711305855 
 -1.267384867147174   5.053938421357943   1.729537257927660 
 -2.499637741002831   7.226583721353484   1.699780052887440 
 -3.740461782700888   9.394668272110716   1.711573620484980 
 -4.993619912845888  11.562655168289293   1.741192362576300 
 -3.745084064003921  13.725209609167935   1.741106585521020 
  3.758706391829194   0.710041211803300   1.760808464240190 
  2.488526966713658   2.862747214627860   1.779154342004340 
  1.217228006240765   5.020020570496479   1.708934598576000 
  0.006053015432859   7.214173016033657   1.570492891750080 
 -1.229359567994095   9.388614363612136   1.591812639748035 
 -2.487311913641029  11.557258087430331   1.682236068811110 
 -1.241056184852400  13.723893761085684   1.711333221142920 
  6.264105045151039   0.713076131218272   1.735677216091200 
  5.003081997007540   2.874493751997282   1.714986249786660 
  3.717979111447045   5.004418352431964   1.608266371069245 
  2.456369161148420   7.110269574206825   1.236901612470915 
  1.287326209844198   9.378004502107563   1.348189467700215 
  0.019863130693364  11.552303795762956   1.591885112258685 
  1.257025673284100  13.733363371618099   1.699739057755215 
  8.761804213225076   0.723580217673510   1.736926486242270 
  7.501517151682890   2.893750127893323   1.688807313328455 
  6.231945991153053   5.059868891664398   1.503070351117860 
  3.835799420382543   9.499663603661224   1.236593075373195 
  2.520673220321422  11.569554567368632   1.570439039076060 
  3.754717775576537  13.752340853031285   1.729811343742860 
 11.261636353606828   0.733749225845712   1.750459611049560 
 10.000580994238874   2.903196789616318   1.728065851307565 
  8.736998748448451   5.076916517372416   1.632159749040495 
  7.496581801812723   7.255015002821795   1.503043486730445 
  6.290433361581559   9.459811321151292   1.608020183308170 
  5.026418204173014  11.617639906565286   1.708807069700250 
  6.265283487706386  13.757867258672988   1.781697964011945 
 13.764527380077615   0.734680542168570   1.768093649773365 
 12.506519468956107   2.900668257084209   1.758976921916460 
 11.251301865260304   5.069447032398461   1.728249623655930 
 10.009984685797701   7.238444252191265   1.689095606417940 
  8.777517234336546   9.411884742608150   1.714997250328710 
  7.530341261820701  11.595362120030710   1.778981169756750 
  4.251799872243941   7.666292421883163   0.309280580612250 
