As B N                                  
   1.0000000000000000     
     8.7639499999999995  -15.1796066749929999    0.0000000000000000
     8.7639499999999995   15.1796066749929999    0.0000000000000000
     0.0000000000000000    0.0000000000000000   15.0000000000000000
   As   B    N 
     1    48    48
Selective dynamics
Direct
  0.4952955879555471  0.5047058139614361  0.1114061671281831   T   T   T
  0.9060810867658421  0.9533008496795971  0.1110265236186766   T   T   T
  0.9045263732696561  0.0954756479263429  0.1110364711289700   T   T   T
  0.9040805672092176  0.2382899266440277  0.1110448007923356   T   T   T
  0.9043236883597878  0.3811863110521189  0.1110026400622422   T   T   T
  0.9056234511312322  0.5241846691428562  0.1110985664849672   T   T   T
  0.9074944732278104  0.6675989851620419  0.1111672646505441   T   T   T
  0.9080686845654355  0.8113817698660363  0.1111066063071265   T   T   T
  0.0483246503708961  0.9516773708251107  0.1110091078475953   T   T   T
  0.0467011715164102  0.0939209344301667  0.1110265236186766   T   T   T
  0.0463165193495977  0.2372353191205914  0.1110180948081740   T   T   T
  0.0468868720764138  0.3805435447580235  0.1110203700118410   T   T   T
  0.0482503881990675  0.5234491903119920  0.1110223813500437   T   T   T
  0.0492036488045990  0.6663284113254826  0.1110989735528011   T   T   T
  0.0492925613204472  0.8092083122448245  0.1110671712940055   T   T   T
  0.1907937089511844  0.9507094598755401  0.1110671712940055   T   T   T
  0.1886202513299741  0.0919333366305576  0.1111066063071265   T   T   T
  0.1871327394748089  0.2343824656263599  0.1110551729189616   T   T   T
  0.1885125846407050  0.3792272742004486  0.1110079262989688   T   T   T
  0.1911082108222139  0.5227701427771432  0.1110298247678499   T   T   T
  0.1917632540221432  0.6656940542461756  0.1110439501800797   T   T   T
  0.1915964030566326  0.8084056181393654  0.1110262932236744   T   T   T
  0.3336736098715078  0.9507983723913899  0.1110989735528011   T   T   T
  0.3324030360349677  0.0925075479681843  0.1111672646505441   T   T   T
  0.3281719753637540  0.2311848742760511  0.1109928244150425   T   T   T
  0.3266307029317477  0.3744393691402112  0.1108799835515803   T   T   T
  0.3341255988881473  0.5218168346461918  0.1110124008130367   T   T   T
  0.3347720347072561  0.6652299864897387  0.1110849176431168   T   T   T
  0.3343079669508291  0.8082387671738774  0.1110439501800797   T   T   T
  0.4765528308850045  0.9517516329969340  0.1110223813500437   T   T   T
  0.4758173520541378  0.0943785700647560  0.1110985664849672   T   T   T
  0.4743304797542243  0.2361941928488543  0.1110099995830857   T   T   T
  0.4648817897523047  0.3690607522699892  0.1108113109077203   T   T   T
  0.4781851865508169  0.6658764223088390  0.1110124008130367   T   T   T
  0.4772318784198686  0.8088938103737756  0.1110298247678499   T   T   T
  0.6194584764379756  0.9531151491196069  0.1110203700118410   T   T   T
  0.6188157101438853  0.0956783328362018  0.1110026400622422   T   T   T
  0.6182828215808300  0.2386326985028483  0.1110231381606323   T   T   T
  0.6178603569586540  0.3821416642373433  0.1108942817644258   T   T   T
  0.6309412689260133  0.5351202314446818  0.1108113109077203   T   T   T
  0.6255626520557852  0.6733713182652526  0.1108799835515803   T   T   T
  0.6207747469955444  0.8114894365553036  0.1110079262989688   T   T   T
  0.7627667020754147  0.9536855018463863  0.1110180948081740   T   T   T
  0.7617120945519728  0.0959214539867917  0.1110448007923356   T   T   T
  0.7613162387608179  0.2386857824351821  0.1110529044898388   T   T   T
  0.7613693226931577  0.3817191996151690  0.1110231381606323   T   T   T
  0.7638078283471508  0.5256715414427756  0.1110099995830857   T   T   T
  0.7688171469199696  0.6718300458332490  0.1109928244150425   T   T   T
  0.7656195555696345  0.8128692817211789  0.1110551729189616   T   T   T
  0.9538072654329376  0.9055864113379620  0.1110079964139016   T   T   T
  0.9522375113620994  0.0477638905558902  0.1109972799299506   T   T   T
  0.9515716736857390  0.1904693122742502  0.1110185771812332   T   T   T
  0.9517289823832793  0.3334478766461597  0.1109925235730815   T   T   T
  0.9526639891003795  0.4762820083471914  0.1110050136940013   T   T   T
  0.9537935042758869  0.6191511184597738  0.1111462957007160   T   T   T
  0.9542656358351281  0.7623849177474218  0.1111210439253815   T   T   T
  0.0959788207752760  0.9040225811427179  0.1109911926802543   T   T   T
  0.0944149905800477  0.0461941364850635  0.1110079964139016   T   T   T
  0.0932417953201101  0.1887210073899165  0.1110275774593463   T   T   T
  0.0940263721162249  0.3324741021863888  0.1110056491877449   T   T   T
  0.0957797231751601  0.4756602369335580  0.1110006787888979   T   T   T
  0.0964785033935132  0.6184610385452787  0.1110325758035667   T   T   T
  0.0965238042203599  0.7612752120994190  0.1110367913385264   T   T   T
  0.2387261898185885  0.9034775976976255  0.1110367913385264   T   T   T
  0.2376164841705876  0.0457357660828776  0.1111210439253815   T   T   T
  0.2347226970025595  0.1865645562039532  0.1110826294022393   T   T   T
  0.2338755484470542  0.3293658796502498  0.1109898355662480   T   T   T
  0.2387785349977327  0.4745880304737526  0.1109935666317208   T   T   T
  0.2395830137124048  0.6178551099671400  0.1110455898232905   T   T   T
  0.2392577995194182  0.7607436023985883  0.1110155368260866   T   T   T
  0.3815403633727197  0.9035228985244838  0.1110325758035667   T   T   T
  0.3808502834582311  0.0462078976421378  0.1111462957007160   T   T   T
  0.3794225006552822  0.1880270618114329  0.1110765283620801   T   T   T
  0.3736793765177469  0.3261142643688282  0.1107899207515153   T   T   T
  0.3771932607717274  0.4686310229424079  0.1108409443740219   T   T   T
  0.3830712954299902  0.6169301064880047  0.1110589669263449   T   T   T
  0.3821462919508564  0.7604183882056091  0.1110455898232905   T   T   T
  0.5243411649834546  0.9042216787428451  0.1110006787888979   T   T   T
  0.5237193935697979  0.0473374128176487  0.1110050136940013   T   T   T
  0.5229943273266427  0.1904369527473850  0.1110523318752588   T   T   T
  0.5215976234539942  0.3338532533341138  0.1108569791015512   T   T   T
  0.5313703789745574  0.6228081411462596  0.1108409443740219   T   T   T
  0.5254133714432502  0.7612228669202709  0.1109935666317208   T   T   T
  0.6675272997306146  0.9059750298017795  0.1110056491877449   T   T   T
  0.6665535252708346  0.0482724195347211  0.1109925235730815   T   T   T
  0.6659512859284457  0.1913153757360545  0.1110104293915322   T   T   T
  0.6652154045459886  0.3347859973709889  0.1109675971633703   T   T   T
  0.6661481485829135  0.4784037784629971  0.1108569791015512   T   T   T
  0.6738871375481618  0.6263220254002325  0.1107899207515153   T   T   T
  0.6706355222667554  0.7661258534709418  0.1109898355662480   T   T   T
  0.8112803945280895  0.9067596065978971  0.1110275774593463   T   T   T
  0.8095320896437542  0.0484297282322603  0.1110185771812332   T   T   T
  0.8089014728585687  0.1910999290594239  0.1110483238190391   T   T   T
  0.8086860261819506  0.3340501159885276  0.1110104293915322   T   T   T
  0.8095644491706004  0.4770070745903532  0.1110523318752588   T   T   T
  0.8119743401065710  0.6205789012627297  0.1110765283620801   T   T   T
  0.8134368457140460  0.7652787049154577  0.1110826294022393   T   T   T

  0.00000000E+00  0.00000000E+00  0.00000000E+00
  0.00000000E+00  0.00000000E+00  0.00000000E+00
  0.00000000E+00  0.00000000E+00  0.00000000E+00
  0.00000000E+00  0.00000000E+00  0.00000000E+00
  0.00000000E+00  0.00000000E+00  0.00000000E+00
  0.00000000E+00  0.00000000E+00  0.00000000E+00
  0.00000000E+00  0.00000000E+00  0.00000000E+00
  0.00000000E+00  0.00000000E+00  0.00000000E+00
  0.00000000E+00  0.00000000E+00  0.00000000E+00
  0.00000000E+00  0.00000000E+00  0.00000000E+00
  0.00000000E+00  0.00000000E+00  0.00000000E+00
  0.00000000E+00  0.00000000E+00  0.00000000E+00
  0.00000000E+00  0.00000000E+00  0.00000000E+00
  0.00000000E+00  0.00000000E+00  0.00000000E+00
  0.00000000E+00  0.00000000E+00  0.00000000E+00
  0.00000000E+00  0.00000000E+00  0.00000000E+00
  0.00000000E+00  0.00000000E+00  0.00000000E+00
  0.00000000E+00  0.00000000E+00  0.00000000E+00
  0.00000000E+00  0.00000000E+00  0.00000000E+00
  0.00000000E+00  0.00000000E+00  0.00000000E+00
  0.00000000E+00  0.00000000E+00  0.00000000E+00
  0.00000000E+00  0.00000000E+00  0.00000000E+00
  0.00000000E+00  0.00000000E+00  0.00000000E+00
  0.00000000E+00  0.00000000E+00  0.00000000E+00
  0.00000000E+00  0.00000000E+00  0.00000000E+00
  0.00000000E+00  0.00000000E+00  0.00000000E+00
  0.00000000E+00  0.00000000E+00  0.00000000E+00
  0.00000000E+00  0.00000000E+00  0.00000000E+00
  0.00000000E+00  0.00000000E+00  0.00000000E+00
  0.00000000E+00  0.00000000E+00  0.00000000E+00
  0.00000000E+00  0.00000000E+00  0.00000000E+00
  0.00000000E+00  0.00000000E+00  0.00000000E+00
  0.00000000E+00  0.00000000E+00  0.00000000E+00
  0.00000000E+00  0.00000000E+00  0.00000000E+00
  0.00000000E+00  0.00000000E+00  0.00000000E+00
  0.00000000E+00  0.00000000E+00  0.00000000E+00
  0.00000000E+00  0.00000000E+00  0.00000000E+00
  0.00000000E+00  0.00000000E+00  0.00000000E+00
  0.00000000E+00  0.00000000E+00  0.00000000E+00
  0.00000000E+00  0.00000000E+00  0.00000000E+00
  0.00000000E+00  0.00000000E+00  0.00000000E+00
  0.00000000E+00  0.00000000E+00  0.00000000E+00
  0.00000000E+00  0.00000000E+00  0.00000000E+00
  0.00000000E+00  0.00000000E+00  0.00000000E+00
  0.00000000E+00  0.00000000E+00  0.00000000E+00
  0.00000000E+00  0.00000000E+00  0.00000000E+00
  0.00000000E+00  0.00000000E+00  0.00000000E+00
  0.00000000E+00  0.00000000E+00  0.00000000E+00
  0.00000000E+00  0.00000000E+00  0.00000000E+00
  0.00000000E+00  0.00000000E+00  0.00000000E+00
  0.00000000E+00  0.00000000E+00  0.00000000E+00
  0.00000000E+00  0.00000000E+00  0.00000000E+00
  0.00000000E+00  0.00000000E+00  0.00000000E+00
  0.00000000E+00  0.00000000E+00  0.00000000E+00
  0.00000000E+00  0.00000000E+00  0.00000000E+00
  0.00000000E+00  0.00000000E+00  0.00000000E+00
  0.00000000E+00  0.00000000E+00  0.00000000E+00
  0.00000000E+00  0.00000000E+00  0.00000000E+00
  0.00000000E+00  0.00000000E+00  0.00000000E+00
  0.00000000E+00  0.00000000E+00  0.00000000E+00
  0.00000000E+00  0.00000000E+00  0.00000000E+00
  0.00000000E+00  0.00000000E+00  0.00000000E+00
  0.00000000E+00  0.00000000E+00  0.00000000E+00
  0.00000000E+00  0.00000000E+00  0.00000000E+00
  0.00000000E+00  0.00000000E+00  0.00000000E+00
  0.00000000E+00  0.00000000E+00  0.00000000E+00
  0.00000000E+00  0.00000000E+00  0.00000000E+00
  0.00000000E+00  0.00000000E+00  0.00000000E+00
  0.00000000E+00  0.00000000E+00  0.00000000E+00
  0.00000000E+00  0.00000000E+00  0.00000000E+00
  0.00000000E+00  0.00000000E+00  0.00000000E+00
  0.00000000E+00  0.00000000E+00  0.00000000E+00
  0.00000000E+00  0.00000000E+00  0.00000000E+00
  0.00000000E+00  0.00000000E+00  0.00000000E+00
  0.00000000E+00  0.00000000E+00  0.00000000E+00
  0.00000000E+00  0.00000000E+00  0.00000000E+00
  0.00000000E+00  0.00000000E+00  0.00000000E+00
  0.00000000E+00  0.00000000E+00  0.00000000E+00
  0.00000000E+00  0.00000000E+00  0.00000000E+00
  0.00000000E+00  0.00000000E+00  0.00000000E+00
  0.00000000E+00  0.00000000E+00  0.00000000E+00
  0.00000000E+00  0.00000000E+00  0.00000000E+00
  0.00000000E+00  0.00000000E+00  0.00000000E+00
  0.00000000E+00  0.00000000E+00  0.00000000E+00
  0.00000000E+00  0.00000000E+00  0.00000000E+00
  0.00000000E+00  0.00000000E+00  0.00000000E+00
  0.00000000E+00  0.00000000E+00  0.00000000E+00
  0.00000000E+00  0.00000000E+00  0.00000000E+00
  0.00000000E+00  0.00000000E+00  0.00000000E+00
  0.00000000E+00  0.00000000E+00  0.00000000E+00
  0.00000000E+00  0.00000000E+00  0.00000000E+00
  0.00000000E+00  0.00000000E+00  0.00000000E+00
  0.00000000E+00  0.00000000E+00  0.00000000E+00
  0.00000000E+00  0.00000000E+00  0.00000000E+00
  0.00000000E+00  0.00000000E+00  0.00000000E+00
  0.00000000E+00  0.00000000E+00  0.00000000E+00
  0.00000000E+00  0.00000000E+00  0.00000000E+00
