 B As N 
 1.0
 17.527899999999772   0.000000000000000   0.000000000000000
 -8.763949999999658  15.179606674993195   0.000000000000000
  0.000000000000001   0.000000000000002  15.000000000000000
 B As N 
  48   1  48
Cartesian
  7.527017699173616  14.470731941073096   1.665397854280155 
 15.017704013388956   1.449282782562017   1.665547066934550 
 13.758272771374399   3.617147361069327   1.665672011885040 
 12.510197406456234   5.786258271662778   1.665039600933630 
 11.279749057948560   7.956917102649997   1.666478497274505 
 10.055668251278874  10.133890011384416   1.667508969758160 
  8.805627834177130  12.316456129826273   1.666599094606905 
 -7.493423254806388  14.446088170616829   1.665136617713925 
 -0.004544909076758   1.425682843197761   1.665397854280155 
 -1.267287155499014   3.601138833667064   1.665271422122610 
 -2.513236194013779   5.776501332134457   1.665305550177615 
 -3.741754552120188   7.945752823279697   1.665335720250660 
 -4.977232244553619  10.114603200293914   1.666484603292015 
 -6.227866102529098  12.283463898011508   1.666007569410090 
 -4.987757119750500  14.431395663105922   1.666007569410090 
  2.500417737723261   1.395511890371615   1.666599094606905 
  1.225927734614404   3.557833639723258   1.665827593784430 
 -0.019299137405126   5.756520862792610   1.665118894484535 
 -1.231805784320923   7.935445148787065   1.665447371517750 
 -2.472902266535870  10.104973909338536   1.665659252701200 
 -3.726543823955897  12.271279317210304   1.665394398355110 
 -2.484151729252469  14.432745320125010   1.666484603292015 
  5.015595650301505   1.404228192625099   1.667508969758160 
  3.726072888066750   3.509295460718207   1.664892366225645 
  2.443582388741087   5.683842347180987   1.663199753273700 
  1.283343436754159   7.920974306319157   1.665186012195555 
  0.037808407048716  10.097929543325275   1.666273764646755 
 -1.223647529655864  12.268746585180855   1.665659252701200 
  0.011866640465998  14.447215441175933   1.665335720250660 
  7.512949895950631   1.432629572131283   1.666478497274505 
  6.244023119666321   3.585334946363095   1.665149993746290 
  4.913971542742876   5.602197058635536   1.662169663615800 
  2.545874460050634  10.107742184799841   1.665186012195555 
  1.275767732330536  12.278689883310449   1.665447371517750 
  2.504752718030604  14.467913079613123   1.665305550177615 
 10.008019760771061   1.452359459772633   1.665039600933630 
  8.745834430342535   3.622350503065470   1.665347072409480 
  7.480724112442720   5.800760157250180   1.663414226466390 
  6.369308515238681   8.122914637161598   1.662169663615800 
  5.063407044257916  10.221511757488202   1.663199753273700 
  3.769024840364474  12.318090467821360   1.665118894484535 
  5.011646423401181  14.476570809671637   1.665271422122610 
 12.510562595429841   1.456049943212961   1.665672011885040 
 11.252444638402837   3.623156296279062   1.665793567347585 
  9.999837371766001   5.794347310451479   1.665347072409480 
  8.780988128858617   7.979487239338724   1.665149993746290 
  7.587865139318295  10.198115848191371   1.664892366225645 
  6.295757266528764  12.339035974711733   1.665827593784430 
  4.258275017858765   7.661235742516888   1.671092506922745 
  8.781724338136753  13.746445534328862   1.665119946208530 
 16.272123526766240   0.725037071905832   1.664959198949265 
 15.009789609890198   2.891249243979569   1.665278657718495 
 13.760493763649105   5.059868891664398   1.664887853596215 
 12.524087427498131   7.229773553086185   1.665075205410015 
 11.291787718971779   9.398470450601488   1.667194435510740 
 10.044769338462064  11.572703186352905   1.666815658880715 
 -6.240501527338477  13.722707207058580   1.664867890203810 
  1.250053410939741   0.701208822534224   1.665119946208530 
 -0.019608608523464   2.864710663487424   1.665413661890190 
 -1.265701560040332   5.046826100810880   1.665084737816175 
 -2.489845123631828   7.220335307585482   1.665010181833470 
 -3.729096059127552   9.387995308925142   1.665488637053505 
 -4.979918307084417  11.555858291091200   1.665551870077890 
 -3.733663709820600  13.714434572717686   1.665551870077890 
  3.764092005731572   0.694250940117582   1.666815658880715 
  2.479153518447530   2.831976582670668   1.666239441033585 
  1.212801124664368   4.999644505253940   1.664847533493720 
  0.026020513916424   7.204059635251254   1.664903499475815 
 -1.215464184946697   9.378797551435852   1.665683847349365 
 -2.473432110044493  11.547788664927975   1.665233052391305 
 -1.230828171362731  13.715122221451457   1.665488637053505 
  6.270541978886641   0.701417711486001   1.667194435510740 
  5.002619880873386   2.854176842552187   1.666147925431200 
  3.691765636450254   4.950286264223557   1.661848811272725 
  2.504346901964712   7.113634603965465   1.662614165610330 
  1.307690752411895   9.364756362449583   1.665884503895175 
  0.033953257371034  11.542852041393429   1.665683847349365 
  1.266045924295334  13.725729430318442   1.665010181833470 
  8.764838439488724   0.718563307583693   1.665075205410015 
  7.498012337918166   2.890758039089569   1.665784978128885 
  6.216637764581748   5.067761072778711   1.662854686523265 
  3.855547457029462   9.453982616583874   1.662614165610330 
  2.538073888774372  11.555063711860402   1.664903499475815 
  3.760431894517101  13.752344609756245   1.665084737816175 
 11.262209595485213   0.732756341787323   1.664887853596215 
  9.996049157443123   2.904092154551852   1.665156440872980 
  8.725781347682124   5.081919760386919   1.664513957450550 
  7.483471339285670   7.261981188898875   1.662854686523265 
  6.322771443724116   9.507321997460634   1.661848811272725 
  5.040543697212903  11.629489119232369   1.664847533493720 
  6.273245773005392  13.764254176927642   1.665413661890190 
 13.764961797325471   0.735144225942520   1.665278657718495 
 12.503553902837252   2.900821758741158   1.665724857285585 
 11.246969284296886   5.070749370441711   1.665156440872980 
 10.009498557261214   7.240779773470700   1.665784978128885 
  8.793482574232492   9.420143631967679   1.666147925431200 
  7.550975382047474  11.616629737364834   1.666239441033585 
