B N Al                                  
   1.0000000000000000     
     8.7639499999999995  -15.1796066749929999    0.0000000000000000
     8.7639499999999995   15.1796066749929999    0.0000000000000000
     0.0000000000000000    0.0000000000000000   15.0000000000000000
   B    N    Al
    49    47     2
Selective dynamics
Direct
  0.9057884545599676  0.9540824278858745  0.1138709261086232   T   T   T
  0.9054171495625434  0.0965461968900822  0.1103598191594564   T   T   T
  0.9049576590804050  0.2389717289751338  0.1130691451298788   T   T   T
  0.9039041669401476  0.3812720159351053  0.1152581617951244   T   T   T
  0.9028166973687778  0.5238130182129972  0.1136850265567657   T   T   T
  0.9057878374322605  0.6682273501150847  0.1204484973264330   T   T   T
  0.9064415093155821  0.8117523755730437  0.1208640624576612   T   T   T
  0.0481451877355428  0.9529678886831324  0.1139480328445208   T   T   T
  0.0483016936928033  0.0961478545742916  0.1128448785285461   T   T   T
  0.0483004605737318  0.2389717289751340  0.1130691451298788   T   T   T
  0.0478241211322077  0.3813635631414115  0.1146289620414631   T   T   T
  0.0469293238694690  0.5236458802599568  0.1144256237068487   T   T   T
  0.0471275113957412  0.6663263424003154  0.1141396320930531   T   T   T
  0.0479589893654733  0.8098289601906429  0.1153114051765512   T   T   T
  0.1900641645893452  0.9514690472733321  0.1148062547930735   T   T   T
  0.1900117765516222  0.0943735431065280  0.1191734834476178   T   T   T
  0.1911615619173095  0.2383273129923542  0.1175298416334292   T   T   T
  0.1916542396739600  0.3812720159351054  0.1152581617951244   T   T   T
  0.1910012355124906  0.5236458802599568  0.1144256237068487   T   T   T
  0.1901905645824021  0.6660964500428057  0.1117673973673660   T   T   T
  0.1900250635219515  0.8087160216485809  0.1112792676831999   T   T   T
  0.3325622839517026  0.9508398887794063  0.1153194311387061   T   T   T
  0.3319574807278128  0.0927160870310168  0.1231952485402636   T   T   T
  0.3318591178505317  0.2352175126247925  0.1200837032331696   T   T   T
  0.3352220044419107  0.3802190451633216  0.1086069053587031   T   T   T
  0.3352827115232145  0.5238130182129972  0.1136850265567657   T   T   T
  0.3334835101275788  0.6663263424003154  0.1141396320930531   T   T   T
  0.3329756372496255  0.8087160216485808  0.1112792676831999   T   T   T
  0.4756895618069816  0.9514690472733321  0.1148062547930735   T   T   T
  0.4750449969832053  0.0927160870310168  0.1231952485402636   T   T   T
  0.4735760727382050  0.2328657547964146  0.1169203130403289   T   T   T
  0.4660585413529222  0.3633626050363661  0.0684502721437790   T   T   T
  0.4806598374837979  0.5302287103203289  0.0957310332913402   T   T   T
  0.4767259033618236  0.6682273501150847  0.1204484973264330   T   T   T
  0.4761546499481670  0.8098289601906433  0.1153114051765512   T   T   T
  0.6191073800705935  0.9529678886831325  0.1139480328445210   T   T   T
  0.6186481572339116  0.0943735431065280  0.1191734834476174   T   T   T
  0.6176447854542595  0.2352175126247923  0.1200837032331696   T   T   T
  0.6115904543634487  0.3633626050363662  0.0684502721437790   T   T   T
  0.6298643376727715  0.5454422846665298  0.0731306645568359   T   T   T
  0.6206171516087424  0.6714686836923409  0.1226958873996200   T   T   T
  0.6195972569364713  0.8117523755730429  0.1208640624576612   T   T   T
  0.7625803640049076  0.9540824278858745  0.1138709261086232   T   T   T
  0.7621325515604950  0.0961478545742916  0.1128448785285460   T   T   T
  0.7614521417540413  0.2383273129923542  0.1175298416334292   T   T   T
  0.7592834314014086  0.3802190451633217  0.1086069053587031   T   T   T
  0.7638552635155336  0.5302287103203288  0.0957310332913402   T   T   T
  0.7651379227626071  0.6714686836923411  0.1226958873996200   T   T   T
  0.7634325580174497  0.8125787253558977  0.1231925579681468   T   T   T
  0.9532480043832983  0.9062711551373863  0.1153955830330964   T   T   T
  0.9531401378664881  0.0489845578954108  0.1105841543045784   T   T   T
  0.9529731720770505  0.1916571496241033  0.1110596639808933   T   T   T
  0.9523118208948063  0.3341224865559722  0.1145987169993457   T   T   T
  0.9511415418272056  0.4764875755066382  0.1150539763489415   T   T   T
  0.9517142880781166  0.6191584500377780  0.1163985667629612   T   T   T
  0.9531240466883401  0.7631801248107807  0.1204982014871087   T   T   T
  0.0951630997704095  0.9047002728616204  0.1134439769585275   T   T   T
  0.0952600565236921  0.0478391584657001  0.1142629917492532   T   T   T
  0.0959375283633328  0.1913316244332661  0.1142618827111776   T   T   T
  0.0960981486351699  0.3341224865559722  0.1145987169993457   T   T   T
  0.0953762517523281  0.4764667320866602  0.1146674970965273   T   T   T
  0.0947946391820739  0.6187410714544345  0.1129644376093445   T   T   T
  0.0948329644269529  0.7614651856883061  0.1129354129728660   T   T   T
  0.2374703979053102  0.9036614483485041  0.1126108483574502   T   T   T
  0.2371017861757855  0.0461348777118868  0.1195422679240151   T   T   T
  0.2371275814342087  0.1892017033275121  0.1223068076977566   T   T   T
  0.2397818041443502  0.3339387652282199  0.1157490991484321   T   T   T
  0.2396335166534456  0.4764875755066382  0.1150539763489415   T   T   T
  0.2382322036893692  0.6187410714544345  0.1129644376093445   T   T   T
  0.2377265150880572  0.7611672587591086  0.1102294593926028   T   T   T
  0.3804768218601927  0.9036614483485041  0.1126108483574505   T   T   T
  0.3798560410519318  0.0454245991308643  0.1215411520716837   T   T   T
  0.3789719364931055  0.1871831135067461  0.1248173529663965   T   T   T
  0.3792114460983212  0.3289821250157941  0.1059439004051645   T   T   T
  0.3848617134143852  0.4769103169154528  0.1066964198773762   T   T   T
  0.3817316449326728  0.6191584500377783  0.1163985667629612   T   T   T
  0.3809179926783461  0.7614651856883060  0.1129354129728659   T   T   T
  0.5238229445082033  0.9047002728616204  0.1134439769585275   T   T   T
  0.5233205745091039  0.0461348777118868  0.1195422679240151   T   T   T
  0.5224986599866422  0.1871831135067461  0.1248173529663965   T   T   T
  0.5187747906448877  0.3232620983167833  0.0892053433276526   T   T   T
  0.5256180423690687  0.6219948296777330  0.1194284365848041   T   T   T
  0.5243435610954317  0.7631801248107808  0.1204982014871088   T   T   T
  0.6673106337270852  0.9062711551373863  0.1153955830330964   T   T   T
  0.6668665849149950  0.0478391584657001  0.1142629917492532   T   T   T
  0.6663616048663046  0.1892017033275121  0.1223068076977566   T   T   T
  0.6640581618904697  0.3289821250157942  0.1059439004051645   T   T   T
  0.6699095620056380  0.6255316410392879  0.1182551296426156   T   T   T
  0.6681284496401932  0.7654028752796206  0.1258779792887834   T   T   T
  0.8106126134416954  0.9069377439093932  0.1165597968290296   T   T   T
  0.8101336145589236  0.0489845578954107  0.1105841543045784   T   T   T
  0.8096815790439229  0.1913316244332661  0.1142618827111776   T   T   T
  0.8084444440578716  0.3339387652282200  0.1157490991484321   T   T   T
  0.8063360864750646  0.4769103169154525  0.1066964198773763   T   T   T
  0.8106642702816682  0.6219948296777331  0.1194284365848041   T   T   T
  0.8115619086124204  0.7654028752796210  0.1258779792887833   T   T   T
  0.5206760092319824  0.4731257603238259 -0.0162268962422388   T   T   T
  0.6667372340648451  0.4731257603238259 -0.0162268962422389   T   T   T

  0.00000000E+00  0.00000000E+00  0.00000000E+00
  0.00000000E+00  0.00000000E+00  0.00000000E+00
  0.00000000E+00  0.00000000E+00  0.00000000E+00
  0.00000000E+00  0.00000000E+00  0.00000000E+00
  0.00000000E+00  0.00000000E+00  0.00000000E+00
  0.00000000E+00  0.00000000E+00  0.00000000E+00
  0.00000000E+00  0.00000000E+00  0.00000000E+00
  0.00000000E+00  0.00000000E+00  0.00000000E+00
  0.00000000E+00  0.00000000E+00  0.00000000E+00
  0.00000000E+00  0.00000000E+00  0.00000000E+00
  0.00000000E+00  0.00000000E+00  0.00000000E+00
  0.00000000E+00  0.00000000E+00  0.00000000E+00
  0.00000000E+00  0.00000000E+00  0.00000000E+00
  0.00000000E+00  0.00000000E+00  0.00000000E+00
  0.00000000E+00  0.00000000E+00  0.00000000E+00
  0.00000000E+00  0.00000000E+00  0.00000000E+00
  0.00000000E+00  0.00000000E+00  0.00000000E+00
  0.00000000E+00  0.00000000E+00  0.00000000E+00
  0.00000000E+00  0.00000000E+00  0.00000000E+00
  0.00000000E+00  0.00000000E+00  0.00000000E+00
  0.00000000E+00  0.00000000E+00  0.00000000E+00
  0.00000000E+00  0.00000000E+00  0.00000000E+00
  0.00000000E+00  0.00000000E+00  0.00000000E+00
  0.00000000E+00  0.00000000E+00  0.00000000E+00
  0.00000000E+00  0.00000000E+00  0.00000000E+00
  0.00000000E+00  0.00000000E+00  0.00000000E+00
  0.00000000E+00  0.00000000E+00  0.00000000E+00
  0.00000000E+00  0.00000000E+00  0.00000000E+00
  0.00000000E+00  0.00000000E+00  0.00000000E+00
  0.00000000E+00  0.00000000E+00  0.00000000E+00
  0.00000000E+00  0.00000000E+00  0.00000000E+00
  0.00000000E+00  0.00000000E+00  0.00000000E+00
  0.00000000E+00  0.00000000E+00  0.00000000E+00
  0.00000000E+00  0.00000000E+00  0.00000000E+00
  0.00000000E+00  0.00000000E+00  0.00000000E+00
  0.00000000E+00  0.00000000E+00  0.00000000E+00
  0.00000000E+00  0.00000000E+00  0.00000000E+00
  0.00000000E+00  0.00000000E+00  0.00000000E+00
  0.00000000E+00  0.00000000E+00  0.00000000E+00
  0.00000000E+00  0.00000000E+00  0.00000000E+00
  0.00000000E+00  0.00000000E+00  0.00000000E+00
  0.00000000E+00  0.00000000E+00  0.00000000E+00
  0.00000000E+00  0.00000000E+00  0.00000000E+00
  0.00000000E+00  0.00000000E+00  0.00000000E+00
  0.00000000E+00  0.00000000E+00  0.00000000E+00
  0.00000000E+00  0.00000000E+00  0.00000000E+00
  0.00000000E+00  0.00000000E+00  0.00000000E+00
  0.00000000E+00  0.00000000E+00  0.00000000E+00
  0.00000000E+00  0.00000000E+00  0.00000000E+00
  0.00000000E+00  0.00000000E+00  0.00000000E+00
  0.00000000E+00  0.00000000E+00  0.00000000E+00
  0.00000000E+00  0.00000000E+00  0.00000000E+00
  0.00000000E+00  0.00000000E+00  0.00000000E+00
  0.00000000E+00  0.00000000E+00  0.00000000E+00
  0.00000000E+00  0.00000000E+00  0.00000000E+00
  0.00000000E+00  0.00000000E+00  0.00000000E+00
  0.00000000E+00  0.00000000E+00  0.00000000E+00
  0.00000000E+00  0.00000000E+00  0.00000000E+00
  0.00000000E+00  0.00000000E+00  0.00000000E+00
  0.00000000E+00  0.00000000E+00  0.00000000E+00
  0.00000000E+00  0.00000000E+00  0.00000000E+00
  0.00000000E+00  0.00000000E+00  0.00000000E+00
  0.00000000E+00  0.00000000E+00  0.00000000E+00
  0.00000000E+00  0.00000000E+00  0.00000000E+00
  0.00000000E+00  0.00000000E+00  0.00000000E+00
  0.00000000E+00  0.00000000E+00  0.00000000E+00
  0.00000000E+00  0.00000000E+00  0.00000000E+00
  0.00000000E+00  0.00000000E+00  0.00000000E+00
  0.00000000E+00  0.00000000E+00  0.00000000E+00
  0.00000000E+00  0.00000000E+00  0.00000000E+00
  0.00000000E+00  0.00000000E+00  0.00000000E+00
  0.00000000E+00  0.00000000E+00  0.00000000E+00
  0.00000000E+00  0.00000000E+00  0.00000000E+00
  0.00000000E+00  0.00000000E+00  0.00000000E+00
  0.00000000E+00  0.00000000E+00  0.00000000E+00
  0.00000000E+00  0.00000000E+00  0.00000000E+00
  0.00000000E+00  0.00000000E+00  0.00000000E+00
  0.00000000E+00  0.00000000E+00  0.00000000E+00
  0.00000000E+00  0.00000000E+00  0.00000000E+00
  0.00000000E+00  0.00000000E+00  0.00000000E+00
  0.00000000E+00  0.00000000E+00  0.00000000E+00
  0.00000000E+00  0.00000000E+00  0.00000000E+00
  0.00000000E+00  0.00000000E+00  0.00000000E+00
  0.00000000E+00  0.00000000E+00  0.00000000E+00
  0.00000000E+00  0.00000000E+00  0.00000000E+00
  0.00000000E+00  0.00000000E+00  0.00000000E+00
  0.00000000E+00  0.00000000E+00  0.00000000E+00
  0.00000000E+00  0.00000000E+00  0.00000000E+00
  0.00000000E+00  0.00000000E+00  0.00000000E+00
  0.00000000E+00  0.00000000E+00  0.00000000E+00
  0.00000000E+00  0.00000000E+00  0.00000000E+00
  0.00000000E+00  0.00000000E+00  0.00000000E+00
  0.00000000E+00  0.00000000E+00  0.00000000E+00
  0.00000000E+00  0.00000000E+00  0.00000000E+00
  0.00000000E+00  0.00000000E+00  0.00000000E+00
  0.00000000E+00  0.00000000E+00  0.00000000E+00
  0.00000000E+00  0.00000000E+00  0.00000000E+00
  0.00000000E+00  0.00000000E+00  0.00000000E+00
