 N As B 
 1.0
 17.527899999999772   0.000000000000000   0.000000000000000
 -8.763949999999658  15.179606674993195   0.000000000000000
  0.000000000000001   0.000000000000002  15.000000000000000
 N As B 
  48   1  48
Cartesian
  8.770078352134037  13.761161483045376   1.664918858282190 
 16.254606339393607   0.735150624751049   1.665319088431065 
 14.990231727535337   2.899121550020782   1.665441014633430 
 13.740730962831435   5.068436579647527   1.664154502184220 
 12.510263171211443   7.236788185633822   1.663458528015675 
 11.284035328211246   9.407248252453771   1.665129535095480 
 10.037216142601032  11.585204501747350   1.665559538827035 
 -6.252268148267729  13.729500668819547   1.664827457027490 
  1.231486032508857   0.703936567906512   1.664918858282190 
 -0.041611958177873   2.867593012998486   1.665099229323375 
 -1.287297244740651   5.050362375199147   1.665277450578735 
 -2.507482126699414   7.225385453790321   1.665236866944780 
 -3.739501422742518   9.394276909408990   1.665456075807375 
 -4.989189350880179  11.562858431186150   1.665121282044255 
 -3.744361530870958  13.718963462117106   1.665121282044255 
  3.749488951088711   0.694541541915772   1.665559538827035 
  2.453020820763727   2.819728425174409   1.664247969759345 
  1.188309419008477   4.995870256662973   1.663949272122930 
  0.003391110361332   7.206658053440466   1.666242891021870 
 -1.226588945518123   9.384200051828195   1.666861870543695 
 -2.483268517105655  11.553467717192596   1.665917094151965 
 -1.241470878765732  13.720992730435752   1.665456075807375 
  6.259063984113086   0.703742577898271   1.665129535095480 
  4.986713441121948   2.847035799808738   1.664266828493895 
  3.661260979470921   4.911874112384774   1.661964439238220 
  2.489739949941980   7.112805716004668   1.663951295464545 
  1.298312652534715   9.370170810938170   1.667173048870395 
  0.023712174501642  11.549785116463058   1.666861870543695 
  1.252853867855131  13.738478449919024   1.665236866944780 
  8.751851461361237   0.727028148442224   1.663458528015675 
  7.483719263491087   2.894343084069790   1.662982056650520 
  6.190206993030250   5.059868891664398   1.664322015852645 
  3.848961819049548   9.467047052087938   1.663951295464545 
  2.524508890835199  11.573362141117043   1.666242891021870 
  3.746571548711820  13.769278884124692   1.665277450578735 
 11.244932932292116   0.745587585353914   1.664154502184220 
  9.979380490816929   2.915038632875492   1.665420833976270 
  8.704604138483610   5.094146427818537   1.664797792519980 
  7.477066210184665   7.288816999061358   1.664322015852645 
  6.340785014540731   9.552945881258239   1.661964439238220 
  5.031566439544643  11.652586682808003   1.663949272122930 
  6.259747910278946  13.781868461941075   1.665099229323375 
 13.748365239129896   0.748145695885515   1.665441014633430 
 12.485915394862225   2.911005356068705   1.664845652271465 
 11.229155022673208   5.079711620025724   1.665420833976270 
  9.999247280021304   7.251365416532621   1.662982056650520 
  8.791713678782143   9.437489534247733   1.664266828493895 
  7.548516248746974  11.645385396176374   1.664247969759345 
  4.402829673392553   7.577783340183228   1.686169239697380 
  7.511992905587013  14.481331179095797   1.665432060431295 
 15.000869677764538   1.459002090766302   1.665707467254585 
 13.739832491456431   3.625796140732094   1.665477217298220 
 12.490356546473938   5.793324844031936   1.664432143411245 
 11.262226839399826   7.963062861701560   1.664044285168125 
 10.042819792524067  10.141880869864133   1.665609518784780 
  8.795038833358710  12.331164485211223   1.665333009295515 
 -7.507374770707623  14.454143082077980   1.665254739734835 
 -0.021236515258444   1.433395077118846   1.665432060431295 
 -1.284500225452999   3.608472768380335   1.665505812207450 
 -2.529208716993716   5.781843860680804   1.665086068734930 
 -3.755638210379162   7.950294211927799   1.664939020144275 
 -4.988087173695373  10.119737783328796   1.665791509073790 
 -6.239337634849521  12.290843790311445   1.665580558330950 
 -4.999884060119878  14.437640355365959   1.665580558330950 
  2.482385427902743   1.397328056388614   1.665333009295515 
  1.209065172070378   3.564284447608528   1.664479122535560 
 -0.031216210991491   5.761338678884876   1.665486892645545 
 -1.240287674145110   7.937019216476341   1.666539425576895 
 -2.478695940346800  10.108007911482757   1.666348405635615 
 -3.735616449174601  12.276517399822611   1.665411370299870 
 -2.494061300508292  14.439578673000881   1.665791509073790 
  5.002251134482366   1.411359855066515   1.665609518784780 
  3.702281417546734   3.505376229413739   1.663465564892280 
  2.432854188959642   5.694778220776890   1.663627838836410 
  1.293121694854053   7.910045053263973   1.666368323620770 
  0.042074823648093  10.095466326553190   1.667521283389605 
 -1.229171889493403  12.272247052810172   1.666348405635615 
  0.000991853398881  14.456968347601617   1.664939020144275 
  7.498866403212115   1.444731378999446   1.664044285168125 
  6.223743891416341   3.602547667744805   1.663531106663850 
  4.858232179889034   5.635950655550669   1.668928141227570 
  2.560228599890391  10.104738591408376   1.666368323620770 
  1.270163604811972  12.285248381525751   1.666539425576895 
  2.492139691099478  14.479074426002709   1.665086068734930 
  9.991979499590522   1.466008862365712   1.664432143411245 
  8.723155031020170   3.639285070562186   1.665496014443610 
  7.439244608262067   5.824708360154792   1.664629603443345 
  6.312207361413988   8.154309542926477   1.668928141227570 
  5.048572200020717  10.225334714237842   1.663627838836410 
  3.758893952444768  12.326002048239728   1.665486892645545 
  4.996688514652758  14.487810798172527   1.665505812207450 
 12.493852392571211   1.467695304243388   1.665477217298220 
 11.232399943846804   3.634729106076902   1.665459680439420 
  9.973831906450577   5.805520962658951   1.665496014443610 
  8.755941860748775   7.988443205481421   1.663531106663850 
  7.579363557930922  10.220679481707311   1.663465564892280 
  6.281739421753156  12.350413978305372   1.664479122535560 
