 B N As 
 1.0
 14.936314146199660   0.000000000000000   0.000000000000000
 -7.468157073099825  12.935227489513863   0.000000000000000
  0.000000000000001   0.000000000000001  13.341276283792837
 B N As 
 144 143   1
Cartesian
  1.225236871750307   0.697455157060649   5.002978606422314 
  4.978771382066634   7.511683426001659   5.002978606422314 
  6.229909447435637   0.695618335182685   5.002978606422314 
  9.980688647211213   7.192158477166553   5.002978606422314 
 11.207795705191318   0.721833872075099   5.002978606422314 
 -3.734092741535552   9.342100541174361  11.673616748318732 
  1.244717923300491   9.342055348879846  11.673616748318732 
  2.489550604911687   2.874603491053418  11.673616748318732 
  6.223452726496002   9.341911676126708  11.673616748318732 
  7.467992159221368   2.874603491053418  11.673616748318732 
 12.446928455166431   2.874516264095349  11.673616748318732 
 -1.250912656325959   9.345699751871752   5.002978606422314 
 -0.025883439468307   2.859551186925069   5.002978606422314 
  4.978771382066594   2.832837948765409   5.002978606422314 
  3.697027788894102   9.434765396053836   5.002978606422314 
  8.729550581842110   9.359193173669283   5.002978606422314 
  9.983426203601585   2.859551186925069   5.002978606422314 
 -4.978780600603736  11.497985313003920  11.673616748318732 
  0.000009218537244  11.497985313003920  11.673616748318732 
  1.244869260482218   5.030454818838410  11.673616748318732 
  6.223178395976318   5.030531270877233  11.673616748318732 
  4.978771382066645  11.497874910887264  11.673616748318732 
 11.202188354830946   5.030386786632376  11.673616748318732 
 -1.272753371143106   5.024101174563390   5.002978606422314 
 -2.489385691033186  11.490797971788698   5.002978606422314 
  2.480781139173177  11.525413654394391   5.002978606422314 
  3.452234092029249   4.867643280008335   5.002978606422314 
  7.476761624960005  11.525413654394391   5.002978606422314 
  8.811618308315335   5.016124807807626   5.002978606422314 
  0.000058779059883   7.186242472949904  11.673616748318732 
  1.244734261703074   0.718654402935825  11.673616748318732 
  4.978771382066642   7.185907444263877  11.673616748318732 
  6.223430526307141   0.718672164188772  11.673616748318732 
  9.957483985073203   7.186242472949904  11.673616748318732 
 -2.489385691033240   7.189654861608619   5.002978606422314 
 11.202217192384945   0.718613116204610  11.673616748318732 
  3.727633316697431   0.695618335182685   5.002978606422314 
  2.453309628435492   7.207066018626505   5.002978606422314 
  7.504233135697699   7.207066018626505   5.002978606422314 
  8.732305892382865   0.697455157060649   5.002978606422314 
  2.489508306482915   7.186166702111464  11.673616748318732 
 13.686061205141423   0.721833872075099   5.002978606422314 
 -1.244678640530912   9.342100541174361  11.673616748318732 
  0.000091001769119   2.874547537565539  11.673616748318732 
  4.978771382066491   2.874636581795516  11.673616748318732 
  3.734090037637061   9.341911676126708  11.673616748318732 
  8.712824840832599   9.342055348879846  11.673616748318732 
  9.957451762364176   2.874547537565539  11.673616748318732 
 -3.727858725740401   9.345699751871752   5.002978606422314 
  1.227992182290965   9.359193173669283   5.002978606422314 
  2.427668048990500   2.796079782156878   5.002978606422314 
  6.260514975239198   9.434765396053836   5.002978606422314 
  7.529874715142779   2.796079782156878   5.002978606422314 
 12.446928455166363   2.868074752354459   5.002978606422314 
 -1.244645590697740   5.030386786632376  11.673616748318732 
 -2.489385691033224  11.497996393183579  11.673616748318732 
  2.489391529665769  11.497928796450218  11.673616748318732 
  3.734364368156979   5.030531270877233  11.673616748318732 
  7.468151234467430  11.497928796450218  11.673616748318732 
 -4.975811855054367  11.496271306961825   5.002978606422314 
  8.712673503650841   5.030454818838410  11.673616748318732 
 -0.002959527012098  11.496271306961825   5.002978606422314 
  1.145924455817960   5.016124807807626   5.002978606422314 
 -0.023145883078139   7.192158477166553   5.002978606422314 
  6.505308672104047   4.867643280008335   5.002978606422314 
  4.978771382066649  11.527867612168189   5.002978606422314 
 11.230296135276280   5.024101174563390   5.002978606422314 
 -2.489385691033248   7.186226849524472  11.673616748318732 
  3.734112237825928   0.718672164188772  11.673616748318732 
  7.468034457650143   7.186166702111464  11.673616748318732 
  8.712808502430100   0.718654402935825  11.673616748318732 
 13.691639717947902   0.718613116204610  11.673616748318732 
 -0.000164296910430   1.437205491437663   1.667499762256345 
  3.734991371832664   7.904522879959435   1.649128853838950 
  4.978771382066475   1.437908738393963   1.665575426636954 
  8.712277268360289   7.904530623812329   1.665575426636954 
  9.957707061043498   1.437205491437663   1.667499762256345 
 -4.978923482132444  10.060684618766253   8.338128991687885 
  0.000152100065755  10.060684618766253   8.338128991687885 
  1.244450492036803   3.592978824240316   8.343894573804670 
  4.978771382066584  10.061012337537786   8.343894573804670 
  6.223627613723205   3.594078467447720   8.356828359005677 
 11.202354137578073   3.592997465487629   8.338457450588283 
 -2.489385691033300  10.060732491844131   1.667573392540425 
 -1.244811373445004   3.592997465487628   1.667499762256345 
  3.733915150409882   3.594078467447719   1.649128853838950 
  2.489608426338322  10.060808288421708   1.666016306174964 
  7.467934337794646  10.060808288421708   1.666016306174964 
  8.713092272096372   3.592978824240316   1.662062639039958 
 -6.223584542155126  12.216673203746923   8.338032295134280 
 -1.244658254785417  12.216759399156341   8.338128991687885 
  0.000045725890811   5.748759202618213   8.339940906669650 
  4.978771382066590   5.748989995339477   8.360872880691037 
  3.734124305531964  12.216767029093228   8.338457450588283 
  9.957497038242158   5.748759202618213   8.339940906669650 
 -2.489385691033182   5.748851068038340   1.667924917710348 
 -3.734113127281272  12.216759399156341   1.667828221156741 
  1.244813160088754  12.216673203746923   1.667924917710348 
  2.490135140176002   5.748368638611352   1.649128853838950 
  6.223418458601113  12.216767029093228   1.667499762256345 
  7.467407623957083   5.748368638611352   1.649128853838950 
 -1.244575336182165   7.904753457609867   8.338128991687885 
 -0.000164296910429   1.437205491437664   8.338457450588283 
  3.734991371832665   7.904522879959436   8.356828359005677 
  4.978771382066475   1.437908738393964   8.340381786207674 
  8.712277268360289   7.904530623812330   8.340381786207674 
 -3.734196045884511   7.904753457609866   1.667828221156741 
  9.957707061043498   1.437205491437664   8.338457450588283 
  2.489208681618977   1.437402494978677   1.666016306174964 
  1.245265495772681   7.904530623812329   1.665575426636954 
  6.222551392300423   7.904522879959435   1.649128853838950 
  7.468334082514001   1.437402494978677   1.666016306174964 
  1.245265495772682   7.904530623812330   8.340381786207674 
 12.446928455166319   1.437247498834911   1.667586594853094 
 -2.489385691033300  10.060732491844131   8.338383820304216 
 -1.244811373445003   3.592997465487629   8.338457450588283 
  3.733915150409882   3.594078467447720   8.356828359005677 
  2.489608426338323  10.060808288421708   8.339940906669650 
  7.467934337794647  10.060808288421708   8.339940906669650 
  8.713092272096372   3.592978824240316   8.343894573804670 
 -4.978923482132445  10.060684618766253   1.667828221156741 
  0.000152100065755  10.060684618766253   1.667828221156741 
  1.244450492036802   3.592978824240316   1.662062639039958 
  4.978771382066583  10.061012337537786   1.662062639039958 
  6.223627613723204   3.594078467447719   1.649128853838950 
 11.202354137578073   3.592997465487628   1.667499762256345 
 -2.489385691033182   5.748851068038341   8.338032295134280 
 -3.734113127281272  12.216759399156341   8.338128991687885 
  1.244813160088754  12.216673203746923   8.338032295134280 
  2.490135140176002   5.748368638611353   8.356828359005677 
  6.223418458601114  12.216767029093228   8.338457450588283 
 -6.223584542155127  12.216673203746923   1.667924917710348 
  7.467407623957084   5.748368638611353   8.356828359005677 
 -1.244658254785417  12.216759399156341   1.667828221156741 
  0.000045725890810   5.748759202618212   1.666016306174964 
 -1.244575336182165   7.904753457609866   1.667828221156741 
  4.978771382066589   5.748989995339476   1.645084332153591 
  3.734124305531964  12.216767029093228   1.667499762256345 
  9.957497038242158   5.748759202618212   1.666016306174964 
 -3.734196045884510   7.904753457609867   8.338128991687885 
  2.489208681618977   1.437402494978678   8.339940906669650 
  6.222551392300424   7.904522879959436   8.356828359005677 
  7.468334082514001   1.437402494978678   8.339940906669650 
 12.446928455166319   1.437247498834912   8.338370617991520 
  1.244563038350299   0.718576908352772   1.668314607337474 
  4.978771382066647   7.187528451618543   1.630960378172202 
  6.223475835184144   0.718750117917411   1.668429549305551 
  9.957439129602378   7.186164257447067   1.668429549305551 
 11.202294420668551   0.718657703974938   1.667826025437190 
 -3.734134031233950   9.342076702555847   8.337683380326787 
  1.244808087648254   9.342055610654132   8.337527663539078 
  2.489060858070455   2.874348277448063   8.344909456788500 
  6.223428874541000   9.342463416135313   8.344909456788500 
  7.468481906062839   2.874348277448063   8.344909456788500 
 12.446928455166415   2.874427088554690   8.338131187407424 
 -1.244637350832501   9.342076702555847   1.668273832517827 
 -0.000270159950872   2.874339020749349   1.666706472624492 
  4.978771382066602   2.874721106481429   1.658219326123088 
  3.734113889592286   9.342463416135313   1.661047756056141 
  8.712734676484700   9.342055610654132   1.668429549305551 
  9.957812924084045   2.874339020749349   1.666706472624492 
 -4.978825614295723  11.498011301671095   8.337634852452018 
  0.000054232229260  11.498011301671095   8.337634852452018 
  1.244403365596093   5.030158292434952   8.344909456788500 
  6.224582229525191   5.029720767199892   8.374996834672425 
  4.978771382066584  11.498291944519744   8.339250740220136 
 11.202341078784904   5.030277250150666   8.337642605507167 
 -1.244798314651699   5.030277250150665   1.668314607337474 
 -2.489385691033240  11.498044070420571   1.668273832517827 
  2.489410029064590  11.498115827514965   1.668314607337474 
  3.732960534608118   5.029720767199891   1.630960378172202 
  7.468132735068606  11.498115827514965   1.668314607337474 
  8.713139398537187   5.030158292434951   1.661047756056141 
  0.000103634530607   7.186164257447068   8.337527663539078 
  1.244563038350300   0.718576908352773   8.337642605507167 
  4.978771382066648   7.187528451618544   8.374996834672425 
  6.223475835184145   0.718750117917412   8.337527663539078 
  9.957439129602378   7.186164257447068   8.337527663539078 
 -2.489385691033234   7.186174872190064   1.668322360392611 
 11.202294420668551   0.718657703974939   8.338131187407424 
  3.734066928948819   0.718750117917411   1.668429549305551 
  2.489581507008286   7.186124439768487   1.658219326123088 
  7.467961257124906   7.186124439768487   1.658219326123088 
  8.712979725782887   0.718576908352772   1.668314607337474 
  2.489581507008287   7.186124439768488   8.347737886721539 
 13.691562489664280   0.718657703974938   1.667826025437190 
 -1.244637350832500   9.342076702555847   8.337683380326787 
 -0.000270159950872   2.874339020749350   8.339250740220136 
  4.978771382066602   2.874721106481430   8.347737886721539 
  3.734113889592286   9.342463416135313   8.344909456788500 
  8.712734676484700   9.342055610654132   8.337527663539078 
  9.957812924084045   2.874339020749350   8.339250740220136 
 -3.734134031233951   9.342076702555847   1.668273832517827 
  1.244808087648254   9.342055610654132   1.668429549305551 
  2.489060858070455   2.874348277448062   1.661047756056141 
  6.223428874540999   9.342463416135313   1.661047756056141 
  7.468481906062838   2.874348277448062   1.661047756056141 
 12.446928455166415   2.874427088554689   1.667826025437190 
 -1.244798314651698   5.030277250150666   8.337642605507167 
 -2.489385691033239  11.498044070420571   8.337683380326787 
  2.489410029064591  11.498115827514965   8.337642605507167 
  3.732960534608118   5.029720767199892   8.374996834672425 
  7.468132735068607  11.498115827514965   8.337642605507167 
 -4.978825614295724  11.498011301671095   1.668322360392611 
  8.713139398537187   5.030158292434952   8.344909456788500 
  0.000054232229259  11.498011301671095   1.668322360392611 
  1.244403365596092   5.030158292434951   1.661047756056141 
  0.000103634530606   7.186164257447067   1.668429549305551 
  6.224582229525190   5.029720767199891   1.630960378172202 
  4.978771382066583  11.498291944519744   1.666706472624492 
 11.202341078784904   5.030277250150665   1.668314607337474 
 -2.489385691033233   7.186174872190065   8.337634852452018 
  3.734066928948820   0.718750117917412   8.337527663539078 
  7.467961257124907   7.186124439768488   8.347737886721539 
  8.712979725782887   0.718576908352773   8.337642605507167 
 13.691562489664280   0.718657703974939   8.338131187407424 
 -0.010723081590103   1.428030872787107   5.002978606422314 
  3.665993253936157   8.025584992505816   5.002978606422314 
  4.978771382066534   1.405898757187638   5.002978606422314 
  8.739998725259642   7.920535614415442   5.002978606422314 
  9.968265845723066   1.428030872787107   5.002978606422314 
 -4.978748336167143  10.060759066102939  11.673616748318732 
 -0.000023045899441  10.060759066102939  11.673616748318732 
  1.244694478434034   3.593119689852565  11.673616748318732 
  4.978771382066501  10.060730606313482  11.673616748318732 
  6.223445037456119   3.593008893481755  11.673616748318732 
 11.202245879118891   3.593148192054149  11.673616748318732 
 -2.489385691033300  10.060732491844131   5.002978606422314 
 -1.258036218606308   3.588440599047310   5.002978606422314 
  3.663571344457166   3.473793288262853   5.002978606422314 
  2.456068510193887  10.108256240005545   5.002978606422314 
  7.501474253939205  10.108256240005545   5.002978606422314 
  8.751480036921240   3.570815637885099   5.002978606422314 
 -6.223450289579452  12.216595692986212  11.673616748318732 
 -1.244681354483150  12.216570494632679  11.673616748318732 
 -0.000056293847701   5.749031942241888  11.673616748318732 
  4.978771382066590   5.748989995339477  11.673616748318732 
  3.734047901725900  12.216597911234159  11.673616748318732 
  9.957599057980683   5.749031942241888  11.673616748318732 
 -2.489385691033234   5.753900527224224   5.002978606422314 
 -3.732266524709300  12.203801961939062   5.002978606422314 
  1.240440200158395  12.214148474154028   5.002978606422314 
  2.350793216326787   5.747591705249851   5.002978606422314 
  6.226084519082685  12.230498514184207   5.002978606422314 
  7.606749547806301   5.747591705249851   5.002978606422314 
 -1.244727382449583   7.904867914796768  11.673616748318732 
  0.000020365354792   1.437223882730229  11.673616748318732 
  3.733973805473316   7.904899551257084  11.673616748318732 
  4.978771382066491   1.437142846405909  11.673616748318732 
  8.712940550278482   7.904913569806358  11.673616748318732 
 -3.723897877372330   7.912831380956450   5.002978606422314 
  9.957522398778261   1.437223882730229  11.673616748318732 
  2.464887508262096   1.384632099764786   5.002978606422314 
  1.217544038873430   7.920535614415442   5.002978606422314 
  6.291549510196917   8.025584992505816   5.002978606422314 
  7.492655255870972   1.384632099764786   5.002978606422314 
  1.244602213854485   7.904913569806358  11.673616748318732 
 12.446928455166319   1.437247498834912   5.002978606422314 
 -2.489385691033299  10.060732491844133  11.673616748318732 
 -1.244703114985823   3.593148192054149  11.673616748318732 
  3.734097726676863   3.593008893481755  11.673616748318732 
  2.489321217026333  10.060760270295109  11.673616748318732 
  7.468221547106639  10.060760270295109  11.673616748318732 
  8.712848285698946   3.593119689852565  11.673616748318732 
 -4.966778711048337  10.065564132636872   5.002978606422314 
 -0.011992671018231  10.065564132636872   5.002978606422314 
  1.206062727211727   3.570815637885099   5.002978606422314 
  4.978771382066486  10.105338710248411   5.002978606422314 
  6.293971419675920   3.473793288262853   5.002978606422314 
 11.215578982739274   3.588440599047310   5.002978606422314 
 -2.489385691033241   5.749006089559846  11.673616748318732 
 -3.734090027583432  12.216570494632679  11.673616748318732 
  1.244678907512989  12.216595692986212  11.673616748318732 
  2.489300150083680   5.749061541279773  11.673616748318732 
  6.223494862407145  12.216597911234159  11.673616748318732 
 -6.219211582224858  12.214148474154028   5.002978606422314 
  7.468242614049289   5.749061541279773  11.673616748318732 
 -1.246504857357283  12.203801961939062   5.002978606422314 
 -0.057815363610568   5.754081646248190   5.002978606422314 
 -1.254873504694241   7.912831380956450   5.002978606422314 
  3.731458245050272  12.230498514184207   5.002978606422314 
 10.015358127743625   5.754081646248190   5.002978606422314 
 -3.734043999617002   7.904867914796768  11.673616748318732 
  2.489393871192443   1.437177773481603  11.673616748318732 
  6.223568958659670   7.904899551257084  11.673616748318732 
  7.468148892940522   1.437177773481603  11.673616748318732 
 12.446928455166319   1.437247498834912  11.673616748318732 
  4.978771382066589   5.748989995339477   5.002978606422314 
Generated by cif2cell 2.0.0.  :  Failed to get author information, No journal information. Species order: B N As 
 1.0
 14.936314146199660   0.000000000000000   0.000000000000000
 -7.468157073099825  12.935227489513863   0.000000000000000
  0.000000000000001   0.000000000000001  13.341276283792837
 B N As 
 144 143   1
Cartesian
  1.225236871750307   0.697455157060649   5.002978606422314 
  4.978771382066634   7.511683426001659   5.002978606422314 
  6.229909447435637   0.695618335182685   5.002978606422314 
  9.980688647211213   7.192158477166553   5.002978606422314 
 11.207795705191318   0.721833872075099   5.002978606422314 
 -3.734092741535552   9.342100541174361  11.673616748318732 
  1.244717923300491   9.342055348879846  11.673616748318732 
  2.489550604911687   2.874603491053418  11.673616748318732 
  6.223452726496002   9.341911676126708  11.673616748318732 
  7.467992159221368   2.874603491053418  11.673616748318732 
 12.446928455166431   2.874516264095349  11.673616748318732 
 -1.250912656325959   9.345699751871752   5.002978606422314 
 -0.025883439468307   2.859551186925069   5.002978606422314 
  4.978771382066594   2.832837948765409   5.002978606422314 
  3.697027788894102   9.434765396053836   5.002978606422314 
  8.729550581842110   9.359193173669283   5.002978606422314 
  9.983426203601585   2.859551186925069   5.002978606422314 
 -4.978780600603736  11.497985313003920  11.673616748318732 
  0.000009218537244  11.497985313003920  11.673616748318732 
  1.244869260482218   5.030454818838410  11.673616748318732 
  6.223178395976318   5.030531270877233  11.673616748318732 
  4.978771382066645  11.497874910887264  11.673616748318732 
 11.202188354830946   5.030386786632376  11.673616748318732 
 -1.272753371143106   5.024101174563390   5.002978606422314 
 -2.489385691033186  11.490797971788698   5.002978606422314 
  2.480781139173177  11.525413654394391   5.002978606422314 
  3.452234092029249   4.867643280008335   5.002978606422314 
  7.476761624960005  11.525413654394391   5.002978606422314 
  8.811618308315335   5.016124807807626   5.002978606422314 
  0.000058779059883   7.186242472949904  11.673616748318732 
  1.244734261703074   0.718654402935825  11.673616748318732 
  4.978771382066642   7.185907444263877  11.673616748318732 
  6.223430526307141   0.718672164188772  11.673616748318732 
  9.957483985073203   7.186242472949904  11.673616748318732 
 -2.489385691033240   7.189654861608619   5.002978606422314 
 11.202217192384945   0.718613116204610  11.673616748318732 
  3.727633316697431   0.695618335182685   5.002978606422314 
  2.453309628435492   7.207066018626505   5.002978606422314 
  7.504233135697699   7.207066018626505   5.002978606422314 
  8.732305892382865   0.697455157060649   5.002978606422314 
  2.489508306482915   7.186166702111464  11.673616748318732 
 13.686061205141423   0.721833872075099   5.002978606422314 
 -1.244678640530912   9.342100541174361  11.673616748318732 
  0.000091001769119   2.874547537565539  11.673616748318732 
  4.978771382066491   2.874636581795516  11.673616748318732 
  3.734090037637061   9.341911676126708  11.673616748318732 
  8.712824840832599   9.342055348879846  11.673616748318732 
  9.957451762364176   2.874547537565539  11.673616748318732 
 -3.727858725740401   9.345699751871752   5.002978606422314 
  1.227992182290965   9.359193173669283   5.002978606422314 
  2.427668048990500   2.796079782156878   5.002978606422314 
  6.260514975239198   9.434765396053836   5.002978606422314 
  7.529874715142779   2.796079782156878   5.002978606422314 
 12.446928455166363   2.868074752354459   5.002978606422314 
 -1.244645590697740   5.030386786632376  11.673616748318732 
 -2.489385691033224  11.497996393183579  11.673616748318732 
  2.489391529665769  11.497928796450218  11.673616748318732 
  3.734364368156979   5.030531270877233  11.673616748318732 
  7.468151234467430  11.497928796450218  11.673616748318732 
 -4.975811855054367  11.496271306961825   5.002978606422314 
  8.712673503650841   5.030454818838410  11.673616748318732 
 -0.002959527012098  11.496271306961825   5.002978606422314 
  1.145924455817960   5.016124807807626   5.002978606422314 
 -0.023145883078139   7.192158477166553   5.002978606422314 
  6.505308672104047   4.867643280008335   5.002978606422314 
  4.978771382066649  11.527867612168189   5.002978606422314 
 11.230296135276280   5.024101174563390   5.002978606422314 
 -2.489385691033248   7.186226849524472  11.673616748318732 
  3.734112237825928   0.718672164188772  11.673616748318732 
  7.468034457650143   7.186166702111464  11.673616748318732 
  8.712808502430100   0.718654402935825  11.673616748318732 
 13.691639717947902   0.718613116204610  11.673616748318732 
 -0.000164296910430   1.437205491437663   1.667499762256345 
  3.734991371832664   7.904522879959435   1.649128853838950 
  4.978771382066475   1.437908738393963   1.665575426636954 
  8.712277268360289   7.904530623812329   1.665575426636954 
  9.957707061043498   1.437205491437663   1.667499762256345 
 -4.978923482132444  10.060684618766253   8.338128991687885 
  0.000152100065755  10.060684618766253   8.338128991687885 
  1.244450492036803   3.592978824240316   8.343894573804670 
  4.978771382066584  10.061012337537786   8.343894573804670 
  6.223627613723205   3.594078467447720   8.356828359005677 
 11.202354137578073   3.592997465487629   8.338457450588283 
 -2.489385691033300  10.060732491844131   1.667573392540425 
 -1.244811373445004   3.592997465487628   1.667499762256345 
  3.733915150409882   3.594078467447719   1.649128853838950 
  2.489608426338322  10.060808288421708   1.666016306174964 
  7.467934337794646  10.060808288421708   1.666016306174964 
  8.713092272096372   3.592978824240316   1.662062639039958 
 -6.223584542155126  12.216673203746923   8.338032295134280 
 -1.244658254785417  12.216759399156341   8.338128991687885 
  0.000045725890811   5.748759202618213   8.339940906669650 
  4.978771382066590   5.748989995339477   8.360872880691037 
  3.734124305531964  12.216767029093228   8.338457450588283 
  9.957497038242158   5.748759202618213   8.339940906669650 
 -2.489385691033182   5.748851068038340   1.667924917710348 
 -3.734113127281272  12.216759399156341   1.667828221156741 
  1.244813160088754  12.216673203746923   1.667924917710348 
  2.490135140176002   5.748368638611352   1.649128853838950 
  6.223418458601113  12.216767029093228   1.667499762256345 
  7.467407623957083   5.748368638611352   1.649128853838950 
 -1.244575336182165   7.904753457609867   8.338128991687885 
 -0.000164296910429   1.437205491437664   8.338457450588283 
  3.734991371832665   7.904522879959436   8.356828359005677 
  4.978771382066475   1.437908738393964   8.340381786207674 
  8.712277268360289   7.904530623812330   8.340381786207674 
 -3.734196045884511   7.904753457609866   1.667828221156741 
  9.957707061043498   1.437205491437664   8.338457450588283 
  2.489208681618977   1.437402494978677   1.666016306174964 
  1.245265495772681   7.904530623812329   1.665575426636954 
  6.222551392300423   7.904522879959435   1.649128853838950 
  7.468334082514001   1.437402494978677   1.666016306174964 
  1.245265495772682   7.904530623812330   8.340381786207674 
 12.446928455166319   1.437247498834911   1.667586594853094 
 -2.489385691033300  10.060732491844131   8.338383820304216 
 -1.244811373445003   3.592997465487629   8.338457450588283 
  3.733915150409882   3.594078467447720   8.356828359005677 
  2.489608426338323  10.060808288421708   8.339940906669650 
  7.467934337794647  10.060808288421708   8.339940906669650 
  8.713092272096372   3.592978824240316   8.343894573804670 
 -4.978923482132445  10.060684618766253   1.667828221156741 
  0.000152100065755  10.060684618766253   1.667828221156741 
  1.244450492036802   3.592978824240316   1.662062639039958 
  4.978771382066583  10.061012337537786   1.662062639039958 
  6.223627613723204   3.594078467447719   1.649128853838950 
 11.202354137578073   3.592997465487628   1.667499762256345 
 -2.489385691033182   5.748851068038341   8.338032295134280 
 -3.734113127281272  12.216759399156341   8.338128991687885 
  1.244813160088754  12.216673203746923   8.338032295134280 
  2.490135140176002   5.748368638611353   8.356828359005677 
  6.223418458601114  12.216767029093228   8.338457450588283 
 -6.223584542155127  12.216673203746923   1.667924917710348 
  7.467407623957084   5.748368638611353   8.356828359005677 
 -1.244658254785417  12.216759399156341   1.667828221156741 
  0.000045725890810   5.748759202618212   1.666016306174964 
 -1.244575336182165   7.904753457609866   1.667828221156741 
  4.978771382066589   5.748989995339476   1.645084332153591 
  3.734124305531964  12.216767029093228   1.667499762256345 
  9.957497038242158   5.748759202618212   1.666016306174964 
 -3.734196045884510   7.904753457609867   8.338128991687885 
  2.489208681618977   1.437402494978678   8.339940906669650 
  6.222551392300424   7.904522879959436   8.356828359005677 
  7.468334082514001   1.437402494978678   8.339940906669650 
 12.446928455166319   1.437247498834912   8.338370617991520 
  1.244563038350299   0.718576908352772   1.668314607337474 
  4.978771382066647   7.187528451618543   1.630960378172202 
  6.223475835184144   0.718750117917411   1.668429549305551 
  9.957439129602378   7.186164257447067   1.668429549305551 
 11.202294420668551   0.718657703974938   1.667826025437190 
 -3.734134031233950   9.342076702555847   8.337683380326787 
  1.244808087648254   9.342055610654132   8.337527663539078 
  2.489060858070455   2.874348277448063   8.344909456788500 
  6.223428874541000   9.342463416135313   8.344909456788500 
  7.468481906062839   2.874348277448063   8.344909456788500 
 12.446928455166415   2.874427088554690   8.338131187407424 
 -1.244637350832501   9.342076702555847   1.668273832517827 
 -0.000270159950872   2.874339020749349   1.666706472624492 
  4.978771382066602   2.874721106481429   1.658219326123088 
  3.734113889592286   9.342463416135313   1.661047756056141 
  8.712734676484700   9.342055610654132   1.668429549305551 
  9.957812924084045   2.874339020749349   1.666706472624492 
 -4.978825614295723  11.498011301671095   8.337634852452018 
  0.000054232229260  11.498011301671095   8.337634852452018 
  1.244403365596093   5.030158292434952   8.344909456788500 
  6.224582229525191   5.029720767199892   8.374996834672425 
  4.978771382066584  11.498291944519744   8.339250740220136 
 11.202341078784904   5.030277250150666   8.337642605507167 
 -1.244798314651699   5.030277250150665   1.668314607337474 
 -2.489385691033240  11.498044070420571   1.668273832517827 
  2.489410029064590  11.498115827514965   1.668314607337474 
  3.732960534608118   5.029720767199891   1.630960378172202 
  7.468132735068606  11.498115827514965   1.668314607337474 
  8.713139398537187   5.030158292434951   1.661047756056141 
  0.000103634530607   7.186164257447068   8.337527663539078 
  1.244563038350300   0.718576908352773   8.337642605507167 
  4.978771382066648   7.187528451618544   8.374996834672425 
  6.223475835184145   0.718750117917412   8.337527663539078 
  9.957439129602378   7.186164257447068   8.337527663539078 
 -2.489385691033234   7.186174872190064   1.668322360392611 
 11.202294420668551   0.718657703974939   8.338131187407424 
  3.734066928948819   0.718750117917411   1.668429549305551 
  2.489581507008286   7.186124439768487   1.658219326123088 
  7.467961257124906   7.186124439768487   1.658219326123088 
  8.712979725782887   0.718576908352772   1.668314607337474 
  2.489581507008287   7.186124439768488   8.347737886721539 
 13.691562489664280   0.718657703974938   1.667826025437190 
 -1.244637350832500   9.342076702555847   8.337683380326787 
 -0.000270159950872   2.874339020749350   8.339250740220136 
  4.978771382066602   2.874721106481430   8.347737886721539 
  3.734113889592286   9.342463416135313   8.344909456788500 
  8.712734676484700   9.342055610654132   8.337527663539078 
  9.957812924084045   2.874339020749350   8.339250740220136 
 -3.734134031233951   9.342076702555847   1.668273832517827 
  1.244808087648254   9.342055610654132   1.668429549305551 