Species order: X N B                    
   2.51242800000000     
     5.9449720136058266    0.0000000000000000    0.0000000000000000
    -2.9724860068029120    5.1484967885702053   -0.0000000000000001
     0.0000000000000000    0.0000000000000009    5.3101128803662583
   As   N    B 
     1   143   144
Direct
  0.5555555555555571  0.4444444444444429  0.3750000000000000
  0.1111006098009417  0.0555519343540964  0.1250491011391593
  0.6111610119514861  0.5556553572362928  0.1222492019113282
  0.4444501062487963  0.0555653248850916  0.1250577166543192
  0.9444346751149080  0.5555498937512033  0.1250577166543192
  0.7777830277136694  0.0555581805234989  0.1250124793130392
  0.1111061572174418  0.7222197452753845  0.6249539551516164
  0.4444501062487963  0.7222181146970476  0.6249422833456809
  0.2777503585685742  0.2222108795363823  0.6254955882238946
  0.7777891204636174  0.7222496414314259  0.6254955882238946
  0.6111271876344874  0.2222108795363823  0.6254955882238946
  0.9444418194765010  0.2222169722863311  0.6249875206869603
  0.2777802547246151  0.7222197452753845  0.1250460448483826
  0.1110869945007929  0.2222101639170607  0.1249285628429138
  0.4444531844844609  0.2222397023022495  0.1242924058275830
  0.6111271876344874  0.7222496414314260  0.1245044117761058
  0.9444346751149080  0.7222181146970476  0.1250577166543192
  0.7777898360829393  0.2222101639170607  0.1249285628429138
  0.1111086905126221  0.8888913094873774  0.6249503177278993
  0.4444492856414274  0.8888913094873774  0.6249503177278993
  0.2777503585685742  0.3888728123655133  0.6254955882238946
  0.6111610119514861  0.3888389880485144  0.6277507980886721
  0.7777898360829393  0.8889130054992078  0.6250714371570861
  0.9444480656459040  0.3888820087801733  0.6249508988608418
  0.1111006098009417  0.3888820087801733  0.1250491011391593
  0.2777802547246151  0.8888938427825588  0.1250460448483826
  0.6111179912198257  0.8888993901990584  0.1250491011391593
  0.4443446427637076  0.3888389880485144  0.1222492019113282
  0.9444480656459040  0.8888993901990584  0.1250491011391593
  0.7777891204636174  0.3888728123655133  0.1245044117761058
  0.2777818853029526  0.5555498937512033  0.6249422833456809
  0.1111006098009417  0.0555519343540964  0.6249508988608418
  0.6111610119514861  0.5556553572362928  0.6277507980886721
  0.4444501062487963  0.0555653248850916  0.6249422833456809
  0.9444346751149080  0.5555498937512033  0.6249422833456809
  0.1111086905126221  0.5555507143585722  0.1250496822721010
  0.7777830277136694  0.0555581805234989  0.6249875206869603
  0.2777818853029526  0.0555653248850916  0.1250577166543192
  0.4444531844844609  0.5555468155155392  0.1242924058275830
  0.7777602976977497  0.5555468155155392  0.1242924058275830
  0.6111179912198257  0.0555519343540964  0.1250491011391593
  0.4444531844844609  0.5555468155155392  0.6257075941724166
  0.9444418194765010  0.0555581805234989  0.1250124793130392
  0.2777802547246151  0.7222197452753845  0.6249539551516164
  0.1110869945007929  0.2222101639170606  0.6250714371570861
  0.4444531844844609  0.2222397023022495  0.6257075941724166
  0.6111271876344874  0.7222496414314259  0.6254955882238946
  0.9444346751149080  0.7222181146970476  0.6249422833456809
  0.7777898360829393  0.2222101639170606  0.6250714371570861
  0.1111061572174418  0.7222197452753845  0.1250460448483826
  0.4444501062487963  0.7222181146970476  0.1250577166543192
  0.2777503585685742  0.2222108795363823  0.1245044117761058
  0.7777891204636174  0.7222496414314259  0.1245044117761058
  0.6111271876344874  0.2222108795363823  0.1245044117761058
  0.9444418194765010  0.2222169722863311  0.1250124793130392
  0.1111006098009417  0.3888820087801733  0.6249508988608418
  0.2777802547246151  0.8888938427825588  0.6249539551516164
  0.6111179912198257  0.8888993901990584  0.6249508988608418
  0.4443446427637076  0.3888389880485144  0.6277507980886721
  0.9444480656459040  0.8888993901990584  0.6249508988608418
  0.1111086905126221  0.8888913094873774  0.1250496822721010
  0.7777891204636174  0.3888728123655133  0.6254955882238946
  0.4444492856414274  0.8888913094873774  0.1250496822721010
  0.2777503585685742  0.3888728123655133  0.1245044117761058
  0.2777818853029526  0.5555498937512033  0.1250577166543192
  0.6111610119514861  0.3888389880485144  0.1222492019113282
  0.7777898360829393  0.8889130054992078  0.1249285628429138
  0.9444480656459040  0.3888820087801733  0.1250491011391593
  0.1111086905126221  0.5555507143585722  0.6249503177278993
  0.2777818853029526  0.0555653248850916  0.6249422833456809
  0.7777602976977497  0.5555468155155392  0.6257075941724166
  0.6111179912198257  0.0555519343540964  0.6249508988608418
  0.9444418194765010  0.0555581805234989  0.6249875206869603
  0.0544813746724572  0.1103985897383533  0.3750000000000000
  0.5556636549369370  0.6204440547343966  0.3750000000000000
  0.3876771304689972  0.1086875942713299  0.3750000000000000
  0.8913124057286699  0.6123228695310029  0.3750000000000000
  0.7225838817325529  0.1103985897383533  0.3750000000000000
  0.0555581257046912  0.7777798321876325  0.8750000000000000
  0.3888883731496049  0.7777798321876325  0.8750000000000000
  0.2222223679893247  0.2777778506613339  0.8750000000000000
  0.7222221493386672  0.7777776320106751  0.8750000000000000
  0.5555500244630158  0.2777692851860917  0.8750000000000000
  0.8888907146089753  0.2777800541170994  0.8750000000000000
  0.2222222222222214  0.7777777777777786  0.3750000000000000
  0.0544813746724572  0.2774161182674468  0.3750000000000000
  0.3795559452656036  0.2685529335358761  0.3750000000000000
  0.5551619288556922  0.7814517563142940  0.3750000000000000
  0.8929564941252675  0.7814517563142940  0.3750000000000000
  0.7239464369080607  0.2760535630919391  0.3750000000000000
  0.0555561776636872  0.9444438223363121  0.8750000000000000
  0.3888883731496049  0.9444418742953090  0.8750000000000000
  0.2222200747183597  0.4444476872867083  0.8750000000000000
  0.5555555555555571  0.4444444444444429  0.8750000000000000
  0.7222199458829003  0.9444439938252126  0.8750000000000000
  0.8888942792350061  0.4444476872867083  0.8750000000000000
  0.0557453679067018  0.4448240691467323  0.3750000000000000
  0.2218486964534120  0.9434547611808339  0.3750000000000000
  0.5551759308532679  0.9442546320932980  0.3750000000000000
  0.3795559452656036  0.4443363450630634  0.3750000000000000
  0.8896014102616466  0.9455186253275437  0.3750000000000000
  0.7314470664641236  0.4443363450630634  0.3750000000000000
  0.2222201678123676  0.6111116268503954  0.8750000000000000
  0.0555560061747880  0.1111092853910245  0.8750000000000000
  0.5555500244630158  0.6111140726102656  0.8750000000000000
  0.3888848436400066  0.1111030206133562  0.8750000000000000
  0.8888969793866440  0.6111151563599938  0.8750000000000000
  0.0565452388191665  0.6117272686059143  0.3750000000000000
  0.7222199458829003  0.1111092853910245  0.8750000000000000
  0.2185482436857053  0.1070435058747327  0.3750000000000000
  0.3876771304689972  0.6123228695310029  0.3750000000000000
  0.7314470664641236  0.6204440547343966  0.3750000000000000
  0.5551619288556922  0.1070435058747327  0.3750000000000000
  0.3888848436400066  0.6111151563599938  0.8750000000000000
  0.8888888888888857  0.1111111111111143  0.3750000000000000
  0.2222222222222214  0.7777777777777786  0.8750000000000000
  0.0555560061747880  0.2777800541170994  0.8750000000000000
  0.3888859273897340  0.2777692851860917  0.8750000000000000
  0.5555523127132913  0.7777799252816402  0.8750000000000000
  0.8888942792350061  0.7777799252816402  0.8750000000000000
  0.7222221493386672  0.2777778506613339  0.8750000000000000
  0.0565452388191665  0.7781513035465883  0.3750000000000000
  0.3882727313940857  0.7781513035465883  0.3750000000000000
  0.2187737928505352  0.2760535630919391  0.3750000000000000
  0.7239464369080607  0.7812262071494647  0.3750000000000000
  0.5556636549369370  0.2685529335358761  0.3750000000000000
  0.8896014102616466  0.2774161182674468  0.3750000000000000
  0.0555561776636872  0.4444456886607028  0.8750000000000000
  0.2222201678123676  0.9444418742953090  0.8750000000000000
  0.5555543113392966  0.9444438223363121  0.8750000000000000
  0.3888859273897340  0.4444499755369848  0.8750000000000000
  0.8888907146089753  0.9444439938252126  0.8750000000000000
  0.0557453679067018  0.9442546320932980  0.3750000000000000
  0.7222307148139081  0.4444499755369848  0.8750000000000000
  0.3882727313940857  0.9434547611808339  0.3750000000000000
  0.2185482436857053  0.4448380711443086  0.3750000000000000
  0.2218486964534120  0.6117272686059143  0.3750000000000000
  0.7225838817325529  0.9455186253275437  0.3750000000000000
  0.8929564941252675  0.4448380711443086  0.3750000000000000
  0.0555581257046912  0.6111116268503954  0.8750000000000000
  0.2222200747183597  0.1111057207649942  0.8750000000000000
  0.7222307148139081  0.6111140726102656  0.8750000000000000
  0.5555523127132913  0.1111057207649942  0.8750000000000000
  0.8888888888888857  0.1111111111111143  0.8750000000000000
  0.1089902621552159  0.0539190483991137  0.3750000000000000
  0.6236909413495533  0.5807152160324287  0.3750000000000000
  0.4439867035197504  0.0537770468858468  0.3750000000000000
  0.9462229531141531  0.5560132964802500  0.3750000000000000
  0.7782741158066609  0.0558037245699981  0.3750000000000000
  0.1111098430619327  0.7222215881976306  0.8750000000000000
  0.4444440595439438  0.7222180944597317  0.8750000000000000
  0.2777930126316015  0.2222306096575225  0.8750000000000000
  0.7777693903424768  0.7222069873683992  0.8750000000000000
  0.6111042636925847  0.2222306096575225  0.8750000000000000
  0.9444452664796853  0.2222238662926970  0.8750000000000000
  0.2775001630664802  0.7224998369335202  0.3750000000000000
  0.1088005509363140  0.2210669421348177  0.3750000000000000
  0.4428342273478357  0.2190017880289999  0.3750000000000000
  0.6122120919887943  0.7293853473935631  0.3750000000000000
  0.9462229531141531  0.7235429899672386  0.3750000000000000
  0.7789330578651820  0.2210669421348177  0.3750000000000000
  0.1111106996514035  0.8888893003485974  0.8750000000000000
  0.4444452673638644  0.8888893003485974  0.8750000000000000
  0.2777930126316015  0.3888957363074147  0.8750000000000000
  0.6110983533180762  0.3889016466819240  0.8750000000000000
  0.7777737160095691  0.8888807653524595  0.8750000000000000
  0.9444420746741099  0.3888904768555743  0.8750000000000000
  0.1089902621552159  0.3884045470894305  0.3750000000000000
  0.2775001630664802  0.8883336594662818  0.3750000000000000
  0.6115954529105694  0.8910097378447844  0.3750000000000000
  0.4192847839675715  0.3763090586504464  0.3750000000000000
  0.9460809516008862  0.8910097378447844  0.3750000000000000
  0.7838399220714476  0.3877879080112059  0.3750000000000000
  0.2777819055402680  0.5555559404560561  0.8750000000000000
  0.1111150688481367  0.0555579253258905  0.8750000000000000
  0.6110983533180762  0.5555300399694736  0.8750000000000000
  0.4444440595439438  0.0555592984175476  0.8750000000000000
  0.9444407015824533  0.5555559404560561  0.8750000000000000
  0.1112432064854323  0.5558197463041928  0.3750000000000000
  0.7777761337073028  0.0555547335203157  0.8750000000000000
  0.2764570100327608  0.0537770468858468  0.3750000000000000
  0.4428342273478357  0.5571657726521644  0.3750000000000000
  0.7809982119709999  0.5571657726521644  0.3750000000000000
  0.6115954529105694  0.0539190483991137  0.3750000000000000
  0.4444499172560269  0.5555500827439669  0.8750000000000000
  0.9441962754300021  0.0558037245699981  0.3750000000000000
  0.2777784118023695  0.7222215881976306  0.8750000000000000
  0.1111192346475409  0.2222262839904313  0.8750000000000000
  0.4444499172560269  0.2222331678453961  0.8750000000000000
  0.6111042636925847  0.7222069873683992  0.8750000000000000
  0.9444407015824533  0.7222180944597317  0.8750000000000000
  0.7777737160095691  0.2222262839904313  0.8750000000000000
  0.1116663405337186  0.7224998369335202  0.3750000000000000
  0.4439867035197504  0.7235429899672386  0.3750000000000000
  0.2706146526064367  0.2161600779285530  0.3750000000000000
  0.7838399220714476  0.7293853473935631  0.3750000000000000
  0.6122120919887943  0.2161600779285530  0.3750000000000000
  0.9441962754300021  0.2217258841933396  0.3750000000000000
  0.1111150688481367  0.3888904768555743  0.8750000000000000
  0.2777784118023695  0.8888901569380675  0.8750000000000000
  0.6111095231444253  0.8888849311518631  0.8750000000000000
  0.4444699600305270  0.3889016466819240  0.8750000000000000
  0.9444420746741099  0.8888849311518631  0.8750000000000000
  0.1112432064854323  0.8887567935145674  0.3750000000000000
  0.7777693903424768  0.3888957363074147  0.8750000000000000
  0.4441802536958070  0.8887567935145674  0.3750000000000000
  0.2706146526064367  0.3877879080112059  0.3750000000000000
  0.2764570100327608  0.5560132964802500  0.3750000000000000
  0.6236909413495533  0.3763090586504464  0.3750000000000000
  0.7789330578651820  0.8911994490636851  0.3750000000000000
  0.9460809516008862  0.3884045470894305  0.3750000000000000
  0.1111106996514035  0.5555547326361356  0.8750000000000000
  0.2777819055402680  0.0555592984175476  0.8750000000000000
  0.7777668321546034  0.5555500827439669  0.8750000000000000
  0.6111095231444253  0.0555579253258905  0.8750000000000000
  0.9444452664796853  0.0555547335203157  0.8750000000000000
  0.0555429319664512  0.1111078635920979  0.1249880241429407
  0.5556035915664144  0.6110849528056125  0.1236110263185488
  0.3889144485305532  0.1111622303944495  0.1248437848978747
  0.8888377696055508  0.6110855514694471  0.1248437848978747
  0.7222315982923109  0.1111078635920979  0.1249880241429407
  0.0555435218236369  0.7777740767931678  0.6249873561060393
  0.3888972216361881  0.7777740767931678  0.6249873561060393
  0.2222005878370603  0.2777669605851943  0.6254195173171664
  0.7222330394148047  0.7777994121629399  0.6254195173171664
  0.5556035915664144  0.2778519720941374  0.6263889736814512
  0.8888921364079019  0.2777684017076890  0.6250119758570593
  0.2222222222222214  0.7777777777777786  0.1249935431264706
  0.0555429319664513  0.2777684017076890  0.1249880241429407
  0.3889150471943877  0.2778519720941374  0.1236110263185488
  0.5555733977405093  0.7777836374797160  0.1248768311768537
  0.8888769064058643  0.7777836374797160  0.1248768311768537
  0.7222330394148047  0.2777669605851943  0.1245804826828339
  0.0555501854412260  0.9444498145587737  0.6249801081822609
  0.3888972216361881  0.9444564781763631  0.6249873561060393
  0.2222163625202837  0.4444266022594909  0.6251231688231454
  0.5555555555555571  0.4444444444444429  0.6266921322098652
  0.7222315982923109  0.9444570680335490  0.6250119758570593
  0.8888769064058643  0.4444266022594909  0.6251231688231454
  0.0555501854412260  0.4444337042157734  0.1250198918177390
  0.2222259232068323  0.9444564781763631  0.1250126438939612
  0.5555662957842263  0.9444498145587737  0.1250198918177390
  0.3889150471943877  0.4443964084335860  0.1236110263185488
  0.8888921364079019  0.9444570680335490  0.1249880241429407
  0.7221480279058626  0.4443964084335860  0.1236110263185488
  0.2222259232068323  0.6111027783638112  0.6249873561060393
  0.0555429319664513  0.1111078635920979  0.6250119758570593
  0.5556035915664144  0.6110849528056125  0.6263889736814512
  0.3889144485305532  0.1111622303944495  0.6251562151021249
  0.8888377696055508  0.6110855514694471  0.6251562151021249
  0.0555435218236369  0.6111027783638112  0.1250126438939612
  0.7222315982923109  0.1111078635920979  0.6250119758570593
  0.2222163625202837  0.1111230935941355  0.1248768311768537
  0.3889144485305532  0.6110855514694471  0.1248437848978747
  0.7221480279058626  0.6110849528056125  0.1236110263185488
  0.5555733977405093  0.1111230935941355  0.1248768311768537
  0.3889144485305532  0.6110855514694471  0.6251562151021249
  0.8888888888888857  0.1111111111111143  0.1249945327104054
  0.2222222222222214  0.7777777777777786  0.6250064568735295
  0.0555429319664513  0.2777684017076890  0.6250119758570593
  0.3889150471943877  0.2778519720941374  0.6263889736814512
  0.5555733977405093  0.7777836374797160  0.6251231688231454
  0.8888769064058643  0.7777836374797160  0.6251231688231454
  0.7222330394148047  0.2777669605851943  0.6254195173171664
  0.0555435218236369  0.7777740767931678  0.1250126438939612
  0.3888972216361881  0.7777740767931678  0.1250126438939612
  0.2222005878370603  0.2777669605851943  0.1245804826828339
  0.7222330394148047  0.7777994121629399  0.1245804826828339
  0.5556035915664144  0.2778519720941374  0.1236110263185488
  0.8888921364079019  0.2777684017076890  0.1249880241429407
  0.0555501854412260  0.4444337042157734  0.6249801081822609
  0.2222259232068323  0.9444564781763631  0.6249873561060393
  0.5555662957842264  0.9444498145587737  0.6249801081822609
  0.3889150471943877  0.4443964084335860  0.6263889736814512
  0.8888921364079019  0.9444570680335490  0.6250119758570593
  0.0555501854412260  0.9444498145587737  0.1250198918177390
  0.7221480279058626  0.4443964084335860  0.6263889736814512
  0.3888972216361881  0.9444564781763631  0.1250126438939612
  0.2222163625202837  0.4444266022594909  0.1248768311768537
  0.2222259232068323  0.6111027783638112  0.1250126438939612
  0.5555555555555571  0.4444444444444429  0.1233078677901352
  0.7222315982923109  0.9444570680335490  0.1249880241429407
  0.8888769064058643  0.4444266022594909  0.1248768311768537
  0.0555435218236369  0.6111027783638112  0.6249873561060393
  0.2222163625202837  0.1111230935941355  0.6251231688231454
  0.7221480279058626  0.6110849528056125  0.6263889736814512
  0.5555733977405093  0.1111230935941355  0.6251231688231454
  0.8888888888888857  0.1111111111111143  0.6250054672895942
 
  0.00000000E+00  0.00000000E+00  0.00000000E+00
  0.00000000E+00  0.00000000E+00  0.00000000E+00
  0.00000000E+00  0.00000000E+00  0.00000000E+00
  0.00000000E+00  0.00000000E+00  0.00000000E+00
  0.00000000E+00  0.00000000E+00  0.00000000E+00
  0.00000000E+00  0.00000000E+00  0.00000000E+00
  0.00000000E+00  0.00000000E+00  0.00000000E+00
  0.00000000E+00  0.00000000E+00  0.00000000E+00
  0.00000000E+00  0.00000000E+00  0.00000000E+00
  0.00000000E+00  0.00000000E+00  0.00000000E+00
  0.00000000E+00  0.00000000E+00  0.00000000E+00
  0.00000000E+00  0.00000000E+00  0.00000000E+00
  0.00000000E+00  0.00000000E+00  0.00000000E+00
  0.00000000E+00  0.00000000E+00  0.00000000E+00
  0.00000000E+00  0.00000000E+00  0.00000000E+00
  0.00000000E+00  0.00000000E+00  0.00000000E+00
  0.00000000E+00  0.00000000E+00  0.00000000E+00
  0.00000000E+00  0.00000000E+00  0.00000000E+00
  0.00000000E+00  0.00000000E+00  0.00000000E+00
  0.00000000E+00  0.00000000E+00  0.00000000E+00
  0.00000000E+00  0.00000000E+00  0.00000000E+00
  0.00000000E+00  0.00000000E+00  0.00000000E+00
  0.00000000E+00  0.00000000E+00  0.00000000E+00
  0.00000000E+00  0.00000000E+00  0.00000000E+00
  0.00000000E+00  0.00000000E+00  0.00000000E+00
  0.00000000E+00  0.00000000E+00  0.00000000E+00
  0.00000000E+00  0.00000000E+00  0.00000000E+00
  0.00000000E+00  0.00000000E+00  0.00000000E+00
  0.00000000E+00  0.00000000E+00  0.00000000E+00
  0.00000000E+00  0.00000000E+00  0.00000000E+00
  0.00000000E+00  0.00000000E+00  0.00000000E+00
  0.00000000E+00  0.00000000E+00  0.00000000E+00
  0.00000000E+00  0.00000000E+00  0.00000000E+00
  0.00000000E+00  0.00000000E+00  0.00000000E+00
  0.00000000E+00  0.00000000E+00  0.00000000E+00
  0.00000000E+00  0.00000000E+00  0.00000000E+00
  0.00000000E+00  0.00000000E+00  0.00000000E+00
  0.00000000E+00  0.00000000E+00  0.00000000E+00
  0.00000000E+00  0.00000000E+00  0.00000000E+00
  0.00000000E+00  0.00000000E+00  0.00000000E+00
  0.00000000E+00  0.00000000E+00  0.00000000E+00
  0.00000000E+00  0.00000000E+00  0.00000000E+00
  0.00000000E+00  0.00000000E+00  0.00000000E+00
  0.00000000E+00  0.00000000E+00  0.00000000E+00
  0.00000000E+00  0.00000000E+00  0.00000000E+00
  0.00000000E+00  0.00000000E+00  0.00000000E+00
  0.00000000E+00  0.00000000E+00  0.00000000E+00
  0.00000000E+00  0.00000000E+00  0.00000000E+00
  0.00000000E+00  0.00000000E+00  0.00000000E+00
  0.00000000E+00  0.00000000E+00  0.00000000E+00
  0.00000000E+00  0.00000000E+00  0.00000000E+00
  0.00000000E+00  0.00000000E+00  0.00000000E+00
  0.00000000E+00  0.00000000E+00  0.00000000E+00
  0.00000000E+00  0.00000000E+00  0.00000000E+00
  0.00000000E+00  0.00000000E+00  0.00000000E+00
  0.00000000E+00  0.00000000E+00  0.00000000E+00
  0.00000000E+00  0.00000000E+00  0.00000000E+00
  0.00000000E+00  0.00000000E+00  0.00000000E+00
  0.00000000E+00  0.00000000E+00  0.00000000E+00
  0.00000000E+00  0.00000000E+00  0.00000000E+00
  0.00000000E+00  0.00000000E+00  0.00000000E+00
  0.00000000E+00  0.00000000E+00  0.00000000E+00
  0.00000000E+00  0.00000000E+00  0.00000000E+00
  0.00000000E+00  0.00000000E+00  0.00000000E+00
  0.00000000E+00  0.00000000E+00  0.00000000E+00
  0.00000000E+00  0.00000000E+00  0.00000000E+00
  0.00000000E+00  0.00000000E+00  0.00000000E+00
  0.00000000E+00  0.00000000E+00  0.00000000E+00
  0.00000000E+00  0.00000000E+00  0.00000000E+00
  0.00000000E+00  0.00000000E+00  0.00000000E+00
  0.00000000E+00  0.00000000E+00  0.00000000E+00
  0.00000000E+00  0.00000000E+00  0.00000000E+00
  0.00000000E+00  0.00000000E+00  0.00000000E+00
  0.00000000E+00  0.00000000E+00  0.00000000E+00
  0.00000000E+00  0.00000000E+00  0.00000000E+00
  0.00000000E+00  0.00000000E+00  0.00000000E+00
  0.00000000E+00  0.00000000E+00  0.00000000E+00
  0.00000000E+00  0.00000000E+00  0.00000000E+00
  0.00000000E+00  0.00000000E+00  0.00000000E+00
  0.00000000E+00  0.00000000E+00  0.00000000E+00
  0.00000000E+00  0.00000000E+00  0.00000000E+00
  0.00000000E+00  0.00000000E+00  0.00000000E+00
  0.00000000E+00  0.00000000E+00  0.00000000E+00
  0.00000000E+00  0.00000000E+00  0.00000000E+00
  0.00000000E+00  0.00000000E+00  0.00000000E+00
  0.00000000E+00  0.00000000E+00  0.00000000E+00
  0.00000000E+00  0.00000000E+00  0.00000000E+00
  0.00000000E+00  0.00000000E+00  0.00000000E+00
  0.00000000E+00  0.00000000E+00  0.00000000E+00
  0.00000000E+00  0.00000000E+00  0.00000000E+00
  0.00000000E+00  0.00000000E+00  0.00000000E+00
  0.00000000E+00  0.00000000E+00  0.00000000E+00
  0.00000000E+00  0.00000000E+00  0.00000000E+00
  0.00000000E+00  0.00000000E+00  0.00000000E+00
  0.00000000E+00  0.00000000E+00  0.00000000E+00
  0.00000000E+00  0.00000000E+00  0.00000000E+00
  0.00000000E+00  0.00000000E+00  0.00000000E+00
  0.00000000E+00  0.00000000E+00  0.00000000E+00
  0.00000000E+00  0.00000000E+00  0.00000000E+00
  0.00000000E+00  0.00000000E+00  0.00000000E+00
  0.00000000E+00  0.00000000E+00  0.00000000E+00
  0.00000000E+00  0.00000000E+00  0.00000000E+00
  0.00000000E+00  0.00000000E+00  0.00000000E+00
  0.00000000E+00  0.00000000E+00  0.00000000E+00
  0.00000000E+00  0.00000000E+00  0.00000000E+00
  0.00000000E+00  0.00000000E+00  0.00000000E+00
  0.00000000E+00  0.00000000E+00  0.00000000E+00
  0.00000000E+00  0.00000000E+00  0.00000000E+00
  0.00000000E+00  0.00000000E+00  0.00000000E+00
  0.00000000E+00  0.00000000E+00  0.00000000E+00
  0.00000000E+00  0.00000000E+00  0.00000000E+00
  0.00000000E+00  0.00000000E+00  0.00000000E+00
  0.00000000E+00  0.00000000E+00  0.00000000E+00
  0.00000000E+00  0.00000000E+00  0.00000000E+00
  0.00000000E+00  0.00000000E+00  0.00000000E+00
  0.00000000E+00  0.00000000E+00  0.00000000E+00
  0.00000000E+00  0.00000000E+00  0.00000000E+00
  0.00000000E+00  0.00000000E+00  0.00000000E+00
  0.00000000E+00  0.00000000E+00  0.00000000E+00
  0.00000000E+00  0.00000000E+00  0.00000000E+00
  0.00000000E+00  0.00000000E+00  0.00000000E+00
  0.00000000E+00  0.00000000E+00  0.00000000E+00
  0.00000000E+00  0.00000000E+00  0.00000000E+00
  0.00000000E+00  0.00000000E+00  0.00000000E+00
  0.00000000E+00  0.00000000E+00  0.00000000E+00
  0.00000000E+00  0.00000000E+00  0.00000000E+00
  0.00000000E+00  0.00000000E+00  0.00000000E+00
  0.00000000E+00  0.00000000E+00  0.00000000E+00
  0.00000000E+00  0.00000000E+00  0.00000000E+00
  0.00000000E+00  0.00000000E+00  0.00000000E+00
  0.00000000E+00  0.00000000E+00  0.00000000E+00
  0.00000000E+00  0.00000000E+00  0.00000000E+00
  0.00000000E+00  0.00000000E+00  0.00000000E+00
  0.00000000E+00  0.00000000E+00  0.00000000E+00
  0.00000000E+00  0.00000000E+00  0.00000000E+00
  0.00000000E+00  0.00000000E+00  0.00000000E+00
  0.00000000E+00  0.00000000E+00  0.00000000E+00
  0.00000000E+00  0.00000000E+00  0.00000000E+00
  0.00000000E+00  0.00000000E+00  0.00000000E+00
  0.00000000E+00  0.00000000E+00  0.00000000E+00
  0.00000000E+00  0.00000000E+00  0.00000000E+00
  0.00000000E+00  0.00000000E+00  0.00000000E+00
  0.00000000E+00  0.00000000E+00  0.00000000E+00
  0.00000000E+00  0.00000000E+00  0.00000000E+00
  0.00000000E+00  0.00000000E+00  0.00000000E+00
  0.00000000E+00  0.00000000E+00  0.00000000E+00
  0.00000000E+00  0.00000000E+00  0.00000000E+00
  0.00000000E+00  0.00000000E+00  0.00000000E+00
  0.00000000E+00  0.00000000E+00  0.00000000E+00
  0.00000000E+00  0.00000000E+00  0.00000000E+00
  0.00000000E+00  0.00000000E+00  0.00000000E+00
  0.00000000E+00  0.00000000E+00  0.00000000E+00
  0.00000000E+00  0.00000000E+00  0.00000000E+00
  0.00000000E+00  0.00000000E+00  0.00000000E+00
  0.00000000E+00  0.00000000E+00  0.00000000E+00
  0.00000000E+00  0.00000000E+00  0.00000000E+00
  0.00000000E+00  0.00000000E+00  0.00000000E+00
  0.00000000E+00  0.00000000E+00  0.00000000E+00
  0.00000000E+00  0.00000000E+00  0.00000000E+00
  0.00000000E+00  0.00000000E+00  0.00000000E+00
  0.00000000E+00  0.00000000E+00  0.00000000E+00
  0.00000000E+00  0.00000000E+00  0.00000000E+00
  0.00000000E+00  0.00000000E+00  0.00000000E+00
  0.00000000E+00  0.00000000E+00  0.00000000E+00
  0.00000000E+00  0.00000000E+00  0.00000000E+00
  0.00000000E+00  0.00000000E+00  0.00000000E+00
  0.00000000E+00  0.00000000E+00  0.00000000E+00
  0.00000000E+00  0.00000000E+00  0.00000000E+00
  0.00000000E+00  0.00000000E+00  0.00000000E+00
  0.00000000E+00  0.00000000E+00  0.00000000E+00
  0.00000000E+00  0.00000000E+00  0.00000000E+00
  0.00000000E+00  0.00000000E+00  0.00000000E+00
  0.00000000E+00  0.00000000E+00  0.00000000E+00
  0.00000000E+00  0.00000000E+00  0.00000000E+00
  0.00000000E+00  0.00000000E+00  0.00000000E+00
  0.00000000E+00  0.00000000E+00  0.00000000E+00
  0.00000000E+00  0.00000000E+00  0.00000000E+00
  0.00000000E+00  0.00000000E+00  0.00000000E+00
  0.00000000E+00  0.00000000E+00  0.00000000E+00
  0.00000000E+00  0.00000000E+00  0.00000000E+00
  0.00000000E+00  0.00000000E+00  0.00000000E+00
  0.00000000E+00  0.00000000E+00  0.00000000E+00
  0.00000000E+00  0.00000000E+00  0.00000000E+00
  0.00000000E+00  0.00000000E+00  0.00000000E+00
  0.00000000E+00  0.00000000E+00  0.00000000E+00
  0.00000000E+00  0.00000000E+00  0.00000000E+00
  0.00000000E+00  0.00000000E+00  0.00000000E+00
  0.00000000E+00  0.00000000E+00  0.00000000E+00
  0.00000000E+00  0.00000000E+00  0.00000000E+00
  0.00000000E+00  0.00000000E+00  0.00000000E+00
  0.00000000E+00  0.00000000E+00  0.00000000E+00
  0.00000000E+00  0.00000000E+00  0.00000000E+00
  0.00000000E+00  0.00000000E+00  0.00000000E+00
  0.00000000E+00  0.00000000E+00  0.00000000E+00
  0.00000000E+00  0.00000000E+00  0.00000000E+00
  0.00000000E+00  0.00000000E+00  0.00000000E+00
  0.00000000E+00  0.00000000E+00  0.00000000E+00
  0.00000000E+00  0.00000000E+00  0.00000000E+00
  0.00000000E+00  0.00000000E+00  0.00000000E+00
  0.00000000E+00  0.00000000E+00  0.00000000E+00
  0.00000000E+00  0.00000000E+00  0.00000000E+00
  0.00000000E+00  0.00000000E+00  0.00000000E+00
  0.00000000E+00  0.00000000E+00  0.00000000E+00
  0.00000000E+00  0.00000000E+00  0.00000000E+00
  0.00000000E+00  0.00000000E+00  0.00000000E+00
  0.00000000E+00  0.00000000E+00  0.00000000E+00
  0.00000000E+00  0.00000000E+00  0.00000000E+00
  0.00000000E+00  0.00000000E+00  0.00000000E+00
  0.00000000E+00  0.00000000E+00  0.00000000E+00
  0.00000000E+00  0.00000000E+00  0.00000000E+00
  0.00000000E+00  0.00000000E+00  0.00000000E+00
  0.00000000E+00  0.00000000E+00  0.00000000E+00
  0.00000000E+00  0.00000000E+00  0.00000000E+00
  0.00000000E+00  0.00000000E+00  0.00000000E+00
  0.00000000E+00  0.00000000E+00  0.00000000E+00
  0.00000000E+00  0.00000000E+00  0.00000000E+00
  0.00000000E+00  0.00000000E+00  0.00000000E+00
  0.00000000E+00  0.00000000E+00  0.00000000E+00
  0.00000000E+00  0.00000000E+00  0.00000000E+00
  0.00000000E+00  0.00000000E+00  0.00000000E+00
  0.00000000E+00  0.00000000E+00  0.00000000E+00
  0.00000000E+00  0.00000000E+00  0.00000000E+00
  0.00000000E+00  0.00000000E+00  0.00000000E+00
  0.00000000E+00  0.00000000E+00  0.00000000E+00
  0.00000000E+00  0.00000000E+00  0.00000000E+00
  0.00000000E+00  0.00000000E+00  0.00000000E+00
  0.00000000E+00  0.00000000E+00  0.00000000E+00
  0.00000000E+00  0.00000000E+00  0.00000000E+00
  0.00000000E+00  0.00000000E+00  0.00000000E+00
  0.00000000E+00  0.00000000E+00  0.00000000E+00
  0.00000000E+00  0.00000000E+00  0.00000000E+00
  0.00000000E+00  0.00000000E+00  0.00000000E+00
  0.00000000E+00  0.00000000E+00  0.00000000E+00
  0.00000000E+00  0.00000000E+00  0.00000000E+00
  0.00000000E+00  0.00000000E+00  0.00000000E+00
  0.00000000E+00  0.00000000E+00  0.00000000E+00
  0.00000000E+00  0.00000000E+00  0.00000000E+00
  0.00000000E+00  0.00000000E+00  0.00000000E+00
  0.00000000E+00  0.00000000E+00  0.00000000E+00
  0.00000000E+00  0.00000000E+00  0.00000000E+00
  0.00000000E+00  0.00000000E+00  0.00000000E+00
  0.00000000E+00  0.00000000E+00  0.00000000E+00
  0.00000000E+00  0.00000000E+00  0.00000000E+00
  0.00000000E+00  0.00000000E+00  0.00000000E+00
  0.00000000E+00  0.00000000E+00  0.00000000E+00
  0.00000000E+00  0.00000000E+00  0.00000000E+00
  0.00000000E+00  0.00000000E+00  0.00000000E+00