 Sb N B 
 1.0
 17.527899999999772   0.000000000000000   0.000000000000000
 -8.763949999999658  15.179606674993195   0.000000000000000
  0.000000000000001   0.000000000000002  15.000000000000000
 Sb N B 
   1  48  48
Cartesian
  4.374429299647880   7.594174036660417   0.533626373682120 
  8.779051973112711  13.743328041078271   1.608433415383080 
 16.272709972001088   0.724698487593157   1.562370117321240 
 15.010014409190871   2.889967902043125   1.591495764652395 
 13.757061212728221   5.059868891664398   1.641268279329315 
 12.522783036147223   7.226825137264899   1.679386817192925 
 11.290366241617882   9.396791771717247   1.692348435860700 
 10.041833790400297  11.571529320410125   1.682829584408805 
 -6.242158483830677  13.723663851335893   1.600473779354265 
  1.251417056782564   0.705081905157841   1.608433415382975 
 -0.018659750048447   2.865708066395924   1.675363253434545 
 -1.269897148248413   5.042429643922512   1.699204070618205 
 -2.497576915983918   7.216997876189905   1.690473878693415 
 -3.731245504558624   9.386840662468078   1.667730532518675 
 -4.981995211978920  11.555684259247545   1.632848693287275 
 -3.734551446269969  13.716320241041766   1.632848693287275 
  3.763640829430051   0.697380132284221   1.682829584408805 
  2.481948973819141   2.836271085634382   1.823646138402570 
  1.210712288568421   5.000126628708052   1.855404319545420 
  0.008413929147309   7.201326253368777   1.728811552000215 
 -1.218332978242543   9.378262780342812   1.670632569137745 
 -2.474748567874014  11.548548722209780   1.647488171423730 
 -1.230902940916304  13.717561019026890   1.667730532518540 
  6.271285018765236   0.703488086426207   1.692348435860700 
  5.005506115935669   2.855366058648256   1.786438785489375 
  3.711028632723165   4.966019102387954   1.858418011153230 
  2.486629454874684   7.112289688867642   1.574223014597130 
  1.305517770743574   9.366010934000803   1.608719735721495 
  0.032981986077270  11.545603874809702   1.670632569137730 
  1.265070328495680  13.734094074610200   1.690473878693415 
  8.766739646814564   0.721167151537604   1.679386817192925 
  7.503200366567160   2.888240337158035   1.705065580519710 
  6.216546960599003   5.048184936312633   1.578173578774995 
  3.847853464129736   9.469998833405793   1.574223014597010 
  2.531637774538103  11.571678152483075   1.728811552000215 
  3.762141543769413  13.758176324171048   1.699204070618310 
 11.260493320023945   0.735729018086021   1.641268279329510 
  9.999021363921031   2.904403264552943   1.655743450830870 
  8.726855837961569   5.081299403134382   1.646509294572960 
  7.500379368779031   7.271847895687464   1.578173578775100 
  6.318777904332631   9.482773334256946   1.858418011153215 
  5.039081747999904  11.631057042624571   1.855404319545480 
  6.272856425989618  13.762933739931967   1.675363253434635 
 13.766183871642012   0.735590215007566   1.591495764652395 
 12.504941116243582   2.900020850708219   1.608269114168205 
 11.248185958373394   5.068019809125653   1.655743450830870 
 10.014272965416726   7.237545659833320   1.705065580519710 
  8.793895800416248   9.417049471032897   1.786438785489375 
  7.548653961066465  11.612061550513040   1.823646138402555 
  7.522011748793215  14.465873983922013   1.608010043165565 
 15.018773882928780   1.448665093093310   1.575549391173840 
 13.759947759091544   3.616184529747042   1.610338947815955 
 12.508109490048430   5.783699049959331   1.659260100865410 
 11.272756623333393   7.952076768612869   1.697783321868615 
 10.041155611594405  10.125945063482154   1.724608350194880 
  8.791345952066839  12.306327357772517   1.702661992046625 
 -7.497814156237429  14.448623258737182   1.593812010187800 
 -0.002840769963476   1.432447101975198   1.608010043165610 
 -1.262806100627253   3.603680170842188   1.653171270724185 
 -2.510010145721247   5.773889841921611   1.674961232678985 
 -3.742770306570376   7.941744623976271   1.679020500369435 
 -4.981247079709656  10.110788723627200   1.662525619800240 
 -6.234842630792440  12.281355463845403   1.631627953198245 
 -4.989419426335027  14.438491730894553   1.631627953198185 
  2.502048570575643   1.412944749120085   1.702661992046790 
  1.231386594798372   3.574950927595238   1.796937344354085 
 -0.008947208154185   5.758901898711867   1.763436169320855 
 -1.226609934076678   7.929465816199297   1.698859359665100 
 -2.466324987559960  10.100238597134275   1.661669815340145 
 -3.726154963596921  12.271054808575400   1.632697275580590 
 -2.482855713131930  14.438129507694208   1.662525619800255 
  5.015219857174635   1.420768981217948   1.724608350194865 
  3.733472694701831   3.549724939698666   1.859014248274140 
  2.460408107143449   5.729541416487407   1.782891867588645 
  1.310934346075154   7.894886282979016   1.633230933822495 
  0.059530976945612  10.085388011748581   1.651181226467520 
 -1.216257989501636  12.265418150598260   1.661669815340145 
  0.014829965659990  14.450099209988597   1.679020500369435 
  7.513645530881019   1.441105365162250   1.697783321868600 
  6.243658626118384   3.607203426283878   1.708180129680510 
  4.891436429862412   5.654054162472347   1.454461511615940 
  2.582262805659478  10.096891768081290   1.633230933822480 
  1.283543911366783  12.277179811300169   1.698859359665100 
  2.508627359053655  14.466424984941371   1.674961232678985 
 10.009192153572245   1.455447259278683   1.659260100865215 
  8.741605725267291   3.630423711271385   1.668612819604125 
  7.458971358410718   5.813319115646141   1.576563683163510 
  6.313131389510256   8.116502065472002   1.454461511616525 
  5.032243348509013  10.184090723262170   1.782891867588645 
  3.772138767402907  12.307934916150629   1.763436169320855 
  5.011686088281433  14.471419433727510   1.653171270724170 
 12.512233925675158   1.455080776958631   1.610338947815955 
 11.251550720027515   3.623672400294285   1.638371006365455 
  9.990731415833269   5.793972872366626   1.668612819604140 
  8.761867222937312   7.968868660047980   1.708180129680495 
  7.556552086780359  10.171492688169263   1.859014248274155 
  6.283662690481405  12.325749819177016   1.796937344354100 
