Species order: X N B                    
   2.51242800000000     
     5.9449720136058266    0.0000000000000000    0.0000000000000000
    -2.9724860068029120    5.1484967885702053   -0.0000000000000001
     0.0000000000000000    0.0000000000000009    5.3101128803662583
   O    N    B 
     1   143   143
Direct
  0.4404333893349124  0.3868833613341251  0.3750000000000000
  0.1110344956485893  0.0555153205789582  0.1247277897445617
  0.6110792609216659  0.5555249928283017  0.1280755741026235
  0.4443711175788853  0.0555367361463985  0.1251781055414210
  0.9443885139931874  0.5555295801680427  0.1255233631088536
  0.7776745676212965  0.0555039504773138  0.1251482283996196
  0.1110482960767561  0.7221908147050415  0.6248836674077675
  0.4443711175788853  0.7221677147658125  0.6248218944585818
  0.2777087198084897  0.2221995970280587  0.6252700493620870
  0.7777172835341698  0.7221694084357446  0.6236328906228459
  0.6110379520839119  0.2222207106887881  0.6239194868488080
  0.9443503420811424  0.2221799760272596  0.6250063835864197
  0.2777038783346256  0.7221801129968682  0.1250228960751442
  0.1110110112497422  0.2221721722915312  0.1245537703346929
  0.4444118248482792  0.2222278669294090  0.1258053909610488
  0.6110379520839119  0.7221505747284611  0.1260805131511943
  0.9443885139931874  0.7221922671584788  0.1255233631088536
  0.7776882976635283  0.2221984417062760  0.1254207936203679
  0.1110448883395004  0.8888575477819439  0.6250227537048605
  0.4443577798819098  0.8888455566076150  0.6248816357262413
  0.2777087198084897  0.3888424561137571  0.6252700493620870
  0.6110792609216659  0.3888876014266917  0.6219244258973737
  0.7776882976635283  0.8888231892905832  0.6245792063796338
  0.9443715433499436  0.3888600691658566  0.6248083380800397
  0.1110344956485893  0.3888525084029597  0.1247277897445617
  0.2777038783346256  0.8888570986710791  0.1250228960751442
  0.6110139164285445  0.8888279310790719  0.1252070784853692
  0.4443892478043155  0.3888612905688233  0.1261264363010815
  0.9443715433499436  0.8888448075174152  0.1251916619199618
  0.7777172835341698  0.3888812084317542  0.1263671093771544
  0.2777176641130296  0.5555164470810591  0.6252057922237008
  0.1110344956485893  0.0555153205789582  0.6252722102554378
  0.6110792609216659  0.5555249928283017  0.6219244258973737
  0.4443711175788853  0.0555367361463985  0.6248218944585818
  0.9443885139931874  0.5555295801680427  0.6244766368911459
  0.1110448883395004  0.5555206738908793  0.1249772462951398
  0.7776745676212965  0.0555039504773138  0.6248517716003834
  0.2777176641130296  0.0555345503653047  0.1247942077763087
  0.4444118248482792  0.5555172912522002  0.1258053909610488
  0.7777352917425261  0.5555343125379328  0.1271087825784752
  0.6110139164285445  0.0555193186828023  0.1252070784853692
  0.4444118248482792  0.5555172912522002  0.6241946090389523
  0.9443503420811424  0.0555036993872188  0.1249936164135787
  0.2777038783346256  0.7221801129968682  0.6249771039248511
  0.1110110112497422  0.2221721722915312  0.6254462296653075
  0.4444118248482792  0.2222278669294090  0.6241946090389523
  0.6110379520839119  0.7221505747284611  0.6239194868488080
  0.9443885139931874  0.7221922671584788  0.6244766368911459
  0.7776882976635283  0.2221984417062760  0.6245792063796338
  0.1110482960767561  0.7221908147050415  0.1251163325922298
  0.4443711175788853  0.7221677147658125  0.1251781055414210
  0.2777087198084897  0.2221995970280587  0.1247299506379138
  0.7777172835341698  0.7221694084357446  0.1263671093771544
  0.6110379520839119  0.2222207106887881  0.1260805131511943
  0.9443503420811424  0.2221799760272596  0.1249936164135787
  0.1110344956485893  0.3888525084029597  0.6252722102554378
  0.2777038783346256  0.8888570986710791  0.6249771039248511
  0.6110139164285445  0.8888279310790719  0.6247929215146313
  0.4443892478043155  0.3888612905688233  0.6238735636989171
  0.9443715433499436  0.8888448075174152  0.6248083380800397
  0.1110448883395004  0.8888575477819439  0.1249772462951398
  0.7777172835341698  0.3888812084317542  0.6236328906228459
  0.4443577798819098  0.8888455566076150  0.1251183642737603
  0.2777087198084897  0.3888424561137571  0.1247299506379138
  0.2777176641130296  0.5555164470810591  0.1247942077763087
  0.6110792609216659  0.3888876014266917  0.1280755741026235
  0.7776882976635283  0.8888231892905832  0.1254207936203679
  0.9443715433499436  0.3888600691658566  0.1251916619199618
  0.1110448883395004  0.5555206738908793  0.6250227537048605
  0.2777176641130296  0.0555345503653047  0.6252057922237008
  0.7777352917425261  0.5555343125379328  0.6228912174215213
  0.6110139164285445  0.0555193186828023  0.6247929215146313
  0.9443503420811424  0.0555036993872188  0.6250063835864197
  0.0533596750698346  0.1098236128129006  0.3750000000000000
  0.5551979319330593  0.6033842018214041  0.3750000000000000
  0.3894702773303512  0.1153216794670217  0.3750000000000000
  0.8927134442062369  0.6130233887697951  0.3750000000000000
  0.7211099454573362  0.1112093525905070  0.3750000000000000
  0.0555835763999321  0.7777914373144812  0.8750000000000000
  0.3889320299375172  0.7778014124030903  0.8750000000000000
  0.2222604301696735  0.2777968817515037  0.8750000000000000
  0.7222625241909800  0.7777974172319613  0.8750000000000000
  0.5556030898994107  0.2778037773576899  0.8750000000000000
  0.8889262226108157  0.2777970399371366  0.8750000000000000
  0.2240999513899230  0.7787166423616286  0.3750000000000000
  0.0533596750698346  0.2768693955902625  0.3750000000000000
  0.3835910373629033  0.2779677714397414  0.3750000000000000
  0.5554521918362947  0.7747628134565960  0.3750000000000000
  0.8904350578511168  0.7783897116360146  0.3750000000000000
  0.7216258662104117  0.2791837169252629  0.3750000000000000
  0.0555879057958841  0.9444598265518330  0.8750000000000000
  0.3889320299375172  0.9444639508677646  0.8750000000000000
  0.2222574660435834  0.4444633702546830  0.8750000000000000
  0.5556043690688192  0.4444688512010774  0.8750000000000000
  0.7222611764864658  0.9444659325813276  0.8750000000000000
  0.8889233535001063  0.4444605138682370  0.8750000000000000
  0.0558803229431897  0.4443897410202780  0.3750000000000000
  0.2236321227458227  0.9461115228189827  0.3750000000000000
  0.5554934625603072  0.9444133979468137  0.3750000000000000
  0.3835910373629032  0.4389565992564995  0.3750000000000000
  0.8876942795673387  0.9433390743966570  0.3750000000000000
  0.7260322235543446  0.4478093487440465  0.3750000000000000
  0.2222551556649318  0.6111279670889019  0.8750000000000000
  0.0555880304733268  0.1111265928712855  0.8750000000000000
  0.5556030898994107  0.6111326458750518  0.8750000000000000
  0.3889337350977771  0.1111350113733418  0.8750000000000000
  0.8889182291624003  0.6111257812478754  0.8750000000000000
  0.0578431031398084  0.6119728294314289  0.3750000000000000
  0.7222611764864658  0.1111285772384708  0.8750000000000000
  0.2215104946792166  0.1115576496031681  0.3750000000000000
  0.3894702773303512  0.6074819311966656  0.3750000000000000
  0.7260322235543446  0.6115562081436333  0.3750000000000000
  0.5554521918362947  0.1140227117130363  0.3750000000000000
  0.3889337350977771  0.6111320570577768  0.8750000000000000
  0.8871097829675921  0.1102215581504639  0.3750000000000000
  0.2222569844526284  0.7777951588929790  0.8750000000000000
  0.0555880304733268  0.2777947709353772  0.8750000000000000
  0.3889352151216331  0.2778019243121028  0.8750000000000000
  0.5555996993626831  0.7778000868311038  0.8750000000000000
  0.8889233535001063  0.7777961729652073  0.8750000000000000
  0.7222625241909800  0.2777984402923518  0.8750000000000000
  0.0578431031398084  0.7792036070417162  0.3750000000000000
  0.3899772730168368  0.7770200407978007  0.3750000000000000
  0.2177723134064305  0.2755528233698796  0.3750000000000000
  0.7216258662104117  0.7757754826184862  0.3750000000000000
  0.5551979319330593  0.2851470634449857  0.3750000000000000
  0.8876942795673387  0.2776885385040230  0.3750000000000000
  0.0555879057958841  0.4444614125773810  0.8750000000000000
  0.2222551556649318  0.9444605219093598  0.8750000000000000
  0.5555983780407904  0.9444658556870583  0.8750000000000000
  0.3889352151216331  0.4444666241428664  0.8750000000000000
  0.8889262226108157  0.9444625160070170  0.8750000000000000
  0.0558803229431897  0.9448239152562424  0.3750000000000000
  0.7222606859784008  0.4444644656094956  0.8750000000000000
  0.3899772730168368  0.9462905655523740  0.3750000000000000
  0.2215104946792166  0.4432861784093847  0.3750000000000000
  0.2236321227458227  0.6108539332601726  0.3750000000000000
  0.7211099454573362  0.9432339262001721  0.3750000000000000
  0.8904350578511168  0.4453786795484345  0.3750000000000000
  0.0555835763999321  0.6111254724187847  0.8750000000000000
  0.2222574660435834  0.1111274291222357  0.8750000000000000
  0.7222606859784008  0.6111295537022421  0.8750000000000000
  0.5555996993626831  0.1111329458649070  0.8750000000000000
  0.8889272682043586  0.1111303007688507  0.8750000000000000
  0.1099749868784733  0.0553885948579485  0.3750000000000000
  0.6183072820102747  0.5573566835405729  0.3750000000000000
  0.4445443661164037  0.0580256662781595  0.3750000000000000
  0.9472648004943779  0.5565814627117613  0.3750000000000000
  0.7761644631334854  0.0547488982334126  0.3750000000000000
  0.1111428286516341  0.7222380809924814  0.8750000000000000
  0.4444867284715522  0.7222544187077721  0.8750000000000000
  0.2778111902382514  0.2222336142107303  0.8750000000000000
  0.7778215348454383  0.7222485548668321  0.8750000000000000
  0.6111584892536015  0.2222369336256874  0.8750000000000000
  0.9444715526745445  0.2222351805188452  0.8750000000000000
  0.2789784972145691  0.7222494748949199  0.3750000000000000
  0.1070983674408008  0.2202158503870680  0.3750000000000000
  0.4440268798563826  0.2269484482381650  0.3750000000000000
  0.6108225126812684  0.7187238697828425  0.3750000000000000
  0.9472648004943779  0.7240166711159441  0.3750000000000000
  0.7766714460273799  0.2223268768902987  0.3750000000000000
  0.1111393067114483  0.8888987624553969  0.8750000000000000
  0.4444866805102222  0.8889100069217770  0.8750000000000000
  0.2778111902382514  0.3889109093608494  0.8750000000000000
  0.6111611766759966  0.3889146631982762  0.8750000000000000
  0.7778189770480348  0.8889152570037017  0.8750000000000000
  0.9444764567611873  0.3889032886696823  0.8750000000000000
  0.1099749868784733  0.3879197253538533  0.3750000000000000
  0.2789784972145691  0.8900623556529720  0.3750000000000000
  0.6103040863936821  0.8873439419784931  0.3750000000000000
  0.9448315918051730  0.8893233507292210  0.3750000000000000
  0.7800165680268925  0.3898040235852641  0.3750000000000000
  0.2778100858694786  0.5555828020448957  0.8750000000000000
  0.1111305122274621  0.0555595634606601  0.8750000000000000
  0.6111611766759966  0.5555798468110462  0.8750000000000000
  0.4444867284715522  0.0555656430971134  0.8750000000000000
  0.9444792661562643  0.5555733092638837  0.8750000000000000
  0.1124908834923944  0.5556479187954770  0.3750000000000000
  0.7778164690541608  0.0555749011937482  0.8750000000000000
  0.2780961920787705  0.0570624529948730  0.3750000000000000
  0.4440268798563826  0.5504117649515584  0.3750000000000000
  0.7834304232701101  0.5583818783017224  0.3750000000000000
  0.6103040863936821  0.0562934777485213  0.3750000000000000
  0.4444913818063234  0.5555866088925225  0.8750000000000000
  0.9423231777078502  0.0543143799097913  0.3750000000000000
  0.2778140470286616  0.7222461312060675  0.8750000000000000
  0.1111287978137341  0.2222310655735278  0.8750000000000000
  0.4444913818063234  0.2222381062471384  0.8750000000000000
  0.6111584892536015  0.7222548889612362  0.8750000000000000
  0.9444792661562643  0.7222392902257185  0.8750000000000000
  0.7778189770480348  0.2222370533776702  0.8750000000000000
  0.1131708457006544  0.7232520895169954  0.3750000000000000
  0.4445443661164037  0.7198520331715821  0.3750000000000000
  0.2733228944553416  0.2216223077412767  0.3750000000000000
  0.7800165680268925  0.7235458777749559  0.3750000000000000
  0.6108225126812684  0.2254319762317513  0.3750000000000000
  0.9423231777078502  0.2213421311314028  0.3750000000000000
  0.1111305122274621  0.3889042821001310  0.8750000000000000
  0.2778140470286616  0.8889012491559273  0.8750000000000000
  0.6111556021565733  0.8889182439130139  0.8750000000000000
  0.4444976698407431  0.3889155015870396  0.8750000000000000
  0.9444764567611873  0.8889065014248314  0.8750000000000000
  0.1124908834923944  0.8901762980302477  0.3750000000000000
  0.7778215348454383  0.3889063133119348  0.8750000000000000
  0.4447039084662279  0.8890186208997787  0.3750000000000000
  0.2733228944553416  0.3850339200473848  0.3750000000000000
  0.2780961920787705  0.5543670724172387  0.3750000000000000
  0.6183072820102749  0.3942839318030302  0.3750000000000000
  0.7766714460273799  0.8876779024704113  0.3750000000000000
  0.9448315918051730  0.3888415744092797  0.3750000000000000
  0.1111393067114485  0.5555738775893848  0.8750000000000000
  0.2778100858694786  0.0555606171579190  0.8750000000000000
  0.7778191437933213  0.5555762385633337  0.8750000000000000
  0.6111556021565733  0.0555706915768905  0.8750000000000000
  0.9444715526745445  0.0555697054890303  0.8750000000000000
  0.0554316177750505  0.1110280429110977  0.1244864709631634
  0.5555273704720455  0.6110931508044279  0.1262585950117780
  0.3888079544734752  0.1110366135340205  0.1248487765678938
  0.8888898870227446  0.6111116101780447  0.1257121176324145
  0.7221335988364594  0.1110662523661424  0.1250183705757607
  0.0555141199128987  0.7777474871359219  0.6250314069922858
  0.3887911472712956  0.7777492988983652  0.6251373657838526
  0.2220740948735206  0.2777037141034279  0.6258522753550063
  0.7221921404588555  0.7777592694105059  0.6243357384846284
  0.5555273704720455  0.2777675530009434  0.6237414049882233
  0.8888148434243524  0.2777508663811968  0.6250184320561819
  0.2221447398074803  0.7777390365704058  0.1248616416454137
  0.0554316177750505  0.2777369081972892  0.1244864709631634
  0.3888511049256801  0.2777941497314134  0.1250712334759670
  0.5554777025760012  0.7777572447351140  0.1251449752068420
  0.8888623583756305  0.7777581094818432  0.1254181070608143
  0.7221921404588555  0.2777662043816888  0.1256642615153715
  0.0554692161334307  0.9443746622780553  0.6252737803742863
  0.3887911472712956  0.9443751817062571  0.6251373657838526
  0.2221042733342949  0.4444248342855281  0.6256201431112343
  0.5554731096884004  0.4444032215108609  0.6224583466558964
  0.7221335988364594  0.9444006798036637  0.6249816294242405
  0.8888623583756305  0.4444375822271243  0.6245818929391844
  0.0554692161334307  0.4444278871887061  0.1247262196257152
  0.2221320162891858  0.9443669368444509  0.1246753668359316
  0.5554514748356542  0.9443924040844904  0.1249299266838433
  0.3888511049256801  0.4443902885276041  0.1250712334759670
  0.8888148434243524  0.9443973103764998  0.1249815679438189
  0.7222224410193239  0.4444564794647162  0.1269643414337513
  0.2221320162891858  0.6110984127780622  0.6253246331640692
  0.0554316177750505  0.1110280429110977  0.6255135290368365
  0.5555273704720455  0.6110931508044279  0.6237414049882233
  0.3888079544734752  0.1110366135340205  0.6251512234321066
  0.8888898870227446  0.6111116101780447  0.6242878823675870
  0.0555141199128987  0.6110999661103105  0.1249685930077143
  0.7221335988364594  0.1110662523661424  0.6249816294242405
  0.2221042733342949  0.1110127723821028  0.1243798568887626
  0.3888079544734752  0.6111046742727906  0.1248487765678938
  0.7222224410193239  0.6110992948879418  0.1269643414337513
  0.5554777025760012  0.1110537911742257  0.1251449752068420
  0.3888079544734752  0.6111046742727906  0.6251512234321066
  0.8887815708619511  0.1110574520976474  0.1248451569020276
  0.2221447398074803  0.7777390365704042  0.6251383583545859
  0.0554316177750505  0.2777369081972892  0.6255135290368365
  0.3888511049256801  0.2777941497314134  0.6249287665240314
  0.5554777025760012  0.7777572447351140  0.6248550247931576
  0.8888623583756305  0.7777581094818432  0.6245818929391844
  0.7221921404588555  0.2777662043816888  0.6243357384846284
  0.0555141199128987  0.7777474871359219  0.1249685930077143
  0.3887911472712956  0.7777492988983652  0.1248626342161476
  0.2220740948735206  0.2777037141034279  0.1241477246449954
  0.7221921404588555  0.7777592694105059  0.1256642615153715
  0.5555273704720455  0.2777675530009434  0.1262585950117780
  0.8888148434243524  0.2777508663811968  0.1249815679438189
  0.0554692161334307  0.4444278871887061  0.6252737803742863
  0.2221320162891874  0.9443669368444509  0.6253246331640692
  0.5554514748356542  0.9443924040844904  0.6250700733161566
  0.3888511049256801  0.4443902885276041  0.6249287665240314
  0.8888148434243524  0.9443973103764998  0.6250184320561819
  0.0554692161334307  0.9443746622780553  0.1247262196257152
  0.7222224410193239  0.4444564794647162  0.6230356585662475
  0.3887911472712956  0.9443751817062571  0.1248626342161476
  0.2221042733342949  0.4444248342855281  0.1243798568887626
  0.2221320162891858  0.6110984127780622  0.1246753668359316
  0.5554731096884004  0.4444032215108609  0.1275416533441019
  0.7221335988364594  0.9444006798036637  0.1250183705757607
  0.8888623583756305  0.4444375822271243  0.1254181070608143
  0.0555141199128987  0.6110999661103105  0.6250314069922858
  0.2221042733342949  0.1110127723821028  0.6256201431112343
  0.7222224410193239  0.6110992948879418  0.6230356585662475
  0.5554777025760012  0.1110537911742257  0.6248550247931576
  0.8887815708619511  0.1110574520976474  0.6251548430979718
 
  0.00000000E+00  0.00000000E+00  0.00000000E+00
  0.00000000E+00  0.00000000E+00  0.00000000E+00
  0.00000000E+00  0.00000000E+00  0.00000000E+00
  0.00000000E+00  0.00000000E+00  0.00000000E+00
  0.00000000E+00  0.00000000E+00  0.00000000E+00
  0.00000000E+00  0.00000000E+00  0.00000000E+00
  0.00000000E+00  0.00000000E+00  0.00000000E+00
  0.00000000E+00  0.00000000E+00  0.00000000E+00
  0.00000000E+00  0.00000000E+00  0.00000000E+00
  0.00000000E+00  0.00000000E+00  0.00000000E+00
  0.00000000E+00  0.00000000E+00  0.00000000E+00
  0.00000000E+00  0.00000000E+00  0.00000000E+00
  0.00000000E+00  0.00000000E+00  0.00000000E+00
  0.00000000E+00  0.00000000E+00  0.00000000E+00
  0.00000000E+00  0.00000000E+00  0.00000000E+00
  0.00000000E+00  0.00000000E+00  0.00000000E+00
  0.00000000E+00  0.00000000E+00  0.00000000E+00
  0.00000000E+00  0.00000000E+00  0.00000000E+00
  0.00000000E+00  0.00000000E+00  0.00000000E+00
  0.00000000E+00  0.00000000E+00  0.00000000E+00
  0.00000000E+00  0.00000000E+00  0.00000000E+00
  0.00000000E+00  0.00000000E+00  0.00000000E+00
  0.00000000E+00  0.00000000E+00  0.00000000E+00
  0.00000000E+00  0.00000000E+00  0.00000000E+00
  0.00000000E+00  0.00000000E+00  0.00000000E+00
  0.00000000E+00  0.00000000E+00  0.00000000E+00
  0.00000000E+00  0.00000000E+00  0.00000000E+00
  0.00000000E+00  0.00000000E+00  0.00000000E+00
  0.00000000E+00  0.00000000E+00  0.00000000E+00
  0.00000000E+00  0.00000000E+00  0.00000000E+00
  0.00000000E+00  0.00000000E+00  0.00000000E+00
  0.00000000E+00  0.00000000E+00  0.00000000E+00
  0.00000000E+00  0.00000000E+00  0.00000000E+00
  0.00000000E+00  0.00000000E+00  0.00000000E+00
  0.00000000E+00  0.00000000E+00  0.00000000E+00
  0.00000000E+00  0.00000000E+00  0.00000000E+00
  0.00000000E+00  0.00000000E+00  0.00000000E+00
  0.00000000E+00  0.00000000E+00  0.00000000E+00
  0.00000000E+00  0.00000000E+00  0.00000000E+00
  0.00000000E+00  0.00000000E+00  0.00000000E+00
  0.00000000E+00  0.00000000E+00  0.00000000E+00
  0.00000000E+00  0.00000000E+00  0.00000000E+00
  0.00000000E+00  0.00000000E+00  0.00000000E+00
  0.00000000E+00  0.00000000E+00  0.00000000E+00
  0.00000000E+00  0.00000000E+00  0.00000000E+00
  0.00000000E+00  0.00000000E+00  0.00000000E+00
  0.00000000E+00  0.00000000E+00  0.00000000E+00
  0.00000000E+00  0.00000000E+00  0.00000000E+00
  0.00000000E+00  0.00000000E+00  0.00000000E+00
  0.00000000E+00  0.00000000E+00  0.00000000E+00
  0.00000000E+00  0.00000000E+00  0.00000000E+00
  0.00000000E+00  0.00000000E+00  0.00000000E+00
  0.00000000E+00  0.00000000E+00  0.00000000E+00
  0.00000000E+00  0.00000000E+00  0.00000000E+00
  0.00000000E+00  0.00000000E+00  0.00000000E+00
  0.00000000E+00  0.00000000E+00  0.00000000E+00
  0.00000000E+00  0.00000000E+00  0.00000000E+00
  0.00000000E+00  0.00000000E+00  0.00000000E+00
  0.00000000E+00  0.00000000E+00  0.00000000E+00
  0.00000000E+00  0.00000000E+00  0.00000000E+00
  0.00000000E+00  0.00000000E+00  0.00000000E+00
  0.00000000E+00  0.00000000E+00  0.00000000E+00
  0.00000000E+00  0.00000000E+00  0.00000000E+00
  0.00000000E+00  0.00000000E+00  0.00000000E+00
  0.00000000E+00  0.00000000E+00  0.00000000E+00
  0.00000000E+00  0.00000000E+00  0.00000000E+00
  0.00000000E+00  0.00000000E+00  0.00000000E+00
  0.00000000E+00  0.00000000E+00  0.00000000E+00
  0.00000000E+00  0.00000000E+00  0.00000000E+00
  0.00000000E+00  0.00000000E+00  0.00000000E+00
  0.00000000E+00  0.00000000E+00  0.00000000E+00
  0.00000000E+00  0.00000000E+00  0.00000000E+00
  0.00000000E+00  0.00000000E+00  0.00000000E+00
  0.00000000E+00  0.00000000E+00  0.00000000E+00
  0.00000000E+00  0.00000000E+00  0.00000000E+00
  0.00000000E+00  0.00000000E+00  0.00000000E+00
  0.00000000E+00  0.00000000E+00  0.00000000E+00
  0.00000000E+00  0.00000000E+00  0.00000000E+00
  0.00000000E+00  0.00000000E+00  0.00000000E+00
  0.00000000E+00  0.00000000E+00  0.00000000E+00
  0.00000000E+00  0.00000000E+00  0.00000000E+00
  0.00000000E+00  0.00000000E+00  0.00000000E+00
  0.00000000E+00  0.00000000E+00  0.00000000E+00
  0.00000000E+00  0.00000000E+00  0.00000000E+00
  0.00000000E+00  0.00000000E+00  0.00000000E+00
  0.00000000E+00  0.00000000E+00  0.00000000E+00
  0.00000000E+00  0.00000000E+00  0.00000000E+00
  0.00000000E+00  0.00000000E+00  0.00000000E+00
  0.00000000E+00  0.00000000E+00  0.00000000E+00
  0.00000000E+00  0.00000000E+00  0.00000000E+00
  0.00000000E+00  0.00000000E+00  0.00000000E+00
  0.00000000E+00  0.00000000E+00  0.00000000E+00
  0.00000000E+00  0.00000000E+00  0.00000000E+00
  0.00000000E+00  0.00000000E+00  0.00000000E+00
  0.00000000E+00  0.00000000E+00  0.00000000E+00
  0.00000000E+00  0.00000000E+00  0.00000000E+00
  0.00000000E+00  0.00000000E+00  0.00000000E+00
  0.00000000E+00  0.00000000E+00  0.00000000E+00
  0.00000000E+00  0.00000000E+00  0.00000000E+00
  0.00000000E+00  0.00000000E+00  0.00000000E+00
  0.00000000E+00  0.00000000E+00  0.00000000E+00
  0.00000000E+00  0.00000000E+00  0.00000000E+00
  0.00000000E+00  0.00000000E+00  0.00000000E+00
  0.00000000E+00  0.00000000E+00  0.00000000E+00
  0.00000000E+00  0.00000000E+00  0.00000000E+00
  0.00000000E+00  0.00000000E+00  0.00000000E+00
  0.00000000E+00  0.00000000E+00  0.00000000E+00
  0.00000000E+00  0.00000000E+00  0.00000000E+00
  0.00000000E+00  0.00000000E+00  0.00000000E+00
  0.00000000E+00  0.00000000E+00  0.00000000E+00
  0.00000000E+00  0.00000000E+00  0.00000000E+00
  0.00000000E+00  0.00000000E+00  0.00000000E+00
  0.00000000E+00  0.00000000E+00  0.00000000E+00
  0.00000000E+00  0.00000000E+00  0.00000000E+00
  0.00000000E+00  0.00000000E+00  0.00000000E+00
  0.00000000E+00  0.00000000E+00  0.00000000E+00
  0.00000000E+00  0.00000000E+00  0.00000000E+00
  0.00000000E+00  0.00000000E+00  0.00000000E+00
  0.00000000E+00  0.00000000E+00  0.00000000E+00
  0.00000000E+00  0.00000000E+00  0.00000000E+00
  0.00000000E+00  0.00000000E+00  0.00000000E+00
  0.00000000E+00  0.00000000E+00  0.00000000E+00
  0.00000000E+00  0.00000000E+00  0.00000000E+00
  0.00000000E+00  0.00000000E+00  0.00000000E+00
  0.00000000E+00  0.00000000E+00  0.00000000E+00
  0.00000000E+00  0.00000000E+00  0.00000000E+00
  0.00000000E+00  0.00000000E+00  0.00000000E+00
  0.00000000E+00  0.00000000E+00  0.00000000E+00
  0.00000000E+00  0.00000000E+00  0.00000000E+00
  0.00000000E+00  0.00000000E+00  0.00000000E+00
  0.00000000E+00  0.00000000E+00  0.00000000E+00
  0.00000000E+00  0.00000000E+00  0.00000000E+00
  0.00000000E+00  0.00000000E+00  0.00000000E+00
  0.00000000E+00  0.00000000E+00  0.00000000E+00
  0.00000000E+00  0.00000000E+00  0.00000000E+00
  0.00000000E+00  0.00000000E+00  0.00000000E+00
  0.00000000E+00  0.00000000E+00  0.00000000E+00
  0.00000000E+00  0.00000000E+00  0.00000000E+00
  0.00000000E+00  0.00000000E+00  0.00000000E+00
  0.00000000E+00  0.00000000E+00  0.00000000E+00
  0.00000000E+00  0.00000000E+00  0.00000000E+00
  0.00000000E+00  0.00000000E+00  0.00000000E+00
  0.00000000E+00  0.00000000E+00  0.00000000E+00
  0.00000000E+00  0.00000000E+00  0.00000000E+00
  0.00000000E+00  0.00000000E+00  0.00000000E+00
  0.00000000E+00  0.00000000E+00  0.00000000E+00
  0.00000000E+00  0.00000000E+00  0.00000000E+00
  0.00000000E+00  0.00000000E+00  0.00000000E+00
  0.00000000E+00  0.00000000E+00  0.00000000E+00
  0.00000000E+00  0.00000000E+00  0.00000000E+00
  0.00000000E+00  0.00000000E+00  0.00000000E+00
  0.00000000E+00  0.00000000E+00  0.00000000E+00
  0.00000000E+00  0.00000000E+00  0.00000000E+00
  0.00000000E+00  0.00000000E+00  0.00000000E+00
  0.00000000E+00  0.00000000E+00  0.00000000E+00
  0.00000000E+00  0.00000000E+00  0.00000000E+00
  0.00000000E+00  0.00000000E+00  0.00000000E+00
  0.00000000E+00  0.00000000E+00  0.00000000E+00
  0.00000000E+00  0.00000000E+00  0.00000000E+00
  0.00000000E+00  0.00000000E+00  0.00000000E+00
  0.00000000E+00  0.00000000E+00  0.00000000E+00
  0.00000000E+00  0.00000000E+00  0.00000000E+00
  0.00000000E+00  0.00000000E+00  0.00000000E+00
  0.00000000E+00  0.00000000E+00  0.00000000E+00
  0.00000000E+00  0.00000000E+00  0.00000000E+00
  0.00000000E+00  0.00000000E+00  0.00000000E+00
  0.00000000E+00  0.00000000E+00  0.00000000E+00
  0.00000000E+00  0.00000000E+00  0.00000000E+00
  0.00000000E+00  0.00000000E+00  0.00000000E+00
  0.00000000E+00  0.00000000E+00  0.00000000E+00
  0.00000000E+00  0.00000000E+00  0.00000000E+00
  0.00000000E+00  0.00000000E+00  0.00000000E+00
  0.00000000E+00  0.00000000E+00  0.00000000E+00
  0.00000000E+00  0.00000000E+00  0.00000000E+00
  0.00000000E+00  0.00000000E+00  0.00000000E+00
  0.00000000E+00  0.00000000E+00  0.00000000E+00
  0.00000000E+00  0.00000000E+00  0.00000000E+00
  0.00000000E+00  0.00000000E+00  0.00000000E+00
  0.00000000E+00  0.00000000E+00  0.00000000E+00
  0.00000000E+00  0.00000000E+00  0.00000000E+00
  0.00000000E+00  0.00000000E+00  0.00000000E+00
  0.00000000E+00  0.00000000E+00  0.00000000E+00
  0.00000000E+00  0.00000000E+00  0.00000000E+00
  0.00000000E+00  0.00000000E+00  0.00000000E+00
  0.00000000E+00  0.00000000E+00  0.00000000E+00
  0.00000000E+00  0.00000000E+00  0.00000000E+00
  0.00000000E+00  0.00000000E+00  0.00000000E+00
  0.00000000E+00  0.00000000E+00  0.00000000E+00
  0.00000000E+00  0.00000000E+00  0.00000000E+00
  0.00000000E+00  0.00000000E+00  0.00000000E+00
  0.00000000E+00  0.00000000E+00  0.00000000E+00
  0.00000000E+00  0.00000000E+00  0.00000000E+00
  0.00000000E+00  0.00000000E+00  0.00000000E+00
  0.00000000E+00  0.00000000E+00  0.00000000E+00
  0.00000000E+00  0.00000000E+00  0.00000000E+00
  0.00000000E+00  0.00000000E+00  0.00000000E+00
  0.00000000E+00  0.00000000E+00  0.00000000E+00
  0.00000000E+00  0.00000000E+00  0.00000000E+00
  0.00000000E+00  0.00000000E+00  0.00000000E+00
  0.00000000E+00  0.00000000E+00  0.00000000E+00
  0.00000000E+00  0.00000000E+00  0.00000000E+00
  0.00000000E+00  0.00000000E+00  0.00000000E+00
  0.00000000E+00  0.00000000E+00  0.00000000E+00
  0.00000000E+00  0.00000000E+00  0.00000000E+00
  0.00000000E+00  0.00000000E+00  0.00000000E+00
  0.00000000E+00  0.00000000E+00  0.00000000E+00
  0.00000000E+00  0.00000000E+00  0.00000000E+00
  0.00000000E+00  0.00000000E+00  0.00000000E+00
  0.00000000E+00  0.00000000E+00  0.00000000E+00
  0.00000000E+00  0.00000000E+00  0.00000000E+00
  0.00000000E+00  0.00000000E+00  0.00000000E+00
  0.00000000E+00  0.00000000E+00  0.00000000E+00
  0.00000000E+00  0.00000000E+00  0.00000000E+00
  0.00000000E+00  0.00000000E+00  0.00000000E+00
  0.00000000E+00  0.00000000E+00  0.00000000E+00
  0.00000000E+00  0.00000000E+00  0.00000000E+00
  0.00000000E+00  0.00000000E+00  0.00000000E+00
  0.00000000E+00  0.00000000E+00  0.00000000E+00
  0.00000000E+00  0.00000000E+00  0.00000000E+00
  0.00000000E+00  0.00000000E+00  0.00000000E+00
  0.00000000E+00  0.00000000E+00  0.00000000E+00
  0.00000000E+00  0.00000000E+00  0.00000000E+00
  0.00000000E+00  0.00000000E+00  0.00000000E+00
  0.00000000E+00  0.00000000E+00  0.00000000E+00
  0.00000000E+00  0.00000000E+00  0.00000000E+00
  0.00000000E+00  0.00000000E+00  0.00000000E+00
  0.00000000E+00  0.00000000E+00  0.00000000E+00
  0.00000000E+00  0.00000000E+00  0.00000000E+00
  0.00000000E+00  0.00000000E+00  0.00000000E+00
  0.00000000E+00  0.00000000E+00  0.00000000E+00
  0.00000000E+00  0.00000000E+00  0.00000000E+00
  0.00000000E+00  0.00000000E+00  0.00000000E+00
  0.00000000E+00  0.00000000E+00  0.00000000E+00
  0.00000000E+00  0.00000000E+00  0.00000000E+00
  0.00000000E+00  0.00000000E+00  0.00000000E+00
  0.00000000E+00  0.00000000E+00  0.00000000E+00
  0.00000000E+00  0.00000000E+00  0.00000000E+00
  0.00000000E+00  0.00000000E+00  0.00000000E+00
  0.00000000E+00  0.00000000E+00  0.00000000E+00
  0.00000000E+00  0.00000000E+00  0.00000000E+00
  0.00000000E+00  0.00000000E+00  0.00000000E+00
  0.00000000E+00  0.00000000E+00  0.00000000E+00
  0.00000000E+00  0.00000000E+00  0.00000000E+00
  0.00000000E+00  0.00000000E+00  0.00000000E+00
  0.00000000E+00  0.00000000E+00  0.00000000E+00
  0.00000000E+00  0.00000000E+00  0.00000000E+00
  0.00000000E+00  0.00000000E+00  0.00000000E+00
  0.00000000E+00  0.00000000E+00  0.00000000E+00