 N B O 
 1.0
 14.936314146199660   0.000000000000000   0.000000000000000
 -7.468157073099825  12.935227489513863   0.000000000000000
  0.000000000000001   0.000000000000001  13.341276283792837
 N B O 
 143 143   1
Cartesian
  1.243848974025015   0.718103300842112   1.664027903249024 
  4.978523904879100   7.185842158344644   1.708691619308476 
  6.222509540787444   0.718380316078779   1.670035690709877 
  9.956901357616768   7.185901496627765   1.674641867306071 
 11.201079425159534   0.717956225990768   1.669637091506539 
 -3.734782205364565   9.341702479047072   8.336745652116733 
  1.244004682663410   9.341403676078151   8.335921522134791 
  2.488523188013518   2.874202335636252   8.341900480520387 
  6.222955088209672   9.341425584084012   8.320058693459748 
  7.467075635256063   2.874475445640918   8.323882252892199 
 12.445838413925918   2.873948533527346   8.338382842560634 
 -1.245482152505606   9.341564050017315   1.667964998338415 
 -0.001121342231499   2.873847590430422   1.661706262223219 
  4.978242009971003   2.874568013241320   1.678404478801929 
  3.733520885074344   9.341181965795824   1.682074959952455 
  8.712238232947321   9.341721266862697   1.674641867306071 
  9.956383857665202   2.874187391286165   1.673273459421892 
 -4.979526445877454  11.497574586330884   8.338601240833540 
 -0.000970836848463  11.497419477763072   8.336718546892174 
  1.244008141251085   5.029765627412758   8.341900480520387 
  6.222998118117938   5.030349592305658   8.297265593536110 
  4.977925533890074  11.497130151428934   8.332683753422764 
 11.201361966219093   5.029993456248457   8.335740662743255 
 -1.245565502950010   5.029895656060389   1.664027903249024 
 -2.490252061991423  11.497568776979678   1.667964998338415 
  2.488389203219677  11.497191487541746   1.670422226759842 
  3.733460210782335   5.030009255373677   1.682687633382933 
  7.467397406056939  11.497409788110925   1.670216550101400 
  8.712003716450186   5.030266897461795   1.685898519384880 
 -0.000605808350718   7.185731617159989   8.341043208283974 
  1.243848974025015   0.718103300842113   8.341929309595603 
  4.978523904879101   7.185842158344645   8.297265593536110 
  6.222509540787445   0.718380316078780   8.335921522134791 
  9.956901357616768   7.185901496627766   8.331315345538556 
 -2.490114313402914   7.185786291906564   1.667355972011087 
 11.201079425159534   0.717956225990769   8.336320121338128 
  3.733337530028905   0.718352042503086   1.664914004560787 
  2.489184238325383   7.185742536705736   1.678404478801929 
  7.467681134522797   7.185962710908856   1.695793386475989 
  8.711668810961882   0.718155017224861   1.670422226759842 
  2.489184238325384   7.185742536705737   8.327552734042712 
 13.690603028233184   0.717952978083269   1.667574370283981 
 -1.245482152505606   9.341564050017315   8.337992214506146 
 -0.001121342231499   2.873847590430423   8.344250950621408 
  4.978242009971004   2.874568013241321   8.327552734042712 
  3.733520885074344   9.341181965795824   8.323882252892199 
  8.712238232947321   9.341721266862697   8.331315345538556 
  9.956383857665202   2.874187391286166   8.332683753422764 
 -3.734782205364565   9.341702479047072   1.669211560727855 
  1.244004682663410   9.341403676078151   1.670035690709877 
  2.488523188013517   2.874202335636252   1.664056732324253 
  6.222955088209671   9.341425584084012   1.685898519384880 
  7.467075635256062   2.874475445640917   1.682074959952455 
 12.445838413925918   2.873948533527345   1.667574370283981 
 -1.245565502950010   5.029895656060390   8.341929309595603 
 -2.490252061991423  11.497568776979678   8.337992214506146 
  2.488389203219678  11.497191487541746   8.335534986084784 
  3.733460210782335   5.030009255373678   8.323269579461682 
  7.467397406056940  11.497409788110925   8.335740662743255 
 -4.979526445877455  11.497574586330884   1.667355972011087 
  8.712003716450186   5.030266897461796   8.320058693459748 
 -0.000970836848463  11.497419477763072   1.669238665952467 
  1.244008141251085   5.029765627412758   1.664056732324253 
 -0.000605808350719   7.185731617159988   1.664914004560787 
  6.222998118117937   5.030349592305657   1.708691619308476 
  4.977925533890073  11.497130151428934   1.673273459421892 
 11.201361966219093   5.029993456248456   1.670216550101400 
 -2.490114313402913   7.185786291906565   8.338601240833540 
  3.733337530028905   0.718352042503086   8.341043208283974 
  7.467681134522798   7.185962710908857   8.310163826368585 
  8.711668810961882   0.718155017224862   8.335534986084784 
 13.690603028233184   0.717952978083270   8.338382842560634 
 -0.023183121239849   1.420593415455164   5.002978606422314 
  3.786442730043337   7.804911914138606   5.002978606422314 
  4.956009996620235   1.491712158378730   5.002978606422314 
  8.755693488383471   7.929596990129998   5.002978606422314 
  9.940195766156025   1.438518274719766   5.002978606422314 
 -4.978454865497945  10.060909181058776  11.673616748318732 
  0.000467861160715  10.061038211099161  11.673616748318732 
  1.245120859946154   3.593365861333288  11.673616748318732 
  4.979226674403964  10.060986532651748  11.673616748318732 
  6.223980046529134   3.593455057567982  11.673616748318732 
 11.202649385017034   3.593367907500436  11.673616748318732 
 -2.468350926485582  10.072876918818078   5.002978606422314 
 -1.270707265420102   3.581368616844259   5.002978606422314 
  3.653529259347434   3.595576358326245   5.002978606422314 
  2.510358045171463  10.021733242476863   5.002978606422314 
  7.486681120271113  10.068647995508950   5.002978606422314 
  8.693442783492458   3.611304889796319   5.002978606422314 
 -6.223095910225028  12.216802711154768  11.673616748318732 
 -1.244194154295019  12.216856060119587  11.673616748318732 
  0.000385071863963   5.749234805000355  11.673616748318732 
  4.979318202543062   5.749305702288819  11.673616748318732 
  3.734499892896545  12.216881694035344  11.673616748318732 
  9.957937529412217   5.749197856991878  11.673616748318732 
 -2.484126329543014   5.748282394103447   5.002978606422314 
 -3.725469822568739  12.238167778113933   5.002978606422314 
  1.243997265154206  12.216202146586824   5.002978606422314 
  2.451239406197663   5.678003469406187   5.002978606422314 
  6.213876244615326  12.202305527068201   5.002978606422314 
  7.499934816048485   5.792515797935285   5.002978606422314 
 -1.244326824360168   7.905079279499090  11.673616748318732 
  0.000369435356961   1.437447758924662  11.673616748318732 
  3.734627699442836   7.905139800662314  11.673616748318732 
  4.979262728218345   1.437556654163891  11.673616748318732 
  8.713178595273133   7.905051005148149  11.673616748318732 
 -3.706346454976039   7.916007766097001   5.002978606422314 
  9.957994157478604   1.437473427165636  11.673616748318732 
  2.475420285266583   1.443023575812455   5.002978606422314 
  1.280479931566904   7.857916975798085   5.002978606422314 
  6.277047549825577   7.910618674962384   5.002978606422314 
  7.444868909488328   1.474909714979378   5.002978606422314 
  1.245206254961116   7.905132184176912  11.673616748318732 
 12.426998491461482   1.425740928924933   5.002978606422314 
 -2.488996276337937  10.060957320523267  11.673616748318732 
 -1.244334697513049   3.593338557446497  11.673616748318732 
  3.734590149604282   3.593431088001766  11.673616748318732 
  2.489878429289756  10.061021064523969  11.673616748318732 
  7.468534469210790  10.060970437778227  11.673616748318732 
  8.713297570578181   3.593386021413709  11.673616748318732 
 -4.955252169626287  10.079175917734362   5.002978606422314 
  0.021915346033338  10.050930991630899   5.002978606422314 
  1.194843918520690   3.564338455667230   5.002978606422314 
  4.984817476087484  10.034832348457524   5.002978606422314 
  6.163087665932229   3.688442133627738   5.002978606422314 
 11.185059002454590   3.591964416780167   5.002978606422314 
 -2.489029218363030   5.749209481999102  11.673616748318732 
 -3.733706701337006  12.216811705762566  11.673616748318732 
  1.245172553085659  12.216880699390467  11.673616748318732 
  2.489911992727110   5.749276894784227  11.673616748318732 
  6.223886894514299  12.216837499869396  11.673616748318732 
 -6.221447347484198  12.221512281372659   5.002978606422314 
  7.468582058639972   5.749248973664042  11.673616748318732 
 -1.242223520679846  12.240483736600689   5.002978606422314 
 -0.001980473486566   5.734007560682625   5.002978606422314 
 -1.221713483794714   7.901534589584657   5.002978606422314 
  3.726505561760140  12.200945411226556   5.002978606422314 
  9.973659814976246   5.761074538938304   5.002978606422314 
 -3.733767260917146   7.905047010373615  11.673616748318732 
  2.489790238350635   1.437458576020952  11.673616748318732 
  6.223901002161325   7.905099802703580  11.673616748318732 
  7.468653353499698   1.437529936342403  11.673616748318732 
 12.447358389300781   1.437495721423186  11.673616748318732 
  1.228970225783606   0.716464074812089   5.002978606422314 
  5.072804544565342   7.209535494398300   5.002978606422314 
  6.206509514201243   0.750575193538600   5.002978606422314 
  9.992006852314091   7.199507836623007   5.002978606422314 
 11.184162878891851   0.708189453449441   5.002978606422314 
 -3.733723229187994   9.342313879227682  11.673616748318732 
  1.245083964617601   9.342525211291630  11.673616748318732 
  2.489799672879754   2.874642355632655  11.673616748318732 
  6.223921140565791   9.342449361175110  11.673616748318732 
  7.468754860847899   2.874685293020256  11.673616748318732 
 12.447236577612536   2.874662616184441  11.673616748318732 
 -1.226962050047641   9.342461261947722   5.002978606422314 
 -0.044951700035949   2.848542121553475   5.002978606422314 
  4.937238307952908   2.935629806352827   5.002978606422314 
  3.755894185254027   9.296856757784813   5.002978606422314 
  8.741574416384449   9.365320347085277   5.002978606422314 
  9.940236668059621   2.875848729609161   5.002978606422314 
 -4.978423981067929  11.498107707507907  11.673616748318732 
  0.000473138360075  11.498253157238530  11.673616748318732 
  1.245027452179245   5.030651085736289  11.673616748318732 
  6.224019535997283   5.030699642477367  11.673616748318732 
  4.979189826086570  11.498321068242568  11.673616748318732 
 11.202606215844380   5.030552510362416  11.673616748318732 
 -1.254424488455260   5.017829895121828   5.002978606422314 
 -2.480215002438145  11.513159050223788   5.002978606422314 
  2.488869622526451  11.477995750933797   5.002978606422314 
  7.470694998434679  11.503599853419198   5.002978606422314 
  8.739454823429115   5.042203721403218   5.002978606422314 
  0.000279082745033   7.186589933712278  11.673616748318732 
  1.244952695020389   0.718675592581721  11.673616748318732 
  4.979337766160095   7.186551707090144  11.673616748318732 
  6.224020459750605   0.718754234062294  11.673616748318732 
  9.957930284677527   7.186467142430381  11.673616748318732 
 -2.469466760479696   7.187432233694422   5.002978606422314 
 11.202669038443823   0.718873989648387  11.673616748318732 
  3.727580725808318   0.738115810598374   5.002978606422314 
  2.521563451351455   7.119701392553237   5.002978606422314 
  7.531479339722761   7.222796621854821   5.002978606422314 
  8.695285025068408   0.728168940853006   5.002978606422314 
  2.489854851017377   7.186639176152352  11.673616748318732 
 13.669206688995239   0.702568860085029   5.002978606422314 
 -1.244329672638397   9.342418010571768  11.673616748318732 
  0.000198130609984   2.874609388430659  11.673616748318732 
  4.979353828855744   2.874700461145483  11.673616748318732 
  3.734542231031806   9.342531294127165  11.673616748318732 
  8.713242560112278   9.342329520934703  11.673616748318732 
  9.958047367977805   2.874686842039398  11.673616748318732 
 -3.711004904384516   9.355430310168575   5.002978606422314 
  1.263886251122167   9.311449807863493   5.002978606422314 
  2.427326409818838   2.866734967384468   5.002978606422314 
  6.247018234472916   9.359230528119049   5.002978606422314 
  7.439875529180420   2.916013895968382   5.002978606422314 
 12.421817207305599   2.863110819198507   5.002978606422314 
 -1.244518023267448   5.030565360611270  11.673616748318732 
 -2.488936270523923  11.498139873544961  11.673616748318732 
  2.489830995333944  11.498359704594010  11.673616748318732 
  3.734674779979657   5.030710487226753  11.673616748318732 
  7.468503685934378  11.498207812838070  11.673616748318732 
 -4.967777242014472  11.514632920794549   5.002978606422314 
  8.713373359596945   5.030591634798034  11.673616748318732 
  0.002906577104264  11.499658103752525   5.002978606422314 
  1.206942821548331   4.980501346992218   5.002978606422314 
  0.013631714783959   7.170864194412794   5.002978606422314 
  6.290657468883925   5.100152353332164   5.002978606422314 
  4.971290700279285  11.482315605869267   5.002978606422314 
 11.208371516216010   5.029754222364771   5.002978606422314 
 -2.489101384515622   7.186474493850024  11.673616748318732 
  3.734523299515538   0.718689222395471  11.673616748318732 
  7.468620464952130   7.186505033585152  11.673616748318732 
  8.713401412663394   0.718819537296685  11.673616748318732 
 13.691920523797990   0.718806782025892  11.673616748318732 
 -0.001230807258735   1.436172992770560   1.660808402713912 
  3.733791685679757   7.904628922939079   1.684450799255638 
  4.978118879819966   1.436283855727796   1.665642021885795 
  8.712861099947053   7.904867699136129   1.677160093554700 
  9.956554069556178   1.436667240763804   1.667904622400825 
 -4.979164062570892  10.060340675500909   8.338716686731853 
 -0.001247214760800  10.060364111060265   8.340130312244845 
  1.243033488056250   3.592160716610761   8.349668118351525 
  4.978460294792787  10.060493081902996   8.329435580969253 
  6.223119606561083   3.592986487272798   8.321506413589002 
 11.201330621867044   3.592770642050352   8.338543584524526 
 -2.490253667298814  10.060231365513543   1.665813658439402 
 -1.246238798694249   3.592590089766161   1.660808402713912 
  3.733391915084398   3.593330522031903   1.668609880957635 
  2.488376198461240  10.060466892266207   1.669593689762884 
  7.467907690942756  10.060478077961868   1.673237617288629 
  8.712487039888606   3.592969042575950   1.676521631875360 
 -6.224232676135742  12.215701091899469   8.341950256984953 
 -1.245635480014061  12.215707810821426   8.340130312244845 
 -0.001615269896256   5.748736333472806   8.346571177952987 
  4.977847804037681   5.748456767315808   8.304388777889207 
  3.733081671031056  12.216037634511935   8.338052590443830 
  9.957197744169449   5.748901230997373   8.332719595555972 
 -2.490551631578774   5.748775823469916   1.664006955859688 
 -3.734847041772480  12.215601161658347   1.663328514741392 
  1.243526908769913  12.215930586201779   1.666724668003133 
  2.489225782782504   5.748289476235260   1.668609880957635 
  6.222710265886676  12.215994050205058   1.667413628320116 
  7.468070461700313   5.749145671064548   1.693866357257478 
 -1.245945356524537   7.904696987765078   8.342628698103249 
 -0.001230807258735   1.436172992770560   8.345148810130715 
  3.733791685679758   7.904628922939080   8.321506413589002 
  4.978118879819967   1.436283855727796   8.340315190958847 
  8.712861099947053   7.904867699136130   8.328797119289941 
 -3.734614199708918   7.904717080471073   1.667240526112774 
  9.956554069556178   1.436667240763805   8.338052590443830 
  2.488358378464603   1.435975465004124   1.659386034891601 
  1.243532054982409   7.904777981623822   1.665642021885795 
  6.223555741016078   7.904708398057046   1.693866357257478 
  7.467422310832066   1.436506052411580   1.669593689762884 
  1.243532054982409   7.904777981623822   8.340315190958847 
 12.445726253343427   1.436553407288853   1.665593730923422 
 -2.490253667298799  10.060231365513518   8.340143554405225 
 -1.246238798694248   3.592590089766162   8.345148810130715 
  3.733391915084399   3.593330522031904   8.337347331886965 
  2.488376198461240  10.060466892266207   8.336363523081744 
  7.467907690942757  10.060478077961868   8.332719595555972 
  8.712487039888606   3.592969042575950   8.329435580969253 
 -4.979164062570893  10.060340675500909   1.667240526112774 
 -0.001247214760800  10.060364111060265   1.665826900599795 
  1.243033488056250   3.592160716610760   1.656289094493115 
  4.978460294792786  10.060493081902996   1.676521631875360 
  6.223119606561082   3.592986487272797   1.684450799255638 
 11.201330621867044   3.592770642050351   1.667413628320116 
 -2.490551631578774   5.748775823469917   8.341950256984953 
 -3.734847041772465  12.215601161658347   8.342628698103249 
  1.243526908769913  12.215930586201779   8.339232544841495 
  2.489225782782505   5.748289476235261   8.337347331886965 
  6.222710265886676  12.215994050205058   8.338543584524526 
 -6.224232676135743  12.215701091899469   1.664006955859688 
  7.468070461700314   5.749145671064549   8.312090855587135 
 -1.245635480014061  12.215707810821426   1.665826900599795 
 -0.001615269896256   5.748736333472805   1.659386034891601 
 -1.245945356524537   7.904696987765077   1.663328514741392 
  4.977847804037680   5.748456767315807   1.701568434955395 
  3.733081671031056  12.216037634511935   1.667904622400825 
  9.957197744169449   5.748901230997372   1.673237617288629 
 -3.734614199708917   7.904717080471074   8.338716686731853 
  2.488358378464604   1.435975465004125   8.346571177952987 
  6.223555741016079   7.904708398057047   8.312090855587135 
  7.467422310832067   1.436506052411581   8.336363523081744 
 12.445726253343427   1.436553407288854   8.340363481921205 
  3.689145752169628   5.004424290764700   5.002978606422314 
Generated by cif2cell 2.0.0.  :  Failed to get author information, No journal information. Species order: N B O 
 1.0
 14.936314146199660   0.000000000000000   0.000000000000000
 -7.468157073099825  12.935227489513863   0.000000000000000
  0.000000000000001   0.000000000000001  13.341276283792837
 N B O 
 143 143   1
Cartesian
  1.243848974025015   0.718103300842112   1.664027903249024 
  4.978523904879100   7.185842158344644   1.708691619308476 
  6.222509540787444   0.718380316078779   1.670035690709877 
  9.956901357616768   7.185901496627765   1.674641867306071 
 11.201079425159534   0.717956225990768   1.669637091506539 
 -3.734782205364565   9.341702479047072   8.336745652116733 
  1.244004682663410   9.341403676078151   8.335921522134791 
  2.488523188013518   2.874202335636252   8.341900480520387 
  6.222955088209672   9.341425584084012   8.320058693459748 
  7.467075635256063   2.874475445640918   8.323882252892199 
 12.445838413925918   2.873948533527346   8.338382842560634 
 -1.245482152505606   9.341564050017315   1.667964998338415 
 -0.001121342231499   2.873847590430422   1.661706262223219 
  4.978242009971003   2.874568013241320   1.678404478801929 
  3.733520885074344   9.341181965795824   1.682074959952455 
  8.712238232947321   9.341721266862697   1.674641867306071 
  9.956383857665202   2.874187391286165   1.673273459421892 
 -4.979526445877454  11.497574586330884   8.338601240833540 
 -0.000970836848463  11.497419477763072   8.336718546892174 
  1.244008141251085   5.029765627412758   8.341900480520387 
  6.222998118117938   5.030349592305658   8.297265593536110 
  4.977925533890074  11.497130151428934   8.332683753422764 
 11.201361966219093   5.029993456248457   8.335740662743255 
 -1.245565502950010   5.029895656060389   1.664027903249024 
 -2.490252061991423  11.497568776979678   1.667964998338415 
  2.488389203219677  11.497191487541746   1.670422226759842 
  3.733460210782335   5.030009255373677   1.682687633382933 
  7.467397406056939  11.497409788110925   1.670216550101400 
  8.712003716450186   5.030266897461795   1.685898519384880 
 -0.000605808350718   7.185731617159989   8.341043208283974 
  1.243848974025015   0.718103300842113   8.341929309595603 
  4.978523904879101   7.185842158344645   8.297265593536110 
  6.222509540787445   0.718380316078780   8.335921522134791 
  9.956901357616768   7.185901496627766   8.331315345538556 
 -2.490114313402914   7.185786291906564   1.667355972011087 
 11.201079425159534   0.717956225990769   8.336320121338128 
  3.733337530028905   0.718352042503086   1.664914004560787 
  2.489184238325383   7.185742536705736   1.678404478801929 
  7.467681134522797   7.185962710908856   1.695793386475989 
  8.711668810961882   0.718155017224861   1.670422226759842 
  2.489184238325384   7.185742536705737   8.327552734042712 
 13.690603028233184   0.717952978083269   1.667574370283981 
 -1.245482152505606   9.341564050017315   8.337992214506146 
 -0.001121342231499   2.873847590430423   8.344250950621408 
  4.978242009971004   2.874568013241321   8.327552734042712 
  3.733520885074344   9.341181965795824   8.323882252892199 
  8.712238232947321   9.341721266862697   8.331315345538556 
  9.956383857665202   2.874187391286166   8.332683753422764 
 -3.734782205364565   9.341702479047072   1.669211560727855 
  1.244004682663410   9.341403676078151   1.670035690709877 
  2.488523188013517   2.874202335636252   1.664056732324253 
  6.222955088209671   9.341425584084012   1.685898519384880 
  7.467075635256062   2.874475445640917   1.682074959952455 
 12.445838413925918   2.873948533527345   1.667574370283981 
 -1.245565502950010   5.029895656060390   8.341929309595603 
 -2.490252061991423  11.497568776979678   8.337992214506146 
  2.488389203219678  11.497191487541746   8.335534986084784 
  3.733460210782335   5.030009255373678   8.323269579461682 
  7.467397406056940  11.497409788110925   8.335740662743255 
 -4.979526445877455  11.497574586330884   1.667355972011087 
  8.712003716450186   5.030266897461796   8.320058693459748 
 -0.000970836848463  11.497419477763072   1.669238665952467 
  1.244008141251085   5.029765627412758   1.664056732324253 
 -0.000605808350719   7.185731617159988   1.664914004560787 
  6.222998118117937   5.030349592305657   1.708691619308476 
  4.977925533890073  11.497130151428934   1.673273459421892 
 11.201361966219093   5.029993456248456   1.670216550101400 
 -2.490114313402913   7.185786291906565   8.338601240833540 
  3.733337530028905   0.718352042503086   8.341043208283974 
  7.467681134522798   7.185962710908857   8.310163826368585 
  8.711668810961882   0.718155017224862   8.335534986084784 
 13.690603028233184   0.717952978083270   8.338382842560634 
 -0.023183121239849   1.420593415455164   5.002978606422314 
  3.786442730043337   7.804911914138606   5.002978606422314 
  4.956009996620235   1.491712158378730   5.002978606422314 
  8.755693488383471   7.929596990129998   5.002978606422314 
  9.940195766156025   1.438518274719766   5.002978606422314 
 -4.978454865497945  10.060909181058776  11.673616748318732 
  0.000467861160715  10.061038211099161  11.673616748318732 
  1.245120859946154   3.593365861333288  11.673616748318732 
  4.979226674403964  10.060986532651748  11.673616748318732 
  6.223980046529134   3.593455057567982  11.673616748318732 
 11.202649385017034   3.593367907500436  11.673616748318732 
 -2.468350926485582  10.072876918818078   5.002978606422314 
 -1.270707265420102   3.581368616844259   5.002978606422314 
  3.653529259347434   3.595576358326245   5.002978606422314 
  2.510358045171463  10.021733242476863   5.002978606422314 
  7.486681120271113  10.068647995508950   5.002978606422314 
  8.693442783492458   3.611304889796319   5.002978606422314 
 -6.223095910225028  12.216802711154768  11.673616748318732 
 -1.244194154295019  12.216856060119587  11.673616748318732 
  0.000385071863963   5.749234805000355  11.673616748318732 
  4.979318202543062   5.749305702288819  11.673616748318732 
  3.734499892896545  12.216881694035344  11.673616748318732 
  9.957937529412217   5.749197856991878  11.673616748318732 
 -2.484126329543014   5.748282394103447   5.002978606422314 
 -3.725469822568739  12.238167778113933   5.002978606422314 
  1.243997265154206  12.216202146586824   5.002978606422314 
  2.451239406197663   5.678003469406187   5.002978606422314 
  6.213876244615326  12.202305527068201   5.002978606422314 
  7.499934816048485   5.792515797935285   5.002978606422314 
 -1.244326824360168   7.905079279499090  11.673616748318732 
  0.000369435356961   1.437447758924662  11.673616748318732 
  3.734627699442836   7.905139800662314  11.673616748318732 
  4.979262728218345   1.437556654163891  11.673616748318732 
  8.713178595273133   7.905051005148149  11.673616748318732 
 -3.706346454976039   7.916007766097001   5.002978606422314 
  9.957994157478604   1.437473427165636  11.673616748318732 
  2.475420285266583   1.443023575812455   5.002978606422314 
  1.280479931566904   7.857916975798085   5.002978606422314 
  6.277047549825577   7.910618674962384   5.002978606422314 
  7.444868909488328   1.474909714979378   5.002978606422314 
  1.245206254961116   7.905132184176912  11.673616748318732 
 12.426998491461482   1.425740928924933   5.002978606422314 
 -2.488996276337937  10.060957320523267  11.673616748318732 
 -1.244334697513049   3.593338557446497  11.673616748318732 
  3.734590149604282   3.593431088001766  11.673616748318732 
  2.489878429289756  10.061021064523969  11.673616748318732 
  7.468534469210790  10.060970437778227  11.673616748318732 
  8.713297570578181   3.593386021413709  11.673616748318732 
 -4.955252169626287  10.079175917734362   5.002978606422314 
  0.021915346033338  10.050930991630899   5.002978606422314 
  1.194843918520690   3.564338455667230   5.002978606422314 
  4.984817476087484  10.034832348457524   5.002978606422314 
  6.163087665932229   3.688442133627738   5.002978606422314 
 11.185059002454590   3.591964416780167   5.002978606422314 
 -2.489029218363030   5.749209481999102  11.673616748318732 
 -3.733706701337006  12.216811705762566  11.673616748318732 
  1.245172553085659  12.216880699390467  11.673616748318732 
  2.489911992727110   5.749276894784227  11.673616748318732 
  6.223886894514299  12.216837499869396  11.673616748318732 
 -6.221447347484198  12.221512281372659   5.002978606422314 
  7.468582058639972   5.749248973664042  11.673616748318732 
 -1.242223520679846  12.240483736600689   5.002978606422314 
 -0.001980473486566   5.734007560682625   5.002978606422314 
 -1.221713483794714   7.901534589584657   5.002978606422314 
  3.726505561760140  12.200945411226556   5.002978606422314 
  9.973659814976246   5.761074538938304   5.002978606422314 
 -3.733767260917146   7.905047010373615  11.673616748318732 
  2.489790238350635   1.437458576020952  11.673616748318732 
  6.223901002161325   7.905099802703580  11.673616748318732 
  7.468653353499698   1.437529936342403  11.673616748318732 
 12.447358389300781   1.437495721423186  11.673616748318732 
  1.228970225783606   0.716464074812089   5.002978606422314 
  5.072804544565342   7.209535494398300   5.002978606422314 
  6.206509514201243   0.750575193538600   5.002978606422314 
  9.992006852314091   7.199507836623007   5.002978606422314 
 11.184162878891851   0.708189453449441   5.002978606422314 
 -3.733723229187994   9.342313879227682  11.673616748318732 
  1.245083964617601   9.342525211291630  11.673616748318732 
  2.489799672879754   2.874642355632655  11.673616748318732 
  6.223921140565791   9.342449361175110  11.673616748318732 
  7.468754860847899   2.874685293020256  11.673616748318732 
 12.447236577612536   2.874662616184441  11.673616748318732 
 -1.226962050047641   9.342461261947722   5.002978606422314 
 -0.044951700035949   2.848542121553475   5.002978606422314 
  4.937238307952908   2.935629806352827   5.002978606422314 
  3.755894185254027   9.296856757784813   5.002978606422314 
  8.741574416384449   9.365320347085277   5.002978606422314 
  9.940236668059621   2.875848729609161   5.002978606422314 
 -4.978423981067929  11.498107707507907  11.673616748318732 
  0.000473138360075  11.498253157238530  11.673616748318732 
  1.245027452179245   5.030651085736289  11.673616748318732 
  6.224019535997283   5.030699642477367  11.673616748318732 
  4.979189826086570  11.498321068242568  11.673616748318732 
 11.202606215844380   5.030552510362416  11.673616748318732 
 -1.254424488455260   5.017829895121828   5.002978606422314 
 -2.480215002438145  11.513159050223788   5.002978606422314 
  2.488869622526451  11.477995750933797   5.002978606422314 
  7.470694998434679  11.503599853419198   5.002978606422314 
  8.739454823429115   5.042203721403218   5.002978606422314 
  0.000279082745033   7.186589933712278  11.673616748318732 
  1.244952695020389   0.718675592581721  11.673616748318732 
  4.979337766160095   7.186551707090144  11.673616748318732 
  6.224020459750605   0.718754234062294  11.673616748318732 
  9.957930284677527   7.186467142430381  11.673616748318732 
 -2.469466760479696   7.187432233694422   5.002978606422314 
 11.202669038443823   0.718873989648387  11.673616748318732 
  3.727580725808318   0.738115810598374   5.002978606422314 
  2.521563451351455   7.119701392553237   5.002978606422314 
  7.531479339722761   7.222796621854821   5.002978606422314 
  8.695285025068408   0.728168940853006   5.002978606422314 
  2.489854851017377   7.186639176152352  11.673616748318732 
 13.669206688995239   0.702568860085029   5.002978606422314 
 -1.244329672638397   9.342418010571768  11.673616748318732 
  0.000198130609984   2.874609388430659  11.673616748318732 
  4.979353828855744   2.874700461145483  11.673616748318732 
  3.734542231031806   9.342531294127165  11.673616748318732 
  8.713242560112278   9.342329520934703  11.673616748318732 
  9.958047367977805   2.874686842039398  11.673616748318732 
 -3.711004904384516   9.355430310168575   5.002978606422314 
  1.263886251122167   9.311449807863493   5.002978606422314 
  2.427326409818838   2.866734967384468   5.002978606422314 
  6.247018234472916   9.359230528119049   5.002978606422314 
  7.439875529180420   2.916013895968382   5.002978606422314 