 B N Al 
 1.0
 17.527899999999772   0.000000000000000   0.000000000000000
 -8.763949999999658  15.179606674993195   0.000000000000000
  0.000000000000001   0.000000000000002  15.000000000000000
 B N Al 
  48  48   1
Cartesian
  7.527736639170696  14.466502932019210   1.665335100886470 
 15.022584216141929   1.446465196188866   1.665717735115065 
 13.763756299612439   3.613790288305536   1.665795472520865 
 12.513375402511620   5.782202976536316   1.664768637181470 
 11.279205228281638   7.951788315433632   1.665198222337800 
 10.049075044092689  10.127174826633215   1.666113157129695 
  8.798886587269925  12.307661760173811   1.665480817095690 
 -7.494452680605445  14.446682509878983   1.665263615807745 
 -0.000523009804667   1.427174727423254   1.665335100886470 
 -1.261422572041843   3.600556510482430   1.664964227913885 
 -2.510264877466913   5.773774926581090   1.665249737105370 
 -3.744722741652938   7.943259941992361   1.665091539004230 
 -4.980982864176842  10.112395205968397   1.665935822519265 
 -6.232340563107010  12.282022722383189   1.665994811930850 
 -4.988746255334252  14.435991247449046   1.665994811930850 
  2.504663261798629   1.405747166272820   1.665480817095690 
  1.233063346909462   3.564783341308208   1.664722268264400 
 -0.014119120310902   5.757491183373800   1.664934049695555 
 -1.238814822744371   7.933956148654038   1.665976682297790 
 -2.473749706576794  10.104350256233754   1.665749530638855 
 -3.728926077848293  12.272654712136418   1.665450843200865 
 -2.484114859886771  14.437097449161625   1.665935822519265 
  5.018114567293832   1.413295669916380   1.666113157129695 
  3.737312565305211   3.532857661983039   1.664920919250120 
  2.449135392116813   5.707203822593420   1.665251764104600 
  1.277605584446186   7.906859999034459   1.666506360809715 
  0.043339611756149  10.094736100798526   1.666666778735085 
 -1.223531150244402  12.269792316336625   1.665749530638855 
  0.012541444223102  14.451032409358255   1.665091539004230 
  7.517119641137147   1.435664936046473   1.665198222337800 
  6.252464950002787   3.591587711108724   1.665263478122250 
  4.942031561481013   5.663335558119289   1.666878476782755 
  2.555246596231149  10.119737783328796   1.666506360809715 
  1.273552725059884  12.285504388707983   1.665976682297790 
  2.508599512774623  14.466703046777260   1.665249737105370 
 10.013120747398059   1.451634882018865   1.664768637181470 
  8.751562784578208   3.621163732395657   1.664964265757235 
  7.483544578432384   5.799131760451868   1.665654663497520 
  6.330391030905291   8.068044698362101   1.666878476782755 
  5.045951914768896  10.205021977791262   1.665251764104600 
  3.770774526638681  12.313119281135053   1.664934049695555 
  5.015083021800788  14.471783093007732   1.664964227913885 
 12.516211669844822   1.452979604838145   1.665795472520865 
 11.258166134724314   3.619852988837719   1.665442927399845 
 10.003729322432275   5.789979795496478   1.664964265757235 
  8.779793990913166   7.969050017440168   1.665263478122250 
  7.573079513072826  10.176600901540034   1.664920919250120 
  6.293306454555038  12.329381502400425   1.664722268264400 
  8.782745032236889  13.743126108532481   1.664736657570435 
 16.276104334294491   0.722738751607977   1.665136023652200 
 15.013999591650657   2.887682615441065   1.665178040163090 
 13.760758960668397   5.059868891664398   1.664824323312630 
 12.525294780366853   7.225933808213604   1.664227759929375 
 11.291898469294392   9.395737154154254   1.665518599925070 
 10.043927406578536  11.569961654624198   1.665620012983500 
 -6.240757936019360  13.722855244679550   1.665119276785440 
  1.253438465055225   0.701984588412264   1.664736657570435 
 -0.016067977268589   2.862741483498946   1.664491755892050 
 -1.266656804187337   5.042933702469596   1.664474998809390 
 -2.498765497892803   7.217737319503822   1.665065877887820 
 -3.732677462455073   9.387653658153056   1.665195692324490 
 -4.982237845463562  11.556002830356219   1.665415842404340 
 -3.734948653685671  13.716371082246766   1.665415842404340 
  3.766045275912079   0.696350840381328   1.665620012983500 
  2.486751739579830   2.836650114917963   1.664406274615575 
  1.213585214125043   4.995889294467103   1.664184784641465 
  0.001440911065522   7.203302609655568   1.665559637363280 
 -1.223251491391379   9.380783223740153   1.665896069263425 
 -2.477625479491723  11.550209707907145   1.665178041369240 
 -1.232322994778679  13.718394633100361   1.665195692324490 
  6.272964458207389   0.702688447116466   1.665518599925070 
  5.009388766548018   2.854245820018720   1.664848149525750 
  3.713932482416134   4.960393318305374   1.664505979834260 
  2.470642849733788   7.118433001905862   1.665761137374750 
  1.297659894579943   9.370547680919103   1.666657995146790 
  0.028339961489683  11.548603210449308   1.665896069263425 
  1.263835660842055  13.734753695080435   1.665065877887820 
  8.768767432527131   0.719437581763991   1.664227759929375 
  7.508227558530288   2.884285923777437   1.664583885292545 
  6.231636955154061   5.048166675732735   1.665378359301840 
  3.834539896400671   9.480771983056208   1.665761137374750 
  2.526439690745979  11.576728785142089   1.665559637363280 
  3.763325188288704  13.755118074624933   1.664474998809390 
 11.262342193994806   0.732526674431700   1.664824323312630 
 10.004769945126572   2.900070979855784   1.664517157442640 
  8.738339853009039   5.074669103955997   1.664517882701175 
  7.507940180184894   7.258788707350112   1.665378359301840 
  6.325101901114738   9.483071418691784   1.664505979834260 
  5.044187849880960  11.630687683234155   1.664184784641465 
  6.276721448527416  13.762172490309588   1.664491755892050 
 13.770155579125753   0.733281589057837   1.665178040163090 
 12.510279416882524   2.896938781396733   1.665536621898555 
 11.254812117578121   5.065207534115216   1.664517157442640 
 10.020211183844022   7.235169190571420   1.664583885292545 
  8.796807280831517   9.414247116284656   1.664848149525750 
  7.550727094962025  11.607712718716861   1.664406274615575 
  4.171967545633525   7.711065384839348   1.668722615106645 
