 B P N 
 1.0
 17.527899999999772   0.000000000000000   0.000000000000000
 -8.763949999999658  15.179606674993195   0.000000000000000
  0.000000000000001   0.000000000000002  15.000000000000000
 B P N 
  47   1  49
Cartesian
  7.504796148839663  14.462425711704137   1.665018074667225 
 15.022091372266125   1.449605947953139   1.665447133676040 
 13.778330400136005   3.613409516360469   1.665873787002990 
 12.538922029872163   5.777611375091756   1.663570220939130 
 11.299438153540917   7.942917383512479   1.665728203980855 
  9.997222824407761  10.098809586289368   1.665319099874295 
  8.742359419595145  12.275445620583692   1.665364356353670 
 -7.531460439152582  14.455592344336720   1.665268953990315 
 -0.009550447594058   1.446395514689292   1.664738933286225 
 -1.255503415252771   3.615402690610152   1.664763790813455 
 -2.504126377022589   5.786544700382746   1.664951628826650 
 -3.754914990189434   7.957770062069268   1.664704956503550 
 -5.024730957507304  10.123139907325390   1.664851294687515 
 -6.286631990207037  12.284685387615159   1.664861314266420 
 -5.031639257507267  14.459871306272213   1.664894292848760 
  2.491075699476396   1.448294212593991   1.665362526150435 
  1.242150066520787   3.605220354359230   1.664214840682260 
 -0.013410859403998   5.782445000210978   1.664311732512405 
 -1.277329879713924   7.963478545998118   1.665868809096660 
 -2.527090319984104  10.132670909638346   1.666821471453450 
 -3.783151734350978  12.296191299176446   1.665194769579135 
 -2.527485326817565  14.463431622351852   1.665361001975115 
  4.995128473672870   1.448982440881032   1.666226918186040 
  3.758934827822501   3.617230620111038   1.665716307600930 
  2.491258646183874   5.742528947155233   1.663822468635945 
  1.189123141893826   7.966129459216110   1.664672594729325 
 -0.031308923573075  10.139853524833486   1.667211865524105 
 -1.280491260756665  12.302288132310350   1.666362997731870 
 -0.021401807262103  14.466652948822862   1.665185499889695 
  7.505693939290603   1.438324738684477   1.665248158929045 
  6.281393803613897   3.598851557014227   1.666656083360835 
  5.093519801189061   5.759900552317920   1.669912998741675 
  2.448328266520566  10.190445041176309   1.664824409015985 
  1.218996881679784  12.320859304493778   1.665502863174840 
  2.490453901468751  14.471434423351694   1.665180154822410 
 10.017486287640441   1.434686467463940   1.665098500855320 
  8.794505217722863   3.576290599238082   1.665046615170480 
  7.604438712769161   5.760582121789169   1.664483767854735 
  5.012949632863847  10.202062526531400   1.665226821394995 
  3.737712918911649  12.330862877049098   1.664894378102220 
  5.005142250493172  14.468056619906825   1.665055633772565 
 12.521866928839728   1.445595308514764   1.666101532425570 
 11.285716603547465   3.600067044913553   1.663786498182975 
 10.059056177365369   5.755877781757743   1.665417993451155 
  8.802339151606500   7.878541494309339   1.665236716169220 
  7.505879234312319  10.060367675976121   1.665532214467320 
  6.261686035160408  12.301858905237008   1.664836691668830 
  3.853524987411025   7.945755347635976   1.668752002164825 
  8.749661695370268  13.735218856540111   1.665394077367725 
 16.270056057130475   0.729916371215809   1.664547415729755 
 15.026644473184978   2.893354365741541   1.665401475510855 
 13.787385733648421   5.055908163418355   1.664847698298075 
 12.550006045827210   7.222275736858372   1.663481990574975 
 11.273422367550598   9.393758136500386   1.664209775539335 
 10.001914886410571  11.559695223611261   1.665609585897825 
 -6.279796765301676  13.735608634067949   1.664486946230595 
  1.238771890258850   0.725416282324882   1.664860543873500 
 -0.009122720903463   2.890607426322251   1.664262955509825 
 -1.256095568551665   5.059868891664398   1.664435107797660 
 -2.508722088517218   7.232535361801311   1.664730311922810 
 -3.765169083108200   9.404339535149617   1.665453782895885 
 -5.026152287395176  11.571311271300612   1.664317322012085 
 -3.778656176839522  13.739876310734619   1.664882454619590 
  3.739313144119948   0.724186193289966   1.665360108124890 
  2.495330084142905   2.892451653650140   1.664621367039225 
  1.232319284010763   5.047796768631371   1.663739487125175 
 -0.036807834170910   7.232275590316764   1.664620221421905 
 -1.275547842541552   9.409903300802760   1.667106537301605 
 -2.528182243000652  11.577132486714881   1.666321994562825 
 -1.275069346688611  13.743087780906164   1.665370393356270 
  6.245266309378959   0.720988716328949   1.665294626417565 
  5.005704997590460   2.883890589934333   1.666775481534600 
  3.762463102065419   5.059868891664398   1.664902878608340 
  2.396151281578491   7.191769198609825   1.662751440412020 
  1.216557070198468   9.417558097874791   1.666198175782785 
 -0.029207116052561  11.584519557456719   1.666419173102220 
  1.229793889696737  13.755864976352141   1.664760005216775 
  8.757599686321473   0.719246144997955   1.664824270242480 
  7.528350812385380   2.862975337473517   1.665440547220080 
  6.318296276540337   5.010088393682716   1.666747061173275 
  5.176498053237736   7.157506774390272   1.679083969055805 
  3.711966115098704   9.548699068483803   1.663006695392745 
  2.466452903863502  11.619528376283196   1.664671388728395 
  3.737049396658177  13.766716141251313   1.664551106799375 
 11.266573050158126   0.725198616597313   1.665722159575860 
 10.043670033203595   2.861519983738149   1.663637841638685 
  8.840176124682342   4.986106622646952   1.666124871819300 
  7.729964654928795   7.086712360150154   1.658844300933345 
  6.210301692948381   9.482917504140138   1.667099911860645 
  4.985906569703812  11.642504651324380   1.665090981028290 
  6.255691379785474  13.753796755435435   1.664731687902480 
 13.772187217479177   0.731251092497225   1.665534325280100 
 12.535650045934688   2.883991755817326   1.665829641138735 
 11.310222004426571   5.036115003590672   1.661913977831970 
 10.101011529947822   7.198164247619012   1.668414488818635 
  8.779515073138271   9.362557382936950   1.665056443570740 
  7.499300274862811  11.560415300909215   1.664064811843050 
