 Sb B N 
 1.0
 17.527899999999772   0.000000000000000   0.000000000000000
 -8.763949999999658  15.179606674993195   0.000000000000000
  0.000000000000001   0.000000000000002  15.000000000000000
 Sb B N 
   1  48  48
Cartesian
  4.221031422531447   7.682774357420173   3.211009177367910 
  7.509039940421156  14.461617471254394   1.464109629932505 
 15.017027536846935   1.449623886139412   1.492943605544685 
 13.762679527668828   3.618221697332935   1.558024547149845 
 12.509191735277705   5.785654445889296   1.616939269104825 
 11.253611234970748   7.950991479830852   1.644086509216965 
 10.003977137589834  10.115587848485974   1.600180546445760 
  8.757526771791987  12.286993562499127   1.511718767923005 
 -7.513769347009420  14.457882225361811   1.479330670951335 
 -0.005624633597578   1.445738885925612   1.464194558077875 
 -1.260304738830020   3.616038929232810   1.513708345129275 
 -2.511563483896253   5.783905954232683   1.590525229424850 
 -3.758711137739621   7.950086543613827   1.623740692803405 
 -5.010390525921185  10.119737783328796   1.604138906161830 
 -6.261955380740861  12.286288270687136   1.540945990334895 
 -5.007198298111016  14.459604774233293   1.542288408925455 
  2.502001269001391   1.451957505606836   1.512933212109315 
  1.240411805900787   3.608871452143743   1.520887806576285 
 -0.008014182738203   5.780312450835175   1.631265423858615 
 -1.243366560544247   7.945105546374201   1.698385909913730 
 -2.492423867865066  10.114023266946937   1.671363892065285 
 -3.751788780108757  12.285883802847282   1.602411329621205 
 -2.505246209434596  14.458951503539271   1.607544251200860 
  5.005701554078704   1.458166336270700   1.603182473312625 
  3.749314101203989   3.632554679138100   1.622378264286765 
  2.467561841085498   5.760754776683600   1.800395905169595 
  1.276893682788906   7.917033595476559   1.969200753562725 
  0.028854952801303  10.102983769093687   1.821328063740075 
 -1.241287894107463  12.281108959275324   1.673625686308845 
 -0.000343844011199  14.459654492830133   1.628644971187755 
  7.505077731120648   1.458177547421752   1.648529096070810 
  6.245909547358973   3.639823622707813   1.762677261916890 
  4.982973259557385   5.821689983761751   1.922872007632605 
  2.545946451472215  10.115087703728332   1.970121906274620 
  1.261647730431529  12.283821154115786   1.702018247849010 
  2.499179781879578  14.462687417005712   1.594695314999910 
 10.008106508204218   1.453478159428676   1.620970918969935 
  8.753365017522857   3.624344653835568   1.721683087222635 
  7.498736755712775   5.790458347605531   1.884864693940170 
  6.213886590348311   7.953480806656222   1.922576941147020 
  5.008766071880309  10.162199617369899   1.800384335037165 
  3.754075752146758  12.296380150562241   1.633354890009585 
  5.002129572021955  14.463098317747203   1.515264522586905 
 12.511797227538409   1.451628014946505   1.559844011982540 
 11.257558699677341   3.620196247921600   1.629158122293705 
 10.001866012019896   5.786862140047420   1.719542811496500 
  8.734757123317763   7.950628953400394   1.760369804528445 
  7.492721105580661  10.116433603403802   1.621109826181680 
  6.258703700623988  12.300985511684832   1.520866638871740 
  8.762121668924959  13.736475896609015   1.469157144071340 
 16.269605020981036   0.726478529738341   1.461384414627840 
 15.013227168305409   2.894071681928652   1.513998484796115 
 13.762319771338834   5.059868891664398   1.582493063914230 
 12.511117222749620   7.230526678731436   1.620979589610420 
 11.263619003075963   9.397132995955669   1.612040828380920 
 10.013806541631375  11.564978760050666   1.540891909865670 
 -6.259660799278942  13.733844690621503   1.512317212091070 
  1.248951453069690   0.723213547215652   1.469749900308360 
 -0.013238442643392   2.885646331377985   1.478425627038150 
 -1.267156740594125   5.059868891664398   1.564810816787490 
 -2.507735326759311   7.228319706160531   1.626939879239220 
 -3.753734010300260   9.396428172530007   1.629225188610780 
 -5.006793778275223  11.564493319650122   1.580409138300915 
 -3.754534942529667  13.733488320662952   1.582212042705885 
  3.755427788937271   0.725007274718558   1.542967866656865 
  2.497309656688793   2.891002067852229   1.537519514582985 
  1.224762017082378   5.038342516315486   1.590698432291520 
 -0.001830570700179   7.221359180568935   1.737418953913200 
 -1.242069729796997   9.393141123931233   1.738222050502170 
 -2.499399605957290  11.562802966100698   1.652682008020815 
 -1.250446256827163  13.732321542869766   1.633160261077455 
  6.257732272054061   0.726509109860538   1.616092787990430 
  5.003324425361765   2.898647409171916   1.660005216523305 
  3.740485846865105   5.059868891664398   1.703177362556835 
  2.445739898933548   7.127782436038286   2.145071651996670 
  1.272229717196870   9.385095768240340   1.980351903437040 
  0.008162273645132  11.558699171490268   1.740843605221770 
  1.250208253359680  13.737207497932623   1.631874239728965 
  8.757771726383154   0.729346770328118   1.626079032656370 
  7.501821229341565   2.903132441697331   1.711934787480630 
  6.246411435799581   5.078823621265361   1.904728805031300 
  3.814044105474268   9.497408529250295   2.145071460380820 
  2.509167759522067  11.570526741886006   1.739942054040405 
  3.748392518912899  13.747069277189668   1.567726598392545 
 11.263161157778669   0.731108187548492   1.586301512826390 
 10.007057029300393   2.897944624282046   1.651914262313220 
  8.756747583663813   5.064108085812348   1.789595266870035 
  7.488930453247381   7.230819630567325   1.903807581529830 
  6.252195647781437   9.410355045839287   1.702655291449215 
  5.012959260532312  11.599747229249109   1.591224069343170 
  6.258200905039341  13.748273201022197   1.478781941721300 
 13.764191937076967   0.730724237874675   1.515321022516230 
 12.510249885973202   2.896923806451807   1.579436488311480 
 11.257754125446604   5.064253030108298   1.649560351278690 
 10.000638604559690   7.231317121267707   1.708313348399235 
  8.755249427462186   9.397401773209452   1.657698648171960 
  7.508897574098259  11.571441440836889   1.536611451128805 
