B N Sb                                  
   1.0000000000000000     
     8.7639499999999995  -15.1796066749929999    0.0000000000000000
     8.7639499999999995   15.1796066749929999    0.0000000000000000
     0.0000000000000000    0.0000000000000000   15.0000000000000000
   B    N    Sb
    48    48     1
Selective dynamics
Direct
  0.9047552005869036  0.9527004079149417  0.0976073086621674   T   T   T
  0.9044990145843720  0.0954981190999842  0.0995295737029793   T   T   T
  0.9043673685160156  0.2383607016177552  0.1038683031433231   T   T   T
  0.9042464235333463  0.3811465323024840  0.1077959512736546   T   T   T
  0.9039370549909325  0.5237943017936872  0.1096057672811308   T   T   T
  0.9039425433123492  0.6663932778410088  0.1066787030963841   T   T   T
  0.9043539621193651  0.8094408389869976  0.1007812511948669   T   T   T
  0.0475523506931720  0.9524543379097992  0.0986220447300887   T   T   T
  0.0473001957661481  0.0952421836006666  0.0976129705385254   T   T   T
  0.0472056726911182  0.2382169055269299  0.1009138896752851   T   T   T
  0.0472262036951012  0.3810313454143094  0.1060350152949899   T   T   T
  0.0474257308802822  0.5237346865324746  0.1082493795202270   T   T   T
  0.0474810335186720  0.6664827757937519  0.1069425937441215   T   T   T
  0.0474407350385083  0.8093943758719060  0.1027297326889930   T   T   T
  0.1906137307189074  0.9525678157428130  0.1028192272616973   T   T   T
  0.1905698529610170  0.0956518529560307  0.1008622141406211   T   T   T
  0.1896402141880487  0.2377447274763035  0.1013925204384186   T   T   T
  0.1899400821976137  0.3807946131013808  0.1087510282572408   T   T   T
  0.1907668497307020  0.5234065490947755  0.1132257273275821   T   T   T
  0.1909475857288505  0.6662902065577708  0.1114242594710194   T   T   T
  0.1906371864682814  0.8093677303962675  0.1068274219747471   T   T   T
  0.3335222000178242  0.9525247796676362  0.1071696167467243   T   T   T
  0.3336152237774004  0.0960608774318823  0.1068788315541746   T   T   T
  0.3335579574878004  0.2393049277832965  0.1081585509524510   T   T   T
  0.3305321893746059  0.3795061953860664  0.1200263936779727   T   T   T
  0.3336278253710097  0.5215572290498826  0.1312800502375146   T   T   T
  0.3344277039180874  0.6655629480661903  0.1214218709160051   T   T   T
  0.3337087540137211  0.8090531739209793  0.1115750457539229   T   T   T
  0.4762659285945883  0.9525710910975642  0.1085763314125174   T   T   T
  0.4762097530594623  0.0960616159985190  0.1099019397380540   T   T   T
  0.4762329027283430  0.2397837902285069  0.1175118174611255   T   T   T
  0.4760483308793855  0.3835204764134222  0.1281914671755066   T   T   T
  0.4784312473311887  0.6663603293747968  0.1313414604183085   T   T   T
  0.4765953240512191  0.8092318475123663  0.1134678831899335   T   T   T
  0.6189684021071026  0.9527708936511156  0.1063130209999942   T   T   T
  0.6188575080193131  0.0957520303752749  0.1080647279313290   T   T   T
  0.6187781410808405  0.2387640688876543  0.1147788724815087   T   T   T
  0.6185486818976704  0.3814630030661269  0.1256576462626783   T   T   T
  0.6164931837279866  0.5239582933172274  0.1281717960764676   T   T   T
  0.6204916023327081  0.6694639614154857  0.1200256223358107   T   T   T
  0.6192067584897074  0.8100592073192012  0.1088903260006386   T   T   T
  0.7617799781542119  0.9527979629125456  0.1010176348391271   T   T   T
  0.7616368790745685  0.0956301468165121  0.1039896007988362   T   T   T
  0.7615105048485132  0.2384907807845575  0.1086105414862472   T   T   T
  0.7612385069711476  0.3812260926088856  0.1146361874330995   T   T   T
  0.7602197005796660  0.5237704193283358  0.1173579869685627   T   T   T
  0.7606984732765929  0.6664489943648911  0.1080739884121120   T   T   T
  0.7622522376949230  0.8103625986534564  0.1013911092581164   T   T   T
  0.9523605067092415  0.9049296329422301  0.0979438096047559   T   T   T
  0.9521413059000876  0.0478588507128542  0.0974256276418562   T   T   T
  0.9518607610107970  0.1906552484456880  0.1009332323197408   T   T   T
  0.9518331595915995  0.3335071128150425  0.1054995375942824   T   T   T
  0.9519488214274424  0.4763316226528426  0.1080653059740276   T   T   T
  0.9521423711854647  0.6190630098101586  0.1074693885587283   T   T   T
  0.9522447151067114  0.7618760490746282  0.1027261273243777   T   T   T
  0.0952526046964925  0.9047562947231408  0.1008211474727381   T   T   T
  0.0950769338732100  0.0476437606520507  0.0979833266872237   T   T   T
  0.0942948238844194  0.1901002043835423  0.0985617084692101   T   T   T
  0.0943729668740948  0.3332235149653247  0.1043207211191660   T   T   T
  0.0950220506381840  0.4761862320232856  0.1084626586159476   T   T   T
  0.0953506309672440  0.6190165775513564  0.1086150125740521   T   T   T
  0.0952749361227638  0.7618440692999915  0.1053606092200613   T   T   T
  0.2381630564025036  0.9047328178329826  0.1054808028470586   T   T   T
  0.2381352548885207  0.0477619275809652  0.1028645244437908   T   T   T
  0.2377027755059666  0.1904530288399933  0.1025013009721988   T   T   T
  0.2358326111597290  0.3319152217965984  0.1060465621527683   T   T   T
  0.2377594062104523  0.4757276874943908  0.1158279302608796   T   T   T
  0.2385375787539126  0.6188000338246873  0.1158814700334783   T   T   T
  0.2382708595500532  0.7617327124258894  0.1101788005347210   T   T   T
  0.3809876415627089  0.9046559530091335  0.1088773507384968   T   T   T
  0.3809459491553943  0.0478608652658564  0.1077395191993624   T   T   T
  0.3809275091330395  0.1909566875633962  0.1106670144348868   T   T   T
  0.3800684915780983  0.3334986630373679  0.1135451575037888   T   T   T
  0.3743156343375577  0.4695630518398453  0.1430047767997777   T   T   T
  0.3817181342522916  0.6182700230106288  0.1320234602291361   T   T   T
  0.3811968548306873  0.7614623632199911  0.1160562403481177   T   T   T
  0.5238156710276004  0.9049778292716385  0.1087916159819306   T   T   T
  0.5236714198828605  0.0480478042642333  0.1084052688437581   T   T   T
  0.5236192313995807  0.1912521519071992  0.1141289858320424   T   T   T
  0.5236606564793150  0.3345820303520902  0.1269819203354201   T   T   T
  0.5304329369999089  0.6256689473315722  0.1430047640253884   T   T   T
  0.5242735575063532  0.7622415382440203  0.1159961369360274   T   T   T
  0.6667750481962434  0.9056275021826831  0.1045151065595032   T   T   T
  0.6664930179468894  0.0481638426608852  0.1057534341884259   T   T   T
  0.6663768128655664  0.1909103895989679  0.1101276174875484   T   T   T
  0.6663953896481034  0.3336126023709775  0.1193063511246688   T   T   T
  0.6654331730222713  0.4763509216928089  0.1269205054353218   T   T   T
  0.6665011719570820  0.6199340501583516  0.1135103527632813   T   T   T
  0.6680821117116613  0.7641665214131319  0.1060816046228782   T   T   T
  0.8098956599787732  0.9057068141081044  0.0985854627814203   T   T   T
  0.8093425779766807  0.0481385488781122  0.1010214015010816   T   T   T
  0.8091550970424360  0.1908431403050898  0.1052957658874322   T   T   T
  0.8090873393631920  0.3336221509909823  0.1099706900852460   T   T   T
  0.8087472823965896  0.4763836953154093  0.1138875565599491   T   T   T
  0.8090439739448378  0.6190807162803945  0.1105132432114637   T   T   T
  0.8095477726868244  0.7623017966532439  0.1024407634085871   T   T   T
  0.4938802290012547  0.5061247318138181  0.2140672784911942   T   T   T

  0.00000000E+00  0.00000000E+00  0.00000000E+00
  0.00000000E+00  0.00000000E+00  0.00000000E+00
  0.00000000E+00  0.00000000E+00  0.00000000E+00
  0.00000000E+00  0.00000000E+00  0.00000000E+00
  0.00000000E+00  0.00000000E+00  0.00000000E+00
  0.00000000E+00  0.00000000E+00  0.00000000E+00
  0.00000000E+00  0.00000000E+00  0.00000000E+00
  0.00000000E+00  0.00000000E+00  0.00000000E+00
  0.00000000E+00  0.00000000E+00  0.00000000E+00
  0.00000000E+00  0.00000000E+00  0.00000000E+00
  0.00000000E+00  0.00000000E+00  0.00000000E+00
  0.00000000E+00  0.00000000E+00  0.00000000E+00
  0.00000000E+00  0.00000000E+00  0.00000000E+00
  0.00000000E+00  0.00000000E+00  0.00000000E+00
  0.00000000E+00  0.00000000E+00  0.00000000E+00
  0.00000000E+00  0.00000000E+00  0.00000000E+00
  0.00000000E+00  0.00000000E+00  0.00000000E+00
  0.00000000E+00  0.00000000E+00  0.00000000E+00
  0.00000000E+00  0.00000000E+00  0.00000000E+00
  0.00000000E+00  0.00000000E+00  0.00000000E+00
  0.00000000E+00  0.00000000E+00  0.00000000E+00
  0.00000000E+00  0.00000000E+00  0.00000000E+00
  0.00000000E+00  0.00000000E+00  0.00000000E+00
  0.00000000E+00  0.00000000E+00  0.00000000E+00
  0.00000000E+00  0.00000000E+00  0.00000000E+00
  0.00000000E+00  0.00000000E+00  0.00000000E+00
  0.00000000E+00  0.00000000E+00  0.00000000E+00
  0.00000000E+00  0.00000000E+00  0.00000000E+00
  0.00000000E+00  0.00000000E+00  0.00000000E+00
  0.00000000E+00  0.00000000E+00  0.00000000E+00
  0.00000000E+00  0.00000000E+00  0.00000000E+00
  0.00000000E+00  0.00000000E+00  0.00000000E+00
  0.00000000E+00  0.00000000E+00  0.00000000E+00
  0.00000000E+00  0.00000000E+00  0.00000000E+00
  0.00000000E+00  0.00000000E+00  0.00000000E+00
  0.00000000E+00  0.00000000E+00  0.00000000E+00
  0.00000000E+00  0.00000000E+00  0.00000000E+00
  0.00000000E+00  0.00000000E+00  0.00000000E+00
  0.00000000E+00  0.00000000E+00  0.00000000E+00
  0.00000000E+00  0.00000000E+00  0.00000000E+00
  0.00000000E+00  0.00000000E+00  0.00000000E+00
  0.00000000E+00  0.00000000E+00  0.00000000E+00
  0.00000000E+00  0.00000000E+00  0.00000000E+00
  0.00000000E+00  0.00000000E+00  0.00000000E+00
  0.00000000E+00  0.00000000E+00  0.00000000E+00
  0.00000000E+00  0.00000000E+00  0.00000000E+00
  0.00000000E+00  0.00000000E+00  0.00000000E+00
  0.00000000E+00  0.00000000E+00  0.00000000E+00
  0.00000000E+00  0.00000000E+00  0.00000000E+00
  0.00000000E+00  0.00000000E+00  0.00000000E+00
  0.00000000E+00  0.00000000E+00  0.00000000E+00
  0.00000000E+00  0.00000000E+00  0.00000000E+00
  0.00000000E+00  0.00000000E+00  0.00000000E+00
  0.00000000E+00  0.00000000E+00  0.00000000E+00
  0.00000000E+00  0.00000000E+00  0.00000000E+00
  0.00000000E+00  0.00000000E+00  0.00000000E+00
  0.00000000E+00  0.00000000E+00  0.00000000E+00
  0.00000000E+00  0.00000000E+00  0.00000000E+00
  0.00000000E+00  0.00000000E+00  0.00000000E+00
  0.00000000E+00  0.00000000E+00  0.00000000E+00
  0.00000000E+00  0.00000000E+00  0.00000000E+00
  0.00000000E+00  0.00000000E+00  0.00000000E+00
  0.00000000E+00  0.00000000E+00  0.00000000E+00
  0.00000000E+00  0.00000000E+00  0.00000000E+00
  0.00000000E+00  0.00000000E+00  0.00000000E+00
  0.00000000E+00  0.00000000E+00  0.00000000E+00
  0.00000000E+00  0.00000000E+00  0.00000000E+00
  0.00000000E+00  0.00000000E+00  0.00000000E+00
  0.00000000E+00  0.00000000E+00  0.00000000E+00
  0.00000000E+00  0.00000000E+00  0.00000000E+00
  0.00000000E+00  0.00000000E+00  0.00000000E+00
  0.00000000E+00  0.00000000E+00  0.00000000E+00
  0.00000000E+00  0.00000000E+00  0.00000000E+00
  0.00000000E+00  0.00000000E+00  0.00000000E+00
  0.00000000E+00  0.00000000E+00  0.00000000E+00
  0.00000000E+00  0.00000000E+00  0.00000000E+00
  0.00000000E+00  0.00000000E+00  0.00000000E+00
  0.00000000E+00  0.00000000E+00  0.00000000E+00
  0.00000000E+00  0.00000000E+00  0.00000000E+00
  0.00000000E+00  0.00000000E+00  0.00000000E+00
  0.00000000E+00  0.00000000E+00  0.00000000E+00
  0.00000000E+00  0.00000000E+00  0.00000000E+00
  0.00000000E+00  0.00000000E+00  0.00000000E+00
  0.00000000E+00  0.00000000E+00  0.00000000E+00
  0.00000000E+00  0.00000000E+00  0.00000000E+00
  0.00000000E+00  0.00000000E+00  0.00000000E+00
  0.00000000E+00  0.00000000E+00  0.00000000E+00
  0.00000000E+00  0.00000000E+00  0.00000000E+00
  0.00000000E+00  0.00000000E+00  0.00000000E+00
  0.00000000E+00  0.00000000E+00  0.00000000E+00
  0.00000000E+00  0.00000000E+00  0.00000000E+00
  0.00000000E+00  0.00000000E+00  0.00000000E+00
  0.00000000E+00  0.00000000E+00  0.00000000E+00
  0.00000000E+00  0.00000000E+00  0.00000000E+00
  0.00000000E+00  0.00000000E+00  0.00000000E+00
  0.00000000E+00  0.00000000E+00  0.00000000E+00
  0.00000000E+00  0.00000000E+00  0.00000000E+00
