 O B C N 
 1.0
 17.527899999999772   0.000000000000000   0.000000000000000
 -8.763949999999658  15.179606674993195   0.000000000000000
  0.000000000000001   0.000000000000002  15.000000000000000
 O B C N 
   1  48   1  48
Cartesian
  4.984363879371972   7.242028142866773   1.666042684954230 
  7.511489136281453  14.455972396476604   1.665326158995045 
 15.023860129461182   1.445728547290534   1.665579593839635 
 13.771738648520788   3.614033143361381   1.665584410436145 
 12.519777379064960   5.782744022351251   1.665257280419190 
 11.267527097600730   7.951615419928030   1.665245580578010 
 10.019028201841952  10.119737783328796   1.665587781663645 
  8.764421359591722  12.288611171930738   1.665575598858900 
 -7.511919485976501  14.456766974661845   1.665317811407025 
  0.000472950046073   1.446510745444689   1.665326158995045 
 -1.251929255530462   3.614355134869574   1.665263088014925 
 -2.503937525225058   5.782744242084027   1.665410230955625 
 -3.755132614133673   7.951356358366683   1.665348520588140 
 -5.007356735230856  10.119737783328796   1.665405019349580 
 -6.259328965861675  12.288604463335643   1.665263973390675 
 -5.007940411577520  14.456073019365924   1.665263973390675 
  2.503928941335277   1.445120223110773   1.665575598858900 
  1.252897558366559   3.618329072268763   1.665259214425140 
 -0.000641664521895   5.782579498126363   1.665227448119715 
 -1.247837886418150   7.951462373190338   1.665660010499010 
 -2.504466339997959  10.119737783328796   1.665688151255430 
 -3.756044604511342  12.288311600805356   1.665256988104305 
 -2.503696081275999  14.456266602810336   1.665405019349580 
  5.009496387260271   1.443035520261233   1.665587781663645 
  3.755701511821450   3.608065956716479   1.665407197962585 
  2.504496905916838   5.789909548726992   1.665377934147300 
  1.256961688689507   7.957254736794023   1.665461938701720 
  0.000000000000152  10.119737783328796   1.665690942734670 
 -1.252250883659591  12.288699937650568   1.665688151255430 
  0.000324805722947  14.455999415189552   1.665348520588140 
  7.511430307696761   1.445864941637655   1.665245580578010 
  6.258074090848066   3.611089017685174   1.665504237378930 
  5.000729172256779   5.736934297923646   1.665433595630985 
  2.501263811566531  10.112449233582835   1.665461938701720 
  1.253880358050212  12.284565478801277   1.665660010499010 
  2.503995533815345  14.456738741245653   1.665410230955625 
 10.015853176254360   1.445820084781786   1.665257280419190 
  8.765117930992457   3.613653835892867   1.665326536708290 
  7.519056651138897   5.778628855715281   1.665236819823795 
  6.296001457936264   7.980411706386554   1.665433595630985 
  5.002007411798767  10.115724637381707   1.665377934147300 
  3.755786136619341  12.288903304667111   1.665227448119715 
  5.007879720799798  14.456662327549124   1.665263088014925 
 12.519992525651181   1.445945260373721   1.665584410436145 
 11.267802533704103   3.614289411292720   1.665659548153245 
 10.017010656790621   5.781995642601117   1.665326536708290 
  8.765709934433691   7.954441705686421   1.665504237378930 
  7.517141692516477  10.123071459341418   1.665407197962585 
  6.256851597007539  12.285431705934268   1.665259214425140 
  3.715221327565020   7.974774203743782   1.667109021005475 
  8.763707618601014  13.732957418341131   1.665189749486700 
 16.276767590667792   0.722355820362312   1.665197264229390 
 15.024793881497867   2.891483914488908   1.665252655970700 
 13.772823489505321   5.059868891664398   1.665227336909205 
 12.519232651372292   7.229216970910105   1.665011610560130 
 11.266881111598092   9.396904672681975   1.665210694568265 
 10.015160246911741  11.564853003464538   1.665244157235915 
 -6.260137224278774  13.734043881972838   1.665025836299460 
  1.252726102266210   0.723555817338959   1.665189749486700 
  0.003027731027060   2.894396256928302   1.665029408745180 
 -1.249500021328958   5.059868891664398   1.665099284882925 
 -2.500033658431287   7.228971640146935   1.665198296595810 
 -3.755972379219953   9.396888600736022   1.665236555012820 
 -5.008276590588101  11.565451211537912   1.665102256096980 
 -3.756150564375952  13.734197106416456   1.665102256096980 
  3.756085917762021   0.723818257027325   1.665244157235915 
  2.505931915327954   2.894889151656882   1.665189416510850 
  1.257583017312603   5.070811839259307   1.665036013990320 
  0.013740480597564   7.228082192106416   1.665189556923600 
 -1.250380916333842   9.396266937977169   1.665372516598215 
 -2.503875336900394  11.565365070148221   1.665211808255175 
 -1.251968148040438  13.733951151506309   1.665236555012820 
  6.259444678654842   0.723770355153165   1.665210694568265 
  5.007312208921213   2.894585495327125   1.665178789938990 
  3.757114403476712   5.068148514510525   1.664923699491810 
  2.537468495037031   7.242163764909919   1.664560373224665 
  1.254129129660690   9.395680179763255   1.665260772447060 
  0.001365959144258  11.564356124521035   1.665372516598215 
  1.253472373501626  13.730234794001300   1.665198296595810 
  8.762893065729925   0.723045958126048   1.665011610560130 
  7.507764304051273   2.895490314584127   1.665141791220015 
  6.251696040160795   5.074452593427978   1.664977293195405 
  3.760798735061091   9.361033895097375   1.664560373224665 
  2.511129727614403  11.553687254246290   1.665189556923600 
  3.757212702996385  13.731792270224961   1.665099284882925 
 11.268374458413268   0.722078485974235   1.665227336909205 
 10.015989326001748   2.891273165954939   1.665236517591105 
  8.763949999999962   5.059868891664398   1.665088662175890 
  7.495205450202402   7.228274071310003   1.664977293195405 
  6.253374124341586   9.391797179966536   1.664923699491810 
  5.001301924368540  11.555123195566907   1.665036013990320 
  6.258855464734358  13.729807735107622   1.665029408745180 
 13.772260702506550   0.722032810310435   1.665252655970700 
 12.519708374182640   2.891494970361344   1.665278480913255 
 11.268053224682076   5.059868891664398   1.665236517591105 
 10.010276269532010   7.229968185315321   1.665141791220015 
  8.760833818420629   9.395875630287705   1.665178789938990 
  7.509880697528382  11.561982680900492   1.665189416510850 
