 N B S 
 1.0
 17.527899999999772   0.000000000000000   0.000000000000000
 -8.763949999999658  15.179606674993195   0.000000000000000
  0.000000000000001   0.000000000000002  15.000000000000000
 N B S 
  48  49   1
Cartesian
  8.768095660565162  13.747065961332085   1.658297141815230 
 16.271740875006056   0.725257996002765   1.662222302307255 
 15.019294545231123   2.888667886206555   1.653228764806365 
 13.771949786403669   5.055023169770160   1.662222302307255 
 12.533378680369765   7.225404466153917   1.658297141815230 
 11.282784760991589   9.400967739233506   1.662742110370560 
 10.026891762894619  11.576238220807538   1.662742110370560 
 -6.258767725783184  13.733253201647754   1.659786504564180 
  1.242701766607688   0.712701390029705   1.658297141815230 
 -0.014645481544721   2.881595816962494   1.658413050757695 
 -1.267765059770563   5.052062594409010   1.658413050757695 
 -2.517409107544600   7.225404466153917   1.658297141815230 
 -3.755980213587276   9.398298069975379   1.659786504564180 
 -5.004043506071241  11.567698479875709   1.656316050823650 
 -3.755980213587176  13.729407513519558   1.656316050823650 
  3.752091788306691   0.707965857489809   1.662742110370560 
  2.475804991578165   2.852469228925782   1.656540066152295 
  1.222125152351403   5.042623526999214   1.668002527875405 
 -0.047764188374427   7.223419265018750   1.656540066152295 
 -1.266815188183783   9.400967739233506   1.662742110370560 
 -2.507916921103297  11.567698479875709   1.656316050823650 
 -1.253192701391325  13.733253201647754   1.659786504564180 
  6.263877784500697   0.707965857489809   1.662742110370560 
  5.007984786403735   2.858498013991956   1.671050968130265 
  3.696981371559985   4.974407628005127   1.692560115406860 
  2.400476560484872   7.220019833044818   1.692560115406860 
  1.223546790050881   9.413336901769489   1.671050968130265 
 -0.010922190086747  11.576238220807538   1.662742110370560 
  1.247873912242599  13.747065961332085   1.658297141815230 
  8.773267806199490   0.712701390029705   1.658297141815230 
  7.540164581229445   2.852469228925782   1.656540066152295 
  6.318988201247480   4.974407628005127   1.692560115406860 
  3.711479975319865   9.490744356465761   1.692560115406860 
  2.484415606442471  11.609283323571386   1.656540066152295 
  3.754865208169276  13.751513406144126   1.658413050757695 
 11.272158697783450   0.725257996002765   1.662222302307255 
 10.030615054352122   2.881595816962494   1.658413050757695 
  8.793844420456152   5.042623526999214   1.668002527875405 
  7.615493012322710   7.220019833044818   1.692560115406860 
  6.304489597470171   9.490744356465791   1.692560115406860 
  5.007984786395111  11.599924763517279   1.668002527875405 
  6.261104364638626  13.751513406144126   1.658413050757695 
 13.771949786403514   0.728203389362550   1.653228764806365 
 12.524605027576042   2.888667886206555   1.653228764806365 
 11.283734632595630   5.052062594409010   1.658413050757695 
 10.063733761199529   7.223419265018735   1.656540066152295 
  8.792422782756645   9.413336901769489   1.671050968130265 
  7.531553966365139  11.609283323571386   1.656540066152295 
  7.513951182507011  14.465279706151778   1.660020511730565 
 15.021927158723836   1.446844548466046   1.656384782605005 
 13.771940213584760   3.611885446244813   1.656384782605005 
 12.528282789561322   5.780202596734911   1.660020511730565 
 11.296970025835755   7.954802432114504   1.658864511475590 
 10.036352304799308  10.131537266843557   1.665389204909025 
  8.781553501139575  12.311631655086771   1.658864511475590 
 -7.509971108659702  14.455642078493479   1.659921753229680 
 -0.006356393460684   1.439724896030416   1.660020511730565 
 -1.261938015795995   3.608466308855246   1.657327875473010 
 -2.512332362373915   5.780202596734926   1.660020511730565 
 -3.755989786406010   7.953555697685267   1.659921753229680 
 -5.001000802937082  10.124338318305400   1.659968058258705 
 -6.252523721374543  12.292039599876039   1.659968058258705 
 -5.007512704843547  14.448461936490997   1.659968058258705 
  2.492558688888687   1.418773111731116   1.658864511475590 
  1.233023860223488   3.595675833156329   1.660738585657680 
 -0.025533954667979   5.775561912811292   1.660738585657680 
 -1.281019598665818   7.954802432114504   1.658864511475590 
 -2.510978769874962  10.124338318305400   1.659968058258705 
 -3.755989786406033  12.288279951557490   1.655713766923560 
 -2.504466867951066  14.448461936490997   1.659968058258705 
  5.007975213602486   1.422132665245018   1.665389204909025 
  3.724457412644222   3.547354595956605   1.672757956622250 
  2.464518739268398   5.759937119505063   1.685160232574595 
  1.178335402585130   7.957367279648499   1.672757956622250 
 -0.020401877611622  10.131537266843557   1.665389204909025 
 -1.259455851419943  12.292039599876039   1.659968058258705 
 -0.002008464134668  14.455642078493479   1.659921753229680 
  7.523391738298790   1.418773111731116   1.658864511475590 
  6.291493014560691   3.547354595956605   1.672757956622250 
  5.007975213602458   5.529502538513891   1.704679856310720 
  3.536684775377924   8.077852330209151   1.704679856310720 
  2.461853203543408  10.180485323327241   1.672757956622250 
  1.234396926048106  12.311631655086771   1.658864511475590 
  2.501999244680647  14.465279706151778   1.660020511730565 
 10.022306820648179   1.439724896030416   1.660020511730565 
  8.782926566963880   3.595675833156329   1.660738585657680 
  7.551431687936721   5.759937119505063   1.685160232574595 
  6.479265651809734   8.077852330209151   1.704679856310720 
  5.007975213593931  10.165332959906902   1.685160232574595 
  3.749417398702332  12.313969452949392   1.660738585657680 
  5.007975213593829  14.468274581206673   1.657327875473010 
 12.521953268445749   1.446844548466061   1.656384782605005 
 11.277888442983432   3.608466308855246   1.657327875473010 
 10.041484381855501   5.775561912811292   1.660738585657680 
  8.837615024602473   7.957367279648499   1.672757956622250 
  7.554097223644272  10.180485323327225   1.672757956622250 
  6.266533028485473  12.313969452949301   1.660738585657680 
  5.007984786403784   7.228390605833453   1.699861112764245 
