B N Ge O                                
   1.0000000000000000     
     8.7639499999999995  -15.1796066749929999    0.0000000000000000
     8.7639499999999995   15.1796066749929999    0.0000000000000000
     0.0000000000000000    0.0000000000000000   15.0000000000000000
   B    N    Ge   O 
    48    48     1     1
Selective dynamics
Direct
  0.9051619703064588  0.9527626567281118  0.1088597654267289   T   T   T
  0.9047153692704484  0.0952866519255338  0.1100101034076886   T   T   T
  0.9045907298432283  0.2380679626877367  0.1111261422144025   T   T   T
  0.9048001768528167  0.3809874398772308  0.1112182371398802   T   T   T
  0.9051779068303674  0.5239377798857774  0.1105717563507582   T   T   T
  0.9049090305178922  0.6668014719828506  0.1098123735206400   T   T   T
  0.9049300153834920  0.8096272054330811  0.1090990849367088   T   T   T
  0.0476472092317337  0.9523548119642697  0.1107002257806542   T   T   T
  0.0472393644678917  0.0948400508895091  0.1088597654267289   T   T   T
  0.0469944736007335  0.2377015604034156  0.1079510611517804   T   T   T
  0.0470750544807430  0.3808507923223985  0.1086944831208996   T   T   T
  0.0473939223591842  0.5239425066308883  0.1097746749143482   T   T   T
  0.0476744128943665  0.6668046674527375  0.1110119248423374   T   T   T
  0.0476667880895576  0.8095913368599952  0.1115510291976562   T   T   T
  0.1904106843360012  0.9523352331064814  0.1115510291976562   T   T   T
  0.1903748157629295  0.0950720058125185  0.1090990849367088   T   T   T
  0.1889952218144160  0.2367061580264362  0.1053945100966658   T   T   T
  0.1890908536337221  0.3802694325365437  0.1071537246871941   T   T   T
  0.1894227498682497  0.5238817580355501  0.1086792631293889   T   T   T
  0.1903878660936371  0.6668192774062689  0.1104653244286524   T   T   T
  0.1904154129349536  0.8095866082610357  0.1116552025130702   T   T   T
  0.3331973537442607  0.9523276083016370  0.1110119248423374   T   T   T
  0.3332005492141334  0.0950929906780900  0.1098123735206400   T   T   T
  0.3331733733305597  0.2380140653495673  0.1064745150716107   T   T   T
  0.3295556551818493  0.3779720939865214  0.1129246385776383   T   T   T
  0.3302414768104072  0.5230832726139241  0.1203046631255589   T   T   T
  0.3332331140034626  0.6667689071935428  0.1131305736630068   T   T   T
  0.3331827437907435  0.8096141551023663  0.1104653244286524   T   T   T
  0.4760595145660886  0.9526080988368122  0.1097746749143482   T   T   T
  0.4760642413112208  0.0948241143656219  0.1105717563507582   T   T   T
  0.4761872622955323  0.2368973098975218  0.1084121072050266   T   T   T
  0.4760886622115592  0.3776846425739677  0.1088281715592458   T   T   T
  0.4769187485830813  0.6697605443866053  0.1203046631255589   T   T   T
  0.4761202631614339  0.8105792713277538  0.1086792631293889   T   T   T
  0.6191512288736405  0.9529269667152249  0.1086944831208996   T   T   T
  0.6190145813187726  0.0952018443431868  0.1112182371398802   T   T   T
  0.6191386572499695  0.2375884717451058  0.1108184468398576   T   T   T
  0.6198575716100407  0.3801444495859414  0.1084878846114634   T   T   T
  0.6223173786220713  0.5239133589854603  0.1088281715592458   T   T   T
  0.6220299272094536  0.6704463660151418  0.1129246385776383   T   T   T
  0.6197325886594811  0.8109111675622813  0.1071537246871941   T   T   T
  0.7623004607926305  0.9530075475952486  0.1079510611517804   T   T   T
  0.7619340585082313  0.0954112913527823  0.1111261422144025   T   T   T
  0.7619690818064626  0.2380329393895693  0.1122561198960099   T   T   T
  0.7624135494509332  0.3808633639460126  0.1108184468398576   T   T   T
  0.7631047112984675  0.5238147589014801  0.1084121072050266   T   T   T
  0.7619879558464291  0.6668286478664456  0.1064745150716107   T   T   T
  0.7632958631695601  0.8110067993815875  0.1053945100966587   T   T   T
  0.9524796467433561  0.9048501544894449  0.1097916839808590   T   T   T
  0.9523190985465675  0.0476823033714240  0.1096697608869448   T   T   T
  0.9520275838536634  0.1903743974915884  0.1100545236697457   T   T   T
  0.9520894663923798  0.3332412455909051  0.1106107379677610   T   T   T
  0.9523827877689754  0.4761814731208602  0.1107091696460074   T   T   T
  0.9525164933336114  0.6191316615844684  0.1106271377341628   T   T   T
  0.9525130209158092  0.7620078156713035  0.1104270481336727   T   T   T
  0.0952374308116859  0.9047639711063127  0.1117608281043800   T   T   T
  0.0951512474285536  0.0475217551746425  0.1097916839808590   T   T   T
  0.0942395147536388  0.1897152371170776  0.1068735398918861   T   T   T
  0.0942594631912570  0.3329064175200429  0.1073099672571942   T   T   T
  0.0945244285848901  0.4761150565108849  0.1083098323839309   T   T   T
  0.0951860089789278  0.6191445278394099  0.1102912237248361   T   T   T
  0.0952587420897117  0.7619748023380524  0.1117811533844915   T   T   T
  0.2380265995799675  0.9047426598282868  0.1117811533844915   T   T   T
  0.2379935862467022  0.0474883810021893  0.1104270481336727   T   T   T
  0.2378514036764372  0.1902610126040827  0.1067169203638088   T   T   T
  0.2355395263148239  0.3313696054329682  0.1049283804482641   T   T   T
  0.2362086290167156  0.4758349364637837  0.1088431404169938   T   T   T
  0.2379197598002563  0.6191381292739706  0.1104097326828111   T   T   T
  0.2380054314436180  0.7619959704743948  0.1110321448727163   T   T   T
  0.3808568740785816  0.9048153929390850  0.1102912237248361   T   T   T
  0.3808697403335728  0.0474849085843942  0.1106271377341628   T   T   T
  0.3808813547223764  0.1902452492286741  0.1080009018173840   T   T   T
  0.3809365530315389  0.3337372230710542  0.1074958449117531   T   T   T
  0.3713874110855855  0.4703812218563996  0.1304636714531426   T   T   T
  0.3809065344317588  0.6190948674862398  0.1203213100748926   T   T   T
  0.3808632726440138  0.7620816421177423  0.1104097326828111   T   T   T
  0.5238863454061047  0.9054769733331085  0.1083098323839309   T   T   T
  0.5238199287961436  0.0476186141490587  0.1107091696460074   T   T   T
  0.5239571612972469  0.1898480850662594  0.1100701324689908   T   T   T
  0.5244065465747738  0.3317966603667344  0.1076764951193354   T   T   T
  0.5296201800606113  0.6286139908324060  0.1304636714531426   T   T   T
  0.5241664654531775  0.7637927729012830  0.1088431404169938   T   T   T
  0.6670949843969325  0.9057419387267700  0.1073099672571942   T   T   T
  0.6667601563261059  0.0479119355256614  0.1106107379677610   T   T   T
  0.6667807117130025  0.1903357935283481  0.1119773753371192   T   T   T
  0.6671195047943144  0.3328818971226468  0.1100946345994274   T   T   T
  0.6682047415502765  0.4755948553421945  0.1076764951193354   T   T   T
  0.6662641788459283  0.6190648488864738  0.1074958449117531   T   T   T
  0.6686317964840853  0.7644618756031676  0.1049283804482641   T   T   T
  0.8102861648008499  0.9057618871643598  0.1068735398918861   T   T   T
  0.8096270044264244  0.0479738180643068  0.1100545236697457   T   T   T
  0.8094862420189415  0.1905151598990500  0.1121883579280478   T   T   T
  0.8096656083896505  0.3332206902040085  0.1119773753371192   T   T   T
  0.8101533168517321  0.4760442406197498  0.1100701324689908   T   T   T
  0.8097561526893031  0.6191200471956506  0.1080009018173840   T   T   T
  0.8097403893138875  0.7621499982415614  0.1067169203638088   T   T   T
  0.4772481775935091  0.5227538436034820  0.1870350261553355   T   T   T
  0.5284318975176632  0.4715695043993193  0.1066288068441636   T   T   T

  0.00000000E+00  0.00000000E+00  0.00000000E+00
  0.00000000E+00  0.00000000E+00  0.00000000E+00
  0.00000000E+00  0.00000000E+00  0.00000000E+00
  0.00000000E+00  0.00000000E+00  0.00000000E+00
  0.00000000E+00  0.00000000E+00  0.00000000E+00
  0.00000000E+00  0.00000000E+00  0.00000000E+00
  0.00000000E+00  0.00000000E+00  0.00000000E+00
  0.00000000E+00  0.00000000E+00  0.00000000E+00
  0.00000000E+00  0.00000000E+00  0.00000000E+00
  0.00000000E+00  0.00000000E+00  0.00000000E+00
  0.00000000E+00  0.00000000E+00  0.00000000E+00
  0.00000000E+00  0.00000000E+00  0.00000000E+00
  0.00000000E+00  0.00000000E+00  0.00000000E+00
  0.00000000E+00  0.00000000E+00  0.00000000E+00
  0.00000000E+00  0.00000000E+00  0.00000000E+00
  0.00000000E+00  0.00000000E+00  0.00000000E+00
  0.00000000E+00  0.00000000E+00  0.00000000E+00
  0.00000000E+00  0.00000000E+00  0.00000000E+00
  0.00000000E+00  0.00000000E+00  0.00000000E+00
  0.00000000E+00  0.00000000E+00  0.00000000E+00
  0.00000000E+00  0.00000000E+00  0.00000000E+00
  0.00000000E+00  0.00000000E+00  0.00000000E+00
  0.00000000E+00  0.00000000E+00  0.00000000E+00
  0.00000000E+00  0.00000000E+00  0.00000000E+00
  0.00000000E+00  0.00000000E+00  0.00000000E+00
  0.00000000E+00  0.00000000E+00  0.00000000E+00
  0.00000000E+00  0.00000000E+00  0.00000000E+00
  0.00000000E+00  0.00000000E+00  0.00000000E+00
  0.00000000E+00  0.00000000E+00  0.00000000E+00
  0.00000000E+00  0.00000000E+00  0.00000000E+00
  0.00000000E+00  0.00000000E+00  0.00000000E+00
  0.00000000E+00  0.00000000E+00  0.00000000E+00
  0.00000000E+00  0.00000000E+00  0.00000000E+00
  0.00000000E+00  0.00000000E+00  0.00000000E+00
  0.00000000E+00  0.00000000E+00  0.00000000E+00
  0.00000000E+00  0.00000000E+00  0.00000000E+00
  0.00000000E+00  0.00000000E+00  0.00000000E+00
  0.00000000E+00  0.00000000E+00  0.00000000E+00
  0.00000000E+00  0.00000000E+00  0.00000000E+00
  0.00000000E+00  0.00000000E+00  0.00000000E+00
  0.00000000E+00  0.00000000E+00  0.00000000E+00
  0.00000000E+00  0.00000000E+00  0.00000000E+00
  0.00000000E+00  0.00000000E+00  0.00000000E+00
  0.00000000E+00  0.00000000E+00  0.00000000E+00
  0.00000000E+00  0.00000000E+00  0.00000000E+00
  0.00000000E+00  0.00000000E+00  0.00000000E+00
  0.00000000E+00  0.00000000E+00  0.00000000E+00
  0.00000000E+00  0.00000000E+00  0.00000000E+00
  0.00000000E+00  0.00000000E+00  0.00000000E+00
  0.00000000E+00  0.00000000E+00  0.00000000E+00
  0.00000000E+00  0.00000000E+00  0.00000000E+00
  0.00000000E+00  0.00000000E+00  0.00000000E+00
  0.00000000E+00  0.00000000E+00  0.00000000E+00
  0.00000000E+00  0.00000000E+00  0.00000000E+00
  0.00000000E+00  0.00000000E+00  0.00000000E+00
  0.00000000E+00  0.00000000E+00  0.00000000E+00
  0.00000000E+00  0.00000000E+00  0.00000000E+00
  0.00000000E+00  0.00000000E+00  0.00000000E+00
  0.00000000E+00  0.00000000E+00  0.00000000E+00
  0.00000000E+00  0.00000000E+00  0.00000000E+00
  0.00000000E+00  0.00000000E+00  0.00000000E+00
  0.00000000E+00  0.00000000E+00  0.00000000E+00
  0.00000000E+00  0.00000000E+00  0.00000000E+00
  0.00000000E+00  0.00000000E+00  0.00000000E+00
  0.00000000E+00  0.00000000E+00  0.00000000E+00
  0.00000000E+00  0.00000000E+00  0.00000000E+00
  0.00000000E+00  0.00000000E+00  0.00000000E+00
  0.00000000E+00  0.00000000E+00  0.00000000E+00
  0.00000000E+00  0.00000000E+00  0.00000000E+00
  0.00000000E+00  0.00000000E+00  0.00000000E+00
  0.00000000E+00  0.00000000E+00  0.00000000E+00
  0.00000000E+00  0.00000000E+00  0.00000000E+00
  0.00000000E+00  0.00000000E+00  0.00000000E+00
  0.00000000E+00  0.00000000E+00  0.00000000E+00
  0.00000000E+00  0.00000000E+00  0.00000000E+00
  0.00000000E+00  0.00000000E+00  0.00000000E+00
  0.00000000E+00  0.00000000E+00  0.00000000E+00
  0.00000000E+00  0.00000000E+00  0.00000000E+00
  0.00000000E+00  0.00000000E+00  0.00000000E+00
  0.00000000E+00  0.00000000E+00  0.00000000E+00
  0.00000000E+00  0.00000000E+00  0.00000000E+00
  0.00000000E+00  0.00000000E+00  0.00000000E+00
  0.00000000E+00  0.00000000E+00  0.00000000E+00
  0.00000000E+00  0.00000000E+00  0.00000000E+00
  0.00000000E+00  0.00000000E+00  0.00000000E+00
  0.00000000E+00  0.00000000E+00  0.00000000E+00
  0.00000000E+00  0.00000000E+00  0.00000000E+00
  0.00000000E+00  0.00000000E+00  0.00000000E+00
  0.00000000E+00  0.00000000E+00  0.00000000E+00
  0.00000000E+00  0.00000000E+00  0.00000000E+00
  0.00000000E+00  0.00000000E+00  0.00000000E+00
  0.00000000E+00  0.00000000E+00  0.00000000E+00
  0.00000000E+00  0.00000000E+00  0.00000000E+00
  0.00000000E+00  0.00000000E+00  0.00000000E+00
  0.00000000E+00  0.00000000E+00  0.00000000E+00
  0.00000000E+00  0.00000000E+00  0.00000000E+00
  0.00000000E+00  0.00000000E+00  0.00000000E+00
  0.00000000E+00  0.00000000E+00  0.00000000E+00
