B N Sn                                  
   1.0000000000000000     
     8.7639499999999995  -15.1796066749929999    0.0000000000000000
     8.7639499999999995   15.1796066749929999    0.0000000000000000
     0.0000000000000000    0.0000000000000000   15.0000000000000000
   B    N    Sn
    48    48     1
Selective dynamics
Direct
  0.9051565785744816  0.9533728159086904  0.1273433332285221   T   T   T
  0.9041562288360434  0.0958438831061171  0.1254292458854973   T   T   T
  0.9038290891195304  0.2386506972160062  0.1202330271874014   T   T   T
  0.9039703700669585  0.3814718653938042  0.1145176533537864   T   T   T
  0.9050426295084060  0.5244207559428596  0.1127268413738884   T   T   T
  0.9061157425716783  0.6675590941737737  0.1169090268086119   T   T   T
  0.9063914660172074  0.8109772170322235  0.1241707285902266   T   T   T
  0.0477125591572278  0.9522897367053953  0.1267039235158040   T   T   T
  0.0466291125757162  0.0948447606255133  0.1273307067555599   T   T   T
  0.0463542170511813  0.2380466361433633  0.1229742749855196   T   T   T
  0.0466563132228345  0.3810520781901920  0.1165974974213721   T   T   T
  0.0476732637705424  0.5238881290604833  0.1134420397377092   T   T   T
  0.0484450187393448  0.6667379729571146  0.1159401701243861   T   T   T
  0.0483705841570524  0.8095833615911433  0.1219969954597158   T   T   T
  0.1904177536813721  0.9516305646736937  0.1219885310342743   T   T   T
  0.1890235989706903  0.0936095659988105  0.1241476538834632   T   T   T
  0.1878232454691021  0.2361891907708157  0.1208291551955072   T   T   T
  0.1886306404179431  0.3801819965396116  0.1120337842261894   T   T   T
  0.1903676700662435  0.5232842982797453  0.1079883629591201   T   T   T
  0.1912998018654088  0.6661994037343697  0.1103753427824192   T   T   T
  0.1909937331942725  0.8090075853933228  0.1165492700840748   T   T   T
  0.3332638187762575  0.9515564279405635  0.1159270258222902   T   T   T
  0.3324410812979445  0.0938852103057882  0.1168852298149031   T   T   T
  0.3293545002761559  0.2339899119578399  0.1116819098879553   T   T   T
  0.3266673189554106  0.3766586934576755  0.0954320752402704   T   T   T
  0.3322525506842086  0.5211437037183108  0.0889922923153308   T   T   T
  0.3345367297452180  0.6654654286832079  0.1001745500241357   T   T   T
  0.3338020876965453  0.8087003969367268  0.1103697453574741   T   T   T
  0.4761161607526517  0.9523285851662255  0.1134265409368485   T   T   T
  0.4755808388236259  0.0949585891835120  0.1127070259170056   T   T   T
  0.4744954930026583  0.2367997289949599  0.1043624060659238   T   T   T
  0.4658749966493774  0.3695253383340471  0.0811285013668547   T   T   T
  0.4788608414330378  0.6677494205833810  0.0890101940464437   T   T   T
  0.4767190267417091  0.8096339752134647  0.1079894834176335   T   T   T
  0.6189507547629510  0.9533448620102432  0.1165984280371352   T   T   T
  0.6185321539019191  0.0960307403760531  0.1145055272789302   T   T   T
  0.6181223551617147  0.2389288671102185  0.1073886369365350   T   T   T
  0.6177875731202819  0.3822146932538183  0.0937033232317167   T   T   T
  0.6304796567807335  0.5341318109294195  0.0811639173118014   T   T   T
  0.6233422067345152  0.6733334533274248  0.0954801096131745   T   T   T
  0.6198193255429806  0.8113708131377303  0.1120614323895139   T   T   T
  0.7619530979444801  0.9536471339918307  0.1229914063966215   T   T   T
  0.7613503559340176  0.0961711330160924  0.1202329778480548   T   T   T
  0.7610677895120876  0.2389343179259687  0.1141568459191313   T   T   T
  0.7610722273131867  0.3818787928581959  0.1073965398375348   T   T   T
  0.7632013425954661  0.5255034988687697  0.1043863067600887   T   T   T
  0.7660148754866839  0.6706491028824154  0.1117209954302671   T   T   T
  0.7638122426079303  0.8121803597603132  0.1208638070398433   T   T   T
  0.9529647961965264  0.9056570897726579  0.1272787137221440   T   T   T
  0.9518544359385941  0.0481481216716726  0.1276554103713183   T   T   T
  0.9512809231234891  0.1908905521494629  0.1237699298075014   T   T   T
  0.9513160693080673  0.3337495859655416  0.1177125366085518   T   T   T
  0.9521690816405021  0.4765897504268087  0.1137227862817726   T   T   T
  0.9530822922008576  0.6194883781324821  0.1154946923680469   T   T   T
  0.9533079958074054  0.7625154330083116  0.1220642408187791   T   T   T
  0.0954151539143383  0.9045856383347270  0.1243707161876720   T   T   T
  0.0943453663281631  0.0470376085054591  0.1272656128265356   T   T   T
  0.0933011964885734  0.1896017703955210  0.1254822881568874   T   T   T
  0.0936518967795338  0.3330324707388379  0.1185235536268970   T   T   T
  0.0948869822248567  0.4761246343974869  0.1131336311514529   T   T   T
  0.0958122474839921  0.6190195262022017  0.1131952474424372   T   T   T
  0.0958160919732906  0.7618192496780791  0.1185077017429235   T   T   T
  0.2381820786460865  0.9041841929970730  0.1184995489054328   T   T   T
  0.2374850265271043  0.0466921945572423  0.1220454737450282   T   T   T
  0.2354528385797284  0.1881593902010391  0.1211623336867015   T   T   T
  0.2339146800747591  0.3302896744243857  0.1130338730222897   T   T   T
  0.2370572541518351  0.4752022171603419  0.1045458159618177   T   T   T
  0.2388088745065617  0.6185655294182274  0.1055409223079311   T   T   T
  0.2385579761572353  0.7614426473236181  0.1119731652652196   T   T   T
  0.3809824034554445  0.9041888643838584  0.1131817646986926   T   T   T
  0.3805127928832810  0.0469184528783233  0.1154747719210381   T   T   T
  0.3794936402702802  0.1889769205063863  0.1115615398166036   T   T   T
  0.3746584266131116  0.3276336211824652  0.0980208955838643   T   T   T
  0.3714072918831803  0.4674435506235529  0.0757184928493132   T   T   T
  0.3821096717258524  0.6178927115169386  0.0893607358649062   T   T   T
  0.3814362324992279  0.7611923133802631  0.1055394968905559   T   T   T
  0.5238776754578215  0.9051147192524236  0.1131258897442876   T   T   T
  0.5234139921003754  0.0478333326414294  0.1137038228244617   T   T   T
  0.5228865737269506  0.1904613025588127  0.1084073872577093   T   T   T
  0.5214560697007531  0.3323558244268965  0.0915845391390939   T   T   T
  0.5325597742041076  0.6285908691419057  0.0757542938225735   T   T   T
  0.5248008127650998  0.7629440148916934  0.1045615870623150   T   T   T
  0.6669684872320096  0.9063489176203776  0.1185422959315218   T   T   T
  0.6662515158682870  0.0486852300648877  0.1177067072947781   T   T   T
  0.6658152510252614  0.1915332364407436  0.1120718317151878   T   T   T
  0.6652803353939261  0.3347202560582169  0.1027450194366150   T   T   T
  0.6676465496469045  0.4785473506540584  0.0916060080547201   T   T   T
  0.6723689968017335  0.6253436774160089  0.0980711937781555   T   T   T
  0.6697113713077607  0.7660855528501495  0.1130799934601464   T   T   T
  0.8104005362924417  0.9067021612387951  0.1255046483851005   T   T   T
  0.8091101302065364  0.0487201190138583  0.1237763317303255   T   T   T
  0.8086241953383957  0.1913756536889796  0.1187427260956629   T   T   T
  0.8084679805159487  0.3341857278884272  0.1120782403002248   T   T   T
  0.8095397073901965  0.4771150642174156  0.1084243319460115   T   T   T
  0.8110244131296785  0.6205070082473133  0.1115931715767839   T   T   T
  0.8118421264967822  0.7645490924711801  0.1211988708917786   T   T   T
  0.4944321358711435  0.5055751634731739  0.0218645727637802   T   T   T

  0.00000000E+00  0.00000000E+00  0.00000000E+00
  0.00000000E+00  0.00000000E+00  0.00000000E+00
  0.00000000E+00  0.00000000E+00  0.00000000E+00
  0.00000000E+00  0.00000000E+00  0.00000000E+00
  0.00000000E+00  0.00000000E+00  0.00000000E+00
  0.00000000E+00  0.00000000E+00  0.00000000E+00
  0.00000000E+00  0.00000000E+00  0.00000000E+00
  0.00000000E+00  0.00000000E+00  0.00000000E+00
  0.00000000E+00  0.00000000E+00  0.00000000E+00
  0.00000000E+00  0.00000000E+00  0.00000000E+00
  0.00000000E+00  0.00000000E+00  0.00000000E+00
  0.00000000E+00  0.00000000E+00  0.00000000E+00
  0.00000000E+00  0.00000000E+00  0.00000000E+00
  0.00000000E+00  0.00000000E+00  0.00000000E+00
  0.00000000E+00  0.00000000E+00  0.00000000E+00
  0.00000000E+00  0.00000000E+00  0.00000000E+00
  0.00000000E+00  0.00000000E+00  0.00000000E+00
  0.00000000E+00  0.00000000E+00  0.00000000E+00
  0.00000000E+00  0.00000000E+00  0.00000000E+00
  0.00000000E+00  0.00000000E+00  0.00000000E+00
  0.00000000E+00  0.00000000E+00  0.00000000E+00
  0.00000000E+00  0.00000000E+00  0.00000000E+00
  0.00000000E+00  0.00000000E+00  0.00000000E+00
  0.00000000E+00  0.00000000E+00  0.00000000E+00
  0.00000000E+00  0.00000000E+00  0.00000000E+00
  0.00000000E+00  0.00000000E+00  0.00000000E+00
  0.00000000E+00  0.00000000E+00  0.00000000E+00
  0.00000000E+00  0.00000000E+00  0.00000000E+00
  0.00000000E+00  0.00000000E+00  0.00000000E+00
  0.00000000E+00  0.00000000E+00  0.00000000E+00
  0.00000000E+00  0.00000000E+00  0.00000000E+00
  0.00000000E+00  0.00000000E+00  0.00000000E+00
  0.00000000E+00  0.00000000E+00  0.00000000E+00
  0.00000000E+00  0.00000000E+00  0.00000000E+00
  0.00000000E+00  0.00000000E+00  0.00000000E+00
  0.00000000E+00  0.00000000E+00  0.00000000E+00
  0.00000000E+00  0.00000000E+00  0.00000000E+00
  0.00000000E+00  0.00000000E+00  0.00000000E+00
  0.00000000E+00  0.00000000E+00  0.00000000E+00
  0.00000000E+00  0.00000000E+00  0.00000000E+00
  0.00000000E+00  0.00000000E+00  0.00000000E+00
  0.00000000E+00  0.00000000E+00  0.00000000E+00
  0.00000000E+00  0.00000000E+00  0.00000000E+00
  0.00000000E+00  0.00000000E+00  0.00000000E+00
  0.00000000E+00  0.00000000E+00  0.00000000E+00
  0.00000000E+00  0.00000000E+00  0.00000000E+00
  0.00000000E+00  0.00000000E+00  0.00000000E+00
  0.00000000E+00  0.00000000E+00  0.00000000E+00
  0.00000000E+00  0.00000000E+00  0.00000000E+00
  0.00000000E+00  0.00000000E+00  0.00000000E+00
  0.00000000E+00  0.00000000E+00  0.00000000E+00
  0.00000000E+00  0.00000000E+00  0.00000000E+00
  0.00000000E+00  0.00000000E+00  0.00000000E+00
  0.00000000E+00  0.00000000E+00  0.00000000E+00
  0.00000000E+00  0.00000000E+00  0.00000000E+00
  0.00000000E+00  0.00000000E+00  0.00000000E+00
  0.00000000E+00  0.00000000E+00  0.00000000E+00
  0.00000000E+00  0.00000000E+00  0.00000000E+00
  0.00000000E+00  0.00000000E+00  0.00000000E+00
  0.00000000E+00  0.00000000E+00  0.00000000E+00
  0.00000000E+00  0.00000000E+00  0.00000000E+00
  0.00000000E+00  0.00000000E+00  0.00000000E+00
  0.00000000E+00  0.00000000E+00  0.00000000E+00
  0.00000000E+00  0.00000000E+00  0.00000000E+00
  0.00000000E+00  0.00000000E+00  0.00000000E+00
  0.00000000E+00  0.00000000E+00  0.00000000E+00
  0.00000000E+00  0.00000000E+00  0.00000000E+00
  0.00000000E+00  0.00000000E+00  0.00000000E+00
  0.00000000E+00  0.00000000E+00  0.00000000E+00
  0.00000000E+00  0.00000000E+00  0.00000000E+00
  0.00000000E+00  0.00000000E+00  0.00000000E+00
  0.00000000E+00  0.00000000E+00  0.00000000E+00
  0.00000000E+00  0.00000000E+00  0.00000000E+00
  0.00000000E+00  0.00000000E+00  0.00000000E+00
  0.00000000E+00  0.00000000E+00  0.00000000E+00
  0.00000000E+00  0.00000000E+00  0.00000000E+00
  0.00000000E+00  0.00000000E+00  0.00000000E+00
  0.00000000E+00  0.00000000E+00  0.00000000E+00
  0.00000000E+00  0.00000000E+00  0.00000000E+00
  0.00000000E+00  0.00000000E+00  0.00000000E+00
  0.00000000E+00  0.00000000E+00  0.00000000E+00
  0.00000000E+00  0.00000000E+00  0.00000000E+00
  0.00000000E+00  0.00000000E+00  0.00000000E+00
  0.00000000E+00  0.00000000E+00  0.00000000E+00
  0.00000000E+00  0.00000000E+00  0.00000000E+00
  0.00000000E+00  0.00000000E+00  0.00000000E+00
  0.00000000E+00  0.00000000E+00  0.00000000E+00
  0.00000000E+00  0.00000000E+00  0.00000000E+00
  0.00000000E+00  0.00000000E+00  0.00000000E+00
  0.00000000E+00  0.00000000E+00  0.00000000E+00
  0.00000000E+00  0.00000000E+00  0.00000000E+00
  0.00000000E+00  0.00000000E+00  0.00000000E+00
  0.00000000E+00  0.00000000E+00  0.00000000E+00
  0.00000000E+00  0.00000000E+00  0.00000000E+00
  0.00000000E+00  0.00000000E+00  0.00000000E+00
  0.00000000E+00  0.00000000E+00  0.00000000E+00
  0.00000000E+00  0.00000000E+00  0.00000000E+00
