 N B C 
 1.0
 17.527899999999999   0.000000000000000   0.000000000000000
 -8.763949999999996  15.179606674993002   0.000000000000000
  0.000000000000001   0.000000000000002  15.000000000000000
 N B C 
  47  47   4
Cartesian
  8.761225320545098  13.729571626310126   1.665057385933500 
 16.272327229204858   0.717752778818344   1.665043223398065 
 15.021700767391980   2.889771184682476   1.665231562283280 
 13.768458610625885   5.059868891664333   1.665022893145245 
 12.511141683593038   7.228210199479234   1.664711000430420 
 11.267352996409331   9.396849709969205   1.665119916562080 
 10.016860500329647  11.566571380139296   1.665260965834635 
 -6.261589492807952  13.731443479793967   1.664689270697100 
  1.247755395635163   0.714763444102559   1.665067595285295 
 -0.004108402579318   2.883898849676155   1.664846259748560 
 -1.249769058924457   5.059868891664333   1.664835826801485 
 -2.512325056442369   7.229071104512143   1.665165601114830 
 -3.761321705005507   9.397230539460828   1.665146427858195 
 -5.009812383951541  11.565410925304635   1.664789730884835 
 -3.756193384591763  13.732885165963586   1.664814950721555 
  3.756123075315423   0.715048649726280   1.665311947251390 
  2.501058700805181   2.874499118051913   1.665185254301385 
  1.254434380553443   5.046812684660777   1.664902287036450 
 -0.009169444200094   7.236946929461983   1.665059925398400 
 -1.261558547038328   9.402897255763325   1.665570400036335 
 -2.507890871599557  11.568648595556676   1.665224447652180 
 -1.251705100557065  13.737700823291366   1.665199155214575 
  6.264671508716112   0.717795551886133   1.665121586215410 
  5.015493287221979   2.872629786716583   1.665417446821500 
  3.766687637072283   5.014816031058683   1.665160192921950 
  1.229568524656430   9.426808154365775   1.665383882429505 
 -0.006475933310014  11.579250668336572   1.665619243983750 
  1.255287607286134  13.732313000826544   1.665186833943045 
  8.767619298683810   0.722043178258615   1.664630102894310 
  7.515601975205954   2.888167557114032   1.665036079204305 
  6.257775666079329   5.049391533434765   1.665041718297165 
  3.766468490944177   9.390188335161602   1.665680271318600 
  2.509789859929809  11.558514439349304   1.665309232291800 
  3.760351469511432  13.726355767147361   1.664856418523115 
 11.268314792586343   0.722181830218165   1.665080544092505 
 10.012501681364196   2.897313943666035   1.665125658290820 
  8.749021418388290   5.078024741232879   1.664775490584525 
  7.481831414650882   7.267163431790544   1.665593936281620 
  6.284369896269185   9.375983938131773   1.665752859735210 
  5.016793792488352  11.550133826971507   1.664642245293255 
  6.258683689827993  13.728246193078931   1.664770991221860 
 13.770117141264661   0.719584748311679   1.665199549494855 
 12.516601334729984   2.891208951997795   1.665391313935350 
 11.262161973521497   5.059868891664333   1.665162212999010 
 10.002541590416799   7.231098184204771   1.664803413151425 
  8.771840351667757   9.403083458178106   1.665439563663870 
  7.511661339492112  11.561859964990697   1.665114873133035 
  7.510219924955631  14.453369625288111   1.665153547350840 
 15.022114525984296   1.443781633480097   1.665532823925045 
 13.770008795845497   3.614063283134769   1.665540752652255 
 12.515652685367234   5.782641716120786   1.665045611012655 
 11.260941977182817   7.951391200603347   1.665016296557040 
 10.022866611783712  10.123891281746847   1.665763818634980 
  8.765493430138758  12.287330769420480   1.665508421456670 
 -7.514258365313720  14.452293920604092   1.665143565135135 
 -0.003254083562038   1.440758511182754   1.665152389323585 
 -1.251930187663228   3.613958853045505   1.665055399759080 
 -2.504835828078086   5.783033474156801   1.665225590237025 
 -3.762460868333656   7.950917588469640   1.665198753864900 
 -5.008665679359266  10.119737783328667   1.665245404120215 
 -6.259038898703936  12.288868948125490   1.665006684073095 
 -5.008625424046615  14.452820696583041   1.665000677003940 
  2.501196868387309   1.434551366648470   1.665646492335270 
  1.249433639916624   3.605236923391446   1.665194643239070 
  0.006540602634014   5.785501120078726   1.665028276518090 
 -1.259996069374980   7.953647820348373   1.665709662773355 
 -2.508768286348631  10.119737783328667   1.665640490291880 
 -3.758031733291339  12.288893029061944   1.665004432456005 
 -2.503175021771656  14.455364101274437   1.665269615102700 
  5.011494159483456   1.433155730260392   1.665844161904740 
  3.760257171344858   3.582837666159536   1.665460215954990 
  2.526700156476565   5.743364736819101   1.664646047210505 
  1.232083241673817   7.985707009595492   1.664714263045800 
 -0.015122197821746  10.137525126242281   1.665874468214100 
 -1.255913410295968  12.295043619868350   1.665747474011610 
  0.002409525872691  14.456148858100496   1.665179563914135 
  7.515543498813129   1.442566090667982   1.665040145313075 
  6.261960486597564   3.603602074014506   1.665380691211110 
  4.998676772770430   5.755379333388228   1.666502755222545 
  2.497194746101495  10.113242762646905   1.665797402953095 
  1.252388156058368  12.287222021644926   1.665803727854130 
  2.505887779129786  14.454442880686690   1.665320274912255 
 10.015845203727944   1.448415741679209   1.665042263569590 
  8.758051564476531   3.622722844240883   1.665177570168405 
  7.490366957088863   5.796341197497407   1.665144026899830 
  5.019602905293015  10.107484378749097   1.665420139869855 
  3.760280779439985  12.279953668316155   1.664993058957795 
  5.007593434697469  14.453254376780986   1.665019678642650 
 12.518979601947073   1.444955561980403   1.665588868315440 
 11.264543926666944   3.616187451226256   1.665698686471545 
 10.008749470439676   5.786469309239777   1.665180155256990 
  8.758119510858624   7.961550904478172   1.665323514605910 
  7.528248888893267  10.123007913913217   1.665610859571405 
  6.261454113220905  12.285256019316419   1.664974263516180 
  2.561963354481648   7.263527607040406   1.662991777121205 
  3.815581806224273   7.982782204482207   1.666701502347825 
  5.018326506659962   7.297689158501304   1.669329568344210 
  6.281053227770101   7.983117411166454   1.669257838484460 
