B C N O                                 
   1.0000000000000000     
     8.7639499999999995  -15.1796066749929999    0.0000000000000000
     8.7639499999999995   15.1796066749929999    0.0000000000000000
     0.0000000000000000    0.0000000000000000   15.0000000000000000
   B    C    N    O 
    49     1    47     1
Selective dynamics
Direct
  0.9047120564212034  0.9523251314864570  0.1108188591712432   T   T   T
  0.9044245628766606  0.0950531359704629  0.1109239071169352   T   T   T
  0.9044079750892799  0.2379311724777594  0.1109274232394258   T   T   T
  0.9045378690232275  0.3808797141291975  0.1108348291762815   T   T   T
  0.9048684623375488  0.5238906588092567  0.1109291766160523   T   T   T
  0.9052602526157885  0.6669189691492007  0.1109839219206071   T   T   T
  0.9051047388327316  0.8097113643827805  0.1109169086466228   T   T   T
  0.0475999123375225  0.9523060303485668  0.1108241210241979   T   T   T
  0.0469645393174631  0.0946170583576098  0.1108486514907638   T   T   T
  0.0470733125433572  0.2377095023301736  0.1107964857881261   T   T   T
  0.0471944198240951  0.3808282160054728  0.1109107494438984   T   T   T
  0.0471980575927393  0.5238804215795302  0.1109281131245623   T   T   T
  0.0476865259270928  0.6668391782269854  0.1109373018868672   T   T   T
  0.0478138648762437  0.8096731485669070  0.1108561891305816   T   T   T
  0.1904701378472803  0.9523473956205039  0.1108464626865754   T   T   T
  0.1902312301475508  0.0948368916796936  0.1105818450831436   T   T   T
  0.1889462974792029  0.2365760545660250  0.1102434219655953   T   T   T
  0.1899322722920068  0.3804684859763093  0.1104389654341499   T   T   T
  0.1894011697475300  0.5240021855976575  0.1109605909011967   T   T   T
  0.1902376547628398  0.6669482790241565  0.1110247766473991   T   T   T
  0.1904761335453821  0.8097079753663222  0.1109021153479946   T   T   T
  0.3333145786720358  0.9524689715579638  0.1109182855037834   T   T   T
  0.3333061456940840  0.0949061494826969  0.1110409794151557   T   T   T
  0.3330344191962485  0.2368740952303097  0.1102612737400422   T   T   T
  0.3306232316299141  0.3763392063898277  0.1074726595781825   T   T   T
  0.3314327714159312  0.5257012405977972  0.1110663824829786   T   T   T
  0.3330790115044214  0.6677503290517685  0.1110335487647621   T   T   T
  0.3332481374211609  0.8100093445117945  0.1110560407474562   T   T   T
  0.4761217831171849  0.9524783280963589  0.1109355643622222   T   T   T
  0.4761529637105490  0.0952385080219865  0.1107027984736479   T   T   T
  0.4762609927570883  0.2380440335070267  0.1110842626832875   T   T   T
  0.4750115300718313  0.3789689695198828  0.1211768910487643   T   T   T
  0.4800286416462470  0.5265113959317234  0.1253359742142530   T   T   T
  0.4763303800776366  0.6667450780149757  0.1118916421843892   T   T   T
  0.4761307830579717  0.8097019076560331  0.1110165460779041   T   T   T
  0.6189183745731951  0.9524385841314069  0.1109403972555281   T   T   T
  0.6188775315555358  0.0951824213127712  0.1108109002352152   T   T   T
  0.6189689066084960  0.2379341931522167  0.1106412724292602   T   T   T
  0.6190582713040654  0.3804776941230323  0.1104776593272208   T   T   T
  0.6229137421157568  0.5253294137967500  0.1074063106708727   T   T   T
  0.6204254960253185  0.6680689978417409  0.1109006587557659   T   T   T
  0.6191956507777374  0.8097945484988970  0.1109145638480641   T   T   T
  0.7618124241288492  0.9524120412526239  0.1108298759502815   T   T   T
  0.7616459595581810  0.0951537084481573  0.1109294886208087   T   T   T
  0.7616909267823542  0.2379794232174398  0.1108270930965366   T   T   T
  0.7618999150588929  0.3808732942293674  0.1106789996037336   T   T   T
  0.7627908158069008  0.5240916488532984  0.1110409508165668   T   T   T
  0.7629255682770724  0.6671270797976429  0.1110975643718749   T   T   T
  0.7624661857539401  0.8100169205429639  0.1106421623617940   T   T   T
  0.3813346170855266  0.4753612362995602  0.1137499444218830   T   T   T
  0.9523802322383853  0.9047431621491565  0.1107998511151729   T   T   T
  0.9518994122507346  0.0472770860122518  0.1108583596680918   T   T   T
  0.9518795394728817  0.1902361261537548  0.1108807061115270   T   T   T
  0.9519844180490716  0.3331782238142807  0.1108864022227609   T   T   T
  0.9520668027455270  0.4761300391563952  0.1108094637751934   T   T   T
  0.9524743176561727  0.6191051452731272  0.1108885216986942   T   T   T
  0.9525818798826599  0.7620110554094084  0.1108509228826627   T   T   T
  0.0952524857277867  0.9047600779490316  0.1108279877552254   T   T   T
  0.0949612903349767  0.0473202626675576  0.1107612627069862   T   T   T
  0.0940015380317595  0.1894243889477918  0.1108196750409456   T   T   T
  0.0946852306437728  0.3330613269498861  0.1107834153134590   T   T   T
  0.0943894011034303  0.4761408998929967  0.1109283434495769   T   T   T
  0.0950186855955055  0.6191402677349919  0.1109768947416205   T   T   T
  0.0952598718417643  0.7620110151093468  0.1108817828207553   T   T   T
  0.2380883520140884  0.9048341633286709  0.1108349931774422   T   T   T
  0.2380450011572633  0.0474308488066732  0.1108383610496887   T   T   T
  0.2377646006965600  0.1898931595378480  0.1100156802680423   T   T   T
  0.2358852582302052  0.3310071483968154  0.1090947243219149   T   T   T
  0.2366870957638467  0.4764405665082657  0.1107325755477073   T   T   T
  0.2377178880232326  0.6193921520644674  0.1110101578930073   T   T   T
  0.2380017128703649  0.7621673103143419  0.1109759965986847   T   T   T
  0.3809522398649137  0.9050543724753849  0.1109303836045512   T   T   T
  0.3809893783553797  0.0475512679705697  0.1109221472800920   T   T   T
  0.3810849188190403  0.1900099365621934  0.1111322558307527   T   T   T
  0.3808786481597924  0.3321581215259105  0.1103366399602035   T   T   T
  0.3806362881853626  0.6205078326507926  0.1110131314314807   T   T   T
  0.3809403263864971  0.7626980936947612  0.1111205028421217   T   T   T
  0.5237744988543015  0.9048376100686690  0.1109744562162921   T   T   T
  0.5237577380724854  0.0476733959654288  0.1108020436909256   T   T   T
  0.5238875387706550  0.1905988039541575  0.1104310318083222   T   T   T
  0.5242507280816255  0.3338386472909012  0.1126912436695225   T   T   T
  0.5261244537102474  0.6202311772026330  0.1144616809016354   T   T   T
  0.5239055399818517  0.7619153532434214  0.1109793118438305   T   T   T
  0.6666003300928043  0.9048131654635914  0.1109040939118516   T   T   T
  0.6664853287460022  0.0475886569210239  0.1108347845314775   T   T   T
  0.6665327899969254  0.1904163606119602  0.1107807756100969   T   T   T
  0.6666425760012197  0.3332890050046299  0.1103127471904198   T   T   T
  0.6672922998543340  0.4762496528547552  0.1099766964250723   T   T   T
  0.6674275172304404  0.6192445232927364  0.1102273641103156   T   T   T
  0.6674733862340030  0.7626507188151760  0.1103103452855961   T   T   T
  0.8095800999566183  0.9048806662208886  0.1107283962514385   T   T   T
  0.8092362266581971  0.0475227053577691  0.1109181961201520   T   T   T
  0.8092144663691115  0.1903626566583845  0.1109064345903226   T   T   T
  0.8093159536512310  0.3332449365618455  0.1107443987865547   T   T   T
  0.8096557667130981  0.4761814809202894  0.1110118551890224   T   T   T
  0.8099885495276847  0.6191838738277727  0.1110714670230078   T   T   T
  0.8098684978222476  0.7620727795111104  0.1109824173627095   T   T   T
  0.5290215650462315  0.4781739127702921  0.1046836134886024   T   T   T

  0.00000000E+00  0.00000000E+00  0.00000000E+00
  0.00000000E+00  0.00000000E+00  0.00000000E+00
  0.00000000E+00  0.00000000E+00  0.00000000E+00
  0.00000000E+00  0.00000000E+00  0.00000000E+00
  0.00000000E+00  0.00000000E+00  0.00000000E+00
  0.00000000E+00  0.00000000E+00  0.00000000E+00
  0.00000000E+00  0.00000000E+00  0.00000000E+00
  0.00000000E+00  0.00000000E+00  0.00000000E+00
  0.00000000E+00  0.00000000E+00  0.00000000E+00
  0.00000000E+00  0.00000000E+00  0.00000000E+00
  0.00000000E+00  0.00000000E+00  0.00000000E+00
  0.00000000E+00  0.00000000E+00  0.00000000E+00
  0.00000000E+00  0.00000000E+00  0.00000000E+00
  0.00000000E+00  0.00000000E+00  0.00000000E+00
  0.00000000E+00  0.00000000E+00  0.00000000E+00
  0.00000000E+00  0.00000000E+00  0.00000000E+00
  0.00000000E+00  0.00000000E+00  0.00000000E+00
  0.00000000E+00  0.00000000E+00  0.00000000E+00
  0.00000000E+00  0.00000000E+00  0.00000000E+00
  0.00000000E+00  0.00000000E+00  0.00000000E+00
  0.00000000E+00  0.00000000E+00  0.00000000E+00
  0.00000000E+00  0.00000000E+00  0.00000000E+00
  0.00000000E+00  0.00000000E+00  0.00000000E+00
  0.00000000E+00  0.00000000E+00  0.00000000E+00
  0.00000000E+00  0.00000000E+00  0.00000000E+00
  0.00000000E+00  0.00000000E+00  0.00000000E+00
  0.00000000E+00  0.00000000E+00  0.00000000E+00
  0.00000000E+00  0.00000000E+00  0.00000000E+00
  0.00000000E+00  0.00000000E+00  0.00000000E+00
  0.00000000E+00  0.00000000E+00  0.00000000E+00
  0.00000000E+00  0.00000000E+00  0.00000000E+00
  0.00000000E+00  0.00000000E+00  0.00000000E+00
  0.00000000E+00  0.00000000E+00  0.00000000E+00
  0.00000000E+00  0.00000000E+00  0.00000000E+00
  0.00000000E+00  0.00000000E+00  0.00000000E+00
  0.00000000E+00  0.00000000E+00  0.00000000E+00
  0.00000000E+00  0.00000000E+00  0.00000000E+00
  0.00000000E+00  0.00000000E+00  0.00000000E+00
  0.00000000E+00  0.00000000E+00  0.00000000E+00
  0.00000000E+00  0.00000000E+00  0.00000000E+00
  0.00000000E+00  0.00000000E+00  0.00000000E+00
  0.00000000E+00  0.00000000E+00  0.00000000E+00
  0.00000000E+00  0.00000000E+00  0.00000000E+00
  0.00000000E+00  0.00000000E+00  0.00000000E+00
  0.00000000E+00  0.00000000E+00  0.00000000E+00
  0.00000000E+00  0.00000000E+00  0.00000000E+00
  0.00000000E+00  0.00000000E+00  0.00000000E+00
  0.00000000E+00  0.00000000E+00  0.00000000E+00
  0.00000000E+00  0.00000000E+00  0.00000000E+00
  0.00000000E+00  0.00000000E+00  0.00000000E+00
  0.00000000E+00  0.00000000E+00  0.00000000E+00
  0.00000000E+00  0.00000000E+00  0.00000000E+00
  0.00000000E+00  0.00000000E+00  0.00000000E+00
  0.00000000E+00  0.00000000E+00  0.00000000E+00
  0.00000000E+00  0.00000000E+00  0.00000000E+00
  0.00000000E+00  0.00000000E+00  0.00000000E+00
  0.00000000E+00  0.00000000E+00  0.00000000E+00
  0.00000000E+00  0.00000000E+00  0.00000000E+00
  0.00000000E+00  0.00000000E+00  0.00000000E+00
  0.00000000E+00  0.00000000E+00  0.00000000E+00
  0.00000000E+00  0.00000000E+00  0.00000000E+00
  0.00000000E+00  0.00000000E+00  0.00000000E+00
  0.00000000E+00  0.00000000E+00  0.00000000E+00
  0.00000000E+00  0.00000000E+00  0.00000000E+00
  0.00000000E+00  0.00000000E+00  0.00000000E+00
  0.00000000E+00  0.00000000E+00  0.00000000E+00
  0.00000000E+00  0.00000000E+00  0.00000000E+00
  0.00000000E+00  0.00000000E+00  0.00000000E+00
  0.00000000E+00  0.00000000E+00  0.00000000E+00
  0.00000000E+00  0.00000000E+00  0.00000000E+00
  0.00000000E+00  0.00000000E+00  0.00000000E+00
  0.00000000E+00  0.00000000E+00  0.00000000E+00
  0.00000000E+00  0.00000000E+00  0.00000000E+00
  0.00000000E+00  0.00000000E+00  0.00000000E+00
  0.00000000E+00  0.00000000E+00  0.00000000E+00
  0.00000000E+00  0.00000000E+00  0.00000000E+00
  0.00000000E+00  0.00000000E+00  0.00000000E+00
  0.00000000E+00  0.00000000E+00  0.00000000E+00
  0.00000000E+00  0.00000000E+00  0.00000000E+00
  0.00000000E+00  0.00000000E+00  0.00000000E+00
  0.00000000E+00  0.00000000E+00  0.00000000E+00
  0.00000000E+00  0.00000000E+00  0.00000000E+00
  0.00000000E+00  0.00000000E+00  0.00000000E+00
  0.00000000E+00  0.00000000E+00  0.00000000E+00
  0.00000000E+00  0.00000000E+00  0.00000000E+00
  0.00000000E+00  0.00000000E+00  0.00000000E+00
  0.00000000E+00  0.00000000E+00  0.00000000E+00
  0.00000000E+00  0.00000000E+00  0.00000000E+00
  0.00000000E+00  0.00000000E+00  0.00000000E+00
  0.00000000E+00  0.00000000E+00  0.00000000E+00
  0.00000000E+00  0.00000000E+00  0.00000000E+00
  0.00000000E+00  0.00000000E+00  0.00000000E+00
  0.00000000E+00  0.00000000E+00  0.00000000E+00
  0.00000000E+00  0.00000000E+00  0.00000000E+00
  0.00000000E+00  0.00000000E+00  0.00000000E+00
  0.00000000E+00  0.00000000E+00  0.00000000E+00
  0.00000000E+00  0.00000000E+00  0.00000000E+00
  0.00000000E+00  0.00000000E+00  0.00000000E+00
