 N As B 
 1.0
 14.936314146199660   0.000000000000000   0.000000000000000
 -7.468157073099825  12.935227489513863   0.000000000000000
  0.000000000000001   0.000000000000001  13.341276283792837
 N As B 
 143   1 143
Cartesian
  1.244896370647272   0.718551056124990   1.661581957674028 
  4.978549938810670   7.187415025726867   1.615444464477662 
  6.223847357524312   0.718525462044664   1.657199244415404 
  9.957002081011105   7.185892416283948   1.656059745851178 
 11.202739436693534   0.718914634093790   1.656273896954448 
 -3.734594468469577   9.341810868988818   8.343266368905995 
  1.244799291125796   9.342489686374556   8.348757968434187 
  2.489150007267596   2.874270472154470   8.357870598989299 
  6.222998981602646   9.342260185757926   8.360796381222647 
  7.468731046900102   2.874170506342054   8.362383823943949 
 12.447296043383894   2.874796906497551   8.347553264515897 
 -1.244713314996035   9.342204100710413   1.664043258127420 
  0.000019250236687   2.874506111799914   1.658509667025140 
  4.979261966634065   2.874234441371034   1.637919370359203 
  3.734084505726995   9.342768063965291   1.643573388903027 
  8.712280730834044   9.341813036056362   1.656059745851178 
  9.958186747361220   2.874443668506239   1.652128511138486 
 -4.978830636403875  11.497768836532229   8.344459431462367 
  0.000355148619939  11.498185035828463   8.344075427718185 
  1.244380558834491   5.030274400550112   8.357870598989299 
  6.224373278191034   5.029585704664941   8.390512748370048 
  4.979048921319541  11.498563361098533   8.353828701709622 
 11.202354019430022   5.030334813472828   8.348242708347936 
 -1.244654037186901   5.030578850497834   1.661581957674028 
 -2.489313343082075  11.497914584457099   1.664043258127420 
  2.489746149613078  11.498538668643766   1.656866448375593 
  3.732180669639889   5.029270511944585   1.609026499289753 
  7.468189056682730  11.498098252794724   1.657714504495692 
  8.712748449403609   5.029887609409055   1.645160831614416 
  0.000027464687894   7.186555295179484   8.347243643681695 
  1.244896370647273   0.718551056124991   8.344375255174283 
  4.978549938810671   7.187415025726868   8.390512748370048 
  6.223847357523924   0.718525462045337   8.348757968434187 
  9.957002081011105   7.185892416283949   8.349897466995090 
 -2.489598183059952   7.186291755491199   1.661497781380433 
 11.202739436693543   0.718914634093777   8.349683315884162 
  3.734367492638297   0.718488634031157   1.658713569161651 
  2.489405334943825   7.186792631020843   1.637919370359376 
  7.467624369747829   7.185929937753421   1.640626786343564 
  8.713513977214991   0.718656576724604   1.656866448375633 
  2.489405334943826   7.186792631020844   8.368037842484650 
 13.692066555507919   0.718791135735297   1.658403948322701 
 -1.244713314996035   9.342204100710413   8.341913954714432 
  0.000019250235926   2.874506111799914   8.347447545811310 
  4.979261966634066   2.874234441371009   8.368037842484650 
  3.734084505727009   9.342768063965291   8.362383823943949 
  8.712280730834044   9.341813036056362   8.349897466995090 
  9.958186747359859   2.874443668506240   8.353828701709622 
 -3.734594468469578   9.341810868988818   1.662690843939193 
  1.244799291125781   9.342489686374556   1.657199244415404 
  2.489150007267596   2.874270472154469   1.648086613857597 
  6.222998981602645   9.342260185757926   1.645160831614416 
  7.468731046900116   2.874170506342053   1.643573388903027 
 12.447296043383894   2.874796906497550   1.658403948322701 
 -1.244654037186653   5.030578850497666   8.344375255174283 
 -2.489313343082074  11.497914584457099   8.341913954714432 
  2.489746149613078  11.498538668643766   8.349090764467768 
  3.732180669639889   5.029270511944586   8.396930713551553 
  7.468189056682731  11.498098252794724   8.348242708347936 
 -4.978830636403891  11.497768836532229   1.661497781380433 
  8.712748449403602   5.029887609409069   8.360796381222647 
  0.000355148619939  11.498185035828463   1.661881785125682 
  1.244380558834504   5.030274400550111   1.648086613857597 
  0.000027464687909   7.186555295179483   1.658713569161651 
  6.224373278191040   5.029585704664926   1.615444464477622 
  4.979048921319540  11.498563361098533   1.652128511138486 
 11.202354019429379   5.030334813472827   1.657714504495732 
 -2.489598183059952   7.186291755491200   8.344459431462367 
  3.734367492638298   0.718488634031158   8.347243643681695 
  7.467624369747830   7.185929937753422   8.365330426499369 
  8.713513977215049   0.718656576724527   8.349090764467768 
 13.692066555507859   0.718791135735298   8.347553264515897 
  0.048841100481758   1.470060706541319   5.002978606422314 
  3.659293686419612   8.051438708810810   5.002978606422314 
  5.014334116451904   1.368721478111496   5.002978606422314 
  8.674098781681833   7.882488264247296   5.002978606422314 
  9.998538705765661   1.443171494145678   5.002978606422314 
 -4.985519446112149  10.056627286719849  11.673616748318732 
 -0.006803115126823  10.056658019724400  11.673616748318732 
  1.238300830187682   3.589428315314120  11.673616748318732 
  4.972129844602180  10.056758929921143  11.673616748318732 
  6.216949614190388   3.589243960987464  11.673616748318732 
 11.195889695760126   3.589441556182343  11.673616748318732 
 -2.504478279133915  10.052018782044543   5.002978606422314 
 -1.191855223819234   3.619009776994606   5.002978606422314 
  3.850352559366519   3.553735241909761   5.002978606422314 
  2.466303243803523  10.129789283967051   5.002978606422314 
  7.462127702832838  10.065840939482522   5.002978606422314 
  8.757420233624664   3.573116060150529   5.002978606422314 
 -6.230213962996623  12.212867476731676  11.673616748318732 
 -1.251622999439333  12.212749305625719  11.673616748318732 
 -0.006835670009592   5.745193049507458  11.673616748318732 
  4.972056338354145   5.745113063044477  11.673616748318732 
  3.727223984177081  12.212861804673640  11.673616748318732 
  9.950880141562971   5.745084522986851  11.673616748318732 
 -2.472691552345797   5.758537684719083   5.002978606422314 
 -3.732716695187071  12.194684637804301   5.002978606422314 
  1.258047968987072  12.224314324221842   5.002978606422314 
  2.513415586467776   5.869378005487735   5.002978606422314 
  6.253369320387403  12.248139695707140   5.002978606422314 
  7.446944350743616   5.705996387241238   5.002978606422314 
 -1.251271204724044   7.901150740706279  11.673616748318732 
 -0.006487319182012   1.433277443012679  11.673616748318732 
  3.727465566662695   7.901156815937854  11.673616748318732 
  4.972127332095939   1.433091439553486  11.673616748318732 
  8.706308804828053   7.901084729775540  11.673616748318732 
 -3.755068261315186   7.898013755073888   5.002978606422314 
  9.950874876812138   1.433182250057318  11.673616748318732 
  2.532699894935014   1.449584775236425   5.002978606422314 
  1.203128937940322   7.969922485363214   5.002978606422314 
  6.175624309587023   7.907987291204976   5.002978606422314 
  7.516420785770622   1.382729117085175   5.002978606422314 
  1.237771567611861   7.901185357177643  11.673616748318732 
 12.492387197167442   1.463493115767169   5.002978606422314 
 -2.496322083866805  10.056727763578074  11.673616748318732 
 -1.251374674305135   3.589485591786009  11.673616748318732 
  3.727294743442296   3.589211535794202  11.673616748318732 
  2.482486322687484  10.056876859006909  11.673616748318732 
  7.461443523545317  10.056915227615868  11.673616748318732 
  8.706087944312923   3.589353787888755  11.673616748318732 
 -4.995196343457816  10.045978601237938   5.002978606422314 
 -0.017476342982610  10.079788503293580   5.002978606422314 
  1.319134324814275   3.636097555201624   5.002978606422314 
  4.983733704540737  10.109332860362231   5.002978606422314 
  6.313011611023188   3.455064434441097   5.002978606422314 
 11.244499094746223   3.603249339347842   5.002978606422314 
 -2.495996257728318   5.745012684683561  11.673616748318732 
 -3.740581105918006  12.212761965358514  11.673616748318732 
  1.238082117274362  12.212787034369653  11.673616748318732 
  2.482610050242981   5.745068663818710  11.673616748318732 
  6.217106729899214  12.212946612912068  11.673616748318732 
 -6.206848616688116  12.226287443602240   5.002978606422314 
  7.461584056341596   5.745012795231959  11.673616748318732 
 -1.236928026994610  12.191940777377805   5.002978606422314 
  0.032341496727021   5.780332558063871   5.002978606422314 
 -1.262994424246456   7.917000183949623   5.002978606422314 
  3.759706837797659  12.249145269346180   5.002978606422314 
  9.958952124429690   5.741214183698048   5.002978606422314 
 -3.741007780497735   7.901069851263188  11.673616748318732 
  2.482679604479450   1.433226107873577  11.673616748318732 
  6.216733362873391   7.901157444156256  11.673616748318732 
  7.461368312938393   1.433200287002623  11.673616748318732 
 12.440252754425947   1.433393281214075  11.673616748318732 
  4.453271732119939   5.445592630983748   5.002978606422314 
  1.287130187228143   0.739459525796361   5.002978606422314 
  4.848430788802832   7.305361513488163   5.002978606422314 
  6.256489417834268   0.681137295708708   5.002978606422314 
  9.931842559881773   7.177546838813020   5.002978606422314 
 11.245832515508752   0.743794434754252   5.002978606422314 
 -3.741323323617824   9.337925962662444  11.673616748318732 
  1.237831918002595   9.337713669172889  11.673616748318732 
  2.483527475823444   2.872500708691645  11.673616748318732 
  6.216200877901435   9.337474313691260  11.673616748318732 
  7.461202836863841   2.872390051300540  11.673616748318732 
 12.440759532270310   2.872326507051624  11.673616748318732 
 -1.255958303236256   9.348631883606071   5.002978606422314 
  0.074094057166011   2.917273221521539   5.002978606422314 
  5.031095042670305   2.795557525655057   5.002978606422314 
  3.708219025595700   9.442897822590798   5.002978606422314 
  8.692473488173082   9.324197040341808   5.002978606422314 
 10.004224026356656   2.878199752756111   5.002978606422314 
 -4.984654093856810  11.494707294956273  11.673616748318732 
 -0.005940764449366  11.494550088730815  11.673616748318732 
  1.240036632991117   5.026290027223922  11.673616748318732 
  6.217192386266571   5.026250482575216  11.673616748318732 
  4.972972018739573  11.494347574576199  11.673616748318732 
 11.197013854257268   5.026058200309256  11.673616748318732 
 -1.205429863009348   5.056700173724160   5.002978606422314 
 -2.489369213914219  11.484962247510119   5.002978606422314 
  2.502652100886894  11.542101596028090   5.002978606422314 
  7.483635393708451  11.509307364778701   5.002978606422314 
  8.712192269624712   5.013821169301584   5.002978606422314 
 -0.006086447187932   7.183701487347767  11.673616748318732 
  1.238061374913771   0.714852804939836  11.673616748318732 
  4.972071105800363   7.182863801927922  11.673616748318732 
  6.216227518735265   0.714879548526461  11.673616748318732 
  9.950822039425997   7.183613501963808  11.673616748318732 
 -2.499694895432440   7.192547236317940   5.002978606422314 
 11.195142712205499   0.714528663168855  11.673616748318732 
  3.754416571606167   0.697181306541204   5.002978606422314 
  2.447185665260152   7.271019849483141   5.002978606422314 
  7.410184943680736   7.152767269657870   5.002978606422314 
  8.757693554633304   0.708051994689740   5.002978606422314 
  2.483811116960793   7.182377671912795  11.673616748318732 
 13.740409134243121   0.751713370981509   5.002978606422314 
 -1.249932933243235   9.337613487730231  11.673616748318732 
 -0.005261385628899   2.871457335260848  11.673616748318732 
  4.972641390898647   2.871597186036862  11.673616748318732 
  3.728778481406918   9.337138670359494  11.673616748318732 
  8.707217112345774   9.337600420209732  11.673616748318732 
  9.951497317843771   2.871288809760624  11.673616748318732 
 -3.750216876432166   9.332791267551675   5.002978606422314 
  1.228741219433940   9.389452623001022   5.002978606422314 
  2.583483568923718   2.917524283649464   5.002978606422314 
  6.208806946430623   9.349811739995980   5.002978606422314 
  7.542513221469245   2.801705464171319   5.002978606422314 
 12.499978824824014   2.900201690143799   5.002978606422314 
 -1.251274314531827   5.026508696154037  11.673616748318732 
 -2.495898739656420  11.495689568931203  11.673616748318732 
  2.482913297606447  11.495344968062344  11.673616748318732 
  3.727429680407772   5.026527527040077  11.673616748318732 
  7.461815318462608  11.495611840662530  11.673616748318732 
 -4.978461587281053  11.485897086709217   5.002978606422314 
  8.705204710763267   5.026393214940887  11.673616748318732 
  0.008927130269996  11.503134071741076   5.002978606422314 
  1.329006239228548   5.090342755624819   5.002978606422314 
 -0.008400682720740   7.214571970631886   5.002978606422314 
  6.261458357876716   4.857925971356662   5.002978606422314 
  5.005320425209097  11.536554772084504   5.002978606422314 
 11.219784563685124   5.038107177722771   5.002978606422314 
 -2.495161284557576   7.182779264172591  11.673616748318732 
  3.728839066616880   0.714620734952493  11.673616748318732 
  7.461619693074837   7.182463136057779  11.673616748318732 
  8.707331725377632   0.714336003594585  11.673616748318732 
 13.686658871273405   0.714365550781430  11.673616748318732 
  0.000680724007059   1.437268318674450   1.661355998875797 
  3.735275790380084   7.903094636566621   1.636699855227384 
  4.978723807158489   1.438853822102582   1.655205123775715 
  8.710818751236198   7.903688548562457   1.653067117078512 
  9.957668483928648   1.436648157749187   1.655899033477637 
 -4.979759422387629  10.059567610781206   8.344623155409097 
  0.000668455779297  10.059570719793141   8.343069441077727 
  1.246592985800353   3.594215793591292   8.349851399497254 
  4.978155729183158  10.059085883612401   8.357903929313848 
  6.222532927938848   3.595038902826482   8.369257357624127 
 11.202625244374468   3.593253262279487   8.349062390540265 
 -2.489929109991923  10.060418748750843   1.665053650123746 
 -1.244334453003392   3.593697861450975   1.661355998875797 
  3.733625952702787   3.595806283878369   1.641133339597526 
  2.489680587155060  10.059839492549001   1.654651799548611 
  7.466470095909542  10.059720098402616   1.654538562498012 
  8.711116087622546   3.593408880154806   1.648053283531367 
 -6.224293064139034  12.217451531360856   8.344106832002408 
 -1.245364741741367  12.217763525816451   8.343069441077727 
  0.001474074160035   5.748367763217453   8.345623776429445 
  4.976660439800548   5.747771242253934   8.363368843225180 
  3.733622351841390  12.217012287176948   8.350058179369553 
  9.955822517097134   5.748035226961076   8.351418650343387 
 -2.489065900540034   5.747848306195956   1.661850380843207 
 -3.733825296303777  12.217811042060726   1.663316211731817 
  1.245299389758663  12.216953928567895   1.660058211520283 
  2.491486874241889   5.747254277839444   1.641133339597526 
  6.223775538520678  12.216873916067671   1.656894822310660 
  7.464855919402409   5.746764976875768   1.636880137091920 
 -1.243520671226597   7.904476905103257   8.342641001113570 
  0.000680724007052   1.437268318674463   8.344601213971124 
  3.735275790380090   7.903094636566583   8.369257357624127 
  4.978723807158475   1.438853822102583   8.350752089065443 
  8.710818751236198   7.903688548562458   8.352890095771933 
 -3.735581373302564   7.904588016103931   1.661334057439238 
  9.957668483928648   1.436648157749188   8.350058179369553 
  2.489583859287600   1.438835200567197   1.660333436420919 
  1.246060174815605   7.904016880885226   1.655205123775782 
  6.219886728219479   7.903114869862550   1.636880137091947 
  7.467531161081887   1.437949386021782   1.654651799548611 
  1.246060174815523   7.904016880885241   8.350752089065443 
 12.447030786903762   1.437306580088078   1.658504651964154 
 -2.489929109991967  10.060418748750843   8.340903562716106 
 -1.244334453003391   3.593697861450976   8.344601213971124 
  3.733625952702787   3.595806283878370   8.364823873244621 
  2.489680587155061  10.059839492549001   8.351305413291493 
  7.466470095909543  10.059720098402616   8.351418650343387 
  8.711116087622546   3.593408880154807   8.357903929313848 
 -4.979759422387615  10.059567610781206   1.661334057439238 
  0.000668455779296  10.059570719793141   1.662887771773624 
  1.246592985800367   3.594215793591291   1.656105813350789 
  4.978155729183157  10.059085883612401   1.648053283531353 
  6.222532927938847   3.595038902826481   1.636699855227411 
 11.202625244374468   3.593253262279486   1.656894822310660 
 -2.489065900539891   5.747848306195711   8.344106832002408 
 -3.733825296303776  12.217811042060726   8.342641001113570 
  1.245299389758663  12.216953928567895   8.345899001317020 
  2.491486874241889   5.747254277839445   8.364823873244621 
  6.223775538520679  12.216873916067671   8.349062390540265 
 -6.224293064139013  12.217451531360819   1.661850380843207 
  7.464855919402410   5.746764976875769   8.369077075753454 
 -1.245364741741382  12.217763525816451   1.662887771773624 
  0.001474074160035   5.748367763217452   1.660333436420919 
 -1.243520671226597   7.904476905103256   1.663316211731804 
  4.976660439800547   5.747771242253934   1.642588369621688 
  3.733622351841389  12.217012287176948   1.655899033477076 
  9.955822517097134   5.748035226961075   1.654538562498012 
 -3.735581373302563   7.904588016103932   8.344623155409097 
  2.489583859287600   1.438835200567198   8.345623776429445 
  6.219886728219480   7.903114869862550   8.369077075753454 
  7.467531161081888   1.437949386021782   8.351305413291493 
 12.447030786903762   1.437306580088078   8.347452560878727 
Generated by cif2cell 2.0.0.  :  Failed to get author information, No journal information. Species order: N As B 
 1.0
 14.936314146199660   0.000000000000000   0.000000000000000
 -7.468157073099825  12.935227489513863   0.000000000000000
  0.000000000000001   0.000000000000001  13.341276283792837
 N As B 
 143   1 143
Cartesian
  1.244896370647272   0.718551056124990   1.661581957674028 
  4.978549938810670   7.187415025726867   1.615444464477662 
  6.223847357524312   0.718525462044664   1.657199244415404 
  9.957002081011105   7.185892416283948   1.656059745851178 
 11.202739436693534   0.718914634093790   1.656273896954448 
 -3.734594468469577   9.341810868988818   8.343266368905995 
  1.244799291125796   9.342489686374556   8.348757968434187 
  2.489150007267596   2.874270472154470   8.357870598989299 
  6.222998981602646   9.342260185757926   8.360796381222647 
  7.468731046900102   2.874170506342054   8.362383823943949 
 12.447296043383894   2.874796906497551   8.347553264515897 
 -1.244713314996035   9.342204100710413   1.664043258127420 
  0.000019250236687   2.874506111799914   1.658509667025140 
  4.979261966634065   2.874234441371034   1.637919370359203 
  3.734084505726995   9.342768063965291   1.643573388903027 
  8.712280730834044   9.341813036056362   1.656059745851178 
  9.958186747361220   2.874443668506239   1.652128511138486 
 -4.978830636403875  11.497768836532229   8.344459431462367 
  0.000355148619939  11.498185035828463   8.344075427718185 
  1.244380558834491   5.030274400550112   8.357870598989299 
  6.224373278191034   5.029585704664941   8.390512748370048 
  4.979048921319541  11.498563361098533   8.353828701709622 
 11.202354019430022   5.030334813472828   8.348242708347936 
 -1.244654037186901   5.030578850497834   1.661581957674028 
 -2.489313343082075  11.497914584457099   1.664043258127420 
  2.489746149613078  11.498538668643766   1.656866448375593 
  3.732180669639889   5.029270511944585   1.609026499289753 
  7.468189056682730  11.498098252794724   1.657714504495692 
  8.712748449403609   5.029887609409055   1.645160831614416 
  0.000027464687894   7.186555295179484   8.347243643681695 
  1.244896370647273   0.718551056124991   8.344375255174283 
  4.978549938810671   7.187415025726868   8.390512748370048 
  6.223847357523924   0.718525462045337   8.348757968434187 
  9.957002081011105   7.185892416283949   8.349897466995090 
 -2.489598183059952   7.186291755491199   1.661497781380433 
 11.202739436693543   0.718914634093777   8.349683315884162 
  3.734367492638297   0.718488634031157   1.658713569161651 
  2.489405334943825   7.186792631020843   1.637919370359376 
  7.467624369747829   7.185929937753421   1.640626786343564 
  8.713513977214991   0.718656576724604   1.656866448375633 
  2.489405334943826   7.186792631020844   8.368037842484650 
 13.692066555507919   0.718791135735297   1.658403948322701 
 -1.244713314996035   9.342204100710413   8.341913954714432 
  0.000019250235926   2.874506111799914   8.347447545811310 
  4.979261966634066   2.874234441371009   8.368037842484650 
  3.734084505727009   9.342768063965291   8.362383823943949 
  8.712280730834044   9.341813036056362   8.349897466995090 
  9.958186747359859   2.874443668506240   8.353828701709622 
 -3.734594468469578   9.341810868988818   1.662690843939193 
  1.244799291125781   9.342489686374556   1.657199244415404 
  2.489150007267596   2.874270472154469   1.648086613857597 
  6.222998981602645   9.342260185757926   1.645160831614416 
  7.468731046900116   2.874170506342053   1.643573388903027 
 12.447296043383894   2.874796906497550   1.658403948322701 
 -1.244654037186653   5.030578850497666   8.344375255174283 
 -2.489313343082074  11.497914584457099   8.341913954714432 
  2.489746149613078  11.498538668643766   8.349090764467768 
  3.732180669639889   5.029270511944586   8.396930713551553 
  7.468189056682731  11.498098252794724   8.348242708347936 
 -4.978830636403891  11.497768836532229   1.661497781380433 
  8.712748449403602   5.029887609409069   8.360796381222647 
  0.000355148619939  11.498185035828463   1.661881785125682 
  1.244380558834504   5.030274400550111   1.648086613857597 
  0.000027464687909   7.186555295179483   1.658713569161651 
  6.224373278191040   5.029585704664926   1.615444464477622 
  4.979048921319540  11.498563361098533   1.652128511138486 
 11.202354019429379   5.030334813472827   1.657714504495732 
 -2.489598183059952   7.186291755491200   8.344459431462367 
  3.734367492638298   0.718488634031158   8.347243643681695 
  7.467624369747830   7.185929937753422   8.365330426499369 
  8.713513977215049   0.718656576724527   8.349090764467768 
 13.692066555507859   0.718791135735298   8.347553264515897 
  0.048841100481758   1.470060706541319   5.002978606422314 
  3.659293686419612   8.051438708810810   5.002978606422314 
  5.014334116451904   1.368721478111496   5.002978606422314 
  8.674098781681833   7.882488264247296   5.002978606422314 
  9.998538705765661   1.443171494145678   5.002978606422314 
 -4.985519446112149  10.056627286719849  11.673616748318732 
 -0.006803115126823  10.056658019724400  11.673616748318732 
  1.238300830187682   3.589428315314120  11.673616748318732 
  4.972129844602180  10.056758929921143  11.673616748318732 
  6.216949614190388   3.589243960987464  11.673616748318732 
 11.195889695760126   3.589441556182343  11.673616748318732 
 -2.504478279133915  10.052018782044543   5.002978606422314 
 -1.191855223819234   3.619009776994606   5.002978606422314 
  3.850352559366519   3.553735241909761   5.002978606422314 
  2.466303243803523  10.129789283967051   5.002978606422314 
  7.462127702832838  10.065840939482522   5.002978606422314 
  8.757420233624664   3.573116060150529   5.002978606422314 
 -6.230213962996623  12.212867476731676  11.673616748318732 
 -1.251622999439333  12.212749305625719  11.673616748318732 
 -0.006835670009592   5.745193049507458  11.673616748318732 
  4.972056338354145   5.745113063044477  11.673616748318732 
  3.727223984177081  12.212861804673640  11.673616748318732 
  9.950880141562971   5.745084522986851  11.673616748318732 
 -2.472691552345797   5.758537684719083   5.002978606422314 
 -3.732716695187071  12.194684637804301   5.002978606422314 
  1.258047968987072  12.224314324221842   5.002978606422314 
  2.513415586467776   5.869378005487735   5.002978606422314 
  6.253369320387403  12.248139695707140   5.002978606422314 
  7.446944350743616   5.705996387241238   5.002978606422314 
 -1.251271204724044   7.901150740706279  11.673616748318732 
 -0.006487319182012   1.433277443012679  11.673616748318732 
  3.727465566662695   7.901156815937854  11.673616748318732 
  4.972127332095939   1.433091439553486  11.673616748318732 
  8.706308804828053   7.901084729775540  11.673616748318732 
 -3.755068261315186   7.898013755073888   5.002978606422314 
  9.950874876812138   1.433182250057318  11.673616748318732 
  2.532699894935014   1.449584775236425   5.002978606422314 
  1.203128937940322   7.969922485363214   5.002978606422314 
  6.175624309587023   7.907987291204976   5.002978606422314 
  7.516420785770622   1.382729117085175   5.002978606422314 
  1.237771567611861   7.901185357177643  11.673616748318732 
 12.492387197167442   1.463493115767169   5.002978606422314 
 -2.496322083866805  10.056727763578074  11.673616748318732 
 -1.251374674305135   3.589485591786009  11.673616748318732 
  3.727294743442296   3.589211535794202  11.673616748318732 
  2.482486322687484  10.056876859006909  11.673616748318732 
  7.461443523545317  10.056915227615868  11.673616748318732 
  8.706087944312923   3.589353787888755  11.673616748318732 
 -4.995196343457816  10.045978601237938   5.002978606422314 
 -0.017476342982610  10.079788503293580   5.002978606422314 
  1.319134324814275   3.636097555201624   5.002978606422314 
  4.983733704540737  10.109332860362231   5.002978606422314 
  6.313011611023188   3.455064434441097   5.002978606422314 
 11.244499094746223   3.603249339347842   5.002978606422314 
 -2.495996257728318   5.745012684683561  11.673616748318732 
 -3.740581105918006  12.212761965358514  11.673616748318732 
  1.238082117274362  12.212787034369653  11.673616748318732 
  2.482610050242981   5.745068663818710  11.673616748318732 
  6.217106729899214  12.212946612912068  11.673616748318732 
 -6.206848616688116  12.226287443602240   5.002978606422314 
  7.461584056341596   5.745012795231959  11.673616748318732 
 -1.236928026994610  12.191940777377805   5.002978606422314 
  0.032341496727021   5.780332558063871   5.002978606422314 
 -1.262994424246456   7.917000183949623   5.002978606422314 
  3.759706837797659  12.249145269346180   5.002978606422314 
  9.958952124429690   5.741214183698048   5.002978606422314 
 -3.741007780497735   7.901069851263188  11.673616748318732 
  2.482679604479450   1.433226107873577  11.673616748318732 
  6.216733362873391   7.901157444156256  11.673616748318732 
  7.461368312938393   1.433200287002623  11.673616748318732 
 12.440252754425947   1.433393281214075  11.673616748318732 
  4.453271732119939   5.445592630983748   5.002978606422314 
  1.287130187228143   0.739459525796361   5.002978606422314 
  4.848430788802832   7.305361513488163   5.002978606422314 
  6.256489417834268   0.681137295708708   5.002978606422314 
  9.931842559881773   7.177546838813020   5.002978606422314 
 11.245832515508752   0.743794434754252   5.002978606422314 
 -3.741323323617824   9.337925962662444  11.673616748318732 
  1.237831918002595   9.337713669172889  11.673616748318732 
  2.483527475823444   2.872500708691645  11.673616748318732 
  6.216200877901435   9.337474313691260  11.673616748318732 
  7.461202836863841   2.872390051300540  11.673616748318732 
 12.440759532270310   2.872326507051624  11.673616748318732 
 -1.255958303236256   9.348631883606071   5.002978606422314 
  0.074094057166011   2.917273221521539   5.002978606422314 
  5.031095042670305   2.795557525655057   5.002978606422314 
  3.708219025595700   9.442897822590798   5.002978606422314 
  8.692473488173082   9.324197040341808   5.002978606422314 
 10.004224026356656   2.878199752756111   5.002978606422314 
 -4.984654093856810  11.494707294956273  11.673616748318732 
 -0.005940764449366  11.494550088730815  11.673616748318732 
  1.240036632991117   5.026290027223922  11.673616748318732 
  6.217192386266571   5.026250482575216  11.673616748318732 
  4.972972018739573  11.494347574576199  11.673616748318732 
 11.197013854257268   5.026058200309256  11.673616748318732 
 -1.205429863009348   5.056700173724160   5.002978606422314 
 -2.489369213914219  11.484962247510119   5.002978606422314 
  2.502652100886894  11.542101596028090   5.002978606422314 
  7.483635393708451  11.509307364778701   5.002978606422314 
  8.712192269624712   5.013821169301584   5.002978606422314 
 -0.006086447187932   7.183701487347767  11.673616748318732 
  1.238061374913771   0.714852804939836  11.673616748318732 
  4.972071105800363   7.182863801927922  11.673616748318732 
  6.216227518735265   0.714879548526461  11.673616748318732 
  9.950822039425997   7.183613501963808  11.673616748318732 
 -2.499694895432440   7.192547236317940   5.002978606422314 
 11.195142712205499   0.714528663168855  11.673616748318732 
  3.754416571606167   0.697181306541204   5.002978606422314 
  2.447185665260152   7.271019849483141   5.002978606422314 
  7.410184943680736   7.152767269657870   5.002978606422314 
  8.757693554633304   0.708051994689740   5.002978606422314 
  2.483811116960793   7.182377671912795  11.673616748318732 
 13.740409134243121   0.751713370981509   5.002978606422314 
 -1.249932933243235   9.337613487730231  11.673616748318732 
 -0.005261385628899   2.871457335260848  11.673616748318732 
  4.972641390898647   2.871597186036862  11.673616748318732 
  3.728778481406918   9.337138670359494  11.673616748318732 
  8.707217112345774   9.337600420209732  11.673616748318732 
  9.951497317843771   2.871288809760624  11.673616748318732 
 -3.750216876432166   9.332791267551675   5.002978606422314 
  1.228741219433940   9.389452623001022   5.002978606422314 
  2.583483568923718   2.917524283649464   5.002978606422314 
  6.208806946430623   9.349811739995980   5.002978606422314 