Species order: X N B                    
   2.51242800000000     
     5.9449720136058266    0.0000000000000000    0.0000000000000000
    -2.9724860068029120    5.1484967885702053   -0.0000000000000001
     0.0000000000000000    0.0000000000000009    5.3101128803662583
   As   N    B 
     1   143   143
Direct
  0.5086453076141583  0.4209893204737449  0.3750000000000000
  0.1111219274100384  0.0555499357632093  0.1245444530440123
  0.6111418017419080  0.5556465884773540  0.1210862012085099
  0.4444662961340112  0.0555479571292541  0.1242159452487009
  0.9443949065244674  0.5555288781824127  0.1241305337378393
  0.7778227533576575  0.0555780433453209  0.1241465855082029
  0.1110650549541187  0.7221991941434266  0.6253724300006818
  0.4444662961340116  0.7222516723380543  0.6257840547516712
  0.2777533196933542  0.2222048645440939  0.6264670951416064
  0.7777524830411521  0.7222339300434698  0.6266863981656282
  0.6111369962552703  0.2221971363605349  0.6268053854864463
  0.9444807248383361  0.2222455622700142  0.6256937557508357
  0.2777800933190183  0.7222295942057314  0.1247289406748079
  0.1111128295392643  0.2222230814363470  0.1243141684307905
  0.4444672179556986  0.2222020790667245  0.1227708155889834
  0.6111369962552703  0.7222731932267250  0.1231946145137305
  0.9443949065244674  0.7221993616756601  0.1241305337378393
  0.7778189089642094  0.2222182540536260  0.1238358666738289
  0.1110989819981970  0.8888725649280670  0.6254618564191893
  0.4444761478143351  0.8889047405737273  0.6254330732851012
  0.2777533196933538  0.3888817884824971  0.6264670951416064
  0.6111418017419080  0.3888285465982140  0.6289137987917213
  0.7778189089642094  0.8889339882441203  0.6261641333264319
  0.9444511570943175  0.3888864589007613  0.6257454332528509
  0.1111219274100463  0.3889053249798615  0.1245444530440123
  0.2777800933190183  0.8888838324473272  0.1247289406748079
  0.6111568393574816  0.8889320793132730  0.1241910004058886
  0.4442750258588337  0.3888041795957310  0.1206051403975815
  0.9444511570943175  0.8888980315279212  0.1242545667470739
  0.7777524830411521  0.3888518863303034  0.1233136018338052
  0.2777919008861754  0.5555801242000089  0.6256705480136140
  0.1111219274100384  0.0555499357632093  0.6254555469562645
  0.6111418017419080  0.5556465884773540  0.6289137987917213
  0.4444662961340112  0.0555479571293059  0.6257840547516712
  0.9443949065244673  0.5555288781824127  0.6258694662622843
  0.1110989819981971  0.5555597504038392  0.1245381435806745
  0.7778227533576575  0.0555780433453203  0.6258534144913465
  0.2777919008861754  0.0555451100194114  0.1243294519862899
  0.4444672179556983  0.5555984722222261  0.1227708155889964
  0.7777302244706180  0.5555317789021341  0.1229737508949294
  0.6111568393574816  0.0555580933777308  0.1241910004058922
  0.4444672179556983  0.5555984722222261  0.6272291844109588
  0.9444807248383401  0.0555684959014443  0.1243062442487121
  0.2777800933190183  0.7222295942057314  0.6252710593249843
  0.1111128295392125  0.2222230814363469  0.6256858315685961
  0.4444672179556983  0.2222020790667226  0.6272291844109588
  0.6111369962552708  0.7222731932267250  0.6268053854864463
  0.9443949065244674  0.7221993616756601  0.6258694662622843
  0.7778189089641184  0.2222182540536259  0.6261641333264319
  0.1110650549541187  0.7221991941434266  0.1246275699993597
  0.4444662961340112  0.7222516723380543  0.1242159452487009
  0.2777533196933543  0.2222048645440944  0.1235329048585636
  0.7777524830411521  0.7222339300434698  0.1233136018338052
  0.6111369962552711  0.2221971363605348  0.1231946145137305
  0.9444807248383364  0.2222455622700142  0.1243062442487121
  0.1111219274100560  0.3889053249798495  0.6254555469562645
  0.2777800933190183  0.8888838324473272  0.6252710593249843
  0.6111568393574816  0.8889320793132730  0.6258089995940164
  0.4442750258588338  0.3888041795957314  0.6293948596021697
  0.9444511570943175  0.8888980315279212  0.6257454332528509
  0.1110989819981960  0.8888725649280670  0.1245381435806745
  0.7777524830411521  0.3888518863303038  0.6266863981656282
  0.4444761478143352  0.8889047405737273  0.1245669267148419
  0.2777533196933551  0.3888817884824971  0.1235329048585636
  0.2777919008861755  0.5555801242000089  0.1243294519862899
  0.6111418017419078  0.3888285465982135  0.1210862012085073
  0.7778189089642094  0.8889339882441203  0.1238358666738288
  0.9444511570942740  0.3888864589007613  0.1242545667470774
  0.1110989819981971  0.5555597504038392  0.6254618564191893
  0.2777919008861754  0.0555451100194112  0.6256705480136140
  0.7777302244706180  0.5555317789021341  0.6270262491049438
  0.6111568393574833  0.0555580933777245  0.6258089995940164
  0.9444807248383363  0.0555684959014443  0.6256937557508357
  0.0600938783385765  0.1136478432816926  0.3750000000000000
  0.5562144656972873  0.6224427606965416  0.3750000000000000
  0.3886210328377486  0.1058134833129967  0.3750000000000000
  0.8854296564386325  0.6093814948857572  0.3750000000000000
  0.7251959252044420  0.1115690849129332  0.3750000000000000
  0.0549450833038393  0.7774604114904362  0.8750000000000000
  0.3882759188741763  0.7774627874057088  0.8750000000000000
  0.2216516204644428  0.2774924768987586  0.8750000000000000
  0.7216239705770846  0.7774705885979821  0.8750000000000000
  0.5549696196877858  0.2774782247855432  0.8750000000000000
  0.8883218854792458  0.2774935005273138  0.8750000000000000
  0.2208749386419426  0.7771041359878180  0.3750000000000000
  0.0600938783385765  0.2797793683898026  0.3750000000000000
  0.3951512066592055  0.2747331073064349  0.3750000000000000
  0.5566794948438877  0.7831164385921250  0.3750000000000000
  0.8886826796047456  0.7781727030036809  0.3750000000000000
  0.7244330593804114  0.2762314047470076  0.3750000000000000
  0.0549592325279559  0.9441556004045709  0.8750000000000000
  0.3882759188741767  0.9441464648013470  0.8750000000000000
  0.2216178001660535  0.4441509091482836  0.8750000000000000
  0.5549561177338194  0.4441447255335736  0.8750000000000000
  0.7216186623540893  0.9441551619076026  0.8750000000000000
  0.8882918575197728  0.4441425191512237  0.8750000000000000
  0.0570423011812541  0.4451825597491294  0.3750000000000000
  0.2214661348679140  0.9427499166667234  0.3750000000000000
  0.5567477393243591  0.9450405363285386  0.3750000000000000
  0.3951512066592056  0.4537514326861153  0.3750000000000000
  0.8921100574311595  0.9468824344710038  0.3750000000000000
  0.7191401302740626  0.4411206831783119  0.3750000000000000
  0.2216383687385693  0.6108242585692027  0.8750000000000000
  0.0549677644918623  0.1108041929818854  0.8750000000000000
  0.5549696196877927  0.6108247282348185  0.8750000000000000
  0.3882834147520318  0.1107898133770932  0.8750000000000000
  0.8883049774250916  0.6108191553786494  0.8750000000000000
  0.0538855904048351  0.6105817436513222  0.3750000000000000
  0.7216186623540528  0.1107968337796260  0.8750000000000000
  0.2255990348186601  0.1120648845496957  0.3750000000000000
  0.3886210328377489  0.6161408828583919  0.3750000000000000
  0.7191401302740610  0.6113527804296988  0.3750000000000000
  0.5566794948438901  0.1068963895846517  0.3750000000000000
  0.3882834147520310  0.6108269347085592  0.8750000000000000
  0.8929468951284931  0.1131401142309692  0.3750000000000000
  0.2216030250303687  0.7774681791820598  0.8750000000000000
  0.0549677644918632  0.2774969048434504  0.8750000000000000
  0.3882836778233661  0.2774757180500963  0.8750000000000000
  0.5549446003417768  0.7774797054910445  0.8750000000000000
  0.8882918575197725  0.7774826717016500  0.8750000000000000
  0.7216239705770846  0.2774867153127775  0.8750000000000000
  0.0538855904048369  0.7766371800868488  0.3750000000000000
  0.3884554252124284  0.7792509649687187  0.3750000000000000
  0.2288674564319759  0.2811003948828332  0.3750000000000000
  0.7244330593804130  0.7815349879665835  0.3750000000000000
  0.5562144656972853  0.2671050383336509  0.3750000000000000
  0.8921100574311605  0.2785609562931052  0.3750000000000000
  0.0549592325279519  0.4441369654566062  0.8750000000000000
  0.2216383687385693  0.9441474435033301  0.8750000000000000
  0.5549654297564615  0.9441493815450971  0.8750000000000000
  0.3882836778233661  0.4441412931064435  0.8750000000000000
  0.8883218854792497  0.9441617182854092  0.8750000000000000
  0.0570423011812530  0.9451930747653000  0.3750000000000000
  0.7216284174706525  0.4441369740029110  0.8750000000000000
  0.3884554252124284  0.9425377935766022  0.3750000000000000
  0.2255990348186458  0.4468674836024167  0.3750000000000000
  0.2214661348678707  0.6120495515341849  0.3750000000000000
  0.7251959252044415  0.9469601736247882  0.3750000000000000
  0.8886826796047493  0.4438433099342278  0.3750000000000000
  0.0549450833038272  0.6108180051466674  0.8750000000000000
  0.2216178001660521  0.1108002243513265  0.8750000000000000
  0.7216284174706525  0.6108247768012931  0.8750000000000000
  0.5549446003417768  0.1107982281845807  0.8750000000000000
  0.8882929631314226  0.1108131482323042  0.8750000000000000
  0.1147577191215960  0.0571663332860447  0.3750000000000000
  0.6069893238988614  0.5647648268583105  0.3750000000000000
  0.4452065050170843  0.0526575428426655  0.3750000000000000
  0.9423878623343619  0.5548836960642255  0.3750000000000000
  0.7816695818229338  0.0575014575783240  0.3750000000000000
  0.1104643842147559  0.7218988587740236  0.8750000000000000
  0.4438152112783343  0.7218824467325874  0.8750000000000000
  0.2773084773587068  0.2220680472005830  0.8750000000000000
  0.7771123499980446  0.7218639425754840  0.8750000000000000
  0.6105641537085735  0.2220594924696212  0.8750000000000000
  0.9439476082460659  0.2220545799739599  0.8750000000000000
  0.2772756913640660  0.7227265149518773  0.3750000000000000
  0.1177253316781999  0.2255293325058624  0.3750000000000000
  0.4448963022335120  0.2161197031842941  0.3750000000000000
  0.6132757074963668  0.7300140511827736  0.3750000000000000
  0.9423878623343557  0.7208374996033590  0.3750000000000000
  0.7810463354079986  0.2225086304117467  0.3750000000000000
  0.1105907549194376  0.8886358824593253  0.8750000000000000
  0.4439141249034313  0.8886237291187219  0.8750000000000000
  0.2773084773587077  0.3885737634918718  0.8750000000000000
  0.6105321142911334  0.3885707063636737  0.8750000000000000
  0.7772490971632404  0.8886080731007057  0.8750000000000000
  0.9439283193408037  0.3885558413552218  0.8750000000000000
  0.1147577191215958  0.3909247191689089  0.3750000000000000
  0.2772756913640660  0.8878825097448481  0.3750000000000000
  0.6137047918679435  0.8922998536658799  0.3750000000000000
  0.9459185820984048  0.8897645885322769  0.3750000000000000
  0.7770942119842080  0.3876098177141538  0.3750000000000000
  0.2772722573837876  0.5553595012667032  0.8750000000000000
  0.1105213654532538  0.0552640303790055  0.8750000000000000
  0.6105321142911334  0.5552947412599288  0.8750000000000000
  0.4438152112783336  0.0552660978792975  0.8750000000000000
  0.9438930575871769  0.5553526992692865  0.8750000000000000
  0.1106647979840034  0.5560433507759092  0.3750000000000000
  0.7771446097485274  0.0552389715409412  0.8750000000000000
  0.2783105889393320  0.0538978774904722  0.3750000000000000
  0.4448963022335120  0.5621099323825186  0.3750000000000000
  0.7726027277756855  0.5529680305550381  0.3750000000000000
  0.6137047918679432  0.0547382715351342  0.3750000000000000
  0.4439220234898602  0.5552571593916918  0.8750000000000000
  0.9489898854958947  0.0581136568020078  0.3750000000000000
  0.2772531889027061  0.7218747018790276  0.8750000000000000
  0.1106414382875669  0.2219873858104648  0.8750000000000000
  0.4439220234898613  0.2219981974313762  0.8750000000000000
  0.6105641537085735  0.7218379945717056  0.8750000000000000
  0.9438930575871762  0.7218736916516852  0.8750000000000000
  0.7772490971632402  0.2219743573963637  0.8750000000000000
  0.1096704754697551  0.7215019044015613  0.3750000000000000
  0.4452065050170842  0.7258822955075755  0.3750000000000000
  0.2857409771701880  0.2255487416834842  0.3750000000000000
  0.7770942119842075  0.7228177276028230  0.3750000000000000
  0.6132757074963667  0.2165949896468823  0.3750000000000000
  0.9489898854958952  0.2242095620270222  0.3750000000000000
  0.1105213654532502  0.3885906684075600  0.8750000000000000
  0.2772531889026977  0.8887118203564919  0.8750000000000000
  0.6105759238911828  0.8886851798610585  0.8750000000000000
  0.4438509150478862  0.3885921241906959  0.8750000000000000
  0.9439283193408037  0.8887058113188668  0.8750000000000000
  0.1106647979840038  0.8879547805417750  0.3750000000000000
  0.7771123499980462  0.3885817407552830  0.8750000000000000
  0.4452413505781868  0.8892873419556220  0.3750000000000000
  0.2857409771701872  0.3935255688198284  0.3750000000000000
  0.2783105889393172  0.5577460447820098  0.3750000000000000
  0.6069893238988615  0.3755578303740550  0.3750000000000000
  0.7810463354080661  0.8918710383282230  0.3750000000000000
  0.9459185820984053  0.3894873268991197  0.3750000000000000
  0.1105907549194377  0.5552882057927020  0.8750000000000000
  0.2772722573837882  0.0552460894508277  0.8750000000000000
  0.7771941996195848  0.5552637664764964  0.8750000000000000
  0.6105759238911828  0.0552240773634380  0.8750000000000000
  0.9439476082460528  0.0552263616052010  0.8750000000000000
  0.0556019354281436  0.1111127206567950  0.1245275162237692
  0.5555674261406873  0.6109745377863187  0.1226794064084914
  0.3889477947377039  0.1112352931766380  0.1240664752431884
  0.8887075708512104  0.6110204520925279  0.1239062202082332
  0.7222074722685545  0.1110647770913827  0.1241184874860319
  0.0554443778781125  0.7776877228433863  0.6254741284045112
  0.3888887353284422  0.7776879631957061  0.6253576692068813
  0.2223918437468750  0.2778625885400933  0.6258660132569748
  0.7221173554810769  0.7776504813515609  0.6264695934276652
  0.5555674261406873  0.2779262216873150  0.6273205935920247
  0.8889201748609585  0.2777881769139672  0.6258068728164196
  0.2221737123548668  0.7777535228434501  0.1248046749580078
  0.0556019354281456  0.2778225481047211  0.1245275162237691
  0.3889624723869297  0.2779855465853509  0.1230117197701089
  0.5555407810094738  0.7777087415512534  0.1240250006334631
  0.8887368110205450  0.7776995113968950  0.1240165129109854
  0.7221173554810769  0.2778002074619765  0.1235304065723786
  0.0555328348201864  0.9445099857165338  0.6254354272041376
  0.3888887353284423  0.9445341054667157  0.6253576692068813
  0.2222968610029790  0.4443963407584017  0.6255491303008107
  0.5553671161815252  0.4443502247574270  0.6268792179489687
  0.7222074722685545  0.9444760285105811  0.6258815125141598
  0.8887368110205450  0.4443706329572332  0.6259834870887728
  0.0555328348201864  0.4443561824371109  0.1245645727959356
  0.2222858441004789  0.9445377788651401  0.1246744446595735
  0.5556097004833055  0.9444715169077426  0.1244302401215501
  0.3889624723869300  0.4443102591352602  0.1230117197701089
  0.8889201748609585  0.9444653312801389  0.1241931271840519
  0.7219152007802837  0.4442724321264909  0.1226929194982956
  0.2222858441004789  0.6110813985692276  0.6253255553404831
  0.0556019354281438  0.1111127206567956  0.6254724837764025
  0.5555674261406863  0.6109745377863157  0.6273205935920247
  0.3889477947377034  0.1112352931766381  0.6259335247565517
  0.8887075708512104  0.6110204520925279  0.6260937797922028
  0.0554443778781133  0.6110899883679592  0.1245258715957672
  0.7222074722685545  0.1110647770913827  0.6258815125141598
  0.2222968610029790  0.1112338535780380  0.1244508696996190
  0.3889477947377088  0.6110458348948822  0.1240664752431927
  0.7219152007802836  0.6109761019873307  0.1226929194982977
  0.5555407810094738  0.1111653727920504  0.1240250006334631
  0.3889477947377039  0.6110458348948826  0.6259335247565517
  0.8888980238276352  0.1111156785803154  0.1243137925251520
  0.2221737123548644  0.7777535228434501  0.6251953250416340
  0.0556019354281455  0.2778225481047211  0.6254724837764025
  0.3889624723869297  0.2779855465853509  0.6269882802297049
  0.5555407810094741  0.7777087415512534  0.6259749993661982
  0.8887368110205450  0.7776995113968950  0.6259834870887728
  0.7221173554810769  0.2778002074619765  0.6264695934276652
  0.0554443778781137  0.7776877228433863  0.1245258715957672
  0.3888887353284421  0.7776879631957061  0.1246423307936226
  0.2223918437468755  0.2778625885400933  0.1241339867432810
  0.7221173554810769  0.7776504813515606  0.1235304065723784
  0.5555674261406874  0.2779262216873150  0.1226794064084926
  0.8889201748609585  0.2777881769139672  0.1241931271840519
  0.0555328348201865  0.4443561824370924  0.6254354272041376
  0.2222858441004786  0.9445377788651401  0.6253255553404831
  0.5556097004833055  0.9444715169077426  0.6255697598779010
  0.3889624723869299  0.4443102591352602  0.6269882802297049
  0.8889201748609585  0.9444653312801389  0.6258068728164196
  0.0555328348201864  0.9445099857165308  0.1245645727959356
  0.7219152007802837  0.4442724321264909  0.6273070805017597
  0.3888887353284412  0.9445341054667157  0.1246423307936226
  0.2222968610029790  0.4443963407584018  0.1244508696996190
  0.2222858441004789  0.6110813985692277  0.1246744446595734
  0.5553671161815253  0.4443502247574269  0.1231207820511994
  0.7222074722685545  0.9444760285105811  0.1241184874859901
  0.8887368110205450  0.4443706329572332  0.1240165129109854
  0.0554443778781134  0.6110899883679592  0.6254741284045112
  0.2222968610029790  0.1112338535780382  0.6255491303008107
  0.7219152007802836  0.6109761019873307  0.6273070805017597
  0.5555407810094738  0.1111653727920504  0.6259749993661982
  0.8888980238276352  0.1111156785803154  0.6256862074747167
 
  0.00000000E+00  0.00000000E+00  0.00000000E+00
  0.00000000E+00  0.00000000E+00  0.00000000E+00
  0.00000000E+00  0.00000000E+00  0.00000000E+00
  0.00000000E+00  0.00000000E+00  0.00000000E+00
  0.00000000E+00  0.00000000E+00  0.00000000E+00
  0.00000000E+00  0.00000000E+00  0.00000000E+00
  0.00000000E+00  0.00000000E+00  0.00000000E+00
  0.00000000E+00  0.00000000E+00  0.00000000E+00
  0.00000000E+00  0.00000000E+00  0.00000000E+00
  0.00000000E+00  0.00000000E+00  0.00000000E+00
  0.00000000E+00  0.00000000E+00  0.00000000E+00
  0.00000000E+00  0.00000000E+00  0.00000000E+00
  0.00000000E+00  0.00000000E+00  0.00000000E+00
  0.00000000E+00  0.00000000E+00  0.00000000E+00
  0.00000000E+00  0.00000000E+00  0.00000000E+00
  0.00000000E+00  0.00000000E+00  0.00000000E+00
  0.00000000E+00  0.00000000E+00  0.00000000E+00
  0.00000000E+00  0.00000000E+00  0.00000000E+00
  0.00000000E+00  0.00000000E+00  0.00000000E+00
  0.00000000E+00  0.00000000E+00  0.00000000E+00
  0.00000000E+00  0.00000000E+00  0.00000000E+00
  0.00000000E+00  0.00000000E+00  0.00000000E+00
  0.00000000E+00  0.00000000E+00  0.00000000E+00
  0.00000000E+00  0.00000000E+00  0.00000000E+00
  0.00000000E+00  0.00000000E+00  0.00000000E+00
  0.00000000E+00  0.00000000E+00  0.00000000E+00
  0.00000000E+00  0.00000000E+00  0.00000000E+00
  0.00000000E+00  0.00000000E+00  0.00000000E+00
  0.00000000E+00  0.00000000E+00  0.00000000E+00
  0.00000000E+00  0.00000000E+00  0.00000000E+00
  0.00000000E+00  0.00000000E+00  0.00000000E+00
  0.00000000E+00  0.00000000E+00  0.00000000E+00
  0.00000000E+00  0.00000000E+00  0.00000000E+00
  0.00000000E+00  0.00000000E+00  0.00000000E+00
  0.00000000E+00  0.00000000E+00  0.00000000E+00
  0.00000000E+00  0.00000000E+00  0.00000000E+00
  0.00000000E+00  0.00000000E+00  0.00000000E+00
  0.00000000E+00  0.00000000E+00  0.00000000E+00
  0.00000000E+00  0.00000000E+00  0.00000000E+00
  0.00000000E+00  0.00000000E+00  0.00000000E+00
  0.00000000E+00  0.00000000E+00  0.00000000E+00
  0.00000000E+00  0.00000000E+00  0.00000000E+00
  0.00000000E+00  0.00000000E+00  0.00000000E+00
  0.00000000E+00  0.00000000E+00  0.00000000E+00
  0.00000000E+00  0.00000000E+00  0.00000000E+00
  0.00000000E+00  0.00000000E+00  0.00000000E+00
  0.00000000E+00  0.00000000E+00  0.00000000E+00
  0.00000000E+00  0.00000000E+00  0.00000000E+00
  0.00000000E+00  0.00000000E+00  0.00000000E+00
  0.00000000E+00  0.00000000E+00  0.00000000E+00
  0.00000000E+00  0.00000000E+00  0.00000000E+00
  0.00000000E+00  0.00000000E+00  0.00000000E+00
  0.00000000E+00  0.00000000E+00  0.00000000E+00
  0.00000000E+00  0.00000000E+00  0.00000000E+00
  0.00000000E+00  0.00000000E+00  0.00000000E+00
  0.00000000E+00  0.00000000E+00  0.00000000E+00
  0.00000000E+00  0.00000000E+00  0.00000000E+00
  0.00000000E+00  0.00000000E+00  0.00000000E+00
  0.00000000E+00  0.00000000E+00  0.00000000E+00
  0.00000000E+00  0.00000000E+00  0.00000000E+00
  0.00000000E+00  0.00000000E+00  0.00000000E+00
  0.00000000E+00  0.00000000E+00  0.00000000E+00
  0.00000000E+00  0.00000000E+00  0.00000000E+00
  0.00000000E+00  0.00000000E+00  0.00000000E+00
  0.00000000E+00  0.00000000E+00  0.00000000E+00
  0.00000000E+00  0.00000000E+00  0.00000000E+00
  0.00000000E+00  0.00000000E+00  0.00000000E+00
  0.00000000E+00  0.00000000E+00  0.00000000E+00
  0.00000000E+00  0.00000000E+00  0.00000000E+00
  0.00000000E+00  0.00000000E+00  0.00000000E+00
  0.00000000E+00  0.00000000E+00  0.00000000E+00
  0.00000000E+00  0.00000000E+00  0.00000000E+00
  0.00000000E+00  0.00000000E+00  0.00000000E+00
  0.00000000E+00  0.00000000E+00  0.00000000E+00
  0.00000000E+00  0.00000000E+00  0.00000000E+00
  0.00000000E+00  0.00000000E+00  0.00000000E+00
  0.00000000E+00  0.00000000E+00  0.00000000E+00
  0.00000000E+00  0.00000000E+00  0.00000000E+00
  0.00000000E+00  0.00000000E+00  0.00000000E+00
  0.00000000E+00  0.00000000E+00  0.00000000E+00
  0.00000000E+00  0.00000000E+00  0.00000000E+00
  0.00000000E+00  0.00000000E+00  0.00000000E+00
  0.00000000E+00  0.00000000E+00  0.00000000E+00
  0.00000000E+00  0.00000000E+00  0.00000000E+00
  0.00000000E+00  0.00000000E+00  0.00000000E+00
  0.00000000E+00  0.00000000E+00  0.00000000E+00
  0.00000000E+00  0.00000000E+00  0.00000000E+00
  0.00000000E+00  0.00000000E+00  0.00000000E+00
  0.00000000E+00  0.00000000E+00  0.00000000E+00
  0.00000000E+00  0.00000000E+00  0.00000000E+00
  0.00000000E+00  0.00000000E+00  0.00000000E+00
  0.00000000E+00  0.00000000E+00  0.00000000E+00
  0.00000000E+00  0.00000000E+00  0.00000000E+00
  0.00000000E+00  0.00000000E+00  0.00000000E+00
  0.00000000E+00  0.00000000E+00  0.00000000E+00
  0.00000000E+00  0.00000000E+00  0.00000000E+00
  0.00000000E+00  0.00000000E+00  0.00000000E+00
  0.00000000E+00  0.00000000E+00  0.00000000E+00
  0.00000000E+00  0.00000000E+00  0.00000000E+00
  0.00000000E+00  0.00000000E+00  0.00000000E+00
  0.00000000E+00  0.00000000E+00  0.00000000E+00
  0.00000000E+00  0.00000000E+00  0.00000000E+00
  0.00000000E+00  0.00000000E+00  0.00000000E+00
  0.00000000E+00  0.00000000E+00  0.00000000E+00
  0.00000000E+00  0.00000000E+00  0.00000000E+00
  0.00000000E+00  0.00000000E+00  0.00000000E+00
  0.00000000E+00  0.00000000E+00  0.00000000E+00
  0.00000000E+00  0.00000000E+00  0.00000000E+00
  0.00000000E+00  0.00000000E+00  0.00000000E+00
  0.00000000E+00  0.00000000E+00  0.00000000E+00
  0.00000000E+00  0.00000000E+00  0.00000000E+00
  0.00000000E+00  0.00000000E+00  0.00000000E+00
  0.00000000E+00  0.00000000E+00  0.00000000E+00
  0.00000000E+00  0.00000000E+00  0.00000000E+00
  0.00000000E+00  0.00000000E+00  0.00000000E+00
  0.00000000E+00  0.00000000E+00  0.00000000E+00
  0.00000000E+00  0.00000000E+00  0.00000000E+00
  0.00000000E+00  0.00000000E+00  0.00000000E+00
  0.00000000E+00  0.00000000E+00  0.00000000E+00
  0.00000000E+00  0.00000000E+00  0.00000000E+00
  0.00000000E+00  0.00000000E+00  0.00000000E+00
  0.00000000E+00  0.00000000E+00  0.00000000E+00
  0.00000000E+00  0.00000000E+00  0.00000000E+00
  0.00000000E+00  0.00000000E+00  0.00000000E+00
  0.00000000E+00  0.00000000E+00  0.00000000E+00
  0.00000000E+00  0.00000000E+00  0.00000000E+00
  0.00000000E+00  0.00000000E+00  0.00000000E+00
  0.00000000E+00  0.00000000E+00  0.00000000E+00
  0.00000000E+00  0.00000000E+00  0.00000000E+00
  0.00000000E+00  0.00000000E+00  0.00000000E+00
  0.00000000E+00  0.00000000E+00  0.00000000E+00
  0.00000000E+00  0.00000000E+00  0.00000000E+00
  0.00000000E+00  0.00000000E+00  0.00000000E+00
  0.00000000E+00  0.00000000E+00  0.00000000E+00
  0.00000000E+00  0.00000000E+00  0.00000000E+00
  0.00000000E+00  0.00000000E+00  0.00000000E+00
  0.00000000E+00  0.00000000E+00  0.00000000E+00
  0.00000000E+00  0.00000000E+00  0.00000000E+00
  0.00000000E+00  0.00000000E+00  0.00000000E+00
  0.00000000E+00  0.00000000E+00  0.00000000E+00
  0.00000000E+00  0.00000000E+00  0.00000000E+00
  0.00000000E+00  0.00000000E+00  0.00000000E+00
  0.00000000E+00  0.00000000E+00  0.00000000E+00
  0.00000000E+00  0.00000000E+00  0.00000000E+00
  0.00000000E+00  0.00000000E+00  0.00000000E+00
  0.00000000E+00  0.00000000E+00  0.00000000E+00
  0.00000000E+00  0.00000000E+00  0.00000000E+00
  0.00000000E+00  0.00000000E+00  0.00000000E+00
  0.00000000E+00  0.00000000E+00  0.00000000E+00
  0.00000000E+00  0.00000000E+00  0.00000000E+00
  0.00000000E+00  0.00000000E+00  0.00000000E+00
  0.00000000E+00  0.00000000E+00  0.00000000E+00
  0.00000000E+00  0.00000000E+00  0.00000000E+00
  0.00000000E+00  0.00000000E+00  0.00000000E+00
  0.00000000E+00  0.00000000E+00  0.00000000E+00
  0.00000000E+00  0.00000000E+00  0.00000000E+00
  0.00000000E+00  0.00000000E+00  0.00000000E+00
  0.00000000E+00  0.00000000E+00  0.00000000E+00
  0.00000000E+00  0.00000000E+00  0.00000000E+00
  0.00000000E+00  0.00000000E+00  0.00000000E+00
  0.00000000E+00  0.00000000E+00  0.00000000E+00
  0.00000000E+00  0.00000000E+00  0.00000000E+00
  0.00000000E+00  0.00000000E+00  0.00000000E+00
  0.00000000E+00  0.00000000E+00  0.00000000E+00
  0.00000000E+00  0.00000000E+00  0.00000000E+00
  0.00000000E+00  0.00000000E+00  0.00000000E+00
  0.00000000E+00  0.00000000E+00  0.00000000E+00
  0.00000000E+00  0.00000000E+00  0.00000000E+00
  0.00000000E+00  0.00000000E+00  0.00000000E+00
  0.00000000E+00  0.00000000E+00  0.00000000E+00
  0.00000000E+00  0.00000000E+00  0.00000000E+00
  0.00000000E+00  0.00000000E+00  0.00000000E+00
  0.00000000E+00  0.00000000E+00  0.00000000E+00
  0.00000000E+00  0.00000000E+00  0.00000000E+00
  0.00000000E+00  0.00000000E+00  0.00000000E+00
  0.00000000E+00  0.00000000E+00  0.00000000E+00
  0.00000000E+00  0.00000000E+00  0.00000000E+00
  0.00000000E+00  0.00000000E+00  0.00000000E+00
  0.00000000E+00  0.00000000E+00  0.00000000E+00
  0.00000000E+00  0.00000000E+00  0.00000000E+00
  0.00000000E+00  0.00000000E+00  0.00000000E+00
  0.00000000E+00  0.00000000E+00  0.00000000E+00
  0.00000000E+00  0.00000000E+00  0.00000000E+00
  0.00000000E+00  0.00000000E+00  0.00000000E+00
  0.00000000E+00  0.00000000E+00  0.00000000E+00
  0.00000000E+00  0.00000000E+00  0.00000000E+00
  0.00000000E+00  0.00000000E+00  0.00000000E+00
  0.00000000E+00  0.00000000E+00  0.00000000E+00
  0.00000000E+00  0.00000000E+00  0.00000000E+00
  0.00000000E+00  0.00000000E+00  0.00000000E+00
  0.00000000E+00  0.00000000E+00  0.00000000E+00
  0.00000000E+00  0.00000000E+00  0.00000000E+00
  0.00000000E+00  0.00000000E+00  0.00000000E+00
  0.00000000E+00  0.00000000E+00  0.00000000E+00
  0.00000000E+00  0.00000000E+00  0.00000000E+00
  0.00000000E+00  0.00000000E+00  0.00000000E+00
  0.00000000E+00  0.00000000E+00  0.00000000E+00
  0.00000000E+00  0.00000000E+00  0.00000000E+00
  0.00000000E+00  0.00000000E+00  0.00000000E+00
  0.00000000E+00  0.00000000E+00  0.00000000E+00
  0.00000000E+00  0.00000000E+00  0.00000000E+00
  0.00000000E+00  0.00000000E+00  0.00000000E+00
  0.00000000E+00  0.00000000E+00  0.00000000E+00
  0.00000000E+00  0.00000000E+00  0.00000000E+00
  0.00000000E+00  0.00000000E+00  0.00000000E+00
  0.00000000E+00  0.00000000E+00  0.00000000E+00
  0.00000000E+00  0.00000000E+00  0.00000000E+00
  0.00000000E+00  0.00000000E+00  0.00000000E+00
  0.00000000E+00  0.00000000E+00  0.00000000E+00
  0.00000000E+00  0.00000000E+00  0.00000000E+00
  0.00000000E+00  0.00000000E+00  0.00000000E+00
  0.00000000E+00  0.00000000E+00  0.00000000E+00
  0.00000000E+00  0.00000000E+00  0.00000000E+00
  0.00000000E+00  0.00000000E+00  0.00000000E+00
  0.00000000E+00  0.00000000E+00  0.00000000E+00
  0.00000000E+00  0.00000000E+00  0.00000000E+00
  0.00000000E+00  0.00000000E+00  0.00000000E+00
  0.00000000E+00  0.00000000E+00  0.00000000E+00
  0.00000000E+00  0.00000000E+00  0.00000000E+00
  0.00000000E+00  0.00000000E+00  0.00000000E+00
  0.00000000E+00  0.00000000E+00  0.00000000E+00
  0.00000000E+00  0.00000000E+00  0.00000000E+00
  0.00000000E+00  0.00000000E+00  0.00000000E+00
  0.00000000E+00  0.00000000E+00  0.00000000E+00
  0.00000000E+00  0.00000000E+00  0.00000000E+00
  0.00000000E+00  0.00000000E+00  0.00000000E+00
  0.00000000E+00  0.00000000E+00  0.00000000E+00
  0.00000000E+00  0.00000000E+00  0.00000000E+00
  0.00000000E+00  0.00000000E+00  0.00000000E+00
  0.00000000E+00  0.00000000E+00  0.00000000E+00
  0.00000000E+00  0.00000000E+00  0.00000000E+00
  0.00000000E+00  0.00000000E+00  0.00000000E+00
  0.00000000E+00  0.00000000E+00  0.00000000E+00
  0.00000000E+00  0.00000000E+00  0.00000000E+00
  0.00000000E+00  0.00000000E+00  0.00000000E+00
  0.00000000E+00  0.00000000E+00  0.00000000E+00
  0.00000000E+00  0.00000000E+00  0.00000000E+00
  0.00000000E+00  0.00000000E+00  0.00000000E+00
  0.00000000E+00  0.00000000E+00  0.00000000E+00
  0.00000000E+00  0.00000000E+00  0.00000000E+00
  0.00000000E+00  0.00000000E+00  0.00000000E+00
  0.00000000E+00  0.00000000E+00  0.00000000E+00
  0.00000000E+00  0.00000000E+00  0.00000000E+00
  0.00000000E+00  0.00000000E+00  0.00000000E+00
  0.00000000E+00  0.00000000E+00  0.00000000E+00
  0.00000000E+00  0.00000000E+00  0.00000000E+00
  0.00000000E+00  0.00000000E+00  0.00000000E+00
  0.00000000E+00  0.00000000E+00  0.00000000E+00