Species order: X N B                    
   2.51242800000000     
     5.9449720136058266    0.0000000000000000    0.0000000000000000
    -2.9724860068029120    5.1484967885702053   -0.0000000000000001
     0.0000000000000000    0.0000000000000009    5.3101128803662583
   N    B 
   145   143
Direct
  0.4444444444444429  0.3888888888888857  0.3750000000000000
  0.1111088513916634  0.0555576541095808  0.1250269227978163
  0.6110998804170827  0.5555656452594960  0.1251023145871462
  0.4444488027179173  0.0555576541095808  0.1250269227978163
  0.9444412964960590  0.5555543543511240  0.1250078860565299
  0.7777777777777786  0.0555555555555571  0.1249955698966350
  0.1111111111111143  0.7222222222222214  0.6249999671667995
  0.4444488027179173  0.7222244819416721  0.6249730772021835
  0.2777676880738326  0.2222334529162529  0.6248976854128537
  0.7777756792237550  0.7222244819416721  0.6249730772021835
  0.6111242465565587  0.2222090867767771  0.6250212222421914
  0.9444357340159406  0.2222201956857693  0.6249928543476398
  0.2777789789822115  0.7222202754782705  0.1250078860565299
  0.1110848402202256  0.2222090867767771  0.1249787777578088
  0.4444657648424135  0.2222334529162529  0.1251023145871462
  0.6111242465565587  0.7222484931131101  0.1249787777578088
  0.9444412964960590  0.7222202754782705  0.1250078860565299
  0.7777844616698285  0.2222201956857693  0.1250071456523602
  0.1111130578550650  0.8888920368372696  0.6249921139434703
  0.4444428832484391  0.8888881082908839  0.6249860518045033
  0.2777676880738326  0.3888675684909151  0.6248976854128537
  0.6110998804170827  0.3888675684909151  0.6248976854128537
  0.7777844616698285  0.8888975993173880  0.6249928543476398
  0.9444452250424447  0.3888904500848895  0.6249860518045033
  0.1111088513916634  0.3888845306154113  0.1250269227978163
  0.2777789789822115  0.8888920368372696  0.1250078860565299
  0.6111131376475663  0.8888975993173880  0.1250071456523602
  0.4444444444444429  0.3888888888888857  0.1251565166098303
  0.9444452250424447  0.8888881082908839  0.1250139481954968
  0.7777756792237550  0.3888845306154113  0.1250269227978163
  0.2777840221286236  0.5555493112047121  0.6249743024400470
  0.1111088513916634  0.0555576541095808  0.6249730772021835
  0.6110998804170827  0.5555656452594960  0.6248976854128537
  0.4444488027179173  0.0555576541095808  0.6249730772021835
  0.9444412964960590  0.5555543543511240  0.6249921139434703
  0.1111130578550650  0.5555543543511240  0.1250078860565299
  0.7777777777777786  0.0555555555555571  0.6250044301033650
  0.2777840221286236  0.0555680442572472  0.1250256975599529
  0.4444657648424135  0.5555656452594960  0.1251023145871462
  0.7777652890760886  0.5555493112047121  0.1250256975599529
  0.6111131376475663  0.0555488716635072  0.1250071456523602
  0.4444657648424135  0.5555656452594960  0.6248976854128537
  0.9444357340159406  0.0555488716635072  0.1250071456523602
  0.2777789789822115  0.7222202754782705  0.6249921139434703
  0.1110848402202256  0.2222090867767771  0.6250212222421914
  0.4444657648424135  0.2222334529162529  0.6248976854128537
  0.6111242465565587  0.7222484931131101  0.6250212222421914
  0.9444412964960590  0.7222202754782705  0.6249921139434703
  0.7777844616698285  0.2222201956857693  0.6249928543476398
  0.1111111111111143  0.7222222222222214  0.1250000328332007
  0.4444488027179173  0.7222244819416721  0.1250269227978163
  0.2777676880738326  0.2222334529162529  0.1251023145871462
  0.7777756792237550  0.7222244819416721  0.1250269227978163
  0.6111242465565587  0.2222090867767771  0.1249787777578088
  0.9444357340159406  0.2222201956857693  0.1250071456523602
  0.1111088513916634  0.3888845306154113  0.6249730772021835
  0.2777789789822115  0.8888920368372696  0.6249921139434703
  0.6111131376475663  0.8888975993173880  0.6249928543476398
  0.4444444444444429  0.3888888888888857  0.6248434833901698
  0.9444452250424447  0.8888881082908839  0.6249860518045033
  0.1111130578550650  0.8888920368372696  0.1250078860565299
  0.7777756792237550  0.3888845306154113  0.6249730772021835
  0.4444428832484391  0.8888881082908839  0.1250139481954968
  0.2777676880738326  0.3888675684909151  0.1251023145871462
  0.2777840221286236  0.5555493112047121  0.1250256975599529
  0.6110998804170827  0.3888675684909151  0.1251023145871462
  0.7777844616698285  0.8888975993173880  0.1250071456523602
  0.9444452250424447  0.3888904500848895  0.1250139481954968
  0.1111130578550650  0.5555543543511240  0.6249921139434703
  0.2777840221286236  0.0555680442572472  0.6249743024400470
  0.7777652890760886  0.5555493112047121  0.6249743024400470
  0.6111131376475663  0.0555488716635072  0.6249928543476398
  0.9444357340159406  0.0555488716635072  0.6249928543476398
  0.0558200027060571  0.1112792503676027  0.3750000000000000
  0.5554968532157154  0.6109937064314306  0.3750000000000000
  0.3888918576086161  0.1124389735642645  0.3750000000000000
  0.8885596903286528  0.6109465118309976  0.3750000000000000
  0.7221720882738453  0.1111612450594903  0.3750000000000000
  0.0555557512894670  0.7777775820438683  0.8750000000000000
  0.3888904707313371  0.7777808150805517  0.8750000000000000
  0.2222202484708934  0.2777767909021109  0.8750000000000000
  0.7222226875864759  0.7777785536389953  0.8750000000000000
  0.5555565424312248  0.2777767909021109  0.8750000000000000
  0.8888900714891149  0.2777801429782444  0.8750000000000000
  0.2222981435898587  0.7778157384615937  0.3750000000000000
  0.0558200027060571  0.2778740856717901  0.3750000000000000
  0.3902617193951305  0.2805234387902609  0.3750000000000000
  0.5554592476615456  0.7775133306272786  0.3750000000000000
  0.8884672936119605  0.7774158650556867  0.3750000000000000
  0.7220540829657329  0.2778740856717901  0.3750000000000000
  0.0555525182527840  0.9444429889841210  0.8750000000000000
  0.3888904707313371  0.9444429889841210  0.8750000000000000
  0.2222220632823880  0.4444450382418829  0.8750000000000000
  0.5555534887804483  0.4444434110568849  0.8750000000000000
  0.7222227849919418  0.9444455699838836  0.8750000000000000
  0.8888903443492076  0.4444428626019915  0.8750000000000000
  0.0559174682776491  0.4443847618896022  0.3750000000000000
  0.2223868215023378  0.9447736430046758  0.3750000000000000
  0.5554773898498723  0.9444053615916005  0.3750000000000000
  0.3902617193951305  0.4430716139381981  0.3750000000000000
  0.8889279717417281  0.9444053615916005  0.3750000000000000
  0.7208943597690711  0.4444414757247125  0.3750000000000000
  0.2222223379986477  0.6111109953346880  0.8750000000000000
  0.0555547796943405  0.1111106457468598  0.8750000000000000
  0.5555565424312248  0.6111130848624424  0.8750000000000000
  0.3888882950914457  0.1111103583738408  0.8750000000000000
  0.8888886573360401  0.6111109953346880  0.8750000000000000
  0.0555175948717421  0.6110351897434768  0.3750000000000000
  0.7222227849919418  0.1111105483413939  0.8750000000000000
  0.2235471159556484  0.1124389735642645  0.3750000000000000
  0.3888918576086161  0.6097862173776875  0.3750000000000000
  0.7208943597690711  0.6097862173776875  0.3750000000000000
  0.5554592476615456  0.1112792503676027  0.3750000000000000
  0.3888882950914457  0.6111112700509478  0.8750000000000000
  0.8889891567856305  0.1111612450594903  0.3750000000000000
  0.2222218307544017  0.7777775820438683  0.8750000000000000
  0.0555547796943405  0.2777774672808164  0.8750000000000000
  0.3888899222764437  0.2777798445528871  0.8750000000000000
  0.5555558660525193  0.7777785536389953  0.8750000000000000
  0.8888903443492076  0.7777808150805517  0.8750000000000000
  0.7222226875864759  0.2777774672808164  0.8750000000000000
  0.0555175948717421  0.7778157384615937  0.3750000000000000
  0.3889485714437264  0.7774158650556867  0.3750000000000000
  0.2223396269019051  0.2778364801176204  0.3750000000000000
  0.7220540829657329  0.7775133306272786  0.3750000000000000
  0.5554968532157154  0.2778364801176204  0.3750000000000000
  0.8889279717417281  0.2778559434834632  0.3750000000000000
  0.0555525182527840  0.4444428626019915  0.8750000000000000
  0.2222223379986477  0.9444446759972885  0.8750000000000000
  0.5555531903550912  0.9444432618442137  0.8750000000000000
  0.3888899222764437  0.4444434110568849  0.8750000000000000
  0.8888900714891149  0.9444432618442137  0.8750000000000000
  0.0559174682776491  0.9448660397213681  0.3750000000000000
  0.7222229749594953  0.4444450382418829  0.8750000000000000
  0.3889485714437264  0.9448660397213681  0.3750000000000000
  0.2235471159556484  0.4444414757247125  0.3750000000000000
  0.2223868215023378  0.6109465118309976  0.3750000000000000
  0.5528098945430746  0.4430716139381981  0.3750000000000000
  0.7221720882738453  0.9443441765476981  0.3750000000000000
  0.8884672936119605  0.4443847618896022  0.3750000000000000
  0.0555557512894670  0.6111115025789341  0.8750000000000000
  0.2222220632823880  0.1111103583738408  0.8750000000000000
  0.7222229749594953  0.6111112700509478  0.8750000000000000
  0.5555558660525193  0.1111106457468598  0.8750000000000000
  0.8888877633494450  0.1111105483413939  0.8750000000000000
  0.1119075907979663  0.0562895663286953  0.3750000000000000
  0.6094097825401907  0.5542709757181702  0.3750000000000000
  0.4443819755307289  0.0562895663286953  0.3750000000000000
  0.9442804540317208  0.5555098030708107  0.3750000000000000
  0.7777777777777786  0.0555555555555571  0.3750000000000000
  0.1111111111111143  0.7222222222222214  0.8750000000000000
  0.4444438201809233  0.7222203948704680  0.8750000000000000
  0.2777829939057493  0.2222271205344012  0.8750000000000000
  0.7777765746895520  0.7222203948704680  0.8750000000000000
  0.6111089607244982  0.2222243726088377  0.8750000000000000
  0.9444461709929874  0.2222240468672126  0.8750000000000000
  0.2778235302625251  0.7221039842942463  0.3750000000000000
  0.1113724250385494  0.2223528791859390  0.3750000000000000
  0.4448611931779795  0.2239235507931450  0.3750000000000000
  0.6109804541473964  0.7219609082947864  0.3750000000000000
  0.9442804540317208  0.7221039842942463  0.3750000000000000
  0.7777320379057416  0.2223365332533306  0.3750000000000000
  0.1111112648597646  0.8888895494704977  0.8750000000000000
  0.4444437225492502  0.8888885279412893  0.8750000000000000
  0.2777829939057493  0.3888892067046769  0.8750000000000000
  0.6111062127989346  0.3888892067046769  0.8750000000000000
  0.7777778758742250  0.8888871623403412  0.8750000000000000
  0.9444448053920393  0.3888896107840784  0.8750000000000000
  0.1119075907979663  0.3889513578025997  0.3750000000000000
  0.2778235302625251  0.8890528793016078  0.3750000000000000
  0.6109968000800052  0.8887288379857399  0.3750000000000000
  0.9444783741749815  0.8888549591583471  0.3750000000000000
  0.7770437670046403  0.3889513578025997  0.3750000000000000
  0.2777791451197492  0.5555541882135863  0.8750000000000000
  0.1111129384628676  0.0555567586437837  0.8750000000000000
  0.6111062127989346  0.5555503394275865  0.8750000000000000
  0.4444438201809233  0.0555567586437837  0.8750000000000000
  0.9444437838628309  0.5555550487226033  0.8750000000000000
  0.1112293490390896  0.5555098030708107  0.3750000000000000
  0.7777777777777786  0.0555555555555571  0.8750000000000000
  0.2780027207208255  0.0560054414416439  0.3750000000000000
  0.4448611931779795  0.5542709757181702  0.3750000000000000
  0.7773278918916918  0.5553306126125104  0.3750000000000000
  0.6109968000800052  0.0556012954275942  0.3750000000000000
  0.4444441266286517  0.5555503394275865  0.8750000000000000
  0.9446044953475889  0.0556012954275942  0.3750000000000000
  0.2777782846107326  0.7222220684735710  0.8750000000000000
  0.1111154118843468  0.2222243726088377  0.8750000000000000
  0.4444441266286517  0.2222271205344012  0.8750000000000000
  0.6111089607244982  0.7222179214489889  0.8750000000000000
  0.9444437838628309  0.7222220684735710  0.8750000000000000
  0.7777778758742250  0.2222240468672126  0.8750000000000000
  0.1111111111111143  0.7222222222222214  0.3750000000000000
  0.4443819755307289  0.7214257425353693  0.3750000000000000
  0.2790623576151657  0.2239235507931450  0.3750000000000000
  0.7770437670046403  0.7214257425353693  0.3750000000000000
  0.6109804541473964  0.2223528791859390  0.3750000000000000
  0.9446044953475889  0.2223365332533306  0.3750000000000000
  0.1111129384628676  0.3888895131524053  0.8750000000000000
  0.2777782846107326  0.8888895494704977  0.8750000000000000
  0.6111092864661228  0.8888871623403412  0.8750000000000000
  0.4444444444444429  0.3888888888888857  0.8750000000000000
  0.9444448053920393  0.8888885279412893  0.8750000000000000
  0.1112293490390896  0.8890528793016078  0.3750000000000000
  0.7777765746895520  0.3888895131524053  0.8750000000000000
  0.4443765849833732  0.8888549591583471  0.3750000000000000
  0.2790623576151657  0.3884721401553491  0.3750000000000000
  0.2780027207208255  0.5553306126125104  0.3750000000000000
  0.6094097825401907  0.3884721401553491  0.3750000000000000
  0.7777320379057416  0.8887288379857399  0.3750000000000000
  0.9444783741749815  0.3889567483499554  0.3750000000000000
  0.1111112648597646  0.5555550487226033  0.8750000000000000
  0.2777791451197492  0.0555582902394984  0.8750000000000000
  0.7777750430938373  0.5555541882135863  0.8750000000000000
  0.6111092864661228  0.0555554574591105  0.8750000000000000
  0.9444461709929874  0.0555554574591105  0.8750000000000000
  0.0554944583434187  0.1110069376710469  0.1249914845207553
  0.5555105292359319  0.6110210584718627  0.1250261257252522
  0.3890014099416733  0.1111778489909165  0.1250337777350382
  0.8889820026352523  0.6111576679842941  0.1249992241702021
  0.7221737232964652  0.1111596100368704  0.1249936271489577
  0.0555053912986894  0.7778279420346463  0.6250008324958785
  0.3888389317537077  0.7776765494715602  0.6249964585894425
  0.2223122748614726  0.2778228040974043  0.6249738742747480
  0.7223263956622883  0.7778388749899168  0.6250085154792449
  0.5555105292359319  0.2778228040974043  0.6249738742747480
  0.8888386463685050  0.2776772927370241  0.6249990466304269
  0.2223225507359499  0.7778279420346463  0.1249991675041216
  0.0554944583434187  0.2778208540057004  0.1249914845207553
  0.3888584770671261  0.2777169541342522  0.1252646538380348
  0.5555124793276354  0.7778388749899168  0.1249914845207553
  0.8888376177178452  0.7776765494715602  0.1250035414105576
  0.7223263956622883  0.2778208540057004  0.1249914845207553
  0.0556567838617759  0.9444957156154834  0.6249964585894425
  0.3888389317537077  0.9444957156154834  0.6249964585894425
  0.2221764390492362  0.4443319233916553  0.6249662222649616
  0.5556163791990835  0.4444748562662025  0.6247353461619652
  0.7221737232964652  0.9443474465929302  0.6250063728510423
  0.8888376177178452  0.4444944015796209  0.6249964585894425
  0.0556567838617759  0.4444944015796209  0.1250035414105576
  0.2221756653490418  0.9443513306980763  0.1249992241702021
  0.5556560405963116  0.9444946869648236  0.1250009533695731
  0.3888584770671261  0.4444748562662025  0.1252646538380348
  0.8888386463685050  0.9444946869648236  0.1250009533695731
  0.7221554843424188  0.4443319233916553  0.1250337777350382
  0.2221756653490418  0.6111576679842941  0.6250007758297976
  0.0554944583434187  0.1110069376710469  0.6250085154792449
  0.5555105292359319  0.6110210584718627  0.6249738742747480
  0.3890014099416733  0.1111778489909165  0.6249662222649616
  0.8889820026352523  0.6111576679842941  0.6250007758297976
  0.0555053912986894  0.6110107825973857  0.1249991675041216
  0.7221737232964652  0.1111596100368704  0.6250063728510423
  0.2221764390492362  0.1111778489909165  0.1250337777350382
  0.3890014099416733  0.6111568942840995  0.1250337777350382
  0.7221554843424188  0.6111568942840995  0.1250337777350382
  0.5555124793276354  0.1110069376710469  0.1249914845207553
  0.3890014099416733  0.6111568942840995  0.6249662222649616
  0.8889858867403984  0.1111596100368704  0.1249936271489577
  0.2223225507359499  0.7778279420346463  0.6250008324958785
  0.0554944583434187  0.2778208540057004  0.6250085154792449
  0.3888584770671261  0.2777169541342522  0.6247353461619652
  0.5555124793276354  0.7778388749899168  0.6250085154792449
  0.8888376177178452  0.7776765494715602  0.6249964585894425
  0.7223263956622883  0.2778208540057004  0.6250085154792449
  0.0555053912986894  0.7778279420346463  0.1249991675041216
  0.3888389317537077  0.7776765494715602  0.1250035414105576
  0.2223122748614726  0.2778228040974043  0.1250261257252522
  0.7223263956622883  0.7778388749899168  0.1249914845207553
  0.5555105292359319  0.2778228040974043  0.1250261257252522
  0.8888386463685050  0.2776772927370241  0.1250009533695731
  0.0556567838617759  0.4444944015796209  0.6249964585894425
  0.2221756653490418  0.9443513306980763  0.6250007758297976
  0.5556560405963116  0.9444946869648236  0.6249990466304269
  0.3888584770671261  0.4444748562662025  0.6247353461619652
  0.8888386463685050  0.9444946869648236  0.6249990466304269
  0.0556567838617759  0.9444957156154834  0.1250035414105576
  0.7221554843424188  0.4443319233916553  0.6249662222649616
  0.3888389317537077  0.9444957156154834  0.1250035414105576
  0.2221764390492362  0.4443319233916553  0.1250337777350382
  0.2221756653490418  0.6111576679842941  0.1249992241702021
  0.5556163791990835  0.4444748562662025  0.1252646538380348
  0.7221737232964652  0.9443474465929302  0.1249936271489577
  0.8888376177178452  0.4444944015796209  0.1250035414105576
  0.0555053912986894  0.6110107825973857  0.6250008324958785
  0.2221764390492362  0.1111778489909165  0.6249662222649616
  0.7221554843424188  0.6111568942840995  0.6249662222649616
  0.5555124793276354  0.1110069376710469  0.6250085154792449
  0.8889858867403984  0.1111596100368704  0.6250063728510423
 
  0.00000000E+00  0.00000000E+00  0.00000000E+00
  0.00000000E+00  0.00000000E+00  0.00000000E+00
  0.00000000E+00  0.00000000E+00  0.00000000E+00
  0.00000000E+00  0.00000000E+00  0.00000000E+00
  0.00000000E+00  0.00000000E+00  0.00000000E+00
  0.00000000E+00  0.00000000E+00  0.00000000E+00
  0.00000000E+00  0.00000000E+00  0.00000000E+00
  0.00000000E+00  0.00000000E+00  0.00000000E+00
  0.00000000E+00  0.00000000E+00  0.00000000E+00
  0.00000000E+00  0.00000000E+00  0.00000000E+00
  0.00000000E+00  0.00000000E+00  0.00000000E+00
  0.00000000E+00  0.00000000E+00  0.00000000E+00
  0.00000000E+00  0.00000000E+00  0.00000000E+00
  0.00000000E+00  0.00000000E+00  0.00000000E+00
  0.00000000E+00  0.00000000E+00  0.00000000E+00
  0.00000000E+00  0.00000000E+00  0.00000000E+00
  0.00000000E+00  0.00000000E+00  0.00000000E+00
  0.00000000E+00  0.00000000E+00  0.00000000E+00
  0.00000000E+00  0.00000000E+00  0.00000000E+00
  0.00000000E+00  0.00000000E+00  0.00000000E+00
  0.00000000E+00  0.00000000E+00  0.00000000E+00
  0.00000000E+00  0.00000000E+00  0.00000000E+00
  0.00000000E+00  0.00000000E+00  0.00000000E+00
  0.00000000E+00  0.00000000E+00  0.00000000E+00
  0.00000000E+00  0.00000000E+00  0.00000000E+00
  0.00000000E+00  0.00000000E+00  0.00000000E+00
  0.00000000E+00  0.00000000E+00  0.00000000E+00
  0.00000000E+00  0.00000000E+00  0.00000000E+00
  0.00000000E+00  0.00000000E+00  0.00000000E+00
  0.00000000E+00  0.00000000E+00  0.00000000E+00
  0.00000000E+00  0.00000000E+00  0.00000000E+00
  0.00000000E+00  0.00000000E+00  0.00000000E+00
  0.00000000E+00  0.00000000E+00  0.00000000E+00
  0.00000000E+00  0.00000000E+00  0.00000000E+00
  0.00000000E+00  0.00000000E+00  0.00000000E+00
  0.00000000E+00  0.00000000E+00  0.00000000E+00
  0.00000000E+00  0.00000000E+00  0.00000000E+00
  0.00000000E+00  0.00000000E+00  0.00000000E+00
  0.00000000E+00  0.00000000E+00  0.00000000E+00
  0.00000000E+00  0.00000000E+00  0.00000000E+00
  0.00000000E+00  0.00000000E+00  0.00000000E+00
  0.00000000E+00  0.00000000E+00  0.00000000E+00
  0.00000000E+00  0.00000000E+00  0.00000000E+00
  0.00000000E+00  0.00000000E+00  0.00000000E+00
  0.00000000E+00  0.00000000E+00  0.00000000E+00
  0.00000000E+00  0.00000000E+00  0.00000000E+00
  0.00000000E+00  0.00000000E+00  0.00000000E+00
  0.00000000E+00  0.00000000E+00  0.00000000E+00
  0.00000000E+00  0.00000000E+00  0.00000000E+00
  0.00000000E+00  0.00000000E+00  0.00000000E+00
  0.00000000E+00  0.00000000E+00  0.00000000E+00
  0.00000000E+00  0.00000000E+00  0.00000000E+00
  0.00000000E+00  0.00000000E+00  0.00000000E+00
  0.00000000E+00  0.00000000E+00  0.00000000E+00
  0.00000000E+00  0.00000000E+00  0.00000000E+00
  0.00000000E+00  0.00000000E+00  0.00000000E+00
  0.00000000E+00  0.00000000E+00  0.00000000E+00
  0.00000000E+00  0.00000000E+00  0.00000000E+00
  0.00000000E+00  0.00000000E+00  0.00000000E+00
  0.00000000E+00  0.00000000E+00  0.00000000E+00
  0.00000000E+00  0.00000000E+00  0.00000000E+00
  0.00000000E+00  0.00000000E+00  0.00000000E+00
  0.00000000E+00  0.00000000E+00  0.00000000E+00
  0.00000000E+00  0.00000000E+00  0.00000000E+00
  0.00000000E+00  0.00000000E+00  0.00000000E+00
  0.00000000E+00  0.00000000E+00  0.00000000E+00
  0.00000000E+00  0.00000000E+00  0.00000000E+00
  0.00000000E+00  0.00000000E+00  0.00000000E+00
  0.00000000E+00  0.00000000E+00  0.00000000E+00
  0.00000000E+00  0.00000000E+00  0.00000000E+00
  0.00000000E+00  0.00000000E+00  0.00000000E+00
  0.00000000E+00  0.00000000E+00  0.00000000E+00
  0.00000000E+00  0.00000000E+00  0.00000000E+00
  0.00000000E+00  0.00000000E+00  0.00000000E+00
  0.00000000E+00  0.00000000E+00  0.00000000E+00
  0.00000000E+00  0.00000000E+00  0.00000000E+00
  0.00000000E+00  0.00000000E+00  0.00000000E+00
  0.00000000E+00  0.00000000E+00  0.00000000E+00
  0.00000000E+00  0.00000000E+00  0.00000000E+00
  0.00000000E+00  0.00000000E+00  0.00000000E+00
  0.00000000E+00  0.00000000E+00  0.00000000E+00
  0.00000000E+00  0.00000000E+00  0.00000000E+00
  0.00000000E+00  0.00000000E+00  0.00000000E+00
  0.00000000E+00  0.00000000E+00  0.00000000E+00
  0.00000000E+00  0.00000000E+00  0.00000000E+00
  0.00000000E+00  0.00000000E+00  0.00000000E+00
  0.00000000E+00  0.00000000E+00  0.00000000E+00
  0.00000000E+00  0.00000000E+00  0.00000000E+00
  0.00000000E+00  0.00000000E+00  0.00000000E+00
  0.00000000E+00  0.00000000E+00  0.00000000E+00
  0.00000000E+00  0.00000000E+00  0.00000000E+00
  0.00000000E+00  0.00000000E+00  0.00000000E+00
  0.00000000E+00  0.00000000E+00  0.00000000E+00
  0.00000000E+00  0.00000000E+00  0.00000000E+00
  0.00000000E+00  0.00000000E+00  0.00000000E+00
  0.00000000E+00  0.00000000E+00  0.00000000E+00
  0.00000000E+00  0.00000000E+00  0.00000000E+00
  0.00000000E+00  0.00000000E+00  0.00000000E+00
  0.00000000E+00  0.00000000E+00  0.00000000E+00
  0.00000000E+00  0.00000000E+00  0.00000000E+00
  0.00000000E+00  0.00000000E+00  0.00000000E+00
  0.00000000E+00  0.00000000E+00  0.00000000E+00
  0.00000000E+00  0.00000000E+00  0.00000000E+00
  0.00000000E+00  0.00000000E+00  0.00000000E+00
  0.00000000E+00  0.00000000E+00  0.00000000E+00
  0.00000000E+00  0.00000000E+00  0.00000000E+00
  0.00000000E+00  0.00000000E+00  0.00000000E+00
  0.00000000E+00  0.00000000E+00  0.00000000E+00
  0.00000000E+00  0.00000000E+00  0.00000000E+00
  0.00000000E+00  0.00000000E+00  0.00000000E+00
  0.00000000E+00  0.00000000E+00  0.00000000E+00
  0.00000000E+00  0.00000000E+00  0.00000000E+00
  0.00000000E+00  0.00000000E+00  0.00000000E+00
  0.00000000E+00  0.00000000E+00  0.00000000E+00
  0.00000000E+00  0.00000000E+00  0.00000000E+00
  0.00000000E+00  0.00000000E+00  0.00000000E+00
  0.00000000E+00  0.00000000E+00  0.00000000E+00
  0.00000000E+00  0.00000000E+00  0.00000000E+00
  0.00000000E+00  0.00000000E+00  0.00000000E+00
  0.00000000E+00  0.00000000E+00  0.00000000E+00
  0.00000000E+00  0.00000000E+00  0.00000000E+00
  0.00000000E+00  0.00000000E+00  0.00000000E+00
  0.00000000E+00  0.00000000E+00  0.00000000E+00
  0.00000000E+00  0.00000000E+00  0.00000000E+00
  0.00000000E+00  0.00000000E+00  0.00000000E+00
  0.00000000E+00  0.00000000E+00  0.00000000E+00
  0.00000000E+00  0.00000000E+00  0.00000000E+00
  0.00000000E+00  0.00000000E+00  0.00000000E+00
  0.00000000E+00  0.00000000E+00  0.00000000E+00
  0.00000000E+00  0.00000000E+00  0.00000000E+00
  0.00000000E+00  0.00000000E+00  0.00000000E+00
  0.00000000E+00  0.00000000E+00  0.00000000E+00
  0.00000000E+00  0.00000000E+00  0.00000000E+00
  0.00000000E+00  0.00000000E+00  0.00000000E+00
  0.00000000E+00  0.00000000E+00  0.00000000E+00
  0.00000000E+00  0.00000000E+00  0.00000000E+00
  0.00000000E+00  0.00000000E+00  0.00000000E+00
  0.00000000E+00  0.00000000E+00  0.00000000E+00
  0.00000000E+00  0.00000000E+00  0.00000000E+00
  0.00000000E+00  0.00000000E+00  0.00000000E+00
  0.00000000E+00  0.00000000E+00  0.00000000E+00
  0.00000000E+00  0.00000000E+00  0.00000000E+00
  0.00000000E+00  0.00000000E+00  0.00000000E+00
  0.00000000E+00  0.00000000E+00  0.00000000E+00
  0.00000000E+00  0.00000000E+00  0.00000000E+00
  0.00000000E+00  0.00000000E+00  0.00000000E+00
  0.00000000E+00  0.00000000E+00  0.00000000E+00
  0.00000000E+00  0.00000000E+00  0.00000000E+00
  0.00000000E+00  0.00000000E+00  0.00000000E+00
  0.00000000E+00  0.00000000E+00  0.00000000E+00
  0.00000000E+00  0.00000000E+00  0.00000000E+00
  0.00000000E+00  0.00000000E+00  0.00000000E+00
  0.00000000E+00  0.00000000E+00  0.00000000E+00
  0.00000000E+00  0.00000000E+00  0.00000000E+00
  0.00000000E+00  0.00000000E+00  0.00000000E+00
  0.00000000E+00  0.00000000E+00  0.00000000E+00
  0.00000000E+00  0.00000000E+00  0.00000000E+00
  0.00000000E+00  0.00000000E+00  0.00000000E+00
  0.00000000E+00  0.00000000E+00  0.00000000E+00
  0.00000000E+00  0.00000000E+00  0.00000000E+00
  0.00000000E+00  0.00000000E+00  0.00000000E+00
  0.00000000E+00  0.00000000E+00  0.00000000E+00
  0.00000000E+00  0.00000000E+00  0.00000000E+00
  0.00000000E+00  0.00000000E+00  0.00000000E+00
  0.00000000E+00  0.00000000E+00  0.00000000E+00
  0.00000000E+00  0.00000000E+00  0.00000000E+00
  0.00000000E+00  0.00000000E+00  0.00000000E+00
  0.00000000E+00  0.00000000E+00  0.00000000E+00
  0.00000000E+00  0.00000000E+00  0.00000000E+00
  0.00000000E+00  0.00000000E+00  0.00000000E+00
  0.00000000E+00  0.00000000E+00  0.00000000E+00
  0.00000000E+00  0.00000000E+00  0.00000000E+00
  0.00000000E+00  0.00000000E+00  0.00000000E+00
  0.00000000E+00  0.00000000E+00  0.00000000E+00
  0.00000000E+00  0.00000000E+00  0.00000000E+00
  0.00000000E+00  0.00000000E+00  0.00000000E+00
  0.00000000E+00  0.00000000E+00  0.00000000E+00
  0.00000000E+00  0.00000000E+00  0.00000000E+00
  0.00000000E+00  0.00000000E+00  0.00000000E+00
  0.00000000E+00  0.00000000E+00  0.00000000E+00
  0.00000000E+00  0.00000000E+00  0.00000000E+00
  0.00000000E+00  0.00000000E+00  0.00000000E+00
  0.00000000E+00  0.00000000E+00  0.00000000E+00
  0.00000000E+00  0.00000000E+00  0.00000000E+00
  0.00000000E+00  0.00000000E+00  0.00000000E+00
  0.00000000E+00  0.00000000E+00  0.00000000E+00
  0.00000000E+00  0.00000000E+00  0.00000000E+00
  0.00000000E+00  0.00000000E+00  0.00000000E+00
  0.00000000E+00  0.00000000E+00  0.00000000E+00
  0.00000000E+00  0.00000000E+00  0.00000000E+00
  0.00000000E+00  0.00000000E+00  0.00000000E+00
  0.00000000E+00  0.00000000E+00  0.00000000E+00
  0.00000000E+00  0.00000000E+00  0.00000000E+00
  0.00000000E+00  0.00000000E+00  0.00000000E+00
  0.00000000E+00  0.00000000E+00  0.00000000E+00
  0.00000000E+00  0.00000000E+00  0.00000000E+00
  0.00000000E+00  0.00000000E+00  0.00000000E+00
  0.00000000E+00  0.00000000E+00  0.00000000E+00
  0.00000000E+00  0.00000000E+00  0.00000000E+00
  0.00000000E+00  0.00000000E+00  0.00000000E+00
  0.00000000E+00  0.00000000E+00  0.00000000E+00
  0.00000000E+00  0.00000000E+00  0.00000000E+00
  0.00000000E+00  0.00000000E+00  0.00000000E+00
  0.00000000E+00  0.00000000E+00  0.00000000E+00
  0.00000000E+00  0.00000000E+00  0.00000000E+00
  0.00000000E+00  0.00000000E+00  0.00000000E+00
  0.00000000E+00  0.00000000E+00  0.00000000E+00
  0.00000000E+00  0.00000000E+00  0.00000000E+00
  0.00000000E+00  0.00000000E+00  0.00000000E+00
  0.00000000E+00  0.00000000E+00  0.00000000E+00
  0.00000000E+00  0.00000000E+00  0.00000000E+00
  0.00000000E+00  0.00000000E+00  0.00000000E+00
  0.00000000E+00  0.00000000E+00  0.00000000E+00
  0.00000000E+00  0.00000000E+00  0.00000000E+00
  0.00000000E+00  0.00000000E+00  0.00000000E+00
  0.00000000E+00  0.00000000E+00  0.00000000E+00
  0.00000000E+00  0.00000000E+00  0.00000000E+00
  0.00000000E+00  0.00000000E+00  0.00000000E+00
  0.00000000E+00  0.00000000E+00  0.00000000E+00
  0.00000000E+00  0.00000000E+00  0.00000000E+00
  0.00000000E+00  0.00000000E+00  0.00000000E+00
  0.00000000E+00  0.00000000E+00  0.00000000E+00
  0.00000000E+00  0.00000000E+00  0.00000000E+00
  0.00000000E+00  0.00000000E+00  0.00000000E+00
  0.00000000E+00  0.00000000E+00  0.00000000E+00
  0.00000000E+00  0.00000000E+00  0.00000000E+00
  0.00000000E+00  0.00000000E+00  0.00000000E+00
  0.00000000E+00  0.00000000E+00  0.00000000E+00
  0.00000000E+00  0.00000000E+00  0.00000000E+00
  0.00000000E+00  0.00000000E+00  0.00000000E+00
  0.00000000E+00  0.00000000E+00  0.00000000E+00
  0.00000000E+00  0.00000000E+00  0.00000000E+00
  0.00000000E+00  0.00000000E+00  0.00000000E+00
  0.00000000E+00  0.00000000E+00  0.00000000E+00
  0.00000000E+00  0.00000000E+00  0.00000000E+00
  0.00000000E+00  0.00000000E+00  0.00000000E+00
  0.00000000E+00  0.00000000E+00  0.00000000E+00
  0.00000000E+00  0.00000000E+00  0.00000000E+00
  0.00000000E+00  0.00000000E+00  0.00000000E+00
  0.00000000E+00  0.00000000E+00  0.00000000E+00
  0.00000000E+00  0.00000000E+00  0.00000000E+00
  0.00000000E+00  0.00000000E+00  0.00000000E+00
  0.00000000E+00  0.00000000E+00  0.00000000E+00
  0.00000000E+00  0.00000000E+00  0.00000000E+00
  0.00000000E+00  0.00000000E+00  0.00000000E+00
  0.00000000E+00  0.00000000E+00  0.00000000E+00
  0.00000000E+00  0.00000000E+00  0.00000000E+00