 B Al P N 
 1.0
 17.527899999999772   0.000000000000000   0.000000000000000
 -8.763949999999658  15.179606674993195   0.000000000000000
  0.000000000000001   0.000000000000002  15.000000000000000
 B Al P N 
  48   1   1  48
Cartesian
  7.518147893055275  14.459147975950350   1.672957417248180 
 15.024617639148625   1.445291198868201   1.643307674593815 
 13.770214971836218   3.613956792162753   1.627332658395180 
 12.517797538881720   5.782598327283825   1.618299349754625 
 11.268910344072179   7.950803584317852   1.639636534139400 
 10.024229679873507  10.119737783328796   1.685139237094845 
  8.774226425053921  12.291818443102878   1.715580207642405 
 -7.505810591473050  14.453240002775878   1.674964625030250 
  0.001052195934137   1.439156303186538   1.672957417248180 
 -1.253433527241109   3.609413277837231   1.652373182971710 
 -2.504703822953600   5.779783330141027   1.621671327210975 
 -3.751827129033190   7.948168411858478   1.607982582536580 
 -4.999900595795495  10.116559659763317   1.625207097810600 
 -6.251355740618392  12.285548700397994   1.659562653172560 
 -5.001307430620578  14.450695885222466   1.659562653172560 
  2.506053895750568   1.435025151749459   1.715580207642405 
  1.246958004393980   3.596690188004946   1.728883552416615 
 -0.003670277061980   5.773005396119296   1.695735492587835 
 -1.244348049461392   7.945355675474157   1.635023576177130 
 -2.493197733705741  10.114128851361496   1.607609497776705 
 -3.747053143740331  12.283120378509148   1.618199479560855 
 -2.497180248475559  14.451398458427894   1.625207097810600 
  5.012097126275821   1.438530908149075   1.685139237094950 
  3.753433897054517   3.596389526331645   1.775897030785635 
  2.484413147910902   5.746397611948383   1.843584221959755 
  1.254589503409075   7.938783191871624   1.832759144844090 
  0.014426179649473  10.111429278608359   1.690841609674620 
 -1.241723675608317  12.281745504322114   1.607609497776705 
  0.004738390938407  14.454730754374685   1.607982582536580 
  7.512825001192747   1.445072932859913   1.639636534139400 
  6.255521470652100   3.614244736140583   1.671609742504350 
  4.976404723611749   5.740889646437812   1.471273239531975 
  2.516074546073201  10.123739378764123   1.832759144844090 
  1.260913831882740  12.284596540200234   1.635023576177130 
  2.506176609912494  14.458882830516949   1.621671327210855 
 10.014989431791811   1.447607524208768   1.618299349754670 
  8.759408172776425   3.617486588765487   1.627441599814875 
  7.502258601356550   5.788327214279221   1.593923401061595 
  6.280413801318127   7.999499622590831   1.471273239532065 
  5.029647975416832  10.154873650406213   1.843584221959755 
  3.762563245906308  12.296313211067227   1.695735492587730 
  5.011407358674727  14.460435993579726   1.652373182971725 
 12.519296809385974   1.447302978688421   1.627332658395180 
 11.264933989292020   3.615945566180643   1.621116089540760 
 10.010836516327990   5.785024061827946   1.627441599814770 
  8.761700691987008   7.955074480395547   1.671609742504380 
  7.526119970475365  10.130873486526312   1.775897030785635 
  6.272621643503170  12.301394952693625   1.728883552416615 
  4.635820394818245   7.443259817499325  -0.001286707819366 
  3.866419552314841   7.887479867982760   2.769719831459010 
  8.769951393325620  13.735060631076406   1.683988950568005 
 16.277106182489668   0.722160334283807   1.656578200734615 
 15.022206727019622   2.890084132713868   1.636853186060835 
 13.769733135494533   5.059868891664398   1.618538680807815 
 12.521169622304392   7.227637521907743   1.617803345320350 
 11.274260272578740   9.395759849556775   1.646701338346845 
 10.024294420144965  11.565405445417575   1.690679133313470 
 -6.253376178401821  13.730140390316160   1.663327130051820 
  1.254026553972934   0.717096943443913   1.683988950568005 
 -0.003525570823579   2.882358467651730   1.677729674733090 
 -1.254317879285062   5.054943198426269   1.646563957252275 
 -2.498710862329653   7.225030304388302   1.608030876678375 
 -3.747500680528591   9.393247089582344   1.604717240486160 
 -4.999558311965345  11.561798211663008   1.630415207807655 
 -3.748627834370310  13.728473355587871   1.630415207807550 
  3.760174575613159   0.715631609986735   1.690679133313470 
  2.500817438018718   2.877752304719468   1.767944087291445 
  1.239633295983960   5.039447528985931   1.749832381177515 
  0.008228676371163   7.220341144215077   1.686795884972475 
 -1.239005833044283   9.390724324995480   1.631461222587180 
 -2.494075953949573  11.559707393763734   1.603989614593560 
 -1.244578657528317  13.728435200804192   1.604717240486160 
  6.264125705053964   0.717952225845284   1.646701338346845 
  5.008541571653522   2.883727701428735   1.714415332775055 
  3.745563809397240   5.041820409565642   1.795596387066945 
  2.483235254762093   7.180947360861331   1.996373731249560 
  1.267031087390095   9.388231230994736   1.824753013263630 
  0.011853544433534  11.557276319914735   1.631461222587195 
  1.257547068439042  13.731059886851419   1.608030876678255 
  8.765229394154687   0.722158216594185   1.617803345320350 
  7.508797826822199   2.893195223899175   1.650807960319770 
  6.247163856050747   5.066323100858082   1.606724114049195 
  3.786697075959110   9.438609460931389   1.996373731249560 
  2.515077769624289  11.562331140674001   1.686795884972475 
  3.759094122159176  13.738427504225093   1.646563957252275 
 11.266829281409047   0.724754811052231   1.618538680807815 
 10.014309709776725   2.894182346593893   1.620791425443990 
  8.754832927772590   5.065146822802864   1.617727236296895 
  7.499979705233923   7.236263804168545   1.606724114049195 
  6.270399635018428   9.414964340341362   1.795596387067050 
  5.019489353172710  11.586350265366917   1.749832381177740 
  6.266003845127079  13.741501955626076   1.677729674733090 
 13.772179371846505   0.724973242697381   1.636853186060835 
 12.517443510114330   2.892802590239738   1.625591872590600 
 11.264693992233029   5.059868891664398   1.620791425443990 
 10.012780637756023   7.230220673683922   1.650807960319875 
  8.770851625130916   9.400239867880558   1.714415332775085 
  7.522164403662283  11.574980371645180   1.767944087291445 
