B N O Se                                
   1.0000000000000000     
     8.7639499999999995  -15.1796066749929999    0.0000000000000000
     8.7639499999999995   15.1796066749929999    0.0000000000000000
     0.0000000000000000    0.0000000000000000   15.0000000000000000
   B    N    O    Se
    48    48     1     1
Selective dynamics
Direct
  0.9068575996203162  0.9541930072920621  0.1109966690110603   T   T   T
  0.9043644587875778  0.0956375624084184  0.1110158827652139   T   T   T
  0.9036649942600694  0.2381244633727855  0.1110546336208405   T   T   T
  0.9042197342481142  0.3810437867794513  0.1109798338217846   T   T   T
  0.9066412974802044  0.5243825631515164  0.1111072072025484   T   T   T
  0.9086440327238093  0.6681595620993203  0.1111598507108841   T   T   T
  0.9092747939758919  0.8123494211992182  0.1111462924548237   T   T   T
  0.0483807786060482  0.9516212425899599  0.1109937964349363   T   T   T
  0.0458090139039369  0.0931444215756844  0.1109966690110603   T   T   T
  0.0448892764887046  0.2363684414152265  0.1109784262381550   T   T   T
  0.0455530296765767  0.3801208564689448  0.1109846224053942   T   T   T
  0.0474388394352868  0.5236188686562374  0.1109911897916158   T   T   T
  0.0495607897429050  0.6666371919952602  0.1110426382174419   T   T   T
  0.0496461444246802  0.8094221490138696  0.1110119656228423   T   T   T
  0.1905798721821363  0.9503558767713217  0.1110119656228423   T   T   T
  0.1876525999967877  0.0907272272201020  0.1111462924548237   T   T   T
  0.1842021054289310  0.2317621561746746  0.1110360877680696   T   T   T
  0.1855202750073537  0.3775019786006829  0.1109064339972609   T   T   T
  0.1879247982821990  0.5227189138718576  0.1109725980076255   T   T   T
  0.1916854255715830  0.6659442489542790  0.1110389492915829   T   T   T
  0.1915522904253617  0.8084497307706430  0.1109735647830921   T   T   T
  0.3333648292017403  0.9504412314530973  0.1110426382174419   T   T   T
  0.3318424590976770  0.0913579884721906  0.1111598507108841   T   T   T
  0.3260463799644901  0.2285531623640576  0.1110142272859475   T   T   T
  0.3216388775236109  0.3703727790712100  0.1109381311387828   T   T   T
  0.3265751951690865  0.5189834486965326  0.1110273793037196   T   T   T
  0.3348753030436311  0.6651267181533626  0.1110695767990662   T   T   T
  0.3340577722427137  0.8083165956244212  0.1110389492915829   T   T   T
  0.4763831525407601  0.9525631817607217  0.1109911897916158   T   T   T
  0.4756194580454793  0.0933607237157900  0.1111072072025484   T   T   T
  0.4740589620994212  0.2329021300596788  0.1109942661025240   T   T   T
  0.4615745672474086  0.3600089517937049  0.1107471265823730   T   T   T
  0.4810185725004713  0.6734268260279136  0.1110273793037196   T   T   T
  0.4772831073251397  0.8120772229138044  0.1109725980076255   T   T   T
  0.6198811647270592  0.9544489915194261  0.1109846224053942   T   T   T
  0.6189582344165613  0.0957822869478824  0.1109798338217846   T   T   T
  0.6186317518995266  0.2378124335471380  0.1110618500347944   T   T   T
  0.6190282828789930  0.3809737383170057  0.1108264601129452   T   T   T
  0.6399930694023006  0.5384274539495908  0.1107471265823730   T   T   T
  0.6296292421247903  0.6783631436733892  0.1109381311387828   T   T   T
  0.6225000425953202  0.8144817461886514  0.1109064339972609   T   T   T
  0.7636335797807694  0.9551127447072997  0.1109784262381550   T   T   T
  0.7618775578232184  0.0963370269359280  0.1110546336208405   T   T   T
  0.7614978382091538  0.2385041829868499  0.1110207680464291   T   T   T
  0.7621895876488610  0.3813702692964771  0.1110618500347944   T   T   T
  0.7670998911363228  0.5259430590975797  0.1109942661025240   T   T   T
  0.7714488588319441  0.6739556412325072  0.1110142272859475   T   T   T
  0.7682398650213315  0.8157999157670691  0.1110360877680696   T   T   T
  0.9544980637569564  0.9063107826095286  0.1110090254842554   T   T   T
  0.9520106648028930  0.0479907371151157  0.1109710927677543   T   T   T
  0.9505656962949530  0.1901039725469078  0.1110268048713298   T   T   T
  0.9507644852343475  0.3329756986462018  0.1109988578792597   T   T   T
  0.9525162224735001  0.4760741869287961  0.1109901708808168   T   T   T
  0.9545745101522208  0.6193873161253851  0.1111217000247070   T   T   T
  0.9551858557489281  0.7629522568573786  0.1111009374368730   T   T   T
  0.0960266220234003  0.9039747798945938  0.1109829116001171   T   T   T
  0.0936906193084737  0.0455033381610493  0.1110090254842554   T   T   T
  0.0907352593635937  0.1868829828547081  0.1109926222392824   T   T   T
  0.0912064085244416  0.3310565476627085  0.1109542912238249   T   T   T
  0.0931720091787092  0.4752272788293288  0.1109808424914905   T   T   T
  0.0962640194911830  0.6186661644477888  0.1110064559536057   T   T   T
  0.0966888173414704  0.7614909926655782  0.1109832918642217   T   T   T
  0.2385104092524224  0.9033125845765275  0.1109832918642217   T   T   T
  0.2370491450606255  0.0448155461690752  0.1111009374368730   T   T   T
  0.2325617783232981  0.1841982488673876  0.1112412059918497   T   T   T
  0.2281200115002708  0.3247353261191055  0.1108578083707329   T   T   T
  0.2318891912145940  0.4731483033163852  0.1108093834006927   T   T   T
  0.2386644446819869  0.6181268976394009  0.1110484799925647   T   T   T
  0.2389704810619950  0.7610309208560091  0.1110274041458177   T   T   T
  0.3813352374702123  0.9037373824268121  0.1110064559536057   T   T   T
  0.3806140857926184  0.0454268917657821  0.1111217000247070   T   T   T
  0.3786636346973716  0.1859081027622385  0.1111429862435439   T   T   T
  0.3703933284609440  0.3215783203272554  0.1105622217321436   T   T   T
  0.3571348040274865  0.4591955056555617  0.1112745805200620   T   T   T
  0.3826173387122848  0.6173840632057138  0.1110359885440785   T   T   T
  0.3818745042785925  0.7613369572360195  0.1110484799925647   T   T   T
  0.5247741230876710  0.9068293927392872  0.1109808424914905   T   T   T
  0.5239272149882038  0.0474851794445027  0.1109901708808168   T   T   T
  0.5233372991694836  0.1883943958465273  0.1111430833395890   T   T   T
  0.5219704936935894  0.3284026231514660  0.1106106754735958   T   T   T
  0.5408058962614374  0.6428665978905136  0.1112745805200620   T   T   T
  0.5268530986006132  0.7681122107034087  0.1108093834006927   T   T   T
  0.6689448542542952  0.9087949933935504  0.1109542912238249   T   T   T
  0.6670257032707878  0.0492369166836570  0.1109988578792597   T   T   T
  0.6664068489728847  0.1910206722193623  0.1109912062939862   T   T   T
  0.6663013891606751  0.3337000127563194  0.1110441131398493   T   T   T
  0.6715987787655321  0.4780309082234142  0.1106106754735958   T   T   T
  0.6784230815897448  0.6296080734570501  0.1105622217321436   T   T   T
  0.6752660757978887  0.7718813904177306  0.1108578083707329   T   T   T
  0.8131184190632925  0.9092661425544041  0.1109926222392824   T   T   T
  0.8098974293710901  0.0494357056230516  0.1110268048713298   T   T   T
  0.8088556021674769  0.1911457997505211  0.1110794789792553   T   T   T
  0.8089807296986349  0.3335945529441103  0.1109912062939862   T   T   T
  0.8116070060714720  0.4766641027475139  0.1111430833395890   T   T   T
  0.8140932991557597  0.6213377672206245  0.1111429862435439   T   T   T
  0.8158031530506108  0.7674396235947076  0.1112412059918497   T   T   T
  0.4633039355053342  0.5366980856916637  0.1123863710086079   T   T   T
  0.5194820336005166  0.4805193683164843  0.1114585702358250   T   T   T

  0.00000000E+00  0.00000000E+00  0.00000000E+00
  0.00000000E+00  0.00000000E+00  0.00000000E+00
  0.00000000E+00  0.00000000E+00  0.00000000E+00
  0.00000000E+00  0.00000000E+00  0.00000000E+00
  0.00000000E+00  0.00000000E+00  0.00000000E+00
  0.00000000E+00  0.00000000E+00  0.00000000E+00
  0.00000000E+00  0.00000000E+00  0.00000000E+00
  0.00000000E+00  0.00000000E+00  0.00000000E+00
  0.00000000E+00  0.00000000E+00  0.00000000E+00
  0.00000000E+00  0.00000000E+00  0.00000000E+00
  0.00000000E+00  0.00000000E+00  0.00000000E+00
  0.00000000E+00  0.00000000E+00  0.00000000E+00
  0.00000000E+00  0.00000000E+00  0.00000000E+00
  0.00000000E+00  0.00000000E+00  0.00000000E+00
  0.00000000E+00  0.00000000E+00  0.00000000E+00
  0.00000000E+00  0.00000000E+00  0.00000000E+00
  0.00000000E+00  0.00000000E+00  0.00000000E+00
  0.00000000E+00  0.00000000E+00  0.00000000E+00
  0.00000000E+00  0.00000000E+00  0.00000000E+00
  0.00000000E+00  0.00000000E+00  0.00000000E+00
  0.00000000E+00  0.00000000E+00  0.00000000E+00
  0.00000000E+00  0.00000000E+00  0.00000000E+00
  0.00000000E+00  0.00000000E+00  0.00000000E+00
  0.00000000E+00  0.00000000E+00  0.00000000E+00
  0.00000000E+00  0.00000000E+00  0.00000000E+00
  0.00000000E+00  0.00000000E+00  0.00000000E+00
  0.00000000E+00  0.00000000E+00  0.00000000E+00
  0.00000000E+00  0.00000000E+00  0.00000000E+00
  0.00000000E+00  0.00000000E+00  0.00000000E+00
  0.00000000E+00  0.00000000E+00  0.00000000E+00
  0.00000000E+00  0.00000000E+00  0.00000000E+00
  0.00000000E+00  0.00000000E+00  0.00000000E+00
  0.00000000E+00  0.00000000E+00  0.00000000E+00
  0.00000000E+00  0.00000000E+00  0.00000000E+00
  0.00000000E+00  0.00000000E+00  0.00000000E+00
  0.00000000E+00  0.00000000E+00  0.00000000E+00
  0.00000000E+00  0.00000000E+00  0.00000000E+00
  0.00000000E+00  0.00000000E+00  0.00000000E+00
  0.00000000E+00  0.00000000E+00  0.00000000E+00
  0.00000000E+00  0.00000000E+00  0.00000000E+00
  0.00000000E+00  0.00000000E+00  0.00000000E+00
  0.00000000E+00  0.00000000E+00  0.00000000E+00
  0.00000000E+00  0.00000000E+00  0.00000000E+00
  0.00000000E+00  0.00000000E+00  0.00000000E+00
  0.00000000E+00  0.00000000E+00  0.00000000E+00
  0.00000000E+00  0.00000000E+00  0.00000000E+00
  0.00000000E+00  0.00000000E+00  0.00000000E+00
  0.00000000E+00  0.00000000E+00  0.00000000E+00
  0.00000000E+00  0.00000000E+00  0.00000000E+00
  0.00000000E+00  0.00000000E+00  0.00000000E+00
  0.00000000E+00  0.00000000E+00  0.00000000E+00
  0.00000000E+00  0.00000000E+00  0.00000000E+00
  0.00000000E+00  0.00000000E+00  0.00000000E+00
  0.00000000E+00  0.00000000E+00  0.00000000E+00
  0.00000000E+00  0.00000000E+00  0.00000000E+00
  0.00000000E+00  0.00000000E+00  0.00000000E+00
  0.00000000E+00  0.00000000E+00  0.00000000E+00
  0.00000000E+00  0.00000000E+00  0.00000000E+00
  0.00000000E+00  0.00000000E+00  0.00000000E+00
  0.00000000E+00  0.00000000E+00  0.00000000E+00
  0.00000000E+00  0.00000000E+00  0.00000000E+00
  0.00000000E+00  0.00000000E+00  0.00000000E+00
  0.00000000E+00  0.00000000E+00  0.00000000E+00
  0.00000000E+00  0.00000000E+00  0.00000000E+00
  0.00000000E+00  0.00000000E+00  0.00000000E+00
  0.00000000E+00  0.00000000E+00  0.00000000E+00
  0.00000000E+00  0.00000000E+00  0.00000000E+00
  0.00000000E+00  0.00000000E+00  0.00000000E+00
  0.00000000E+00  0.00000000E+00  0.00000000E+00
  0.00000000E+00  0.00000000E+00  0.00000000E+00
  0.00000000E+00  0.00000000E+00  0.00000000E+00
  0.00000000E+00  0.00000000E+00  0.00000000E+00
  0.00000000E+00  0.00000000E+00  0.00000000E+00
  0.00000000E+00  0.00000000E+00  0.00000000E+00
  0.00000000E+00  0.00000000E+00  0.00000000E+00
  0.00000000E+00  0.00000000E+00  0.00000000E+00
  0.00000000E+00  0.00000000E+00  0.00000000E+00
  0.00000000E+00  0.00000000E+00  0.00000000E+00
  0.00000000E+00  0.00000000E+00  0.00000000E+00
  0.00000000E+00  0.00000000E+00  0.00000000E+00
  0.00000000E+00  0.00000000E+00  0.00000000E+00
  0.00000000E+00  0.00000000E+00  0.00000000E+00
  0.00000000E+00  0.00000000E+00  0.00000000E+00
  0.00000000E+00  0.00000000E+00  0.00000000E+00
  0.00000000E+00  0.00000000E+00  0.00000000E+00
  0.00000000E+00  0.00000000E+00  0.00000000E+00
  0.00000000E+00  0.00000000E+00  0.00000000E+00
  0.00000000E+00  0.00000000E+00  0.00000000E+00
  0.00000000E+00  0.00000000E+00  0.00000000E+00
  0.00000000E+00  0.00000000E+00  0.00000000E+00
  0.00000000E+00  0.00000000E+00  0.00000000E+00
  0.00000000E+00  0.00000000E+00  0.00000000E+00
  0.00000000E+00  0.00000000E+00  0.00000000E+00
  0.00000000E+00  0.00000000E+00  0.00000000E+00
  0.00000000E+00  0.00000000E+00  0.00000000E+00
  0.00000000E+00  0.00000000E+00  0.00000000E+00
  0.00000000E+00  0.00000000E+00  0.00000000E+00
  0.00000000E+00  0.00000000E+00  0.00000000E+00
