 C N B 
 1.0
 17.527899999999772   0.000000000000000   0.000000000000000
 -8.763949999999658  15.179606674993195   0.000000000000000
  0.000000000000001   0.000000000000002  15.000000000000000
 C N B 
   1  49  48
Cartesian
  3.756503810380344   7.950936050895389   1.668003452439870 
  8.760732425488698  13.734056169842535   1.665022085570310 
 16.275585436237801   0.723041529224958   1.665082846439160 
 15.022979404393144   2.892020046157177   1.665513897243120 
 13.771279968850148   5.059868891664398   1.665225221509200 
 12.519786634603692   7.227865481444162   1.664347716608085 
 11.266608936411963   9.393526307898336   1.664928777531450 
 10.013962597084047  11.563831118947991   1.665284770580550 
 -6.260806072398234  13.734433589088765   1.664404993364025 
  1.250289501796254   0.725587844776415   1.665022183025265 
  0.000645725020826   2.897368781626842   1.664972624821095 
 -1.247141988726708   5.059868891664398   1.664978717790810 
 -2.498893862385843   7.225924292728947   1.665120665050920 
 -3.754760174664883   9.393711500124381   1.665234339243960 
 -5.007875282723316  11.564236134582279   1.664560143029850 
 -3.754894891682537  13.734461790158353   1.664560156409865 
  3.756374593695088   0.725371966075009   1.665284659235595 
  2.504926151761898   2.895898009191512   1.665729326988015 
  1.258470061341931   5.072684632183383   1.664683611401010 
  0.013879436740395   7.227772167128536   1.665002729130600 
 -1.248167320420345   9.395517687883581   1.665790484109210 
 -2.501871924375709  11.564210749970018   1.665380448289785 
 -1.248607839616739  13.734493300055519   1.665234401494005 
  6.262236983434130   0.725700545883436   1.664928893751450 
  5.007527898792803   2.895934693477647   1.665764787757020 
  3.756335127295436   5.063050461844597   1.665813900389385 
  2.538190058559413   7.248087145688165   1.664377660600815 
  1.254499371234520   9.395470428522051   1.665731576345130 
  0.003124853426995  11.562818348476133   1.665790553424225 
  1.256685444777539  13.730774314121268   1.665120871720905 
  8.764342699028315   0.723245883606667   1.664347723283175 
  7.511653625435852   2.897303381047912   1.665000347541825 
  6.253952744275686   5.072458033916080   1.665388897360545 
  4.974352666594319   7.247810089652861   1.664934017433150 
  3.756031773834756   9.357451566012031   1.664377684270845 
  2.511470385567509  11.553728824950595   1.665002686890570 
  3.758388690870758  13.729755399477462   1.664978684595810 
 11.267600486669432   0.723419044358180   1.665225199489260 
 10.015469754145464   2.892173090808205   1.665335001299115 
  8.763949999999962   5.059868891664398   1.664899024299000 
  7.498062984849391   7.227321755781832   1.665388591375545 
  6.257400973905121   9.395025521231796   1.665813939914355 
  5.000125080890636  11.553423993550256   1.664683504436010 
  6.255092879826692  13.730389103449518   1.664972630461170 
 13.770892136222997   0.723340790235528   1.665514042548120 
 12.519672461711901   2.891518262442601   1.665596807506755 
 11.267019973674190   5.059868891664398   1.665334912199190 
 10.010656261334672   7.225698752273286   1.665000039876795 
  8.759776174909991   9.395018824503724   1.665765018052065 
  7.508506139459342  11.562353668983482   1.665729496427940 
  7.512419725632688  14.454815402473042   1.665189173693265 
 15.029881356721491   1.442249412202462   1.665781488802785 
 13.769358386746960   3.612582495293077   1.665756205931655 
 12.519864300624281   5.789777163188109   1.665060633206415 
 11.266791884819080   7.952127949836052   1.664853941073225 
 10.010940981380443  10.119737783328796   1.665637669073535 
  8.761331505992690  12.284252526306570   1.665688272892290 
 -7.511283596172098  14.456396829540395   1.665028599598695 
  0.001937505472452   1.446278763555921   1.665189166598250 
 -1.244176227208894   3.620929796170767   1.665269141047680 
 -2.494399110113351   5.786004781597047   1.665463264733205 
 -3.754700803938097   7.952031844440379   1.665071564740215 
 -5.007418193715394  10.119737783328796   1.665193005114450 
 -6.260554440806740  12.287987608980222   1.664828924826570 
 -5.008021434383609  14.457438821075831   1.664828901936615 
  2.506155804213134   1.449970754907242   1.665688211032335 
  1.259976227546075   3.625154331913769   1.665402550448970 
  0.005628833373969   5.785823544680647   1.664970101510865 
 -1.238786202263577   7.952808741161804   1.665584776144770 
 -2.499285410272134  10.119737783328796   1.665895712103780 
 -3.755399735959360  12.287935980110271   1.664902421051340 
 -2.503724204452576  14.456315313581038   1.665193041324420 
  5.005455242118266   1.450034988967947   1.665637603418535 
  3.756146389183675   3.620016889736376   1.666282689668850 
  2.517207909953239   5.798604137708554   1.664966233460625 
  1.272326531023567   7.954831972927937   1.665271957962450 
  0.000000000000152  10.119737783328796   1.666144668985635 
 -1.249656980234525  12.284207165128427   1.665895765098825 
 -0.000046269237098  14.455281030488919   1.665071644405230 
  7.510615674808952   1.446242376174255   1.664854071468225 
  6.251770458626469   3.625100908630986   1.665677947687140 
  4.994869305179746   5.798653841980780   1.665749707752690 
  2.511041693847716  10.100351784444690   1.665271965672555 
  1.257237786399142  12.276048234458985   1.665584862199770 
  2.505939036043269  14.446842849517777   1.665463296338205 
 10.009802535177723   1.442223169401727   1.665060649496415 
  8.756539686618769   3.621291574715923   1.665281811883410 
  7.506624982541090   5.785803378693492   1.665277196995185 
  6.239616007147784   7.954621354619873   1.665749628882660 
  5.000829270152876  10.100364774843175   1.664966229155595 
  3.756109292154211  12.281847048799010   1.664970036290835 
  5.006060135543832  14.446656098198963   1.665269174437620 
 12.520056009251705   1.448726719738085   1.665756241976640 
 11.270453758348628   3.612755528031415   1.665890184667740 
 10.006105903149807   5.785601716528874   1.665281685778410 
  8.750421715085908   7.952889729226626   1.665677828227170 
  7.505260289918300  10.119737783328796   1.666282819088835 
  6.254476621334111  12.275884146374510   1.665402587558910 
