Si B N                                  
   1.0000000000000000     
     8.7639499999999995  -15.1796066749929999    0.0000000000000000
     8.7639499999999995   15.1796066749929999    0.0000000000000000
     0.0000000000000000    0.0000000000000000   15.0000000000000000
   Si   B    N 
     1    48    48
Selective dynamics
Direct
  0.4384021255928798  0.5049162654204408  0.1111405965445246   T   T   T
  0.9045647420929280  0.9522888963679722  0.1109917869563144   T   T   T
  0.9066136703403462  0.0964671227743058  0.1110355412131449   T   T   T
  0.9072993785863603  0.2393640361386822  0.1110906923952841   T   T   T
  0.9066136703403462  0.3815752412570368  0.1110355412131449   T   T   T
  0.9045647420929280  0.5237062509729599  0.1109917869563144   T   T   T
  0.9029475549318791  0.6659039576397073  0.1110336561903633   T   T   T
  0.9029475549318791  0.8084740025401730  0.1110336561903633   T   T   T
  0.0465374541157632  0.9513777332660724  0.1109994118680578   T   T   T
  0.0485578428487925  0.0955176885837460  0.1110100125162987   T   T   T
  0.0509624390980462  0.2399157890739911  0.1110316876622078   T   T   T
  0.0509624390980461  0.3824770552710547  0.1110316876622078   T   T   T
  0.0485578428487925  0.5244705595130418  0.1110100125162987   T   T   T
  0.0465374541157632  0.6665918376536893  0.1109994118680578   T   T   T
  0.0461661602408690  0.8087991385224367  0.1109743073426914   T   T   T
  0.1894313874133158  0.9512495680584686  0.1109983613530506   T   T   T
  0.1897720087562131  0.0933069369061798  0.1110504751904222   T   T   T
  0.1930126848498012  0.2383484051677867  0.1110250939475521   T   T   T
  0.1964820075479528  0.3839562063974764  0.1110373847268277   T   T   T
  0.1930126848498012  0.5260946849300163  0.1110250939475521   T   T   T
  0.1897720087562131  0.6678954770980280  0.1110504751904222   T   T   T
  0.1894313874133158  0.8096139361588502  0.1109983613530506   T   T   T
  0.3329542852868774  0.9521932010449401  0.1110122159101523   T   T   T
  0.3329503060555789  0.0924735754592164  0.1110748518253315   T   T   T
  0.3328082569536457  0.2319705190657869  0.1110358501863465   T   T   T
  0.3387602471679175  0.3753521943288290  0.1110667394399569   T   T   T
  0.3387602471679175  0.5348384580860877  0.1110667394399569   T   T   T
  0.3328082569536457  0.6722681431348589  0.1110358501863465   T   T   T
  0.3329503060555789  0.8119071358433635  0.1110748518253315   T   T   T
  0.4768213959650375  0.9536787342454016  0.1110092469926263   T   T   T
  0.4768213959650375  0.0945730669666359  0.1110092469926263   T   T   T
  0.4766911011660319  0.2353823036597000  0.1110335714823070   T   T   T
  0.4764357790057929  0.3758365173548804  0.1110121341131149   T   T   T
  0.4764357790057929  0.6720296668979113  0.1110121341131149   T   T   T
  0.4766911011660319  0.8127392027533390  0.1110335714823070   T   T   T
  0.6203520457599919  0.9539331953615933  0.1110057522203829   T   T   T
  0.6204740959798601  0.0959513948354252  0.1109879570587340   T   T   T
  0.6203520457599919  0.2378492556453989  0.1110057522203829   T   T   T
  0.6196125564572347  0.3798391301978550  0.1110164632923502   T   T   T
  0.6146876949987186  0.5212750520715277  0.1110704623616687   T   T   T
  0.6146876949987186  0.6648430481751855  0.1110704623616687   T   T   T
  0.6196125564572347  0.8112038315063796  0.1110164632923502   T   T   T
  0.7629452240896526  0.9534002978749219  0.1109954651681493   T   T   T
  0.7637461044634791  0.0964093168559950  0.1110348190054242   T   T   T
  0.7637461044634791  0.2387654812984812  0.1110348190054242   T   T   T
  0.7629452240896526  0.3809753314617307  0.1109954651681493   T   T   T
  0.7603312185607776  0.5229881075591880  0.1110452528215367   T   T   T
  0.7586923843971607  0.6650613948225788  0.1110794061773084   T   T   T
  0.7603312185607776  0.8087735162495929  0.1110452528215367   T   T   T
  0.9512792342286515  0.9038943676913381  0.1109862829600119   T   T   T
  0.9532042366704131  0.0479412526205790  0.1109831395534904   T   T   T
  0.9552547321736768  0.1920424255853600  0.1110423745879840   T   T   T
  0.9552547321736768  0.3346392887063148  0.1110423745879840   T   T   T
  0.9532042366704131  0.4766899661678323  0.1109831395534904   T   T   T
  0.9512792342286515  0.6188135602123092  0.1109862829600119   T   T   T
  0.9507757308167748  0.7611022122458885  0.1110024712831914   T   T   T
  0.0941143890390795  0.9038679117644027  0.1109615280316759   T   T   T
  0.0947525735806974  0.0465906516760413  0.1110054638135153   T   T   T
  0.0975357255088934  0.1912585416277184  0.1109920693165483   T   T   T
  0.1001313978568844  0.3357800457654423  0.1110106767391147   T   T   T
  0.0975357255088934  0.4777058775551752  0.1109920693165483   T   T   T
  0.0947525735806973  0.6195906155796592  0.1110054638135153   T   T   T
  0.0941143890390795  0.7616768825056818  0.1109615280316759   T   T   T
  0.2375099518898597  0.9044701785604292  0.1109709827792172   T   T   T
  0.2375696015201972  0.0460108488595966  0.1110369838346649   T   T   T
  0.2380815229864878  0.1881250537047071  0.1110300491507927   T   T   T
  0.2434127539538948  0.3346799300254774  0.1110198079905280   T   T   T
  0.2434127539538948  0.4801615176024112  0.1110198079905280   T   T   T
  0.2380815229864878  0.6213851629567767  0.1110300491507927   T   T   T
  0.2375696015201972  0.7629874463356037  0.1110369838346649   T   T   T
  0.3813725526098823  0.9062490631838891  0.1110140673788917   T   T   T
  0.3813725526098823  0.0465521831009964  0.1110140673788917   T   T   T
  0.3813822273652220  0.1865262035180247  0.1110551810309653   T   T   T
  0.3813890596365559  0.3252132178627830  0.1109747938083830   T   T   T
  0.3813890596365559  0.6276045354487680  0.1109747938083830   T   T   T
  0.3813822273652220  0.7662847175222007  0.1110551810309653   T   T   T
  0.5250473519498522  0.9071657933068310  0.1110103774112935   T   T   T
  0.5251199896531954  0.0482734858861016  0.1109616315552032   T   T   T
  0.5250473519498522  0.1893102523180250  0.1110103774112935   T   T   T
  0.5247455020519118  0.3302041774016841  0.1109947623318839   T   T   T
  0.5187938987896922  0.4705351861278387  0.1110463532324514   T   T   T
  0.5187938987896923  0.6196874063368494  0.1110463532324514   T   T   T
  0.5247455020519118  0.7659700183252306  0.1109947623318839   T   T   T
  0.6678260076730321  0.9062715822187745  0.1109866633043655   T   T   T
  0.6684258625205587  0.0488964831560635  0.1109869372473078   T   T   T
  0.6684258625205587  0.1909563614835030  0.1109869372473078   T   T   T
  0.6678260076730321  0.3329831191292622  0.1109866633043655   T   T   T
  0.6648016097661212  0.4750577071645292  0.1110234377892863   T   T   T
  0.6625939715984058  0.6170113326372023  0.1110733106649910   T   T   T
  0.6648016097661212  0.7611725962765948  0.1110234377892863   T   T   T
  0.8091906280343434  0.9045443905659805  0.1109855502233403   T   T   T
  0.8112455043646252  0.0487725824391694  0.1110089538722174   T   T   T
  0.8118161810955165  0.1916215816067612  0.1110533876995004   T   T   T
  0.8112455043646252  0.3338999040434605  0.1110089538722174   T   T   T
  0.8091906280343434  0.4760749311423643  0.1109855502233403   T   T   T
  0.8073898574554810  0.6181871119363908  0.1110531537244211   T   T   T
  0.8073898574554810  0.7606314391940941  0.1110531537244211   T   T   T

  0.00000000E+00  0.00000000E+00  0.00000000E+00
  0.00000000E+00  0.00000000E+00  0.00000000E+00
  0.00000000E+00  0.00000000E+00  0.00000000E+00
  0.00000000E+00  0.00000000E+00  0.00000000E+00
  0.00000000E+00  0.00000000E+00  0.00000000E+00
  0.00000000E+00  0.00000000E+00  0.00000000E+00
  0.00000000E+00  0.00000000E+00  0.00000000E+00
  0.00000000E+00  0.00000000E+00  0.00000000E+00
  0.00000000E+00  0.00000000E+00  0.00000000E+00
  0.00000000E+00  0.00000000E+00  0.00000000E+00
  0.00000000E+00  0.00000000E+00  0.00000000E+00
  0.00000000E+00  0.00000000E+00  0.00000000E+00
  0.00000000E+00  0.00000000E+00  0.00000000E+00
  0.00000000E+00  0.00000000E+00  0.00000000E+00
  0.00000000E+00  0.00000000E+00  0.00000000E+00
  0.00000000E+00  0.00000000E+00  0.00000000E+00
  0.00000000E+00  0.00000000E+00  0.00000000E+00
  0.00000000E+00  0.00000000E+00  0.00000000E+00
  0.00000000E+00  0.00000000E+00  0.00000000E+00
  0.00000000E+00  0.00000000E+00  0.00000000E+00
  0.00000000E+00  0.00000000E+00  0.00000000E+00
  0.00000000E+00  0.00000000E+00  0.00000000E+00
  0.00000000E+00  0.00000000E+00  0.00000000E+00
  0.00000000E+00  0.00000000E+00  0.00000000E+00
  0.00000000E+00  0.00000000E+00  0.00000000E+00
  0.00000000E+00  0.00000000E+00  0.00000000E+00
  0.00000000E+00  0.00000000E+00  0.00000000E+00
  0.00000000E+00  0.00000000E+00  0.00000000E+00
  0.00000000E+00  0.00000000E+00  0.00000000E+00
  0.00000000E+00  0.00000000E+00  0.00000000E+00
  0.00000000E+00  0.00000000E+00  0.00000000E+00
  0.00000000E+00  0.00000000E+00  0.00000000E+00
  0.00000000E+00  0.00000000E+00  0.00000000E+00
  0.00000000E+00  0.00000000E+00  0.00000000E+00
  0.00000000E+00  0.00000000E+00  0.00000000E+00
  0.00000000E+00  0.00000000E+00  0.00000000E+00
  0.00000000E+00  0.00000000E+00  0.00000000E+00
  0.00000000E+00  0.00000000E+00  0.00000000E+00
  0.00000000E+00  0.00000000E+00  0.00000000E+00
  0.00000000E+00  0.00000000E+00  0.00000000E+00
  0.00000000E+00  0.00000000E+00  0.00000000E+00
  0.00000000E+00  0.00000000E+00  0.00000000E+00
  0.00000000E+00  0.00000000E+00  0.00000000E+00
  0.00000000E+00  0.00000000E+00  0.00000000E+00
  0.00000000E+00  0.00000000E+00  0.00000000E+00
  0.00000000E+00  0.00000000E+00  0.00000000E+00
  0.00000000E+00  0.00000000E+00  0.00000000E+00
  0.00000000E+00  0.00000000E+00  0.00000000E+00
  0.00000000E+00  0.00000000E+00  0.00000000E+00
  0.00000000E+00  0.00000000E+00  0.00000000E+00
  0.00000000E+00  0.00000000E+00  0.00000000E+00
  0.00000000E+00  0.00000000E+00  0.00000000E+00
  0.00000000E+00  0.00000000E+00  0.00000000E+00
  0.00000000E+00  0.00000000E+00  0.00000000E+00
  0.00000000E+00  0.00000000E+00  0.00000000E+00
  0.00000000E+00  0.00000000E+00  0.00000000E+00
  0.00000000E+00  0.00000000E+00  0.00000000E+00
  0.00000000E+00  0.00000000E+00  0.00000000E+00
  0.00000000E+00  0.00000000E+00  0.00000000E+00
  0.00000000E+00  0.00000000E+00  0.00000000E+00
  0.00000000E+00  0.00000000E+00  0.00000000E+00
  0.00000000E+00  0.00000000E+00  0.00000000E+00
  0.00000000E+00  0.00000000E+00  0.00000000E+00
  0.00000000E+00  0.00000000E+00  0.00000000E+00
  0.00000000E+00  0.00000000E+00  0.00000000E+00
  0.00000000E+00  0.00000000E+00  0.00000000E+00
  0.00000000E+00  0.00000000E+00  0.00000000E+00
  0.00000000E+00  0.00000000E+00  0.00000000E+00
  0.00000000E+00  0.00000000E+00  0.00000000E+00
  0.00000000E+00  0.00000000E+00  0.00000000E+00
  0.00000000E+00  0.00000000E+00  0.00000000E+00
  0.00000000E+00  0.00000000E+00  0.00000000E+00
  0.00000000E+00  0.00000000E+00  0.00000000E+00
  0.00000000E+00  0.00000000E+00  0.00000000E+00
  0.00000000E+00  0.00000000E+00  0.00000000E+00
  0.00000000E+00  0.00000000E+00  0.00000000E+00
  0.00000000E+00  0.00000000E+00  0.00000000E+00
  0.00000000E+00  0.00000000E+00  0.00000000E+00
  0.00000000E+00  0.00000000E+00  0.00000000E+00
  0.00000000E+00  0.00000000E+00  0.00000000E+00
  0.00000000E+00  0.00000000E+00  0.00000000E+00
  0.00000000E+00  0.00000000E+00  0.00000000E+00
  0.00000000E+00  0.00000000E+00  0.00000000E+00
  0.00000000E+00  0.00000000E+00  0.00000000E+00
  0.00000000E+00  0.00000000E+00  0.00000000E+00
  0.00000000E+00  0.00000000E+00  0.00000000E+00
  0.00000000E+00  0.00000000E+00  0.00000000E+00
  0.00000000E+00  0.00000000E+00  0.00000000E+00
  0.00000000E+00  0.00000000E+00  0.00000000E+00
  0.00000000E+00  0.00000000E+00  0.00000000E+00
  0.00000000E+00  0.00000000E+00  0.00000000E+00
  0.00000000E+00  0.00000000E+00  0.00000000E+00
  0.00000000E+00  0.00000000E+00  0.00000000E+00
  0.00000000E+00  0.00000000E+00  0.00000000E+00
  0.00000000E+00  0.00000000E+00  0.00000000E+00
  0.00000000E+00  0.00000000E+00  0.00000000E+00
  0.00000000E+00  0.00000000E+00  0.00000000E+00
