 Si N B 
 1.0
 17.527899999999772   0.000000000000000   0.000000000000000
 -8.763949999999658  15.179606674993195   0.000000000000000
  0.000000000000001   0.000000000000002  15.000000000000000
 Si N B 
   1  48  48
Cartesian
  3.259207712848039   7.664430312888762   1.667108948167875 
  8.752242245907961  13.720760977296187   1.664794244400180 
 16.287513799031007   0.727729358286876   1.664747093302350 
 15.060559204358025   2.915128485297414   1.665635618819760 
 13.810847425809181   5.079692780561354   1.665635618819760 
 12.529981510938704   7.235966192343503   1.664747093302350 
 11.250676188613699   9.393346449175070   1.664794244400180 
  9.994840199171044  11.553232221359769   1.665037069247865 
 -6.271825585669280  13.720359386731092   1.664422920475140 
  1.252495492708854   0.707227767173915   1.665081957202725 
  0.033416147249130   2.903229435141572   1.664881039748220 
 -1.187666403590277   5.097009024030625   1.665160151086725 
 -2.476993982452210   7.251387327620017   1.664881039748220 
 -3.769247540944064   9.405141844016134   1.665081957202725 
 -5.025670514797360  11.561955489871258   1.664422920475140 
 -3.763680735664140  13.729501559808176   1.664564741688255 
  3.760859439622757   0.698426588471242   1.665554757519975 
  2.524350562339506   2.855664320949424   1.665450737261895 
  1.333396237281756   5.080309699800987   1.665297119857920 
  0.058402877836935   7.288662977672421   1.665297119857920 
 -1.272719372140026   9.432382367360427   1.665450737261895 
 -2.522687611826850  11.581849333331947   1.665554757519975 
 -1.257661512399470  13.756504328712492   1.665211010683380 
  6.276678959802706   0.706643829335384   1.665211010683380 
  5.050123221713056   2.831394403983352   1.665827715464475 
  3.834796917715077   4.936608732665917   1.664621907125745 
  1.184654529957487   9.526789995554124   1.664621907125745 
 -0.030851407093643  11.631900613045277   1.665827715464475 
  1.252621825990599  13.770419931405868   1.665155661169410 
  8.781184250010629   0.732772528581864   1.664424473328045 
  7.543871894439200   2.873655169731339   1.665155661169410 
  6.303793784876213   5.012369535397240   1.664921434978260 
  4.969620734130809   7.142539052165310   1.665695298486765 
  3.662458133830107   9.406611089640053   1.665695298486765 
  2.484763743314441  11.627123603014336   1.664921434978260 
  3.763068646906071  13.756846158804747   1.664799949565490 
 11.287575342118393   0.742229382099466   1.664804058709620 
 10.042569671450673   2.898642459407396   1.664804058709620 
  8.787340072999203   5.054552777794600   1.664799949565490 
  7.489194143115030   7.211189142681647   1.665351566839290 
  6.206424406113954   9.365989343446119   1.666099659974865 
  4.981697560681437  11.554300623262101   1.665351566839290 
  6.256030597422565  13.730628068863002   1.664783253350100 
 13.791989602084787   0.740348617950266   1.665134308083255 
 12.550070880501401   2.908740239230742   1.665800815492500 
 11.293148011910958   5.068469212197693   1.665134308083255 
 10.011115516338018   7.226630202565554   1.664783253350100 
  8.734087742839019   9.383837210744407   1.665797305866315 
  7.485712780968920  11.546086071600351   1.665797305866315 
  7.509308069606664  14.455370887829170   1.664876804344710 
 15.045600711720496   1.464332980782244   1.665533118197175 
 13.805278333406131   3.633451920724050   1.666360385929260 
 12.546927416743863   5.792162079197458   1.665533118197175 
 11.265384944716132   7.949654903004805   1.664876804344710 
  9.990825458533992  10.108160160292082   1.665504842855445 
  8.741348713528602  12.272317365517276   1.665504842855445 
 -7.522123043461195  14.441539790325562   1.664991178020870 
  0.014004766805842   1.449920943205752   1.665150187744485 
 -1.209345443388293   3.641827313263813   1.665475314933120 
 -2.458745252276003   5.805851261224248   1.665475314933120 
 -3.745316746374815   7.961256806021588   1.665150187744485 
 -5.026929491337434  10.119737783328796   1.664991178020870 
 -6.279079369967518  12.277252801843931   1.664614610140365 
 -5.016369236543877  14.439594292884731   1.664975420295765 
  2.508567462579098   1.416362602284219   1.665757127856330 
  1.294233533308637   3.618035042058922   1.665376409213280 
  0.078943985042692   5.828304193536192   1.665560770902420 
 -1.227560475213451   7.985910391042113   1.665376409213280 
 -2.527097774235051  10.138390642354990   1.665757127856330 
 -3.775081640357259  12.289621109484395   1.664975420295765 
 -2.508984187217703  14.453918270464909   1.665183238652280 
  5.025485877865743   1.403712503301202   1.666122777379965 
  3.800451816491211   3.521221239612657   1.665537752795190 
  2.648187872846460   5.697698674507236   1.666001091599355 
  1.250458231591084   8.118637428406650   1.666001091599355 
 -0.058294545968782  10.204765992915187   1.665537752795190 
 -1.279593873662657  12.324430978722521   1.666122777379965 
 -0.000314996654200  14.476468080150566   1.665138704889390 
  7.528844116093246   1.435581958601327   1.665138704889390 
  6.292515211969637   3.573010787808057   1.665503572234605 
  5.057106244563357   5.705050507546332   1.665182011696725 
  2.461284291625812  10.201146017436983   1.665182011696725 
  1.232588216158137  12.337061427143233   1.665503572234605 
  2.513245795387515  14.480330699808425   1.665086283305745 
 10.034694680157356   1.456504433518725   1.664819355881010 
  8.788969638863010   3.610458148637062   1.665086283305745 
  7.531615783229266   5.765808596174969   1.665246949385250 
  6.205755956565817   7.912750259932392   1.666056935425035 
  4.947533217113221  10.092055971902861   1.666056935425035 
  3.751157109196566  12.313755095514301   1.665246949385250 
  5.017275052760258  14.472241525562666   1.664931977522235 
 12.541938911965174   1.463455509678796   1.665522285081360 
 11.294336604599497   3.624366093676385   1.665522285081360 
 10.033978837156948   5.783055684464237   1.664931977522235 
  8.743567940568120   7.938753768447509   1.665678792323055 
  7.469719433319711  10.095370388129105   1.666191092659620 
  6.238958908075944  12.276863865820040   1.665678792323055 
