 B N Ga 
 1.0
 17.527899999999772   0.000000000000000   0.000000000000000
 -8.763949999999658  15.179606674993195   0.000000000000000
  0.000000000000001   0.000000000000002  15.000000000000000
 B N Ga 
  48  48   1
Cartesian
  7.558473365175191  14.505653741227905   1.657882205406270 
 15.051733079257527   1.490522363382213   1.658431369821165 
 13.788096188528973   3.651084564614579   1.659976725057870 
 12.517222987660844   5.803903235550689   1.659800477638770 
 11.232810107599715   7.953826400234295   1.659564423343530 
 10.033623487023966  10.119737783328796   1.660838941756485 
  8.817767595033388  12.326774271956868   1.660852858211700 
 -7.473070120000077  14.430652063903624   1.658103011791275 
  0.027707535558351   1.429420085294358   1.661080202590470 
 -1.219763494013367   3.629703337387960   1.656546116307345 
 -2.469529224700868   5.795613131663670   1.655750242211490 
 -3.742604185146371   7.947809105056568   1.660745668204650 
 -4.980194153186106  10.099726857957588   1.661216985198600 
 -6.221627583998931  12.260898231482102   1.656875683613745 
 -4.964925323707497  14.390588143612908   1.659394056883065 
  2.528072392132714   1.341126098483874   1.665956916224550 
  1.270491087721777   3.525014808247768   1.658629432035375 
  0.075595566523679   5.782284229396369   1.649996439047835 
 -1.205606018566970   7.950104105157338   1.657704926165115 
 -2.456051345718521  10.103918454203885   1.664818030010910 
 -3.709854254534562  12.249575620910100   1.659532959995460 
 -2.450128569126001  14.401963838655561   1.658939743996740 
  5.067410460623934   1.320944273730816   1.668640321300455 
  3.804332600299309   3.348641480244599   1.676838465748290 
  2.613811315767566   5.455697377083892   1.660670183106390 
  1.267278769840603   8.076779407267018   1.653636385812915 
  0.049151890725598  10.170931610002524   1.662314157912525 
 -1.201563198329130  12.283749219081754   1.664948488678605 
  0.052160553410655  14.450756035974440   1.661181859459725 
  7.555978434016914   1.408043880457889   1.660451258129280 
  6.287298028597325   3.523391606422291   1.670718821338200 
  4.957666206156253   5.529003864684545   1.682150067686685 
  2.628425451217549  10.130794013969465   1.654933782146955 
  1.323965413647555  12.302399131202540   1.665968594318415 
  2.536754286161022  14.513385022210738   1.660908738366855 
 10.036493186625998   1.480239643300040   1.657680531161565 
  8.756997503839537   3.640929868853940   1.659517250575335 
  7.426810815089247   5.822573198586569   1.661239138653225 
  6.031809205965699   8.195746642979039   1.656515452648290 
  5.136485474998370  10.356102715275295   1.667468660448495 
  3.805442959465231  12.387210868361445   1.667304850691280 
  5.043755559657900  14.532327946419384   1.659242656972215 
 12.539256010462589   1.500345531682260   1.657973290839000 
 11.267665425580002   3.654822362050634   1.659204459989445 
  9.974406948588651   5.812727310433583   1.658161067982675 
  8.647329494647114   7.975752736493489   1.658243692418430 
  7.579481552614780  10.224862889921898   1.668711743997510 
  6.333268242390835  12.409339386297232   1.668394610382285 
  8.800930565499574  13.757279256623159   1.656643481840910 
 16.298731262855430   0.753184491592349   1.658727514528560 
 15.042769581925016   2.928186587079158   1.659083128450260 
 13.783663605846940   5.089366442659342   1.659031958092950 
 12.507013648563294   7.242328020945098   1.659945238673385 
 11.281093861700437   9.394007644519403   1.660314047197740 
 10.049752200511826  11.565521203872585   1.658898718342320 
 -6.224064900213080  13.695894085627623   1.656015928465095 
  1.268464860402189   0.673253989960799   1.662191603505255 
  0.008404311314387   2.855265245095956   1.659007406278845 
 -1.210839187391537   5.072871915065505   1.651727887650180 
 -2.481384335826296   7.237399434816499   1.657245704457480 
 -3.725009986747779   9.389005971223837   1.663484315960220 
 -4.970135459271517  11.539712128737731   1.658124106171920 
 -3.706592915018762  13.684919057074417   1.656928372783485 
  3.796411217599513   0.634341997776980   1.666105648535490 
  2.510503157479344   2.747022292257971   1.667020998936210 
  1.275220665155512   4.944984176971858   1.650033898530375 
  0.047717185023534   7.244584190265563   1.652516979365565 
 -1.201355219821255   9.406046401574244   1.663533078535290 
 -2.454051560157633  11.548397418325960   1.664081661064950 
 -1.195186036010422  13.717254990225978   1.660668246959475 
  6.325151885410067   0.647932588016939   1.660394172801330 
  5.081068259497041   2.727663903776233   1.677816633810585 
  3.817023937518698   4.716017151796400   1.680936687478350 
  1.299057768599527   9.510206413908561   1.653480572431500 
  0.053108951572695  11.604865281683736   1.667898858973020 
  1.309343254702670  13.753830149704138   1.663843661740965 
  8.811398721005780   0.715718794934750   1.658012447602545 
  7.549284809552097   2.849030571595337   1.662263247444810 
  6.257643923414044   4.966913369554082   1.670550878558895 
  4.572745646170159   8.198759519290563   1.640020904113995 
  3.997420522023577   9.554067356508838   1.647863291757735 
  2.594356257645437  11.604042309625100   1.663976077706610 
  3.791252883483358  13.822977952275773   1.661757921337905 
 11.291731986042926   0.775731246128207   1.657356927696180 
 10.019998048748024   2.927721412558312   1.657771734170895 
  8.715991215857189   5.098145609243803   1.658283495867780 
  7.325218614830902   7.290335123459328   1.655847018265305 
  6.338155472733184   9.600368869943853   1.671701497428570 
  5.081427463953544  11.755639383945445   1.674606933899265 
  6.306403348011704  13.831879847000284   1.659345272718690 
 13.795070441470843   0.788372690543241   1.656898384832775 
 12.528301183011337   2.939972198417781   1.659644632712130 
 11.249132156452399   5.096440034331261   1.659234630416820 
  9.945083574803290   7.254487275515006   1.657533185807625 
  8.774268169205452   9.425634323619159   1.661798726822010 
  7.570300236226642  11.660457767994998   1.667886975812415 
  3.001111850128654   7.268894553008685   1.663511310309915 
