Species order: X N B                    
   2.51242800000000     
     5.9449720136058266    0.0000000000000000    0.0000000000000000
    -2.9724860068029120    5.1484967885702053   -0.0000000000000001
     0.0000000000000000    0.0000000000000009    5.3101128803662583
   Pb   N    B 
     1   143   143
Direct
  0.4962263187469887  0.4147798260401560  0.3750000000000000
  0.1112319957565521  0.0556032613122568  0.1250996230085098
  0.6113088940752649  0.5557557046346052  0.1205191456694297
  0.4446061964412473  0.0556292015600841  0.1248726653216090
  0.9445666050698484  0.5556153866593797  0.1249393986253446
  0.7779437726085338  0.0556385529709512  0.1250147338287128
  0.1112486286254192  0.7222909809793687  0.6248961979322097
  0.4446061964412473  0.7223103282144846  0.6251273346784024
  0.2778401519090309  0.2222439518024726  0.6262557056588437
  0.7779029772857960  0.7223020194939261  0.6257906306286399
  0.6112661106253218  0.2222697845678877  0.6259574860901403
  0.9445848973535688  0.2222943428222334  0.6249228685212205
  0.2779306909169462  0.7223031997064926  0.1250876015781599
  0.1112135715239797  0.2222734524286481  0.1249449642192823
  0.4445955295060080  0.2223028955068359  0.1232205351005782
  0.6112661106253218  0.7223296593907784  0.1240425139098672
  0.9445666050698484  0.7222845517437626  0.1249393986253446
  0.7779334824875145  0.2222844492223755  0.1249008205453428
  0.1112502293948010  0.8889523293926807  0.6248732522169137
  0.4446085893101935  0.8889709613217455  0.6249294479288915
  0.2778401519090309  0.3889295334399200  0.6262557056588437
  0.6113088940752649  0.3888865227740003  0.6294808543306086
  0.7779334824875145  0.8889823665984486  0.6250991794547035
  0.9445791275509245  0.3889597583673494  0.6248889119297802
  0.1112319957565521  0.3889620677775982  0.1250996230085098
  0.2779306909169462  0.8889608245437831  0.1250876015781599
  0.6112761331095101  0.8889828582678782  0.1249974610067415
  0.4443296106600791  0.3888314719966977  0.1196284281249576
  0.9445791275509245  0.8889527025168736  0.1251110880702427
  0.7779029772857960  0.3889342911251387  0.1242093693713846
  0.2779268248799062  0.5556359765415427  0.6251151203471685
  0.1112319957565521  0.0556032613122568  0.6249003769914959
  0.6113088940752649  0.5557557046346052  0.6294808543306086
  0.4446061964412473  0.0556292015600840  0.6251273346784024
  0.9445666050698484  0.5556153866593797  0.6250606013746379
  0.1112502293948010  0.5556312333354939  0.1251267477830912
  0.7779437726085338  0.0556385529709497  0.6249852661712962
  0.2779268248799062  0.0556241816716936  0.1248848796528027
  0.4445955295060080  0.5556259673325182  0.1232205351005782
  0.7778935653491258  0.5556134493412214  0.1234917648652659
  0.6112761331095101  0.0556266081749737  0.1249974610067415
  0.4445955295060080  0.5556259673325182  0.6267794648994008
  0.9445848973535688  0.0556238878646764  0.1250771314787926
  0.2779306909169462  0.7223031997064926  0.6249123984218218
  0.1112135715239797  0.2222734524286481  0.6250550357807014
  0.4445955295060080  0.2223028955068359  0.6267794648994008
  0.6112661106253218  0.7223296593907784  0.6259574860901403
  0.9445666050698484  0.7222845517437626  0.6250606013746379
  0.7779334824875145  0.2222844492223755  0.6250991794547035
  0.1112486286254192  0.7222909809793687  0.1251038020677850
  0.4446061964412473  0.7223103282144846  0.1248726653216090
  0.2778401519090309  0.2222439518024726  0.1237442943411701
  0.7779029772857960  0.7223020194939261  0.1242093693713846
  0.6112661106253218  0.2222697845678877  0.1240425139098672
  0.9445848973535688  0.2222943428222334  0.1250771314787926
  0.1112319957565521  0.3889620677775982  0.6249003769914959
  0.2779306909169462  0.8889608245437831  0.6249123984218218
  0.6112761331095101  0.8889828582678782  0.6250025389932459
  0.4443296106600791  0.3888314719966977  0.6303715718750478
  0.9445791275509245  0.8889527025168736  0.6248889119297802
  0.1112502293948010  0.8889523293926807  0.1251267477830912
  0.7779029772857960  0.3889342911251387  0.6257906306286399
  0.4446085893101935  0.8889709613217455  0.1250705520711112
  0.2778401519090309  0.3889295334399200  0.1237442943411701
  0.2779268248799062  0.5556359765415427  0.1248848796528027
  0.6113088940752649  0.3888865227740003  0.1205191456694297
  0.7779334824875145  0.8889823665984486  0.1249008205453428
  0.9445791275509245  0.3889597583673494  0.1251110880702427
  0.1112502293948010  0.5556312333354939  0.6248732522169137
  0.2779268248799062  0.0556241816716936  0.6251151203471685
  0.7778935653491258  0.5556134493412214  0.6265082351347167
  0.6112761331095101  0.0556266081749737  0.6250025389932459
  0.9445848973535688  0.0556238878646764  0.6249228685212205
  0.0577402294758000  0.1122903831457406  0.3750000000000000
  0.5548867561630316  0.6184929836224171  0.3750000000000000
  0.3873103414354801  0.1030493030882247  0.3750000000000000
  0.8889082978189087  0.6111208155761410  0.3750000000000000
  0.7240121340674122  0.1112892758688169  0.3750000000000000
  0.0555437358770883  0.7777720625223165  0.8750000000000000
  0.3888653878525614  0.7777734112589575  0.8750000000000000
  0.2222018554926609  0.2777675944129857  0.8750000000000000
  0.7222068195491944  0.7777724007259843  0.8750000000000000
  0.5555278613765453  0.2777494926612571  0.8750000000000000
  0.8888743040122107  0.2777714010317647  0.8750000000000000
  0.2207402712976501  0.7770368023155287  0.3750000000000000
  0.0577402294758000  0.2787831796633953  0.3750000000000000
  0.3863732060867466  0.2628365132301801  0.3750000000000000
  0.5560082380526490  0.7815288225582595  0.3750000000000000
  0.8896327790910457  0.7786366482222316  0.3750000000000000
  0.7237181882906082  0.2768255063482811  0.3750000000000000
  0.0555357579271573  0.9444326144536117  0.8750000000000000
  0.3888653878525614  0.9444253099269521  0.8750000000000000
  0.2221954333429816  0.4444404828082074  0.8750000000000000
  0.5555423481964270  0.4444378407648778  0.8750000000000000
  0.7222019001772368  0.9444354781201552  0.8750000000000000
  0.8888827377350883  0.4444410852096783  0.8750000000000000
  0.0556187494980882  0.4449116256581196  0.3750000000000000
  0.2207213582621950  0.9419152771184682  0.3750000000000000
  0.5562187459156976  0.9447760396244793  0.3750000000000000
  0.3863732060867424  0.4568700261899207  0.3750000000000000
  0.8906340071745976  0.9459253961142384  0.3750000000000000
  0.7245638416800255  0.4449582958096311  0.3750000000000000
  0.2221965068375558  0.6111053277865319  0.8750000000000000
  0.0555361327719638  0.1110995580977251  0.8750000000000000
  0.5555278613765453  0.6111117020486576  0.8750000000000000
  0.3888595067352340  0.1110787199061979  0.8750000000000000
  0.8888944688971716  0.6111139011152769  0.8750000000000000
  0.0546121174099327  0.6109145604454800  0.3750000000000000
  0.7222019001772368  0.1110997553904350  0.8750000000000000
  0.2217079351455591  0.1085612520198083  0.3750000000000000
  0.3873103414354801  0.6175943716805831  0.3750000000000000
  0.7245638416800255  0.6129388792037499  0.3750000000000000
  0.5560082380526490  0.1078127488277466  0.3750000000000000
  0.3888595067352340  0.6111141201624093  0.8750000000000000
  0.8911164443876460  0.1122248888605033  0.3750000000000000
  0.2222023379881850  0.7777678356607344  0.8750000000000000
  0.0555361327719638  0.2777699080075910  0.8750000000000000
  0.3888636447918345  0.2777454461899230  0.8750000000000000
  0.5555309109363786  0.7777743460784143  0.8750000000000000
  0.8888827377350883  0.7777749858587318  0.8750000000000000
  0.7222068195491944  0.2777677521565401  0.8750000000000000
  0.0546121174099327  0.7770308902977456  0.3750000000000000
  0.3879637938122784  0.7795059847740982  0.3750000000000000
  0.2256620094005523  0.2794976713669646  0.3750000000000000
  0.7237181882906082  0.7802260152756494  0.3750000000000000
  0.5548867561630316  0.2697271058739090  0.3750000000000000
  0.8906340071745976  0.2780419443937069  0.3750000000000000
  0.0555357579271573  0.4444364768068629  0.8750000000000000
  0.2221965068375558  0.9444245123843871  0.8750000000000000
  0.5555321312921256  0.9444327323127096  0.8750000000000000
  0.3888636447918345  0.4444515319352643  0.8750000000000000
  0.8888743040122107  0.9444362363138157  0.8750000000000000
  0.0556187494980882  0.9440404571733192  0.3750000000000000
  0.7222260626353143  0.4444472563776387  0.8750000000000000
  0.3879637938122784  0.9417911423715236  0.3750000000000000
  0.2217079351455591  0.4464800164590798  0.3750000000000000
  0.2207213582621947  0.6121394144770552  0.3750000000000000
  0.7240121340674122  0.9460561915319027  0.3750000000000000
  0.8896327790910457  0.4443294642021301  0.3750000000000000
  0.0555437358770883  0.6111050066880789  0.8750000000000000
  0.2221954333429816  0.1110882838681078  0.8750000000000000
  0.7222260626353143  0.6111121395909979  0.8750000000000000
  0.5555309109363786  0.1110898981913094  0.8750000000000000
  0.8888723700207618  0.1111028516770589  0.8750000000000000
  0.1115508855038237  0.0549981473060672  0.3750000000000000
  0.6176099309477142  0.5719751886992612  0.3750000000000000
  0.4445535922208829  0.0511433291573698  0.3750000000000000
  0.9442087467777145  0.5554065696899458  0.3750000000000000
  0.7801564461269871  0.0567448897301448  0.3750000000000000
  0.1110964525053520  0.7222148929193527  0.8750000000000000
  0.4444151609200383  0.7222048687815562  0.8750000000000000
  0.2777714897577372  0.2222184484131732  0.8750000000000000
  0.7777554483158093  0.7222016012678263  0.8750000000000000
  0.6110751413124891  0.2222141519888658  0.8750000000000000
  0.9444397473993154  0.2222188442927238  0.8750000000000000
  0.2768042964804877  0.7227614749156004  0.3750000000000000
  0.1143574768919792  0.2238454051126510  0.3750000000000000
  0.4427618113142122  0.2115732282526582  0.3750000000000000
  0.6125863470574515  0.7282702751865915  0.3750000000000000
  0.9442087467777145  0.7221355104210568  0.3750000000000000
  0.7798305665397587  0.2220605201929182  0.3750000000000000
  0.1110976744680062  0.8888865108117198  0.8750000000000000
  0.4444171735686472  0.8888752534510077  0.8750000000000000
  0.2777714897577372  0.3888863746778869  0.8750000000000000
  0.6110679796694162  0.3888888674107909  0.8750000000000000
  0.7777586418844744  0.8888756160885657  0.8750000000000000
  0.9444338321833908  0.3888822885049319  0.8750000000000000
  0.1115508855038237  0.3898860715310813  0.3750000000000000
  0.2768042964804877  0.8873761548982136  0.3750000000000000
  0.6128486793367766  0.8913926559631209  0.3750000000000000
  0.9452670696979305  0.8897304508855718  0.3750000000000000
  0.7796547760031610  0.3880390088817107  0.3750000000000000
  0.2777570353377019  0.5555412776828939  0.8750000000000000
  0.1111048963532543  0.0555564268835956  0.8750000000000000
  0.6110679796694162  0.5555124455919711  0.8750000000000000
  0.4444151609200383  0.0555436254718253  0.8750000000000000
  0.9444347209811593  0.5555516066595784  0.8750000000000000
  0.1102253596129378  0.5558102327570514  0.3750000000000000
  0.7777625669421168  0.0555479501377109  0.8750000000000000
  0.2765867030299143  0.0522009834505402  0.3750000000000000
  0.4427618113142122  0.5645219163949212  0.3750000000000000
  0.7786970460516143  0.5560151896924869  0.3750000000000000
  0.6128486793367766  0.0547893567069374  0.3750000000000000
  0.4444152510776524  0.5555364914623092  0.8750000000000000
  0.9468711241251915  0.0570967591405442  0.3750000000000000
  0.2777559926413056  0.7222081555300282  0.8750000000000000
  0.1111109015905269  0.2222221174619234  0.8750000000000000
  0.4444152510776524  0.2222120929486618  0.8750000000000000
  0.6110751413124891  0.7221943226569711  0.8750000000000000
  0.9444347209811593  0.7222164476548598  0.8750000000000000
  0.7777586418844744  0.2222163591292427  0.8750000000000000
  0.1100195657534927  0.7216764495434146  0.3750000000000000
  0.4445535922208829  0.7267435963967910  0.3750000000000000
  0.2784752462762918  0.2200117617160169  0.3750000000000000
  0.7796547760031610  0.7249491004547827  0.3750000000000000
  0.6125863470574515  0.2176494052042079  0.3750000000000000
  0.9468711241251915  0.2231076983179705  0.3750000000000000
  0.1111048963532543  0.3888818028030080  0.8750000000000000
  0.2777559926413056  0.8888811704445794  0.8750000000000000
  0.6110850926647556  0.8888734028511671  0.8750000000000000
  0.4444423124791655  0.3888878229062510  0.8750000000000000
  0.9444338321833908  0.8888848770118327  0.8750000000000000
  0.1102253596129378  0.8877484601892736  0.3750000000000000
  0.7777554483158093  0.3888871803813209  0.8750000000000000
  0.4447940134506633  0.8890636733919771  0.3750000000000000
  0.2784752462762918  0.3917968178936202  0.3750000000000000
  0.2765867030299143  0.5577190529127151  0.3750000000000000
  0.6176099309477142  0.3789680755817750  0.3750000000000000
  0.7798305665397587  0.8911033796801771  0.3750000000000000
  0.9452670696979305  0.3888699521457043  0.3750000000000000
  0.1110976744680062  0.5555444969896300  0.8750000000000000
  0.2777570353377019  0.0555490909881365  0.8750000000000000
  0.7777578201544125  0.5555455767438577  0.8750000000000000
  0.6110850926647556  0.0555450231469766  0.8750000000000000
  0.9444397473993154  0.0555542364399099  0.8750000000000000
  0.0557175851573218  0.1111974307856127  0.1250667947490709
  0.5557024385834074  0.6111573237601226  0.1224511012616068
  0.3890397507178178  0.1112196543187471  0.1244971887581848
  0.8889723050718019  0.6111528192025583  0.1244725300245810
  0.7223817158706782  0.1111747594737900  0.1249433684383535
  0.0557051999631378  0.7778623110401792  0.6249562720874331
  0.3890501213192256  0.7778525925605049  0.6249741822684109
  0.2223420670277263  0.2778377001805327  0.6257682955974914
  0.7223464459433245  0.7778736602379563  0.6257229313158027
  0.5557024385834074  0.2778784481566731  0.6275488987383971
  0.8890476843551556  0.2778379524511701  0.6249971482840669
  0.2223851259683891  0.7778592296508436  0.1250662775166881
  0.0557175851573218  0.2778534877050459  0.1250667947490709
  0.3889160568811101  0.2777981071292092  0.1221760904625770
  0.5556999495966936  0.7778626836436776  0.1246532422189777
  0.8890221293278919  0.7778619611188911  0.1247308763223672
  0.7223464459433245  0.2778061190386843  0.1242770686841806
  0.0557168438899695  0.9445398430815636  0.6248699824434806
  0.3890501213192256  0.9445308620920539  0.6249741822684109
  0.2223672338610515  0.4445033313384096  0.6252535619091465
  0.5556463305827782  0.4444898319580534  0.6282298506971906
  0.7223817158706782  0.9445402897302333  0.6250566315616338
  0.8890221293278919  0.4444935015423872  0.6252691236776339
  0.0557168438899695  0.4445103341417757  0.1251300175564873
  0.2223903773083586  0.9445496228780250  0.1250655357397506
  0.5557122026908562  0.9445227680120768  0.1250247162702833
  0.3889160568811101  0.4444512830852839  0.1221760904625770
  0.8890476843551556  0.9445430652373545  0.1250028517159363
  0.7222493516306142  0.4444415766482896  0.1225561170002941
  0.2223903773083586  0.6111740877636886  0.6249344642602733
  0.0557175851573218  0.1111974307856127  0.6249332052509284
  0.5557024385834074  0.6111573237601226  0.6275488987383971
  0.3890397507178178  0.1112196543187471  0.6255028112417806
  0.8889723050718019  0.6111528192025583  0.6255274699754382
  0.0557051999631378  0.6111762222561742  0.1250437279125851
  0.7223817158706782  0.1111747594737900  0.6250566315616338
  0.2223672338610515  0.1111972358559811  0.1247464380908786
  0.3890397507178178  0.6111534297323772  0.1244971887581851
  0.7222493516306142  0.6111411083157170  0.1225561170002936
  0.5556999495966936  0.1111705992863396  0.1246532422189777
  0.3890397507178178  0.6111534297323772  0.6255028112417806
  0.8890582412436264  0.1111957872884811  0.1250303970507768
  0.2223851259683894  0.7778592296508436  0.6249337224833219
  0.0557175851573218  0.2778534877050459  0.6249332052509284
  0.3889160568811101  0.2777981071292092  0.6278239095374327
  0.5556999495966936  0.7778626836436776  0.6253467577810334
  0.8890221293278919  0.7778619611188911  0.6252691236776339
  0.7223464459433245  0.2778061190386843  0.6257229313158027
  0.0557051999631378  0.7778623110401792  0.1250437279125851
  0.3890501213192256  0.7778525925605049  0.1250258177315677
  0.2223420670277263  0.2778377001805327  0.1242317044024909
  0.7223464459433245  0.7778736602379563  0.1242770686841806
  0.5557024385834074  0.2778784481566731  0.1224511012616068
  0.8890476843551556  0.2778379524511701  0.1250028517159363
  0.0557168438899695  0.4445103341417757  0.6248699824434806
  0.2223903773083586  0.9445496228780250  0.6249344642602733
  0.5557122026908562  0.9445227680120768  0.6249752837296995
  0.3889160568811101  0.4444512830852839  0.6278239095374327
  0.8890476843551556  0.9445430652373545  0.6249971482840669
  0.0557168438899695  0.9445398430815636  0.1251300175564873
  0.7222493516306142  0.4444415766482896  0.6274438829997062
  0.3890501213192256  0.9445308620920539  0.1250258177315677
  0.2223672338610515  0.4445033313384096  0.1247464380908786
  0.2223903773083586  0.6111740877636886  0.1250655357397506
  0.5556463305827782  0.4444898319580534  0.1217701493028092
  0.7223817158706782  0.9445402897302333  0.1249433684383535
  0.8890221293278919  0.4444935015423872  0.1247308763223672
  0.0557051999631378  0.6111762222561742  0.6249562720874331
  0.2223672338610515  0.1111972358559811  0.6252535619091465
  0.7222493516306142  0.6111411083157170  0.6274438829997062
  0.5556999495966936  0.1111705992863396  0.6253467577810334
  0.8890582412436264  0.1111957872884811  0.6249696029492315
 
  0.00000000E+00  0.00000000E+00  0.00000000E+00
  0.00000000E+00  0.00000000E+00  0.00000000E+00
  0.00000000E+00  0.00000000E+00  0.00000000E+00
  0.00000000E+00  0.00000000E+00  0.00000000E+00
  0.00000000E+00  0.00000000E+00  0.00000000E+00
  0.00000000E+00  0.00000000E+00  0.00000000E+00
  0.00000000E+00  0.00000000E+00  0.00000000E+00
  0.00000000E+00  0.00000000E+00  0.00000000E+00
  0.00000000E+00  0.00000000E+00  0.00000000E+00
  0.00000000E+00  0.00000000E+00  0.00000000E+00
  0.00000000E+00  0.00000000E+00  0.00000000E+00
  0.00000000E+00  0.00000000E+00  0.00000000E+00
  0.00000000E+00  0.00000000E+00  0.00000000E+00
  0.00000000E+00  0.00000000E+00  0.00000000E+00
  0.00000000E+00  0.00000000E+00  0.00000000E+00
  0.00000000E+00  0.00000000E+00  0.00000000E+00
  0.00000000E+00  0.00000000E+00  0.00000000E+00
  0.00000000E+00  0.00000000E+00  0.00000000E+00
  0.00000000E+00  0.00000000E+00  0.00000000E+00
  0.00000000E+00  0.00000000E+00  0.00000000E+00
  0.00000000E+00  0.00000000E+00  0.00000000E+00
  0.00000000E+00  0.00000000E+00  0.00000000E+00
  0.00000000E+00  0.00000000E+00  0.00000000E+00
  0.00000000E+00  0.00000000E+00  0.00000000E+00
  0.00000000E+00  0.00000000E+00  0.00000000E+00
  0.00000000E+00  0.00000000E+00  0.00000000E+00
  0.00000000E+00  0.00000000E+00  0.00000000E+00
  0.00000000E+00  0.00000000E+00  0.00000000E+00
  0.00000000E+00  0.00000000E+00  0.00000000E+00
  0.00000000E+00  0.00000000E+00  0.00000000E+00
  0.00000000E+00  0.00000000E+00  0.00000000E+00
  0.00000000E+00  0.00000000E+00  0.00000000E+00
  0.00000000E+00  0.00000000E+00  0.00000000E+00
  0.00000000E+00  0.00000000E+00  0.00000000E+00
  0.00000000E+00  0.00000000E+00  0.00000000E+00
  0.00000000E+00  0.00000000E+00  0.00000000E+00
  0.00000000E+00  0.00000000E+00  0.00000000E+00
  0.00000000E+00  0.00000000E+00  0.00000000E+00
  0.00000000E+00  0.00000000E+00  0.00000000E+00
  0.00000000E+00  0.00000000E+00  0.00000000E+00
  0.00000000E+00  0.00000000E+00  0.00000000E+00
  0.00000000E+00  0.00000000E+00  0.00000000E+00
  0.00000000E+00  0.00000000E+00  0.00000000E+00
  0.00000000E+00  0.00000000E+00  0.00000000E+00
  0.00000000E+00  0.00000000E+00  0.00000000E+00
  0.00000000E+00  0.00000000E+00  0.00000000E+00
  0.00000000E+00  0.00000000E+00  0.00000000E+00
  0.00000000E+00  0.00000000E+00  0.00000000E+00
  0.00000000E+00  0.00000000E+00  0.00000000E+00
  0.00000000E+00  0.00000000E+00  0.00000000E+00
  0.00000000E+00  0.00000000E+00  0.00000000E+00
  0.00000000E+00  0.00000000E+00  0.00000000E+00
  0.00000000E+00  0.00000000E+00  0.00000000E+00
  0.00000000E+00  0.00000000E+00  0.00000000E+00
  0.00000000E+00  0.00000000E+00  0.00000000E+00
  0.00000000E+00  0.00000000E+00  0.00000000E+00
  0.00000000E+00  0.00000000E+00  0.00000000E+00
  0.00000000E+00  0.00000000E+00  0.00000000E+00
  0.00000000E+00  0.00000000E+00  0.00000000E+00
  0.00000000E+00  0.00000000E+00  0.00000000E+00
  0.00000000E+00  0.00000000E+00  0.00000000E+00
  0.00000000E+00  0.00000000E+00  0.00000000E+00
  0.00000000E+00  0.00000000E+00  0.00000000E+00
  0.00000000E+00  0.00000000E+00  0.00000000E+00
  0.00000000E+00  0.00000000E+00  0.00000000E+00
  0.00000000E+00  0.00000000E+00  0.00000000E+00
  0.00000000E+00  0.00000000E+00  0.00000000E+00
  0.00000000E+00  0.00000000E+00  0.00000000E+00
  0.00000000E+00  0.00000000E+00  0.00000000E+00
  0.00000000E+00  0.00000000E+00  0.00000000E+00
  0.00000000E+00  0.00000000E+00  0.00000000E+00
  0.00000000E+00  0.00000000E+00  0.00000000E+00
  0.00000000E+00  0.00000000E+00  0.00000000E+00
  0.00000000E+00  0.00000000E+00  0.00000000E+00
  0.00000000E+00  0.00000000E+00  0.00000000E+00
  0.00000000E+00  0.00000000E+00  0.00000000E+00
  0.00000000E+00  0.00000000E+00  0.00000000E+00
  0.00000000E+00  0.00000000E+00  0.00000000E+00
  0.00000000E+00  0.00000000E+00  0.00000000E+00
  0.00000000E+00  0.00000000E+00  0.00000000E+00
  0.00000000E+00  0.00000000E+00  0.00000000E+00
  0.00000000E+00  0.00000000E+00  0.00000000E+00
  0.00000000E+00  0.00000000E+00  0.00000000E+00
  0.00000000E+00  0.00000000E+00  0.00000000E+00
  0.00000000E+00  0.00000000E+00  0.00000000E+00
  0.00000000E+00  0.00000000E+00  0.00000000E+00
  0.00000000E+00  0.00000000E+00  0.00000000E+00
  0.00000000E+00  0.00000000E+00  0.00000000E+00
  0.00000000E+00  0.00000000E+00  0.00000000E+00
  0.00000000E+00  0.00000000E+00  0.00000000E+00
  0.00000000E+00  0.00000000E+00  0.00000000E+00
  0.00000000E+00  0.00000000E+00  0.00000000E+00
  0.00000000E+00  0.00000000E+00  0.00000000E+00
  0.00000000E+00  0.00000000E+00  0.00000000E+00
  0.00000000E+00  0.00000000E+00  0.00000000E+00
  0.00000000E+00  0.00000000E+00  0.00000000E+00
  0.00000000E+00  0.00000000E+00  0.00000000E+00
  0.00000000E+00  0.00000000E+00  0.00000000E+00
  0.00000000E+00  0.00000000E+00  0.00000000E+00
  0.00000000E+00  0.00000000E+00  0.00000000E+00
  0.00000000E+00  0.00000000E+00  0.00000000E+00
  0.00000000E+00  0.00000000E+00  0.00000000E+00
  0.00000000E+00  0.00000000E+00  0.00000000E+00
  0.00000000E+00  0.00000000E+00  0.00000000E+00
  0.00000000E+00  0.00000000E+00  0.00000000E+00
  0.00000000E+00  0.00000000E+00  0.00000000E+00
  0.00000000E+00  0.00000000E+00  0.00000000E+00
  0.00000000E+00  0.00000000E+00  0.00000000E+00
  0.00000000E+00  0.00000000E+00  0.00000000E+00
  0.00000000E+00  0.00000000E+00  0.00000000E+00
  0.00000000E+00  0.00000000E+00  0.00000000E+00
  0.00000000E+00  0.00000000E+00  0.00000000E+00
  0.00000000E+00  0.00000000E+00  0.00000000E+00
  0.00000000E+00  0.00000000E+00  0.00000000E+00
  0.00000000E+00  0.00000000E+00  0.00000000E+00
  0.00000000E+00  0.00000000E+00  0.00000000E+00
  0.00000000E+00  0.00000000E+00  0.00000000E+00
  0.00000000E+00  0.00000000E+00  0.00000000E+00
  0.00000000E+00  0.00000000E+00  0.00000000E+00
  0.00000000E+00  0.00000000E+00  0.00000000E+00
  0.00000000E+00  0.00000000E+00  0.00000000E+00
  0.00000000E+00  0.00000000E+00  0.00000000E+00
  0.00000000E+00  0.00000000E+00  0.00000000E+00
  0.00000000E+00  0.00000000E+00  0.00000000E+00
  0.00000000E+00  0.00000000E+00  0.00000000E+00
  0.00000000E+00  0.00000000E+00  0.00000000E+00
  0.00000000E+00  0.00000000E+00  0.00000000E+00
  0.00000000E+00  0.00000000E+00  0.00000000E+00
  0.00000000E+00  0.00000000E+00  0.00000000E+00
  0.00000000E+00  0.00000000E+00  0.00000000E+00
  0.00000000E+00  0.00000000E+00  0.00000000E+00
  0.00000000E+00  0.00000000E+00  0.00000000E+00
  0.00000000E+00  0.00000000E+00  0.00000000E+00
  0.00000000E+00  0.00000000E+00  0.00000000E+00
  0.00000000E+00  0.00000000E+00  0.00000000E+00
  0.00000000E+00  0.00000000E+00  0.00000000E+00
  0.00000000E+00  0.00000000E+00  0.00000000E+00
  0.00000000E+00  0.00000000E+00  0.00000000E+00
  0.00000000E+00  0.00000000E+00  0.00000000E+00
  0.00000000E+00  0.00000000E+00  0.00000000E+00
  0.00000000E+00  0.00000000E+00  0.00000000E+00
  0.00000000E+00  0.00000000E+00  0.00000000E+00
  0.00000000E+00  0.00000000E+00  0.00000000E+00
  0.00000000E+00  0.00000000E+00  0.00000000E+00
  0.00000000E+00  0.00000000E+00  0.00000000E+00
  0.00000000E+00  0.00000000E+00  0.00000000E+00
  0.00000000E+00  0.00000000E+00  0.00000000E+00
  0.00000000E+00  0.00000000E+00  0.00000000E+00
  0.00000000E+00  0.00000000E+00  0.00000000E+00
  0.00000000E+00  0.00000000E+00  0.00000000E+00
  0.00000000E+00  0.00000000E+00  0.00000000E+00
  0.00000000E+00  0.00000000E+00  0.00000000E+00
  0.00000000E+00  0.00000000E+00  0.00000000E+00
  0.00000000E+00  0.00000000E+00  0.00000000E+00
  0.00000000E+00  0.00000000E+00  0.00000000E+00
  0.00000000E+00  0.00000000E+00  0.00000000E+00
  0.00000000E+00  0.00000000E+00  0.00000000E+00
  0.00000000E+00  0.00000000E+00  0.00000000E+00
  0.00000000E+00  0.00000000E+00  0.00000000E+00
  0.00000000E+00  0.00000000E+00  0.00000000E+00
  0.00000000E+00  0.00000000E+00  0.00000000E+00
  0.00000000E+00  0.00000000E+00  0.00000000E+00
  0.00000000E+00  0.00000000E+00  0.00000000E+00
  0.00000000E+00  0.00000000E+00  0.00000000E+00
  0.00000000E+00  0.00000000E+00  0.00000000E+00
  0.00000000E+00  0.00000000E+00  0.00000000E+00
  0.00000000E+00  0.00000000E+00  0.00000000E+00
  0.00000000E+00  0.00000000E+00  0.00000000E+00
  0.00000000E+00  0.00000000E+00  0.00000000E+00
  0.00000000E+00  0.00000000E+00  0.00000000E+00
  0.00000000E+00  0.00000000E+00  0.00000000E+00
  0.00000000E+00  0.00000000E+00  0.00000000E+00
  0.00000000E+00  0.00000000E+00  0.00000000E+00
  0.00000000E+00  0.00000000E+00  0.00000000E+00
  0.00000000E+00  0.00000000E+00  0.00000000E+00
  0.00000000E+00  0.00000000E+00  0.00000000E+00
  0.00000000E+00  0.00000000E+00  0.00000000E+00
  0.00000000E+00  0.00000000E+00  0.00000000E+00
  0.00000000E+00  0.00000000E+00  0.00000000E+00
  0.00000000E+00  0.00000000E+00  0.00000000E+00
  0.00000000E+00  0.00000000E+00  0.00000000E+00
  0.00000000E+00  0.00000000E+00  0.00000000E+00
  0.00000000E+00  0.00000000E+00  0.00000000E+00
  0.00000000E+00  0.00000000E+00  0.00000000E+00
  0.00000000E+00  0.00000000E+00  0.00000000E+00
  0.00000000E+00  0.00000000E+00  0.00000000E+00
  0.00000000E+00  0.00000000E+00  0.00000000E+00
  0.00000000E+00  0.00000000E+00  0.00000000E+00
  0.00000000E+00  0.00000000E+00  0.00000000E+00
  0.00000000E+00  0.00000000E+00  0.00000000E+00
  0.00000000E+00  0.00000000E+00  0.00000000E+00
  0.00000000E+00  0.00000000E+00  0.00000000E+00
  0.00000000E+00  0.00000000E+00  0.00000000E+00
  0.00000000E+00  0.00000000E+00  0.00000000E+00
  0.00000000E+00  0.00000000E+00  0.00000000E+00
  0.00000000E+00  0.00000000E+00  0.00000000E+00
  0.00000000E+00  0.00000000E+00  0.00000000E+00
  0.00000000E+00  0.00000000E+00  0.00000000E+00
  0.00000000E+00  0.00000000E+00  0.00000000E+00
  0.00000000E+00  0.00000000E+00  0.00000000E+00
  0.00000000E+00  0.00000000E+00  0.00000000E+00
  0.00000000E+00  0.00000000E+00  0.00000000E+00
  0.00000000E+00  0.00000000E+00  0.00000000E+00
  0.00000000E+00  0.00000000E+00  0.00000000E+00
  0.00000000E+00  0.00000000E+00  0.00000000E+00
  0.00000000E+00  0.00000000E+00  0.00000000E+00
  0.00000000E+00  0.00000000E+00  0.00000000E+00
  0.00000000E+00  0.00000000E+00  0.00000000E+00
  0.00000000E+00  0.00000000E+00  0.00000000E+00
  0.00000000E+00  0.00000000E+00  0.00000000E+00
  0.00000000E+00  0.00000000E+00  0.00000000E+00
  0.00000000E+00  0.00000000E+00  0.00000000E+00
  0.00000000E+00  0.00000000E+00  0.00000000E+00
  0.00000000E+00  0.00000000E+00  0.00000000E+00
  0.00000000E+00  0.00000000E+00  0.00000000E+00
  0.00000000E+00  0.00000000E+00  0.00000000E+00
  0.00000000E+00  0.00000000E+00  0.00000000E+00
  0.00000000E+00  0.00000000E+00  0.00000000E+00
  0.00000000E+00  0.00000000E+00  0.00000000E+00
  0.00000000E+00  0.00000000E+00  0.00000000E+00
  0.00000000E+00  0.00000000E+00  0.00000000E+00
  0.00000000E+00  0.00000000E+00  0.00000000E+00
  0.00000000E+00  0.00000000E+00  0.00000000E+00
  0.00000000E+00  0.00000000E+00  0.00000000E+00
  0.00000000E+00  0.00000000E+00  0.00000000E+00
  0.00000000E+00  0.00000000E+00  0.00000000E+00
  0.00000000E+00  0.00000000E+00  0.00000000E+00
  0.00000000E+00  0.00000000E+00  0.00000000E+00
  0.00000000E+00  0.00000000E+00  0.00000000E+00
  0.00000000E+00  0.00000000E+00  0.00000000E+00
  0.00000000E+00  0.00000000E+00  0.00000000E+00
  0.00000000E+00  0.00000000E+00  0.00000000E+00
  0.00000000E+00  0.00000000E+00  0.00000000E+00
  0.00000000E+00  0.00000000E+00  0.00000000E+00
  0.00000000E+00  0.00000000E+00  0.00000000E+00
  0.00000000E+00  0.00000000E+00  0.00000000E+00
  0.00000000E+00  0.00000000E+00  0.00000000E+00
  0.00000000E+00  0.00000000E+00  0.00000000E+00
  0.00000000E+00  0.00000000E+00  0.00000000E+00
  0.00000000E+00  0.00000000E+00  0.00000000E+00
  0.00000000E+00  0.00000000E+00  0.00000000E+00
  0.00000000E+00  0.00000000E+00  0.00000000E+00
  0.00000000E+00  0.00000000E+00  0.00000000E+00
  0.00000000E+00  0.00000000E+00  0.00000000E+00
  0.00000000E+00  0.00000000E+00  0.00000000E+00
  0.00000000E+00  0.00000000E+00  0.00000000E+00
  0.00000000E+00  0.00000000E+00  0.00000000E+00
  0.00000000E+00  0.00000000E+00  0.00000000E+00