Species order: X N B                    
   2.51242800000000     
     5.9449720136058266    0.0000000000000000    0.0000000000000000
    -2.9724860068029120    5.1484967885702053   -0.0000000000000001
     0.0000000000000000    0.0000000000000009    5.3101128803662583
   Sb   N    B 
     1   144   143
Direct
  0.4444444444444429  0.3888888888888857  0.3750000000000000
  0.1111476687106389  0.0555953934145002  0.1251051060638061
  0.6110552589910331  0.5554894595111488  0.1211009502354428
  0.4444477247038826  0.0555953934145002  0.1251051060638061
  0.9444291293670507  0.5555458178556029  0.1259488521845652
  0.7777777777777786  0.0555555555555571  0.1248182526578381
  0.1111111111111143  0.7222222222222214  0.6238854016288528
  0.4444477247038826  0.7221856646227111  0.6248948939362295
  0.2778438738221585  0.2222780743423453  0.6288990497644935
  0.7777379399187928  0.7221856646227111  0.6248948939362295
  0.6110891574487716  0.2222441758846284  0.6257906652571562
  0.9444539834882739  0.2222257877956704  0.6249450828985282
  0.2777875154776336  0.7222166448446701  0.1259488521845652
  0.1111550184359281  0.2222441758846284  0.1242093347428792
  0.4444342005201582  0.2222780743423453  0.1211009502354357
  0.6110891574487716  0.7221783148973790  0.1242093347428792
  0.9444291293670507  0.7222166448446701  0.1259488521845652
  0.7777718043073819  0.2222257877956704  0.1250549171015213
  0.1111166884886230  0.8889042039662779  0.6240511478154350
  0.4444500510608280  0.8888916921970534  0.6243140764580476
  0.2778438738221585  0.3888991328131704  0.6288990497644935
  0.6110552589910331  0.3888991328131704  0.6288990497644935
  0.7777718043073819  0.8888793498450547  0.6249450828985282
  0.9444416411362752  0.3888832822725006  0.6243140764580476
  0.1111476687106389  0.3888856086294460  0.1251051060638061
  0.2777875154776336  0.8889042039662779  0.1259488521845652
  0.6111075455377222  0.8888793498450547  0.1250549171015213
  0.4444444444444429  0.3888888888888857  0.1106433589243940
  0.9444416411362752  0.8888916921970534  0.1256859235419595
  0.7777379399187928  0.3888856086294460  0.1251051060638061
  0.2777955619762613  0.5555377713572379  0.6253230104787519
  0.1111476687106389  0.0555953934145002  0.6248948939362295
  0.6110552589910331  0.5554894595111488  0.6288990497644935
  0.4444477247038826  0.0555953934145002  0.6248948939362295
  0.9444291293670507  0.5555458178556029  0.6240511478154350
  0.1111166884886230  0.5555458178556029  0.1259488521845652
  0.7777777777777786  0.0555555555555571  0.6251817473421121
  0.2777955619762613  0.0555911239524515  0.1246769895212979
  0.4444342005201582  0.5554894595111488  0.1211009502354357
  0.7777422093808203  0.5555377713572379  0.1246769895212979
  0.6111075455377222  0.0555615290259183  0.1250549171015213
  0.4444342005201582  0.5554894595111488  0.6288990497644935
  0.9444539834882739  0.0555615290259183  0.1250549171015213
  0.2777875154776336  0.7222166448446701  0.6240511478154350
  0.1111550184359281  0.2222441758846284  0.6257906652571562
  0.4444342005201582  0.2222780743423453  0.6288990497644935
  0.6110891574487716  0.7221783148973790  0.6257906652571562
  0.9444291293670507  0.7222166448446701  0.6240511478154350
  0.7777718043073819  0.2222257877956704  0.6249450828985282
  0.1111111111111143  0.7222222222222214  0.1261145983711263
  0.4444477247038826  0.7221856646227111  0.1251051060638061
  0.2778438738221585  0.2222780743423453  0.1211009502354357
  0.7777379399187928  0.7221856646227111  0.1251051060638061
  0.6110891574487716  0.2222441758846284  0.1242093347428792
  0.9444539834882739  0.2222257877956704  0.1250549171015213
  0.1111476687106389  0.3888856086294460  0.6248948939362295
  0.2777875154776336  0.8889042039662779  0.6240511478154350
  0.6111075455377222  0.8888793498450547  0.6249450828985282
  0.4444444444444429  0.3888888888888857  0.6393566410755916
  0.9444416411362752  0.8888916921970534  0.6243140764580476
  0.1111166884886230  0.8889042039662779  0.1259488521845652
  0.7777379399187928  0.3888856086294460  0.6248948939362295
  0.4444500510608280  0.8888916921970534  0.1256859235419524
  0.2778438738221585  0.3888991328131704  0.1211009502354499
  0.2777955619762613  0.5555377713572379  0.1246769895212979
  0.6110552589910331  0.3888991328131704  0.1211009502354357
  0.7777718043073819  0.8888793498450547  0.1250549171015213
  0.9444416411362752  0.3888832822725006  0.1256859235419595
  0.1111166884886230  0.5555458178556029  0.6240511478154350
  0.2777955619762613  0.0555911239524515  0.6253230104787519
  0.7777422093808203  0.5555377713572379  0.6253230104787519
  0.6111075455377222  0.0555615290259183  0.6249450828985282
  0.9444539834882739  0.0555615290259183  0.6249450828985282
  0.0541347109306242  0.1102127604968001  0.3750000000000000
  0.5560443473170515  0.6120886946341030  0.3750000000000000
  0.3870971551734443  0.1017621490733710  0.3750000000000000
  0.8922034400067478  0.6127683866700667  0.3750000000000000
  0.7224895583278927  0.1108437750053931  0.3750000000000000
  0.0555576063332524  0.7777757270001613  0.8750000000000000
  0.3888820235216918  0.7777812678407408  0.8750000000000000
  0.2222124856262440  0.2777729094797792  0.8750000000000000
  0.7222291445228706  0.7777788895522941  0.8750000000000000
  0.5555604238535707  0.2777729094797792  0.8750000000000000
  0.8888922565072400  0.2777845130144231  0.8750000000000000
  0.2215938012544045  0.7774635672938985  0.3750000000000000
  0.0541347109306242  0.2772552837671884  0.3750000000000000
  0.3727051417264526  0.2454102834529265  0.3750000000000000
  0.5560780495661116  0.7791986224027467  0.3750000000000000
  0.8914798385989590  0.7798685110691046  0.3750000000000000
  0.7231205728365216  0.2772552837671884  0.3750000000000000
  0.0555520654926095  0.9444340890143296  0.8750000000000000
  0.3888820235216918  0.9444340890143296  0.8750000000000000
  0.2222062690564563  0.4444573707755902  0.8750000000000000
  0.5556155369674542  0.4444744351503950  0.8750000000000000
  0.7222209525758140  0.9444419051516713  0.8750000000000000
  0.8888992443189990  0.4444513098116368  0.8750000000000000
  0.0534648222642172  0.4449446608631336  0.3750000000000000
  0.2205649466632834  0.9411298933265808  0.3750000000000000
  0.5560089922778368  0.9446711628056006  0.3750000000000000
  0.3727051417264526  0.4606281916068760  0.3750000000000000
  0.8886621705277280  0.9446711628056006  0.3750000000000000
  0.7315711842599008  0.4462361781598843  0.3750000000000000
  0.2222130436032267  0.6111202897300808  0.8750000000000000
  0.0555544437810274  0.1111041888103798  0.8750000000000000
  0.5555604238535707  0.6111208477071129  0.8750000000000000
  0.3888759625577384  0.1110822316141735  0.8750000000000000
  0.8889072461268036  0.6111202897300808  0.8750000000000000
  0.0558697660394585  0.6117395320789595  0.3750000000000000
  0.7222209525758140  0.1111123807575074  0.8750000000000000
  0.2146649938999268  0.1017621490733710  0.3750000000000000
  0.3870971551734443  0.6186683394334014  0.3750000000000000
  0.7315711842599008  0.6186683394334014  0.3750000000000000
  0.5560780495661116  0.1102127604968001  0.3750000000000000
  0.3888759625577384  0.6111270642768933  0.8750000000000000
  0.8883542166774078  0.1108437750053931  0.3750000000000000
  0.2222181206668308  0.7777757270001613  0.8750000000000000
  0.0555544437810274  0.2777835883039761  0.8750000000000000
  0.3888588981829336  0.2777177963659241  0.8750000000000000
  0.5555497450293808  0.7777788895522941  0.8750000000000000
  0.8888992443189990  0.7777812678407408  0.8750000000000000
  0.7222291445228706  0.2777835883039761  0.8750000000000000
  0.0558697660394585  0.7774635672938985  0.3750000000000000
  0.3883886724701950  0.7798685110691046  0.3750000000000000
  0.2212446386992254  0.2772889860162842  0.3750000000000000
  0.7231205728365216  0.7791986224027467  0.3750000000000000
  0.5560443473170515  0.2772889860162842  0.3750000000000000
  0.8886621705277280  0.2773243410554847  0.3750000000000000
  0.0555520654926095  0.4444513098116368  0.8750000000000000
  0.2222130436032267  0.9444260872065250  0.8750000000000000
  0.5555488203189624  0.9444410768260886  0.8750000000000000
  0.3888588981829336  0.4444744351503950  0.8750000000000000
  0.8888922565072400  0.9444410768260886  0.8750000000000000
  0.0534648222642172  0.9418534947343696  0.3750000000000000
  0.7222511017192120  0.4444573707755902  0.8750000000000000
  0.3883886724701950  0.9418534947343696  0.3750000000000000
  0.2146649938999268  0.4462361781598843  0.3750000000000000
  0.2205649466632834  0.6127683866700667  0.3750000000000000
  0.5879230498804233  0.4606281916068760  0.3750000000000000
  0.7224895583278927  0.9449791166559208  0.3750000000000000
  0.8914798385989590  0.4449446608631336  0.3750000000000000
  0.0555576063332524  0.6111152126665190  0.8750000000000000
  0.2222062690564563  0.1110822316141735  0.8750000000000000
  0.7222511017192120  0.6111270642768933  0.8750000000000000
  0.5555497450293808  0.1111041888103798  0.8750000000000000
  0.8888914281816573  0.1111123807575074  0.8750000000000000
  0.1060627796407800  0.0509363140422919  0.3750000000000000
  0.6231820933127233  0.5660398886416780  0.3750000000000000
  0.4448735344015260  0.0509363140422919  0.3750000000000000
  0.9459328715556543  0.5559646658644947  0.3750000000000000
  0.7777777777777786  0.0555555555555571  0.3750000000000000
  0.1111111111111143  0.7222222222222214  0.8750000000000000
  0.4444351797076184  0.7222150496540884  0.8750000000000000
  0.2778022484272878  0.2222278375717654  0.8750000000000000
  0.7777798699464844  0.7222150496540884  0.8750000000000000
  0.6111009967987436  0.2222323365346204  0.8750000000000000
  0.9444523155774168  0.2222291781919969  0.8750000000000000
  0.2773686674689335  0.7233015390246300  0.3750000000000000
  0.1095183040000432  0.2214258186666966  0.3750000000000000
  0.4428577953289617  0.2101512400206122  0.3750000000000000
  0.6119075146666534  0.7238150293333067  0.3750000000000000
  0.9459328715556472  0.7233015390246300  0.3750000000000000
  0.7779509043747170  0.2215000631366803  0.3750000000000000
  0.1111104845949128  0.8888848988576573  0.8750000000000000
  0.4444387501443085  0.8888860417388041  0.8750000000000000
  0.2778022484272878  0.3889077441888937  0.8750000000000000
  0.6111054957615065  0.3889077441888937  0.8750000000000000
  0.7777768626145943  0.8888810177559118  0.8750000000000000
  0.9444472915945245  0.3888945831890201  0.8750000000000000
  0.1060627796407800  0.3884597989318025  0.3750000000000000
  0.2773686674689335  0.8874004617776743  0.3750000000000000
  0.6118332701965984  0.8897841745713936  0.3750000000000000
  0.9441666484275426  0.8891666849057860  0.3750000000000000
  0.7823970192910720  0.3884597989318025  0.3750000000000000
  0.2777747979416587  0.5555585353916200  0.8750000000000000
  0.1111182836792260  0.0555534633868586  0.8750000000000000
  0.6111054957615065  0.5555310849061257  0.8750000000000000
  0.4444351797076184  0.0555534633868586  0.8750000000000000
  0.9444484344756713  0.5555589190705769  0.8750000000000000
  0.1100317943087337  0.5559646658644947  0.3750000000000000
  0.7777777777777786  0.0555555555555571  0.8750000000000000
  0.2752249692540380  0.0504499385079834  0.3750000000000000
  0.4428577953289617  0.5660398886416780  0.3750000000000000
  0.7828833948252668  0.5581083640793620  0.3750000000000000
  0.6118332701965984  0.0553824289586545  0.3750000000000000
  0.4444255891444349  0.5555310849061257  0.8750000000000000
  0.9435491587619350  0.0553824289586545  0.3750000000000000
  0.2777744142627944  0.7222228487384301  0.8750000000000000
  0.1111313397359123  0.2222323365346204  0.8750000000000000
  0.4444255891444349  0.2222278375717654  0.8750000000000000
  0.6111009967987436  0.7222019935974376  0.8750000000000000
  0.9444484344756713  0.7222228487384301  0.8750000000000000
  0.7777768626145943  0.2222291781920041  0.8750000000000000
  0.1111111111111143  0.7222222222222214  0.3750000000000000
  0.4448735344015260  0.7272705536925768  0.3750000000000000
  0.2672934446916648  0.2101512400206122  0.3750000000000000
  0.7823970192910720  0.7272705536925768  0.3750000000000000
  0.6119075146666534  0.2214258186666966  0.3750000000000000
  0.9435491587619350  0.2215000631366803  0.3750000000000000
  0.1111182836792260  0.3888981536257102  0.8750000000000000
  0.2777744142627944  0.8888848988576573  0.8750000000000000
  0.6111041551413743  0.8888810177559118  0.8750000000000000
  0.4444444444444429  0.3888888888888857  0.8750000000000000
  0.9444472915945245  0.8888860417388041  0.8750000000000000
  0.1100317943087337  0.8874004617776814  0.3750000000000000
  0.7777798699464844  0.3888981536257102  0.8750000000000000
  0.4450000364782644  0.8891666849057860  0.3750000000000000
  0.2672934446916648  0.3904755380043669  0.3750000000000000
  0.2752249692540380  0.5581083640793620  0.3750000000000000
  0.6231820933127233  0.3904755380043669  0.3750000000000000
  0.7779509043747170  0.8897841745713936  0.3750000000000000
  0.9441666484275426  0.3883332968550642  0.3750000000000000
  0.1111104845949128  0.5555589190705769  0.8750000000000000
  0.2777747979416587  0.0555495958833172  0.8750000000000000
  0.7777837374500113  0.5555585353916200  0.8750000000000000
  0.6111041551413743  0.0555564707187625  0.8750000000000000
  0.9444523155774168  0.0555564707187625  0.8750000000000000
  0.0555806087021900  0.1111393208838419  0.1247667687823912
  0.5555121015451457  0.6110242030902563  0.1219004308547595
  0.3889138012993968  0.1112200677022766  0.1237511244264514
  0.8888458576349648  0.6110895954842177  0.1256073177165249
  0.7222191299108612  0.1111142034224316  0.1249005659321566
  0.0555479165304422  0.7777854168028649  0.6239697075909969
  0.3889051175077140  0.7777645722189572  0.6243639654642369
  0.2223091302430013  0.2778212317882040  0.6280995691452829
  0.7221940124494443  0.7777527246311386  0.6252332312175661
  0.5555121015451457  0.2778212317882040  0.6280995691452829
  0.8888848978501462  0.2777697957001997  0.6247558346954420
  0.2222375002724372  0.7777854168028649  0.1260302924090101
  0.0555806087021900  0.2777746211516553  0.1247667687823912
  0.3890069238459923  0.2780138476920347  0.1175314478794396
  0.5555587121816589  0.7777527246311386  0.1247667687823912
  0.8888594547112786  0.7777645722189572  0.1256360345357279
  0.7221940124494443  0.2777746211516553  0.1247667687823912
  0.0555687611143431  0.9444738786220500  0.6243639654642369
  0.3889051175077140  0.9444738786220500  0.6243639654642369
  0.2223062664028656  0.4444195320339318  0.6262488755734988
  0.5553194856413368  0.4443264094873363  0.6324685521205389
  0.7222191299108612  0.9444382598217018  0.6250994340678008
  0.8888594547112786  0.4444282158256146  0.6243639654642369
  0.0555687611143431  0.4444282158256146  0.1256360345357279
  0.2222437378491748  0.9444874756983638  0.1256073177165249
  0.5555635376332213  0.9444484354831824  0.1252441653046291
  0.3890069238459923  0.4443264094873363  0.1175314478794396
  0.8888848978501462  0.9444484354831824  0.1252441653046291
  0.7221132656310092  0.4444195320339318  0.1237511244264514
  0.2222437378491748  0.6110895954842177  0.6243926822834324
  0.0555806087021900  0.1111393208838419  0.6252332312175661
  0.5555121015451457  0.6110242030902563  0.6280995691452829
  0.3889138012993968  0.1112200677022766  0.6262488755734988
  0.8888458576349648  0.6110895954842177  0.6243926822834324
  0.0555479165304422  0.6110958330608133  0.1260302924090101
  0.7222191299108612  0.1111142034224316  0.6250994340678008
  0.2223062664028656  0.1112200677022766  0.1237511244264514
  0.3889138012993968  0.6110270669304486  0.1237511244264514
  0.7221132656310092  0.6110270669304486  0.1237511244264514
  0.5555587121816589  0.1111393208838419  0.1247667687823912
  0.3889138012993968  0.6110270669304486  0.6262488755734988
  0.8888950735116268  0.1111142034224316  0.1249005659321566
  0.2222375002724443  0.7777854168028649  0.6239697075909969
  0.0555806087021900  0.2777746211516553  0.6252332312175661
  0.3890069238459923  0.2780138476920347  0.6324685521205389
  0.5555587121816589  0.7777527246311386  0.6252332312175661
  0.8888594547112786  0.7777645722189572  0.6243639654642369
  0.7221940124494443  0.2777746211516553  0.6252332312175661
  0.0555479165304422  0.7777854168028649  0.1260302924090101
  0.3889051175077140  0.7777645722189572  0.1256360345357279
  0.2223091302430013  0.2778212317882040  0.1219004308547595
  0.7221940124494443  0.7777527246311386  0.1247667687823912
  0.5555121015451457  0.2778212317882040  0.1219004308547595
  0.8888848978501462  0.2777697957001997  0.1252441653046291
  0.0555687611143431  0.4444282158256146  0.6243639654642369
  0.2222437378491748  0.9444874756983638  0.6243926822834324
  0.5555635376332213  0.9444484354831824  0.6247558346954420
  0.3890069238459923  0.4443264094873363  0.6324685521205389
  0.8888848978501462  0.9444484354831824  0.6247558346954420
  0.0555687611143431  0.9444738786220500  0.1256360345357279
  0.7221132656310092  0.4444195320339318  0.6262488755734988
  0.3889051175077140  0.9444738786220500  0.1256360345357279
  0.2223062664028656  0.4444195320339318  0.1237511244264514
  0.2222437378491748  0.6110895954842177  0.1256073177165249
  0.5553194856413368  0.4443264094873363  0.1175314478794396
  0.7222191299108612  0.9444382598217018  0.1249005659321566
  0.8888594547112786  0.4444282158256146  0.1256360345357279
  0.0555479165304422  0.6110958330608133  0.6239697075909969
  0.2223062664028656  0.1112200677022766  0.6262488755734988
  0.7221132656310092  0.6110270669304486  0.6262488755734988
  0.5555587121816589  0.1111393208838419  0.6252332312175661
  0.8888950735116268  0.1111142034224316  0.6250994340678008
 
  0.00000000E+00  0.00000000E+00  0.00000000E+00
  0.00000000E+00  0.00000000E+00  0.00000000E+00
  0.00000000E+00  0.00000000E+00  0.00000000E+00
  0.00000000E+00  0.00000000E+00  0.00000000E+00
  0.00000000E+00  0.00000000E+00  0.00000000E+00
  0.00000000E+00  0.00000000E+00  0.00000000E+00
  0.00000000E+00  0.00000000E+00  0.00000000E+00
  0.00000000E+00  0.00000000E+00  0.00000000E+00
  0.00000000E+00  0.00000000E+00  0.00000000E+00
  0.00000000E+00  0.00000000E+00  0.00000000E+00
  0.00000000E+00  0.00000000E+00  0.00000000E+00
  0.00000000E+00  0.00000000E+00  0.00000000E+00
  0.00000000E+00  0.00000000E+00  0.00000000E+00
  0.00000000E+00  0.00000000E+00  0.00000000E+00
  0.00000000E+00  0.00000000E+00  0.00000000E+00
  0.00000000E+00  0.00000000E+00  0.00000000E+00
  0.00000000E+00  0.00000000E+00  0.00000000E+00
  0.00000000E+00  0.00000000E+00  0.00000000E+00
  0.00000000E+00  0.00000000E+00  0.00000000E+00
  0.00000000E+00  0.00000000E+00  0.00000000E+00
  0.00000000E+00  0.00000000E+00  0.00000000E+00
  0.00000000E+00  0.00000000E+00  0.00000000E+00
  0.00000000E+00  0.00000000E+00  0.00000000E+00
  0.00000000E+00  0.00000000E+00  0.00000000E+00
  0.00000000E+00  0.00000000E+00  0.00000000E+00
  0.00000000E+00  0.00000000E+00  0.00000000E+00
  0.00000000E+00  0.00000000E+00  0.00000000E+00
  0.00000000E+00  0.00000000E+00  0.00000000E+00
  0.00000000E+00  0.00000000E+00  0.00000000E+00
  0.00000000E+00  0.00000000E+00  0.00000000E+00
  0.00000000E+00  0.00000000E+00  0.00000000E+00
  0.00000000E+00  0.00000000E+00  0.00000000E+00
  0.00000000E+00  0.00000000E+00  0.00000000E+00
  0.00000000E+00  0.00000000E+00  0.00000000E+00
  0.00000000E+00  0.00000000E+00  0.00000000E+00
  0.00000000E+00  0.00000000E+00  0.00000000E+00
  0.00000000E+00  0.00000000E+00  0.00000000E+00
  0.00000000E+00  0.00000000E+00  0.00000000E+00
  0.00000000E+00  0.00000000E+00  0.00000000E+00
  0.00000000E+00  0.00000000E+00  0.00000000E+00
  0.00000000E+00  0.00000000E+00  0.00000000E+00
  0.00000000E+00  0.00000000E+00  0.00000000E+00
  0.00000000E+00  0.00000000E+00  0.00000000E+00
  0.00000000E+00  0.00000000E+00  0.00000000E+00
  0.00000000E+00  0.00000000E+00  0.00000000E+00
  0.00000000E+00  0.00000000E+00  0.00000000E+00
  0.00000000E+00  0.00000000E+00  0.00000000E+00
  0.00000000E+00  0.00000000E+00  0.00000000E+00
  0.00000000E+00  0.00000000E+00  0.00000000E+00
  0.00000000E+00  0.00000000E+00  0.00000000E+00
  0.00000000E+00  0.00000000E+00  0.00000000E+00
  0.00000000E+00  0.00000000E+00  0.00000000E+00
  0.00000000E+00  0.00000000E+00  0.00000000E+00
  0.00000000E+00  0.00000000E+00  0.00000000E+00
  0.00000000E+00  0.00000000E+00  0.00000000E+00
  0.00000000E+00  0.00000000E+00  0.00000000E+00
  0.00000000E+00  0.00000000E+00  0.00000000E+00
  0.00000000E+00  0.00000000E+00  0.00000000E+00
  0.00000000E+00  0.00000000E+00  0.00000000E+00
  0.00000000E+00  0.00000000E+00  0.00000000E+00
  0.00000000E+00  0.00000000E+00  0.00000000E+00
  0.00000000E+00  0.00000000E+00  0.00000000E+00
  0.00000000E+00  0.00000000E+00  0.00000000E+00
  0.00000000E+00  0.00000000E+00  0.00000000E+00
  0.00000000E+00  0.00000000E+00  0.00000000E+00
  0.00000000E+00  0.00000000E+00  0.00000000E+00
  0.00000000E+00  0.00000000E+00  0.00000000E+00
  0.00000000E+00  0.00000000E+00  0.00000000E+00
  0.00000000E+00  0.00000000E+00  0.00000000E+00
  0.00000000E+00  0.00000000E+00  0.00000000E+00
  0.00000000E+00  0.00000000E+00  0.00000000E+00
  0.00000000E+00  0.00000000E+00  0.00000000E+00
  0.00000000E+00  0.00000000E+00  0.00000000E+00
  0.00000000E+00  0.00000000E+00  0.00000000E+00
  0.00000000E+00  0.00000000E+00  0.00000000E+00
  0.00000000E+00  0.00000000E+00  0.00000000E+00
  0.00000000E+00  0.00000000E+00  0.00000000E+00
  0.00000000E+00  0.00000000E+00  0.00000000E+00
  0.00000000E+00  0.00000000E+00  0.00000000E+00
  0.00000000E+00  0.00000000E+00  0.00000000E+00
  0.00000000E+00  0.00000000E+00  0.00000000E+00
  0.00000000E+00  0.00000000E+00  0.00000000E+00
  0.00000000E+00  0.00000000E+00  0.00000000E+00
  0.00000000E+00  0.00000000E+00  0.00000000E+00
  0.00000000E+00  0.00000000E+00  0.00000000E+00
  0.00000000E+00  0.00000000E+00  0.00000000E+00
  0.00000000E+00  0.00000000E+00  0.00000000E+00
  0.00000000E+00  0.00000000E+00  0.00000000E+00
  0.00000000E+00  0.00000000E+00  0.00000000E+00
  0.00000000E+00  0.00000000E+00  0.00000000E+00
  0.00000000E+00  0.00000000E+00  0.00000000E+00
  0.00000000E+00  0.00000000E+00  0.00000000E+00
  0.00000000E+00  0.00000000E+00  0.00000000E+00
  0.00000000E+00  0.00000000E+00  0.00000000E+00
  0.00000000E+00  0.00000000E+00  0.00000000E+00
  0.00000000E+00  0.00000000E+00  0.00000000E+00
  0.00000000E+00  0.00000000E+00  0.00000000E+00
  0.00000000E+00  0.00000000E+00  0.00000000E+00
  0.00000000E+00  0.00000000E+00  0.00000000E+00
  0.00000000E+00  0.00000000E+00  0.00000000E+00
  0.00000000E+00  0.00000000E+00  0.00000000E+00
  0.00000000E+00  0.00000000E+00  0.00000000E+00
  0.00000000E+00  0.00000000E+00  0.00000000E+00
  0.00000000E+00  0.00000000E+00  0.00000000E+00
  0.00000000E+00  0.00000000E+00  0.00000000E+00
  0.00000000E+00  0.00000000E+00  0.00000000E+00
  0.00000000E+00  0.00000000E+00  0.00000000E+00
  0.00000000E+00  0.00000000E+00  0.00000000E+00
  0.00000000E+00  0.00000000E+00  0.00000000E+00
  0.00000000E+00  0.00000000E+00  0.00000000E+00
  0.00000000E+00  0.00000000E+00  0.00000000E+00
  0.00000000E+00  0.00000000E+00  0.00000000E+00
  0.00000000E+00  0.00000000E+00  0.00000000E+00
  0.00000000E+00  0.00000000E+00  0.00000000E+00
  0.00000000E+00  0.00000000E+00  0.00000000E+00
  0.00000000E+00  0.00000000E+00  0.00000000E+00
  0.00000000E+00  0.00000000E+00  0.00000000E+00
  0.00000000E+00  0.00000000E+00  0.00000000E+00
  0.00000000E+00  0.00000000E+00  0.00000000E+00
  0.00000000E+00  0.00000000E+00  0.00000000E+00
  0.00000000E+00  0.00000000E+00  0.00000000E+00
  0.00000000E+00  0.00000000E+00  0.00000000E+00
  0.00000000E+00  0.00000000E+00  0.00000000E+00
  0.00000000E+00  0.00000000E+00  0.00000000E+00
  0.00000000E+00  0.00000000E+00  0.00000000E+00
  0.00000000E+00  0.00000000E+00  0.00000000E+00
  0.00000000E+00  0.00000000E+00  0.00000000E+00
  0.00000000E+00  0.00000000E+00  0.00000000E+00
  0.00000000E+00  0.00000000E+00  0.00000000E+00
  0.00000000E+00  0.00000000E+00  0.00000000E+00
  0.00000000E+00  0.00000000E+00  0.00000000E+00
  0.00000000E+00  0.00000000E+00  0.00000000E+00
  0.00000000E+00  0.00000000E+00  0.00000000E+00
  0.00000000E+00  0.00000000E+00  0.00000000E+00
  0.00000000E+00  0.00000000E+00  0.00000000E+00
  0.00000000E+00  0.00000000E+00  0.00000000E+00
  0.00000000E+00  0.00000000E+00  0.00000000E+00
  0.00000000E+00  0.00000000E+00  0.00000000E+00
  0.00000000E+00  0.00000000E+00  0.00000000E+00
  0.00000000E+00  0.00000000E+00  0.00000000E+00
  0.00000000E+00  0.00000000E+00  0.00000000E+00
  0.00000000E+00  0.00000000E+00  0.00000000E+00
  0.00000000E+00  0.00000000E+00  0.00000000E+00
  0.00000000E+00  0.00000000E+00  0.00000000E+00
  0.00000000E+00  0.00000000E+00  0.00000000E+00
  0.00000000E+00  0.00000000E+00  0.00000000E+00
  0.00000000E+00  0.00000000E+00  0.00000000E+00
  0.00000000E+00  0.00000000E+00  0.00000000E+00
  0.00000000E+00  0.00000000E+00  0.00000000E+00
  0.00000000E+00  0.00000000E+00  0.00000000E+00
  0.00000000E+00  0.00000000E+00  0.00000000E+00
  0.00000000E+00  0.00000000E+00  0.00000000E+00
  0.00000000E+00  0.00000000E+00  0.00000000E+00
  0.00000000E+00  0.00000000E+00  0.00000000E+00
  0.00000000E+00  0.00000000E+00  0.00000000E+00
  0.00000000E+00  0.00000000E+00  0.00000000E+00
  0.00000000E+00  0.00000000E+00  0.00000000E+00
  0.00000000E+00  0.00000000E+00  0.00000000E+00
  0.00000000E+00  0.00000000E+00  0.00000000E+00
  0.00000000E+00  0.00000000E+00  0.00000000E+00
  0.00000000E+00  0.00000000E+00  0.00000000E+00
  0.00000000E+00  0.00000000E+00  0.00000000E+00
  0.00000000E+00  0.00000000E+00  0.00000000E+00
  0.00000000E+00  0.00000000E+00  0.00000000E+00
  0.00000000E+00  0.00000000E+00  0.00000000E+00
  0.00000000E+00  0.00000000E+00  0.00000000E+00
  0.00000000E+00  0.00000000E+00  0.00000000E+00
  0.00000000E+00  0.00000000E+00  0.00000000E+00
  0.00000000E+00  0.00000000E+00  0.00000000E+00
  0.00000000E+00  0.00000000E+00  0.00000000E+00
  0.00000000E+00  0.00000000E+00  0.00000000E+00
  0.00000000E+00  0.00000000E+00  0.00000000E+00
  0.00000000E+00  0.00000000E+00  0.00000000E+00
  0.00000000E+00  0.00000000E+00  0.00000000E+00
  0.00000000E+00  0.00000000E+00  0.00000000E+00
  0.00000000E+00  0.00000000E+00  0.00000000E+00
  0.00000000E+00  0.00000000E+00  0.00000000E+00
  0.00000000E+00  0.00000000E+00  0.00000000E+00
  0.00000000E+00  0.00000000E+00  0.00000000E+00
  0.00000000E+00  0.00000000E+00  0.00000000E+00
  0.00000000E+00  0.00000000E+00  0.00000000E+00
  0.00000000E+00  0.00000000E+00  0.00000000E+00
  0.00000000E+00  0.00000000E+00  0.00000000E+00
  0.00000000E+00  0.00000000E+00  0.00000000E+00
  0.00000000E+00  0.00000000E+00  0.00000000E+00
  0.00000000E+00  0.00000000E+00  0.00000000E+00
  0.00000000E+00  0.00000000E+00  0.00000000E+00
  0.00000000E+00  0.00000000E+00  0.00000000E+00
  0.00000000E+00  0.00000000E+00  0.00000000E+00
  0.00000000E+00  0.00000000E+00  0.00000000E+00
  0.00000000E+00  0.00000000E+00  0.00000000E+00
  0.00000000E+00  0.00000000E+00  0.00000000E+00
  0.00000000E+00  0.00000000E+00  0.00000000E+00
  0.00000000E+00  0.00000000E+00  0.00000000E+00
  0.00000000E+00  0.00000000E+00  0.00000000E+00
  0.00000000E+00  0.00000000E+00  0.00000000E+00
  0.00000000E+00  0.00000000E+00  0.00000000E+00
  0.00000000E+00  0.00000000E+00  0.00000000E+00
  0.00000000E+00  0.00000000E+00  0.00000000E+00
  0.00000000E+00  0.00000000E+00  0.00000000E+00
  0.00000000E+00  0.00000000E+00  0.00000000E+00
  0.00000000E+00  0.00000000E+00  0.00000000E+00
  0.00000000E+00  0.00000000E+00  0.00000000E+00
  0.00000000E+00  0.00000000E+00  0.00000000E+00
  0.00000000E+00  0.00000000E+00  0.00000000E+00
  0.00000000E+00  0.00000000E+00  0.00000000E+00
  0.00000000E+00  0.00000000E+00  0.00000000E+00
  0.00000000E+00  0.00000000E+00  0.00000000E+00
  0.00000000E+00  0.00000000E+00  0.00000000E+00
  0.00000000E+00  0.00000000E+00  0.00000000E+00
  0.00000000E+00  0.00000000E+00  0.00000000E+00
  0.00000000E+00  0.00000000E+00  0.00000000E+00
  0.00000000E+00  0.00000000E+00  0.00000000E+00
  0.00000000E+00  0.00000000E+00  0.00000000E+00
  0.00000000E+00  0.00000000E+00  0.00000000E+00
  0.00000000E+00  0.00000000E+00  0.00000000E+00
  0.00000000E+00  0.00000000E+00  0.00000000E+00
  0.00000000E+00  0.00000000E+00  0.00000000E+00
  0.00000000E+00  0.00000000E+00  0.00000000E+00
  0.00000000E+00  0.00000000E+00  0.00000000E+00
  0.00000000E+00  0.00000000E+00  0.00000000E+00
  0.00000000E+00  0.00000000E+00  0.00000000E+00
  0.00000000E+00  0.00000000E+00  0.00000000E+00
  0.00000000E+00  0.00000000E+00  0.00000000E+00
  0.00000000E+00  0.00000000E+00  0.00000000E+00
  0.00000000E+00  0.00000000E+00  0.00000000E+00
  0.00000000E+00  0.00000000E+00  0.00000000E+00
  0.00000000E+00  0.00000000E+00  0.00000000E+00
  0.00000000E+00  0.00000000E+00  0.00000000E+00
  0.00000000E+00  0.00000000E+00  0.00000000E+00
  0.00000000E+00  0.00000000E+00  0.00000000E+00
  0.00000000E+00  0.00000000E+00  0.00000000E+00
  0.00000000E+00  0.00000000E+00  0.00000000E+00
  0.00000000E+00  0.00000000E+00  0.00000000E+00
  0.00000000E+00  0.00000000E+00  0.00000000E+00
  0.00000000E+00  0.00000000E+00  0.00000000E+00
  0.00000000E+00  0.00000000E+00  0.00000000E+00
  0.00000000E+00  0.00000000E+00  0.00000000E+00
  0.00000000E+00  0.00000000E+00  0.00000000E+00
  0.00000000E+00  0.00000000E+00  0.00000000E+00
  0.00000000E+00  0.00000000E+00  0.00000000E+00
  0.00000000E+00  0.00000000E+00  0.00000000E+00
  0.00000000E+00  0.00000000E+00  0.00000000E+00
  0.00000000E+00  0.00000000E+00  0.00000000E+00
  0.00000000E+00  0.00000000E+00  0.00000000E+00
  0.00000000E+00  0.00000000E+00  0.00000000E+00
  0.00000000E+00  0.00000000E+00  0.00000000E+00