 N B O Se 
 1.0
 17.527899999999772   0.000000000000000   0.000000000000000
 -8.763949999999658  15.179606674993195   0.000000000000000
  0.000000000000001   0.000000000000002  15.000000000000000
 N B O Se 
  48  48   1   1
Cartesian
  8.787484228474860  13.757441205317914   1.665135382263825 
 16.266159311058406   0.728480513450459   1.664566391516310 
 14.995358757885679   2.885703530615768   1.665402073069950 
 13.746722446588644   5.054440137780411   1.664982868188900 
 12.523318725358585   7.226618905696310   1.664852563212255 
 11.303407087340041   9.402055838263015   1.666825500370605 
 10.055926729496452  11.581315170893394   1.666514061553095 
 -6.239244744092987  13.721981602913482   1.664743674001755 
  1.243410825700470   0.690722775683932   1.665135382263825 
 -0.047434564990335   2.836810173983964   1.664889333589230 
 -1.302706222912930   5.025308180701045   1.664314368357375 
 -2.531758450612664   7.213763173856536   1.664712637372350 
 -3.734653224672504   9.391109039444096   1.665096839304090 
 -4.978917063691702  11.559133755213601   1.664749377963330 
 -3.735999723263681  13.711929738443219   1.664749377963330 
  3.762212503859625   0.680282363771557   1.666514061553095 
  2.462015351111600   2.796056968029461   1.668618089877750 
  1.152500588234129   4.929354523963658   1.662867125560995 
 -0.082117518159242   7.182205143283103   1.662140751010395 
 -1.233946704625271   9.382923181399887   1.665727199888475 
 -2.480986243829272  11.552150046102092   1.665411062187270 
 -1.236303323865108  13.718378002726913   1.665096839304090 
  6.273246626273632   0.689562349472058   1.666825500370605 
  5.007889005408928   2.822011877624989   1.667144793653160 
  3.673920901498560   4.881432417772699   1.658433325982160 
  2.235456679723384   6.970407162776045   1.669118707800930 
  1.295755390483466   9.371647246871877   1.665539828161185 
  0.021139097176296  11.556795557978884   1.665727199888475 
  1.250780895571105  13.765313503105306   1.664712637372350 
  8.767186093198987   0.720806346859028   1.664852563212255 
  7.521924780633574   2.859752828723252   1.667146250093835 
  6.270942447243561   4.985022650475268   1.659160132103940 
  3.845140948498368   9.758462100469012   1.669118707800930 
  2.502931417967687  11.659641240737246   1.662140751010395 
  3.760564628532612  13.795150547917128   1.664314368357375 
 11.260049948390176   0.747397029147324   1.664982868188900 
 10.006616987814867   2.899618671082715   1.664868094409790 
  8.754333892273616   5.065434941081135   1.665661697097735 
  7.582277256199789   7.256321165321195   1.659160132103940 
  6.373478256423036   9.557202914478243   1.658433325982160 
  5.071266338426455  11.716855906288018   1.662867125560995 
  6.283495327459948  13.802302406864145   1.664889333589230 
 13.762549099978214   0.750414567058679   1.665402073069950 
 12.502347877507621   2.901518057789922   1.666192184688825 
 11.256127349810100   5.063834102611783   1.664868094409790 
 10.048306078446055   7.235573595795805   1.667146250093835 
  8.823972813239077   9.431662918727566   1.667144793653160 
  7.573513597153040  11.649431632972494   1.668618089877750 
  7.532809514127788  14.484274542722416   1.664950035165900 
 15.013446982113360   1.451740580714900   1.665238241478210 
 13.752438762115009   3.614635693692715   1.665819504312615 
 12.509624384781670   5.784094809262038   1.664697507326775 
 11.295855433771511   7.959921055864793   1.666608108038220 
 10.070904746919336  10.142399348803369   1.667397760663260 
  8.818287951411220  12.331144696462509   1.667194386822360 
 -7.491947539667017  14.445236166083875   1.664906946524040 
 -0.013377238661377   1.413895683488633   1.664950035165900 
 -1.284706452774536   3.587979971064318   1.664676393572325 
 -2.532911231182817   5.770085090160128   1.664769336080910 
 -3.757466350221893   7.948328473806600   1.664867846874240 
 -4.973936766798452  10.119737783328796   1.665639573261630 
 -6.223542587988493  12.286709856058279   1.665179484342630 
 -4.988406444608485  14.426028410656970   1.665179484342630 
  2.494027124488075   1.377203623913885   1.667194386822360 
  1.197524135140754   3.518058372879912   1.665541316521050 
 -0.056627637055969   5.730331554190066   1.663596509958915 
 -1.287155353416578   7.934667514154449   1.664588970114390 
 -2.476459129746520  10.108771766599704   1.665584239373745 
 -3.727703626640441  12.271948929602503   1.664603471746380 
 -2.486986097059788  14.427324061154184   1.665639573261630 
  5.015844595747270   1.386778331626422   1.667397760663260 
  3.711879856079101   3.469347109012258   1.665213409289205 
  2.391725564205023   5.622113109425119   1.664071967081745 
  1.175832368200362   7.877964622044881   1.665410689555800 
  0.040523522658445  10.096361970597107   1.666043651985990 
 -1.228715002129379  12.269927990448236   1.665584239373745 
  0.001780162627526  14.459534432207812   1.664867846874240 
  7.518401584066277   1.417179064898402   1.666608108038220 
  6.268115459045889   3.535362728074037   1.664913991537860 
  4.935332404183436   5.464794287705028   1.661206898735595 
  2.529366404963788  10.222354343492805   1.665410689555800 
  1.248766399129058  12.327012833552317   1.664588970114390 
  2.500471827992929  14.488160282608803   1.664769336080910 
 10.009606863333040   1.453937442300183   1.664697507326775 
  8.759139207134220   3.609899203668511   1.665927750521910 
  7.511431045551367   5.783031501153935   1.662396901694175 
  6.498983236135111   8.173116973972803   1.661206898735595 
  5.090937720042797  10.297285703773944   1.664071967081745 
  3.773041197096617  12.363512551105361   1.663596509958915 
  5.014332684061950  14.498235794930002   1.664676393572325 
 12.509820758554314   1.462358177125612   1.665819504312615 
 11.257219223858533   3.620399688080987   1.665311520696435 
 10.017272901749568   5.789050685456755   1.665927750521910 
  8.836311509070125   7.983608770543966   1.664913991537860 
  7.615364910740856  10.230381550302281   1.665213409289205 
  6.316001858320686  12.383521846836688   1.665541316521050 
  3.417149863046562   8.146865844021253   1.685795565129120 
  4.894181418789298   7.294095010760414   1.671878553537375 
