 S B N 
 1.0
 14.936314146199660   0.000000000000000   0.000000000000000
 -7.468157073099825  12.935227489513863   0.000000000000000
  0.000000000000001   0.000000000000001  13.341276283792837
 S B N 
   1 143 143
Cartesian
  4.012146036311854   5.190908591762463   5.002978606422314 
  1.256588922968328   0.730530576753891   5.002978606422314 
  4.966131339978428   7.512905099444135   5.002978606422314 
  6.239568217922555   0.694178607282966   5.002978606422314 
  9.979658928992457   7.191979834606351   5.002978606422314 
 11.223084530609103   0.730660879545650   5.002978606422314 
 -3.734021347164679   9.342141760733611  11.673616748318732 
  1.244180439803254   9.342240330668375  11.673616748318732 
  2.488591025756818   2.873951332878358  11.673616748318732 
  6.223517913406237   9.342875732164716  11.673616748318732 
  7.468462719012707   2.873888575496210  11.673616748318732 
 12.447044397580200   2.874290617568982  11.673616748318732 
 -1.246121090041106   9.347542946351407   5.002978606422314 
  0.014007189205717   2.882582052128212   5.002978606422314 
  4.986693219178855   2.804861752422544   5.002978606422314 
  3.721249644290276   9.418122861449451   5.002978606422314 
  8.728881013737407   9.358390732813191   5.002978606422314 
  9.992535236074760   2.869024262641377   5.002978606422314 
 -4.978937365952193  11.498061709031964  11.673616748318732 
 -0.000166131824781  11.497884074425201  11.673616748318732 
  1.243824685357963   5.029949878000765  11.673616748318732 
  6.223407349218248   5.030067383703472  11.673616748318732 
  4.978716201518637  11.498674466870677  11.673616748318732 
 11.202686564389454   5.030041358709247  11.673616748318732 
 -1.228433191838908   5.034715137532313   5.002978606422314 
 -2.485393654647309  11.494025992675548   5.002978606422314 
  2.497482997188082  11.523742282880265   5.002978606422314 
  7.481860136666331  11.524079299739732   5.002978606422314 
  8.776906795897744   5.014993532993695   5.002978606422314 
 -0.000629850448009   7.186026817059903  11.673616748318732 
  1.244230938186632   0.718527812755873  11.673616748318732 
  4.978484120610595   7.186337667174625  11.673616748318732 
  6.223321983486625   0.718114198931787  11.673616748318732 
  9.958054608773207   7.186220654558689  11.673616748318732 
 -2.483232988565133   7.189167083160777   5.002978606422314 
 11.202414097444025   0.718726799393535  11.673616748318732 
  3.737372897105439   0.701917203488367   5.002978606422314 
  2.433042450257381   7.227914628981901   5.002978606422314 
  7.510029936981115   7.210412803407982   5.002978606422314 
  8.739209371199930   0.712755076149008   5.002978606422314 
  2.488536283264351   7.186134847585397  11.673616748318732 
 13.708357483173140   0.735124832825763   5.002978606422314 
 -1.244969645385075   9.342016422543876  11.673616748318732 
 -0.000518770422107   2.874195485426859  11.673616748318732 
  4.978257783628409   2.873810712258205  11.673616748318732 
  3.733706182498688   9.342676650638506  11.673616748318732 
  8.713091257401530   9.342560432695672  11.673616748318732 
  9.958116607883509   2.874099971817544  11.673616748318732 
 -3.727633262152941   9.345829923334733   5.002978606422314 
  1.231574726598730   9.368277778230137   5.002978606422314 
  2.490003807444495   2.875688117077048   5.002978606422314 
  6.242179506302816   9.405269981903492   5.002978606422314 
  7.527572785090062   2.825377791559029   5.002978606422314 
 12.469586903833008   2.880738415164420   5.002978606422314 
 -1.245006882767669   5.030014190770792  11.673616748318732 
 -2.489604042331242  11.497786434902503  11.673616748318732 
  2.489275984468309  11.498303890155634  11.673616748318732 
  3.733308554348235   5.029921696490609  11.673616748318732 
  7.468101189890062  11.498532972545886  11.673616748318732 
 -4.973157932347570  11.501843592825068   5.002978606422314 
  8.713540994125603   5.030029244339562  11.673616748318732 
  0.006903011308683  11.501965446116227   5.002978606422314 
  1.246035175438759   5.030304990732949   5.002978606422314 
 -0.012821112906321   7.197443767069248   5.002978606422314 
  6.500046651296205   4.856085845733896   5.002978606422314 
  4.991529822525480  11.531019727835792   5.002978606422314 
 11.231689806100844   5.029183792549904   5.002978606422314 
 -2.489397912806433   7.186052888736239  11.673616748318732 
  3.733581159592775   0.718183621486128  11.673616748318732 
  7.468582746885239   7.186483257048982  11.673616748318732 
  8.713075570509067   0.718366791006818  11.673616748318732 
 13.691502273530618   0.718826348543596  11.673616748318732 
 -0.000450288942646   1.436792552822970   1.663967896241549 
  3.730963903198272   7.905926949520241   1.663942191021626 
  4.978160887309610   1.434344387420526   1.663328524145537 
  8.715606944420369   7.906453013181922   1.664198112422470 
  9.957775498709267   1.436297313079431   1.663219197948890 
 -4.977115037173808  10.061537177312532   8.342308287012971 
 -0.001603321164164  10.061072747496640   8.341938113795717 
  1.242742031142770   3.591992443883315   8.345265403046470 
  4.978169380392568  10.062841594523512   8.341564372534902 
  6.222829839314339   3.589888542517002   8.342015021822990 
 11.203128393475193   3.592931318823060   8.342488182001961 
 -2.489242500026172  10.060815163210634   1.663900530655315 
 -1.245311984791632   3.592956258429783   1.663967896241549 
  3.731736595000428   3.591240822921935   1.650334640745949 
  2.486978535732011  10.062115734973000   1.663978393963542 
  7.469786904396357  10.062405423789945   1.664097564723047 
  8.714375454279001   3.591542847004725   1.664392840309726 
 -6.222798397972327  12.216578841615883   8.342028821488956 
 -1.245199836059871  12.215045095411604   8.341938113795717 
 -0.001967561598340   5.749174896774605   8.342673105369387 
  4.974976815373796   5.746799201237934   8.344128432094234 
  3.733372018835460  12.217280387029465   8.342738014895739 
  9.959806481345241   5.749565004673288   8.341859648121581 
 -2.489074338944480   5.749579069937306   1.663928391355672 
 -3.733871153493709  12.215489712705347   1.663817488768628 
  1.243699998988797  12.216030519886273   1.663394210050011 
  2.486588390225035   5.747900776546106   1.650334640745949 
  6.223748301857789  12.217470627701436   1.663469030842667 
  7.469549504561153   5.748886144166570   1.667108764895104 
 -1.245553930009748   7.905597856282378   8.342139724076000 
 -0.000450288942645   1.436792552822970   8.341989316603065 
  3.730963903198272   7.905926949520242   8.342015021822990 
  4.978160887309611   1.434344387420526   8.342628688699090 
  8.715606944420369   7.906453013181923   8.341759100422157 
 -3.732553486045850   7.905893337612162   1.663648925831657 
  9.957775498709267   1.436297313079431   8.342738014895739 
  2.488562039574094   1.435451089789665   1.663284107475241 
  1.241873429903255   7.905784095330714   1.663328524145537 
  6.224070505559870   7.906119050196834   1.667108764895104 
  7.468151419138400   1.434471219628712   1.663978393963542 
  1.241873429903256   7.905784095330715   8.342628688699090 
 12.446924295669801   1.437245097348486   1.663572826565975 
 -2.489242500026171  10.060815163210634   8.342056682189313 
 -1.245311984791632   3.592956258429784   8.341989316603065 
  3.731736595000428   3.591240822921936   8.355622572098678 
  2.486978535732012  10.062115734973000   8.341978818881085 
  7.469786904396358  10.062405423789945   8.341859648121581 
  8.714375454279001   3.591542847004726   8.341564372534902 
 -4.977115037173808  10.061537177312532   1.663648925831657 
 -0.001603321164165  10.061072747496640   1.664019099048911 
  1.242742031142769   3.591992443883314   1.660691809798156 
  4.978169380392568  10.062841594523512   1.664392840309726 
  6.222829839314338   3.589888542517001   1.663942191021626 
 11.203128393475193   3.592931318823060   1.663469030842667 
 -2.489074338944479   5.749579069937307   8.342028821488956 
 -3.733871153493709  12.215489712705347   8.342139724076000 
  1.243699998988797  12.216030519886273   8.342563002794616 
  2.486588390225036   5.747900776546107   8.355622572098678 
  6.223748301857790  12.217470627701436   8.342488182001961 
 -6.222798397972328  12.216578841615883   1.663928391355672 
  7.469549504561154   5.748886144166571   8.338848447949523 
 -1.245199836059872  12.215045095411604   1.664019099048911 
 -0.001967561598341   5.749174896774604   1.663284107475241 
 -1.245553930009749   7.905597856282377   1.663817488768628 
  4.974976815373795   5.746799201237933   1.661828780750393 
  3.733372018835460  12.217280387029465   1.663219197948890 
  9.959806481345241   5.749565004673287   1.664097564723047 
 -3.732553486045849   7.905893337612163   8.342308287012971 
  2.488562039574094   1.435451089789666   8.342673105369387 
  6.224070505559871   7.906119050196835   8.338848447949523 
  7.468151419138401   1.434471219628713   8.341978818881085 
 12.446924295669801   1.437245097348486   8.342384386278654 
  1.244565006899126   0.718206582612436   1.670507795225609 
  4.978053445904149   7.185430604770056   1.689698979784792 
  6.223267185505645   0.718297487080024   1.671977889026695 
  9.957415358318332   7.186335984340139   1.672094314242488 
 11.201854285403867   0.718403591761454   1.669218989029898 
 -3.734082377756345   9.342106524705065   8.336328814386185 
  1.244311773005359   9.342101230150638   8.333979323817934 
  2.488770884880200   2.874059888219117   8.337246068559548 
  6.223161450209034   9.341508871352046   8.327970870755097 
  7.467579078537690   2.874329127769927   8.328487357059078 
 12.446507011411981   2.874465871916997   8.336625200991113 
 -1.244886541339186   9.342146362347759   1.669640313401855 
 -0.000501162316734   2.874205651471236   1.669859024867800 
  4.978495700118014   2.874147526293989   1.673028561560708 
  3.733645891721919   9.341691119402457   1.677469855785537 
  8.712871510694651   9.341949160671630   1.672094314242488 
  9.957084965251841   2.874463934151089   1.670748311667802 
 -4.978726700982277  11.497739904689871   8.336326555306671 
 -0.000272822452232  11.497822476562703   8.336063488527708 
  1.244008626602461   5.030051362900350   8.337246068559548 
  6.222406472779836   5.030147939669233   8.316258233059836 
  4.978515580829670  11.497599056977261   8.335208901176825 
 11.201846245318777   5.030558553159840   8.335531499228402 
 -1.245118041876107   5.030464117834152   1.670507795225609 
 -2.489449959137165  11.497793435215446   1.669640313401855 
  2.488973702099880  11.497759441079619   1.670241468067405 
  3.732233000795594   5.029300725357463   1.645474789794273 
  7.468128933887631  11.497546637658095   1.670425713616226 
  8.712179026339802   5.030403968561589   1.677986342089531 
 -0.000340606214566   7.186325389807271   8.335393467444005 
  1.244565006899127   0.718206582612437   8.335449417619019 
  4.978053445904150   7.185430604770056   8.316258233059836 
  6.223267185505645   0.718297487080025   8.333979323817934 
  9.957415358318332   7.186335984340140   8.333862898602140 
 -2.489571271056775   7.186396232122918   1.669630657537956 
 11.201854285403867   0.718403591761454   8.336738223814731 
  3.733984353293585   0.718284827966517   1.670563745400622 
  2.488946931020495   7.186172482291481   1.673028561560708 
  7.467849351944791   7.186059831282694   1.681187001367255 
  8.712452922593952   0.718377231334661   1.670241468067405 
  2.488946931020495   7.186172482291482   8.332928651283906 
 13.691385355164012   0.718273331296268   1.669332011853527 
 -1.244886541339186   9.342146362347759   8.336316899442773 
 -0.000501162316733   2.874205651471236   8.336098187976814 
  4.978495700118015   2.874147526293990   8.332928651283906 
  3.733645891721919   9.341691119402457   8.328487357059078 
  8.712871510694651   9.341949160671630   8.333862898602140 
  9.957084965251841   2.874463934151090   8.335208901176825 
 -3.734082377756345   9.342106524705065   1.669628398458456 
  1.244311773005358   9.342101230150638   1.671977889026695 
  2.488770884880200   2.874059888219116   1.668711144285079 
  6.223161450209033   9.341508871352046   1.677986342089531 
  7.467579078537689   2.874329127769926   1.677469855785537 
 12.446507011411981   2.874465871916996   1.669332011853527 
 -1.245118041876107   5.030464117834152   8.335449417619019 
 -2.489449959137164  11.497793435215446   8.336316899442773 
  2.488973702099881  11.497759441079619   8.335715744777222 
  3.732233000795594   5.029300725357464   8.360482423050355 
  7.468128933887632  11.497546637658095   8.335531499228402 
 -4.978726700982278  11.497739904689871   1.669630657537956 
  8.712179026339802   5.030403968561590   8.327970870755097 
 -0.000272822452232  11.497822476562703   1.669893724316933 
  1.244008626602461   5.030051362900349   1.668711144285079 
 -0.000340606214566   7.186325389807270   1.670563745400622 
  6.222406472779835   5.030147939669232   1.689698979784792 
  4.978515580829669  11.497599056977261   1.670748311667802 
 11.201846245318777   5.030558553159839   1.670425713616226 
 -2.489571271056775   7.186396232122919   8.336326555306671 
  3.733984353293586   0.718284827966517   8.335393467444005 
  7.467849351944792   7.186059831282694   8.324770211477373 
  8.712452922593952   0.718377231334662   8.335715744777222 
 13.691385355164012   0.718273331296269   8.336625200991113 
  0.018035391380815   1.450340534314076   5.002978606422314 
  3.696224019045376   7.931573285529630   5.002978606422314 
  4.992437674460501   1.405619032469587   5.002978606422314 
  8.723084860715270   7.910770390167772   5.002978606422314 
  9.974552165629726   1.440993736424159   5.002978606422314 
 -4.979031881678457  10.060624137398555  11.673616748318732 
 -0.000048569486095  10.060664250419940  11.673616748318732 
  1.244508874451808   3.593012531343405  11.673616748318732 
  4.978673362142763  10.060658877520151  11.673616748318732 
  6.223354331048363   3.593161596438291  11.673616748318732 
 11.202115290170447   3.593032923813324  11.673616748318732 
 -2.487724209502413  10.061691748653235   5.002978606422314 
 -1.224336248488609   3.602191336450598   5.002978606422314 
  3.780319024182246   3.551284637770360   5.002978606422314 
  2.484056376274951  10.083083030104410   5.002978606422314 
  7.481500601883813  10.075446433100158   5.002978606422314 
  8.732436199030374   3.589804605108408   5.002978606422314 
 -6.223695223894497  12.216511768692866  11.673616748318732 
 -1.244776229066630  12.216595798399739  11.673616748318732 
 -0.000183293361429   5.748853176834395  11.673616748318732 
  4.978763734886903   5.748985580238218  11.673616748318732 
  3.733997308872081  12.216550567165665  11.673616748318732 
  9.957380405235202   5.748847527296009  11.673616748318732 
 -2.472059982021396   5.753416365244147   5.002978606422314 
 -3.729429009134902  12.212071480697402   5.002978606422314 
  1.253406224591221  12.221634411850648   5.002978606422314 
  2.476276533436365   5.809952486970908   5.002978606422314 
  6.237048892004766  12.231406357982273   5.002978606422314 
  7.483861863502129   5.769584532672632   5.002978606422314 
 -1.244856484386620   7.904712274092790  11.673616748318732 
 -0.000185630557915   1.437139848973090  11.673616748318732 
  3.734060696909076   7.904744645725338  11.673616748318732 
  4.978634941346662   1.437239542363160  11.673616748318732 
  8.712637575747531   7.904738647379346  11.673616748318732 
 -3.728425870283317   7.907505149682249   5.002978606422314 
  9.957456101185342   1.437203740067778  11.673616748318732 
  2.509914367874535   1.448474340311247   5.002978606422314 
  1.224134936358464   7.932510833163279   5.002978606422314 
  6.249152015294029   7.908164722374759   5.002978606422314 
  7.484848549642316   1.421456907739284   5.002978606422314 
  1.244617734650002   7.904747060698239  11.673616748318732 
 12.464482389092154   1.447382267312330   5.002978606422314 
 -2.489557930042410  10.060633049605849  11.673616748318732 
 -1.244878888310635   3.593011811239239  11.673616748318732 
  3.733961933500772   3.592998891547656  11.673616748318732 
  2.489357540019529  10.060647555540525  11.673616748318732 
  7.467952512705976  10.060663118935777  11.673616748318732 
  8.712737156779914   3.593070666505120  11.673616748318732 
 -4.973655359093721  10.064305891384903   5.002978606422314 
 -0.002148369834525  10.070666854809639   5.002978606422314 
  1.267346428637637   3.606197799400217   5.002978606422314 
  4.985694391128129  10.079351779237612   5.002978606422314 
  6.227670275736013   3.546979752311372   5.002978606422314 
 11.221847384992177   3.597482102635247   5.002978606422314 
 -2.489580838760804   5.748835932367444  11.673616748318732 
 -3.734289367355452  12.216536509427504  11.673616748318732 
  1.244642738916393  12.216574811037248  11.673616748318732 
  2.489223591566678   5.748948941906563  11.673616748318732 
  6.223329742708128  12.216542452007751  11.673616748318732 
 -6.210968024293239  12.229395059286908   5.002978606422314 
  7.467998978235298   5.748911072719716  11.673616748318732 
 -1.237163619735352  12.209776015760260   5.002978606422314 
  0.019987068343411   5.761154930251954   5.002978606422314 
 -1.246293133585240   7.911153982148329   5.002978606422314 
  3.745827574219142  12.229461195101059   5.002978606422314 
  9.976957175442610   5.753188859614550   5.002978606422314 
 -3.734302624058356   7.904689821533033  11.673616748318732 
  2.489175556051417   1.437157171380115  11.673616748318732 
  6.223316831157260   7.904763790732810  11.673616748318732 
  7.468069440596321   1.437265587493653  11.673616748318732 
 12.446804421166943   1.437175887771993  11.673616748318732 
Generated by cif2cell 2.0.0.  :  Failed to get author information, No journal information. Species order: S B N 
 1.0
 14.936314146199660   0.000000000000000   0.000000000000000
 -7.468157073099825  12.935227489513863   0.000000000000000
  0.000000000000001   0.000000000000001  13.341276283792837
 S B N 
   1 143 143
Cartesian
  4.012146036311854   5.190908591762463   5.002978606422314 
  1.256588922968328   0.730530576753891   5.002978606422314 
  4.966131339978428   7.512905099444135   5.002978606422314 
  6.239568217922555   0.694178607282966   5.002978606422314 
  9.979658928992457   7.191979834606351   5.002978606422314 
 11.223084530609103   0.730660879545650   5.002978606422314 
 -3.734021347164679   9.342141760733611  11.673616748318732 
  1.244180439803254   9.342240330668375  11.673616748318732 
  2.488591025756818   2.873951332878358  11.673616748318732 
  6.223517913406237   9.342875732164716  11.673616748318732 
  7.468462719012707   2.873888575496210  11.673616748318732 
 12.447044397580200   2.874290617568982  11.673616748318732 
 -1.246121090041106   9.347542946351407   5.002978606422314 
  0.014007189205717   2.882582052128212   5.002978606422314 
  4.986693219178855   2.804861752422544   5.002978606422314 
  3.721249644290276   9.418122861449451   5.002978606422314 
  8.728881013737407   9.358390732813191   5.002978606422314 
  9.992535236074760   2.869024262641377   5.002978606422314 
 -4.978937365952193  11.498061709031964  11.673616748318732 
 -0.000166131824781  11.497884074425201  11.673616748318732 
  1.243824685357963   5.029949878000765  11.673616748318732 
  6.223407349218248   5.030067383703472  11.673616748318732 
  4.978716201518637  11.498674466870677  11.673616748318732 
 11.202686564389454   5.030041358709247  11.673616748318732 
 -1.228433191838908   5.034715137532313   5.002978606422314 
 -2.485393654647309  11.494025992675548   5.002978606422314 
  2.497482997188082  11.523742282880265   5.002978606422314 
  7.481860136666331  11.524079299739732   5.002978606422314 
  8.776906795897744   5.014993532993695   5.002978606422314 
 -0.000629850448009   7.186026817059903  11.673616748318732 
  1.244230938186632   0.718527812755873  11.673616748318732 
  4.978484120610595   7.186337667174625  11.673616748318732 
  6.223321983486625   0.718114198931787  11.673616748318732 
  9.958054608773207   7.186220654558689  11.673616748318732 
 -2.483232988565133   7.189167083160777   5.002978606422314 
 11.202414097444025   0.718726799393535  11.673616748318732 
  3.737372897105439   0.701917203488367   5.002978606422314 
  2.433042450257381   7.227914628981901   5.002978606422314 
  7.510029936981115   7.210412803407982   5.002978606422314 
  8.739209371199930   0.712755076149008   5.002978606422314 
  2.488536283264351   7.186134847585397  11.673616748318732 
 13.708357483173140   0.735124832825763   5.002978606422314 
 -1.244969645385075   9.342016422543876  11.673616748318732 
 -0.000518770422107   2.874195485426859  11.673616748318732 
  4.978257783628409   2.873810712258205  11.673616748318732 
  3.733706182498688   9.342676650638506  11.673616748318732 
  8.713091257401530   9.342560432695672  11.673616748318732 
  9.958116607883509   2.874099971817544  11.673616748318732 
 -3.727633262152941   9.345829923334733   5.002978606422314 
  1.231574726598730   9.368277778230137   5.002978606422314 
  2.490003807444495   2.875688117077048   5.002978606422314 
  6.242179506302816   9.405269981903492   5.002978606422314 
  7.527572785090062   2.825377791559029   5.002978606422314 
 12.469586903833008   2.880738415164420   5.002978606422314 
 -1.245006882767669   5.030014190770792  11.673616748318732 
 -2.489604042331242  11.497786434902503  11.673616748318732 
  2.489275984468309  11.498303890155634  11.673616748318732 
  3.733308554348235   5.029921696490609  11.673616748318732 
  7.468101189890062  11.498532972545886  11.673616748318732 
 -4.973157932347570  11.501843592825068   5.002978606422314 
  8.713540994125603   5.030029244339562  11.673616748318732 
  0.006903011308683  11.501965446116227   5.002978606422314 
  1.246035175438759   5.030304990732949   5.002978606422314 
 -0.012821112906321   7.197443767069248   5.002978606422314 
  6.500046651296205   4.856085845733896   5.002978606422314 
  4.991529822525480  11.531019727835792   5.002978606422314 
 11.231689806100844   5.029183792549904   5.002978606422314 
 -2.489397912806433   7.186052888736239  11.673616748318732 
  3.733581159592775   0.718183621486128  11.673616748318732 
  7.468582746885239   7.186483257048982  11.673616748318732 
  8.713075570509067   0.718366791006818  11.673616748318732 
 13.691502273530618   0.718826348543596  11.673616748318732 
 -0.000450288942646   1.436792552822970   1.663967896241549 
  3.730963903198272   7.905926949520241   1.663942191021626 
  4.978160887309610   1.434344387420526   1.663328524145537 
  8.715606944420369   7.906453013181922   1.664198112422470 
  9.957775498709267   1.436297313079431   1.663219197948890 
 -4.977115037173808  10.061537177312532   8.342308287012971 
 -0.001603321164164  10.061072747496640   8.341938113795717 
  1.242742031142770   3.591992443883315   8.345265403046470 
  4.978169380392568  10.062841594523512   8.341564372534902 
  6.222829839314339   3.589888542517002   8.342015021822990 
 11.203128393475193   3.592931318823060   8.342488182001961 
 -2.489242500026172  10.060815163210634   1.663900530655315 
 -1.245311984791632   3.592956258429783   1.663967896241549 
  3.731736595000428   3.591240822921935   1.650334640745949 
  2.486978535732011  10.062115734973000   1.663978393963542 
  7.469786904396357  10.062405423789945   1.664097564723047 
  8.714375454279001   3.591542847004725   1.664392840309726 
 -6.222798397972327  12.216578841615883   8.342028821488956 
 -1.245199836059871  12.215045095411604   8.341938113795717 
 -0.001967561598340   5.749174896774605   8.342673105369387 
  4.974976815373796   5.746799201237934   8.344128432094234 
  3.733372018835460  12.217280387029465   8.342738014895739 
  9.959806481345241   5.749565004673288   8.341859648121581 
 -2.489074338944480   5.749579069937306   1.663928391355672 
 -3.733871153493709  12.215489712705347   1.663817488768628 
  1.243699998988797  12.216030519886273   1.663394210050011 
  2.486588390225035   5.747900776546106   1.650334640745949 
  6.223748301857789  12.217470627701436   1.663469030842667 
  7.469549504561153   5.748886144166570   1.667108764895104 
 -1.245553930009748   7.905597856282378   8.342139724076000 
 -0.000450288942645   1.436792552822970   8.341989316603065 
  3.730963903198272   7.905926949520242   8.342015021822990 
  4.978160887309611   1.434344387420526   8.342628688699090 
  8.715606944420369   7.906453013181923   8.341759100422157 
 -3.732553486045850   7.905893337612162   1.663648925831657 
  9.957775498709267   1.436297313079431   8.342738014895739 
  2.488562039574094   1.435451089789665   1.663284107475241 
  1.241873429903255   7.905784095330714   1.663328524145537 
  6.224070505559870   7.906119050196834   1.667108764895104 
  7.468151419138400   1.434471219628712   1.663978393963542 
  1.241873429903256   7.905784095330715   8.342628688699090 
 12.446924295669801   1.437245097348486   1.663572826565975 
 -2.489242500026171  10.060815163210634   8.342056682189313 
 -1.245311984791632   3.592956258429784   8.341989316603065 
  3.731736595000428   3.591240822921936   8.355622572098678 
  2.486978535732012  10.062115734973000   8.341978818881085 
  7.469786904396358  10.062405423789945   8.341859648121581 
  8.714375454279001   3.591542847004726   8.341564372534902 
 -4.977115037173808  10.061537177312532   1.663648925831657 
 -0.001603321164165  10.061072747496640   1.664019099048911 
  1.242742031142769   3.591992443883314   1.660691809798156 
  4.978169380392568  10.062841594523512   1.664392840309726 
  6.222829839314338   3.589888542517001   1.663942191021626 
 11.203128393475193   3.592931318823060   1.663469030842667 
 -2.489074338944479   5.749579069937307   8.342028821488956 
 -3.733871153493709  12.215489712705347   8.342139724076000 
  1.243699998988797  12.216030519886273   8.342563002794616 
  2.486588390225036   5.747900776546107   8.355622572098678 
  6.223748301857790  12.217470627701436   8.342488182001961 
 -6.222798397972328  12.216578841615883   1.663928391355672 
  7.469549504561154   5.748886144166571   8.338848447949523 
 -1.245199836059872  12.215045095411604   1.664019099048911 
 -0.001967561598341   5.749174896774604   1.663284107475241 
 -1.245553930009749   7.905597856282377   1.663817488768628 
  4.974976815373795   5.746799201237933   1.661828780750393 
  3.733372018835460  12.217280387029465   1.663219197948890 
  9.959806481345241   5.749565004673287   1.664097564723047 
 -3.732553486045849   7.905893337612163   8.342308287012971 
  2.488562039574094   1.435451089789666   8.342673105369387 
  6.224070505559871   7.906119050196835   8.338848447949523 
  7.468151419138401   1.434471219628713   8.341978818881085 
 12.446924295669801   1.437245097348486   8.342384386278654 
  1.244565006899126   0.718206582612436   1.670507795225609 
  4.978053445904149   7.185430604770056   1.689698979784792 
  6.223267185505645   0.718297487080024   1.671977889026695 
  9.957415358318332   7.186335984340139   1.672094314242488 
 11.201854285403867   0.718403591761454   1.669218989029898 
 -3.734082377756345   9.342106524705065   8.336328814386185 
  1.244311773005359   9.342101230150638   8.333979323817934 
  2.488770884880200   2.874059888219117   8.337246068559548 
  6.223161450209034   9.341508871352046   8.327970870755097 
  7.467579078537690   2.874329127769927   8.328487357059078 
 12.446507011411981   2.874465871916997   8.336625200991113 
 -1.244886541339186   9.342146362347759   1.669640313401855 
 -0.000501162316734   2.874205651471236   1.669859024867800 
  4.978495700118014   2.874147526293989   1.673028561560708 
  3.733645891721919   9.341691119402457   1.677469855785537 
  8.712871510694651   9.341949160671630   1.672094314242488 
  9.957084965251841   2.874463934151089   1.670748311667802 
 -4.978726700982277  11.497739904689871   8.336326555306671 
 -0.000272822452232  11.497822476562703   8.336063488527708 
  1.244008626602461   5.030051362900350   8.337246068559548 
  6.222406472779836   5.030147939669233   8.316258233059836 
  4.978515580829670  11.497599056977261   8.335208901176825 
 11.201846245318777   5.030558553159840   8.335531499228402 
 -1.245118041876107   5.030464117834152   1.670507795225609 
 -2.489449959137165  11.497793435215446   1.669640313401855 
  2.488973702099880  11.497759441079619   1.670241468067405 
  3.732233000795594   5.029300725357463   1.645474789794273 
  7.468128933887631  11.497546637658095   1.670425713616226 
  8.712179026339802   5.030403968561589   1.677986342089531 
 -0.000340606214566   7.186325389807271   8.335393467444005 
  1.244565006899127   0.718206582612437   8.335449417619019 
  4.978053445904150   7.185430604770056   8.316258233059836 
  6.223267185505645   0.718297487080025   8.333979323817934 
  9.957415358318332   7.186335984340140   8.333862898602140 
 -2.489571271056775   7.186396232122918   1.669630657537956 
 11.201854285403867   0.718403591761454   8.336738223814731 
  3.733984353293585   0.718284827966517   1.670563745400622 
  2.488946931020495   7.186172482291481   1.673028561560708 
  7.467849351944791   7.186059831282694   1.681187001367255 
  8.712452922593952   0.718377231334661   1.670241468067405 
  2.488946931020495   7.186172482291482   8.332928651283906 
 13.691385355164012   0.718273331296268   1.669332011853527 
 -1.244886541339186   9.342146362347759   8.336316899442773 
 -0.000501162316733   2.874205651471236   8.336098187976814 
  4.978495700118015   2.874147526293990   8.332928651283906 
  3.733645891721919   9.341691119402457   8.328487357059078 
  8.712871510694651   9.341949160671630   8.333862898602140 
  9.957084965251841   2.874463934151090   8.335208901176825 
 -3.734082377756345   9.342106524705065   1.669628398458456 
  1.244311773005358   9.342101230150638   1.671977889026695 
  2.488770884880200   2.874059888219116   1.668711144285079 