Species order:X N B                     
   2.51242800000000     
     5.9449720136058266    0.0000000000000000    0.0000000000000000
    -2.9724860068029120    5.1484967885702053   -0.0000000000000001
     0.0000000000000000    0.0000000000000009    5.3101128803662583
   Ge   N    B 
     2   143   143
Direct
  0.4233088809703967  0.3783211071519046  0.3750000000000000
  0.5750403618328925  0.4541868475831105  0.3750000000000000
  0.1108820227334123  0.0554539228099840  0.1252954499689651
  0.6109681113307162  0.5557162800613863  0.1196158940674956
  0.4441866762045068  0.0554172822112219  0.1246874693642960
  0.9441228462897741  0.5553914029083394  0.1248817204541621
  0.7775618060663041  0.0554475696997935  0.1250534823032941
  0.1107834372956578  0.7220583853145384  0.6246729358971106
  0.4441866762045068  0.7221027273265380  0.6253125306357170
  0.2775891101745123  0.2221084026848068  0.6262206276146488
  0.7775491925883832  0.7221915750708577  0.6263457844901805
  0.6109087065686191  0.2220232506943723  0.6265580119929230
  0.9442428466744023  0.2220970024610179  0.6247885165748870
  0.2774992100203301  0.7220927112202167  0.1252338958917734
  0.1109225338336412  0.2221279335835091  0.1252500707217723
  0.4442224091335809  0.2221029170602583  0.1227827241388529
  0.6109087065685744  0.7222187892074848  0.1234419880070876
  0.9441228462897741  0.7220647767146140  0.1248817204541621
  0.7775752822121249  0.2220506230528650  0.1246037249309003
  0.1108144797356791  0.8887462968358654  0.6247292074390364
  0.4441740810077711  0.8887537071706278  0.6249559259980059
  0.2775891101745123  0.3888140408230860  0.6262206276146488
  0.6109681113307162  0.3885851646025855  0.6303841059325924
  0.7775752822121249  0.8888579924925413  0.6253962750691217
  0.9442068129778651  0.3887233124068247  0.6249948261611378
  0.1108820227334123  0.3887614332567793  0.1252954499689651
  0.2774992100203301  0.8887398321335690  0.1252338958917734
  0.6108772661174572  0.8888077929130952  0.1247765828797864
  0.4442238398671523  0.3887785866001630  0.1184171428371715
  0.9442068129778651  0.8888168339043627  0.1250051738389207
  0.7775491925883832  0.3886909508508873  0.1236542155098764
  0.2775395071633034  0.5554684780527914  0.6251341861909688
  0.1108820227334123  0.0554539228099840  0.6247045500310827
  0.6109681113307162  0.5557162800613863  0.6303841059325924
  0.4441866762045068  0.0554172822112219  0.6253125306357170
  0.9441228462897741  0.5553914029083394  0.6251182795457133
  0.1108144797356791  0.5554015162333381  0.1252707925608666
  0.7775618060663041  0.0554475696997935  0.6249465176966790
  0.2775395071633034  0.0554043624437461  0.1248658138090206
  0.4442224091335809  0.5554528254064826  0.1227827241388526
  0.7774314723641164  0.5553824028486438  0.1232531044642537
  0.6108772661174572  0.0554028065376496  0.1247765828797864
  0.4442224091335809  0.5554528254064826  0.6272172758612490
  0.9442428466744023  0.0554791775467301  0.1252114834250700
  0.2774992100203301  0.7220927112202167  0.6247661041082436
  0.1109225338336412  0.2221279335835091  0.6247499292781417
  0.4442224091335809  0.2221029170602583  0.6272172758612490
  0.6109087065685744  0.7222187892074848  0.6265580119929230
  0.9441228462897741  0.7220647767146140  0.6251182795457133
  0.7775752822121249  0.2220506230528650  0.6253962750691217
  0.1107834372956578  0.7220583853145384  0.1253270641028780
  0.4441866762045068  0.7221027273265380  0.1246874693642960
  0.2775891101745123  0.2221084026848068  0.1237793723851533
  0.7775491925883832  0.7221915750708577  0.1236542155098806
  0.6109087065685744  0.2220232506943723  0.1234419880070876
  0.9442428466744023  0.2220970024610179  0.1252114834250700
  0.1108820227334123  0.3887614332567793  0.6247045500310827
  0.2774992100203301  0.8887398321335690  0.6247661041082436
  0.6108772661174572  0.8888077929130952  0.6252234171202182
  0.4442238398671523  0.3887785866001630  0.6315828571629446
  0.9442068129778651  0.8888168339043627  0.6249948261611378
  0.1108144797356791  0.8887462968358654  0.1252707925608666
  0.7775491925883832  0.3886909508508873  0.6263457844901805
  0.4441740810077711  0.8887537071706278  0.1250440740020055
  0.2775891101745123  0.3888140408230860  0.1237793723851536
  0.2775395071633034  0.5554684780527914  0.1248658138090206
  0.6109681113307162  0.3885851646025855  0.1196158940674956
  0.7775752822121249  0.8888579924925413  0.1246037249309003
  0.9442068129778651  0.3887233124068247  0.1250051738389207
  0.1108144797356791  0.5554015162333381  0.6247292074390364
  0.2775395071633034  0.0554043624437461  0.6251341861909688
  0.7774314723641164  0.5553824028486438  0.6267468955356268
  0.6108772661174572  0.0554028065376496  0.6252234171202182
  0.9442428466744023  0.0554791775467301  0.6247885165748870
  0.0551610279655790  0.1107422053197013  0.3750000000000000
  0.5558618156797946  0.6246443022505745  0.3750000000000000
  0.3864441717304157  0.1013368670915726  0.3750000000000000
  0.8913748873238153  0.6123541103285207  0.3750000000000000
  0.7235831839710625  0.1102518691050386  0.3750000000000000
  0.0559015515839932  0.7779451355312719  0.8750000000000000
  0.3892234703311251  0.7779505704328552  0.8750000000000000
  0.2225668573739128  0.2779500953535886  0.8750000000000000
  0.7225684844333669  0.7779277570752745  0.8750000000000000
  0.5558707139985889  0.2779140353758766  0.8750000000000000
  0.8892406448688709  0.2779595668010694  0.8750000000000000
  0.2210533931558351  0.7771933632445671  0.3750000000000000
  0.0551610279655769  0.2777521559792977  0.3750000000000000
  0.3725754937550754  0.2476970627488601  0.3750000000000000
  0.5556578629219923  0.7839906111295823  0.3750000000000000
  0.8939314057703394  0.7824936031520673  0.3750000000000000
  0.7249469048795982  0.2749046089502682  0.3750000000000000
  0.0558996109511503  0.9446222456983108  0.8750000000000000
  0.3892234703311251  0.9446062332317141  0.8750000000000000
  0.2225658539911688  0.4446244518231826  0.8750000000000000
  0.5559097877574593  0.4446215605453939  0.8750000000000000
  0.7225708223256411  0.9446184211383725  0.8750000000000000
  0.8892498262426781  0.4446268785687301  0.8750000000000000
  0.0545526314133693  0.4453059596734141  0.3750000000000000
  0.2203284131527839  0.9406888885159695  0.3750000000000000
  0.5556570897323655  0.9444952115327865  0.3750000000000000
  0.3725754937550754  0.4582117643394987  0.3750000000000000
  0.8904026825825319  0.9464328506417274  0.3750000000000000
  0.7345792830087000  0.4433252697937423  0.3750000000000000
  0.2225611096599226  0.6112940950078406  0.8750000000000000
  0.0558971337486582  0.1112711637283005  0.8750000000000000
  0.5558707139985889  0.6112900119560613  0.8750000000000000
  0.3892184307252129  0.1112468786190649  0.8750000000000000
  0.8892619614302582  0.6112976473817830  0.8750000000000000
  0.0556886094109595  0.6117424916920087  0.3750000000000000
  0.7225708223256411  0.1112857345207541  0.8750000000000000
  0.2146119908394497  0.1012006628905631  0.3750000000000000
  0.3864441717304158  0.6184406379723357  0.3750000000000000
  0.7345792830087000  0.6245873465482764  0.3750000000000000
  0.5556578629219923  0.1050005851259002  0.3750000000000000
  0.3892184307252129  0.6113048854395853  0.8750000000000000
  0.8898817845030296  0.1116075589182537  0.3750000000000000
  0.2225547774179632  0.7779440553756618  0.8750000000000000
  0.0558971337486582  0.2779593033536762  0.8750000000000000
  0.3892194283629381  0.2779525452735966  0.8750000000000000
  0.5558923245182659  0.7779575077033195  0.8750000000000000
  0.8892498262426173  0.7779562810072181  0.8750000000000000
  0.7225684844333669  0.2779740606915436  0.8750000000000000
  0.0556886094109595  0.7772794510522303  0.3750000000000000
  0.3875729792357476  0.7797784611070075  0.3750000000000000
  0.2209356868467225  0.2771345100900694  0.3750000000000000
  0.7249469048795982  0.7833756292626215  0.3750000000000000
  0.5558618156797946  0.2645508467627009  0.3750000000000000
  0.8904026825825319  0.2773031652741541  0.3750000000000000
  0.0558996109511503  0.4446106985861873  0.8750000000000000
  0.2225611096599226  0.9446003479855799  0.8750000000000000
  0.5559025580687138  0.9446179457009314  0.8750000000000000
  0.3892194283629381  0.4446002164225722  0.8750000000000000
  0.8892406448688709  0.9446144114011297  0.8750000000000000
  0.0545526314133696  0.9425800050733228  0.3750000000000000
  0.7225948956416571  0.4446435448744525  0.8750000000000000
  0.3875729792357472  0.9411278514620605  0.3750000000000000
  0.2146119908394497  0.4467446612822135  0.3750000000000000
  0.2203284131527839  0.6129728579699770  0.3750000000000000
  0.7235831839710625  0.9466646481993481  0.3750000000000000
  0.8939314057703394  0.4447711359516543  0.3750000000000000
  0.0559015515839933  0.6112897493863018  0.8750000000000000
  0.2225658539911688  0.1112747355013614  0.8750000000000000
  0.7225948956416571  0.6112846841006303  0.8750000000000000
  0.5558923245182659  0.1112681501483395  0.8750000000000000
  0.8892387084965812  0.1112860209149249  0.8750000000000000
  0.1065246200564608  0.0512014301284066  0.3750000000000000
  0.6263609534363193  0.5874753604571571  0.3750000000000000
  0.4442212131340448  0.0500215563287120  0.3750000000000000
  0.9458330617182538  0.5557914826822801  0.3750000000000000
  0.7793821737102287  0.0563577535217848  0.3750000000000000
  0.1113947810057981  0.7223640571695285  0.8750000000000000
  0.4447339079653822  0.7223585802299074  0.8750000000000000
  0.2782269652662664  0.2225014621824688  0.8750000000000000
  0.7780446348466046  0.7223085969915498  0.8750000000000000
  0.6114822802462466  0.2224931403870259  0.8750000000000000
  0.9448428872054352  0.2224800275781588  0.8750000000000000
  0.2768892194687084  0.7232567206873387  0.3750000000000000
  0.1100831122251767  0.2217082227792657  0.3750000000000000
  0.4427492595264790  0.2101692417268305  0.3750000000000000
  0.6130929980088812  0.7325003640881843  0.3750000000000000
  0.9458330617182538  0.7233749123695994  0.3750000000000000
  0.7798624471303254  0.2206032151772417  0.3750000000000000
  0.1114683869663144  0.8890592641757078  0.8750000000000000
  0.4447932367744863  0.8890632850538147  0.8750000000000000
  0.2782269652662664  0.3890588364171111  0.8750000000000000
  0.6114818119685155  0.3890617843070659  0.8750000000000000
  0.7781240960531678  0.8890288273730061  0.8750000000000000
  0.9448382527750548  0.3890566521622203  0.8750000000000000
  0.1065246200564720  0.3886565232613616  0.3750000000000000
  0.2768892194687084  0.8869658321147253  0.3750000000000000
  0.6127476536150919  0.8925944861832353  0.3750000000000000
  0.9459435840384697  0.8910716399394398  0.3750000000000000
  0.7855010945936490  0.3869235675035482  0.3750000000000000
  0.2781910599108735  0.5558130067174371  0.8750000000000000
  0.1114278630548657  0.0557057176484738  0.8750000000000000
  0.6114818119685155  0.5557533609948156  0.8750000000000000
  0.4447339079653822  0.0557086610689624  0.8750000000000000
  0.9448256059301553  0.5558064678139775  0.8750000000000000
  0.1100261098683741  0.5561293844467727  0.3750000000000000
  0.7780744846578332  0.0557039089955851  0.8750000000000000
  0.2751585373055524  0.0499827122275339  0.3750000000000000
  0.4427492595264790  0.5659133511330330  0.3750000000000000
  0.7813549912621638  0.5573441622978045  0.3750000000000000
  0.6127476536150919  0.0534865007651559  0.3750000000000000
  0.4448161591924692  0.5557275472093470  0.8750000000000000
  0.9451132861371714  0.0564795056144558  0.3750000000000000
  0.2781740193276515  0.7223788549099083  0.8750000000000000
  0.1114943234709861  0.2224138284021465  0.8750000000000000
  0.4448161591924692  0.2224219453163763  0.8750000000000000
  0.6114822802462466  0.7223224731923965  0.8750000000000000
  0.9448256059301553  0.7223524714494033  0.8750000000000000
  0.7781240960531678  0.2224286020134741  0.8750000000000000
  0.1106800606512495  0.7220066969924243  0.3750000000000000
  0.4442212131340448  0.7275329901387653  0.3750000000000000
  0.2668704768770821  0.2090990155581452  0.3750000000000000
  0.7855010945936490  0.7319108604232779  0.3750000000000000
  0.6130929980088812  0.2139259672540791  0.3750000000000000
  0.9451132861371714  0.2219671138561493  0.3750000000000000
  0.1114278630548657  0.3890554787398052  0.8750000000000000
  0.2781740193276515  0.8891284977508300  0.8750000000000000
  0.6114952021107884  0.8891140099649324  0.8750000000000000
  0.4448085497671176  0.3890709415502511  0.8750000000000000
  0.9448382527750548  0.8891149339462361  0.8750000000000000
  0.1100261098683741  0.8872300587548219  0.3750000000000000
  0.7780446348466046  0.3890693711884490  0.8750000000000000
  0.4445596080303950  0.8889464706818307  0.3750000000000000
  0.2668704768770821  0.3911047946522406  0.3750000000000000
  0.2751585373055524  0.5585091584113152  0.3750000000000000
  0.6263609534363190  0.3722189263125110  0.3750000000000000
  0.7798624471303254  0.8925925652862536  0.3750000000000000
  0.9459435840384697  0.3882052774323487  0.3750000000000000
  0.1114683869663144  0.5557424561239123  0.8750000000000000
  0.2781910599108735  0.0557113865267291  0.8750000000000000
  0.7780996715734347  0.5557165024534217  0.8750000000000000
  0.6114952021107884  0.0557145254790598  0.8750000000000000
  0.9448428872054352  0.0556961929607021  0.8750000000000000
  0.0553069937204166  0.1109568046861805  0.1253420961715393
  0.5555268360109040  0.6109760130243035  0.1220052390971267
  0.3886723988304842  0.1110804674050718  0.1243232033111514
  0.8884737413100651  0.6109035373216387  0.1245140645233130
  0.7219364884059757  0.1109108411840658  0.1248918197448316
  0.0551482972840279  0.7775478276561331  0.6247610852012350
  0.3885835851514006  0.7775518476394867  0.6249176929329999
  0.2221927350251270  0.2777630341792069  0.6255931075704101
  0.7219077187125884  0.7776170993492577  0.6260496274884262
  0.5555268360109040  0.2778841563199739  0.6279947609028392
  0.8887057943962057  0.2776495607212682  0.6249828118712158
  0.2219540978537443  0.7776437155935492  0.1253261084152725
  0.0553069937204166  0.2776835223675875  0.1253420961715393
  0.3888191901912858  0.2779175900606577  0.1217113603112084
  0.5553606382718816  0.7776443996446892  0.1244229474093864
  0.8885538625857167  0.7776429461349832  0.1246536921105255
  0.7219077187125884  0.2776239526965982  0.1239503725115623
  0.0552437824405003  0.9443592181580350  0.6247190203604430
  0.3885835851514006  0.9443650708452913  0.6249176929329999
  0.2220926468254500  0.4443327162968043  0.6252147888860079
  0.5554763314644487  0.4444048323988887  0.6284714366122807
  0.7219364884059757  0.9443589805552558  0.6251081802551319
  0.8885538625857167  0.4442442497839889  0.6253463078895288
  0.0552437824405003  0.4442178976158737  0.1252809796395368
  0.2220461424573988  0.9443949419006816  0.1252173420847190
  0.5553660620991147  0.9443496977162573  0.1249553674575983
  0.3888191901912858  0.4442349334638404  0.1217113603112084
  0.8887057943962057  0.9443895670082934  0.1250171881286779
  0.7217115831010572  0.4441072828253133  0.1223750119310394
  0.2220461424573988  0.6109845338900750  0.6247826579150793
  0.0553069937204166  0.1109568046861752  0.6246579038283819
  0.5555268360109040  0.6109760130243035  0.6279947609028392
  0.3886723988304842  0.1110804674050718  0.6256767966888298
  0.8884737413100591  0.6109035373216387  0.6254859354766991
  0.0551482972840279  0.6109338029611818  0.1252389147988052
  0.7219364884059757  0.1109108411840658  0.6251081802551319
  0.2220926468254280  0.1110932638618683  0.1247852111140334
  0.3886723988304842  0.6109252647588201  0.1243232033111514
  0.7217115831010572  0.6109376336089291  0.1223750119310394
  0.5553606382718816  0.1110495719606359  0.1244229474093864
  0.3886723988304842  0.6109252647588201  0.6256767966888298
  0.8886927157380361  0.1110130245357330  0.1252289490990524
  0.2219540978537605  0.7776437155935492  0.6246738915849109
  0.0553069937204166  0.2776835223675875  0.6246579038283819
  0.3888191901912858  0.2779175900606577  0.6282886396888133
  0.5553606382718816  0.7776443996446892  0.6255770525906311
  0.8885538625855703  0.7776429461349832  0.6253463078895288
  0.7219077187125884  0.2776239526965982  0.6260496274884262
  0.0551482972840279  0.7775478276561331  0.1252389147988052
  0.3885835851514006  0.7775518476394867  0.1250823070670916
  0.2221927350251270  0.2777630341792069  0.1244068924294536
  0.7219077187125884  0.7776170993492577  0.1239503725115623
  0.5555268360109040  0.2778841563199739  0.1220052390971267
  0.8887057943962057  0.2776495607212682  0.1250171881286779
  0.0552437824405003  0.4442178976158737  0.6247190203604430
  0.2220461424573988  0.9443949419006816  0.6247826579150793
  0.5553660620991147  0.9443496977162573  0.6250446325426292
  0.3888191901912858  0.4442349334638404  0.6282886396888133
  0.8887057943962057  0.9443895670082934  0.6249828118712158
  0.0552437824405003  0.9443592181580350  0.1252809796395368
  0.7217115831010572  0.4441072828253133  0.6276249880689283
  0.3885835851514006  0.9443650708452913  0.1250823070670916
  0.2220926468254500  0.4443327162967859  0.1247852111140334
  0.2220461424573988  0.6109845338900750  0.1252173420847190
  0.5554763314644487  0.4444048323988887  0.1215285633877620
  0.7219364884059757  0.9443589805552558  0.1248918197448316
  0.8885538625855703  0.4442442497839889  0.1246536921105255
  0.0551482972840279  0.6109338029611818  0.6247610852012350
  0.2220926468254280  0.1110932638618683  0.6252147888860079
  0.7217115831010572  0.6109376336089291  0.6276249880689283
  0.5553606382718816  0.1110495719606359  0.6255770525906311
  0.8886927157380361  0.1110130245357330  0.6247710509009019
 
  0.00000000E+00  0.00000000E+00  0.00000000E+00
  0.00000000E+00  0.00000000E+00  0.00000000E+00
  0.00000000E+00  0.00000000E+00  0.00000000E+00
  0.00000000E+00  0.00000000E+00  0.00000000E+00
  0.00000000E+00  0.00000000E+00  0.00000000E+00
  0.00000000E+00  0.00000000E+00  0.00000000E+00
  0.00000000E+00  0.00000000E+00  0.00000000E+00
  0.00000000E+00  0.00000000E+00  0.00000000E+00
  0.00000000E+00  0.00000000E+00  0.00000000E+00
  0.00000000E+00  0.00000000E+00  0.00000000E+00
  0.00000000E+00  0.00000000E+00  0.00000000E+00
  0.00000000E+00  0.00000000E+00  0.00000000E+00
  0.00000000E+00  0.00000000E+00  0.00000000E+00
  0.00000000E+00  0.00000000E+00  0.00000000E+00
  0.00000000E+00  0.00000000E+00  0.00000000E+00
  0.00000000E+00  0.00000000E+00  0.00000000E+00
  0.00000000E+00  0.00000000E+00  0.00000000E+00
  0.00000000E+00  0.00000000E+00  0.00000000E+00
  0.00000000E+00  0.00000000E+00  0.00000000E+00
  0.00000000E+00  0.00000000E+00  0.00000000E+00
  0.00000000E+00  0.00000000E+00  0.00000000E+00
  0.00000000E+00  0.00000000E+00  0.00000000E+00
  0.00000000E+00  0.00000000E+00  0.00000000E+00
  0.00000000E+00  0.00000000E+00  0.00000000E+00
  0.00000000E+00  0.00000000E+00  0.00000000E+00
  0.00000000E+00  0.00000000E+00  0.00000000E+00
  0.00000000E+00  0.00000000E+00  0.00000000E+00
  0.00000000E+00  0.00000000E+00  0.00000000E+00
  0.00000000E+00  0.00000000E+00  0.00000000E+00
  0.00000000E+00  0.00000000E+00  0.00000000E+00
  0.00000000E+00  0.00000000E+00  0.00000000E+00
  0.00000000E+00  0.00000000E+00  0.00000000E+00
  0.00000000E+00  0.00000000E+00  0.00000000E+00
  0.00000000E+00  0.00000000E+00  0.00000000E+00
  0.00000000E+00  0.00000000E+00  0.00000000E+00
  0.00000000E+00  0.00000000E+00  0.00000000E+00
  0.00000000E+00  0.00000000E+00  0.00000000E+00
  0.00000000E+00  0.00000000E+00  0.00000000E+00
  0.00000000E+00  0.00000000E+00  0.00000000E+00
  0.00000000E+00  0.00000000E+00  0.00000000E+00
  0.00000000E+00  0.00000000E+00  0.00000000E+00
  0.00000000E+00  0.00000000E+00  0.00000000E+00
  0.00000000E+00  0.00000000E+00  0.00000000E+00
  0.00000000E+00  0.00000000E+00  0.00000000E+00
  0.00000000E+00  0.00000000E+00  0.00000000E+00
  0.00000000E+00  0.00000000E+00  0.00000000E+00
  0.00000000E+00  0.00000000E+00  0.00000000E+00
  0.00000000E+00  0.00000000E+00  0.00000000E+00
  0.00000000E+00  0.00000000E+00  0.00000000E+00
  0.00000000E+00  0.00000000E+00  0.00000000E+00
  0.00000000E+00  0.00000000E+00  0.00000000E+00
  0.00000000E+00  0.00000000E+00  0.00000000E+00
  0.00000000E+00  0.00000000E+00  0.00000000E+00
  0.00000000E+00  0.00000000E+00  0.00000000E+00
  0.00000000E+00  0.00000000E+00  0.00000000E+00
  0.00000000E+00  0.00000000E+00  0.00000000E+00
  0.00000000E+00  0.00000000E+00  0.00000000E+00
  0.00000000E+00  0.00000000E+00  0.00000000E+00
  0.00000000E+00  0.00000000E+00  0.00000000E+00
  0.00000000E+00  0.00000000E+00  0.00000000E+00
  0.00000000E+00  0.00000000E+00  0.00000000E+00
  0.00000000E+00  0.00000000E+00  0.00000000E+00
  0.00000000E+00  0.00000000E+00  0.00000000E+00
  0.00000000E+00  0.00000000E+00  0.00000000E+00
  0.00000000E+00  0.00000000E+00  0.00000000E+00
  0.00000000E+00  0.00000000E+00  0.00000000E+00
  0.00000000E+00  0.00000000E+00  0.00000000E+00
  0.00000000E+00  0.00000000E+00  0.00000000E+00
  0.00000000E+00  0.00000000E+00  0.00000000E+00
  0.00000000E+00  0.00000000E+00  0.00000000E+00
  0.00000000E+00  0.00000000E+00  0.00000000E+00
  0.00000000E+00  0.00000000E+00  0.00000000E+00
  0.00000000E+00  0.00000000E+00  0.00000000E+00
  0.00000000E+00  0.00000000E+00  0.00000000E+00
  0.00000000E+00  0.00000000E+00  0.00000000E+00
  0.00000000E+00  0.00000000E+00  0.00000000E+00
  0.00000000E+00  0.00000000E+00  0.00000000E+00
  0.00000000E+00  0.00000000E+00  0.00000000E+00
  0.00000000E+00  0.00000000E+00  0.00000000E+00
  0.00000000E+00  0.00000000E+00  0.00000000E+00
  0.00000000E+00  0.00000000E+00  0.00000000E+00
  0.00000000E+00  0.00000000E+00  0.00000000E+00
  0.00000000E+00  0.00000000E+00  0.00000000E+00
  0.00000000E+00  0.00000000E+00  0.00000000E+00
  0.00000000E+00  0.00000000E+00  0.00000000E+00
  0.00000000E+00  0.00000000E+00  0.00000000E+00
  0.00000000E+00  0.00000000E+00  0.00000000E+00
  0.00000000E+00  0.00000000E+00  0.00000000E+00
  0.00000000E+00  0.00000000E+00  0.00000000E+00
  0.00000000E+00  0.00000000E+00  0.00000000E+00
  0.00000000E+00  0.00000000E+00  0.00000000E+00
  0.00000000E+00  0.00000000E+00  0.00000000E+00
  0.00000000E+00  0.00000000E+00  0.00000000E+00
  0.00000000E+00  0.00000000E+00  0.00000000E+00
  0.00000000E+00  0.00000000E+00  0.00000000E+00
  0.00000000E+00  0.00000000E+00  0.00000000E+00
  0.00000000E+00  0.00000000E+00  0.00000000E+00
  0.00000000E+00  0.00000000E+00  0.00000000E+00
  0.00000000E+00  0.00000000E+00  0.00000000E+00
  0.00000000E+00  0.00000000E+00  0.00000000E+00
  0.00000000E+00  0.00000000E+00  0.00000000E+00
  0.00000000E+00  0.00000000E+00  0.00000000E+00
  0.00000000E+00  0.00000000E+00  0.00000000E+00
  0.00000000E+00  0.00000000E+00  0.00000000E+00
  0.00000000E+00  0.00000000E+00  0.00000000E+00
  0.00000000E+00  0.00000000E+00  0.00000000E+00
  0.00000000E+00  0.00000000E+00  0.00000000E+00
  0.00000000E+00  0.00000000E+00  0.00000000E+00
  0.00000000E+00  0.00000000E+00  0.00000000E+00
  0.00000000E+00  0.00000000E+00  0.00000000E+00
  0.00000000E+00  0.00000000E+00  0.00000000E+00
  0.00000000E+00  0.00000000E+00  0.00000000E+00
  0.00000000E+00  0.00000000E+00  0.00000000E+00
  0.00000000E+00  0.00000000E+00  0.00000000E+00
  0.00000000E+00  0.00000000E+00  0.00000000E+00
  0.00000000E+00  0.00000000E+00  0.00000000E+00
  0.00000000E+00  0.00000000E+00  0.00000000E+00
  0.00000000E+00  0.00000000E+00  0.00000000E+00
  0.00000000E+00  0.00000000E+00  0.00000000E+00
  0.00000000E+00  0.00000000E+00  0.00000000E+00
  0.00000000E+00  0.00000000E+00  0.00000000E+00
  0.00000000E+00  0.00000000E+00  0.00000000E+00
  0.00000000E+00  0.00000000E+00  0.00000000E+00
  0.00000000E+00  0.00000000E+00  0.00000000E+00
  0.00000000E+00  0.00000000E+00  0.00000000E+00
  0.00000000E+00  0.00000000E+00  0.00000000E+00
  0.00000000E+00  0.00000000E+00  0.00000000E+00
  0.00000000E+00  0.00000000E+00  0.00000000E+00
  0.00000000E+00  0.00000000E+00  0.00000000E+00
  0.00000000E+00  0.00000000E+00  0.00000000E+00
  0.00000000E+00  0.00000000E+00  0.00000000E+00
  0.00000000E+00  0.00000000E+00  0.00000000E+00
  0.00000000E+00  0.00000000E+00  0.00000000E+00
  0.00000000E+00  0.00000000E+00  0.00000000E+00
  0.00000000E+00  0.00000000E+00  0.00000000E+00
  0.00000000E+00  0.00000000E+00  0.00000000E+00
  0.00000000E+00  0.00000000E+00  0.00000000E+00
  0.00000000E+00  0.00000000E+00  0.00000000E+00
  0.00000000E+00  0.00000000E+00  0.00000000E+00
  0.00000000E+00  0.00000000E+00  0.00000000E+00
  0.00000000E+00  0.00000000E+00  0.00000000E+00
  0.00000000E+00  0.00000000E+00  0.00000000E+00
  0.00000000E+00  0.00000000E+00  0.00000000E+00
  0.00000000E+00  0.00000000E+00  0.00000000E+00
  0.00000000E+00  0.00000000E+00  0.00000000E+00
  0.00000000E+00  0.00000000E+00  0.00000000E+00
  0.00000000E+00  0.00000000E+00  0.00000000E+00
  0.00000000E+00  0.00000000E+00  0.00000000E+00
  0.00000000E+00  0.00000000E+00  0.00000000E+00
  0.00000000E+00  0.00000000E+00  0.00000000E+00
  0.00000000E+00  0.00000000E+00  0.00000000E+00
  0.00000000E+00  0.00000000E+00  0.00000000E+00
  0.00000000E+00  0.00000000E+00  0.00000000E+00
  0.00000000E+00  0.00000000E+00  0.00000000E+00
  0.00000000E+00  0.00000000E+00  0.00000000E+00
  0.00000000E+00  0.00000000E+00  0.00000000E+00
  0.00000000E+00  0.00000000E+00  0.00000000E+00
  0.00000000E+00  0.00000000E+00  0.00000000E+00
  0.00000000E+00  0.00000000E+00  0.00000000E+00
  0.00000000E+00  0.00000000E+00  0.00000000E+00
  0.00000000E+00  0.00000000E+00  0.00000000E+00
  0.00000000E+00  0.00000000E+00  0.00000000E+00
  0.00000000E+00  0.00000000E+00  0.00000000E+00
  0.00000000E+00  0.00000000E+00  0.00000000E+00
  0.00000000E+00  0.00000000E+00  0.00000000E+00
  0.00000000E+00  0.00000000E+00  0.00000000E+00
  0.00000000E+00  0.00000000E+00  0.00000000E+00
  0.00000000E+00  0.00000000E+00  0.00000000E+00
  0.00000000E+00  0.00000000E+00  0.00000000E+00
  0.00000000E+00  0.00000000E+00  0.00000000E+00
  0.00000000E+00  0.00000000E+00  0.00000000E+00
  0.00000000E+00  0.00000000E+00  0.00000000E+00
  0.00000000E+00  0.00000000E+00  0.00000000E+00
  0.00000000E+00  0.00000000E+00  0.00000000E+00
  0.00000000E+00  0.00000000E+00  0.00000000E+00
  0.00000000E+00  0.00000000E+00  0.00000000E+00
  0.00000000E+00  0.00000000E+00  0.00000000E+00
  0.00000000E+00  0.00000000E+00  0.00000000E+00
  0.00000000E+00  0.00000000E+00  0.00000000E+00
  0.00000000E+00  0.00000000E+00  0.00000000E+00
  0.00000000E+00  0.00000000E+00  0.00000000E+00
  0.00000000E+00  0.00000000E+00  0.00000000E+00
  0.00000000E+00  0.00000000E+00  0.00000000E+00
  0.00000000E+00  0.00000000E+00  0.00000000E+00
  0.00000000E+00  0.00000000E+00  0.00000000E+00
  0.00000000E+00  0.00000000E+00  0.00000000E+00
  0.00000000E+00  0.00000000E+00  0.00000000E+00
  0.00000000E+00  0.00000000E+00  0.00000000E+00
  0.00000000E+00  0.00000000E+00  0.00000000E+00
  0.00000000E+00  0.00000000E+00  0.00000000E+00
  0.00000000E+00  0.00000000E+00  0.00000000E+00
  0.00000000E+00  0.00000000E+00  0.00000000E+00
  0.00000000E+00  0.00000000E+00  0.00000000E+00
  0.00000000E+00  0.00000000E+00  0.00000000E+00
  0.00000000E+00  0.00000000E+00  0.00000000E+00
  0.00000000E+00  0.00000000E+00  0.00000000E+00
  0.00000000E+00  0.00000000E+00  0.00000000E+00
  0.00000000E+00  0.00000000E+00  0.00000000E+00
  0.00000000E+00  0.00000000E+00  0.00000000E+00
  0.00000000E+00  0.00000000E+00  0.00000000E+00
  0.00000000E+00  0.00000000E+00  0.00000000E+00
  0.00000000E+00  0.00000000E+00  0.00000000E+00
  0.00000000E+00  0.00000000E+00  0.00000000E+00
  0.00000000E+00  0.00000000E+00  0.00000000E+00
  0.00000000E+00  0.00000000E+00  0.00000000E+00
  0.00000000E+00  0.00000000E+00  0.00000000E+00
  0.00000000E+00  0.00000000E+00  0.00000000E+00
  0.00000000E+00  0.00000000E+00  0.00000000E+00
  0.00000000E+00  0.00000000E+00  0.00000000E+00
  0.00000000E+00  0.00000000E+00  0.00000000E+00
  0.00000000E+00  0.00000000E+00  0.00000000E+00
  0.00000000E+00  0.00000000E+00  0.00000000E+00
  0.00000000E+00  0.00000000E+00  0.00000000E+00
  0.00000000E+00  0.00000000E+00  0.00000000E+00
  0.00000000E+00  0.00000000E+00  0.00000000E+00
  0.00000000E+00  0.00000000E+00  0.00000000E+00
  0.00000000E+00  0.00000000E+00  0.00000000E+00
  0.00000000E+00  0.00000000E+00  0.00000000E+00
  0.00000000E+00  0.00000000E+00  0.00000000E+00
  0.00000000E+00  0.00000000E+00  0.00000000E+00
  0.00000000E+00  0.00000000E+00  0.00000000E+00
  0.00000000E+00  0.00000000E+00  0.00000000E+00
  0.00000000E+00  0.00000000E+00  0.00000000E+00
  0.00000000E+00  0.00000000E+00  0.00000000E+00
  0.00000000E+00  0.00000000E+00  0.00000000E+00
  0.00000000E+00  0.00000000E+00  0.00000000E+00
  0.00000000E+00  0.00000000E+00  0.00000000E+00
  0.00000000E+00  0.00000000E+00  0.00000000E+00
  0.00000000E+00  0.00000000E+00  0.00000000E+00
  0.00000000E+00  0.00000000E+00  0.00000000E+00
  0.00000000E+00  0.00000000E+00  0.00000000E+00
  0.00000000E+00  0.00000000E+00  0.00000000E+00
  0.00000000E+00  0.00000000E+00  0.00000000E+00
  0.00000000E+00  0.00000000E+00  0.00000000E+00
  0.00000000E+00  0.00000000E+00  0.00000000E+00
  0.00000000E+00  0.00000000E+00  0.00000000E+00
  0.00000000E+00  0.00000000E+00  0.00000000E+00
  0.00000000E+00  0.00000000E+00  0.00000000E+00
  0.00000000E+00  0.00000000E+00  0.00000000E+00
  0.00000000E+00  0.00000000E+00  0.00000000E+00
  0.00000000E+00  0.00000000E+00  0.00000000E+00
  0.00000000E+00  0.00000000E+00  0.00000000E+00
  0.00000000E+00  0.00000000E+00  0.00000000E+00
  0.00000000E+00  0.00000000E+00  0.00000000E+00
  0.00000000E+00  0.00000000E+00  0.00000000E+00
  0.00000000E+00  0.00000000E+00  0.00000000E+00
  0.00000000E+00  0.00000000E+00  0.00000000E+00