 B Sb N 
 1.0
 17.527899999999772   0.000000000000000   0.000000000000000
 -8.763949999999658  15.179606674993195   0.000000000000000
  0.000000000000001   0.000000000000002  15.000000000000000
 B Sb N 
  49   1  47
Cartesian
  7.525293720902248  14.465225769247997   1.665626134472775 
 15.011153030428167   1.422335840974184   1.666523979749385 
 13.756457769459399   3.582499485604680   1.666624113198420 
 12.520181117219810   5.756673298945273   1.666333149565020 
 11.326858004376788   7.949272577953576   1.667214056769120 
 10.101920727714194  10.149646525012850   1.666418547667590 
  8.831318455406191  12.342608193614241   1.665699612885015 
 -7.490268537814337  14.471866847354347   1.665697798434780 
 -0.007297246965548   1.443410172845799   1.665667560600135 
 -1.281654389881679   3.590200174133101   1.665327754464660 
 -2.538252257627627   5.755091536301324   1.665319573891335 
 -3.768787177488632   7.939538346150448   1.666503732248625 
 -4.984405538224427  10.129684717345201   1.666855397233545 
 -6.220611904102920  12.309858471710852   1.666187205896580 
 -4.990573515603542  14.461792055934847   1.664604788364705 
  2.491832041276969   1.424932039547541   1.665359625654870 
  1.222529714781714   3.612244907132998   1.665557291369190 
 -0.064473322060030   5.762785344914421   1.664771753582535 
 -1.334905366261291   7.937379237326219   1.665009841853625 
 -2.540567199926643  10.119737783328796   1.666461129590670 
 -3.741725540405242  12.295709018944972   1.664329054665420 
 -2.491641581942329  14.449834229389527   1.662458900963955 
  5.017062617528938   1.429930425014136   1.664593488067935 
  3.702025323158005   3.541815158933966   1.666297268317320 
  2.431525310043173   5.836937537012805   1.667853419837535 
  1.075887946549061   7.950703408952770   1.665751299128955 
 -0.105376773955570  10.119737783328796   1.664593957109460 
 -1.254761598122243  12.285004762684286   1.663258466906865 
  0.016444459978875  14.421763659365604   1.660481867320620 
  7.530942283680140   1.410171710984613   1.662719151224760 
  6.285880554752737   3.555528125843315   1.665287709622440 
  4.959809893797639   5.505776265968105   1.667219579259570 
  3.270222006026609   8.732835363350803   1.671146670114450 
  2.392519959741387  10.015209354435214   1.665843682418475 
  1.263861730503842  12.235244990073554   1.662413721078945 
  2.510803039722486  14.414160985557467   1.662688130902665 
 10.025246608671861   1.411374093175952   1.663133001622485 
  8.781647860353200   3.586581344616155   1.664671755422025 
  7.556180161759640   5.775740153213163   1.666524480982320 
  6.649247723512540   8.149013217161601   1.669188200326485 
  5.151784610988902  10.155029428780084   1.668351530355675 
  3.753413750193705  12.229520880539420   1.664278751623980 
  5.003384529373578  14.428553416430852   1.665378295379820 
 12.515373310235093   1.411763351486103   1.666100993075190 
 11.271776174714136   3.582154263355975   1.666071885186120 
 10.048308555077666   5.761670479754912   1.666105786378350 
  8.916661325096436   7.966633676268784   1.666598054162250 
  7.688477096091489  10.235197154959939   1.665730105568700 
  6.298017957505529  12.310099681404228   1.664521029129345 
  4.818539058696508   7.486420378970350   1.663440245060205 
  8.795727603995157  13.769732538445950   1.665459851731965 
 16.273715879575470   0.723010025384380   1.665798012533280 
 15.003044646904824   2.862800675570428   1.666108362646170 
 13.752335057008432   5.023911948948650   1.665817934902485 
 12.536377925710417   7.202447656329809   1.666692978318810 
 11.319688547475941   9.398759659191136   1.667051358816705 
 10.071200153526956  11.595283859175401   1.666393352911740 
 -6.238111923711827  13.749608438135047   1.665375252130680 
  1.246346579077907   0.721272301579127   1.665431521204830 
 -0.023616528127446   2.882403699610040   1.665103980595920 
 -1.300110103355392   5.025098710656393   1.664606495432685 
 -2.557141264679928   7.196370403032398   1.665250802492745 
 -3.771022465217392   9.386811544874361   1.666675201408365 
 -4.985627792509210  11.575489160711228   1.665666584319975 
 -3.744921851142849  13.738508262474770   1.663121872338405 
  3.758227645121125   0.718572716022691   1.664694249378495 
  2.458029994694583   2.847833127268648   1.665148429361070 
  1.199088139195721   5.059868891664398   1.665344845663725 
 -0.128739608778551   7.191515930112935   1.664085151640370 
 -1.340492446085363   9.380429295621296   1.665702641681685 
 -2.512866347898147  11.567240072309126   1.664664074666970 
 -1.249394969523046  13.728924806804255   1.660804717868895 
  6.268956190203417   0.710583791624733   1.662786436613715 
  5.004167182023196   2.864047987501061   1.665034688317830 
  3.660546905901005   4.949189865207576   1.668027107699985 
  2.330538238093935   7.292683420668078   1.668885922251120 
  1.062235610928332   9.383885618054752   1.663894278587340 
 -0.030345735907512  11.564700062105677   1.663354584633900 
  1.260109370912230  13.696491995692652   1.660468531138215 
  8.777795130703431   0.690095754924347   1.660944657706515 
  7.536872531994534   2.849541279472628   1.663901544027345 
  6.300893135532919   4.991204354525166   1.666476391516350 
  2.503120600453544  11.502508098982069   1.663855133745270 
  3.759963343022736  13.697036028760779   1.663818340607235 
 11.270795539130235   0.688432807324191   1.663511905220625 
 10.025259715143561   2.859820182232929   1.664549444097465 
  8.794235140690922   5.035161678634262   1.665377673456060 
  7.710588920151853   7.229169678221475   1.667013654100245 
  6.481540519729575   9.546927572822565   1.667817773270325 
  5.056799188858690  11.581502092175729   1.664673948508665 
  6.279617203138284  13.747147180642139   1.664869262901660 
 13.765667718649265   0.697073272574076   1.666160701962420 
 12.513394915354867   2.857031723016346   1.666505889408495 
 11.279412694041893   5.026507561839153   1.666042232320920 
 10.111833620818519   7.210230739393181   1.666456408113600 
  8.885917840280824   9.427035712563349   1.665590893818180 
  7.599547924546593  11.649193868805913   1.664353700397600 
