 N B O C 
 1.0
 17.527899999999772   0.000000000000000   0.000000000000000
 -8.763949999999658  15.179606674993195   0.000000000000000
  0.000000000000001   0.000000000000002  15.000000000000000
 N B O C 
  48  48   1   1
Cartesian
  8.754993920099366  13.724929272795965   1.661011881403080 
 16.281543176116351   0.719598634818036   1.654662167270355 
 15.037984111519714   2.890631231158356   1.658854385737365 
 13.784875142678199   5.059868891664398   1.656832473539775 
 12.525581364210510   7.226588038904358   1.669205719594650 
 11.257833850456196   9.395565505131875   1.674131319766110 
 10.000936343929041  11.560577924716476   1.665826953808725 
 -6.269967867380071  13.739719606413669   1.662326126264160 
  1.255321831002787   0.735116174374873   1.661011881403080 
  0.018036390945880   2.910643139354593   1.654341477293580 
 -1.236114173439573   5.070406229834478   1.647147292237920 
 -2.505387771822035   7.233379575145454   1.632514825170645 
 -3.770069835971970   9.401658812359187   1.660537599958470 
 -5.022918635360259  11.570564570397838   1.667881770271515 
 -3.767899885433367  13.744320809722513   1.667881770271515 
  3.752676293069674   0.738274057725338   1.665826953808725 
  2.520798036008444   2.927086826842978   1.682653259891070 
  1.284455929951358   5.107751007634997   1.709690250165810 
 -0.005203036751994   7.247184184511213   1.624539167200455 
 -1.276496403670187   9.408695688129722   1.617926130301980 
 -2.521986388242904  11.575821490516146   1.659464555155260 
 -1.263148000863556  13.743774801370725   1.660537599958470 
  6.256080801202206   0.732275096911769   1.674131319766110 
  5.013282118160278   2.910372026686763   1.667675832537555 
  3.793060646114133   5.130850558014367   1.637281672126305 
  2.492105973725466   7.322360012935285   1.929648367117830 
  1.205848964812358   9.423554745934981   1.666484016188460 
 -0.022455397893316  11.580758424910247   1.617926130301980 
  1.246977933119314  13.732667624713155   1.632514825170645 
  8.768344144050841   0.718862277529678   1.669205719594650 
  7.527919878204957   2.882299272329565   1.689786579267120 
  6.298955239154928   5.040943036976840   1.616840228159835 
  3.668665486327145   9.360220866920221   1.929648367117830 
  2.485115158254225  11.560541825305549   1.624539167200455 
  3.754804597058453  13.714931116816519   1.647147292237920 
 11.274400284999706   0.711641448168923   1.656832473539775 
 10.032894329537966   2.879233237969557   1.672094659751625 
  8.793493420956640   5.042826176654671   1.671238093237920 
  7.547855176855675   7.204101182644162   1.616840228159835 
  6.217045683116756   9.329315798920009   1.637281672126305 
  4.982748122479871  11.513380986360234   1.709690250165810 
  6.252289581780312  13.708686413128031   1.654341477293580 
 13.779594262943116   0.711036077695030   1.658854385737365 
 12.534561178985577   2.882919699510146   1.667225263041480 
 11.286920323614810   5.051269973692262   1.672094659751625 
 10.031777834303679   7.219108467197649   1.689786579267120 
  8.750147235845066   9.382812271548554   1.667675832537555 
  7.489429753214664  11.533009405142414   1.682653259891070 
  7.504881306694051  14.446028176950772   1.656076335294330 
 15.031188367803754   1.441497586910765   1.658497615075590 
 13.785184016263202   3.610983135636309   1.662384533981400 
 12.533831955924878   5.779818869494080   1.666539774995625 
 11.274555363630977   7.948730268476354   1.680150150756825 
 10.000953049922863  10.114009347376443   1.670730583620510 
  8.744075337177568  12.272909783584140   1.670309289411495 
 -7.520458151734958  14.461696775636012   1.660931969776965 
  0.005780981982535   1.457205403494170   1.656076335294330 
 -1.238658378222444   3.622798833438559   1.654028196175680 
 -2.493466206718300   5.787095362210648   1.643385016842390 
 -3.757805611089156   7.955015128544602   1.654116135376980 
 -5.022039654772698  10.123599204056530   1.669410875388300 
 -6.275131040419708  12.291347908092101   1.665042040399245 
 -5.018217341709517  14.468386294987431   1.665042040399245 
  2.507353731311022   1.470591089560697   1.670309289411495 
  1.271080507433569   3.650670274225265   1.676733977741820 
  0.013569586848998   5.803626596815631   1.665132321559935 
 -1.261882521608606   7.963426945778248   1.617243855221355 
 -2.525032205052361  10.130106875473231   1.645698491691255 
 -3.772738536438519  12.297949846897344   1.667284218449745 
 -2.514346202153035  14.467051673771532   1.669410875388300 
  5.005455209698297   1.461553278976602   1.670730583620510 
  3.773675490635931   3.663214169479037   1.668545834513145 
  2.539419434618961   5.852317464224207   1.784301305853150 
  1.228138588328122   7.992539349608762   1.702051485578760 
 -0.036707013544769  10.140951041463731   1.625287051554930 
 -1.271478286059192  12.301325953166266   1.645698491691255 
 -0.004180280675499  14.456484913368278   1.654116135376980 
  7.517443055162786   1.441220860436744   1.680150150756825 
  6.279831675666465   3.605656793159859   1.673271776420010 
  5.081837407030861   5.788529704568512   1.449455005638975 
  2.456312603995035  10.119737783328796   1.702051485578760 
  1.236496416648448  12.290746203369142   1.617243855221355 
  2.505463012504134  14.445494753344372   1.643385016842390 
 10.025413721368590   1.435111040610226   1.666539774995625 
  8.783544214543230   3.599882666542304   1.678791351684885 
  7.549674143119915   5.760951838478138   1.627009333938060 
  6.291872642450262   7.884372211293653   1.449455005638975 
  4.965421835932033  10.054276882612655   1.784301305853150 
  3.744664440163907  12.266072450615718   1.665132321559935 
  5.007202701991186  14.440947561385380   1.654028196175680 
 12.529356593694047   1.435826234208087   1.662384533981400 
 11.283722734957630   3.605097878813373   1.669622016511590 
 10.038149981063416   5.772923597624091   1.678791351684885 
  8.781293171280872   7.938315196771351   1.673271776420010 
  7.478368928698025  10.079931430699732   1.668545834513145 
  6.237934769057799  12.253514209148253   1.676733977741820 
  5.218700590813584   7.106733779434944   1.047188761622970 
  3.618966514655244   8.030346945888029   2.362538445016470 
