B N As                                  
   1.0000000000000000     
     8.7639499999999995  -15.1796066749929999    0.0000000000000000
     8.7639499999999995   15.1796066749929999    0.0000000000000000
     0.0000000000000000    0.0000000000000000   15.0000000000000000
   B    N    As
    48    48     1
Selective dynamics
Direct
  0.9057023637906593  0.9534417783513328  0.1188248529517739   T   T   T
  0.9043839064659370  0.0957657082539890  0.1186574962284249   T   T   T
  0.9040132498150659  0.2386107695051150  0.1172903078233754   T   T   T
  0.9042261726572407  0.3814921136107174  0.1157903594475970   T   T   T
  0.9053724209911436  0.5244634727566654  0.1147066348692374   T   T   T
  0.9070429520165878  0.6677833132398679  0.1152888726684774   T   T   T
  0.9075205559272710  0.8114300081012816  0.1173647520852285   T   T   T
  0.0480925615858730  0.9520554841321952  0.1191785139961822   T   T   T
  0.0467052537739800  0.0944417105583476  0.1188140384560095   T   T   T
  0.0463976404216774  0.2377226808311480  0.1161394422686818   T   T   T
  0.0469094691210187  0.3809368848171885  0.1137900555946914   T   T   T
  0.0481148000863358  0.5237795503399267  0.1140350448279455   T   T   T
  0.0489437799711422  0.6666345970752301  0.1158255651327349   T   T   T
  0.0489756941874139  0.8095113316619911  0.1178354218462476   T   T   T
  0.1906370458343596  0.9511743160737742  0.1178221515846922   T   T   T
  0.1887365955416468  0.0926479559926318  0.1173454427359469   T   T   T
  0.1874853246405498  0.2352292597023609  0.1134920104768062   T   T   T
  0.1886777673617669  0.3797775691752385  0.1077591098246855   T   T   T
  0.1909945701598267  0.5231618134024633  0.1071860741213035   T   T   T
  0.1915524795723115  0.6660563881444208  0.1110986115748944   T   T   T
  0.1913700110597002  0.8087747642965052  0.1155356769973160   T   T   T
  0.3335088581344642  0.9512036637664758  0.1158114953346679   T   T   T
  0.3323701434225360  0.0931019384083132  0.1152718205912617   T   T   T
  0.3285653923242191  0.2322292802916578  0.1101399404628437   T   T   T
  0.3271391525946691  0.3753641865778378  0.0999806893697722   T   T   T
  0.3338505070186168  0.5221816926573054  0.0955483008907649   T   T   T
  0.3344999523329813  0.6656278627554946  0.1025072126710920   T   T   T
  0.3340836221835786  0.8085891525961193  0.1111053872534527   T   T   T
  0.4763571692712112  0.9520312996793953  0.1140332393739333   T   T   T
  0.4756854157724883  0.0947757367215240  0.1146966609175828   T   T   T
  0.4742741322375230  0.2366821646183566  0.1082231433194392   T   T   T
  0.4654558236625809  0.3701208843102490  0.0964217508257313   T   T   T
  0.4779634344199469  0.6663004800708630  0.0955678646066846   T   T   T
  0.4769757965521463  0.8091500503765757  0.1072206913891828   T   T   T
  0.6192093890801048  0.9532391523695026  0.1138088965848846   T   T   T
  0.6186551759006581  0.0959285349505069  0.1157868865837368   T   T   T
  0.6181458842617892  0.2389251487521665  0.1118383697451891   T   T   T
  0.6178048746626478  0.3823446102917258  0.1028940590009461   T   T   T
  0.6300204444401923  0.5347090014291543  0.0964383388854532   T   T   T
  0.6248019158896003  0.6730402660041798  0.1000063569265271   T   T   T
  0.6203647162127925  0.8114731068404298  0.1077946086694305   T   T   T
  0.7624247444012101  0.9537519325737605  0.1161689629673294   T   T   T
  0.7615451440335603  0.0961449901977246  0.1172924496412035   T   T   T
  0.7611878845590522  0.2389752201222053  0.1158696342044658   T   T   T
  0.7612229061724098  0.3819981101525172  0.1118464312296676   T   T   T
  0.7634578789604956  0.5258711016501559  0.1082332563279066   T   T   T
  0.7679244301070722  0.6715961231684076  0.1101598134924829   T   T   T
  0.7649250200490194  0.8126665379297219  0.1135167179240321   T   T   T
  0.9534348178606761  0.9057305455663877  0.1190811386981098   T   T   T
  0.9521006050966768  0.0480501802722416  0.1193750112216971   T   T   T
  0.9515644655410687  0.1908305034492246  0.1179579128086733   T   T   T
  0.9517070201008305  0.3337998318955068  0.1162910346604514   T   T   T
  0.9525030491816983  0.4766056519191529  0.1155498315504745   T   T   T
  0.9534816359213599  0.6194203034664371  0.1158771905702785   T   T   T
  0.9538622497408520  0.7625719932824063  0.1174348293504853   T   T   T
  0.0957608609370583  0.9043894216957306  0.1185745641031013   T   T   T
  0.0944176748979170  0.0467119157878710  0.1190674683825968   T   T   T
  0.0934810116548428  0.1893614996741179  0.1169937593165941   T   T   T
  0.0942011871466134  0.3329714540465776  0.1128936868709592   T   T   T
  0.0957220706087260  0.4760578881072051  0.1119317547937923   T   T   T
  0.0962821698730367  0.6188073481681895  0.1140120721845776   T   T   T
  0.0962672653535753  0.7615988048223097  0.1166999042557669   T   T   T
  0.2385410148004516  0.9038759736280682  0.1166867585513166   T   T   T
  0.2375734979099586  0.0462851929454842  0.1174157088220847   T   T   T
  0.2350612099480735  0.1874089760265628  0.1144764686663331   T   T   T
  0.2344270265494909  0.3302170060621487  0.1076922043929992   T   T   T
  0.2387225750702193  0.4750830385149427  0.1032802683415975   T   T   T
  0.2393673275840130  0.6182601591568813  0.1064310331904452   T   T   T
  0.2390311857479483  0.7611096154498319  0.1125061499936005   T   T   T
  0.3813371779796935  0.9038598761817106  0.1140010555903749   T   T   T
  0.3807237670154827  0.0466606174310664  0.1158571485292239   T   T   T
  0.3794480442949116  0.1886525507701210  0.1114380922319987   T   T   T
  0.3743664127257503  0.3271639130799960  0.1028423902469458   T   T   T
  0.3774082757713110  0.4693740825689738  0.0900827276695521   T   T   T
  0.3827245461095957  0.6174116176941824  0.0951753568196822   T   T   T
  0.3818756946206667  0.7607665838273656  0.1064508884349503   T   T   T
  0.5240876035879560  0.9044253265186752  0.1119530620655149   T   T   T
  0.5235461233512848  0.0476458883548108  0.1155415417292395   T   T   T
  0.5228738250922953  0.1908284239078420  0.1118200295546327   T   T   T
  0.5215357537059485  0.3341201300481018  0.1009228932811149   T   T   T
  0.5307941840296804  0.6227771687286229  0.0901106703321512   T   T   T
  0.5250597580028372  0.7614338033897905  0.1033162369141000   T   T   T
  0.6671693336699540  0.9059499179509102  0.1129284069142850   T   T   T
  0.6663466766035836  0.0484455321980313  0.1162969287587498   T   T   T
  0.6657947317640791  0.1916031931170389  0.1150603646816227   T   T   T
  0.6650950461120183  0.3350597713311604  0.1087925051748876   T   T   T
  0.6660192316950081  0.4786170666445171  0.1009346436595551   T   T   T
  0.6729862247928587  0.6257933440876853  0.1028660383256418   T   T   T
  0.6699429077439735  0.7657418405817393  0.1077209133232733   T   T   T
  0.8107845221625528  0.9066734774664925  0.1170250089470226   T   T   T
  0.8093137068728004  0.0485842006576534  0.1179694068461470   T   T   T
  0.8087748726697106  0.1913728526075526  0.1173933810695289   T   T   T
  0.8085465783272153  0.3343556443352023  0.1150672595226232   T   T   T
  0.8093159052033051  0.4772796948681399  0.1118290006220915   T   T   T
  0.8114931295246869  0.6206955747433491  0.1114541076778480   T   T   T
  0.8127295719783271  0.7650789685633625  0.1144951685424638   T   T   T
  0.4939741218583530  0.5062698558168938  0.0637081255009483   T   T   T

  0.00000000E+00  0.00000000E+00  0.00000000E+00
  0.00000000E+00  0.00000000E+00  0.00000000E+00
  0.00000000E+00  0.00000000E+00  0.00000000E+00
  0.00000000E+00  0.00000000E+00  0.00000000E+00
  0.00000000E+00  0.00000000E+00  0.00000000E+00
  0.00000000E+00  0.00000000E+00  0.00000000E+00
  0.00000000E+00  0.00000000E+00  0.00000000E+00
  0.00000000E+00  0.00000000E+00  0.00000000E+00
  0.00000000E+00  0.00000000E+00  0.00000000E+00
  0.00000000E+00  0.00000000E+00  0.00000000E+00
  0.00000000E+00  0.00000000E+00  0.00000000E+00
  0.00000000E+00  0.00000000E+00  0.00000000E+00
  0.00000000E+00  0.00000000E+00  0.00000000E+00
  0.00000000E+00  0.00000000E+00  0.00000000E+00
  0.00000000E+00  0.00000000E+00  0.00000000E+00
  0.00000000E+00  0.00000000E+00  0.00000000E+00
  0.00000000E+00  0.00000000E+00  0.00000000E+00
  0.00000000E+00  0.00000000E+00  0.00000000E+00
  0.00000000E+00  0.00000000E+00  0.00000000E+00
  0.00000000E+00  0.00000000E+00  0.00000000E+00
  0.00000000E+00  0.00000000E+00  0.00000000E+00
  0.00000000E+00  0.00000000E+00  0.00000000E+00
  0.00000000E+00  0.00000000E+00  0.00000000E+00
  0.00000000E+00  0.00000000E+00  0.00000000E+00
  0.00000000E+00  0.00000000E+00  0.00000000E+00
  0.00000000E+00  0.00000000E+00  0.00000000E+00
  0.00000000E+00  0.00000000E+00  0.00000000E+00
  0.00000000E+00  0.00000000E+00  0.00000000E+00
  0.00000000E+00  0.00000000E+00  0.00000000E+00
  0.00000000E+00  0.00000000E+00  0.00000000E+00
  0.00000000E+00  0.00000000E+00  0.00000000E+00
  0.00000000E+00  0.00000000E+00  0.00000000E+00
  0.00000000E+00  0.00000000E+00  0.00000000E+00
  0.00000000E+00  0.00000000E+00  0.00000000E+00
  0.00000000E+00  0.00000000E+00  0.00000000E+00
  0.00000000E+00  0.00000000E+00  0.00000000E+00
  0.00000000E+00  0.00000000E+00  0.00000000E+00
  0.00000000E+00  0.00000000E+00  0.00000000E+00
  0.00000000E+00  0.00000000E+00  0.00000000E+00
  0.00000000E+00  0.00000000E+00  0.00000000E+00
  0.00000000E+00  0.00000000E+00  0.00000000E+00
  0.00000000E+00  0.00000000E+00  0.00000000E+00
  0.00000000E+00  0.00000000E+00  0.00000000E+00
  0.00000000E+00  0.00000000E+00  0.00000000E+00
  0.00000000E+00  0.00000000E+00  0.00000000E+00
  0.00000000E+00  0.00000000E+00  0.00000000E+00
  0.00000000E+00  0.00000000E+00  0.00000000E+00
  0.00000000E+00  0.00000000E+00  0.00000000E+00
  0.00000000E+00  0.00000000E+00  0.00000000E+00
  0.00000000E+00  0.00000000E+00  0.00000000E+00
  0.00000000E+00  0.00000000E+00  0.00000000E+00
  0.00000000E+00  0.00000000E+00  0.00000000E+00
  0.00000000E+00  0.00000000E+00  0.00000000E+00
  0.00000000E+00  0.00000000E+00  0.00000000E+00
  0.00000000E+00  0.00000000E+00  0.00000000E+00
  0.00000000E+00  0.00000000E+00  0.00000000E+00
  0.00000000E+00  0.00000000E+00  0.00000000E+00
  0.00000000E+00  0.00000000E+00  0.00000000E+00
  0.00000000E+00  0.00000000E+00  0.00000000E+00
  0.00000000E+00  0.00000000E+00  0.00000000E+00
  0.00000000E+00  0.00000000E+00  0.00000000E+00
  0.00000000E+00  0.00000000E+00  0.00000000E+00
  0.00000000E+00  0.00000000E+00  0.00000000E+00
  0.00000000E+00  0.00000000E+00  0.00000000E+00
  0.00000000E+00  0.00000000E+00  0.00000000E+00
  0.00000000E+00  0.00000000E+00  0.00000000E+00
  0.00000000E+00  0.00000000E+00  0.00000000E+00
  0.00000000E+00  0.00000000E+00  0.00000000E+00
  0.00000000E+00  0.00000000E+00  0.00000000E+00
  0.00000000E+00  0.00000000E+00  0.00000000E+00
  0.00000000E+00  0.00000000E+00  0.00000000E+00
  0.00000000E+00  0.00000000E+00  0.00000000E+00
  0.00000000E+00  0.00000000E+00  0.00000000E+00
  0.00000000E+00  0.00000000E+00  0.00000000E+00
  0.00000000E+00  0.00000000E+00  0.00000000E+00
  0.00000000E+00  0.00000000E+00  0.00000000E+00
  0.00000000E+00  0.00000000E+00  0.00000000E+00
  0.00000000E+00  0.00000000E+00  0.00000000E+00
  0.00000000E+00  0.00000000E+00  0.00000000E+00
  0.00000000E+00  0.00000000E+00  0.00000000E+00
  0.00000000E+00  0.00000000E+00  0.00000000E+00
  0.00000000E+00  0.00000000E+00  0.00000000E+00
  0.00000000E+00  0.00000000E+00  0.00000000E+00
  0.00000000E+00  0.00000000E+00  0.00000000E+00
  0.00000000E+00  0.00000000E+00  0.00000000E+00
  0.00000000E+00  0.00000000E+00  0.00000000E+00
  0.00000000E+00  0.00000000E+00  0.00000000E+00
  0.00000000E+00  0.00000000E+00  0.00000000E+00
  0.00000000E+00  0.00000000E+00  0.00000000E+00
  0.00000000E+00  0.00000000E+00  0.00000000E+00
  0.00000000E+00  0.00000000E+00  0.00000000E+00
  0.00000000E+00  0.00000000E+00  0.00000000E+00
  0.00000000E+00  0.00000000E+00  0.00000000E+00
  0.00000000E+00  0.00000000E+00  0.00000000E+00
  0.00000000E+00  0.00000000E+00  0.00000000E+00
  0.00000000E+00  0.00000000E+00  0.00000000E+00
  0.00000000E+00  0.00000000E+00  0.00000000E+00
