 In N B 
 1.0
 17.527899999999772   0.000000000000000   0.000000000000000
 -8.763949999999658  15.179606674993195   0.000000000000000
  0.000000000000001   0.000000000000002  15.000000000000000
 In N B 
   1  48  48
Cartesian
  4.335589584772296   7.616598156497222   1.668023966260605 
  8.786212516810590  13.752680090149246   1.664857718289600 
 16.269444455522482   0.726583834409707   1.665019507752135 
 15.002291381145053   2.886679013237469   1.664874016527465 
 13.753449011668270   5.054727137905917   1.664579918883960 
 12.526040027226120   7.225105648893721   1.664710619866950 
 11.298979725913981   9.398347119928017   1.665995323190190 
 10.051828638888132  11.576444718668142   1.665986815147185 
 -6.238024157091688  13.721276896679685   1.664938575134040 
  1.246898216554667   0.694204667875826   1.664857718289600 
 -0.036342850018552   2.847137068952964   1.664332954579830 
 -1.287636741423241   5.032858945447219   1.664870937440355 
 -2.514041339923940   7.213716514563239   1.665045409825710 
 -3.732192133821524   9.387437371065264   1.665136918869165 
 -4.977831578632208  11.556112298837837   1.664913641320425 
 -3.732840322756084  13.712500408994106   1.664913641320425 
  3.764381393910496   0.686266640458103   1.665986815147185 
  2.467668382221496   2.810923149456017   1.664844996561090 
  1.174647292522577   4.959192196510505   1.665080616342630 
 -0.037053981865020   7.193217294747320   1.665970569459915 
 -1.228318063467187   9.380147988051412   1.665549428740155 
 -2.476405068247550  11.549505103146769   1.664665316655600 
 -1.231893020349305  13.718082469718341   1.665136918869165 
  6.274244789854024   0.695250916106334   1.665995323190190 
  5.007584683380855   2.837088705204836   1.665313938793605 
  3.680609591535431   4.913630259905143   1.664926329548235 
  2.363450460896351   7.060204643433957   1.665813933999255 
  1.291901971679027   9.373872019255860   1.666142184374460 
  0.026356805695647  11.553308608421297   1.665549428740155 
  1.259679859048642  13.749993364813951   1.665045409825710 
  8.769857262965999   0.719206258711851   1.664710619866950 
  7.518085859250304   2.868932009049360   1.664721766119555 
  6.261989508808847   5.009879695762375   1.665298716597165 
  3.831370939639279   9.602717494117798   1.665813933999255 
  2.515926383196294  11.615108997790207   1.665970569459915 
  3.761560215189024  13.778324611752202   1.664870937440355 
 11.263164681530382   0.741428152845451   1.664579918883960 
 10.007867750224619   2.898763483827193   1.664774212443990 
  8.753048473691104   5.066177077845819   1.664131211180160 
  7.556273954300776   7.251646114800622   1.665298716597165 
  6.348938452207641   9.535311417922186   1.664926329548235 
  5.056499508155430  11.682757461490636   1.665080616342630 
  6.280097831560369  13.787533252442756   1.664332954579830 
 13.765170618876679   0.743922997890375   1.664874016527465 
 12.505864212254856   2.899487900977034   1.665656716555650 
 11.257493344903322   5.063178504218599   1.664774212443990 
 10.038437214406059   7.234308609073764   1.664721766119555 
  8.810763736532326   9.424388055545009   1.665313938793605 
  7.563465621935295  11.637102873709740   1.664844996561090 
  7.529909398541959  14.476132022326768   1.665008077726305 
 15.016760366773507   1.449827597189445   1.665267959897085 
 13.756375472623390   3.614418362981873   1.665452388583575 
 12.509635452886535   5.782246338563038   1.664834736526470 
 11.284974144319687   7.953445690368915   1.665533653862085 
 10.053663784497470  10.130864555886337   1.666378759691595 
  8.807134870031174  12.319514241598938   1.665554707835400 
 -7.492550323689768  14.445584183601623   1.665112148193810 
 -0.007775666940689   1.420478517457667   1.665008077726305 
 -1.273926187124495   3.594347683466894   1.664695725178305 
 -2.521428222039479   5.770394718976640   1.665002943564315 
 -3.749364536077471   7.942980227879661   1.665117357354855 
 -4.977554843836471  10.112771885693393   1.665718870625475 
 -6.227577891460355  12.282210816559244   1.665647822665620 
 -4.986527813845711  14.431772605725159   1.665647822665620 
  2.498522853167367   1.392677703151265   1.665554707835400 
  1.213924564424818   3.541964958093676   1.664808656118660 
 -0.033349015743250   5.745453969387456   1.665782123887680 
 -1.255803983833391   7.930317768885820   1.665869133788490 
 -2.471524055474117  10.103009963094507   1.665293461956375 
 -3.725092258307573  12.270441255392509   1.664741132465415 
 -2.482727063927507  14.433940356599646   1.665718870625475 
  5.017213538230081   1.407476839527922   1.666378759691595 
  3.719261014509925   3.511246619857404   1.665059348801670 
  2.413571852685499   5.670057654755449   1.665654566626305 
  1.247891742091833   7.894029132426212   1.666354226726265 
  0.047087020684223  10.092572533245129   1.666177716792645 
 -1.221257596785957  12.268534992511341   1.665293461956375 
  0.010462786538144  14.455192178305396   1.665117357354855 
  7.518568770358478   1.429840220737765   1.665533653862085 
  6.261704442850538   3.573845549034157   1.665306533865675 
  4.948531661838029   5.579133781848159   1.666463342428545 
  2.551483817819765  10.151916839931339   1.666354226726265 
  1.268209073823354  12.302036623684080   1.665869133788490 
  2.505945186143796  14.478060890570543   1.665002943564315 
 10.011213219968921   1.454852092389550   1.664834736526470 
  8.754376449541788   3.619759620020215   1.664676782520150 
  7.490810033478764   5.794937048025054   1.665031613218920 
  6.406561958378759   8.104516334461039   1.666463342428545 
  5.060339670054128  10.254393990306253   1.665654566626305 
  3.771584112025349  12.335791466084727   1.665782123887680 
  5.014208216182698  14.485715954816234   1.664695725178305 
 12.511977327725107   1.459057551173385   1.665452388583575 
 11.255907477700701   3.621157025078290   1.665505640588430 
 10.006352151900916   5.788245146348109   1.664676782520150 
  8.799778900411784   7.969919462953003   1.665306533865675 
  7.582769449158211  10.203039524169380   1.665059348801670 
  6.303498362849852  12.357365365836850   1.664808656118660 
