In B N                                  
   1.0000000000000000     
     8.7639499999999995  -15.1796066749929999    0.0000000000000000
     8.7639499999999995   15.1796066749929999    0.0000000000000000
     0.0000000000000000    0.0000000000000000   15.0000000000000000
   In   B    N 
     1    48    48
Selective dynamics
Direct
  0.4982362165881331  0.5017651853288639  0.1112015977507069   T   T   T
  0.9064239366071686  0.9536565954752091  0.1110005385150871   T   T   T
  0.9044904820480237  0.0955115391479727  0.1110178639931392   T   T   T
  0.9038824324337221  0.2381101460906919  0.1110301592389051   T   T   T
  0.9041594790577717  0.3809220134859410  0.1109889824350984   T   T   T
  0.9058072076312216  0.5239559799313764  0.1110355769241389   T   T   T
  0.9072804593226853  0.6673996746289789  0.1110919173127733   T   T   T
  0.9082553947537194  0.8115832317245769  0.1110369805223603   T   T   T
  0.0483578519568093  0.9516441692391939  0.1110074765462542   T   T   T
  0.0463454257207973  0.0935780845888285  0.1110005385150871   T   T   T
  0.0457140567601459  0.2367879326799817  0.1109797150118868   T   T   T
  0.0462183560091037  0.3801412541527023  0.1110001962376210   T   T   T
  0.0477248978289805  0.5232665376610114  0.1110078238236574   T   T   T
  0.0491249223593069  0.6662077682390226  0.1110479247083653   T   T   T
  0.0492677291474525  0.8091257619206226  0.1110431881777082   T   T   T
  0.1908762592753803  0.9507342920485541  0.1110431881777082   T   T   T
  0.1884187894714233  0.0917466264422752  0.1110369805223603   T   T   T
  0.1859252384164904  0.2333370708431264  0.1109872437412437   T   T   T
  0.1873464807591968  0.3784982109485414  0.1110521415925119   T   T   T
  0.1895701775336456  0.5224323619629871  0.1110579422525664   T   T   T
  0.1917771932943366  0.6655646736709031  0.1110195641304250   T   T   T
  0.1916516127755505  0.8083504084204484  0.1109827421643605   T   T   T
  0.3337942529579755  0.9508770988366945  0.1110479247083653   T   T   T
  0.3326023465680280  0.0927215618733123  0.1110919173127733   T   T   T
  0.3278476141280914  0.2313134124642250  0.1110039565867775   T   T   T
  0.3244644918090143  0.3735312631055369  0.1110436377750867   T   T   T
  0.3312154671517277  0.5200417442588151  0.1110902817817507   T   T   T
  0.3351249430661403  0.6648770781308574  0.1110785144528431   T   T   T
  0.3344373475260948  0.8082248279016653  0.1110195641304250   T   T   T
  0.4767354835359826  0.9522771233670243  0.1110078238236574   T   T   T
  0.4760460412656199  0.0941948135647864  0.1110355769241389   T   T   T
  0.4749607843853281  0.2354372959426997  0.1110204355910449   T   T   T
  0.4660938305577391  0.3675413929557998  0.1110975561619032   T   T   T
  0.4799602769381803  0.6687865540452737  0.1110902817817507   T   T   T
  0.4775696592340126  0.8104318436623517  0.1110579422525664   T   T   T
  0.6198607670433052  0.9537836651868997  0.1110001962376210   T   T   T
  0.6190800077100641  0.0958425421382137  0.1109889824350984   T   T   T
  0.6186848190919768  0.2384620166728950  0.1109784521680104   T   T   T
  0.6182439709316571  0.3817580502643460  0.1110021075479281   T   T   T
  0.6324606282402080  0.5339081906392461  0.1110975561619032   T   T   T
  0.6264707580904647  0.6755375293879837  0.1110436377750867   T   T   T
  0.6215038102474536  0.8126555404368054  0.1110521415925119   T   T   T
  0.7632140885160343  0.9542879644358593  0.1109797150118868   T   T   T
  0.7618918751053103  0.0961195887622720  0.1110301592389051   T   T   T
  0.7614479464686390  0.2385540747273617  0.1110337093725624   T   T   T
  0.7615400045231088  0.3813172021040325  0.1109784521680104   T   T   T
  0.7645647252533020  0.5250412368116626  0.1110204355910449   T   T   T
  0.7686886087317797  0.6721544070689142  0.1110039565867775   T   T   T
  0.7666649503528796  0.8140767827795111  0.1109872437412437   T   T   T
  0.9542686841513824  0.9059971305320670  0.1109905145526398   T   T   T
  0.9521356139587718  0.0478657879592280  0.1110013005168089   T   T   T
  0.9509933469783547  0.1901682352542750  0.1109916011018306   T   T   T
  0.9511577020303904  0.3329946056002256  0.1109719945922644   T   T   T
  0.9526216328561024  0.4759744968093488  0.1109807079911305   T   T   T
  0.9541997595571630  0.6191429936989611  0.1110663548793455   T   T   T
  0.9547916244085138  0.7626314018886351  0.1110657876764788   T   T   T
  0.0960730465618508  0.9039283553561402  0.1109959050089363   T   T   T
  0.0940042713859320  0.0457327177666238  0.1109905145526398   T   T   T
  0.0917082196476004  0.1875632965934038  0.1109555303053220   T   T   T
  0.0923148651877321  0.3315539758838630  0.1109913958293569   T   T   T
  0.0941812671008319  0.4752242050149480  0.1110030273217144   T   T   T
  0.0962834885732798  0.6184242827931822  0.1110091279246108   T   T   T
  0.0966512227869368  0.7612919455861344  0.1109942427546953   T   T   T
  0.2387094563318655  0.9033501791310584  0.1109942427546953   T   T   T
  0.2373700000293752  0.0452097775094956  0.1110657876764788   T   T   T
  0.2333739705972349  0.1851776010828214  0.1109896664374059   T   T   T
  0.2303663440652311  0.3267009681272080  0.1110053744228423   T   T   T
  0.2348228800710140  0.4738737602863839  0.1110647046306611   T   T   T
  0.2388941574559814  0.6179440738411375  0.1110366285826766   T   T   T
  0.2391447242431217  0.7608566776748805  0.1109776877770396   T   T   T
  0.3815771191248172  0.9037179133447135  0.1110091279246108   T   T   T
  0.3808584082190346  0.0458016423608451  0.1110663548793455   T   T   T
  0.3791428871140154  0.1869013318954202  0.1110209292529072   T   T   T
  0.3718354934013744  0.3236994452563673  0.1109950886365490   T   T   T
  0.3673949253656587  0.4651111714946410  0.1110542622666166   T   T   T
  0.3824707754691323  0.6175306264488611  0.1110761456249643   T   T   T
  0.3820573280768583  0.7611072444620162  0.1110366285826766   T   T   T
  0.5247771969020468  0.9058201348171696  0.1110030273217144   T   T   T
  0.5240269051076435  0.0473797690619127  0.1109807079911305   T   T   T
  0.5234206337873765  0.1889991006009152  0.1109814510746372   T   T   T
  0.5222784760162318  0.3300401520953522  0.1110199144398114   T   T   T
  0.5348902304223578  0.6326064765523384  0.1110542622666166   T   T   T
  0.5261276416306117  0.7651785218470036  0.1110647046306611   T   T   T
  0.6684474260331290  0.9076865367302659  0.1109913958293569   T   T   T
  0.6670067963167641  0.0488436998876179  0.1109719945922644   T   T   T
  0.6664500383919008  0.1909643343132601  0.1109849474962658   T   T   T
  0.6662524987789613  0.3337489031380384  0.1109420807453440   T   T   T
  0.6699612498216458  0.4777229259007712  0.1110199144398114   T   T   T
  0.6763019566606322  0.6281659085166290  0.1109950886365490   T   T   T
  0.6733004337897911  0.7696350578527668  0.1110053744228423   T   T   T
  0.8124381053245977  0.9082931822704123  0.1109555303053220   T   T   T
  0.8098331666637313  0.0490080549396523  0.1109916011018306   T   T   T
  0.8089893445533201  0.1910120573646769  0.1110437811037103   T   T   T
  0.8090370676047415  0.3335513635250943  0.1109849474962658   T   T   T
  0.8110023013170807  0.4765807681296204  0.1109814510746372   T   T   T
  0.8131000700225774  0.6208585148039896  0.1110209292529072   T   T   T
  0.8148238008351786  0.7666274313207764  0.1109896664374059   T   T   T

  0.00000000E+00  0.00000000E+00  0.00000000E+00
  0.00000000E+00  0.00000000E+00  0.00000000E+00
  0.00000000E+00  0.00000000E+00  0.00000000E+00
  0.00000000E+00  0.00000000E+00  0.00000000E+00
  0.00000000E+00  0.00000000E+00  0.00000000E+00
  0.00000000E+00  0.00000000E+00  0.00000000E+00
  0.00000000E+00  0.00000000E+00  0.00000000E+00
  0.00000000E+00  0.00000000E+00  0.00000000E+00
  0.00000000E+00  0.00000000E+00  0.00000000E+00
  0.00000000E+00  0.00000000E+00  0.00000000E+00
  0.00000000E+00  0.00000000E+00  0.00000000E+00
  0.00000000E+00  0.00000000E+00  0.00000000E+00
  0.00000000E+00  0.00000000E+00  0.00000000E+00
  0.00000000E+00  0.00000000E+00  0.00000000E+00
  0.00000000E+00  0.00000000E+00  0.00000000E+00
  0.00000000E+00  0.00000000E+00  0.00000000E+00
  0.00000000E+00  0.00000000E+00  0.00000000E+00
  0.00000000E+00  0.00000000E+00  0.00000000E+00
  0.00000000E+00  0.00000000E+00  0.00000000E+00
  0.00000000E+00  0.00000000E+00  0.00000000E+00
  0.00000000E+00  0.00000000E+00  0.00000000E+00
  0.00000000E+00  0.00000000E+00  0.00000000E+00
  0.00000000E+00  0.00000000E+00  0.00000000E+00
  0.00000000E+00  0.00000000E+00  0.00000000E+00
  0.00000000E+00  0.00000000E+00  0.00000000E+00
  0.00000000E+00  0.00000000E+00  0.00000000E+00
  0.00000000E+00  0.00000000E+00  0.00000000E+00
  0.00000000E+00  0.00000000E+00  0.00000000E+00
  0.00000000E+00  0.00000000E+00  0.00000000E+00
  0.00000000E+00  0.00000000E+00  0.00000000E+00
  0.00000000E+00  0.00000000E+00  0.00000000E+00
  0.00000000E+00  0.00000000E+00  0.00000000E+00
  0.00000000E+00  0.00000000E+00  0.00000000E+00
  0.00000000E+00  0.00000000E+00  0.00000000E+00
  0.00000000E+00  0.00000000E+00  0.00000000E+00
  0.00000000E+00  0.00000000E+00  0.00000000E+00
  0.00000000E+00  0.00000000E+00  0.00000000E+00
  0.00000000E+00  0.00000000E+00  0.00000000E+00
  0.00000000E+00  0.00000000E+00  0.00000000E+00
  0.00000000E+00  0.00000000E+00  0.00000000E+00
  0.00000000E+00  0.00000000E+00  0.00000000E+00
  0.00000000E+00  0.00000000E+00  0.00000000E+00
  0.00000000E+00  0.00000000E+00  0.00000000E+00
  0.00000000E+00  0.00000000E+00  0.00000000E+00
  0.00000000E+00  0.00000000E+00  0.00000000E+00
  0.00000000E+00  0.00000000E+00  0.00000000E+00
  0.00000000E+00  0.00000000E+00  0.00000000E+00
  0.00000000E+00  0.00000000E+00  0.00000000E+00
  0.00000000E+00  0.00000000E+00  0.00000000E+00
  0.00000000E+00  0.00000000E+00  0.00000000E+00
  0.00000000E+00  0.00000000E+00  0.00000000E+00
  0.00000000E+00  0.00000000E+00  0.00000000E+00
  0.00000000E+00  0.00000000E+00  0.00000000E+00
  0.00000000E+00  0.00000000E+00  0.00000000E+00
  0.00000000E+00  0.00000000E+00  0.00000000E+00
  0.00000000E+00  0.00000000E+00  0.00000000E+00
  0.00000000E+00  0.00000000E+00  0.00000000E+00
  0.00000000E+00  0.00000000E+00  0.00000000E+00
  0.00000000E+00  0.00000000E+00  0.00000000E+00
  0.00000000E+00  0.00000000E+00  0.00000000E+00
  0.00000000E+00  0.00000000E+00  0.00000000E+00
  0.00000000E+00  0.00000000E+00  0.00000000E+00
  0.00000000E+00  0.00000000E+00  0.00000000E+00
  0.00000000E+00  0.00000000E+00  0.00000000E+00
  0.00000000E+00  0.00000000E+00  0.00000000E+00
  0.00000000E+00  0.00000000E+00  0.00000000E+00
  0.00000000E+00  0.00000000E+00  0.00000000E+00
  0.00000000E+00  0.00000000E+00  0.00000000E+00
  0.00000000E+00  0.00000000E+00  0.00000000E+00
  0.00000000E+00  0.00000000E+00  0.00000000E+00
  0.00000000E+00  0.00000000E+00  0.00000000E+00
  0.00000000E+00  0.00000000E+00  0.00000000E+00
  0.00000000E+00  0.00000000E+00  0.00000000E+00
  0.00000000E+00  0.00000000E+00  0.00000000E+00
  0.00000000E+00  0.00000000E+00  0.00000000E+00
  0.00000000E+00  0.00000000E+00  0.00000000E+00
  0.00000000E+00  0.00000000E+00  0.00000000E+00
  0.00000000E+00  0.00000000E+00  0.00000000E+00
  0.00000000E+00  0.00000000E+00  0.00000000E+00
  0.00000000E+00  0.00000000E+00  0.00000000E+00
  0.00000000E+00  0.00000000E+00  0.00000000E+00
  0.00000000E+00  0.00000000E+00  0.00000000E+00
  0.00000000E+00  0.00000000E+00  0.00000000E+00
  0.00000000E+00  0.00000000E+00  0.00000000E+00
  0.00000000E+00  0.00000000E+00  0.00000000E+00
  0.00000000E+00  0.00000000E+00  0.00000000E+00
  0.00000000E+00  0.00000000E+00  0.00000000E+00
  0.00000000E+00  0.00000000E+00  0.00000000E+00
  0.00000000E+00  0.00000000E+00  0.00000000E+00
  0.00000000E+00  0.00000000E+00  0.00000000E+00
  0.00000000E+00  0.00000000E+00  0.00000000E+00
  0.00000000E+00  0.00000000E+00  0.00000000E+00
  0.00000000E+00  0.00000000E+00  0.00000000E+00
  0.00000000E+00  0.00000000E+00  0.00000000E+00
  0.00000000E+00  0.00000000E+00  0.00000000E+00
  0.00000000E+00  0.00000000E+00  0.00000000E+00
  0.00000000E+00  0.00000000E+00  0.00000000E+00
