 S B N 
 1.0
 17.527899999999772   0.000000000000000   0.000000000000000
 -8.763949999999658  15.179606674993195   0.000000000000000
  0.000000000000001   0.000000000000002  15.000000000000000
 S B N 
   1  47  49
Cartesian
  5.016420015795603   9.907630039904502   2.202037661674725 
  7.556651558964930  14.484888302778298   1.637410159897290 
 15.095260548587857   1.471781397160911   1.481109085988910 
 13.846515604595822   3.626803523578167   1.482670533297225 
 12.590762630588699   5.785443650633954   1.538133581179515 
 11.310110666253689   7.945882845533426   1.603724150726400 
 10.010555603093097  10.101069965487719   1.715748128273595 
  8.705956779314409  12.246766072454617   1.837988947958955 
 -7.493963657480230  14.458115472612951   1.720590500537400 
  0.066064694424238   1.477373119174830   1.612760870738265 
 -1.175240070298354   3.641004609425502   1.569244698992235 
 -2.441024711726694   5.801046885380572   1.583099980624845 
 -3.725626938660155   7.965136311167710   1.609466674918140 
 -5.004984121585659  10.125635185583294   1.650316695978870 
 -6.275072154446360  12.284033177602636   1.713630699470625 
 -4.989856039979022  14.464957121806915   1.670814589230855 
  2.562831278368279   1.487198478587787   1.668111312148575 
  1.335842589410362   3.659702080075034   1.649857705101885 
  0.067308812767369   5.814734418031102   1.651618734518040 
 -1.238762478001906   7.980106119565150   1.665092476434780 
 -2.502152019589267  10.141238586052889   1.654961186695380 
 -3.751453644316602  12.297835156710603   1.650472486798365 
 -2.479068900421817  14.461523094663653   1.614172282211190 
  5.050698085140524   1.457330216802494   1.627940066482980 
  3.864186638723846   3.709621437094541   1.661959408501155 
  2.603356571823400   5.838257648253012   1.683298196454750 
  1.222024960423902   8.016284010135960   1.720676178227835 
 -0.016262915364798  10.164755916161859   1.741676159633160 
 -1.230116601804917  12.307962761552654   1.666377014899605 
  0.043523602740320  14.449387841574188   1.577927071527090 
  7.569000938841713   1.420358759587773   1.541394346577790 
  6.345520238538639   3.576007045822104   1.588162461413775 
  5.276220259145498   5.907718787333618   1.679834693443005 
  2.462760395373695  10.174424355055402   1.856929607249535 
  1.310586681911992  12.307737156909539   1.794498199184070 
  2.548065472221342  14.477587603952690   1.501246020309030 
 10.078409883754402   1.428954457951150   1.444672421465250 
  8.855324963089140   3.558428255922673   1.506289871895885 
  7.660139268639139   5.670271054393183   1.559483441081475 
  6.281401243996426   7.512871347669632   1.691074185309495 
  3.830789437063634  12.483407142039534   2.205033732035385 
  5.058442208592405  14.503496655965364   1.543519048630590 
 12.583424502546857   1.457989307526497   1.399292454196185 
 11.345979361185648   3.604089313111842   1.458414440765565 
 10.108430785649032   5.755233568522358   1.532221169526765 
  8.818147595321880   7.899444993812263   1.614138345796440 
  7.484132040539832  10.012780559663064   1.839398548493490 
  6.204209970289862  12.442546102427544   2.222489416140900 
  8.776191231695890  13.716179872030684   1.765304104621665 
 16.345835732149080   0.754020580469548   1.551551110068840 
 15.102673452088121   2.917427906540812   1.499716610957340 
 13.843705909812838   5.071919402360270   1.533028961838945 
 12.564442568576961   7.231665156094638   1.581590160266940 
 11.274204984938454   9.392331836324415   1.653568749425040 
  9.985934964247589  11.546042609085559   1.762786675665495 
 -6.246027958527895  13.733695062956874   1.713224157100410 
  1.306944031168918   0.743847795451030   1.674289900173240 
  0.082670205188778   2.929098934376790   1.609748596184415 
 -1.179422798185530   5.087723125561063   1.600653488117205 
 -2.471831167074328   7.246790656347943   1.616009730086220 
 -3.747287781778026   9.410512439806459   1.631579192861040 
 -5.012072040264538  11.570545151609547   1.667772340588950 
 -3.739130222865614  13.742355369812717   1.642880746209660 
  3.796319039119218   0.738262950415743   1.661203546259025 
  2.598042924688500   2.957789160953196   1.663630109038965 
  1.343808267671952   5.111572323495218   1.665870743444880 
  0.014813531640408   7.261081069500188   1.687798277904090 
 -1.251401671810715   9.424638494377037   1.685025169181490 
 -2.491872591181684  11.583635388996717   1.650540379374735 
 -1.224343091263843  13.744983387999570   1.619620428065430 
  6.298682679822816   0.724972811788134   1.592447289425955 
  5.072440130416094   2.909821038549214   1.630549955894865 
  3.923510364042101   5.209155593027935   1.685204001832470 
  2.469202189018836   7.292966881659348   1.685581825786785 
  1.224575896212834   9.451655329803826   1.771107589909950 
  0.029474806264331  11.598908295109622   1.739713802520090 
  1.298785750525388  13.741640838111845   1.627049334857025 
  8.820069807176731   0.708074633033145   1.502854296513090 
  7.591551778786719   2.855593002920044   1.537457360878530 
  6.388968186319806   5.002766588463827   1.600435473569565 
  3.649972967724609   7.913672078945940   1.581264091309185 
  3.599338914474478   9.272018923751798   1.704869922898380 
  2.579016690431059  11.607379410630937   2.016262658754900 
  3.791212808845589  13.797098773030879   1.577142195256335 
 11.327004624622655   0.733047733522909   1.392919313903565 
 10.100993732726087   2.864524395549553   1.457148547836195 
  8.890476579665229   4.989565806152011   1.526610578470380 
  7.627878074844237   7.096452509859912   1.573378549386180 
  6.276989357269080   9.010807985870789   1.774150822654260 
  5.003676303900114  12.193104035848116   2.868438804520005 
  6.311772240592712  13.792581062632925   1.660033763142690 
 13.839850889578798   0.757522195395049   1.415996803285965 
 12.596885643249609   2.900425575877621   1.427347321473495 
 11.353558701109414   5.048595174299487   1.505596065705135 
 10.077559689262474   7.203131848767189   1.577011237291005 
  8.759190993156263   9.349177414677564   1.714281052663365 
  7.413274041646378  11.496069834324080   1.993996473311625 
