 N S B 
 1.0
 14.936314146199660   0.000000000000000   0.000000000000000
 -7.468157073099825  12.935227489513863   0.000000000000000
  0.000000000000001   0.000000000000001  13.341276283792837
 N S B 
 143   2 143
Cartesian
  1.251266055731975   0.722908243873263   1.669918224855296 
  4.986299297540476   7.192105120175166   1.667879511839675 
  6.229674897433392   0.722156001417613   1.676474225522881 
  9.963401932259101   7.189103797461278   1.684406528822554 
 11.208552593085317   0.722270861504901   1.666761123744757 
 -3.728884881679075   9.345107300464370   8.338844857512511 
  1.250857200406586   9.345721214291171   8.329482987321519 
  2.496745739939331   2.878940069456979   8.329693634700551 
  6.229278576268030   9.347363350888452   8.317408555687882 
  7.475633120150852   2.877530789167180   8.322547349574601 
 12.453904698172582   2.877987232959823   8.341084168999577 
 -1.238909310880702   9.345345899092891   1.664621242715639 
  0.007079362874013   2.878582269731393   1.670151453265704 
  4.986296935081656   2.879048489132917   1.678137907219976 
  3.740445632632786   9.347065293344055   1.683409863268747 
  8.718261794141206   9.345749779224818   1.684406528822554 
  9.964908767799603   2.877259839529468   1.674361320612603 
 -4.972960122018853  11.501639614753245   8.337715802296158 
  0.005946193503972  11.501413027097094   8.337432764949732 
  1.252222415059183   5.034517699353595   8.329693634700551 
  6.232309698496654   5.033951798959807   8.338077701004618 
  4.984848807187632  11.502976716048924   8.331595892232331 
 11.209296418831380   5.033214970225879   8.330555610508966 
 -1.237695759367764   5.033916565724896   1.669918224855296 
 -2.483690463805490  11.501370100263632   1.664621242715679 
  2.495394102894195  11.501982489046927   1.674570873256717 
  3.743720460116866   5.035933013089292   1.638750773225350 
  7.474154545305730  11.502670468650356   1.675401602335568 
  8.720307717372560   5.032774315360712   1.688548657157133 
  0.006764274666133   7.189863620259803   8.331757676691076 
  1.251266055731961   0.722908243873264   8.336038987988866 
  4.986299297540469   7.192105120175180   8.338077701004565 
  6.229674897433393   0.722156001417614   8.329482987321519 
  9.963401932259101   7.189103797461279   8.321550684021807 
 -2.483310733594074   7.189440380968711   1.668241410548336 
 11.208552593085317   0.722270861504902   8.339196089100470 
  3.740600991191160   0.722668720072336   1.674199536153364 
  2.497091906824369   7.190478068530492   1.678137907219949 
  7.474491795440254   7.189894847823608   1.693645308184934 
  8.719320389812443   0.721825937540936   1.674570873256717 
  2.497091906824369   7.190478068530493   8.327819305625665 
 13.698133786662567   0.722919235440043   1.664873043844504 
 -1.238909310880067   9.345345899092646   8.341335970130030 
  0.007079362874013   2.878582269731394   8.335805759578296 
  4.986296935081657   2.879048489132918   8.327819305625665 
  3.740445632632786   9.347065293344055   8.322547349574601 
  8.718261794141206   9.345749779224818   8.321550684021807 
  9.964908767799603   2.877259839529469   8.331595892232345 
 -3.728884881679075   9.345107300464370   1.667112355333451 
  1.250857200406585   9.345721214291171   1.676474225522881 
  2.496745739939331   2.878940069456978   1.676263578143397 
  6.229278576268029   9.347363350888452   1.688548657157133 
  7.475633120150851   2.877530789167179   1.683409863268747 
 12.453904698172582   2.877987232959822   1.664873043844504 
 -1.237695759367831   5.033916565724986   8.336038987988866 
 -2.483690463805490  11.501370100263632   8.341335970130030 
  2.495394102894054  11.501982489047172   8.331386339587510 
  3.743720460116777   5.035933013089293   8.367206439620464 
  7.474154545305731  11.502670468650356   8.330555610508966 
 -4.972960122018854  11.501639614753245   1.668241410548349 
  8.720307717372560   5.032774315360713   8.317408555687908 
  0.005946193503972  11.501413027097094   1.668524447895682 
  1.252222415059183   5.034517699353594   1.676263578143344 
  0.006764274666088   7.189863620259803   1.674199536153364 
  6.232309698496653   5.033951798959806   1.667879511839608 
  4.984848807188974  11.502976716048924   1.674361320612603 
 11.209296418831380   5.033214970225878   1.675401602335568 
 -2.483310733594073   7.189440380968712   8.337715802296158 
  3.740600991191115   0.722668720072336   8.331757676691076 
  7.474491795440255   7.189894847823608   8.312311904659333 
  8.719320389812436   0.721825937540950   8.331386339587590 
 13.698133786662567   0.722919235440044   8.341084168999577 
  0.025872271542982   1.446557411833445   5.002978606422314 
  3.643720335541338   8.068097763976484   5.002978606422314 
  5.051010440887225   1.249879427195294   5.002978606422314 
  8.694534025106648   7.894286557543346   5.002978606422314 
  9.996741760658477   1.437811044839488   5.002978606422314 
 -4.986242298769556  10.056289531082287  11.673616748318732 
 -0.007236909222809  10.056471637226526  11.673616748318732 
  1.238008342226845   3.589259447312394  11.673616748318732 
  4.971521124816023  10.056520916252234  11.673616748318732 
  6.216496263167026   3.588943674699400  11.673616748318732 
 11.195332133516596   3.589115338618339  11.673616748318732 
 -2.521329037370981  10.042289992237910   5.002978606422314 
 -1.223694088581381   3.610869834997765   5.002978606422314 
  3.883147235720896   3.192748806128543   5.002978606422314 
  2.455210050125082  10.144289922761175   5.002978606422314 
  7.469604928259038  10.074100408081261   5.002978606422314 
  8.762834556395818   3.567320620399990   5.002978606422314 
 -6.230708928412172  12.212484494761339  11.673616748318732 
 -1.252001308468614  12.212466820173226  11.673616748318732 
 -0.007285822877585   5.745026875438003  11.673616748318732 
  4.971579182366335   5.744837576906471  11.673616748318732 
  3.726695899160559  12.212477315414899  11.673616748318732 
  9.950254623785014   5.744712546513734  11.673616748318732 
 -2.518519700042277   5.760958862412868   5.002978606422314 
 -3.738662784442115  12.146656374529552   5.002978606422314 
  1.256309267395634  12.223310484396340   5.002978606422314 
  2.217189500836608   6.078272246210512   5.002978606422314 
  6.240655192443780  12.241185458584887   5.002978606422314 
  7.526054859180701   5.727585175275460   5.002978606422314 
 -1.251829206004197   7.900857565360843  11.673616748318732 
 -0.006972585241880   1.433143706357690  11.673616748318732 
  3.726978835591168   7.900914345588988  11.673616748318732 
  4.971639603225806   1.432873475784257  11.673616748318732 
  8.705577466267593   7.900662491269044  11.673616748318732 
 -3.766801333634273   7.899816759047882   5.002978606422314 
  9.950277856838238   1.432917159648107  11.673616748318732 
  2.492905068879558   1.322593318232342   5.002978606422314 
  1.118546865029182   8.061106139495461   5.002978606422314 
  6.233876002684570   7.965704607193028   5.002978606422314 
  7.523432110495758   1.365871810157685   5.002978606422314 
  1.237338941017921   7.900871953466461  11.673616748318732 
 12.478873560091774   1.455691013763837   5.002978606422314 
 -2.496833876485672  10.056432279968663  11.673616748318732 
 -1.251733126674773   3.589132207376420  11.673616748318732 
  3.726928043295184   3.588763083518593  11.673616748318732 
  2.482040002467926  10.056540949621548  11.673616748318732 
  7.460808623579770  10.056559501568371  11.673616748318732 
  8.705577458537764   3.588945627921765  11.673616748318732 
 -4.999501432372585  10.034915960557901   5.002978606422314 
 -0.049384725478503  10.102269647163508   5.002978606422314 
  1.278996240738870   3.612923821552743   5.002978606422314 
  4.981421867875806  10.116919521302322   5.002978606422314 
  6.319652100557247   3.433247989381435   5.002978606422314 
 11.232119484759547   3.595715700127083   5.002978606422314 
 -2.496575412551483   5.744775523044751  11.673616748318732 
 -3.741114003850311  12.212425309739166  11.673616748318732 
  1.237655751537387  12.212540871994982  11.673616748318732 
  2.482038329104773   5.744975318316298  11.673616748318732 
  6.216545436080751  12.212626858625338  11.673616748318732 
 -6.227665889146223  12.185388514641422   5.002978606422314 
  7.460958856130289   5.744685758820234  11.673616748318732 
 -1.233412976548568  12.153066735613793   5.002978606422314 
 -0.097533744128706   5.809364956261100   5.002978606422314 
 -1.307561164972751   7.935864851245607   5.002978606422314 
  3.754166079967535  12.250269293890144   5.002978606422314 
  9.969843646769469   5.743559916570268   5.002978606422314 
 -3.741661711788592   7.900612720317318  11.673616748318732 
  2.482310617081088   1.432919351086902  11.673616748318732 
  6.216137540929812   7.900779523092188  11.673616748318732 
  7.460854246771457   1.432981717040127  11.673616748318732 
 12.439727952156593   1.433090286484386  11.673616748318732 
  3.304175786587314   4.782161777506319   5.002978606422314 
  4.946358316438448   5.730276303173809   5.002978606422314 
  1.240551424847441   0.674200706596802   5.002978606422314 
  4.904690973222070   7.417784092481261   5.002978606422314 
  6.289235787918414   0.618394378723325   5.002978606422314 
  9.936875692252976   7.177768366719103   5.002978606422314 
 11.238123425022975   0.739343589284081   5.002978606422314 
 -3.742175532938865   9.337433939381446  11.673616748318732 
  1.237233980128865   9.337312081702983  11.673616748318732 
  2.482919765387536   2.871806918154707  11.673616748318732 
  6.215410007975136   9.337232286730444  11.673616748318732 
  7.460535920982145   2.871814377432287  11.673616748318732 
 12.440088705485254   2.871511274170167  11.673616748318732 
 -1.278192961310505   9.359506046049232   5.002978606422314 
  0.035616706375498   2.895058312683398   5.002978606422314 
  5.113727136209310   2.649140420022352   5.002978606422314 
  3.699427421164803   9.456206758885664   5.002978606422314 
  8.695181903151504   9.328445096885579   5.002978606422314 
  9.999372844271711   2.869260896241407   5.002978606422314 
 -4.985554606663753  11.494123047496409  11.673616748318732 
 -0.006796168933482  11.494056220716566  11.673616748318732 
  1.239131937546033   5.026110629811937  11.673616748318732 
  6.216399360394651   5.025793913916520  11.673616748318732 
  4.972009891896890  11.493831156328485  11.673616748318732 
 11.196203173440409   5.025729053205030  11.673616748318732 
 -1.285235039447015   5.048991191824585   5.002978606422314 
 -2.491069242034916  11.460269387559098   5.002978606422314 
  2.499534195887089  11.548425991814661   5.002978606422314 
  7.466634854615854  11.497799340383729   5.002978606422314 
  8.749496181517415   5.012353658456375   5.002978606422314 
 -0.006747069320537   7.183207117088799  11.673616748318732 
  1.237507810494578   0.714495311625329  11.673616748318732 
  4.971279192799827   7.182405305719445  11.673616748318732 
  6.215580764849935   0.714562512868869  11.673616748318732 
  9.950036671512478   7.182861637325974  11.673616748318732 
 -2.526741208040028   7.194516284324283   5.002978606422314 
 11.194305310687973   0.714045189177698  11.673616748318732 
  3.760480740647590   0.626989540352476   5.002978606422314 
  2.361700779002718   7.415789894473342   5.002978606422314 
  7.453378227076858   7.177704923445018   5.002978606422314 
  8.761611689547182   0.702189611861704   5.002978606422314 
  2.482821371272491   7.181841581112105  11.673616748318732 
 13.719188200515097   0.738786978780658   5.002978606422314 
 -1.250902153022818   9.337402569308715  11.673616748318732 
 -0.006036134419443   2.871010033837771  11.673616748318732 
  4.971682249800839   2.871008086530466  11.673616748318732 
  3.727946475267292   9.336848941205915  11.673616748318732 
  8.706173294515699   9.337296203957189  11.673616748318732 
  9.950569023104926   2.870713792590135  11.673616748318732 
 -3.759765803585033   9.327278191888134   5.002978606422314 
  1.190777444457910   9.449183269870433   5.002978606422314 
  2.536248524107061   2.734169426040959   5.002978606422314 
  6.226188000700081   9.382851630786224   5.002978606422314 
  7.549643296182193   2.787437243247236   5.002978606422314 
 12.478173773934111   2.888287018544895   5.002978606422314 
 -1.251860695033462   5.026208041961729  11.673616748318732 
 -2.496566010262150  11.494955659199478  11.673616748318732 
  2.482235525041764  11.494629222322805  11.673616748318732 
  3.726307049621944   5.025879375851893  11.673616748318732 
  7.461124928300554  11.495074344032508  11.673616748318732 
 -4.990279497987252  11.461489768904224   5.002978606422314 
  8.704599674298647   5.025829314982670  11.673616748318732 
  0.008928811397051  11.503135042340709   5.002978606422314 
  1.146598752222723   5.141113435671150   5.002978606422314 
 -0.066156450857301   7.254919578171670   5.002978606422314 
  6.386949259454591   4.850437430786546   5.002978606422314 
  4.995153557333720  11.536822953434166   5.002978606422314 
 11.201318052663451   5.029138291191426   5.002978606422314 
 -2.496117514107085   7.182291520941630  11.673616748318732 
  3.728080618351163   0.714295804526384  11.673616748318732 
  7.460625095052238   7.181888904620350  11.673616748318732 
  8.706372985102737   0.714106908204418  11.673616748318732 
 13.685617445493900   0.714192214188136  11.673616748318732 
  0.006929323122441   1.441550917028059   1.670158092121764 
  3.741837400490081   7.907834556909578   1.683892400733616 
  4.985163764729697   1.443466290763850   1.682446582919495 
  8.717739466615882   7.907684225444797   1.691655805177950 
  9.963706696472103   1.439893035918837   1.673692744196020 
 -4.973819593161670  10.063461312013278   8.332021784396668 
  0.006778290703099  10.062837234508470   8.334655130423529 
  1.254311865993203   3.598672291148270   8.324556707678740 
  4.984353036597200  10.063663152386189   8.320235082111141 
  6.229918624419738   3.598351463705229   8.322064812110131 
 11.209143372253260   3.596005086642886   8.332942943796604 
 -2.483899208107818  10.063900114236423   1.665422535731320 
 -1.237501314476881   3.596968007845432   1.670158092121764 
  3.741337828367560   3.601729992546654   1.680124495030350 
  2.495827136180377  10.063406188254234   1.682170738034328 
  7.472444280144140  10.064403181073169   1.686046588269697 
  8.718178772360559   3.596487271435759   1.685722130733860 
 -6.218345376442771  12.221922424095389   8.333654126210762 
 -1.239480939549129  12.221421540707025   8.334655130423529 
  0.009219191950920   5.751611690508518   8.328850358261526 
  4.985156662769147   5.752676538871950   8.337500759479125 
  3.739451605041190  12.220619093546523   8.332264468648487 
  9.962865277777851   5.750867480935182   8.319910624574863 
 -2.482220150005113   5.750763708465541   1.672303086632638 
 -3.727749057974634  12.221896294008662   1.670003274392577 
  1.251047857150404  12.220272807774448   1.674471549578929 
  2.500472894268766   5.750971103736387   1.680124495030496 
  6.229417752263595  12.221142868217472   1.673014269048010 
  7.473607896756529   5.750779401921376   1.689677331658901 
 -1.236944620090025   7.907696455874453   8.335953938453704 
  0.006929323122441   1.441550917028060   8.335799120722916 
  3.741837400490082   7.907834556909579   8.322064812110131 
  4.985163764729713   1.443466290763825   8.323510629925746 
  8.717739466615882   7.907684225444798   8.314301407666465 
 -3.729239414508041   7.907785208492027   1.673935428446147 
  9.963706696472103   1.439893035918838   8.332264468648487 
  2.496265741626068   1.443920705682257   1.677106854583034 
  1.253274668639678   7.907287813404101   1.682446582919495 
  6.227739310969624   7.908687092058294   1.689677331658794 
  7.473693284686483   1.441489105764397   1.682170738034568 
  1.253274668639679   7.907287813404102   8.323510629925746 
 12.453026892565559   1.440768433308576   1.666931587063686 
 -2.483899208107817  10.063900114236423   8.340534677112080 
 -1.237501314476880   3.596968007845433   8.335799120722916 
  3.741337828367560   3.601729992546655   8.325832717813757 
  2.495827136180378  10.063406188254234   8.323786474809205 
  7.472444280144096  10.064403181073247   8.319910624574863 
  8.718178772360559   3.596487271435760   8.320235082111141 
 -4.973819593161671  10.063461312013278   1.673935428446147 
  0.006778290703099  10.062837234508470   1.671302082422486 
  1.254311865993203   3.598672291148269   1.681400505166395 
  4.984353036597199  10.063663152386189   1.685722130733833 
  6.229918624419737   3.598351463705228   1.683892400733616 
 11.209143372253260   3.596005086642885   1.673014269048010 
 -2.482220150005112   5.750763708465541   8.333654126210762 
 -3.727749057974633  12.221896294008662   8.335953938453704 
  1.251047857150404  12.220272807774448   8.331485663267193 
  2.500472894268766   5.750971103736388   8.325832717813757 
  6.229417752263596  12.221142868217472   8.332942943796604 
 -6.218345376442757  12.221922424095363   1.672303086632652 
  7.473607896756530   5.750779401921377   8.316279881185579 
 -1.239480939549048  12.221421540706883   1.671302082422486 
  0.009219191950920   5.751611690508518   1.677106854583034 
 -1.236944620090025   7.907696455874452   1.670003274392577 
  4.985156662769146   5.752676538871949   1.668456453365530 
  3.739451605041189  12.220619093546523   1.673692744196020 
  9.962865277777851   5.750867480935181   1.686046588269697 
 -3.729239414508041   7.907785208492028   8.332021784396668 
  2.496265741626069   1.443920705682257   8.328850358261526 
  6.227739310969625   7.908687092058295   8.316279881185579 
  7.473693284686491   1.441489105764385   8.323786474809205 
 12.453026892565559   1.440768433308576   8.339025625782771 
Generated by cif2cell 2.0.0.  :  Failed to get author information, No journal information. Species order: N S B 
 1.0
 14.936314146199660   0.000000000000000   0.000000000000000
 -7.468157073099825  12.935227489513863   0.000000000000000
  0.000000000000001   0.000000000000001  13.341276283792837
 N S B 
 143   2 143
Cartesian
  1.251266055731975   0.722908243873263   1.669918224855296 
  4.986299297540476   7.192105120175166   1.667879511839675 
  6.229674897433392   0.722156001417613   1.676474225522881 
  9.963401932259101   7.189103797461278   1.684406528822554 
 11.208552593085317   0.722270861504901   1.666761123744757 
 -3.728884881679075   9.345107300464370   8.338844857512511 
  1.250857200406586   9.345721214291171   8.329482987321519 
  2.496745739939331   2.878940069456979   8.329693634700551 
  6.229278576268030   9.347363350888452   8.317408555687882 
  7.475633120150852   2.877530789167180   8.322547349574601 
 12.453904698172582   2.877987232959823   8.341084168999577 
 -1.238909310880702   9.345345899092891   1.664621242715639 
  0.007079362874013   2.878582269731393   1.670151453265704 
  4.986296935081656   2.879048489132917   1.678137907219976 
  3.740445632632786   9.347065293344055   1.683409863268747 
  8.718261794141206   9.345749779224818   1.684406528822554 
  9.964908767799603   2.877259839529468   1.674361320612603 
 -4.972960122018853  11.501639614753245   8.337715802296158 
  0.005946193503972  11.501413027097094   8.337432764949732 
  1.252222415059183   5.034517699353595   8.329693634700551 
  6.232309698496654   5.033951798959807   8.338077701004618 
  4.984848807187632  11.502976716048924   8.331595892232331 
 11.209296418831380   5.033214970225879   8.330555610508966 
 -1.237695759367764   5.033916565724896   1.669918224855296 
 -2.483690463805490  11.501370100263632   1.664621242715679 
  2.495394102894195  11.501982489046927   1.674570873256717 
  3.743720460116866   5.035933013089292   1.638750773225350 
  7.474154545305730  11.502670468650356   1.675401602335568 
  8.720307717372560   5.032774315360712   1.688548657157133 
  0.006764274666133   7.189863620259803   8.331757676691076 
  1.251266055731961   0.722908243873264   8.336038987988866 
  4.986299297540469   7.192105120175180   8.338077701004565 
  6.229674897433393   0.722156001417614   8.329482987321519 
  9.963401932259101   7.189103797461279   8.321550684021807 
 -2.483310733594074   7.189440380968711   1.668241410548336 
 11.208552593085317   0.722270861504902   8.339196089100470 
  3.740600991191160   0.722668720072336   1.674199536153364 
  2.497091906824369   7.190478068530492   1.678137907219949 
  7.474491795440254   7.189894847823608   1.693645308184934 
  8.719320389812443   0.721825937540936   1.674570873256717 
  2.497091906824369   7.190478068530493   8.327819305625665 
 13.698133786662567   0.722919235440043   1.664873043844504 
 -1.238909310880067   9.345345899092646   8.341335970130030 
  0.007079362874013   2.878582269731394   8.335805759578296 
  4.986296935081657   2.879048489132918   8.327819305625665 
  3.740445632632786   9.347065293344055   8.322547349574601 
  8.718261794141206   9.345749779224818   8.321550684021807 
  9.964908767799603   2.877259839529469   8.331595892232345 
 -3.728884881679075   9.345107300464370   1.667112355333451 
  1.250857200406585   9.345721214291171   1.676474225522881 
  2.496745739939331   2.878940069456978   1.676263578143397 
  6.229278576268029   9.347363350888452   1.688548657157133 
  7.475633120150851   2.877530789167179   1.683409863268747 
 12.453904698172582   2.877987232959822   1.664873043844504 
 -1.237695759367831   5.033916565724986   8.336038987988866 
 -2.483690463805490  11.501370100263632   8.341335970130030 
  2.495394102894054  11.501982489047172   8.331386339587510 
  3.743720460116777   5.035933013089293   8.367206439620464 
  7.474154545305731  11.502670468650356   8.330555610508966 
 -4.972960122018854  11.501639614753245   1.668241410548349 
  8.720307717372560   5.032774315360713   8.317408555687908 
  0.005946193503972  11.501413027097094   1.668524447895682 
  1.252222415059183   5.034517699353594   1.676263578143344 
  0.006764274666088   7.189863620259803   1.674199536153364 
  6.232309698496653   5.033951798959806   1.667879511839608 
  4.984848807188974  11.502976716048924   1.674361320612603 
 11.209296418831380   5.033214970225878   1.675401602335568 
 -2.483310733594073   7.189440380968712   8.337715802296158 
  3.740600991191115   0.722668720072336   8.331757676691076 
  7.474491795440255   7.189894847823608   8.312311904659333 
  8.719320389812436   0.721825937540950   8.331386339587590 
 13.698133786662567   0.722919235440044   8.341084168999577 
  0.025872271542982   1.446557411833445   5.002978606422314 
  3.643720335541338   8.068097763976484   5.002978606422314 
  5.051010440887225   1.249879427195294   5.002978606422314 
  8.694534025106648   7.894286557543346   5.002978606422314 
  9.996741760658477   1.437811044839488   5.002978606422314 
 -4.986242298769556  10.056289531082287  11.673616748318732 
 -0.007236909222809  10.056471637226526  11.673616748318732 
  1.238008342226845   3.589259447312394  11.673616748318732 
  4.971521124816023  10.056520916252234  11.673616748318732 
  6.216496263167026   3.588943674699400  11.673616748318732 
 11.195332133516596   3.589115338618339  11.673616748318732 
 -2.521329037370981  10.042289992237910   5.002978606422314 
 -1.223694088581381   3.610869834997765   5.002978606422314 
  3.883147235720896   3.192748806128543   5.002978606422314 
  2.455210050125082  10.144289922761175   5.002978606422314 
  7.469604928259038  10.074100408081261   5.002978606422314 
  8.762834556395818   3.567320620399990   5.002978606422314 
 -6.230708928412172  12.212484494761339  11.673616748318732 
 -1.252001308468614  12.212466820173226  11.673616748318732 
 -0.007285822877585   5.745026875438003  11.673616748318732 
  4.971579182366335   5.744837576906471  11.673616748318732 
  3.726695899160559  12.212477315414899  11.673616748318732 
  9.950254623785014   5.744712546513734  11.673616748318732 
 -2.518519700042277   5.760958862412868   5.002978606422314 
 -3.738662784442115  12.146656374529552   5.002978606422314 
  1.256309267395634  12.223310484396340   5.002978606422314 
  2.217189500836608   6.078272246210512   5.002978606422314 
  6.240655192443780  12.241185458584887   5.002978606422314 
  7.526054859180701   5.727585175275460   5.002978606422314 
 -1.251829206004197   7.900857565360843  11.673616748318732 
 -0.006972585241880   1.433143706357690  11.673616748318732 
  3.726978835591168   7.900914345588988  11.673616748318732 
  4.971639603225806   1.432873475784257  11.673616748318732 
  8.705577466267593   7.900662491269044  11.673616748318732 
 -3.766801333634273   7.899816759047882   5.002978606422314 
  9.950277856838238   1.432917159648107  11.673616748318732 
  2.492905068879558   1.322593318232342   5.002978606422314 
  1.118546865029182   8.061106139495461   5.002978606422314 
  6.233876002684570   7.965704607193028   5.002978606422314 
  7.523432110495758   1.365871810157685   5.002978606422314 
  1.237338941017921   7.900871953466461  11.673616748318732 
 12.478873560091774   1.455691013763837   5.002978606422314 
 -2.496833876485672  10.056432279968663  11.673616748318732 
 -1.251733126674773   3.589132207376420  11.673616748318732 
  3.726928043295184   3.588763083518593  11.673616748318732 
  2.482040002467926  10.056540949621548  11.673616748318732 
  7.460808623579770  10.056559501568371  11.673616748318732 
  8.705577458537764   3.588945627921765  11.673616748318732 
 -4.999501432372585  10.034915960557901   5.002978606422314 
 -0.049384725478503  10.102269647163508   5.002978606422314 
  1.278996240738870   3.612923821552743   5.002978606422314 
  4.981421867875806  10.116919521302322   5.002978606422314 
  6.319652100557247   3.433247989381435   5.002978606422314 
 11.232119484759547   3.595715700127083   5.002978606422314 
 -2.496575412551483   5.744775523044751  11.673616748318732 
 -3.741114003850311  12.212425309739166  11.673616748318732 
  1.237655751537387  12.212540871994982  11.673616748318732 
  2.482038329104773   5.744975318316298  11.673616748318732 
  6.216545436080751  12.212626858625338  11.673616748318732 
 -6.227665889146223  12.185388514641422   5.002978606422314 
  7.460958856130289   5.744685758820234  11.673616748318732 
 -1.233412976548568  12.153066735613793   5.002978606422314 
 -0.097533744128706   5.809364956261100   5.002978606422314 
 -1.307561164972751   7.935864851245607   5.002978606422314 
  3.754166079967535  12.250269293890144   5.002978606422314 
  9.969843646769469   5.743559916570268   5.002978606422314 
 -3.741661711788592   7.900612720317318  11.673616748318732 
  2.482310617081088   1.432919351086902  11.673616748318732 
  6.216137540929812   7.900779523092188  11.673616748318732 
  7.460854246771457   1.432981717040127  11.673616748318732 
 12.439727952156593   1.433090286484386  11.673616748318732 
  3.304175786587314   4.782161777506319   5.002978606422314 
  4.946358316438448   5.730276303173809   5.002978606422314 
  1.240551424847441   0.674200706596802   5.002978606422314 
  4.904690973222070   7.417784092481261   5.002978606422314 
  6.289235787918414   0.618394378723325   5.002978606422314 
  9.936875692252976   7.177768366719103   5.002978606422314 
 11.238123425022975   0.739343589284081   5.002978606422314 
 -3.742175532938865   9.337433939381446  11.673616748318732 
  1.237233980128865   9.337312081702983  11.673616748318732 
  2.482919765387536   2.871806918154707  11.673616748318732 
  6.215410007975136   9.337232286730444  11.673616748318732 
  7.460535920982145   2.871814377432287  11.673616748318732 
 12.440088705485254   2.871511274170167  11.673616748318732 
 -1.278192961310505   9.359506046049232   5.002978606422314 
  0.035616706375498   2.895058312683398   5.002978606422314 
  5.113727136209310   2.649140420022352   5.002978606422314 
  3.699427421164803   9.456206758885664   5.002978606422314 
  8.695181903151504   9.328445096885579   5.002978606422314 
  9.999372844271711   2.869260896241407   5.002978606422314 
 -4.985554606663753  11.494123047496409  11.673616748318732 
 -0.006796168933482  11.494056220716566  11.673616748318732 
  1.239131937546033   5.026110629811937  11.673616748318732 
  6.216399360394651   5.025793913916520  11.673616748318732 
  4.972009891896890  11.493831156328485  11.673616748318732 
 11.196203173440409   5.025729053205030  11.673616748318732 
 -1.285235039447015   5.048991191824585   5.002978606422314 
 -2.491069242034916  11.460269387559098   5.002978606422314 
  2.499534195887089  11.548425991814661   5.002978606422314 
  7.466634854615854  11.497799340383729   5.002978606422314 
  8.749496181517415   5.012353658456375   5.002978606422314 
 -0.006747069320537   7.183207117088799  11.673616748318732 
  1.237507810494578   0.714495311625329  11.673616748318732 
  4.971279192799827   7.182405305719445  11.673616748318732 
  6.215580764849935   0.714562512868869  11.673616748318732 
  9.950036671512478   7.182861637325974  11.673616748318732 
 -2.526741208040028   7.194516284324283   5.002978606422314 
 11.194305310687973   0.714045189177698  11.673616748318732 
  3.760480740647590   0.626989540352476   5.002978606422314 
  2.361700779002718   7.415789894473342   5.002978606422314 
  7.453378227076858   7.177704923445018   5.002978606422314 
  8.761611689547182   0.702189611861704   5.002978606422314 
  2.482821371272491   7.181841581112105  11.673616748318732 
 13.719188200515097   0.738786978780658   5.002978606422314 
 -1.250902153022818   9.337402569308715  11.673616748318732 
 -0.006036134419443   2.871010033837771  11.673616748318732 
  4.971682249800839   2.871008086530466  11.673616748318732 
  3.727946475267292   9.336848941205915  11.673616748318732 
  8.706173294515699   9.337296203957189  11.673616748318732 
  9.950569023104926   2.870713792590135  11.673616748318732 
 -3.759765803585033   9.327278191888134   5.002978606422314 
  1.190777444457910   9.449183269870433   5.002978606422314 