B C N                                   
   1.0000000000000000     
    17.5278999999999989    0.0000000000000000    0.0000000000000000
    -8.7639499999999995   15.1796066749929999    0.0000000000000000
     0.0000000000000000    0.0000000000000000   15.0000000000000000
   B    C    N 
    46     4    48
Selective dynamics
Direct
  0.9065314728489199  0.9521142061271961  0.1109452101283599   T   T   T
  0.9070741089393872  0.0954299648346577  0.1105769241715108   T   T   T
  0.9072069913441325  0.2383709137725668  0.1106113992986453   T   T   T
  0.9069821360775242  0.3810941986412284  0.1103883028875077   T   T   T
  0.9068723042049822  0.5237725794987159  0.1103247135462999   T   T   T
  0.9077462143389019  0.6674794505992006  0.1113482679478019   T   T   T
  0.9061902022769763  0.8090183666588979  0.1118270578221399   T   T   T
  0.0495408210484539  0.9523129205109905  0.1111018856921362   T   T   T
  0.0499003658834320  0.0954984679940314  0.1106188552974471   T   T   T
  0.0506339016400370  0.2388618072442613  0.1106513273154780   T   T   T
  0.0505129800704142  0.3812438130948805  0.1110820589406128   T   T   T
  0.0506056248408293  0.5237095907938929  0.1111272075443111   T   T   T
  0.0499931628293100  0.6665758092784064  0.1112034711456315   T   T   T
  0.0500236880749609  0.8097668501882925  0.1114939477127865   T   T   T
  0.1925819766905022  0.9523106089661187  0.1107947178395968   T   T   T
  0.1926870210169302  0.0954817938928630  0.1102464536839894   T   T   T
  0.1933171863987708  0.2388272588824499  0.1104448119239994   T   T   T
  0.1946218149505537  0.3821297779126220  0.1122436015193787   T   T   T
  0.1946998301128624  0.5240064377140743  0.1136795746954256   T   T   T
  0.1928931569119815  0.6664118501117550  0.1125509198097569   T   T   T
  0.1927698659299266  0.8093545040545391  0.1111894237872608   T   T   T
  0.3354704459276416  0.9520254018904668  0.1103635021920330   T   T   T
  0.3350821350743699  0.0949406459712420  0.1102150095435474   T   T   T
  0.3357785840726003  0.2389409337940452  0.1100705038341198   T   T   T
  0.3367525306000270  0.3827998741034369  0.1102157344680261   T   T   T
  0.3354115514720033  0.6653879626385063  0.1126779683132300   T   T   T
  0.3355938369457118  0.8088001870409651  0.1104850704797343   T   T   T
  0.4783286452098278  0.9519649555880716  0.1097201712299529   T   T   T
  0.4781824105095140  0.0950488788672861  0.1101728777031845   T   T   T
  0.4771264443675706  0.2373557225680996  0.1100131811414962   T   T   T
  0.4786230663186760  0.3818182667216402  0.1109947559085022   T   T   T
  0.4770534592857023  0.6647382688756005  0.1107728094693089   T   T   T
  0.4782714568530184  0.8087268118784562  0.1091365009133472   T   T   T
  0.6210379054924607  0.9519479112763845  0.1094089049920584   T   T   T
  0.6211583642673384  0.0950938609769794  0.1101808053213333   T   T   T
  0.6209986912123674  0.2381507895302392  0.1101957230573927   T   T   T
  0.6186816019317812  0.3797031037027383  0.1100952965894596   T   T   T
  0.6192542375792687  0.6650491630315730  0.1122276643937794   T   T   T
  0.6203338162213610  0.8084480556261655  0.1092822570445682   T   T   T
  0.7636902186767669  0.9519820893070877  0.1100702699377354   T   T   T
  0.7640696410954800  0.0952564110961025  0.1103077689489822   T   T   T
  0.7640319916359946  0.2383532599923655  0.1104325681219344   T   T   T
  0.7633962016344281  0.3814487687236119  0.1100107169690880   T   T   T
  0.7644833806252874  0.5257140580816279  0.1104371442406358   T   T   T
  0.7631540970378119  0.6653125694385330  0.1125255726298878   T   T   T
  0.7631067808428166  0.8085965901396200  0.1109896177518070   T   T   T
  0.3375172282664486  0.5244767414751241  0.1277466398883808   T   T   T
  0.4785708696610859  0.5250757708859269  0.1262478049508377   T   T   T
  0.6192054775442775  0.5240504895787959  0.1123136071839836   T   T   T
  0.6647167091060824  0.4787150038108064  0.1103238823532108   T   T   T
  0.9540193154619556  0.9044110460479444  0.1113892612299067   T   T   T
  0.9544753764868451  0.0475653976691707  0.1106962143217269   T   T   T
  0.9551212859545376  0.1909163543545180  0.1105965691044403   T   T   T
  0.9550826820681484  0.3336514712392257  0.1106290229638964   T   T   T
  0.9551837736488451  0.4763612773399384  0.1103530192647814   T   T   T
  0.9548790042991186  0.6192917165992804  0.1107350245490792   T   T   T
  0.9548463903973952  0.7624563284171282  0.1117784468243892   T   T   T
  0.0973951468377000  0.9048808440191959  0.1112136572370104   T   T   T
  0.0973305197775779  0.0476992936944262  0.1106133968165677   T   T   T
  0.0979413498143263  0.1909853109192108  0.1105388950468363   T   T   T
  0.0990141978440841  0.3345217208616908  0.1109778404660658   T   T   T
  0.0991175697100523  0.4763548638906558  0.1115675200495716   T   T   T
  0.0978149505658106  0.6189457557701559  0.1115743076089656   T   T   T
  0.0975529678520217  0.7619137253244312  0.1113806999384371   T   T   T
  0.2402402730650848  0.9045894793665114  0.1107625334946574   T   T   T
  0.2400016286390927  0.0475108860426322  0.1103628131995603   T   T   T
  0.2405499242952373  0.1909559846960715  0.1098885262471680   T   T   T
  0.2414916259782527  0.3342631513609250  0.1111096122219894   T   T   T
  0.2446662884971590  0.4777506279154158  0.1153591923210059   T   T   T
  0.2407220605261067  0.6188518781301086  0.1144516909449251   T   T   T
  0.2404437066756459  0.7615917609704368  0.1114454324302453   T   T   T
  0.3830664909156195  0.9041378116406480  0.1100162243963512   T   T   T
  0.3828646170846225  0.0473347400431673  0.1102314523311585   T   T   T
  0.3822943487188067  0.1902151037872266  0.1100191121042679   T   T   T
  0.3838269111049378  0.3348527686130884  0.1104633497313210   T   T   T
  0.3850333022552864  0.4782089308749423  0.1122409428555969   T   T   T
  0.3821280369286504  0.6161968396000018  0.1140631814895080   T   T   T
  0.3831803343307708  0.7606500661346622  0.1101077680494975   T   T   T
  0.5258049456821967  0.9040411609172649  0.1091412824054474   T   T   T
  0.5258046930547020  0.0472619357059931  0.1100591943023601   T   T   T
  0.5254161118407352  0.1902684714172952  0.1101235022301897   T   T   T
  0.5238197387152722  0.3325099070905000  0.1100528819240603   T   T   T
  0.5263434922818613  0.4796115965179506  0.1132463529552969   T   T   T
  0.5240776776555844  0.6164911922786444  0.1134255072536816   T   T   T
  0.5251383343554404  0.7602631771814475  0.1086636476970733   T   T   T
  0.6683051946385565  0.9038499512173324  0.1093437879910602   T   T   T
  0.6687357522604650  0.0472832177479765  0.1100005129264147   T   T   T
  0.6686611714705926  0.1903154081983532  0.1104095070240937   T   T   T
  0.6678809408405931  0.3330399072590657  0.1099974938643252   T   T   T
  0.6658911151788617  0.6163613377627806  0.1136694408042369   T   T   T
  0.6674079994795582  0.7600925340097452  0.1103142706091717   T   T   T
  0.8109987754964673  0.9040017715659757  0.1105784481822434   T   T   T
  0.8116272314532862  0.0474329893735895  0.1103265641027423   T   T   T
  0.8118269196026094  0.1906092820601976  0.1105521401052017   T   T   T
  0.8115564107460503  0.3336784253953823  0.1102416678385737   T   T   T
  0.8117105315531037  0.4768757415057477  0.1099632885944453   T   T   T
  0.8127980084199045  0.6206096802397759  0.1114954229304813   T   T   T
  0.8102673959848965  0.7607801531849735  0.1121064708904603   T   T   T

  0.00000000E+00  0.00000000E+00  0.00000000E+00
  0.00000000E+00  0.00000000E+00  0.00000000E+00
  0.00000000E+00  0.00000000E+00  0.00000000E+00
  0.00000000E+00  0.00000000E+00  0.00000000E+00
  0.00000000E+00  0.00000000E+00  0.00000000E+00
  0.00000000E+00  0.00000000E+00  0.00000000E+00
  0.00000000E+00  0.00000000E+00  0.00000000E+00
  0.00000000E+00  0.00000000E+00  0.00000000E+00
  0.00000000E+00  0.00000000E+00  0.00000000E+00
  0.00000000E+00  0.00000000E+00  0.00000000E+00
  0.00000000E+00  0.00000000E+00  0.00000000E+00
  0.00000000E+00  0.00000000E+00  0.00000000E+00
  0.00000000E+00  0.00000000E+00  0.00000000E+00
  0.00000000E+00  0.00000000E+00  0.00000000E+00
  0.00000000E+00  0.00000000E+00  0.00000000E+00
  0.00000000E+00  0.00000000E+00  0.00000000E+00
  0.00000000E+00  0.00000000E+00  0.00000000E+00
  0.00000000E+00  0.00000000E+00  0.00000000E+00
  0.00000000E+00  0.00000000E+00  0.00000000E+00
  0.00000000E+00  0.00000000E+00  0.00000000E+00
  0.00000000E+00  0.00000000E+00  0.00000000E+00
  0.00000000E+00  0.00000000E+00  0.00000000E+00
  0.00000000E+00  0.00000000E+00  0.00000000E+00
  0.00000000E+00  0.00000000E+00  0.00000000E+00
  0.00000000E+00  0.00000000E+00  0.00000000E+00
  0.00000000E+00  0.00000000E+00  0.00000000E+00
  0.00000000E+00  0.00000000E+00  0.00000000E+00
  0.00000000E+00  0.00000000E+00  0.00000000E+00
  0.00000000E+00  0.00000000E+00  0.00000000E+00
  0.00000000E+00  0.00000000E+00  0.00000000E+00
  0.00000000E+00  0.00000000E+00  0.00000000E+00
  0.00000000E+00  0.00000000E+00  0.00000000E+00
  0.00000000E+00  0.00000000E+00  0.00000000E+00
  0.00000000E+00  0.00000000E+00  0.00000000E+00
  0.00000000E+00  0.00000000E+00  0.00000000E+00
  0.00000000E+00  0.00000000E+00  0.00000000E+00
  0.00000000E+00  0.00000000E+00  0.00000000E+00
  0.00000000E+00  0.00000000E+00  0.00000000E+00
  0.00000000E+00  0.00000000E+00  0.00000000E+00
  0.00000000E+00  0.00000000E+00  0.00000000E+00
  0.00000000E+00  0.00000000E+00  0.00000000E+00
  0.00000000E+00  0.00000000E+00  0.00000000E+00
  0.00000000E+00  0.00000000E+00  0.00000000E+00
  0.00000000E+00  0.00000000E+00  0.00000000E+00
  0.00000000E+00  0.00000000E+00  0.00000000E+00
  0.00000000E+00  0.00000000E+00  0.00000000E+00
  0.00000000E+00  0.00000000E+00  0.00000000E+00
  0.00000000E+00  0.00000000E+00  0.00000000E+00
  0.00000000E+00  0.00000000E+00  0.00000000E+00
  0.00000000E+00  0.00000000E+00  0.00000000E+00
  0.00000000E+00  0.00000000E+00  0.00000000E+00
  0.00000000E+00  0.00000000E+00  0.00000000E+00
  0.00000000E+00  0.00000000E+00  0.00000000E+00
  0.00000000E+00  0.00000000E+00  0.00000000E+00
  0.00000000E+00  0.00000000E+00  0.00000000E+00
  0.00000000E+00  0.00000000E+00  0.00000000E+00
  0.00000000E+00  0.00000000E+00  0.00000000E+00
  0.00000000E+00  0.00000000E+00  0.00000000E+00
  0.00000000E+00  0.00000000E+00  0.00000000E+00
  0.00000000E+00  0.00000000E+00  0.00000000E+00
  0.00000000E+00  0.00000000E+00  0.00000000E+00
  0.00000000E+00  0.00000000E+00  0.00000000E+00
  0.00000000E+00  0.00000000E+00  0.00000000E+00
  0.00000000E+00  0.00000000E+00  0.00000000E+00
  0.00000000E+00  0.00000000E+00  0.00000000E+00
  0.00000000E+00  0.00000000E+00  0.00000000E+00
  0.00000000E+00  0.00000000E+00  0.00000000E+00
  0.00000000E+00  0.00000000E+00  0.00000000E+00
  0.00000000E+00  0.00000000E+00  0.00000000E+00
  0.00000000E+00  0.00000000E+00  0.00000000E+00
  0.00000000E+00  0.00000000E+00  0.00000000E+00
  0.00000000E+00  0.00000000E+00  0.00000000E+00
  0.00000000E+00  0.00000000E+00  0.00000000E+00
  0.00000000E+00  0.00000000E+00  0.00000000E+00
  0.00000000E+00  0.00000000E+00  0.00000000E+00
  0.00000000E+00  0.00000000E+00  0.00000000E+00
  0.00000000E+00  0.00000000E+00  0.00000000E+00
  0.00000000E+00  0.00000000E+00  0.00000000E+00
  0.00000000E+00  0.00000000E+00  0.00000000E+00
  0.00000000E+00  0.00000000E+00  0.00000000E+00
  0.00000000E+00  0.00000000E+00  0.00000000E+00
  0.00000000E+00  0.00000000E+00  0.00000000E+00
  0.00000000E+00  0.00000000E+00  0.00000000E+00
  0.00000000E+00  0.00000000E+00  0.00000000E+00
  0.00000000E+00  0.00000000E+00  0.00000000E+00
  0.00000000E+00  0.00000000E+00  0.00000000E+00
  0.00000000E+00  0.00000000E+00  0.00000000E+00
  0.00000000E+00  0.00000000E+00  0.00000000E+00
  0.00000000E+00  0.00000000E+00  0.00000000E+00
  0.00000000E+00  0.00000000E+00  0.00000000E+00
  0.00000000E+00  0.00000000E+00  0.00000000E+00
  0.00000000E+00  0.00000000E+00  0.00000000E+00
  0.00000000E+00  0.00000000E+00  0.00000000E+00
  0.00000000E+00  0.00000000E+00  0.00000000E+00
  0.00000000E+00  0.00000000E+00  0.00000000E+00
  0.00000000E+00  0.00000000E+00  0.00000000E+00
  0.00000000E+00  0.00000000E+00  0.00000000E+00
  0.00000000E+00  0.00000000E+00  0.00000000E+00
