Species order:  N B                     
   2.51242800000000     
     5.9449720136058266    0.0000000000000000    0.0000000000000000
    -2.9724860068029120    5.1484967885702053   -0.0000000000000001
     0.0000000000000000    0.0000000000000009    5.3101128803662583
   N    B 
   144   143
Direct
  0.4415545693458984  0.3874439513396132  0.3750000000000000
  0.1111047346147443  0.0555661381179777  0.1250514107135404
  0.6111386774014084  0.5555384835249149  0.1248799892521977
  0.4444644750550918  0.0555867102275140  0.1250428646770463
  0.9444922456156697  0.5555760641061801  0.1250640594022605
  0.7777413058682167  0.0555373196007727  0.1250598001963026
  0.1111576110636274  0.7222454721984778  0.6249746947926894
  0.4444644750550918  0.7222110981609130  0.6249571353229538
  0.2777484342654054  0.2222351243110312  0.6249761716552386
  0.7777997822328343  0.7222177675642634  0.6249371004932042
  0.6111146316836921  0.2222599516361816  0.6248607489332717
  0.9444061600735586  0.2222046490953383  0.6249877693752728
  0.2778128762607058  0.7222286368866370  0.1250084465560764
  0.1110495558162575  0.2221914445747895  0.1249578967063387
  0.4444794097553161  0.2222646149485403  0.1248822984553715
  0.6111146316836921  0.7221880133808461  0.1251392510667285
  0.9444922456156697  0.7222495148428190  0.1250640594022605
  0.7777626997016681  0.2222289967269391  0.1250898378670122
  0.1111467459723598  0.8889210846238775  0.6249832108602085
  0.4444604198189822  0.8888968765761587  0.6249760872861221
  0.2777484342654053  0.3888466432877024  0.6249761716552386
  0.6111386774014084  0.3889335272098217  0.6251200107478021
  0.7777626997016681  0.8888670363080583  0.6249101621329879
  0.9444567821648725  0.3888937638570112  0.6249549883098289
  0.1111047346147443  0.3888719298300951  0.1250514107135404
  0.2778128762607058  0.8889175727074047  0.1250084465560764
  0.6110995724484338  0.8888719646901012  0.1250710314411427
  0.4443875203246681  0.3888604268289990  0.1238453911254639
  0.9444567821648725  0.8888963516411902  0.1250450116901710
  0.7777997822328343  0.3889153480018983  0.1250628995067956
  0.2778018129185361  0.5555376488222468  0.6249742837583712
  0.1111047346147443  0.0555661381179777  0.6249485892864536
  0.6111386774014084  0.5555384835249149  0.6251200107478021
  0.4444644750550918  0.0555867102275140  0.6249571353229538
  0.9444922456156697  0.5555760641061801  0.6249359405977388
  0.1111467459723598  0.5555589946818036  0.1250167891397913
  0.7777413058682167  0.0555373196007727  0.6249401998036976
  0.2778018129185361  0.0555974974296249  0.1250257162416293
  0.4444794097553161  0.5555481281401116  0.1248822984553715
  0.7778295828987101  0.5555814581160220  0.1250551783795026
  0.6110995724484338  0.0555609410916625  0.1250710314411427
  0.4444794097553161  0.5555481281401116  0.6251177015446282
  0.9444061600735586  0.0555348443115559  0.1250122306247278
  0.2778128762607058  0.7222286368866370  0.6249915534439237
  0.1110495558162575  0.2221914445747895  0.6250421032936619
  0.4444794097553161  0.2222646149485403  0.6251177015446282
  0.6111146316836921  0.7221880133808461  0.6248607489332717
  0.9444922456156697  0.7222495148428190  0.6249359405977388
  0.7777626997016681  0.2222289967269391  0.6249101621329879
  0.1111576110636274  0.7222454721984778  0.1250253052073099
  0.4444644750550918  0.7222110981609130  0.1250428646770463
  0.2777484342654053  0.2222351243110312  0.1250238283447611
  0.7777997822328343  0.7222177675642634  0.1250628995067956
  0.6111146316836921  0.2222599516361816  0.1251392510667285
  0.9444061600735586  0.2222046490953383  0.1250122306247278
  0.1111047346147443  0.3888719298300951  0.6249485892864536
  0.2778128762607058  0.8889175727074047  0.6249915534439237
  0.6110995724484338  0.8888719646901012  0.6249289685588577
  0.4443875203246681  0.3888604268289990  0.6261546088745362
  0.9444567821648725  0.8888963516411902  0.6249549883098289
  0.1111467459723598  0.8889210846238775  0.1250167891397913
  0.7777997822328343  0.3889153480018983  0.6249371004932042
  0.4444604198189822  0.8888968765761587  0.1250239127138778
  0.2777484342654053  0.3888466432877024  0.1250238283447611
  0.2778018129185361  0.5555376488222468  0.1250257162416293
  0.6111386774014084  0.3889335272098217  0.1248799892521977
  0.7777626997016681  0.8888670363080583  0.1250898378670122
  0.9444567821648725  0.3888937638570112  0.1250450116901710
  0.1111467459723598  0.5555589946818036  0.6249832108602085
  0.2778018129185361  0.0555974974296249  0.6249742837583712
  0.7778295828987101  0.5555814581160220  0.6249448216204974
  0.6110995724484338  0.0555609410916625  0.6249289685588577
  0.9444061600735586  0.0555348443115559  0.6249877693752728
  0.0532367409348878  0.1096905039314451  0.3750000000000000
  0.5554151762341444  0.6012600557641767  0.3750000000000000
  0.3894455268791189  0.1151770063968967  0.3750000000000000
  0.8924821688974578  0.6129077511154011  0.3750000000000000
  0.7209598038323336  0.1113583292862143  0.3750000000000000
  0.0555919771701996  0.7777952305869226  0.8750000000000000
  0.3889256937629703  0.7777974722008604  0.8750000000000000
  0.2222587966164153  0.2777960649748723  0.8750000000000000
  0.7222599786676399  0.7777946698774884  0.8750000000000000
  0.5555954750754657  0.2777982765397444  0.8750000000000000
  0.8889266871267892  0.2777994614752245  0.8750000000000000
  0.2240835165304491  0.7787084249318929  0.3750000000000000
  0.0532367409348878  0.2768795703367712  0.3750000000000000
  0.3854418404536984  0.2807707074419822  0.3750000000000000
  0.5554923846675630  0.7738841077351779  0.3750000000000000
  0.8898847537256120  0.7778179390743867  0.3750000000000000
  0.7212761587638921  0.2795918728553495  0.3750000000000000
  0.0555903154662998  0.9444593676496580  0.8750000000000000
  0.3889256937629703  0.9444615548954446  0.8750000000000000
  0.2222572600582575  0.4444649952464725  0.8750000000000000
  0.5555990954352883  0.4444662143843084  0.8750000000000000
  0.7222572520332160  0.9444609895115851  0.8750000000000000
  0.8889293216902742  0.4444662468746418  0.8750000000000000
  0.0556556086158972  0.4444328164118045  0.3750000000000000
  0.2235306479055597  0.9459340784772992  0.3750000000000000
  0.5555695150474804  0.9444514241904083  0.3750000000000000
  0.3854418404536984  0.4380044663450518  0.3750000000000000
  0.8874402198804417  0.9429964405928765  0.3750000000000000
  0.7247710845809173  0.4475838956005206  0.3750000000000000
  0.2222557507675154  0.6111305438944628  0.8750000000000000
  0.0555914259258774  0.1111264649107990  0.8750000000000000
  0.5555954750754657  0.6111305318690492  0.8750000000000000
  0.3889246760317022  0.1111260634795646  0.8750000000000000
  0.8889304839775700  0.6111319086554559  0.8750000000000000
  0.0577038340463420  0.6119588922419021  0.3750000000000000
  0.7222572520332160  0.1111295958549668  0.8750000000000000
  0.2214773705708001  0.1114402434326895  0.3750000000000000
  0.3894455268791189  0.6076018538155582  0.3750000000000000
  0.7247710845809173  0.6105205223137328  0.3750000000000000
  0.5554923846675630  0.1149416102657271  0.3750000000000000
  0.3889246760317022  0.6111319458854807  0.8750000000000000
  0.8868920428374710  0.1101126880854064  0.3750000000000000
  0.2222569613082875  0.7777951473208078  0.8750000000000000
  0.0555914259258774  0.2777982943484135  0.8750000000000000
  0.3889260069724212  0.2777924481219891  0.8750000000000000
  0.5555913839786776  0.7777954779152030  0.8750000000000000
  0.8889293216902742  0.7777964081489693  0.8750000000000000
  0.7222599786676399  0.2777986421234803  0.8750000000000000
  0.0577038340463420  0.7790782751377752  0.3750000000000000
  0.3900585816535315  0.7770788976139086  0.3750000000000000
  0.2179924691923751  0.2756629012628551  0.3750000000000000
  0.7212761587638921  0.7750176192418848  0.3750000000000000
  0.5554151762341444  0.2874884538033037  0.3750000000000000
  0.8874402198804417  0.2777771126209083  0.3750000000000000
  0.0555903154662998  0.4444642811499711  0.8750000000000000
  0.2222557507675154  0.9444585402063952  0.8750000000000000
  0.5555903727973468  0.9444618530653347  0.8750000000000000
  0.3889260069724212  0.4444668921837676  0.8750000000000000
  0.8889266871267892  0.9444605589848933  0.8750000000000000
  0.0556556086158972  0.9445561255374210  0.3750000000000000
  0.7222640005023737  0.4444666195264411  0.8750000000000000
  0.3900585816535315  0.9463130173729578  0.3750000000000000
  0.2214773705708001  0.4433704604714463  0.3750000000000000
  0.2235306479055597  0.6109299027615959  0.3750000000000000
  0.7209598038323336  0.9429348078794549  0.3750000000000000
  0.8898847537256120  0.4454001479845610  0.3750000000000000
  0.0555919771701996  0.6111300799166125  0.8750000000000000
  0.2222572600582575  0.1111255981451205  0.8750000000000000
  0.7222640005023737  0.6111307143092751  0.8750000000000000
  0.5555913839786776  0.1111292393968107  0.8750000000000000
  0.8889251405157332  0.1111292369245345  0.8750000000000000
  0.1102931538185841  0.0555186098371341  0.3750000000000000
  0.6149082559493619  0.5489420273723833  0.3750000000000000
  0.4443790419052135  0.0584491685765169  0.3750000000000000
  0.9470005507648372  0.5565565889771953  0.3750000000000000
  0.7759254817585820  0.0546294075459588  0.3750000000000000
  0.1111516965090968  0.7222425149212096  0.8750000000000000
  0.4444693729978859  0.7222222394918716  0.8750000000000000
  0.2778325392451091  0.2222563264174255  0.8750000000000000
  0.7778093976738888  0.7222289138112822  0.8750000000000000
  0.6111321743651589  0.2222497870587843  0.8750000000000000
  0.9444971668831329  0.2222482765323491  0.8750000000000000
  0.2790621495217082  0.7222192656731793  0.3750000000000000
  0.1078549121290839  0.2205941227312061  0.3750000000000000
  0.4434153546216774  0.2277127114924890  0.3750000000000000
  0.6101280903186506  0.7161343114297427  0.3750000000000000
  0.9470005507648372  0.7237772951209783  0.3750000000000000
  0.7762750515197896  0.2226684762090207  0.3750000000000000
  0.1111544373441692  0.8889154489013326  0.8750000000000000
  0.4444721287077302  0.8889027310205332  0.8750000000000000
  0.2778325392451091  0.3889095461610121  0.8750000000000000
  0.6111261512290361  0.3889121221618045  0.8750000000000000
  0.7778165269078992  0.8889032011985835  0.8750000000000000
  0.9444906316023262  0.3889118550197039  0.8750000000000000
  0.1102931538185841  0.3881078773147787  0.3750000000000000
  0.2790621495217082  0.8901762171818579  0.3750000000000000
  0.6100345225001879  0.8865972192890874  0.3750000000000000
  0.9445445300188964  0.8888509521516745  0.3750000000000000
  0.7788986113209942  0.3902769005077721  0.3750000000000000
  0.2778169318015328  0.5555643925250161  0.8750000000000000
  0.1111632871958515  0.0555867045337397  0.8750000000000000
  0.6111261512290361  0.5555473624005672  0.8750000000000000
  0.4444693729978859  0.0555804668393496  0.8750000000000000
  0.9444854082428605  0.5555760879990018  0.8750000000000000
  0.1125169282589501  0.5557102241887697  0.3750000000000000
  0.7778198665259185  0.0555765999296230  0.8750000000000000
  0.2783105707130771  0.0573464589209477  0.3750000000000000
  0.4434153546216774  0.5490359764625247  0.3750000000000000
  0.7827563039931259  0.5580448186632302  0.3750000000000000
  0.6100345225001879  0.0567706365444355  0.3750000000000000
  0.4444687367598211  0.5555481495801307  0.8750000000000000
  0.9423582103344592  0.0542166462347398  0.3750000000000000
  0.2778123708662030  0.7222345243287894  0.8750000000000000
  0.1111708783936040  0.2222521058634663  0.8750000000000000
  0.4444687367598211  0.2222539205130332  0.8750000000000000
  0.6111321743651589  0.7222157206397035  0.8750000000000000
  0.9444854082428605  0.7222426535771870  0.8750000000000000
  0.7778165269078992  0.2222466590426434  0.8750000000000000
  0.1131599156005707  0.7232466244669497  0.3750000000000000
  0.4443790419052135  0.7192632066620332  0.3750000000000000
  0.2749121904594844  0.2223145968408498  0.3750000000000000
  0.7788986113209942  0.7219550441465578  0.3750000000000000
  0.6101280903186506  0.2273271122222353  0.3750000000000000
  0.9423582103344592  0.2214748974330546  0.3750000000000000
  0.1111632871958515  0.3889099159954406  0.8750000000000000
  0.2778123708662030  0.8889111798707349  0.8750000000000000
  0.6111387848619910  0.8888973897697048  0.8750000000000000
  0.4444759833103686  0.3889046583218487  0.8750000000000000
  0.9444906316023262  0.8889121099159502  0.8750000000000000
  0.1125169282589501  0.8901400374035091  0.3750000000000000
  0.7778093976738888  0.3889138171959284  0.8750000000000000
  0.4446810264362528  0.8890071798847872  0.3750000000000000
  0.2749121904594844  0.3859309269519632  0.3750000000000000
  0.2783105707130771  0.5542974451254654  0.3750000000000000
  0.6149082559493619  0.3992995619103072  0.3750000000000000
  0.7762750515197896  0.8869399086440977  0.3750000000000000
  0.9445445300188964  0.3890269112005428  0.3750000000000000
  0.1111544373441692  0.5555723217761646  0.8750000000000000
  0.2778169318015328  0.0555858726098593  0.8750000000000000
  0.7778050705505457  0.5555692019419399  0.8750000000000000
  0.6111387848619910  0.0555747284256072  0.8750000000000000
  0.9444971668831329  0.0555822236841195  0.8750000000000000
  0.0555537652913188  0.1111242464402172  0.1249940644385031
  0.5555106231885187  0.6110074836384435  0.1249404984311565
  0.3889295431936174  0.1112165771115888  0.1250343908388577
  0.8889324856080399  0.6111329094706922  0.1249723967303679
  0.7221987368181981  0.1111067226623775  0.1250155780101742
  0.0556267230137730  0.7778268906080258  0.6250016225145695
  0.3889206479402746  0.7777689478465316  0.6249848309091486
  0.2222309793526031  0.2777821563429658  0.6249962880375802
  0.7222077036729763  0.7777462126770157  0.6249969101267637
  0.5555106231885187  0.2778364728834094  0.6250595015688440
  0.8888913613042757  0.2777782390179079  0.6249986469716484
  0.2222877081979880  0.7778105207656624  0.1249957152085676
  0.0555537652913188  0.2777628521844370  0.1249940644385031
  0.3889368599477245  0.2779254042501034  0.1249206699109040
  0.5555412057574701  0.7777344615530808  0.1250321669932510
  0.8889153654526465  0.7777931415937958  0.1249928664086273
  0.7222077036729763  0.2777948243292908  0.1250030898732369
  0.0555982804757122  0.9444897538494404  0.6249914418368224
  0.3889206479402746  0.9444850334270776  0.6249848309091486
  0.2222670136980883  0.4444042227259595  0.6249345403225235
  0.5553360093989362  0.4443346713661289  0.6249183980087618
  0.7221987368181981  0.9444253474891565  0.6249844219898260
  0.8889153654526465  0.4444555571921863  0.6250071335913723
  0.0555982804757122  0.4444418599596003  0.1250085581631771
  0.2222855959535686  0.9445213722875251  0.1250104892808389
  0.5555457522643319  0.9444395427988262  0.1250150645778323
  0.3889368599477245  0.4443447890309573  0.1249206699109040
  0.8888913613042757  0.9444464556197034  0.1250013530283521
  0.7221663935590183  0.4444414332160492  0.1249033055732616
  0.2222855959535686  0.6110975569993798  0.6249895107191605
  0.0555537652913188  0.1111242464402172  0.6250059355614974
  0.5555106231885187  0.6110074836384435  0.6250595015688440
  0.3889295431936174  0.1112165771115888  0.6249656091611420
  0.8889324856080399  0.6111329094706922  0.6250276032696325
  0.0556267230137730  0.6111331657390896  0.1249983774854300
  0.7221987368181981  0.1111067226623775  0.6249844219898260
  0.2222670136980883  0.1111961243054644  0.1250654596774764
  0.3889295431936174  0.6110462994153719  0.1250343908388577
  0.7221663935590183  0.6110582936763056  0.1249033055732616
  0.5555412057574701  0.1111400775377232  0.1250321669932510
  0.3889295431936174  0.6110462994153719  0.6249656091611420
  0.8888733065614123  0.1111033199473776  0.1249925676041086
  0.2222877081979880  0.7778105207656624  0.6250042847914326
  0.0555537652913188  0.2777628521844370  0.6250059355614974
  0.3889368599477245  0.2779254042501034  0.6250793300890954
  0.5555412057574701  0.7777344615530808  0.6249678330067492
  0.8889153654526465  0.7777931415937958  0.6250071335913723
  0.7222077036729763  0.2777948243292908  0.6249969101267637
  0.0556267230137730  0.7778268906080258  0.1249983774854300
  0.3889206479402746  0.7777689478465316  0.1250151690908514
  0.2222309793526031  0.2777821563429658  0.1250037119624192
  0.7222077036729763  0.7777462126770157  0.1250030898732369
  0.5555106231885187  0.2778364728834094  0.1249404984311565
  0.8888913613042757  0.2777782390179079  0.1250013530283521
  0.0555982804757122  0.4444418599596003  0.6249914418368224
  0.2222855959535686  0.9445213722875251  0.6249895107191605
  0.5555457522643319  0.9444395427988262  0.6249849354221606
  0.3889368599477245  0.4443447890309573  0.6250793300890954
  0.8888913613042757  0.9444464556197034  0.6249986469716484
  0.0555982804757122  0.9444897538494404  0.1250085581631771
  0.7221663935590183  0.4444414332160492  0.6250966944267382
  0.3889206479402746  0.9444850334270776  0.1250151690908514
  0.2222670136980883  0.4444042227259595  0.1250654596774764
  0.2222855959535686  0.6110975569993798  0.1250104892808389
  0.5553360093989362  0.4443346713661289  0.1250816019912381
  0.7221987368181981  0.9444253474891565  0.1250155780101742
  0.8889153654526465  0.4444555571921863  0.1249928664086273
  0.0556267230137730  0.6111331657390896  0.6250016225145695
  0.2222670136980883  0.1111961243054644  0.6249345403225235
  0.7221663935590183  0.6110582936763056  0.6250966944267382
  0.5555412057574701  0.1111400775377232  0.6249678330067492
  0.8888733065614123  0.1111033199473776  0.6250074323958917
 
  0.00000000E+00  0.00000000E+00  0.00000000E+00
  0.00000000E+00  0.00000000E+00  0.00000000E+00
  0.00000000E+00  0.00000000E+00  0.00000000E+00
  0.00000000E+00  0.00000000E+00  0.00000000E+00
  0.00000000E+00  0.00000000E+00  0.00000000E+00
  0.00000000E+00  0.00000000E+00  0.00000000E+00
  0.00000000E+00  0.00000000E+00  0.00000000E+00
  0.00000000E+00  0.00000000E+00  0.00000000E+00
  0.00000000E+00  0.00000000E+00  0.00000000E+00
  0.00000000E+00  0.00000000E+00  0.00000000E+00
  0.00000000E+00  0.00000000E+00  0.00000000E+00
  0.00000000E+00  0.00000000E+00  0.00000000E+00
  0.00000000E+00  0.00000000E+00  0.00000000E+00
  0.00000000E+00  0.00000000E+00  0.00000000E+00
  0.00000000E+00  0.00000000E+00  0.00000000E+00
  0.00000000E+00  0.00000000E+00  0.00000000E+00
  0.00000000E+00  0.00000000E+00  0.00000000E+00
  0.00000000E+00  0.00000000E+00  0.00000000E+00
  0.00000000E+00  0.00000000E+00  0.00000000E+00
  0.00000000E+00  0.00000000E+00  0.00000000E+00
  0.00000000E+00  0.00000000E+00  0.00000000E+00
  0.00000000E+00  0.00000000E+00  0.00000000E+00
  0.00000000E+00  0.00000000E+00  0.00000000E+00
  0.00000000E+00  0.00000000E+00  0.00000000E+00
  0.00000000E+00  0.00000000E+00  0.00000000E+00
  0.00000000E+00  0.00000000E+00  0.00000000E+00
  0.00000000E+00  0.00000000E+00  0.00000000E+00
  0.00000000E+00  0.00000000E+00  0.00000000E+00
  0.00000000E+00  0.00000000E+00  0.00000000E+00
  0.00000000E+00  0.00000000E+00  0.00000000E+00
  0.00000000E+00  0.00000000E+00  0.00000000E+00
  0.00000000E+00  0.00000000E+00  0.00000000E+00
  0.00000000E+00  0.00000000E+00  0.00000000E+00
  0.00000000E+00  0.00000000E+00  0.00000000E+00
  0.00000000E+00  0.00000000E+00  0.00000000E+00
  0.00000000E+00  0.00000000E+00  0.00000000E+00
  0.00000000E+00  0.00000000E+00  0.00000000E+00
  0.00000000E+00  0.00000000E+00  0.00000000E+00
  0.00000000E+00  0.00000000E+00  0.00000000E+00
  0.00000000E+00  0.00000000E+00  0.00000000E+00
  0.00000000E+00  0.00000000E+00  0.00000000E+00
  0.00000000E+00  0.00000000E+00  0.00000000E+00
  0.00000000E+00  0.00000000E+00  0.00000000E+00
  0.00000000E+00  0.00000000E+00  0.00000000E+00
  0.00000000E+00  0.00000000E+00  0.00000000E+00
  0.00000000E+00  0.00000000E+00  0.00000000E+00
  0.00000000E+00  0.00000000E+00  0.00000000E+00
  0.00000000E+00  0.00000000E+00  0.00000000E+00
  0.00000000E+00  0.00000000E+00  0.00000000E+00
  0.00000000E+00  0.00000000E+00  0.00000000E+00
  0.00000000E+00  0.00000000E+00  0.00000000E+00
  0.00000000E+00  0.00000000E+00  0.00000000E+00
  0.00000000E+00  0.00000000E+00  0.00000000E+00
  0.00000000E+00  0.00000000E+00  0.00000000E+00
  0.00000000E+00  0.00000000E+00  0.00000000E+00
  0.00000000E+00  0.00000000E+00  0.00000000E+00
  0.00000000E+00  0.00000000E+00  0.00000000E+00
  0.00000000E+00  0.00000000E+00  0.00000000E+00
  0.00000000E+00  0.00000000E+00  0.00000000E+00
  0.00000000E+00  0.00000000E+00  0.00000000E+00
  0.00000000E+00  0.00000000E+00  0.00000000E+00
  0.00000000E+00  0.00000000E+00  0.00000000E+00
  0.00000000E+00  0.00000000E+00  0.00000000E+00
  0.00000000E+00  0.00000000E+00  0.00000000E+00
  0.00000000E+00  0.00000000E+00  0.00000000E+00
  0.00000000E+00  0.00000000E+00  0.00000000E+00
  0.00000000E+00  0.00000000E+00  0.00000000E+00
  0.00000000E+00  0.00000000E+00  0.00000000E+00
  0.00000000E+00  0.00000000E+00  0.00000000E+00
  0.00000000E+00  0.00000000E+00  0.00000000E+00
  0.00000000E+00  0.00000000E+00  0.00000000E+00
  0.00000000E+00  0.00000000E+00  0.00000000E+00
  0.00000000E+00  0.00000000E+00  0.00000000E+00
  0.00000000E+00  0.00000000E+00  0.00000000E+00
  0.00000000E+00  0.00000000E+00  0.00000000E+00
  0.00000000E+00  0.00000000E+00  0.00000000E+00
  0.00000000E+00  0.00000000E+00  0.00000000E+00
  0.00000000E+00  0.00000000E+00  0.00000000E+00
  0.00000000E+00  0.00000000E+00  0.00000000E+00
  0.00000000E+00  0.00000000E+00  0.00000000E+00
  0.00000000E+00  0.00000000E+00  0.00000000E+00
  0.00000000E+00  0.00000000E+00  0.00000000E+00
  0.00000000E+00  0.00000000E+00  0.00000000E+00
  0.00000000E+00  0.00000000E+00  0.00000000E+00
  0.00000000E+00  0.00000000E+00  0.00000000E+00
  0.00000000E+00  0.00000000E+00  0.00000000E+00
  0.00000000E+00  0.00000000E+00  0.00000000E+00
  0.00000000E+00  0.00000000E+00  0.00000000E+00
  0.00000000E+00  0.00000000E+00  0.00000000E+00
  0.00000000E+00  0.00000000E+00  0.00000000E+00
  0.00000000E+00  0.00000000E+00  0.00000000E+00
  0.00000000E+00  0.00000000E+00  0.00000000E+00
  0.00000000E+00  0.00000000E+00  0.00000000E+00
  0.00000000E+00  0.00000000E+00  0.00000000E+00
  0.00000000E+00  0.00000000E+00  0.00000000E+00
  0.00000000E+00  0.00000000E+00  0.00000000E+00
  0.00000000E+00  0.00000000E+00  0.00000000E+00
  0.00000000E+00  0.00000000E+00  0.00000000E+00
  0.00000000E+00  0.00000000E+00  0.00000000E+00
  0.00000000E+00  0.00000000E+00  0.00000000E+00
  0.00000000E+00  0.00000000E+00  0.00000000E+00
  0.00000000E+00  0.00000000E+00  0.00000000E+00
  0.00000000E+00  0.00000000E+00  0.00000000E+00
  0.00000000E+00  0.00000000E+00  0.00000000E+00
  0.00000000E+00  0.00000000E+00  0.00000000E+00
  0.00000000E+00  0.00000000E+00  0.00000000E+00
  0.00000000E+00  0.00000000E+00  0.00000000E+00
  0.00000000E+00  0.00000000E+00  0.00000000E+00
  0.00000000E+00  0.00000000E+00  0.00000000E+00
  0.00000000E+00  0.00000000E+00  0.00000000E+00
  0.00000000E+00  0.00000000E+00  0.00000000E+00
  0.00000000E+00  0.00000000E+00  0.00000000E+00
  0.00000000E+00  0.00000000E+00  0.00000000E+00
  0.00000000E+00  0.00000000E+00  0.00000000E+00
  0.00000000E+00  0.00000000E+00  0.00000000E+00
  0.00000000E+00  0.00000000E+00  0.00000000E+00
  0.00000000E+00  0.00000000E+00  0.00000000E+00
  0.00000000E+00  0.00000000E+00  0.00000000E+00
  0.00000000E+00  0.00000000E+00  0.00000000E+00
  0.00000000E+00  0.00000000E+00  0.00000000E+00
  0.00000000E+00  0.00000000E+00  0.00000000E+00
  0.00000000E+00  0.00000000E+00  0.00000000E+00
  0.00000000E+00  0.00000000E+00  0.00000000E+00
  0.00000000E+00  0.00000000E+00  0.00000000E+00
  0.00000000E+00  0.00000000E+00  0.00000000E+00
  0.00000000E+00  0.00000000E+00  0.00000000E+00
  0.00000000E+00  0.00000000E+00  0.00000000E+00
  0.00000000E+00  0.00000000E+00  0.00000000E+00
  0.00000000E+00  0.00000000E+00  0.00000000E+00
  0.00000000E+00  0.00000000E+00  0.00000000E+00
  0.00000000E+00  0.00000000E+00  0.00000000E+00
  0.00000000E+00  0.00000000E+00  0.00000000E+00
  0.00000000E+00  0.00000000E+00  0.00000000E+00
  0.00000000E+00  0.00000000E+00  0.00000000E+00
  0.00000000E+00  0.00000000E+00  0.00000000E+00
  0.00000000E+00  0.00000000E+00  0.00000000E+00
  0.00000000E+00  0.00000000E+00  0.00000000E+00
  0.00000000E+00  0.00000000E+00  0.00000000E+00
  0.00000000E+00  0.00000000E+00  0.00000000E+00
  0.00000000E+00  0.00000000E+00  0.00000000E+00
  0.00000000E+00  0.00000000E+00  0.00000000E+00
  0.00000000E+00  0.00000000E+00  0.00000000E+00
  0.00000000E+00  0.00000000E+00  0.00000000E+00
  0.00000000E+00  0.00000000E+00  0.00000000E+00
  0.00000000E+00  0.00000000E+00  0.00000000E+00
  0.00000000E+00  0.00000000E+00  0.00000000E+00
  0.00000000E+00  0.00000000E+00  0.00000000E+00
  0.00000000E+00  0.00000000E+00  0.00000000E+00
  0.00000000E+00  0.00000000E+00  0.00000000E+00
  0.00000000E+00  0.00000000E+00  0.00000000E+00
  0.00000000E+00  0.00000000E+00  0.00000000E+00
  0.00000000E+00  0.00000000E+00  0.00000000E+00
  0.00000000E+00  0.00000000E+00  0.00000000E+00
  0.00000000E+00  0.00000000E+00  0.00000000E+00
  0.00000000E+00  0.00000000E+00  0.00000000E+00
  0.00000000E+00  0.00000000E+00  0.00000000E+00
  0.00000000E+00  0.00000000E+00  0.00000000E+00
  0.00000000E+00  0.00000000E+00  0.00000000E+00
  0.00000000E+00  0.00000000E+00  0.00000000E+00
  0.00000000E+00  0.00000000E+00  0.00000000E+00
  0.00000000E+00  0.00000000E+00  0.00000000E+00
  0.00000000E+00  0.00000000E+00  0.00000000E+00
  0.00000000E+00  0.00000000E+00  0.00000000E+00
  0.00000000E+00  0.00000000E+00  0.00000000E+00
  0.00000000E+00  0.00000000E+00  0.00000000E+00
  0.00000000E+00  0.00000000E+00  0.00000000E+00
  0.00000000E+00  0.00000000E+00  0.00000000E+00
  0.00000000E+00  0.00000000E+00  0.00000000E+00
  0.00000000E+00  0.00000000E+00  0.00000000E+00
  0.00000000E+00  0.00000000E+00  0.00000000E+00
  0.00000000E+00  0.00000000E+00  0.00000000E+00
  0.00000000E+00  0.00000000E+00  0.00000000E+00
  0.00000000E+00  0.00000000E+00  0.00000000E+00
  0.00000000E+00  0.00000000E+00  0.00000000E+00
  0.00000000E+00  0.00000000E+00  0.00000000E+00
  0.00000000E+00  0.00000000E+00  0.00000000E+00
  0.00000000E+00  0.00000000E+00  0.00000000E+00
  0.00000000E+00  0.00000000E+00  0.00000000E+00
  0.00000000E+00  0.00000000E+00  0.00000000E+00
  0.00000000E+00  0.00000000E+00  0.00000000E+00
  0.00000000E+00  0.00000000E+00  0.00000000E+00
  0.00000000E+00  0.00000000E+00  0.00000000E+00
  0.00000000E+00  0.00000000E+00  0.00000000E+00
  0.00000000E+00  0.00000000E+00  0.00000000E+00
  0.00000000E+00  0.00000000E+00  0.00000000E+00
  0.00000000E+00  0.00000000E+00  0.00000000E+00
  0.00000000E+00  0.00000000E+00  0.00000000E+00
  0.00000000E+00  0.00000000E+00  0.00000000E+00
  0.00000000E+00  0.00000000E+00  0.00000000E+00
  0.00000000E+00  0.00000000E+00  0.00000000E+00
  0.00000000E+00  0.00000000E+00  0.00000000E+00
  0.00000000E+00  0.00000000E+00  0.00000000E+00
  0.00000000E+00  0.00000000E+00  0.00000000E+00
  0.00000000E+00  0.00000000E+00  0.00000000E+00
  0.00000000E+00  0.00000000E+00  0.00000000E+00
  0.00000000E+00  0.00000000E+00  0.00000000E+00
  0.00000000E+00  0.00000000E+00  0.00000000E+00
  0.00000000E+00  0.00000000E+00  0.00000000E+00
  0.00000000E+00  0.00000000E+00  0.00000000E+00
  0.00000000E+00  0.00000000E+00  0.00000000E+00
  0.00000000E+00  0.00000000E+00  0.00000000E+00
  0.00000000E+00  0.00000000E+00  0.00000000E+00
  0.00000000E+00  0.00000000E+00  0.00000000E+00
  0.00000000E+00  0.00000000E+00  0.00000000E+00
  0.00000000E+00  0.00000000E+00  0.00000000E+00
  0.00000000E+00  0.00000000E+00  0.00000000E+00
  0.00000000E+00  0.00000000E+00  0.00000000E+00
  0.00000000E+00  0.00000000E+00  0.00000000E+00
  0.00000000E+00  0.00000000E+00  0.00000000E+00
  0.00000000E+00  0.00000000E+00  0.00000000E+00
  0.00000000E+00  0.00000000E+00  0.00000000E+00
  0.00000000E+00  0.00000000E+00  0.00000000E+00
  0.00000000E+00  0.00000000E+00  0.00000000E+00
  0.00000000E+00  0.00000000E+00  0.00000000E+00
  0.00000000E+00  0.00000000E+00  0.00000000E+00
  0.00000000E+00  0.00000000E+00  0.00000000E+00
  0.00000000E+00  0.00000000E+00  0.00000000E+00
  0.00000000E+00  0.00000000E+00  0.00000000E+00
  0.00000000E+00  0.00000000E+00  0.00000000E+00
  0.00000000E+00  0.00000000E+00  0.00000000E+00
  0.00000000E+00  0.00000000E+00  0.00000000E+00
  0.00000000E+00  0.00000000E+00  0.00000000E+00
  0.00000000E+00  0.00000000E+00  0.00000000E+00
  0.00000000E+00  0.00000000E+00  0.00000000E+00
  0.00000000E+00  0.00000000E+00  0.00000000E+00
  0.00000000E+00  0.00000000E+00  0.00000000E+00
  0.00000000E+00  0.00000000E+00  0.00000000E+00
  0.00000000E+00  0.00000000E+00  0.00000000E+00
  0.00000000E+00  0.00000000E+00  0.00000000E+00
  0.00000000E+00  0.00000000E+00  0.00000000E+00
  0.00000000E+00  0.00000000E+00  0.00000000E+00
  0.00000000E+00  0.00000000E+00  0.00000000E+00
  0.00000000E+00  0.00000000E+00  0.00000000E+00
  0.00000000E+00  0.00000000E+00  0.00000000E+00
  0.00000000E+00  0.00000000E+00  0.00000000E+00
  0.00000000E+00  0.00000000E+00  0.00000000E+00
  0.00000000E+00  0.00000000E+00  0.00000000E+00
  0.00000000E+00  0.00000000E+00  0.00000000E+00
  0.00000000E+00  0.00000000E+00  0.00000000E+00
  0.00000000E+00  0.00000000E+00  0.00000000E+00
  0.00000000E+00  0.00000000E+00  0.00000000E+00
  0.00000000E+00  0.00000000E+00  0.00000000E+00
  0.00000000E+00  0.00000000E+00  0.00000000E+00
  0.00000000E+00  0.00000000E+00  0.00000000E+00
  0.00000000E+00  0.00000000E+00  0.00000000E+00
  0.00000000E+00  0.00000000E+00  0.00000000E+00
  0.00000000E+00  0.00000000E+00  0.00000000E+00
  0.00000000E+00  0.00000000E+00  0.00000000E+00