 B N Al 
 1.0
 17.527899999999772   0.000000000000000   0.000000000000000
 -8.763949999999658  15.179606674993195   0.000000000000000
  0.000000000000001   0.000000000000002  15.000000000000000
 B N Al 
  48  48   1
Cartesian
  7.512476901254132  14.458570171862116   1.664955740378550 
 15.039695394679004   1.459145590016961   1.665549811404630 
 13.794655489451785   3.627318818907388   1.666438382450310 
 12.539482346041027   5.789641620004764   1.665549811404630 
 11.269740021786406   7.950799549695206   1.664955740378550 
  9.998615675498556  10.111857654610109   1.665838441047195 
  8.748445946020645  12.277215144150565   1.665838441047195 
 -7.518914404483593  14.444430038848003   1.665028405414800 
  0.008076212254742   1.442895044125831   1.665031982704545 
 -1.226456021688549   3.628565334475735   1.665478924915860 
 -2.478785751961057   5.797664055136822   1.665478924915860 
 -3.754365630737994   7.959635476712560   1.665031982704545 
 -5.022052166597376  10.119737783328796   1.665028405414800 
 -6.274134887792909  12.280107499958437   1.664785829739570 
 -5.014680106714366  14.443031953559498   1.665012259380075 
  2.506717266904134   1.420055750360581   1.665836396192670 
  1.272610553734248   3.598540871929961   1.665313906008390 
  0.041854106065593   5.806890341924563   1.665551833297080 
 -1.255254411557952   7.976931426489539   1.665313906008390 
 -2.524824512018466  10.134941751860319   1.665836396192670 
 -3.771259973968582  12.289365108489687   1.665012259380075 
 -2.508839334797904  14.454001901048471   1.665184729436700 
  5.020246295098620   1.412657074327989   1.665990138023085 
  3.787753944971036   3.539767342212303   1.665574364155680 
  2.583147670053087   5.670197428174746   1.667293810794900 
  1.194121352234781   8.076061583686451   1.667293810794900 
 -0.048582085736383  10.184496262304901   1.665574364155680 
 -1.274467439311067  12.315421081427568   1.665990138023085 
 -0.002880943578454  14.474330842527889   1.665081223383390 
  7.525710240555976   1.434428402191470   1.665081223383390 
  6.292160957295449   3.572210490156802   1.665405871396935 
  5.075935347824437   5.714269902888593   1.665471707231025 
  2.478683073830203  10.212842801520564   1.665471707231025 
  1.231718010724475  12.337154782421589   1.665405871396935 
  2.510046681681260  14.479784210217476   1.665102282221670 
 10.030430360727191   1.454042427547738   1.664780674101150 
  8.786896808141224   3.607960879693311   1.665102282221670 
  7.539294176981617   5.765398050645793   1.665342832257315 
  6.245756933416842   7.914064024241682   1.666117553876865 
  4.968671458805155  10.126040951877412   1.666117553876865 
  3.754640763215065  12.320610052328684   1.665342832257315 
  5.016420876752157  14.474213299415238   1.665017571081645 
 12.536484020679447   1.460513096902240   1.665532492853415 
 11.289060954743718   3.621113225636341   1.665532492853415 
 10.035259355399742   5.781330059415634   1.665017571081645 
  8.763486913673820   7.941447582179750   1.665823246974870 
  7.481303076456229  10.102058207612080   1.666691965792590 
  6.251251305753994  12.292767295680724   1.665823246974870 
  8.757008006055134  13.725922740033591   1.664836047231705 
 16.283950763345153   0.726950303049791   1.664480184049635 
 15.047992894966763   2.907549586303600   1.665473047115880 
 13.798000752052189   5.072599486893615   1.665473047115880 
 12.527525311469573   7.233270040543396   1.664480184049635 
 11.257529286346195   9.394892837162146   1.664836047231705 
 10.002381220459252  11.557586032030583   1.665235275594945 
 -6.268213029823788  13.723809794513610   1.664358179458425 
  1.251939271782148   0.709938144152347   1.664797728859920 
  0.016796365917822   2.891662406616626   1.664591642233005 
 -1.213238250737869   5.082245111196306   1.664745879951915 
 -2.495321213666783   7.242777689044265   1.664591642233005 
 -3.767178396090261   9.403304954074274   1.664797728859920 
 -5.020876096081521  11.563358851114753   1.664358179458425 
 -3.762404661904780  13.730238301336719   1.664392411949475 
  3.758779195615935   0.703458752910158   1.665336116815635 
  2.515672348354665   2.861305243868745   1.665268241142255 
  1.293288297693172   5.055442953005464   1.665316741216965 
  0.016813673608247   7.266361856493016   1.665316741216965 
 -1.272173296583515   9.422046352130401   1.665268241142255 
 -2.519369751590121  11.577531706956480   1.665336116815635 
 -1.257832193576804  13.750796628896774   1.664930600997405 
  6.271650606176453   0.709349865007724   1.664930600997405 
  5.038497630065432   2.843875722485009   1.665415065826365 
  3.811077340698238   4.967507974940501   1.664894545746495 
  1.199554270216538   9.490798618153240   1.664894545746495 
 -0.025855064022287  11.615591896093566   1.665415065826365 
  1.248464871503849  13.770073518258382   1.664807471588295 
  8.777063005351327   0.730393126868399   1.664340245385495 
  7.541493414609965   2.870228348117061   1.664807471588295 
  6.311749269525247   5.003323534094870   1.664794791626955 
  5.053875475827277   7.125549784538016   1.665333240220605 
  3.689872367321422   9.488072470152124   1.665333240220605 
  2.480907418708440  11.638536255471003   1.664794791626955 
  3.761615043481164  13.762833954205998   1.664748518588490 
 11.282824196048102   0.740934435637556   1.664617881498435 
 10.039072641882973   2.895175319444389   1.664617881498435 
  8.791798854216907   5.050300022600961   1.664748518588490 
  7.522112533027351   7.210794479203672   1.665470133365175 
  6.226765300613368   9.377733164360912   1.666050146078145 
  4.997285056189430  11.583923949433036   1.665470133365175 
  6.260967327541788  13.742249238304518   1.664801122583685 
 13.787134703719802   0.740156174928073   1.664957121001965 
 12.542672153841536   2.904468582401999   1.665638172571965 
 11.290553902182396   5.064360968392042   1.664957121001965 
 10.023648109355666   7.225094951539673   1.664801122583685 
  8.747905980094728   9.388139600759882   1.666076630189190 
  7.496347878647245  11.555901821091444   1.666076630189190 
  3.352807142877362   7.718469969012175   1.668118732712505 
