Al B N                                  
   1.0000000000000000     
     8.7639499999999995  -15.1796066749929999    0.0000000000000000
     8.7639499999999995   15.1796066749929999    0.0000000000000000
     0.0000000000000000    0.0000000000000000   15.0000000000000000
   Al   B    N 
     1    48    48
Selective dynamics
Direct
  0.4455221593698354  0.5084762823089184  0.1112079155141671   T   T   T
  0.9048509109520096  0.9524996583528804  0.1109970493585697   T   T   T
  0.9061058936816346  0.0961253885728637  0.1110366540936418   T   T   T
  0.9064913073434183  0.2389600005172078  0.1110958921633543   T   T   T
  0.9061058936816346  0.3814091987997679  0.1110366540936418   T   T   T
  0.9048509109520096  0.5237816578471239  0.1109970493585697   T   T   T
  0.9035137931181079  0.6661475406519149  0.1110558960698132   T   T   T
  0.9035137931181079  0.8087966577141943  0.1110558960698132   T   T   T
  0.0468157147596538  0.9515681366529535  0.1110018936943200   T   T   T
  0.0479881819495293  0.0950548373893538  0.1110021321803029   T   T   T
  0.0495494127044942  0.2390421182950288  0.1110319283277238   T   T   T
  0.0495494127044942  0.3819376996564652  0.1110319283277238   T   T   T
  0.0479881819495293  0.5243637498081705  0.1110021321803029   T   T   T
  0.0468157147596538  0.6666796949106973  0.1110018936943200   T   T   T
  0.0465422830450541  0.8089871999245293  0.1109857219826377   T   T   T
  0.1896409883435743  0.9514760337863606  0.1110008172920047   T   T   T
  0.1897880999229291  0.0935502335972892  0.1110557597461777   T   T   T
  0.1911369356758575  0.2370641709615694  0.1110209270672257   T   T   T
  0.1936606101204539  0.3825455076837270  0.1110367888864721   T   T   T
  0.1911369356758575  0.5255031699622824  0.1110209270672257   T   T   T
  0.1897880999229291  0.6676682715736345  0.1110557597461777   T   T   T
  0.1896409883435743  0.8095970713612184  0.1110008172920047   T   T   T
  0.3329653040945911  0.9521987104487968  0.1110123152957800   T   T   T
  0.3329460025008450  0.0930628246550808  0.1110660092015391   T   T   T
  0.3326947080292542  0.2331922966122497  0.1110382909437125   T   T   T
  0.3341437183899991  0.3735404710792539  0.1111529207196604   T   T   T
  0.3341437183899991  0.5320336525577377  0.1111529207196604   T   T   T
  0.3326947080292542  0.6709328166640044  0.1110382909437125   T   T   T
  0.3329460025008450  0.8113135830927638  0.1110660092015391   T   T   T
  0.4766046054972095  0.9535379376049863  0.1110054148922261   T   T   T
  0.4766046054972095  0.0944970731392228  0.1110054148922261   T   T   T
  0.4766445293155211  0.2353295817632514  0.1110270580931285   T   T   T
  0.4778136921410629  0.3764438713884628  0.1110314471487354   T   T   T
  0.4778136921410629  0.6728002259996071  0.1110314471487354   T   T   T
  0.4766445293155211  0.8127453527992764  0.1110270580931285   T   T   T
  0.6201515294620497  0.9538971937969514  0.1110068188147783   T   T   T
  0.6201497126116153  0.0957892031512994  0.1109853782734100   T   T   T
  0.6201515294620497  0.2376847409120982  0.1110068188147783   T   T   T
  0.6200371004802254  0.3798120843370518  0.1110228554838209   T   T   T
  0.6170131007249412  0.5213616000524750  0.1110745035917907   T   T   T
  0.6170131007249412  0.6670819059204608  0.1110745035917907   T   T   T
  0.6200371004802254  0.8116554213901733  0.1110228554838209   T   T   T
  0.7629614398460450  0.9535301941162931  0.1110011714054434   T   T   T
  0.7633379726225659  0.0962154769996960  0.1110354995235606   T   T   T
  0.7633379726225659  0.2385511893138668  0.1110354995235606   T   T   T
  0.7629614398460450  0.3808616509767517  0.1110011714054434   T   T   T
  0.7615563651664267  0.5231655702425048  0.1110548831316576   T   T   T
  0.7595735428653924  0.6655019740566898  0.1111127977195061   T   T   T
  0.7615563651664267  0.8098212001719234  0.1110548831316576   T   T   T
  0.9517211528414395  0.9042344135731532  0.1109890698154469   T   T   T
  0.9529752974685289  0.0478899301289124  0.1109653456033089   T   T   T
  0.9542881595229032  0.1915431439401843  0.1110315364743923   T   T   T
  0.9542881595229032  0.3341719977007168  0.1110315364743923   T   T   T
  0.9529752974685289  0.4765123494576077  0.1109653456033089   T   T   T
  0.9517211528414395  0.6189154329432819  0.1109890698154469   T   T   T
  0.9513493702744967  0.7613890319747539  0.1110156850396628   T   T   T
  0.0944341449543645  0.9040952172444722  0.1109572119638954   T   T   T
  0.0948101170372090  0.0467692055105678  0.1109865152573279   T   T   T
  0.0962065298628713  0.1904965305445185  0.1109727761488669   T   T   T
  0.0981861678979744  0.3348074307859877  0.1109830586634606   T   T   T
  0.0962065298628713  0.4771386929923536  0.1109727761488669   T   T   T
  0.0948101170372090  0.6194696052016436  0.1109865152573279   T   T   T
  0.0944341449543645  0.7617693329408971  0.1109572119638954   T   T   T
  0.2376070218000708  0.9045187135155384  0.1109594941299652   T   T   T
  0.2376166737585478  0.0463423570828774  0.1110224077877091   T   T   T
  0.2377722203536055  0.1884966656337971  0.1110178827428167   T   T   T
  0.2403054357614789  0.3330417619669805  0.1110211160811308   T   T   T
  0.2403054357614789  0.4786923674684920  0.1110211160811308   T   T   T
  0.2377722203536055  0.6207042483948040  0.1110178827428167   T   T   T
  0.2376166737585478  0.7627030103506733  0.1110224077877091   T   T   T
  0.3811748094003484  0.9058730521357820  0.1109953733998272   T   T   T
  0.3811748094003484  0.0467304509395693  0.1109953733998272   T   T   T
  0.3811300865468207  0.1873484460681049  0.1110276710550906   T   T   T
  0.3810536006727406  0.3272487938125527  0.1109929697164333   T   T   T
  0.3810536006727406  0.6252335005351838  0.1109929697164333   T   T   T
  0.3811300865468207  0.7652103341537185  0.1110276710550906   T   T   T
  0.5247987793193200  0.9071429723500757  0.1109871647725532   T   T   T
  0.5248064898683334  0.0481167359936702  0.1109560163590327   T   T   T
  0.5247987793193200  0.1890845006442401  0.1109871647725532   T   T   T
  0.5249014119647948  0.3296082461963466  0.1109863194417969   T   T   T
  0.5230411836018207  0.4694159695373802  0.1110222160147065   T   T   T
  0.5230411836018207  0.6250539077394358  0.1110222160147065   T   T   T
  0.5249014119647948  0.7667218594434512  0.1109863194417969   T   T   T
  0.6679403084085368  0.9066660453645889  0.1109832345725658   T   T   T
  0.6681121464588137  0.0488111748546271  0.1109745254332292   T   T   T
  0.6681121464588137  0.1907279537231940  0.1109745254332292   T   T   T
  0.6679403084085368  0.3327029567189506  0.1109832345725658   T   T   T
  0.6667271315084675  0.4750317075792681  0.1110313422243447   T   T   T
  0.6641412871733395  0.6177849904246687  0.1110700097385425   T   T   T
  0.6667271315084675  0.7631241176042016  0.1110313422243447   T   T   T
  0.8098550667534471  0.9053099683368888  0.1109867415055793   T   T   T
  0.8109621843208286  0.0487599047047380  0.1109971414001305   T   T   T
  0.8112533658763611  0.1913401739971832  0.1110425448381312   T   T   T
  0.8109621843208286  0.3336292617341027  0.1109971414001305   T   T   T
  0.8098550667534471  0.4759737920905593  0.1109867415055793   T   T   T
  0.8083199302702109  0.6184705441825351  0.1110717753459463   T   T   T
  0.8083199302702109  0.7612780797626714  0.1110717753459463   T   T   T

  0.00000000E+00  0.00000000E+00  0.00000000E+00
  0.00000000E+00  0.00000000E+00  0.00000000E+00
  0.00000000E+00  0.00000000E+00  0.00000000E+00
  0.00000000E+00  0.00000000E+00  0.00000000E+00
  0.00000000E+00  0.00000000E+00  0.00000000E+00
  0.00000000E+00  0.00000000E+00  0.00000000E+00
  0.00000000E+00  0.00000000E+00  0.00000000E+00
  0.00000000E+00  0.00000000E+00  0.00000000E+00
  0.00000000E+00  0.00000000E+00  0.00000000E+00
  0.00000000E+00  0.00000000E+00  0.00000000E+00
  0.00000000E+00  0.00000000E+00  0.00000000E+00
  0.00000000E+00  0.00000000E+00  0.00000000E+00
  0.00000000E+00  0.00000000E+00  0.00000000E+00
  0.00000000E+00  0.00000000E+00  0.00000000E+00
  0.00000000E+00  0.00000000E+00  0.00000000E+00
  0.00000000E+00  0.00000000E+00  0.00000000E+00
  0.00000000E+00  0.00000000E+00  0.00000000E+00
  0.00000000E+00  0.00000000E+00  0.00000000E+00
  0.00000000E+00  0.00000000E+00  0.00000000E+00
  0.00000000E+00  0.00000000E+00  0.00000000E+00
  0.00000000E+00  0.00000000E+00  0.00000000E+00
  0.00000000E+00  0.00000000E+00  0.00000000E+00
  0.00000000E+00  0.00000000E+00  0.00000000E+00
  0.00000000E+00  0.00000000E+00  0.00000000E+00
  0.00000000E+00  0.00000000E+00  0.00000000E+00
  0.00000000E+00  0.00000000E+00  0.00000000E+00
  0.00000000E+00  0.00000000E+00  0.00000000E+00
  0.00000000E+00  0.00000000E+00  0.00000000E+00
  0.00000000E+00  0.00000000E+00  0.00000000E+00
  0.00000000E+00  0.00000000E+00  0.00000000E+00
  0.00000000E+00  0.00000000E+00  0.00000000E+00
  0.00000000E+00  0.00000000E+00  0.00000000E+00
  0.00000000E+00  0.00000000E+00  0.00000000E+00
  0.00000000E+00  0.00000000E+00  0.00000000E+00
  0.00000000E+00  0.00000000E+00  0.00000000E+00
  0.00000000E+00  0.00000000E+00  0.00000000E+00
  0.00000000E+00  0.00000000E+00  0.00000000E+00
  0.00000000E+00  0.00000000E+00  0.00000000E+00
  0.00000000E+00  0.00000000E+00  0.00000000E+00
  0.00000000E+00  0.00000000E+00  0.00000000E+00
  0.00000000E+00  0.00000000E+00  0.00000000E+00
  0.00000000E+00  0.00000000E+00  0.00000000E+00
  0.00000000E+00  0.00000000E+00  0.00000000E+00
  0.00000000E+00  0.00000000E+00  0.00000000E+00
  0.00000000E+00  0.00000000E+00  0.00000000E+00
  0.00000000E+00  0.00000000E+00  0.00000000E+00
  0.00000000E+00  0.00000000E+00  0.00000000E+00
  0.00000000E+00  0.00000000E+00  0.00000000E+00
  0.00000000E+00  0.00000000E+00  0.00000000E+00
  0.00000000E+00  0.00000000E+00  0.00000000E+00
  0.00000000E+00  0.00000000E+00  0.00000000E+00
  0.00000000E+00  0.00000000E+00  0.00000000E+00
  0.00000000E+00  0.00000000E+00  0.00000000E+00
  0.00000000E+00  0.00000000E+00  0.00000000E+00
  0.00000000E+00  0.00000000E+00  0.00000000E+00
  0.00000000E+00  0.00000000E+00  0.00000000E+00
  0.00000000E+00  0.00000000E+00  0.00000000E+00
  0.00000000E+00  0.00000000E+00  0.00000000E+00
  0.00000000E+00  0.00000000E+00  0.00000000E+00
  0.00000000E+00  0.00000000E+00  0.00000000E+00
  0.00000000E+00  0.00000000E+00  0.00000000E+00
  0.00000000E+00  0.00000000E+00  0.00000000E+00
  0.00000000E+00  0.00000000E+00  0.00000000E+00
  0.00000000E+00  0.00000000E+00  0.00000000E+00
  0.00000000E+00  0.00000000E+00  0.00000000E+00
  0.00000000E+00  0.00000000E+00  0.00000000E+00
  0.00000000E+00  0.00000000E+00  0.00000000E+00
  0.00000000E+00  0.00000000E+00  0.00000000E+00
  0.00000000E+00  0.00000000E+00  0.00000000E+00
  0.00000000E+00  0.00000000E+00  0.00000000E+00
  0.00000000E+00  0.00000000E+00  0.00000000E+00
  0.00000000E+00  0.00000000E+00  0.00000000E+00
  0.00000000E+00  0.00000000E+00  0.00000000E+00
  0.00000000E+00  0.00000000E+00  0.00000000E+00
  0.00000000E+00  0.00000000E+00  0.00000000E+00
  0.00000000E+00  0.00000000E+00  0.00000000E+00
  0.00000000E+00  0.00000000E+00  0.00000000E+00
  0.00000000E+00  0.00000000E+00  0.00000000E+00
  0.00000000E+00  0.00000000E+00  0.00000000E+00
  0.00000000E+00  0.00000000E+00  0.00000000E+00
  0.00000000E+00  0.00000000E+00  0.00000000E+00
  0.00000000E+00  0.00000000E+00  0.00000000E+00
  0.00000000E+00  0.00000000E+00  0.00000000E+00
  0.00000000E+00  0.00000000E+00  0.00000000E+00
  0.00000000E+00  0.00000000E+00  0.00000000E+00
  0.00000000E+00  0.00000000E+00  0.00000000E+00
  0.00000000E+00  0.00000000E+00  0.00000000E+00
  0.00000000E+00  0.00000000E+00  0.00000000E+00
  0.00000000E+00  0.00000000E+00  0.00000000E+00
  0.00000000E+00  0.00000000E+00  0.00000000E+00
  0.00000000E+00  0.00000000E+00  0.00000000E+00
  0.00000000E+00  0.00000000E+00  0.00000000E+00
  0.00000000E+00  0.00000000E+00  0.00000000E+00
  0.00000000E+00  0.00000000E+00  0.00000000E+00
  0.00000000E+00  0.00000000E+00  0.00000000E+00
  0.00000000E+00  0.00000000E+00  0.00000000E+00
  0.00000000E+00  0.00000000E+00  0.00000000E+00
