 N Ga B 
 1.0
 17.527899999999772   0.000000000000000   0.000000000000000
 -8.763949999999658  15.179606674993195   0.000000000000000
  0.000000000000001   0.000000000000002  15.000000000000000
 N Ga B 
  48   1  48
Cartesian
  8.756042775992089  13.725856220236562   1.664990277015390 
 16.283876968694180   0.728299511421364   1.664776756073100 
 15.047256221732798   2.907523689201982   1.665564475191585 
 13.797609987887313   5.071974457709537   1.665564475191585 
 12.528656862868806   7.232531528315314   1.664776756073100 
 11.256989063480583   9.394090183305581   1.664990277015390 
 10.001250027849103  11.556932937672526   1.665113396950545 
 -6.268918652259245  13.723516133910447   1.664435384544480 
  1.251809214610761   0.710067582611898   1.665078763780785 
  0.016855874526383   2.892483171758486   1.664984232212235 
 -1.218262861358515   5.079344150901893   1.664910302310840 
 -2.494580655899103   7.242418842440077   1.664984232212235 
 -3.767131327681749   9.403127602030118   1.665078763780785 
 -5.021483224841695  11.562894594461781   1.664435384544480 
 -3.762525096503468  13.730168768388676   1.664623404794310 
  3.760205703266224   0.702358379300712   1.665467352947085 
  2.518192484941929   2.860146378838903   1.665655179353280 
  1.287730271699867   5.055206327353662   1.665524590982760 
  0.013829736785946   7.261666777613820   1.665524590982760 
 -1.271916834845292   9.424808286950915   1.665655179353280 
 -2.519609449264419  11.579317285625061   1.665467352947085 
 -1.257524791029517  13.754457556463770   1.665243847420020 
  6.274974763724528   0.707785619639365   1.665243847420020 
  5.047394188505132   2.837994913739773   1.665627219846825 
  3.826595399907820   4.955619214192425   1.665060033818040 
  1.197017330993980   9.510182032020209   1.665060033818040 
 -0.026499714570609  11.626236946081217   1.665627219846825 
  1.248991635643613  13.779341990524026   1.664965486538985 
  8.780005588445183   0.732092028009760   1.664527916581125 
  7.549783529116107   2.866050303111179   1.664965486538985 
  6.324833227946045   4.993615931203001   1.664901904844625 
  5.068966777438522   7.107085227088488   1.665146752945875 
  3.681427242306126   9.510374199448414   1.665146752945875 
  2.479042367204629  11.654721097291407   1.664901904844625 
  3.762776815747024  13.769724985160009   1.664715454352430 
 11.284636436340673   0.744721901623988   1.664733474196695 
 10.043258803789469   2.894851032582317   1.664733474196695 
  8.798347548214284   5.047860631419586   1.664715454352430 
  7.524132619279327   7.207295587179577   1.665077234138715 
  6.222337175585099   9.375176585183826   1.665707875180350 
  4.994536749948094  11.588684155477788   1.665077234138715 
  6.260941730183935  13.744354939933947   1.664743023155670 
 13.787857634612742   0.742857530773927   1.665032167638600 
 12.544109200260085   2.905298261538575   1.665793085754990 
 11.293254810416098   5.063636366987475   1.665032167638600 
 10.025458901780606   7.224019932762801   1.664743023155670 
  8.746133277860032   9.386976972722030   1.665780575844795 
  7.494454662113887  11.554947929941912   1.665780575844795 
  3.234177360313378   7.649979032114955   1.668593253903570 
  7.511005832314098  14.459697572900458   1.664931902183085 
 15.040228094879506   1.461796873143965   1.665489461975580 
 13.796822037055916   3.628569675749905   1.666282550362890 
 12.542044774681880   5.788777310347514   1.665489461975580 
 11.269980845255777   7.948961866103367   1.664931902183085 
  9.994591461438523  10.109266411940878   1.665652555500915 
  8.744189757011686  12.275025693878957   1.665652555500915 
 -7.520194214663854  14.446527336794921   1.665090228239610 
  0.009058665858942   1.448364275128531   1.665147592538445 
 -1.224428594858157   3.633435458190952   1.665388516965540 
 -2.473554387688911   5.796984796418648   1.665388516965540 
 -3.749137910948382   7.957751690990470   1.665147592538445 
 -5.022121101243412  10.119737783328796   1.665090228239610 
 -6.275268470148707  12.279453025880175   1.664660632457595 
 -5.014615720676132  14.444977577570697   1.664943453996510 
  2.507824709547917   1.427277188575299   1.665803443187490 
  1.275857333893637   3.611764876022466   1.665506259343605 
  0.048587954317772   5.810778131025641   1.665467061314130 
 -1.242178697994468   7.973131218541941   1.665506259343605 
 -2.518016841750761  10.132290106215693   1.665803443187490 
 -3.769542821129535  12.288448056428814   1.664943453996510 
 -2.507564796405199  14.454737756132582   1.665322097769660 
  5.025920963498656   1.414587319723561   1.665958752234600 
  3.793884174346331   3.548537635329487   1.665664507247790 
  2.591112805078681   5.687782378783456   1.666828494587145 
  1.213332933698953   8.074167117658940   1.666828494587145 
 -0.038694528841998  10.186758673258343   1.665664507247790 
 -1.268602094222508  12.317021065110801   1.665958752234600 
 -0.001207946316187  14.476793445475588   1.665107722219770 
  7.528679415899241   1.434645958847220   1.665107722219770 
  6.298051180793233   3.570750944080988   1.665404520563955 
  5.077835144611289   5.706912180756813   1.665177966772515 
  2.473260997943591  10.218166934865776   1.665177966772515 
  1.233399118493709  12.342985638642562   1.665404520563955 
  2.511702098526916  14.482674945020436   1.665007219156290 
 10.032595137101225   1.455292261770102   1.664782126351815 
  8.790227966339021   3.607949145334019   1.665007219156290 
  7.539970745990312   5.762807481158402   1.665047402522970 
  6.231155799431486   7.904238701506663   1.665604072670430 
  4.952036808152152  10.119737783328796   1.665604072670430 
  3.752735548733073  12.322491263021307   1.665047402522970 
  5.016400692832057  14.475851794427932   1.664882870763645 
 12.537821165772426   1.462261254684846   1.665466648061700 
 11.291243476339766   3.621397148364104   1.665466648061700 
 10.036668241744668   5.780493332121716   1.664882870763645 
  8.758982818018081   7.938139791482894   1.665515015331840 
  7.470121917700263  10.095602762594531   1.666133015627145 
  6.246134627152237  12.290520529770221   1.665515015331840 
