 N B C 
 1.0
 17.527899999999772   0.000000000000000   0.000000000000000
 -8.763949999999658  15.179606674993195   0.000000000000000
  0.000000000000001   0.000000000000002  15.000000000000000
 N B C 
  47  46   3
Cartesian
  8.784744809130569  13.757344092203148   1.664751451395570 
 16.285526267614859   0.737989621834851   1.664982386914755 
 15.016033835654987   2.881525001377094   1.665249558606945 
 13.758988637353944   5.044395791564332   1.665139425469485 
 12.515749382701756   7.216355000573718   1.664469460511925 
 11.280757955406001   9.394636585312767   1.665218074263555 
 10.037158246306687  11.576432573611052   1.665238131413235 
 -6.243637992286916  13.744736732303483   1.663842321104895 
  1.266058886609410   0.742056527335171   1.663849595395215 
  0.002427733554568   2.899416350581454   1.663811990279325 
 -1.268934003071554   5.041221907838922   1.664581668523545 
 -2.524111173590360   7.211212727545321   1.664844754135005 
 -3.750218599641985   9.388195194279152   1.664903799896625 
 -4.991920878400014  11.566198478173012   1.664054177659335 
 -3.741304011076669  13.734234513320176   1.664170102434810 
  3.764409694215706   0.735188196021479   1.664783492690910 
  2.510718163009681   2.918717213761310   1.665760547340825 
  1.248943754436605   5.068457558330087   1.662264945800820 
 -0.049784163461027   7.192369690372188   1.660658012643420 
 -1.247406024336042   9.375526852094778   1.664711475733410 
 -2.486233863443802  11.554050684793005   1.664922797814660 
 -1.235597562052656  13.714275782264709   1.664889554010870 
  6.262943509833448   0.725385355532514   1.664924711678535 
  4.997350423892669   2.911309554217976   1.666091040274170 
  3.763500332744738   5.108883684678300   1.663921832368110 
  2.438001751357047   7.248799586490585   1.678654722161775 
  1.258051089266744   9.331504762492761   1.660652825245275 
  0.028440096051385  11.523568743059515   1.666068564857610 
  1.279691078889094  13.665170985711873   1.666447010195085 
  8.762770329949863   0.705173464706458   1.664360407016895 
  7.480584069325091   2.919552690838565   1.663136766916095 
  6.161556758240918   5.148340817008851   1.665551997726585 
  2.582962610625915  11.397308969085145   1.668321990696225 
  3.753702462791148  13.709529668836359   1.666826505592710 
 11.262475389356645   0.700488040657840   1.665149049531915 
 10.003914666773635   2.877176479038797   1.665619304995530 
  8.742430891900025   5.047282422884956   1.663864182375135 
  7.526242699444261   7.219909107595528   1.665694166591055 
  6.284076681442240   9.470852736217568   1.659599433959475 
  5.027883900931995  11.637373466783686   1.661211396636930 
  6.279735647126100  13.764050540732757   1.665319718649225 
 13.767851975577473   0.713489711593217   1.665362162867220 
 12.510153021608911   2.876160640507659   1.666194442159050 
 11.256615406769546   5.045395717104693   1.665527317311360 
 10.024889534717270   7.219420245362629   1.665142817332500 
  8.789932608734953   9.401769310923191   1.666483053390675 
  7.546277443412326  11.595691689812798   1.665986294938515 
  7.533700849171305  14.476567953461680   1.665337526684385 
 15.021335726254998   1.440077329300557   1.665553981165875 
 13.758775523635705   3.602298633188330   1.666061958590670 
 12.500605362784690   5.771235096047172   1.665289637423475 
 11.253878159978434   7.939045682140961   1.665155691971910 
 10.018070680800303  10.112761696362663   1.666286491529280 
  8.789668871942530  12.303366173366522   1.665949371751980 
 -7.493565317941830  14.472934136835525   1.664225904066390 
  0.010194170931071   1.457843310783394   1.664386509715725 
 -1.260994398018903   3.603545225673171   1.664573334307305 
 -2.522120540853926   5.766411239155336   1.665026729117265 
 -3.772234636364393   7.938625919117225   1.664983106967420 
 -5.006686444865072  10.112571937827955   1.665010058265000 
 -6.246824176900513  12.291168689641454   1.664561115036105 
 -4.994630021328582  14.465018095533317   1.664420995495860 
  2.516740628285807   1.468229475632247   1.664836826504925 
  1.253900722183717   3.627504545326650   1.664150091756345 
 -0.020341158969266   5.759383649112482   1.662811092725775 
 -1.280538009960415   7.928915753774700   1.663593565325550 
 -2.499195290111226  10.105050518267804   1.665134494156275 
 -3.742354999576112  12.283780612651597   1.664423768865165 
 -2.489336272749474  14.455521923951212   1.664974571000610 
  5.013721660062561   1.464315825088361   1.665723172416705 
  3.764516479412656   3.652767059771325   1.665455698839765 
  2.499467747511246   5.811580990723653   1.668586626434880 
  1.183448265998944   7.903284920785643   1.666705174722960 
  0.015467709254153  10.082715924116881   1.663823823744330 
 -1.228401485634995  12.266030314305091   1.665543112089990 
  0.021932514447631  14.424772465905008   1.665399841583595 
  7.506410450258015   1.465961159727608   1.664186810401275 
  6.219295674638856   3.690756181569629   1.664939582261100 
  2.596438078651138   9.849440798897930   1.668085267045335 
  1.312844850181445  12.185644512765215   1.667112027888210 
  2.506373461942472  14.430896392585819   1.666435399918710 
 10.010154690816284   1.436581747146253   1.665273026846520 
  8.748136577666280   3.627886162303314   1.664356276578690 
  7.488713879105974   5.866628144839974   1.665008036587470 
  5.320428386271169  10.286986364478720   1.661968481547285 
  3.756632547138575  12.256841559075074   1.665969211744170 
  5.009673882324522  14.447503292654007   1.665820144160055 
 12.511338147710518   1.433102241593916   1.666247091313440 
 11.252067390209461   3.606786475854764   1.666256198358615 
  9.988655115290335   5.781458364560467   1.665006246394890 
  8.713770507436262   7.917979383878630   1.666036982720790 
  7.538982063667286  10.102846239629240   1.664517122608290 
  6.315386924420576  12.328304313760878   1.664443342077405 
  4.949819463032433   5.915928659892239   1.669624049521095 
  3.576165387864119   8.105121194033739   1.672641590446095 
  4.762178579737668   7.310005051477377   1.673511930848640 
