 B Sb N 
 1.0
 17.527899999999772   0.000000000000000   0.000000000000000
 -8.763949999999658  15.179606674993195   0.000000000000000
  0.000000000000001   0.000000000000002  15.000000000000000
 B Sb N 
  48   1  49
Cartesian
  7.515728108709789  14.458092545583428   1.532722351832910 
 15.025100934591574   1.444993818052409   1.506734979216900 
 13.772529835685891   3.613367170642477   1.510602250500030 
 12.521135173064202   5.782090120116888   1.520389607728935 
 11.271684616691871   7.950909023856790   1.540290158068500 
 10.015157266586201  10.119737783328796   1.584818112560205 
  8.765330174325495  12.286902418416680   1.586789030773350 
 -7.510096142324054  14.455726068125440   1.556236763486565 
  0.000737249175085   1.441768597736398   1.532820201003090 
 -1.252774221359182   3.610027168199381   1.538983120089015 
 -2.506116220243254   5.781617476438822   1.552614721243185 
 -3.756707152672647   7.950978940070470   1.561363140427470 
 -5.006326113151539  10.119737783328796   1.572750445980390 
 -6.257824594985347  12.287456309180476   1.577966694464295 
 -5.006178764836815  14.455367079712637   1.578430820316930 
  2.505855785838707   1.445209440884726   1.587065136435720 
  1.245945521384553   3.602529853415014   1.628684412390195 
 -0.007535306440610   5.774643594724121   1.686730303015185 
 -1.260340996320221   7.948014972110688   1.651348620195420 
 -2.500968756021949  10.119737783328796   1.618836957825180 
 -3.753706574036291  12.286975509915907   1.592071370590530 
 -2.503161600802670  14.455340855474876   1.573530374832000 
  5.007545249424740   1.446414990124945   1.585515575309220 
  3.758447644949185   3.618668931086656   1.726382710180305 
  2.469654945679838   5.737461643033002   2.030116452649920 
  1.202612122128271   7.927280092781547   2.046748653421965 
  0.008328994312205  10.114956967394468   1.767753739328640 
 -1.250532294669269  12.285723254202003   1.619119511575965 
 -0.000031965243664  14.457578541858872   1.562076150125385 
  7.514119415054696   1.442606310827322   1.541163159722085 
  6.266568844015087   3.607467472585578   1.596199927424910 
  5.043574721033842   5.776737058301726   1.912039652961570 
  2.500082356022329  10.174502207464684   2.046913353011580 
  1.250637556586512  12.297100030196958   1.651640771501415 
  2.503906372710775  14.459145204726546   1.553029599410205 
 10.017091156777479   1.444906733835094   1.521085384800195 
  8.767452519841548   3.611388192919294   1.520364094893840 
  7.519859665221517   5.778151387541001   1.603756869768360 
  6.282970310343843   7.923399686544679   1.912001931647700 
  5.030030319928654  10.172100117594651   2.030397883092825 
  3.759241041410107  12.298790620105821   1.686910605719910 
  5.011210365251911  14.459516373877987   1.539027732039720 
 12.520960476048435   1.445552636647637   1.510686370499715 
 11.269577287609899   3.613239886945035   1.507460288504130 
 10.020105956139760   5.781098600369549   1.519926853832685 
  8.773060822068501   7.948904658746453   1.595633549436090 
  7.509344589767948  10.115385362372807   1.726274063411955 
  6.267066438657882  12.299300975550823   1.628667550929795 
  3.616857630037404   8.031429448204586   3.691182895506915 
  8.766210231460576  13.732624611402969   1.551946011757395 
 16.277291512693104   0.722036129307860   1.513856952246030 
 15.023655559290258   2.889778336125192   1.509040174221285 
 13.770862244221476   5.059868891664398   1.521449339621010 
 12.521319541802058   7.227673373856061   1.535305028108640 
 11.269202793426064   9.396684459306417   1.559866657775760 
 10.017555095694515  11.564315406419581   1.583692129215135 
 -6.258187623337226  13.732939356125737   1.573397994154590 
  1.254277371401048   0.721569912700929   1.552169749823385 
 -0.002857264860384   2.883993537732485   1.545698565568680 
 -1.255321133837462   5.055699711899308   1.573427698159320 
 -2.508892311176424   7.226831985721247   1.573135239988695 
 -3.753682854380884   9.396503456593360   1.580592563590545 
 -5.005971129948890  11.564566307246551   1.583278814141280 
 -3.754239313379754  13.732660677091653   1.583810167142835 
  3.757766536675365   0.722044320291763   1.584318965026665 
  2.506028557092270   2.890653262116738   1.642532398405260 
  1.238113034034394   5.036360912264238   1.735582398291885 
 -0.020919684793543   7.222199172592607   1.737414318429180 
 -1.247518760936903   9.394752384000471   1.674216317336850 
 -2.501142208862743  11.563796979856715   1.612469836481415 
 -1.250445860108071  13.732180064914873   1.581283509896340 
  6.260791304731968   0.721865988381349   1.560716032848870 
  5.008997836572109   2.891648517908961   1.626736124258670 
  3.759591159608607   5.053597284004813   1.936134132831195 
  2.350359944106274   7.123683865331264   2.389098180840105 
  1.254813719733944   9.395297293121983   1.991679652830600 
  0.004135737234261  11.562635690177521   1.674411312187035 
  1.250945654128667  13.738977914944309   1.573631354297145 
  8.765313378934108   0.722049803928090   1.536236889822975 
  7.516629583190696   2.885895804624895   1.534448627272125 
  6.274692568855448   5.042544960964122   1.650302616850335 
  5.141002234802310   7.151608015722863   2.139681542912025 
  3.769876335203105   9.582357342514612   2.389404637693770 
  2.498940957438808  11.586615841569381   1.737575906691030 
  3.757984279100524  13.738883616201621   1.573681002499845 
 11.267409991021454   0.723748992499099   1.521832819071285 
 10.016826306522010   2.889823473168898   1.510268242502715 
  8.770549579986513   5.056070128730967   1.526499086030520 
  7.534295953189889   7.224332630262702   1.649930335430280 
  6.267258623164327   9.396932315694684   1.936319564826315 
  5.021434961167502  11.589166692567451   1.735688402224215 
  6.264933405316592  13.740066758863529   1.545649376799555 
 13.773173762156752   0.723835479110736   1.508955576114675 
 12.521155910878477   2.890640117143799   1.505963851339215 
 11.269697780001762   5.059868891664398   1.509770341992105 
 10.023005203728808   7.227108206045931   1.533764165794290 
  8.764222916877930   9.395908721942677   1.626252714616410 
  7.513620353682643  11.564021217874268   1.642427776416420 
