 P N B 
 1.0
 17.527899999999772   0.000000000000000   0.000000000000000
 -8.763949999999658  15.179606674993195   0.000000000000000
  0.000000000000001   0.000000000000002  15.000000000000000
 P N B 
   1  47  49
Cartesian
  4.884342979425598   7.450469069965451   2.749585167982275 
  8.779044683223031  13.744168586470026   1.576330605724260 
 16.282035260146884   0.720665581787190   1.614074237637105 
 15.021702872718404   2.876155375898743   1.629159098221350 
 13.765635900280502   5.043564673523360   1.618249685250645 
 12.521471416424134   7.216712369160203   1.599501752978085 
 11.285043174811630   9.395662111038497   1.574636301461040 
 10.036902296477372  11.574356998812240   1.549068934305315 
 -6.248629723993323  13.741980899183698   1.593756911937405 
  1.258431462304925   0.729305136110836   1.590831325640295 
  0.006114908028282   2.899863988176314   1.597891743170370 
 -1.260832840299583   5.049113193500546   1.589420225622480 
 -2.524302031381841   7.216583220000487   1.591176352136130 
 -3.762215081964283   9.392337976538386   1.610041796380755 
 -4.999110286814295  11.569131429878260   1.605114975273840 
 -3.748924255572773  13.736598535631147   1.628127178489800 
  3.762257982234690   0.728369132047923   1.607896077463380 
  2.501418944324866   2.894966950528921   1.599465562827900 
  1.261137219551607   5.091904519091210   1.612482565985895 
 -0.047858825939955   7.216291696697694   1.520950079057850 
 -1.282927978926512   9.391166770449306   1.569169382351475 
 -2.505124195348609  11.564402821802449   1.631702274975105 
 -1.246485038748732  13.725415711064583   1.652964410686470 
  6.266264433377703   0.719388260358469   1.640709001902735 
  5.009183966118651   2.893860337364374   1.702989196715085 
  3.729513571711829   5.050250667628577   1.838421771629115 
  2.461172214013371   7.322229177862588   1.730984766467850 
  1.183631737658948   9.389410299316314   1.593947046603315 
 -0.006226777468099  11.554221006730405   1.676769994023765 
  1.266843290365894  13.684723718665646   1.703173778778855 
  8.773797730109006   0.697665657165353   1.648351049903625 
  7.518098298696353   2.878808095352053   1.709982516446190 
  6.263164326688621   5.044365170850896   1.991022115244220 
  2.525498403712485  11.460083457228130   1.858290558738480 
  3.758402168904806  13.682523917789034   1.693002692610660 
 11.271712549509958   0.690436993381808   1.662154027819740 
 10.016793015838486   2.873397697349593   1.664237538034260 
  8.762326078339278   5.055036875582705   1.763873544634905 
  7.573485234486852   7.241948905472272   1.846635733809720 
  6.337767946663411   9.429271001797900   1.561597079622735 
  5.020428396445508  11.535122126381021   1.583817468345615 
  6.269338758416493  13.721653573755065   1.607567482136670 
 13.771800245577161   0.695680952593419   1.644626974326540 
 12.518233620408120   2.869270481566296   1.642369824342990 
 11.266194973419848   5.044223107723972   1.634952184101120 
 10.041317944662008   7.219785360221772   1.615843656366285 
  8.806428074491704   9.402125891306870   1.554637893019425 
  7.543995790297101  11.584362422939293   1.500148411008675 
  7.523715141427658  14.458283635563516   1.597915965767250 
 15.022642042618408   1.430308717286418   1.630777931170950 
 13.768237797299252   3.596677462742926   1.631432985015615 
 12.518737117680214   5.769779754066937   1.614526160240880 
 11.288407557035855   7.949060652808826   1.588081965459975 
 10.054618599408350  10.131989597918642   1.552984803554670 
  8.797001807214965  12.309277736032648   1.538678193600345 
 -7.497324541654584  14.466002246567120   1.587688648760100 
  0.006004736410391   1.450156037245472   1.599895666272240 
 -1.257759944865787   3.604096715665502   1.607436186949500 
 -2.516572048524773   5.770728191589965   1.598665050981690 
 -3.764974520344976   7.946527062485872   1.601378679250785 
 -4.998752310474399  10.124523439028014   1.597657877180895 
 -6.241080176460513  12.298722620271885   1.583082186934890 
 -4.997561440585814  14.460812937503620   1.609520707970610 
  2.507785105526517   1.445364492705423   1.593878267870205 
  1.254487379078753   3.628555419862522   1.601976418352085 
 -0.021220876231427   5.776298721470720   1.567788475671900 
 -1.292355256298938   7.948312481262040   1.554175966716510 
 -2.520880444432752  10.119737783328796   1.607575321820040 
 -3.750372803042100  12.291948732999758   1.624383270546345 
 -2.496547448844439  14.452105758373049   1.637884635784395 
  5.014877752913794   1.440344363034085   1.643338042005675 
  3.745120813104479   3.596166797328794   1.689589773984450 
  2.495341328830194   5.834984855768284   1.734853566275730 
  1.158566664452200   7.955836141518314   1.569672754376625 
 -0.047996710807705  10.124002765523329   1.594109975026815 
 -1.254824442124500  12.285128301788356   1.654029050255205 
  0.013671336404977  14.426313547525224   1.663619514051525 
  7.523451364891598   1.426021028532827   1.658714907647340 
  6.269925266729034   3.590557375928268   1.787860752470835 
  4.973843986800628   5.639794289007122   2.154102967868295 
  3.341816420070661   8.431251591366200   2.150292772975425 
  2.452013691976104   9.992283053190798   1.903948969825080 
  1.265461289432833  12.231664162377623   1.748097860985600 
  2.508008965119391  14.420947993586521   1.693067827419270 
 10.022115884922510   1.421219617437197   1.656550842928590 
  8.770811726396563   3.597723366838074   1.716624704216085 
  7.530253714836121   5.777520922503524   1.899189750703695 
  6.437970144421664   8.071177750369570   1.948460861195400 
  5.110786557863103  10.140933366977448   1.502067520945095 
  3.747330406810640  12.236064143987980   1.723351801150860 
  5.006749524044771  14.429709424062144   1.646119175659575 
 12.519905267035647   1.421072009663114   1.651574996623425 
 11.269922885621870   3.595116401276151   1.648522223625660 
 10.026207824812474   5.772165340353814   1.669910920128165 
  8.823259925555494   7.957376337467984   1.647076050591765 
  7.593423267678935  10.159727838834833   1.507720393893090 
  6.286406668993074  12.290548391921986   1.562606010276600 
