 N Al B 
 1.0
 14.936314146199660   0.000000000000000   0.000000000000000
 -7.468157073099825  12.935227489513863   0.000000000000000
  0.000000000000001   0.000000000000001  13.341276283792837
 N Al B 
 144   1 143
Cartesian
  1.244527531124708   0.718390817780254   1.665603030601099 
  4.978890745532651   7.186656764329717   1.672870668920489 
  6.223629541975227   0.718390817780254   1.665603030601099 
  9.957592814154252   7.186274733337567   1.669318793330246 
 11.202235609649751   0.718623749417456   1.666138667897448 
 -3.734078536549858   9.342108742426664   8.336266043773739 
  1.244573777996860   9.342368374709519   8.340354182243622 
  2.489082274160877   2.874181990797632   8.333086543923566 
  6.223583295101919   9.342368374709519   8.340354182243622 
  7.468359136741258   2.874378336172243   8.341317719606078 
 12.446836163533288   2.874458393430164   8.339633707930497 
 -1.244750120588732   9.342133467434509   1.669318793330246 
 -0.000202063641424   2.874378336172242   1.664639493238831 
  4.979074798939076   2.874181990797631   1.672870668920489 
  3.734078536550285   9.342342065421851   1.664639493238831 
  8.712907193688586   9.342133467434509   1.669318793330246 
  9.957635055766204   2.874458393430163   1.666323504915358 
 -4.978764157015847  11.497918026507566   8.336638419514475 
  0.000056581193402  11.498012657846122   8.337656640101375 
  1.244270065177720   5.030259982638522   8.333086543923566 
  6.223887007921698   5.030259982638522   8.333086543923566 
  4.978785827681773  11.498078219697543   8.339633707930497 
 11.202235609649801   5.030300911587566   8.337656640101375 
 -1.244977227427760   5.030339545277466   1.665603030601099 
 -2.489392916084392  11.497918026507566   1.669318793330246 
  2.489371245417740  11.498078219697543   1.666323504915358 
  3.734078536549917   5.030366245922020   1.734033088195628 
  7.468100491906544  11.498012657846122   1.668300572742878 
  8.713134300527923   5.030339545277466   1.665603030601099 
 -0.000146778409592   7.186322236728805   8.337931249382507 
  1.244527531124604   0.718390817780255   8.340354182243622 
  4.978890745532651   7.186656764329718   8.333086543923566 
  6.223629541975228   0.718390817780255   8.340354182243622 
  9.957592814154252   7.186274733337568   8.336638419514475 
 -2.489435741054521   7.186274733337567   1.669318793330246 
 11.202235609649751   0.718623749417456   8.339818544946606 
  3.734078536550020   0.718454264308817   1.668025963462108 
  2.489266327566872   7.186656764329717   1.672870668920489 
  7.468303851509308   7.186322236728804   1.668025963462108 
  8.712927764634134   0.718562124638161   1.666323504915358 
  2.489266327566872   7.186656764329718   8.333086543923566 
 13.691543454665251   0.718562124638161   1.666323504915358 
 -1.244750120588731   9.342133467434509   8.336638419514475 
 -0.000202063641423   2.874378336172243   8.341317719606078 
  4.979074798939076   2.874181990797632   8.333086543923566 
  3.734078536550286   9.342342065421851   8.341317719606078 
  8.712907193688586   9.342133467434509   8.336638419514475 
  9.957635055766204   2.874458393430164   8.339633707930497 
 -3.734078536549859   9.342108742426664   1.669691169071169 
  1.244573777996860   9.342368374709519   1.665603030601099 
  2.489082274160876   2.874181990797631   1.672870668920489 
  6.223583295101919   9.342368374709519   1.665603030601099 
  7.468359136741257   2.874378336172242   1.664639493238831 
 12.446836163533288   2.874458393430163   1.666323504915358 
 -1.244977227427759   5.030339545277467   8.340354182243622 
 -2.489392916084392  11.497918026507566   8.336638419514475 
  2.489371245417740  11.498078219697543   8.339633707930497 
  3.734078536549917   5.030366245922021   8.271924124648251 
  7.468100491906545  11.498012657846122   8.337656640101375 
 -4.978764157015847  11.497918026507566   1.669318793330246 
  8.713134300527923   5.030339545277467   8.340354182243622 
  0.000056581193402  11.498012657846122   1.668300572742878 
  1.244270065177719   5.030259982638521   1.672870668920489 
 -0.000146778409593   7.186322236728804   1.668025963462108 
  6.223887007921697   5.030259982638521   1.672870668920489 
  4.978785827681772  11.498078219697543   1.666323504915358 
 11.202235609649801   5.030300911587565   1.668300572742878 
 -2.489435741054521   7.186274733337568   8.336638419514475 
  3.734078536550020   0.718454264308818   8.337931249382507 
  7.468303851509309   7.186322236728805   8.337931249382507 
  8.712927764634134   0.718562124638162   8.339633707930497 
 13.691543454665251   0.718562124638162   8.339633707930497 
 -0.009753239322990   1.428507151922475   5.002978606422314 
  3.734078536549015   7.919201501695119   5.002978606422314 
  5.005831441462928   1.364602857881241   5.002978606422314 
  8.734357407497370   7.917278598086075   5.002978606422314 
  9.961547579261932   1.434935317742517   5.002978606422314 
 -4.978793599998158  10.060745319373178  11.673616748318732 
 -0.000001129322191  10.060753637142145  11.673616748318732 
  1.244746335681380   3.593149629648349  11.673616748318732 
  4.978768167769045  10.060736317272417  11.673616748318732 
  6.223410737418440   3.593149629648349  11.673616748318732 
 11.202235609649536   3.593130824399892  11.673616748318732 
 -2.493607337811651  10.058295122940349   5.002978606422314 
 -1.257138827642119   3.589042367520416   5.002978606422314 
  3.734078536549864   3.353908029426488   5.002978606422314 
  2.486692948229929  10.073549218323159   5.002978606422314 
  7.482090076611315  10.077180551049659   5.002978606422314 
  8.725295900742278   3.589042367520416   5.002978606422314 
 -6.223481975287061  12.216592189425453  11.673616748318732 
 -1.244675097812325  12.216592189425453  11.673616748318732 
  0.000049435809814   5.748973138351923  11.673616748318732 
  4.978602490732984   5.748892485882497  11.673616748318732 
  3.734078536549339  12.216589838258162  11.673616748318732 
  9.957561641159710   5.748980400712137  11.673616748318732 
 -2.510596629903416   5.752832300727619   5.002978606422314 
 -3.734078536549536  12.191769031106766   5.002978606422314 
  1.247556700773443  12.218257187700065   5.002978606422314 
  2.282223132681564   5.868595354169834   5.002978606422314 
  6.220600372325964  12.218257187700065   5.002978606422314 
  7.544599207313485   5.761877616951080   5.002978606422314 
 -1.244687495996226   7.904858155044472  11.673616748318732 
 -0.000004920066075   1.437248369784424  11.673616748318732 
  3.734078536550181   7.904799478469458  11.673616748318732 
  4.978761262740877   1.437298739996121  11.673616748318732 
  8.712844569095317   7.904858155044472  11.673616748318732 
 -3.734078536549866   7.909735981399696   5.002978606422314 
  9.957530724787386   1.437254449754081  11.673616748318732 
  2.462325631637112   1.364602857881241   5.002978606422314 
  1.195310770700537   7.964618262933187   5.002978606422314 
  6.272846302400794   7.964618262933187   5.002978606422314 
  7.477910312421969   1.428507151922475   5.002978606422314 
  1.244732162000985   7.904826859418384  11.673616748318732 
 12.442923640037890   1.434935317742517   5.002978606422314 
 -2.489363473102290  10.060745319373178  11.673616748318732 
 -1.244694551284938   3.593114050709679  11.673616748318732 
  3.734078536549969   3.593313766000982  11.673616748318732 
  2.489388905331213  10.060736317272417  11.673616748318732 
  7.468158202422240  10.060753637142145  11.673616748318732 
  8.712851624385832   3.593114050709679  11.673616748318732 
 -4.974549735288186  10.058295122940349   5.002978606422314 
 -0.013933003510311  10.077180551049659   5.002978606422314 
  1.232273817702495   3.585948618035517   5.002978606422314 
  4.981464124869368  10.073549218323159   5.002978606422314 
  6.235883255396590   3.585948618035517   5.002978606422314 
 11.202235609649897   3.589811851879513   5.002978606422314 
 -2.489404568059457   5.748980400712137  11.673616748318732 
 -3.734078536550491  12.216609917191244  11.673616748318732 
  1.244682386257739  12.216597701440188  11.673616748318732 
  2.489554582366956   5.748892485882497  11.673616748318732 
  6.223474686842535  12.216597701440188  11.673616748318732 
 -6.230742162942430  12.196313375501639   5.002978606422314 
  7.468107637289498   5.748973138351923  11.673616748318732 
 -1.237414910156754  12.196313375502557   5.002978606422314 
 -0.076442134212589   5.761877616951080   5.002978606422314 
 -1.266200334396577   7.917278598086075   5.002978606422314 
  5.185933940418271   5.868595354169834   5.002978606422314 
  3.734078536550399  12.221228102281286   5.002978606422314 
  9.978753703004415   5.752832300727619   5.002978606422314 
 -3.734078536550442   7.904835588535398  11.673616748318732 
  2.489395810358537   1.437298739996121  11.673616748318732 
  6.223424911098329   7.904826859418384  11.673616748318732 
  7.468161993166864   1.437248369784424  11.673616748318732 
 12.446940494511376   1.437254449754081  11.673616748318732 
  3.734078536549917   5.030366245922021   5.002978606422314 
  1.220950128075917   0.682938535909601   5.002978606422314 
  5.040340904889021   7.261247320593903   5.002978606422314 
  6.247206945023824   0.682938535909601   5.002978606422314 
  9.967678496988050   7.189747858071652   5.002978606422314 
 11.202235609649751   0.718623749417456   5.002978606422314 
 -3.734078536549858   9.342108742426666  11.673616748318732 
  1.244676804587692   9.342200048878373  11.673616748318732 
  2.489069462551504   2.874464510333596  11.673616748318732 
  6.223480268513312   9.342200048878373  11.673616748318732 
  7.468123873718462   2.874514165341844  11.673616748318732 
 12.446732124898347   2.874548608777014  11.673616748318732 
 -1.252800776255712   9.349131362616333   5.002978606422314 
 -0.009702899289481   2.868893026152947   5.002978606422314 
  5.012947035868512   2.783669313596875   5.002978606422314 
  3.734078536550083   9.353312685460997   5.002978606422314 
  8.720957849355550   9.349131362616333   5.002978606422314 
  9.963023338831471   2.869655161022259   5.002978606422314 
 -4.978609769455689  11.498037951548492  11.673616748318732 
  0.000171017703371  11.498078727795907  11.673616748318732 
  1.244508328468236   5.030107627691371  11.673616748318732 
  6.223648744631272   5.030107627691371  11.673616748318732 
  4.978915975782487  11.498123212124955  11.673616748318732 
 11.202235609649852   5.030168771687934  11.673616748318732 
 -1.287468505674268   5.027647056217457   5.002978606422314 
 -2.487357888917407  11.487447006591941   5.002978606422314 
  2.490836825171070  11.505146225919898   5.002978606422314 
  7.464391380623910  11.500154114243612   5.002978606422314 
  8.755625578775057   5.027647056217457   5.002978606422314 
 -0.000217915258231   7.186363307607266  11.673616748318732 
  1.244621792273962   0.718564204338646  11.673616748318732 
  4.978639670632224   7.186526599742017  11.673616748318732 
  6.223535280826185   0.718564204338646  11.673616748318732 
  9.957411762242968   7.186348474364846  11.673616748318732 
 -2.499521423887572   7.189747858071652   5.002978606422314 
 11.202235609649751   0.718623749417457  11.673616748318732 
  3.734078536549445   0.681331142813464   5.002978606422314 
  2.427816168211249   7.261247320593903   5.002978606422314 
  7.500453417792953   7.204883797476797   5.002978606422314 
  8.719781627453525   0.716297350824539   5.002978606422314 
  2.489517402466119   7.186526599742017  11.673616748318732 
 13.684689591845981   0.716297350824539   5.002978606422314 
 -1.244723456235543   9.341939801365843  11.673616748318732 
  0.000033199382118   2.874514165341844  11.673616748318732 
  4.979087610548435   2.874464510333596  11.673616748318732 
  3.734078536550816   9.342070407081913  11.673616748318732 
  8.712880529336129   9.341939801365843  11.673616748318732 
  9.957739094402207   2.874548608777014  11.673616748318732 
 -3.734078536549858   9.342108742426664   5.002978606422314 
  1.225659902799053   9.380513145640181   5.002978606422314 
  2.455210037231216   2.783669313596875   5.002978606422314 
  6.242497170300471   9.380513145640181   5.002978606422314 
  7.477859972390061   2.868893026152947   5.002978606422314 
 12.441447880466752   2.869655161022259   5.002978606422314 
 -1.244779939688682   5.030334484547934  11.673616748318732 
 -2.489547303642740  11.498037951548492  11.673616748318732 
  2.489241097318938  11.498123212124955  11.673616748318732 
  3.734078536549918   5.030366245922021  11.673616748318732 
  7.467986055396681  11.498078727795907  11.673616748318732 
 -4.980799184181770  11.487447006591941   5.002978606422314 
  8.712937012788950   5.030334484547934  11.673616748318732 
  0.003765692476780  11.500154114243612   5.002978606422314 
  1.148947668892383   5.046182103575002   5.002978606422314 
 -0.032296344693102   7.204883797476797   5.002978606422314 
  6.319209404207452   5.046182103575002   5.002978606422314 
  4.977320247928245  11.505146225919898   5.002978606422314 
 11.202235609650179   5.026017998791952   5.002978606422314 
 -2.489254689141652   7.186348474364846  11.673616748318732 
  3.734078536549752   0.718372122551612  11.673616748318732 
  7.468374988358383   7.186363307607266  11.673616748318732 
  8.712901655170326   0.718426916863813  11.673616748318732 
 13.691569564130017   0.718426916863813  11.673616748318732 
  0.000068811071035   1.436808425647762   1.663933396821586 
  3.734078536549553   7.905862182456099   1.668871338726341 
  4.979300562970188   1.436083707741169   1.666370842659777 
  8.713114412752788   7.905013949351948   1.667323410004236 
  9.957906136023023   1.437037705976989   1.664558219058511 
 -4.978428694038650  10.060534640819286   8.338145613704146 
  0.000143144990171  10.060727296871345   8.339692707230991 
  1.243826007033529   3.592618277655027   8.337085874118300 
  4.979186036135770  10.060892436302220   8.342023816023522 
  6.224331066066949   3.592618277655027   8.337085874118300 
 11.202235609649643   3.593091399966327   8.340461262652775 
 -2.489728379061917  10.060534640819286   1.667811599140761 
 -1.245038688515239   3.593397875816248   1.663933396821586 
  3.734078536549655   3.589753613250737   1.690099321016528 
  2.488971036962906  10.060892436302220   1.663933396821586 
  7.468013928109355  10.060727296871345   1.666264505613343 
  8.713195761614760   3.593397875816248   1.663933396821586 
 -6.223531301099439  12.216730304780935   8.339692707230991 
 -1.244625772000065  12.216730304780935   8.339692707230991 
 -0.001272463103837   5.749113606780548   8.339586370184852 
  4.981685673456519   5.750672562257890   8.315857891827914 
  3.734078536551093  12.217023325811891   8.341398993785930 
  9.957466692659352   5.748868625627916   8.339692707230991 
 -2.489309619559205   5.748868625627916   1.666264505613343 
 -3.734078536550224  12.216298328575100   1.667323410004236 
  1.244716528818032  12.216617413656891   1.665495950191666 
  2.486471399643421   5.750672562257889   1.690099321016528 
  6.223440544281688  12.216617413656891   1.665495950191666 
  7.469429536204194   5.749113606780547   1.666370842659777 
 -1.244957339652724   7.905013949351948   8.338633802839924 
  0.000068811071035   1.436808425647763   8.342023816023522 
  3.734078536549554   7.905862182456100   8.337085874118300 
  4.979300562970189   1.436083707741170   8.339586370184852 
  8.713114412752788   7.905013949351948   8.338633802839924 
 -3.734078536550128   7.905256945642815   1.667811599140761 
  9.957906136023023   1.437037705976990   8.341398993785930 
  2.488856510129435   1.436083707741169   1.666370842659777 
  1.243949563316330   7.905901423244890   1.666370842659777 
  6.224207509783609   7.905901423244890   1.666370842659777 
  7.468088262028171   1.436808425647762   1.663933396821586 
  1.243949563316331   7.905901423244891   8.339586370184852 
 12.446565083277736   1.437037705976989   1.664558219058511 
 -2.489728379061916  10.060534640819286   8.338145613704146 
 -1.245038688515239   3.593397875816249   8.342023816023522 
  3.734078536549655   3.589753613250738   8.315857891827914 
  2.488971036962906  10.060892436302220   8.342023816023522 
  7.468013928109356  10.060727296871345   8.339692707230991 
  8.713195761614760   3.593397875816249   8.342023816023522 
 -4.978428694038651  10.060534640819286   1.667811599140761 
  0.000143144990171  10.060727296871345   1.666264505613343 
  1.243826007033528   3.592618277655026   1.668871338726341 
  4.979186036135769  10.060892436302220   1.663933396821586 
  6.224331066066948   3.592618277655026   1.668871338726341 
 11.202235609649643   3.593091399966326   1.665495950191666 
 -2.489309619559205   5.748868625627916   8.339692707230991 
 -3.734078536550224  12.216298328575100   8.338633802839924 
  1.244716528818032  12.216617413656891   8.340461262652775 
  2.486471399643421   5.750672562257890   8.315857891827914 
  6.223440544281689  12.216617413656891   8.340461262652775 
 -6.223531301099440  12.216730304780935   1.666264505613343 
  7.469429536204195   5.749113606780548   8.339586370184852 
 -1.244625772000066  12.216730304780935   1.666264505613343 
 -0.001272463104047   5.749113606780547   1.666370842659777 
 -1.244957339652725   7.905013949351948   1.667323410004236 
  4.981685673456518   5.750672562257889   1.690099321016528 
  3.734078536551093  12.217023325811891   1.664558219058511 
  9.957466692659352   5.748868625627916   1.666264505613343 
 -3.734078536550008   7.905256945642816   8.338145613704146 
  2.488856510129435   1.436083707741170   8.339586370184852 
  6.224207509783610   7.905901423244891   8.339586370184852 
  7.468088262028171   1.436808425647763   8.342023816023522 
 12.446565083277736   1.437037705976990   8.341398993785930 
Generated by cif2cell 2.0.0.  :  Failed to get author information, No journal information. Species order: N Al B 
 1.0
 14.936314146199660   0.000000000000000   0.000000000000000
 -7.468157073099825  12.935227489513863   0.000000000000000
  0.000000000000001   0.000000000000001  13.341276283792837
 N Al B 
 144   1 143
Cartesian
  1.244527531124708   0.718390817780254   1.665603030601099 
  4.978890745532651   7.186656764329717   1.672870668920489 
  6.223629541975227   0.718390817780254   1.665603030601099 
  9.957592814154252   7.186274733337567   1.669318793330246 
 11.202235609649751   0.718623749417456   1.666138667897448 
 -3.734078536549858   9.342108742426664   8.336266043773739 
  1.244573777996860   9.342368374709519   8.340354182243622 
  2.489082274160877   2.874181990797632   8.333086543923566 
  6.223583295101919   9.342368374709519   8.340354182243622 
  7.468359136741258   2.874378336172243   8.341317719606078 
 12.446836163533288   2.874458393430164   8.339633707930497 
 -1.244750120588732   9.342133467434509   1.669318793330246 
 -0.000202063641424   2.874378336172242   1.664639493238831 
  4.979074798939076   2.874181990797631   1.672870668920489 
  3.734078536550285   9.342342065421851   1.664639493238831 
  8.712907193688586   9.342133467434509   1.669318793330246 
  9.957635055766204   2.874458393430163   1.666323504915358 
 -4.978764157015847  11.497918026507566   8.336638419514475 
  0.000056581193402  11.498012657846122   8.337656640101375 
  1.244270065177720   5.030259982638522   8.333086543923566 
  6.223887007921698   5.030259982638522   8.333086543923566 
  4.978785827681773  11.498078219697543   8.339633707930497 
 11.202235609649801   5.030300911587566   8.337656640101375 
 -1.244977227427760   5.030339545277466   1.665603030601099 
 -2.489392916084392  11.497918026507566   1.669318793330246 
  2.489371245417740  11.498078219697543   1.666323504915358 
  3.734078536549917   5.030366245922020   1.734033088195628 
  7.468100491906544  11.498012657846122   1.668300572742878 
  8.713134300527923   5.030339545277466   1.665603030601099 
 -0.000146778409592   7.186322236728805   8.337931249382507 
  1.244527531124604   0.718390817780255   8.340354182243622 
  4.978890745532651   7.186656764329718   8.333086543923566 
  6.223629541975228   0.718390817780255   8.340354182243622 
  9.957592814154252   7.186274733337568   8.336638419514475 
 -2.489435741054521   7.186274733337567   1.669318793330246 
 11.202235609649751   0.718623749417456   8.339818544946606 
  3.734078536550020   0.718454264308817   1.668025963462108 
  2.489266327566872   7.186656764329717   1.672870668920489 
  7.468303851509308   7.186322236728804   1.668025963462108 
  8.712927764634134   0.718562124638161   1.666323504915358 
  2.489266327566872   7.186656764329718   8.333086543923566 
 13.691543454665251   0.718562124638161   1.666323504915358 
 -1.244750120588731   9.342133467434509   8.336638419514475 
 -0.000202063641423   2.874378336172243   8.341317719606078 
  4.979074798939076   2.874181990797632   8.333086543923566 
  3.734078536550286   9.342342065421851   8.341317719606078 
  8.712907193688586   9.342133467434509   8.336638419514475 
  9.957635055766204   2.874458393430164   8.339633707930497 
 -3.734078536549859   9.342108742426664   1.669691169071169 
  1.244573777996860   9.342368374709519   1.665603030601099 
  2.489082274160876   2.874181990797631   1.672870668920489 
  6.223583295101919   9.342368374709519   1.665603030601099 
  7.468359136741257   2.874378336172242   1.664639493238831 
 12.446836163533288   2.874458393430163   1.666323504915358 
 -1.244977227427759   5.030339545277467   8.340354182243622 
 -2.489392916084392  11.497918026507566   8.336638419514475 
  2.489371245417740  11.498078219697543   8.339633707930497 
  3.734078536549917   5.030366245922021   8.271924124648251 
  7.468100491906545  11.498012657846122   8.337656640101375 
 -4.978764157015847  11.497918026507566   1.669318793330246 
  8.713134300527923   5.030339545277467   8.340354182243622 
  0.000056581193402  11.498012657846122   1.668300572742878 
  1.244270065177719   5.030259982638521   1.672870668920489 
 -0.000146778409593   7.186322236728804   1.668025963462108 
  6.223887007921697   5.030259982638521   1.672870668920489 
  4.978785827681772  11.498078219697543   1.666323504915358 
 11.202235609649801   5.030300911587565   1.668300572742878 
 -2.489435741054521   7.186274733337568   8.336638419514475 
  3.734078536550020   0.718454264308818   8.337931249382507 
  7.468303851509309   7.186322236728805   8.337931249382507 
  8.712927764634134   0.718562124638162   8.339633707930497 
 13.691543454665251   0.718562124638162   8.339633707930497 
 -0.009753239322990   1.428507151922475   5.002978606422314 
  3.734078536549015   7.919201501695119   5.002978606422314 
  5.005831441462928   1.364602857881241   5.002978606422314 
  8.734357407497370   7.917278598086075   5.002978606422314 
  9.961547579261932   1.434935317742517   5.002978606422314 
 -4.978793599998158  10.060745319373178  11.673616748318732 
 -0.000001129322191  10.060753637142145  11.673616748318732 
  1.244746335681380   3.593149629648349  11.673616748318732 
  4.978768167769045  10.060736317272417  11.673616748318732 
  6.223410737418440   3.593149629648349  11.673616748318732 
 11.202235609649536   3.593130824399892  11.673616748318732 
 -2.493607337811651  10.058295122940349   5.002978606422314 
 -1.257138827642119   3.589042367520416   5.002978606422314 
  3.734078536549864   3.353908029426488   5.002978606422314 
  2.486692948229929  10.073549218323159   5.002978606422314 
  7.482090076611315  10.077180551049659   5.002978606422314 
  8.725295900742278   3.589042367520416   5.002978606422314 
 -6.223481975287061  12.216592189425453  11.673616748318732 
 -1.244675097812325  12.216592189425453  11.673616748318732 
  0.000049435809814   5.748973138351923  11.673616748318732 
  4.978602490732984   5.748892485882497  11.673616748318732 
  3.734078536549339  12.216589838258162  11.673616748318732 
  9.957561641159710   5.748980400712137  11.673616748318732 
 -2.510596629903416   5.752832300727619   5.002978606422314 
 -3.734078536549536  12.191769031106766   5.002978606422314 
  1.247556700773443  12.218257187700065   5.002978606422314 
  2.282223132681564   5.868595354169834   5.002978606422314 
  6.220600372325964  12.218257187700065   5.002978606422314 
  7.544599207313485   5.761877616951080   5.002978606422314 
 -1.244687495996226   7.904858155044472  11.673616748318732 
 -0.000004920066075   1.437248369784424  11.673616748318732 
  3.734078536550181   7.904799478469458  11.673616748318732 
  4.978761262740877   1.437298739996121  11.673616748318732 
  8.712844569095317   7.904858155044472  11.673616748318732 
 -3.734078536549866   7.909735981399696   5.002978606422314 
  9.957530724787386   1.437254449754081  11.673616748318732 
  2.462325631637112   1.364602857881241   5.002978606422314 
  1.195310770700537   7.964618262933187   5.002978606422314 
  6.272846302400794   7.964618262933187   5.002978606422314 
  7.477910312421969   1.428507151922475   5.002978606422314 
  1.244732162000985   7.904826859418384  11.673616748318732 
 12.442923640037890   1.434935317742517   5.002978606422314 
 -2.489363473102290  10.060745319373178  11.673616748318732 
 -1.244694551284938   3.593114050709679  11.673616748318732 
  3.734078536549969   3.593313766000982  11.673616748318732 
  2.489388905331213  10.060736317272417  11.673616748318732 
  7.468158202422240  10.060753637142145  11.673616748318732 
  8.712851624385832   3.593114050709679  11.673616748318732 
 -4.974549735288186  10.058295122940349   5.002978606422314 
 -0.013933003510311  10.077180551049659   5.002978606422314 
  1.232273817702495   3.585948618035517   5.002978606422314 
  4.981464124869368  10.073549218323159   5.002978606422314 
  6.235883255396590   3.585948618035517   5.002978606422314 
 11.202235609649897   3.589811851879513   5.002978606422314 
 -2.489404568059457   5.748980400712137  11.673616748318732 
 -3.734078536550491  12.216609917191244  11.673616748318732 
  1.244682386257739  12.216597701440188  11.673616748318732 
  2.489554582366956   5.748892485882497  11.673616748318732 
  6.223474686842535  12.216597701440188  11.673616748318732 
 -6.230742162942430  12.196313375501639   5.002978606422314 
  7.468107637289498   5.748973138351923  11.673616748318732 
 -1.237414910156754  12.196313375502557   5.002978606422314 
 -0.076442134212589   5.761877616951080   5.002978606422314 
 -1.266200334396577   7.917278598086075   5.002978606422314 
  5.185933940418271   5.868595354169834   5.002978606422314 
  3.734078536550399  12.221228102281286   5.002978606422314 
  9.978753703004415   5.752832300727619   5.002978606422314 
 -3.734078536550442   7.904835588535398  11.673616748318732 
  2.489395810358537   1.437298739996121  11.673616748318732 
  6.223424911098329   7.904826859418384  11.673616748318732 
  7.468161993166864   1.437248369784424  11.673616748318732 
 12.446940494511376   1.437254449754081  11.673616748318732 
  3.734078536549917   5.030366245922021   5.002978606422314 
  1.220950128075917   0.682938535909601   5.002978606422314 
  5.040340904889021   7.261247320593903   5.002978606422314 
  6.247206945023824   0.682938535909601   5.002978606422314 
  9.967678496988050   7.189747858071652   5.002978606422314 
 11.202235609649751   0.718623749417456   5.002978606422314 
 -3.734078536549858   9.342108742426666  11.673616748318732 
  1.244676804587692   9.342200048878373  11.673616748318732 
  2.489069462551504   2.874464510333596  11.673616748318732 
  6.223480268513312   9.342200048878373  11.673616748318732 
  7.468123873718462   2.874514165341844  11.673616748318732 
 12.446732124898347   2.874548608777014  11.673616748318732 
 -1.252800776255712   9.349131362616333   5.002978606422314 
 -0.009702899289481   2.868893026152947   5.002978606422314 
  5.012947035868512   2.783669313596875   5.002978606422314 
  3.734078536550083   9.353312685460997   5.002978606422314 
  8.720957849355550   9.349131362616333   5.002978606422314 
  9.963023338831471   2.869655161022259   5.002978606422314 
 -4.978609769455689  11.498037951548492  11.673616748318732 
  0.000171017703371  11.498078727795907  11.673616748318732 
  1.244508328468236   5.030107627691371  11.673616748318732 
  6.223648744631272   5.030107627691371  11.673616748318732 
  4.978915975782487  11.498123212124955  11.673616748318732 
 11.202235609649852   5.030168771687934  11.673616748318732 
 -1.287468505674268   5.027647056217457   5.002978606422314 
 -2.487357888917407  11.487447006591941   5.002978606422314 
  2.490836825171070  11.505146225919898   5.002978606422314 
  7.464391380623910  11.500154114243612   5.002978606422314 
  8.755625578775057   5.027647056217457   5.002978606422314 
 -0.000217915258231   7.186363307607266  11.673616748318732 
  1.244621792273962   0.718564204338646  11.673616748318732 
  4.978639670632224   7.186526599742017  11.673616748318732 
  6.223535280826185   0.718564204338646  11.673616748318732 
  9.957411762242968   7.186348474364846  11.673616748318732 
 -2.499521423887572   7.189747858071652   5.002978606422314 
 11.202235609649751   0.718623749417457  11.673616748318732 
  3.734078536549445   0.681331142813464   5.002978606422314 
  2.427816168211249   7.261247320593903   5.002978606422314 
  7.500453417792953   7.204883797476797   5.002978606422314 
  8.719781627453525   0.716297350824539   5.002978606422314 
  2.489517402466119   7.186526599742017  11.673616748318732 
 13.684689591845981   0.716297350824539   5.002978606422314 
 -1.244723456235543   9.341939801365843  11.673616748318732 
  0.000033199382118   2.874514165341844  11.673616748318732 
  4.979087610548435   2.874464510333596  11.673616748318732 
  3.734078536550816   9.342070407081913  11.673616748318732 
  8.712880529336129   9.341939801365843  11.673616748318732 
  9.957739094402207   2.874548608777014  11.673616748318732 
 -3.734078536549858   9.342108742426664   5.002978606422314 
  1.225659902799053   9.380513145640181   5.002978606422314 