Species order: X N B                    
   2.51242800000000     
     5.9449720136058266    0.0000000000000000    0.0000000000000000
    -2.9724860068029120    5.1484967885702053   -0.0000000000000001
     0.0000000000000000    0.0000000000000009    5.3101128803662583
   Al   N    B 
     1   144   143
Direct
  0.4444444444444429  0.3888888888888857  0.3750000000000000
  0.1110910393897728  0.0555375480147242  0.1248458539625997
  0.6111353091294179  0.5555879686040066  0.1253906023183643
  0.4444465086249585  0.0555375480147242  0.1248458539625997
  0.9444492347870508  0.5555584344506677  0.1251243702492059
  0.7777777777777786  0.0555555555555571  0.1248860028422839
  0.1111111111111143  0.7222222222222214  0.6248477181977520
  0.4444465086249585  0.7222422939436552  0.6251541460374074
  0.2777453647293149  0.2221980242038753  0.6246093976815931
  0.7777957853186258  0.7222422939436552  0.6251541460374074
  0.6111201300091552  0.2222132033242089  0.6252263683152431
  0.9444368505294016  0.2222193924119530  0.6251001426348991
  0.2777748988826395  0.7222241336696904  0.1251243702492059
  0.1110930733150537  0.2222132033242089  0.1247736316847782
  0.4444526594745675  0.2221980242038753  0.1253906023183643
  0.6111201300091552  0.7222402600182607  0.1247736316847782
  0.9444492347870508  0.7222241336696904  0.1251243702492059
  0.7777825418825515  0.2222193924119530  0.1248998573651933
  0.1111091996636098  0.8888840985462778  0.6248756297508012
  0.4444494953285112  0.8888914143309162  0.6249519508287280
  0.2777453647293149  0.3888806738587611  0.6246093976815931
  0.6111353091294179  0.3888806738587611  0.6246093976815931
  0.7777825418825515  0.8888964828039270  0.6251001426348991
  0.9444419190024124  0.3888838380048174  0.6249519508287280
  0.1110910393897657  0.3888868247083700  0.1248458539625997
  0.2777748988826395  0.8888840985462778  0.1251243702492059
  0.6111139409213541  0.8888964828039270  0.1248998573651933
  0.4444444444444429  0.3888888888888857  0.1299750527093236
  0.9444419190024124  0.8888914143309162  0.1250480491712437
  0.7777957853186258  0.3888868247083700  0.1248458539625997
  0.2777712264779042  0.5555621068554456  0.6249725342628234
  0.1110910393897657  0.0555375480147242  0.6251541460374074
  0.6111353091294179  0.5555879686040066  0.6246093976815931
  0.4444465086249585  0.0555375480147242  0.6251541460374074
  0.9444492347870508  0.5555584344506677  0.6248756297508012
  0.1111091996636098  0.5555584344506677  0.1251243702492059
  0.7777777777777786  0.0555555555555571  0.6251139971576734
  0.2777712264779042  0.0555424529557941  0.1250274657371764
  0.4444526594745675  0.5555879686040066  0.1253906023183643
  0.7777908803775344  0.5555621068554456  0.1250274657371764
  0.6111139409213541  0.0555507914507629  0.1248998573651933
  0.4444526594745675  0.5555879686040066  0.6246093976815931
  0.9444368505294016  0.0555507914507629  0.1248998573651933
  0.2777748988826395  0.7222241336696904  0.6248756297508012
  0.1110930733150537  0.2222132033242089  0.6252263683152431
  0.4444526594745675  0.2221980242038753  0.6246093976815931
  0.6111201300091552  0.7222402600182607  0.6252263683152431
  0.9444492347870508  0.7222241336696904  0.6248756297508012
  0.7777825418825515  0.2222193924119530  0.6251001426348991
  0.1111111111111143  0.7222222222222214  0.1251522818022694
  0.4444465086249585  0.7222422939436552  0.1248458539625997
  0.2777453647293149  0.2221980242038753  0.1253906023183643
  0.7777957853186258  0.7222422939436552  0.1248458539625997
  0.6111201300091552  0.2222132033242089  0.1247736316847782
  0.9444368505294016  0.2222193924119530  0.1248998573651933
  0.1110910393897657  0.3888868247083700  0.6251541460374074
  0.2777748988826395  0.8888840985462778  0.6248756297508012
  0.6111139409213541  0.8888964828039270  0.6251001426348991
  0.4444444444444429  0.3888888888888857  0.6200249472906196
  0.9444419190024124  0.8888914143309162  0.6249519508287280
  0.1111091996636098  0.8888840985462778  0.1251243702492059
  0.7777957853186258  0.3888868247083700  0.6251541460374074
  0.4444494953285112  0.8888914143309162  0.1250480491712437
  0.2777453647293149  0.3888806738587611  0.1253906023183643
  0.2777712264779042  0.5555621068554456  0.1250274657371764
  0.6111353091294179  0.3888806738587611  0.1253906023183643
  0.7777825418825515  0.8888964828039270  0.1248998573651933
  0.9444419190024124  0.3888838380048174  0.1250480491712437
  0.1111091996636098  0.5555584344506677  0.6248756297508012
  0.2777712264779042  0.0555424529557941  0.6249725342628234
  0.7777908803775344  0.5555621068554456  0.6249725342628234
  0.6111139409213541  0.0555507914507629  0.6251001426348991
  0.9444368505294016  0.0555507914507629  0.6251001426348991
  0.0545647166631206  0.1104354100521627  0.3750000000000000
  0.5561098657953008  0.6122197315907225  0.3750000000000000
  0.3878925692167309  0.1054950799270805  0.3750000000000000
  0.8908088171630326  0.6120710752481415  0.3750000000000000
  0.7224009729318418  0.1109323604015294  0.3750000000000000
  0.0555545638815648  0.7777787694517994  0.8750000000000000
  0.3888896306328828  0.7777794124840901  0.8750000000000000
  0.2222269971766752  0.2777801652550126  0.8750000000000000
  0.7222221548906537  0.7777780735150037  0.8750000000000000
  0.5555531680783373  0.2777801652550126  0.8750000000000000
  0.8888893557269232  0.2777787114538744  0.8750000000000000
  0.2218453646979372  0.7775893490156436  0.3750000000000000
  0.0545647166631206  0.2774626399442865  0.3750000000000000
  0.3796424060630277  0.2592848121260625  0.3750000000000000
  0.5558706933889852  0.7787686166702080  0.3750000000000000
  0.8904575017804037  0.7790493487044485  0.3750000000000000
  0.7228979232811874  0.2774626399442865  0.3750000000000000
  0.0555539208492527  0.9444435514821071  0.8750000000000000
  0.3888896306328828  0.9444435514821071  0.8750000000000000
  0.2222248804030229  0.4444431412599750  0.8750000000000000
  0.5555404789816019  0.4444369061574617  0.8750000000000000
  0.7222216848586819  0.9444433697174418  0.8750000000000000
  0.8888897818512215  0.4444437027004458  0.8750000000000000
  0.0542839846288801  0.4447414864092056  0.3750000000000000
  0.2212622580851729  0.9425245161702960  0.3750000000000000
  0.5558112058879252  0.9445722696106411  0.3750000000000000
  0.3796424060630277  0.4536909272703009  0.3750000000000000
  0.8887610637226875  0.9445722696106411  0.3750000000000000
  0.7278382534063049  0.4454407641165977  0.3750000000000000
  0.2222224609924260  0.6111108723408742  0.8750000000000000
  0.0555552598183960  0.1111111784427105  0.8750000000000000
  0.5555531680783373  0.6111063361566391  0.8750000000000000
  0.3888901920733536  0.1111150724764049  0.8750000000000000
  0.8888884113483985  0.6111108723408742  0.8750000000000000
  0.0557439843177064  0.6114879686354058  0.3750000000000000
  0.7222216848586819  0.1111116484746183  0.8750000000000000
  0.2176025107103638  0.1054950799270805  0.3750000000000000
  0.3878925692167309  0.6157308226229362  0.3750000000000000
  0.7278382534063049  0.6157308226229362  0.3750000000000000
  0.5558706933889852  0.1104354100521627  0.3750000000000000
  0.3888901920733536  0.6111084529303059  0.8750000000000000
  0.8885313874697087  0.1109323604015294  0.3750000000000000
  0.2222242055701920  0.7777787694517994  0.8750000000000000
  0.0555552598183960  0.2777774147089786  0.8750000000000000
  0.3888964271758669  0.2777928543517267  0.8750000000000000
  0.5555559186243785  0.7777780735150037  0.8750000000000000
  0.8888897818512215  0.7777794124840901  0.8750000000000000
  0.7222221548906537  0.2777774147089786  0.8750000000000000
  0.0557439843177064  0.7775893490156436  0.3750000000000000
  0.3885918469241230  0.7790493487044485  0.3750000000000000
  0.2211136017426204  0.2772234675379709  0.3750000000000000
  0.7228979232811874  0.7787686166702080  0.3750000000000000
  0.5561098657953008  0.2772234675379709  0.3750000000000000
  0.8887610637226875  0.2775221274453538  0.3750000000000000
  0.0555539208492527  0.4444437027004458  0.8750000000000000
  0.2222224609924260  0.9444449219849301  0.8750000000000000
  0.5555546218795110  0.9444439776064054  0.8750000000000000
  0.3888964271758669  0.4444369061574617  0.8750000000000000
  0.8888893557269232  0.9444439776064054  0.8750000000000000
  0.0542839846288801  0.9428758315529249  0.3750000000000000
  0.7222182608569165  0.4444431412599750  0.8750000000000000
  0.3885918469241230  0.9428758315529959  0.3750000000000000
  0.2176025107103638  0.4454407641165977  0.3750000000000000
  0.2212622580851729  0.6120710752481415  0.3750000000000000
  0.5740485212072731  0.4536909272703009  0.3750000000000000
  0.7224009729318418  0.9448019458636199  0.3750000000000000
  0.8904575017804037  0.4447414864092056  0.3750000000000000
  0.0555545638815648  0.6111091277632006  0.8750000000000000
  0.2222248804030229  0.1111150724764049  0.8750000000000000
  0.7222182608569165  0.6111084529303059  0.8750000000000000
  0.5555559186243785  0.1111111784427105  0.8750000000000000
  0.8888899636158868  0.1111116484746183  0.8750000000000000
  0.1081421333143467  0.0527967935981985  0.3750000000000000
  0.6181326872021796  0.5613544351253461  0.3750000000000000
  0.4446546602838447  0.0527967935981985  0.3750000000000000
  0.9452587311738836  0.5558269356994395  0.3750000000000000
  0.7777777777777786  0.0555555555555571  0.3750000000000000
  0.1111111111111143  0.7222222222222214  0.8750000000000000
  0.4444468998611662  0.7222292809656237  0.8750000000000000
  0.2777554275278944  0.2222198652991468  0.8750000000000000
  0.7777823811045357  0.7222292809656237  0.8750000000000000
  0.6111096292916673  0.2222237040417040  0.8750000000000000
  0.9444333722428818  0.2222263668039320  0.8750000000000000
  0.2775063976338889  0.7227651288077727  0.3750000000000000
  0.1102449537093542  0.2217891435213379  0.3750000000000000
  0.4432217479231946  0.2152006461311561  0.3750000000000000
  0.6115441898120335  0.7230883796240456  0.3750000000000000
  0.9452587311738836  0.7227651288077727  0.3750000000000000
  0.7779576276176247  0.2218480628460986  0.3750000000000000
  0.1111241716515202  0.8888933697431723  0.8750000000000000
  0.4444597108349450  0.8888965220841297  0.8750000000000000
  0.2777554275278944  0.3888688955620690  0.8750000000000000
  0.6111134680341532  0.3888688955620690  0.8750000000000000
  0.7777929945611214  0.8888999610904468  0.8750000000000000
  0.9444368112491989  0.3888736224983836  0.8750000000000000
  0.1081421333143467  0.3886786730494839  0.3750000000000000
  0.2775063976338889  0.8880746021594450  0.3750000000000000
  0.6114852704872795  0.8894428981049397  0.3750000000000000
  0.9442763667228545  0.8890569666104741  0.3750000000000000
  0.7805365397352010  0.3886786730494839  0.3750000000000000
  0.2777680513595025  0.5555652819738192  0.8750000000000000
  0.1111040523676410  0.0555509522288001  0.8750000000000000
  0.6111134680341532  0.5555779058055126  0.8750000000000000
  0.4444468998611804  0.0555509522288001  0.8750000000000000
  0.9444399635901563  0.5555641352415768  0.8750000000000000
  0.1105682045255986  0.5558269356994395  0.3750000000000000
  0.7777777777777786  0.0555555555555571  0.8750000000000000
  0.2763362644130135  0.0526725288260911  0.3750000000000000
  0.4432217479231946  0.5613544351253461  0.3750000000000000
  0.7806608045073087  0.5569970689203222  0.3750000000000000
  0.6114852704872795  0.0553757057156684  0.3750000000000000
  0.4444644377712596  0.5555779058055126  0.8750000000000000
  0.9438904352283889  0.0553757057156684  0.3750000000000000
  0.2777691980917446  0.7222091616818509  0.8750000000000000
  0.1111140747500866  0.2222237040417040  0.8750000000000000
  0.4444644377712596  0.2222198652991468  0.8750000000000000
  0.6111096292916673  0.7222192585832137  0.8750000000000000
  0.9444399635901563  0.7222091616818509  0.8750000000000000
  0.7777929945611214  0.2222263668039320  0.8750000000000000
  0.1111111111111143  0.7222222222222214  0.3750000000000000
  0.4446546602838447  0.7251912000190672  0.3750000000000000
  0.2719788982079543  0.2152006461311561  0.3750000000000000
  0.7805365397352010  0.7251912000190672  0.3750000000000000
  0.6115441898120335  0.2217891435213379  0.3750000000000000
  0.9438904352283889  0.2218480628460986  0.3750000000000000
  0.1111040523676410  0.3888864334721482  0.8750000000000000
  0.2777691980917446  0.8888933697431723  0.8750000000000000
  0.6111069665294321  0.8888999610904468  0.8750000000000000
  0.4444444444444429  0.3888888888888857  0.8750000000000000
  0.9444368112491989  0.8888965220841297  0.8750000000000000
  0.1105682045255986  0.8880746021594450  0.3750000000000000
  0.7777823811045357  0.3888864334721482  0.8750000000000000
  0.4447805998876763  0.8890569666104741  0.3750000000000000
  0.2719788982079543  0.3901115854101340  0.3750000000000000
  0.2763362644130135  0.5569970689203222  0.3750000000000000
  0.6181326872021796  0.3901115854101340  0.3750000000000000
  0.7779576276176247  0.8894428981049397  0.3750000000000000
  0.9442763667228545  0.3885527334456523  0.3750000000000000
  0.1111241716515202  0.5555641352415768  0.8750000000000000
  0.2777680513595025  0.0555361027190262  0.8750000000000000
  0.7777972306143378  0.5555652819738192  0.8750000000000000
  0.6111069665294321  0.0555403387722570  0.8750000000000000
  0.9444333722428818  0.0555403387722570  0.8750000000000000
  0.0555431905269458  0.1110771671246243  0.1247207059824517
  0.5555942459792248  0.6111884919584989  0.1250908311338775
  0.3888793327027909  0.1110211404403483  0.1249034055822760
  0.8889124997238367  0.6111229165285472  0.1249748055986009
  0.7222384409442287  0.1110948923891709  0.1247675397503486
  0.0555708510751344  0.7777624822582369  0.6249886020150440
  0.3888982717707611  0.7777773761634442  0.6251045649479703
  0.2221448413749006  0.2777390873540827  0.6249091688661227
  0.7222561662086829  0.7777901428063970  0.6252792940175838
  0.5555942459792248  0.2777390873540827  0.6249091688661227
  0.8888878318096430  0.2777756636193003  0.6251621722866859
  0.2221916311830527  0.7777624822582369  0.1250113979849773
  0.0555431905269458  0.2777993567356500  0.1247207059824517
  0.3887588125589739  0.2775176251179834  0.1266819819232499
  0.5555339765976358  0.7777901428063970  0.1247207059824517
  0.8888791043926618  0.7777773761634442  0.1248954350520083
  0.7222561662086829  0.2777993567356500  0.1247207059824517
  0.0555559571699271  0.9444542289406668  0.6251045649479703
  0.3888982717707611  0.9444542289406668  0.6251045649479703
  0.2221418077375432  0.4444540006305377  0.6250965944177240
  0.5558157082153878  0.4445745207743547  0.6233180180767359
  0.7222384409442287  0.9444768818883013  0.6252324602496372
  0.8888791043926618  0.4444350615625675  0.6251045649479703
  0.0555559571699271  0.4444350615625675  0.1248954350520083
  0.2222104168047246  0.9444208336094919  0.1249748055986009
  0.5555576697140354  0.9444455015236856  0.1248378277133000
  0.3887588125589739  0.4445745207743547  0.1266819819232499
  0.8888878318096430  0.9444455015236856  0.1248378277133000
  0.7223121928930301  0.4444540006305377  0.1249034055822760
  0.2222104168047246  0.6111229165285472  0.6250251944013636
  0.0555431905269458  0.1110771671246243  0.6252792940175838
  0.5555942459792248  0.6111884919584989  0.6249091688661227
  0.3888793327027909  0.1110211404403483  0.6250965944177240
  0.8889124997238367  0.6111229165285472  0.6250251944013636
  0.0555708510751344  0.6111417021502972  0.1250113979849773
  0.7222384409442287  0.1110948923891709  0.6252324602496372
  0.2221418077375432  0.1110211404403483  0.1249034055822760
  0.3888793327027909  0.6111915255958138  0.1249034055822760
  0.7223121928930301  0.6111915255958138  0.1249034055822760
  0.5555339765976358  0.1110771671246243  0.1247207059824517
  0.3888793327027909  0.6111915255958138  0.6250965944177240
  0.8888564514450273  0.1110948923891709  0.1247675397503486
  0.2221916311830527  0.7777624822582369  0.6249886020150440
  0.0555431905269458  0.2777993567356500  0.6252792940175838
  0.3887588125589739  0.2775176251179834  0.6233180180767359
  0.5555339765976358  0.7777901428063970  0.6252792940175838
  0.8888791043926618  0.7777773761634442  0.6251045649479703
  0.7222561662086829  0.2777993567356500  0.6252792940175838
  0.0555708510751344  0.7777624822582369  0.1250113979849773
  0.3888982717707611  0.7777773761634442  0.1248954350520083
  0.2221448413749006  0.2777390873540827  0.1250908311338775
  0.7222561662086829  0.7777901428063970  0.1247207059824517
  0.5555942459792248  0.2777390873540827  0.1250908311338775
  0.8888878318096430  0.2777756636193003  0.1248378277133000
  0.0555559571699271  0.4444350615625675  0.6251045649479703
  0.2222104168047246  0.9444208336094919  0.6250251944013636
  0.5555576697140354  0.9444455015236856  0.6251621722866859
  0.3887588125589739  0.4445745207743547  0.6233180180767359
  0.8888878318096430  0.9444455015236856  0.6251621722866859
  0.0555559571699271  0.9444542289406668  0.1248954350520083
  0.7223121928930301  0.4444540006305377  0.6250965944177240
  0.3888982717707611  0.9444542289406668  0.1248954350520083
  0.2221418077375290  0.4444540006305377  0.1249034055822760
  0.2222104168047246  0.6111229165285472  0.1249748055986009
  0.5558157082153878  0.4445745207743547  0.1266819819232499
  0.7222384409442287  0.9444768818883013  0.1247675397503486
  0.8888791043926618  0.4444350615625675  0.1248954350520083
  0.0555708510751415  0.6111417021502972  0.6249886020150440
  0.2221418077375432  0.1110211404403483  0.6250965944177240
  0.7223121928930301  0.6111915255958138  0.6250965944177240
  0.5555339765976358  0.1110771671246243  0.6252792940175838
  0.8888564514450273  0.1110948923891709  0.6252324602496372
 
  0.00000000E+00  0.00000000E+00  0.00000000E+00
  0.00000000E+00  0.00000000E+00  0.00000000E+00
  0.00000000E+00  0.00000000E+00  0.00000000E+00
  0.00000000E+00  0.00000000E+00  0.00000000E+00
  0.00000000E+00  0.00000000E+00  0.00000000E+00
  0.00000000E+00  0.00000000E+00  0.00000000E+00
  0.00000000E+00  0.00000000E+00  0.00000000E+00
  0.00000000E+00  0.00000000E+00  0.00000000E+00
  0.00000000E+00  0.00000000E+00  0.00000000E+00
  0.00000000E+00  0.00000000E+00  0.00000000E+00
  0.00000000E+00  0.00000000E+00  0.00000000E+00
  0.00000000E+00  0.00000000E+00  0.00000000E+00
  0.00000000E+00  0.00000000E+00  0.00000000E+00
  0.00000000E+00  0.00000000E+00  0.00000000E+00
  0.00000000E+00  0.00000000E+00  0.00000000E+00
  0.00000000E+00  0.00000000E+00  0.00000000E+00
  0.00000000E+00  0.00000000E+00  0.00000000E+00
  0.00000000E+00  0.00000000E+00  0.00000000E+00
  0.00000000E+00  0.00000000E+00  0.00000000E+00
  0.00000000E+00  0.00000000E+00  0.00000000E+00
  0.00000000E+00  0.00000000E+00  0.00000000E+00
  0.00000000E+00  0.00000000E+00  0.00000000E+00
  0.00000000E+00  0.00000000E+00  0.00000000E+00
  0.00000000E+00  0.00000000E+00  0.00000000E+00
  0.00000000E+00  0.00000000E+00  0.00000000E+00
  0.00000000E+00  0.00000000E+00  0.00000000E+00
  0.00000000E+00  0.00000000E+00  0.00000000E+00
  0.00000000E+00  0.00000000E+00  0.00000000E+00
  0.00000000E+00  0.00000000E+00  0.00000000E+00
  0.00000000E+00  0.00000000E+00  0.00000000E+00
  0.00000000E+00  0.00000000E+00  0.00000000E+00
  0.00000000E+00  0.00000000E+00  0.00000000E+00
  0.00000000E+00  0.00000000E+00  0.00000000E+00
  0.00000000E+00  0.00000000E+00  0.00000000E+00
  0.00000000E+00  0.00000000E+00  0.00000000E+00
  0.00000000E+00  0.00000000E+00  0.00000000E+00
  0.00000000E+00  0.00000000E+00  0.00000000E+00
  0.00000000E+00  0.00000000E+00  0.00000000E+00
  0.00000000E+00  0.00000000E+00  0.00000000E+00
  0.00000000E+00  0.00000000E+00  0.00000000E+00
  0.00000000E+00  0.00000000E+00  0.00000000E+00
  0.00000000E+00  0.00000000E+00  0.00000000E+00
  0.00000000E+00  0.00000000E+00  0.00000000E+00
  0.00000000E+00  0.00000000E+00  0.00000000E+00
  0.00000000E+00  0.00000000E+00  0.00000000E+00
  0.00000000E+00  0.00000000E+00  0.00000000E+00
  0.00000000E+00  0.00000000E+00  0.00000000E+00
  0.00000000E+00  0.00000000E+00  0.00000000E+00
  0.00000000E+00  0.00000000E+00  0.00000000E+00
  0.00000000E+00  0.00000000E+00  0.00000000E+00
  0.00000000E+00  0.00000000E+00  0.00000000E+00
  0.00000000E+00  0.00000000E+00  0.00000000E+00
  0.00000000E+00  0.00000000E+00  0.00000000E+00
  0.00000000E+00  0.00000000E+00  0.00000000E+00
  0.00000000E+00  0.00000000E+00  0.00000000E+00
  0.00000000E+00  0.00000000E+00  0.00000000E+00
  0.00000000E+00  0.00000000E+00  0.00000000E+00
  0.00000000E+00  0.00000000E+00  0.00000000E+00
  0.00000000E+00  0.00000000E+00  0.00000000E+00
  0.00000000E+00  0.00000000E+00  0.00000000E+00
  0.00000000E+00  0.00000000E+00  0.00000000E+00
  0.00000000E+00  0.00000000E+00  0.00000000E+00
  0.00000000E+00  0.00000000E+00  0.00000000E+00
  0.00000000E+00  0.00000000E+00  0.00000000E+00
  0.00000000E+00  0.00000000E+00  0.00000000E+00
  0.00000000E+00  0.00000000E+00  0.00000000E+00
  0.00000000E+00  0.00000000E+00  0.00000000E+00
  0.00000000E+00  0.00000000E+00  0.00000000E+00
  0.00000000E+00  0.00000000E+00  0.00000000E+00
  0.00000000E+00  0.00000000E+00  0.00000000E+00
  0.00000000E+00  0.00000000E+00  0.00000000E+00
  0.00000000E+00  0.00000000E+00  0.00000000E+00
  0.00000000E+00  0.00000000E+00  0.00000000E+00
  0.00000000E+00  0.00000000E+00  0.00000000E+00
  0.00000000E+00  0.00000000E+00  0.00000000E+00
  0.00000000E+00  0.00000000E+00  0.00000000E+00
  0.00000000E+00  0.00000000E+00  0.00000000E+00
  0.00000000E+00  0.00000000E+00  0.00000000E+00
  0.00000000E+00  0.00000000E+00  0.00000000E+00
  0.00000000E+00  0.00000000E+00  0.00000000E+00
  0.00000000E+00  0.00000000E+00  0.00000000E+00
  0.00000000E+00  0.00000000E+00  0.00000000E+00
  0.00000000E+00  0.00000000E+00  0.00000000E+00
  0.00000000E+00  0.00000000E+00  0.00000000E+00
  0.00000000E+00  0.00000000E+00  0.00000000E+00
  0.00000000E+00  0.00000000E+00  0.00000000E+00
  0.00000000E+00  0.00000000E+00  0.00000000E+00
  0.00000000E+00  0.00000000E+00  0.00000000E+00
  0.00000000E+00  0.00000000E+00  0.00000000E+00
  0.00000000E+00  0.00000000E+00  0.00000000E+00
  0.00000000E+00  0.00000000E+00  0.00000000E+00
  0.00000000E+00  0.00000000E+00  0.00000000E+00
  0.00000000E+00  0.00000000E+00  0.00000000E+00
  0.00000000E+00  0.00000000E+00  0.00000000E+00
  0.00000000E+00  0.00000000E+00  0.00000000E+00
  0.00000000E+00  0.00000000E+00  0.00000000E+00
  0.00000000E+00  0.00000000E+00  0.00000000E+00
  0.00000000E+00  0.00000000E+00  0.00000000E+00
  0.00000000E+00  0.00000000E+00  0.00000000E+00
  0.00000000E+00  0.00000000E+00  0.00000000E+00
  0.00000000E+00  0.00000000E+00  0.00000000E+00
  0.00000000E+00  0.00000000E+00  0.00000000E+00
  0.00000000E+00  0.00000000E+00  0.00000000E+00
  0.00000000E+00  0.00000000E+00  0.00000000E+00
  0.00000000E+00  0.00000000E+00  0.00000000E+00
  0.00000000E+00  0.00000000E+00  0.00000000E+00
  0.00000000E+00  0.00000000E+00  0.00000000E+00
  0.00000000E+00  0.00000000E+00  0.00000000E+00
  0.00000000E+00  0.00000000E+00  0.00000000E+00
  0.00000000E+00  0.00000000E+00  0.00000000E+00
  0.00000000E+00  0.00000000E+00  0.00000000E+00
  0.00000000E+00  0.00000000E+00  0.00000000E+00
  0.00000000E+00  0.00000000E+00  0.00000000E+00
  0.00000000E+00  0.00000000E+00  0.00000000E+00
  0.00000000E+00  0.00000000E+00  0.00000000E+00
  0.00000000E+00  0.00000000E+00  0.00000000E+00
  0.00000000E+00  0.00000000E+00  0.00000000E+00
  0.00000000E+00  0.00000000E+00  0.00000000E+00
  0.00000000E+00  0.00000000E+00  0.00000000E+00
  0.00000000E+00  0.00000000E+00  0.00000000E+00
  0.00000000E+00  0.00000000E+00  0.00000000E+00
  0.00000000E+00  0.00000000E+00  0.00000000E+00
  0.00000000E+00  0.00000000E+00  0.00000000E+00
  0.00000000E+00  0.00000000E+00  0.00000000E+00
  0.00000000E+00  0.00000000E+00  0.00000000E+00
  0.00000000E+00  0.00000000E+00  0.00000000E+00
  0.00000000E+00  0.00000000E+00  0.00000000E+00
  0.00000000E+00  0.00000000E+00  0.00000000E+00
  0.00000000E+00  0.00000000E+00  0.00000000E+00
  0.00000000E+00  0.00000000E+00  0.00000000E+00
  0.00000000E+00  0.00000000E+00  0.00000000E+00
  0.00000000E+00  0.00000000E+00  0.00000000E+00
  0.00000000E+00  0.00000000E+00  0.00000000E+00
  0.00000000E+00  0.00000000E+00  0.00000000E+00
  0.00000000E+00  0.00000000E+00  0.00000000E+00
  0.00000000E+00  0.00000000E+00  0.00000000E+00
  0.00000000E+00  0.00000000E+00  0.00000000E+00
  0.00000000E+00  0.00000000E+00  0.00000000E+00
  0.00000000E+00  0.00000000E+00  0.00000000E+00
  0.00000000E+00  0.00000000E+00  0.00000000E+00
  0.00000000E+00  0.00000000E+00  0.00000000E+00
  0.00000000E+00  0.00000000E+00  0.00000000E+00
  0.00000000E+00  0.00000000E+00  0.00000000E+00
  0.00000000E+00  0.00000000E+00  0.00000000E+00
  0.00000000E+00  0.00000000E+00  0.00000000E+00
  0.00000000E+00  0.00000000E+00  0.00000000E+00
  0.00000000E+00  0.00000000E+00  0.00000000E+00
  0.00000000E+00  0.00000000E+00  0.00000000E+00
  0.00000000E+00  0.00000000E+00  0.00000000E+00
  0.00000000E+00  0.00000000E+00  0.00000000E+00
  0.00000000E+00  0.00000000E+00  0.00000000E+00
  0.00000000E+00  0.00000000E+00  0.00000000E+00
  0.00000000E+00  0.00000000E+00  0.00000000E+00
  0.00000000E+00  0.00000000E+00  0.00000000E+00
  0.00000000E+00  0.00000000E+00  0.00000000E+00
  0.00000000E+00  0.00000000E+00  0.00000000E+00
  0.00000000E+00  0.00000000E+00  0.00000000E+00
  0.00000000E+00  0.00000000E+00  0.00000000E+00
  0.00000000E+00  0.00000000E+00  0.00000000E+00
  0.00000000E+00  0.00000000E+00  0.00000000E+00
  0.00000000E+00  0.00000000E+00  0.00000000E+00
  0.00000000E+00  0.00000000E+00  0.00000000E+00
  0.00000000E+00  0.00000000E+00  0.00000000E+00
  0.00000000E+00  0.00000000E+00  0.00000000E+00
  0.00000000E+00  0.00000000E+00  0.00000000E+00
  0.00000000E+00  0.00000000E+00  0.00000000E+00
  0.00000000E+00  0.00000000E+00  0.00000000E+00
  0.00000000E+00  0.00000000E+00  0.00000000E+00
  0.00000000E+00  0.00000000E+00  0.00000000E+00
  0.00000000E+00  0.00000000E+00  0.00000000E+00
  0.00000000E+00  0.00000000E+00  0.00000000E+00
  0.00000000E+00  0.00000000E+00  0.00000000E+00
  0.00000000E+00  0.00000000E+00  0.00000000E+00
  0.00000000E+00  0.00000000E+00  0.00000000E+00
  0.00000000E+00  0.00000000E+00  0.00000000E+00
  0.00000000E+00  0.00000000E+00  0.00000000E+00
  0.00000000E+00  0.00000000E+00  0.00000000E+00
  0.00000000E+00  0.00000000E+00  0.00000000E+00
  0.00000000E+00  0.00000000E+00  0.00000000E+00
  0.00000000E+00  0.00000000E+00  0.00000000E+00
  0.00000000E+00  0.00000000E+00  0.00000000E+00
  0.00000000E+00  0.00000000E+00  0.00000000E+00
  0.00000000E+00  0.00000000E+00  0.00000000E+00
  0.00000000E+00  0.00000000E+00  0.00000000E+00
  0.00000000E+00  0.00000000E+00  0.00000000E+00
  0.00000000E+00  0.00000000E+00  0.00000000E+00
  0.00000000E+00  0.00000000E+00  0.00000000E+00
  0.00000000E+00  0.00000000E+00  0.00000000E+00
  0.00000000E+00  0.00000000E+00  0.00000000E+00
  0.00000000E+00  0.00000000E+00  0.00000000E+00
  0.00000000E+00  0.00000000E+00  0.00000000E+00
  0.00000000E+00  0.00000000E+00  0.00000000E+00
  0.00000000E+00  0.00000000E+00  0.00000000E+00
  0.00000000E+00  0.00000000E+00  0.00000000E+00
  0.00000000E+00  0.00000000E+00  0.00000000E+00
  0.00000000E+00  0.00000000E+00  0.00000000E+00
  0.00000000E+00  0.00000000E+00  0.00000000E+00
  0.00000000E+00  0.00000000E+00  0.00000000E+00
  0.00000000E+00  0.00000000E+00  0.00000000E+00
  0.00000000E+00  0.00000000E+00  0.00000000E+00
  0.00000000E+00  0.00000000E+00  0.00000000E+00
  0.00000000E+00  0.00000000E+00  0.00000000E+00
  0.00000000E+00  0.00000000E+00  0.00000000E+00
  0.00000000E+00  0.00000000E+00  0.00000000E+00
  0.00000000E+00  0.00000000E+00  0.00000000E+00
  0.00000000E+00  0.00000000E+00  0.00000000E+00
  0.00000000E+00  0.00000000E+00  0.00000000E+00
  0.00000000E+00  0.00000000E+00  0.00000000E+00
  0.00000000E+00  0.00000000E+00  0.00000000E+00
  0.00000000E+00  0.00000000E+00  0.00000000E+00
  0.00000000E+00  0.00000000E+00  0.00000000E+00
  0.00000000E+00  0.00000000E+00  0.00000000E+00
  0.00000000E+00  0.00000000E+00  0.00000000E+00
  0.00000000E+00  0.00000000E+00  0.00000000E+00
  0.00000000E+00  0.00000000E+00  0.00000000E+00
  0.00000000E+00  0.00000000E+00  0.00000000E+00
  0.00000000E+00  0.00000000E+00  0.00000000E+00
  0.00000000E+00  0.00000000E+00  0.00000000E+00
  0.00000000E+00  0.00000000E+00  0.00000000E+00
  0.00000000E+00  0.00000000E+00  0.00000000E+00
  0.00000000E+00  0.00000000E+00  0.00000000E+00
  0.00000000E+00  0.00000000E+00  0.00000000E+00
  0.00000000E+00  0.00000000E+00  0.00000000E+00
  0.00000000E+00  0.00000000E+00  0.00000000E+00
  0.00000000E+00  0.00000000E+00  0.00000000E+00
  0.00000000E+00  0.00000000E+00  0.00000000E+00
  0.00000000E+00  0.00000000E+00  0.00000000E+00
  0.00000000E+00  0.00000000E+00  0.00000000E+00
  0.00000000E+00  0.00000000E+00  0.00000000E+00
  0.00000000E+00  0.00000000E+00  0.00000000E+00
  0.00000000E+00  0.00000000E+00  0.00000000E+00
  0.00000000E+00  0.00000000E+00  0.00000000E+00
  0.00000000E+00  0.00000000E+00  0.00000000E+00
  0.00000000E+00  0.00000000E+00  0.00000000E+00
  0.00000000E+00  0.00000000E+00  0.00000000E+00
  0.00000000E+00  0.00000000E+00  0.00000000E+00
  0.00000000E+00  0.00000000E+00  0.00000000E+00
  0.00000000E+00  0.00000000E+00  0.00000000E+00
  0.00000000E+00  0.00000000E+00  0.00000000E+00
  0.00000000E+00  0.00000000E+00  0.00000000E+00
  0.00000000E+00  0.00000000E+00  0.00000000E+00
  0.00000000E+00  0.00000000E+00  0.00000000E+00
  0.00000000E+00  0.00000000E+00  0.00000000E+00
  0.00000000E+00  0.00000000E+00  0.00000000E+00
  0.00000000E+00  0.00000000E+00  0.00000000E+00
  0.00000000E+00  0.00000000E+00  0.00000000E+00
  0.00000000E+00  0.00000000E+00  0.00000000E+00