 O B N 
 1.0
 17.527899999999772   0.000000000000000   0.000000000000000
 -8.763949999999658  15.179606674993195   0.000000000000000
  0.000000000000001   0.000000000000002  15.000000000000000
 O B N 
   1  48  49
Cartesian
  3.755980213596274   7.951242049921758   1.661572282118640 
  7.515822461683060  14.460782062086357   1.665228876235905 
 15.022842605842644   1.446316014825563   1.665278188575870 
 13.769497863721725   3.612794056920007   1.665876340624185 
 12.519945213587219   5.781461464343758   1.665278188575870 
 11.273328355125351   7.952590944904598   1.665228876235905 
 10.021967116089963  10.123108721242009   1.665817130698980 
  8.769865375839244  12.291812551601739   1.665817130698980 
 -7.509331561268890  14.455272835635265   1.665240048634620 
 -0.001525679854843   1.440353142759094   1.665228876235905 
 -1.258188725215465   3.609092942150954   1.665364262859285 
 -2.511515690150171   5.779918923914037   1.665364262859285 
 -3.761367927950277   7.952590944904598   1.665228876235905 
 -5.007984786403383  10.122813134219509   1.665240048634620 
 -6.257408345242345  12.289764573802513   1.664888985855750 
 -5.007984786403547  14.453829657885132   1.664888985855750 
  2.503878473336758   1.438804876906305   1.665817130698980 
  1.243746785294179   3.598432167788049   1.665895162353045 
 -0.014383042304526   5.774421809174719   1.665572989403595 
 -1.269780436326361   7.951989021842413   1.665895162353045 
 -2.510006688914790  10.123108721242009   1.665817130698980 
 -3.758561227564619  12.289764573802513   1.664888985855750 
 -2.506638011520344  14.455272835635265   1.665240048634620 
  5.008081953855736   1.438804876906305   1.665817130698980 
  3.755980213604885   3.601687482426504   1.666403097147135 
  2.491883441389294   5.744891947833120   1.665297538170585 
  1.213176589450465   7.959677183377702   1.665297538170585 
 -0.010844536988086  10.126019333661720   1.666403097147135 
 -1.257904948646531  12.291812551601739   1.665817130698980 
 -0.003862034490389  14.460782062086357   1.665228876235905 
  7.513486107047336   1.440353142759094   1.665228876235905 
  6.268213641898344   3.598432167788049   1.665895162353045 
  5.020076985820751   5.744891947833120   1.665297538170585 
  2.477273361666254  10.149157018539137   1.665297538170585 
  1.242452991984480  12.303304960119544   1.665895162353045 
  2.502653248661746  14.464714283669849   1.665364262859285 
 10.017047821331857   1.446316014825563   1.665278188575870 
  8.770149152408111   3.609092942150954   1.665364262859285 
  7.526343469497043   5.774421809174719   1.665572989403595 
  6.298783837742258   7.959677183377702   1.665297538170585 
  5.034687065526589  10.149157018539137   1.665297538170585 
  3.755980213596426  12.304882531385630   1.665572989403595 
  5.009307178531243  14.464714283669849   1.665364262859285 
 12.519945213587372   1.448505380154825   1.665876340624185 
 11.270392563452980   3.612794056920007   1.665876340624185 
 10.023476117342900   5.779918923914037   1.665364262859285 
  8.781740863501696   7.951989021842413   1.665895162353045 
  7.522804964180875  10.126019333661720   1.666403097147135 
  6.269507435208372  12.303304960119544   1.665895162353045 
  8.765882460735703  13.735683000265965   1.665183994668660 
 16.275403975776502   0.723143103786877   1.664814703652580 
 15.020974149152295   2.889657016742108   1.664670349360680 
 13.768001738967431   5.059868891664398   1.664670349360680 
 12.519954786406242   7.227771905019747   1.664814703652580 
 11.270419146995259   9.397698210244068   1.665183994668660 
 10.018870393440388  11.567106060489905   1.664803381136025 
 -6.259262226997357  13.733538702056810   1.664893479538980 
  1.251453100146500   0.720309557838650   1.665183994668660 
 -0.006304351208405   2.883763062877116   1.665191031360000 
 -1.261497493349587   5.054382624483503   1.665066486632655 
 -2.513712604581528   7.226721553037054   1.665191031360000 
 -3.758439574182598   9.397698210244068   1.665183994668660 
 -5.007975213584807  11.566246019975079   1.664893479538980 
 -3.756688200171928  13.733538702056810   1.664893479538980 
  3.755989786406228   0.719478647369115   1.664803381136025 
  2.501816827473075   2.884146125278044   1.665984188261820 
  1.233676410363960   5.040014733762932   1.665535781756220 
 -0.026353499855557   7.222450557319663   1.665535781756220 
 -1.259320273479092   9.398626678359735   1.665984188261820 
 -2.506890820627607  11.567106060489905   1.664803381136025 
 -1.253902887922806  13.735683000265965   1.665183994668660 
  6.260526472665851   0.720309557838650   1.665183994668660 
  5.010162745339429   2.884146125278044   1.665984188261820 
  3.755989786406258   5.046947428287715   1.665697138827210 
  2.375524595235483   7.154218306376688   1.663606942792125 
  1.240807077731963   9.403371670030454   1.665697138827210 
 -0.005147314545907  11.570917964711056   1.665984188261820 
  1.248581533024374  13.743206152419347   1.665191031360000 
  8.764505597018136   0.723143103786877   1.664814703652580 
  7.518283924020785   2.883763062877116   1.665191031360000 
  6.278303162448645   5.040014733762932   1.665535781756220 
  5.136454977577096   7.154218306376688   1.663606942792125 
  3.755989786397492   9.545254155580130   1.663606942792125 
  2.495959876178026  11.591225477250907   1.665535781756220 
  3.755989786397545  13.744925519366513   1.665066486632655 
 11.265963583144323   0.726254244430757   1.664670349360680 
 10.016922410184826   2.889657016742108   1.664670349360680 
  8.773477066162068   5.054382624483503   1.665066486632655 
  7.538333072668244   7.222450557319663   1.665535781756220 
  6.271172495063206   9.403371670030454   1.665697138827210 
  5.016019696617142  11.591225477250907   1.665535781756220 
  6.263398039788279  13.743206152419347   1.665191031360000 
 13.771932976192645   0.726254244430757   1.664670349360680 
 12.519954786406029   2.891352704197829   1.666392475067385 
 11.269919393048283   5.059868891664398   1.664670349360680 
 10.025692177411567   7.226721553037054   1.665191031360000 
  8.771299846291701   9.398626678359735   1.665984188261820 
  7.517126887358532  11.570917964711056   1.665984188261820 
