Species order: X N B                    
   2.51242800000000     
     5.9449720136058266    0.0000000000000000    0.0000000000000000
    -2.9724860068029120    5.1484967885702053   -0.0000000000000001
     0.0000000000000000    0.0000000000000009    5.3101128803662583
   C    N    B 
     1   143   144
Direct
  0.5555555555555571  0.4444444444444429  0.3750000000000000
  0.1110981662573597  0.0555591098762132  0.1249042532226567
  0.6111464486211170  0.5556262305755634  0.1242853230961221
  0.4444593638842018  0.0555730027255512  0.1248906992120525
  0.9444269972744487  0.5555406361157982  0.1248906992120525
  0.7777879835676584  0.0555606584504970  0.1249040025574052
  0.1111002601250433  0.7222167967291859  0.6250864717912956
  0.4444593638842018  0.7222196944919863  0.6251093007879475
  0.2777523019427406  0.2222173158741726  0.6251668360994858
  0.7777826841258271  0.7222476980572594  0.6251668360994858
  0.6111316805981037  0.2222173158741726  0.6251668360994858
  0.9444393415495027  0.2222120164323416  0.6250959974425946
  0.2777832032708140  0.7222167967291859  0.1249135282087041
  0.1110844922931816  0.2222089128132551  0.1248861097062486
  0.4444509155443011  0.2222351644219376  0.1248274099285356
  0.6111316805981037  0.7222476980572594  0.1248331639005141
  0.9444269972744487  0.7222196944919863  0.1248906992120525
  0.7777910871867451  0.2222089128132551  0.1248861097062486
  0.1111034646602852  0.8888965353397150  0.6250909848610382
  0.4444597373461010  0.8888965353397150  0.6250909848610382
  0.2777523019427406  0.3888683194018966  0.6251668360994858
  0.6111464486211170  0.3888535513788826  0.6257146769038778
  0.7777910871867451  0.8889155077068183  0.6251138902937513
  0.9444408901237868  0.3888723897144751  0.6250957467773431
  0.1110981662573597  0.3888723897144751  0.1249042532226567
  0.2777832032708140  0.8888997398749565  0.1249135282087041
  0.6111276102855248  0.8889018337426402  0.1249042532226567
  0.4443737694244367  0.3888535513788826  0.1242853230961221
  0.9444408901237868  0.8889018337426402  0.1249042532226567
  0.7777826841258271  0.3888683194018966  0.1248331639005141
  0.2777803055080135  0.5555406361157982  0.6251093007879475
  0.1110981662573597  0.0555591098762132  0.6250957467773431
  0.6111464486211170  0.5556262305755634  0.6257146769038778
  0.4444593638842018  0.0555730027255512  0.6251093007879475
  0.9444269972744487  0.5555406361157982  0.6251093007879475
  0.1111034646602852  0.5555402626538991  0.1249090151389619
  0.7777879835676584  0.0555606584504970  0.6250959974425946
  0.2777803055080135  0.0555730027255512  0.1248906992120525
  0.4444509155443011  0.5555490844556989  0.1248274099285356
  0.7777648355780621  0.5555490844556989  0.1248274099285356
  0.6111276102855248  0.0555591098762132  0.1249042532226567
  0.4444509155443011  0.5555490844556989  0.6251725900714644
  0.9444393415495027  0.0555606584504970  0.1249040025574052
  0.2777832032708140  0.7222167967291859  0.6250864717912956
  0.1110844922931816  0.2222089128132551  0.6251138902937513
  0.4444509155443011  0.2222351644219376  0.6251725900714644
  0.6111316805981037  0.7222476980572594  0.6251668360994858
  0.9444269972744487  0.7222196944919863  0.6251093007879475
  0.7777910871867451  0.2222089128132551  0.6251138902937513
  0.1111002601250433  0.7222167967291859  0.1249135282087041
  0.4444593638842018  0.7222196944919863  0.1248906992120525
  0.2777523019427406  0.2222173158741726  0.1248331639005141
  0.7777826841258271  0.7222476980572594  0.1248331639005141
  0.6111316805981037  0.2222173158741726  0.1248331639005141
  0.9444393415495027  0.2222120164323416  0.1249040025574052
  0.1110981662573597  0.3888723897144751  0.6250957467773431
  0.2777832032708140  0.8888997398749565  0.6250864717912956
  0.6111276102855248  0.8889018337426402  0.6250957467773431
  0.4443737694244367  0.3888535513788826  0.6257146769038778
  0.9444408901237868  0.8889018337426402  0.6250957467773431
  0.1111034646602852  0.8888965353397150  0.1249090151389619
  0.7777826841258271  0.3888683194018966  0.6251668360994858
  0.4444597373461010  0.8888965353397150  0.1249090151389619
  0.2777523019427406  0.3888683194018966  0.1248331639005141
  0.2777803055080135  0.5555406361157982  0.1248906992120525
  0.6111464486211170  0.3888535513788826  0.1242853230961221
  0.7777910871867451  0.8889155077068183  0.1248861097062486
  0.9444408901237868  0.3888723897144751  0.1249042532226567
  0.1111034646602852  0.5555402626538991  0.6250909848610382
  0.2777803055080135  0.0555730027255512  0.6251093007879475
  0.7777648355780621  0.5555490844556989  0.6251725900714644
  0.6111276102855248  0.0555591098762132  0.6250957467773431
  0.9444393415495027  0.0555606584504970  0.6250959974425946
  0.0553153871329562  0.1109266961218497  0.3750000000000000
  0.5556275351161227  0.6134244120283339  0.3750000000000000
  0.3885321383579387  0.1103976100492202  0.3750000000000000
  0.8896023899507799  0.6114678616420613  0.3750000000000000
  0.7222779756555578  0.1109266961218497  0.3750000000000000
  0.0555598813037137  0.7777789965940457  0.8750000000000000
  0.3888857819569965  0.7777789965940457  0.8750000000000000
  0.2222269203498520  0.2777801268415939  0.8750000000000000
  0.7222198731584066  0.7777730796501479  0.8750000000000000
  0.5555501973777716  0.2777738910269077  0.8750000000000000
  0.8888905248578042  0.2777824843462894  0.8750000000000000
  0.2222222222222214  0.7777777777777786  0.3750000000000000
  0.0553153871329562  0.2777220243444422  0.3750000000000000
  0.3865755879716665  0.2755364564211250  0.3750000000000000
  0.5554101199613554  0.7786556871532310  0.3750000000000000
  0.8899122338585401  0.7786556871532310  0.3750000000000000
  0.7226363537781706  0.2773636462218294  0.3750000000000000
  0.0555585696653634  0.9444414303346368  0.8750000000000000
  0.3888857819569965  0.9444401186962864  0.8750000000000000
  0.2222232364966752  0.4444496477612949  0.8750000000000000
  0.5555555555555571  0.4444444444444429  0.8750000000000000
  0.7222175156537106  0.9444413738448507  0.8750000000000000
  0.8888930779312837  0.4444496477612949  0.8750000000000000
  0.0556268514920319  0.4445870363173925  0.3750000000000000
  0.2221124558391424  0.9441308684343788  0.3750000000000000
  0.5554129636826075  0.9443731485079678  0.3750000000000000
  0.3865755879716665  0.4443724648838772  0.3750000000000000
  0.8890733038781504  0.9446846128670437  0.3750000000000000
  0.7244635435788753  0.4443724648838772  0.3750000000000000
  0.2222210034059541  0.6111142180430034  0.8750000000000000
  0.0555586261551496  0.1111094751421960  0.8750000000000000
  0.5555501973777716  0.6111096396841996  0.8750000000000000
  0.3888847502247306  0.1111028337828039  0.8750000000000000
  0.8888971662171959  0.6111152497752695  0.8750000000000000
  0.0558691315656209  0.6113149207380989  0.3750000000000000
  0.7222175156537106  0.1111094751421960  0.8750000000000000
  0.2213443128467690  0.1100877661414599  0.3750000000000000
  0.3885321383579387  0.6114678616420613  0.3750000000000000
  0.7244635435788753  0.6134244120283339  0.3750000000000000
  0.5554101199613554  0.1100877661414599  0.3750000000000000
  0.3888847502247306  0.6111152497752695  0.8750000000000000
  0.8888888888888857  0.1111111111111143  0.3750000000000000
  0.2222222222222214  0.7777777777777786  0.8750000000000000
  0.0555586261551496  0.2777824843462894  0.8750000000000000
  0.3888903603158004  0.2777738910269077  0.8750000000000000
  0.5555503522387050  0.7777767635033245  0.8750000000000000
  0.8888930779312837  0.7777767635033245  0.8750000000000000
  0.7222198731584066  0.2777801268415939  0.8750000000000000
  0.0558691315656209  0.7778875441608576  0.3750000000000000
  0.3886850792619009  0.7778875441608576  0.3750000000000000
  0.2213939591103232  0.2773636462218294  0.3750000000000000
  0.7226363537781706  0.7786060408896769  0.3750000000000000
  0.5556275351161227  0.2755364564211250  0.3750000000000000
  0.8890733038781504  0.2777220243444422  0.3750000000000000
  0.0555585696653634  0.4444504726640554  0.8750000000000000
  0.2222210034059541  0.9444401186962864  0.8750000000000000
  0.5555495273359444  0.9444414303346368  0.8750000000000000
  0.3888903603158004  0.4444498026222283  0.8750000000000000
  0.8888905248578042  0.9444413738448507  0.8750000000000000
  0.0556268514920319  0.9443731485079678  0.3750000000000000
  0.7222261089730921  0.4444498026222283  0.8750000000000000
  0.3886850792619009  0.9441308684343788  0.3750000000000000
  0.2213443128467690  0.4445898800386448  0.3750000000000000
  0.2221124558391424  0.6113149207380989  0.3750000000000000
  0.7222779756555578  0.9446846128670437  0.3750000000000000
  0.8899122338585401  0.4445898800386448  0.3750000000000000
  0.0555598813037137  0.6111142180430034  0.8750000000000000
  0.2222232364966752  0.1111069220687162  0.8750000000000000
  0.7222261089730921  0.6111096396841996  0.8750000000000000
  0.5555503522387050  0.1111069220687162  0.8750000000000000
  0.8888888888888857  0.1111111111111143  0.8750000000000000
  0.1108832997197281  0.0552724039803899  0.3750000000000000
  0.6118632903567306  0.5570599140467907  0.3750000000000000
  0.4443005462958599  0.0553701298417850  0.3750000000000000
  0.9446298701582150  0.5556994537041400  0.3750000000000000
  0.7777828203233679  0.0555580768283518  0.3750000000000000
  0.1111023480928128  0.7222178407130706  0.8750000000000000
  0.4444469023377116  0.7221976727069774  0.8750000000000000
  0.2778390195796374  0.2222615678860099  0.8750000000000000
  0.7777384321139902  0.7221609804203627  0.8750000000000000
  0.6110892149730439  0.2222615678860099  0.8750000000000000
  0.9444510208460212  0.2222353750253778  0.8750000000000000
  0.2777321520264298  0.7222678479735702  0.3750000000000000
  0.1110318320726370  0.2221825827029828  0.3750000000000000
  0.4445329899055407  0.2223993131444168  0.3750000000000000
  0.6109420574712993  0.7228822526789009  0.3750000000000000
  0.9446298701582150  0.7222637497874105  0.3750000000000000
  0.7778174172970170  0.2221825827029828  0.3750000000000000
  0.1111134145824095  0.8888865854175905  0.8750000000000000
  0.4444398375018522  0.8888865854175905  0.8750000000000000
  0.2778390195796374  0.3889107850269560  0.8750000000000000
  0.6110840233843958  0.3889159766156041  0.8750000000000000
  0.7777565844427300  0.8888465022187881  0.8750000000000000
  0.9444340012500221  0.3889046734902396  0.8750000000000000
  0.1108832997197281  0.3889442290726667  0.3750000000000000
  0.2777321520264298  0.8887976373861882  0.3750000000000000
  0.6110557709273334  0.8891167002802720  0.3750000000000000
  0.4429400859532096  0.3881367096432690  0.3750000000000000
  0.9447275960196102  0.8891167002802720  0.3750000000000000
  0.7786068618742736  0.3890579425287008  0.3750000000000000
  0.2778023272930226  0.5555530976622883  0.8750000000000000
  0.1111373389068887  0.0555659987499779  0.8750000000000000
  0.6110840233843958  0.5555013801021205  0.8750000000000000
  0.4444469023377116  0.0555825629640699  0.8750000000000000
  0.9444174370359303  0.5555530976622883  0.8750000000000000
  0.1111760939238890  0.5556855211811067  0.3750000000000000
  0.7777646249746220  0.0555489791539789  0.8750000000000000
  0.2777362502125894  0.0553701298417850  0.3750000000000000
  0.4445329899055407  0.5554670100944594  0.3750000000000000
  0.7776006868555829  0.5554670100944594  0.3750000000000000
  0.6110557709273334  0.0552724039803899  0.3750000000000000
  0.4444674619213350  0.5555325380786647  0.8750000000000000
  0.9444419231716482  0.0555580768283518  0.3750000000000000
  0.2777821592869295  0.7222178407130706  0.8750000000000000
  0.1111534977812116  0.2222434155572701  0.8750000000000000
  0.4444674619213350  0.2222682571760059  0.8750000000000000
  0.6110892149730439  0.7221609804203627  0.8750000000000000
  0.9444174370359303  0.7221976727069774  0.8750000000000000
  0.7777565844427300  0.2222434155572701  0.8750000000000000
  0.1112023626138118  0.7222678479735702  0.3750000000000000
  0.4443005462958600  0.7222637497874105  0.3750000000000000
  0.2771177473210988  0.2213931381257267  0.3750000000000000
  0.7786068618742736  0.7228822526789009  0.3750000000000000
  0.6109420574712993  0.2213931381257267  0.3750000000000000
  0.9444419231716482  0.2222171796766322  0.3750000000000000
  0.1111373389068887  0.3889046734902396  0.8750000000000000
  0.2777821592869295  0.8888976519071876  0.8750000000000000
  0.6110953265097604  0.8888626610931113  0.8750000000000000
  0.4444986198978796  0.3889159766156041  0.8750000000000000
  0.9444340012500221  0.8888626610931113  0.8750000000000000
  0.1111760939238890  0.8888239060761111  0.3750000000000000
  0.7777384321139902  0.3889107850269560  0.8750000000000000
  0.4443144788188935  0.8888239060761111  0.3750000000000000
  0.2771177473210988  0.3890579425287008  0.3750000000000000
  0.2777362502125894  0.5556994537041400  0.3750000000000000
  0.6118632903567306  0.3881367096432690  0.3750000000000000
  0.7778174172970170  0.8889681679273627  0.3750000000000000
  0.9447275960196102  0.3889442290726667  0.3750000000000000
  0.1111134145824095  0.5555601624981475  0.8750000000000000
  0.2778023272930226  0.0555825629640699  0.8750000000000000
  0.7777317428239943  0.5555325380786647  0.8750000000000000
  0.6110953265097604  0.0555659987499779  0.8750000000000000
  0.9444510208460212  0.0555489791539789  0.8750000000000000
  0.0555788997517249  0.1111412029947456  0.1250877477153629
  0.5556206956302004  0.6109509995585077  0.1252636548558184
  0.3889947173157480  0.1113227679648390  0.1251799928317759
  0.8886772320351611  0.6110052826842522  0.1251799928317759
  0.7222289699096850  0.1111412029947456  0.1250877477153629
  0.0554713524856827  0.7777484981846612  0.6249177458286905
  0.3889438123656430  0.7777484981846612  0.6249177458286905
  0.2223182261157489  0.2778257797245424  0.6248373175920564
  0.7221742202754576  0.7776817738842510  0.6248373175920564
  0.5556206956302004  0.2780030294050286  0.6247363451441815
  0.8888587970052544  0.2777710300903152  0.6249122522846371
  0.2222222222222214  0.7777777777777786  0.1250695446018026
  0.0555788997517249  0.2777710300903152  0.1250877477153629
  0.3890490004414925  0.2780030294050286  0.1252636548558184
  0.5556043842486240  0.7776994851095571  0.1251347397103990
  0.8887617675275976  0.7776994851095571  0.1251347397103990
  0.7221742202754576  0.2778257797245424  0.1251626824079436
  0.0555349184342037  0.9444650815657961  0.6249170343908312
  0.3889438123656430  0.9445286475143175  0.6249177458286905
  0.2223005148904427  0.4443956157513761  0.6248652602896010
  0.5555555555555571  0.4444444444444429  0.6234005342510165
  0.7222289699096850  0.9444211002482750  0.6249122522846371
  0.8887617675275976  0.4443956157513761  0.6248652602896010
  0.0555349184342037  0.4444031702017360  0.1250829656091688
  0.2222515018153386  0.9445286475143175  0.1250822541713095
  0.5555968297982642  0.9444650815657961  0.1250829656091688
  0.3890490004414925  0.4443793043697997  0.1252636548558184
  0.8888587970052544  0.9444211002482750  0.1250877477153629
  0.7219969705949715  0.4443793043697997  0.1252636548558184
  0.2222515018153386  0.6110561876343568  0.6249177458286905
  0.0555788997517249  0.1111412029947456  0.6249122522846371
  0.5556206956302004  0.6109509995585077  0.6247363451441815
  0.3889947173157480  0.1113227679648390  0.6248200071682243
  0.8886772320351611  0.6110052826842522  0.6248200071682243
  0.0554713524856827  0.6110561876343568  0.1250822541713095
  0.7222289699096850  0.1111412029947456  0.6249122522846371
  0.2223005148904427  0.1112382324724023  0.1251347397103990
  0.3889947173157480  0.6110052826842522  0.1251799928317759
  0.7219969705949715  0.6109509995585077  0.1252636548558184
  0.5556043842486240  0.1112382324724023  0.1251347397103990
  0.3889947173157480  0.6110052826842522  0.6248200071682243
  0.8888888888888857  0.1111111111111143  0.1250741619504277
  0.2222222222222214  0.7777777777777786  0.6249304553981974
  0.0555788997517249  0.2777710300903152  0.6249122522846371
  0.3890490004414925  0.2780030294050286  0.6247363451441815
  0.5556043842486240  0.7776994851095571  0.6248652602896010
  0.8887617675275976  0.7776994851095571  0.6248652602896010
  0.7221742202754576  0.2778257797245424  0.6248373175920564
  0.0554713524856827  0.7777484981846612  0.1250822541713095
  0.3889438123656430  0.7777484981846612  0.1250822541713095
  0.2223182261157489  0.2778257797245424  0.1251626824079436
  0.7221742202754576  0.7776817738842510  0.1251626824079436
  0.5556206956302004  0.2780030294050286  0.1252636548558184
  0.8888587970052544  0.2777710300903152  0.1250877477153629
  0.0555349184342037  0.4444031702017360  0.6249170343908312
  0.2222515018153386  0.9445286475143175  0.6249177458286905
  0.5555968297982642  0.9444650815657961  0.6249170343908312
  0.3890490004414925  0.4443793043697997  0.6247363451441815
  0.8888587970052544  0.9444211002482750  0.6249122522846371
  0.0555349184342037  0.9444650815657961  0.1250829656091688
  0.7219969705949715  0.4443793043697997  0.6247363451441815
  0.3889438123656430  0.9445286475143175  0.1250822541713095
  0.2223005148904427  0.4443956157513761  0.1251347397103990
  0.2222515018153386  0.6110561876343568  0.1250822541713095
  0.5555555555555571  0.4444444444444429  0.1265994657489833
  0.7222289699096850  0.9444211002482750  0.1250877477153629
  0.8887617675275976  0.4443956157513761  0.1251347397103990
  0.0554713524856827  0.6110561876343568  0.6249177458286905
  0.2223005148904427  0.1112382324724023  0.6248652602896010
  0.7219969705949715  0.6109509995585077  0.6247363451441815
  0.5556043842486240  0.1112382324724023  0.6248652602896010
  0.8888888888888857  0.1111111111111143  0.6249258380495721
 
  0.00000000E+00  0.00000000E+00  0.00000000E+00
  0.00000000E+00  0.00000000E+00  0.00000000E+00
  0.00000000E+00  0.00000000E+00  0.00000000E+00
  0.00000000E+00  0.00000000E+00  0.00000000E+00
  0.00000000E+00  0.00000000E+00  0.00000000E+00
  0.00000000E+00  0.00000000E+00  0.00000000E+00
  0.00000000E+00  0.00000000E+00  0.00000000E+00
  0.00000000E+00  0.00000000E+00  0.00000000E+00
  0.00000000E+00  0.00000000E+00  0.00000000E+00
  0.00000000E+00  0.00000000E+00  0.00000000E+00
  0.00000000E+00  0.00000000E+00  0.00000000E+00
  0.00000000E+00  0.00000000E+00  0.00000000E+00
  0.00000000E+00  0.00000000E+00  0.00000000E+00
  0.00000000E+00  0.00000000E+00  0.00000000E+00
  0.00000000E+00  0.00000000E+00  0.00000000E+00
  0.00000000E+00  0.00000000E+00  0.00000000E+00
  0.00000000E+00  0.00000000E+00  0.00000000E+00
  0.00000000E+00  0.00000000E+00  0.00000000E+00
  0.00000000E+00  0.00000000E+00  0.00000000E+00
  0.00000000E+00  0.00000000E+00  0.00000000E+00
  0.00000000E+00  0.00000000E+00  0.00000000E+00
  0.00000000E+00  0.00000000E+00  0.00000000E+00
  0.00000000E+00  0.00000000E+00  0.00000000E+00
  0.00000000E+00  0.00000000E+00  0.00000000E+00
  0.00000000E+00  0.00000000E+00  0.00000000E+00
  0.00000000E+00  0.00000000E+00  0.00000000E+00
  0.00000000E+00  0.00000000E+00  0.00000000E+00
  0.00000000E+00  0.00000000E+00  0.00000000E+00
  0.00000000E+00  0.00000000E+00  0.00000000E+00
  0.00000000E+00  0.00000000E+00  0.00000000E+00
  0.00000000E+00  0.00000000E+00  0.00000000E+00
  0.00000000E+00  0.00000000E+00  0.00000000E+00
  0.00000000E+00  0.00000000E+00  0.00000000E+00
  0.00000000E+00  0.00000000E+00  0.00000000E+00
  0.00000000E+00  0.00000000E+00  0.00000000E+00
  0.00000000E+00  0.00000000E+00  0.00000000E+00
  0.00000000E+00  0.00000000E+00  0.00000000E+00
  0.00000000E+00  0.00000000E+00  0.00000000E+00
  0.00000000E+00  0.00000000E+00  0.00000000E+00
  0.00000000E+00  0.00000000E+00  0.00000000E+00
  0.00000000E+00  0.00000000E+00  0.00000000E+00
  0.00000000E+00  0.00000000E+00  0.00000000E+00
  0.00000000E+00  0.00000000E+00  0.00000000E+00
  0.00000000E+00  0.00000000E+00  0.00000000E+00
  0.00000000E+00  0.00000000E+00  0.00000000E+00
  0.00000000E+00  0.00000000E+00  0.00000000E+00
  0.00000000E+00  0.00000000E+00  0.00000000E+00
  0.00000000E+00  0.00000000E+00  0.00000000E+00
  0.00000000E+00  0.00000000E+00  0.00000000E+00
  0.00000000E+00  0.00000000E+00  0.00000000E+00
  0.00000000E+00  0.00000000E+00  0.00000000E+00
  0.00000000E+00  0.00000000E+00  0.00000000E+00
  0.00000000E+00  0.00000000E+00  0.00000000E+00
  0.00000000E+00  0.00000000E+00  0.00000000E+00
  0.00000000E+00  0.00000000E+00  0.00000000E+00
  0.00000000E+00  0.00000000E+00  0.00000000E+00
  0.00000000E+00  0.00000000E+00  0.00000000E+00
  0.00000000E+00  0.00000000E+00  0.00000000E+00
  0.00000000E+00  0.00000000E+00  0.00000000E+00
  0.00000000E+00  0.00000000E+00  0.00000000E+00
  0.00000000E+00  0.00000000E+00  0.00000000E+00
  0.00000000E+00  0.00000000E+00  0.00000000E+00
  0.00000000E+00  0.00000000E+00  0.00000000E+00
  0.00000000E+00  0.00000000E+00  0.00000000E+00
  0.00000000E+00  0.00000000E+00  0.00000000E+00
  0.00000000E+00  0.00000000E+00  0.00000000E+00
  0.00000000E+00  0.00000000E+00  0.00000000E+00
  0.00000000E+00  0.00000000E+00  0.00000000E+00
  0.00000000E+00  0.00000000E+00  0.00000000E+00
  0.00000000E+00  0.00000000E+00  0.00000000E+00
  0.00000000E+00  0.00000000E+00  0.00000000E+00
  0.00000000E+00  0.00000000E+00  0.00000000E+00
  0.00000000E+00  0.00000000E+00  0.00000000E+00
  0.00000000E+00  0.00000000E+00  0.00000000E+00
  0.00000000E+00  0.00000000E+00  0.00000000E+00
  0.00000000E+00  0.00000000E+00  0.00000000E+00
  0.00000000E+00  0.00000000E+00  0.00000000E+00
  0.00000000E+00  0.00000000E+00  0.00000000E+00
  0.00000000E+00  0.00000000E+00  0.00000000E+00
  0.00000000E+00  0.00000000E+00  0.00000000E+00
  0.00000000E+00  0.00000000E+00  0.00000000E+00
  0.00000000E+00  0.00000000E+00  0.00000000E+00
  0.00000000E+00  0.00000000E+00  0.00000000E+00
  0.00000000E+00  0.00000000E+00  0.00000000E+00
  0.00000000E+00  0.00000000E+00  0.00000000E+00
  0.00000000E+00  0.00000000E+00  0.00000000E+00
  0.00000000E+00  0.00000000E+00  0.00000000E+00
  0.00000000E+00  0.00000000E+00  0.00000000E+00
  0.00000000E+00  0.00000000E+00  0.00000000E+00
  0.00000000E+00  0.00000000E+00  0.00000000E+00
  0.00000000E+00  0.00000000E+00  0.00000000E+00
  0.00000000E+00  0.00000000E+00  0.00000000E+00
  0.00000000E+00  0.00000000E+00  0.00000000E+00
  0.00000000E+00  0.00000000E+00  0.00000000E+00
  0.00000000E+00  0.00000000E+00  0.00000000E+00
  0.00000000E+00  0.00000000E+00  0.00000000E+00
  0.00000000E+00  0.00000000E+00  0.00000000E+00
  0.00000000E+00  0.00000000E+00  0.00000000E+00
  0.00000000E+00  0.00000000E+00  0.00000000E+00
  0.00000000E+00  0.00000000E+00  0.00000000E+00
  0.00000000E+00  0.00000000E+00  0.00000000E+00
  0.00000000E+00  0.00000000E+00  0.00000000E+00
  0.00000000E+00  0.00000000E+00  0.00000000E+00
  0.00000000E+00  0.00000000E+00  0.00000000E+00
  0.00000000E+00  0.00000000E+00  0.00000000E+00
  0.00000000E+00  0.00000000E+00  0.00000000E+00
  0.00000000E+00  0.00000000E+00  0.00000000E+00
  0.00000000E+00  0.00000000E+00  0.00000000E+00
  0.00000000E+00  0.00000000E+00  0.00000000E+00
  0.00000000E+00  0.00000000E+00  0.00000000E+00
  0.00000000E+00  0.00000000E+00  0.00000000E+00
  0.00000000E+00  0.00000000E+00  0.00000000E+00
  0.00000000E+00  0.00000000E+00  0.00000000E+00
  0.00000000E+00  0.00000000E+00  0.00000000E+00
  0.00000000E+00  0.00000000E+00  0.00000000E+00
  0.00000000E+00  0.00000000E+00  0.00000000E+00
  0.00000000E+00  0.00000000E+00  0.00000000E+00
  0.00000000E+00  0.00000000E+00  0.00000000E+00
  0.00000000E+00  0.00000000E+00  0.00000000E+00
  0.00000000E+00  0.00000000E+00  0.00000000E+00
  0.00000000E+00  0.00000000E+00  0.00000000E+00
  0.00000000E+00  0.00000000E+00  0.00000000E+00
  0.00000000E+00  0.00000000E+00  0.00000000E+00
  0.00000000E+00  0.00000000E+00  0.00000000E+00
  0.00000000E+00  0.00000000E+00  0.00000000E+00
  0.00000000E+00  0.00000000E+00  0.00000000E+00
  0.00000000E+00  0.00000000E+00  0.00000000E+00
  0.00000000E+00  0.00000000E+00  0.00000000E+00
  0.00000000E+00  0.00000000E+00  0.00000000E+00
  0.00000000E+00  0.00000000E+00  0.00000000E+00
  0.00000000E+00  0.00000000E+00  0.00000000E+00
  0.00000000E+00  0.00000000E+00  0.00000000E+00
  0.00000000E+00  0.00000000E+00  0.00000000E+00
  0.00000000E+00  0.00000000E+00  0.00000000E+00
  0.00000000E+00  0.00000000E+00  0.00000000E+00
  0.00000000E+00  0.00000000E+00  0.00000000E+00
  0.00000000E+00  0.00000000E+00  0.00000000E+00
  0.00000000E+00  0.00000000E+00  0.00000000E+00
  0.00000000E+00  0.00000000E+00  0.00000000E+00
  0.00000000E+00  0.00000000E+00  0.00000000E+00
  0.00000000E+00  0.00000000E+00  0.00000000E+00
  0.00000000E+00  0.00000000E+00  0.00000000E+00
  0.00000000E+00  0.00000000E+00  0.00000000E+00
  0.00000000E+00  0.00000000E+00  0.00000000E+00
  0.00000000E+00  0.00000000E+00  0.00000000E+00
  0.00000000E+00  0.00000000E+00  0.00000000E+00
  0.00000000E+00  0.00000000E+00  0.00000000E+00
  0.00000000E+00  0.00000000E+00  0.00000000E+00
  0.00000000E+00  0.00000000E+00  0.00000000E+00
  0.00000000E+00  0.00000000E+00  0.00000000E+00
  0.00000000E+00  0.00000000E+00  0.00000000E+00
  0.00000000E+00  0.00000000E+00  0.00000000E+00
  0.00000000E+00  0.00000000E+00  0.00000000E+00
  0.00000000E+00  0.00000000E+00  0.00000000E+00
  0.00000000E+00  0.00000000E+00  0.00000000E+00
  0.00000000E+00  0.00000000E+00  0.00000000E+00
  0.00000000E+00  0.00000000E+00  0.00000000E+00
  0.00000000E+00  0.00000000E+00  0.00000000E+00
  0.00000000E+00  0.00000000E+00  0.00000000E+00
  0.00000000E+00  0.00000000E+00  0.00000000E+00
  0.00000000E+00  0.00000000E+00  0.00000000E+00
  0.00000000E+00  0.00000000E+00  0.00000000E+00
  0.00000000E+00  0.00000000E+00  0.00000000E+00
  0.00000000E+00  0.00000000E+00  0.00000000E+00
  0.00000000E+00  0.00000000E+00  0.00000000E+00
  0.00000000E+00  0.00000000E+00  0.00000000E+00
  0.00000000E+00  0.00000000E+00  0.00000000E+00
  0.00000000E+00  0.00000000E+00  0.00000000E+00
  0.00000000E+00  0.00000000E+00  0.00000000E+00
  0.00000000E+00  0.00000000E+00  0.00000000E+00
  0.00000000E+00  0.00000000E+00  0.00000000E+00
  0.00000000E+00  0.00000000E+00  0.00000000E+00
  0.00000000E+00  0.00000000E+00  0.00000000E+00
  0.00000000E+00  0.00000000E+00  0.00000000E+00
  0.00000000E+00  0.00000000E+00  0.00000000E+00
  0.00000000E+00  0.00000000E+00  0.00000000E+00
  0.00000000E+00  0.00000000E+00  0.00000000E+00
  0.00000000E+00  0.00000000E+00  0.00000000E+00
  0.00000000E+00  0.00000000E+00  0.00000000E+00
  0.00000000E+00  0.00000000E+00  0.00000000E+00
  0.00000000E+00  0.00000000E+00  0.00000000E+00
  0.00000000E+00  0.00000000E+00  0.00000000E+00
  0.00000000E+00  0.00000000E+00  0.00000000E+00
  0.00000000E+00  0.00000000E+00  0.00000000E+00
  0.00000000E+00  0.00000000E+00  0.00000000E+00
  0.00000000E+00  0.00000000E+00  0.00000000E+00
  0.00000000E+00  0.00000000E+00  0.00000000E+00
  0.00000000E+00  0.00000000E+00  0.00000000E+00
  0.00000000E+00  0.00000000E+00  0.00000000E+00
  0.00000000E+00  0.00000000E+00  0.00000000E+00
  0.00000000E+00  0.00000000E+00  0.00000000E+00
  0.00000000E+00  0.00000000E+00  0.00000000E+00
  0.00000000E+00  0.00000000E+00  0.00000000E+00
  0.00000000E+00  0.00000000E+00  0.00000000E+00
  0.00000000E+00  0.00000000E+00  0.00000000E+00
  0.00000000E+00  0.00000000E+00  0.00000000E+00
  0.00000000E+00  0.00000000E+00  0.00000000E+00
  0.00000000E+00  0.00000000E+00  0.00000000E+00
  0.00000000E+00  0.00000000E+00  0.00000000E+00
  0.00000000E+00  0.00000000E+00  0.00000000E+00
  0.00000000E+00  0.00000000E+00  0.00000000E+00
  0.00000000E+00  0.00000000E+00  0.00000000E+00
  0.00000000E+00  0.00000000E+00  0.00000000E+00
  0.00000000E+00  0.00000000E+00  0.00000000E+00
  0.00000000E+00  0.00000000E+00  0.00000000E+00
  0.00000000E+00  0.00000000E+00  0.00000000E+00
  0.00000000E+00  0.00000000E+00  0.00000000E+00
  0.00000000E+00  0.00000000E+00  0.00000000E+00
  0.00000000E+00  0.00000000E+00  0.00000000E+00
  0.00000000E+00  0.00000000E+00  0.00000000E+00
  0.00000000E+00  0.00000000E+00  0.00000000E+00
  0.00000000E+00  0.00000000E+00  0.00000000E+00
  0.00000000E+00  0.00000000E+00  0.00000000E+00
  0.00000000E+00  0.00000000E+00  0.00000000E+00
  0.00000000E+00  0.00000000E+00  0.00000000E+00
  0.00000000E+00  0.00000000E+00  0.00000000E+00
  0.00000000E+00  0.00000000E+00  0.00000000E+00
  0.00000000E+00  0.00000000E+00  0.00000000E+00
  0.00000000E+00  0.00000000E+00  0.00000000E+00
  0.00000000E+00  0.00000000E+00  0.00000000E+00
  0.00000000E+00  0.00000000E+00  0.00000000E+00
  0.00000000E+00  0.00000000E+00  0.00000000E+00
  0.00000000E+00  0.00000000E+00  0.00000000E+00
  0.00000000E+00  0.00000000E+00  0.00000000E+00
  0.00000000E+00  0.00000000E+00  0.00000000E+00
  0.00000000E+00  0.00000000E+00  0.00000000E+00
  0.00000000E+00  0.00000000E+00  0.00000000E+00
  0.00000000E+00  0.00000000E+00  0.00000000E+00
  0.00000000E+00  0.00000000E+00  0.00000000E+00
  0.00000000E+00  0.00000000E+00  0.00000000E+00
  0.00000000E+00  0.00000000E+00  0.00000000E+00
  0.00000000E+00  0.00000000E+00  0.00000000E+00
  0.00000000E+00  0.00000000E+00  0.00000000E+00
  0.00000000E+00  0.00000000E+00  0.00000000E+00
  0.00000000E+00  0.00000000E+00  0.00000000E+00
  0.00000000E+00  0.00000000E+00  0.00000000E+00
  0.00000000E+00  0.00000000E+00  0.00000000E+00
  0.00000000E+00  0.00000000E+00  0.00000000E+00
  0.00000000E+00  0.00000000E+00  0.00000000E+00
  0.00000000E+00  0.00000000E+00  0.00000000E+00
  0.00000000E+00  0.00000000E+00  0.00000000E+00
  0.00000000E+00  0.00000000E+00  0.00000000E+00
  0.00000000E+00  0.00000000E+00  0.00000000E+00
  0.00000000E+00  0.00000000E+00  0.00000000E+00
  0.00000000E+00  0.00000000E+00  0.00000000E+00
  0.00000000E+00  0.00000000E+00  0.00000000E+00
  0.00000000E+00  0.00000000E+00  0.00000000E+00