B N O                                   
   1.0000000000000000     
     8.7639499999999995  -15.1796066749929999    0.0000000000000000
     8.7639499999999995   15.1796066749929999    0.0000000000000000
     0.0000000000000000    0.0000000000000000   15.0000000000000000
   B    N    O 
    47    48     2
Selective dynamics
Direct
  0.9052592876956028  0.9528773937141395  0.1110145322311955   T   T   T
  0.9052514948593303  0.0956775368553433  0.1110480298716235   T   T   T
  0.9051699880560860  0.2383954868406828  0.1110633169141830   T   T   T
  0.9048423614801799  0.3810979794022241  0.1110100829826762   T   T   T
  0.9041468469528187  0.5237753103158076  0.1110063931873231   T   T   T
  0.9047254298102654  0.6666656622978139  0.1110662373844080   T   T   T
  0.9052106657097110  0.8099071324609164  0.1110585257562604   T   T   T
  0.0474288666477888  0.9520109223273665  0.1110209173081129   T   T   T
  0.0479909400992786  0.0954382833787095  0.1110238365575525   T   T   T
  0.0482356655917434  0.2383801282022605  0.1110166570579684   T   T   T
  0.0481031022599140  0.3811484052072021  0.1110367023618012   T   T   T
  0.0474676431933229  0.5238154430335182  0.1110200149482623   T   T   T
  0.0472350567032009  0.6664516217892513  0.1110312778247731   T   T   T
  0.0473081603125839  0.8091127870714642  0.1110101714536509   T   T   T
  0.1896700212178975  0.9511196813568730  0.1110322023639760   T   T   T
  0.1897020499498384  0.0937152068317663  0.1110632523111579   T   T   T
  0.1913170932883037  0.2381164746406879  0.1110038765095303   T   T   T
  0.1914653357652028  0.3812150567093122  0.1109965708294971   T   T   T
  0.1907730699042428  0.5242013246064594  0.1110735016804317   T   T   T
  0.1899241725112051  0.6666831462017569  0.1110679956390214   T   T   T
  0.1899358476589494  0.8090118580987476  0.1110035006584269   T   T   T
  0.3327147909558564  0.9511822195090532  0.1110499326827413   T   T   T
  0.3319666462834164  0.0922185301890046  0.1110893171977428   T   T   T
  0.3325300332578696  0.2335825214996085  0.1110207800862514   T   T   T
  0.3365718556570122  0.3807827356550379  0.1109178158486598   T   T   T
  0.3342042801301200  0.5266626462785026  0.1109968728434492   T   T   T
  0.3325222737652055  0.6677242484311970  0.1111034432584584   T   T   T
  0.3328448538616823  0.8095170822336998  0.1110592338086336   T   T   T
  0.4759762238868704  0.9520089821007348  0.1110224386393285   T   T   T
  0.4756855790850342  0.0935268216332344  0.1110495296872236   T   T   T
  0.4735421580473471  0.2336193722333521  0.1110278538362031   T   T   T
  0.4745127949583747  0.6687920302375241  0.1109931081384817   T   T   T
  0.4759433322016606  0.8102181663063984  0.1110513048401758   T   T   T
  0.6192626820275559  0.9529019186109489  0.1110334097699834   T   T   T
  0.6191564889557001  0.0951447675983044  0.1110152239681337   T   T   T
  0.6188803121855125  0.2375252685738424  0.1110172293218121   T   T   T
  0.6184827179993647  0.3812060101731931  0.1109978624678960   T   T   T
  0.6202148162931507  0.5275581443815168  0.1110942283865363   T   T   T
  0.6218376171535571  0.6692182184889932  0.1109507922869403   T   T   T
  0.6196356328755456  0.8110147838795714  0.1110065979570026   T   T   T
  0.7624334960402526  0.9531275473961731  0.1110078622503804   T   T   T
  0.7622508873421606  0.0955986221852114  0.1110497053610954   T   T   T
  0.7620666669065582  0.2381905673639693  0.1110603644287532   T   T   T
  0.7616405512566168  0.3809521059817399  0.1110141771130761   T   T   T
  0.7607951045316872  0.5240795930455652  0.1110582050669213   T   T   T
  0.7632569357551094  0.6679811002827366  0.1110575268861711   T   T   T
  0.7628406275139100  0.8106530689695083  0.1110031063984309   T   T   T
  0.9522697819152146  0.9047440039811332  0.1110136375179307   T   T   T
  0.9527698665560758  0.0479744599316122  0.1110122879706617   T   T   T
  0.9530431995562285  0.1909359379110865  0.1110304873359174   T   T   T
  0.9528931832097294  0.3337154027309666  0.1110193059916895   T   T   T
  0.9520894661656902  0.4763193134332891  0.1109754277058591   T   T   T
  0.9518243292636359  0.6188535353422165  0.1110270514587140   T   T   T
  0.9519432913780866  0.7616195318170370  0.1110461683137127   T   T   T
  0.0946180312771878  0.9040629023071574  0.1109913608287173   T   T   T
  0.0948771193878790  0.0471647890015602  0.1110200240242512   T   T   T
  0.0961706540703640  0.1910735777304777  0.1109949641991294   T   T   T
  0.0964869046736716  0.3339043418553828  0.1109945553886435   T   T   T
  0.0958398854763165  0.4764276772308935  0.1110308645601980   T   T   T
  0.0949339693205912  0.6188830876049948  0.1110227611956151   T   T   T
  0.0947527862095187  0.7614352790974898  0.1109842649991264   T   T   T
  0.2375566219805566  0.9038777132727555  0.1110016830314575   T   T   T
  0.2371150079943045  0.0460453901803006  0.1110546452235037   T   T   T
  0.2373375669872897  0.1891179375810667  0.1110191931261578   T   T   T
  0.2403663596449046  0.3346840454192128  0.1109661229694417   T   T   T
  0.2398487562382824  0.4767661670650921  0.1110154906623684   T   T   T
  0.2380240351093351  0.6191784619752165  0.1110732298176915   T   T   T
  0.2377724325857793  0.7615735057473357  0.1110257633434860   T   T   T
  0.3807774112784910  0.9041786017177790  0.1110208691424539   T   T   T
  0.3804617244568067  0.0459452139106120  0.1110664059681170   T   T   T
  0.3794719354504943  0.1868168453424942  0.1110644854316692   T   T   T
  0.3731296195019667  0.3263316381617081  0.1108985903230293   T   T   T
  0.3810192021043021  0.4768841156230971  0.1107012925975245   T   T   T
  0.3810040649274208  0.6202897459671802  0.1110853052347778   T   T   T
  0.3808910330523949  0.7621312772496573  0.1110637403845918   T   T   T
  0.5239307777789710  0.9046801559594982  0.1110189116050146   T   T   T
  0.5238745154624066  0.0468759629073410  0.1109927666691122   T   T   T
  0.5236796655500097  0.1885695797567897  0.1110159564039564   T   T   T
  0.5266151187728788  0.3258744002005434  0.1108563220011774   T   T   T
  0.5265264507062078  0.6252969017527712  0.1107009142755269   T   T   T
  0.5242466214591207  0.7625778331234562  0.1110050942893590   T   T   T
  0.6669844322934911  0.9052850330631723  0.1109989037435190   T   T   T
  0.6669243177264353  0.0477418156286301  0.1110171562998566   T   T   T
  0.6668176292183634  0.1903972230245478  0.1110238561353732   T   T   T
  0.6663151160916365  0.3332616123275047  0.1109979262180757   T   T   T
  0.6633905758216865  0.4768130762307395  0.1110407376773069   T   T   T
  0.6668733509570567  0.6204698915757554  0.1110144991793804   T   T   T
  0.6668238961559753  0.7628837966028567  0.1109700899474575   T   T   T
  0.8097668176847647  0.9051793862224050  0.1109810260284707   T   T   T
  0.8099281842873545  0.0479988099883359  0.1110284672456945   T   T   T
  0.8098942363610965  0.1907754288123351  0.1110502204462379   T   T   T
  0.8094532272875199  0.3335815874143709  0.1110211153662371   T   T   T
  0.8081868950917810  0.4763827513523819  0.1109980616206781   T   T   T
  0.8088040542810592  0.6190720265064555  0.1110578465600465   T   T   T
  0.8096017534973153  0.7623565970754668  0.1110269033741369   T   T   T
  0.4788838198379777  0.5293188678182844  0.1111531853036186   T   T   T
  0.5241504992207972  0.4789992937306443  0.1113303888229981   T   T   T

  0.00000000E+00  0.00000000E+00  0.00000000E+00
  0.00000000E+00  0.00000000E+00  0.00000000E+00
  0.00000000E+00  0.00000000E+00  0.00000000E+00
  0.00000000E+00  0.00000000E+00  0.00000000E+00
  0.00000000E+00  0.00000000E+00  0.00000000E+00
  0.00000000E+00  0.00000000E+00  0.00000000E+00
  0.00000000E+00  0.00000000E+00  0.00000000E+00
  0.00000000E+00  0.00000000E+00  0.00000000E+00
  0.00000000E+00  0.00000000E+00  0.00000000E+00
  0.00000000E+00  0.00000000E+00  0.00000000E+00
  0.00000000E+00  0.00000000E+00  0.00000000E+00
  0.00000000E+00  0.00000000E+00  0.00000000E+00
  0.00000000E+00  0.00000000E+00  0.00000000E+00
  0.00000000E+00  0.00000000E+00  0.00000000E+00
  0.00000000E+00  0.00000000E+00  0.00000000E+00
  0.00000000E+00  0.00000000E+00  0.00000000E+00
  0.00000000E+00  0.00000000E+00  0.00000000E+00
  0.00000000E+00  0.00000000E+00  0.00000000E+00
  0.00000000E+00  0.00000000E+00  0.00000000E+00
  0.00000000E+00  0.00000000E+00  0.00000000E+00
  0.00000000E+00  0.00000000E+00  0.00000000E+00
  0.00000000E+00  0.00000000E+00  0.00000000E+00
  0.00000000E+00  0.00000000E+00  0.00000000E+00
  0.00000000E+00  0.00000000E+00  0.00000000E+00
  0.00000000E+00  0.00000000E+00  0.00000000E+00
  0.00000000E+00  0.00000000E+00  0.00000000E+00
  0.00000000E+00  0.00000000E+00  0.00000000E+00
  0.00000000E+00  0.00000000E+00  0.00000000E+00
  0.00000000E+00  0.00000000E+00  0.00000000E+00
  0.00000000E+00  0.00000000E+00  0.00000000E+00
  0.00000000E+00  0.00000000E+00  0.00000000E+00
  0.00000000E+00  0.00000000E+00  0.00000000E+00
  0.00000000E+00  0.00000000E+00  0.00000000E+00
  0.00000000E+00  0.00000000E+00  0.00000000E+00
  0.00000000E+00  0.00000000E+00  0.00000000E+00
  0.00000000E+00  0.00000000E+00  0.00000000E+00
  0.00000000E+00  0.00000000E+00  0.00000000E+00
  0.00000000E+00  0.00000000E+00  0.00000000E+00
  0.00000000E+00  0.00000000E+00  0.00000000E+00
  0.00000000E+00  0.00000000E+00  0.00000000E+00
  0.00000000E+00  0.00000000E+00  0.00000000E+00
  0.00000000E+00  0.00000000E+00  0.00000000E+00
  0.00000000E+00  0.00000000E+00  0.00000000E+00
  0.00000000E+00  0.00000000E+00  0.00000000E+00
  0.00000000E+00  0.00000000E+00  0.00000000E+00
  0.00000000E+00  0.00000000E+00  0.00000000E+00
  0.00000000E+00  0.00000000E+00  0.00000000E+00
  0.00000000E+00  0.00000000E+00  0.00000000E+00
  0.00000000E+00  0.00000000E+00  0.00000000E+00
  0.00000000E+00  0.00000000E+00  0.00000000E+00
  0.00000000E+00  0.00000000E+00  0.00000000E+00
  0.00000000E+00  0.00000000E+00  0.00000000E+00
  0.00000000E+00  0.00000000E+00  0.00000000E+00
  0.00000000E+00  0.00000000E+00  0.00000000E+00
  0.00000000E+00  0.00000000E+00  0.00000000E+00
  0.00000000E+00  0.00000000E+00  0.00000000E+00
  0.00000000E+00  0.00000000E+00  0.00000000E+00
  0.00000000E+00  0.00000000E+00  0.00000000E+00
  0.00000000E+00  0.00000000E+00  0.00000000E+00
  0.00000000E+00  0.00000000E+00  0.00000000E+00
  0.00000000E+00  0.00000000E+00  0.00000000E+00
  0.00000000E+00  0.00000000E+00  0.00000000E+00
  0.00000000E+00  0.00000000E+00  0.00000000E+00
  0.00000000E+00  0.00000000E+00  0.00000000E+00
  0.00000000E+00  0.00000000E+00  0.00000000E+00
  0.00000000E+00  0.00000000E+00  0.00000000E+00
  0.00000000E+00  0.00000000E+00  0.00000000E+00
  0.00000000E+00  0.00000000E+00  0.00000000E+00
  0.00000000E+00  0.00000000E+00  0.00000000E+00
  0.00000000E+00  0.00000000E+00  0.00000000E+00
  0.00000000E+00  0.00000000E+00  0.00000000E+00
  0.00000000E+00  0.00000000E+00  0.00000000E+00
  0.00000000E+00  0.00000000E+00  0.00000000E+00
  0.00000000E+00  0.00000000E+00  0.00000000E+00
  0.00000000E+00  0.00000000E+00  0.00000000E+00
  0.00000000E+00  0.00000000E+00  0.00000000E+00
  0.00000000E+00  0.00000000E+00  0.00000000E+00
  0.00000000E+00  0.00000000E+00  0.00000000E+00
  0.00000000E+00  0.00000000E+00  0.00000000E+00
  0.00000000E+00  0.00000000E+00  0.00000000E+00
  0.00000000E+00  0.00000000E+00  0.00000000E+00
  0.00000000E+00  0.00000000E+00  0.00000000E+00
  0.00000000E+00  0.00000000E+00  0.00000000E+00
  0.00000000E+00  0.00000000E+00  0.00000000E+00
  0.00000000E+00  0.00000000E+00  0.00000000E+00
  0.00000000E+00  0.00000000E+00  0.00000000E+00
  0.00000000E+00  0.00000000E+00  0.00000000E+00
  0.00000000E+00  0.00000000E+00  0.00000000E+00
  0.00000000E+00  0.00000000E+00  0.00000000E+00
  0.00000000E+00  0.00000000E+00  0.00000000E+00
  0.00000000E+00  0.00000000E+00  0.00000000E+00
  0.00000000E+00  0.00000000E+00  0.00000000E+00
  0.00000000E+00  0.00000000E+00  0.00000000E+00
  0.00000000E+00  0.00000000E+00  0.00000000E+00
  0.00000000E+00  0.00000000E+00  0.00000000E+00
  0.00000000E+00  0.00000000E+00  0.00000000E+00
  0.00000000E+00  0.00000000E+00  0.00000000E+00
