 O N B 
 1.0
 17.527899999999772   0.000000000000000   0.000000000000000
 -8.763949999999658  15.179606674993195   0.000000000000000
  0.000000000000001   0.000000000000002  15.000000000000000
 O N B 
   2  48  47
Cartesian
  3.754903614122116   8.034852219134264   1.667297779554285 
  4.989331675001575   7.271020876430709   1.669955832344970 
  8.762158296741340  13.733658121992075   1.665204562768965 
 16.279609175890393   0.728233432207091   1.665184319559930 
 15.031492884445601   2.898332437611223   1.665457310038755 
 13.777551322217649   5.065668554843029   1.665289589875335 
 12.513690307041871   7.230339829620130   1.664631415587885 
 11.259880219837658   9.393953255923854   1.665405771880710 
 10.010771321078090  11.561084928975088   1.665692524705695 
 -6.264706682251098  13.723319266475441   1.664870412430755 
  1.249646808348577   0.715942945952726   1.665300360363765 
  0.011110325928954   2.900421755932395   1.664924462986935 
 -1.235108140373736   5.068536576437181   1.664918330829660 
 -2.495516413227233   7.231984749445583   1.665462968402970 
 -3.759867314761220   9.394401847649181   1.665341417934225 
 -5.012363352844380  11.558288045163566   1.664763974986890 
 -3.757670370823502  13.720508169772698   1.665025245471855 
  3.752588651352673   0.698950912133563   1.665819678352560 
  2.502608991332938   2.870735907666511   1.665287896892370 
  1.279963275368278   5.080372169859211   1.664491844541630 
  0.025690164618978   7.237122891992191   1.665232359935520 
 -1.254387596834633   9.398885514411024   1.666098447265365 
 -2.506740704573883  11.560386271340230   1.665386450152290 
 -1.249947669376044  13.725075538021212   1.665313037136810 
  6.266033502654487   0.697430275761516   1.665996089521755 
  5.014092645643341   2.835806232562093   1.665967281475035 
  3.680224497401253   4.953585912900927   1.663478854845435 
  2.499077927449030   7.238913304710590   1.660519388962860 
  1.242012830472400   9.415754368313239   1.666279578521670 
 -0.003060469012884  11.568853023359983   1.665956105768880 
  1.254834627010973  13.732688934136680   1.665283674075225 
  8.771601524451629   0.711558679445007   1.664891500036680 
  7.526390441284445   2.862412051576831   1.665239346059340 
  6.374510190701588   4.946645220493566   1.662844830017655 
  3.748832193217238   9.491761023698926   1.660513714132905 
  2.505748355671156  11.575631565882659   1.665076414340385 
  3.756963665283253  13.741870730657160   1.664983556152785 
 11.271375863598511   0.724701983192647   1.665257344497855 
 10.016634923940591   2.890154957523597   1.665357842030595 
  8.757788056675899   5.059868891664398   1.664968893271140 
  7.449077714512558   7.237834954676165   1.665611065159605 
  6.251122301964921   9.418488907795636   1.665217487690700 
  4.999391217429166  11.580275971156880   1.664551349211855 
  6.260564921813070  13.740267053167862   1.664715390427065 
 13.775681050572866   0.728603056490675   1.665427008685410 
 12.523798866173673   2.895895972624409   1.665753306693570 
 11.264522869552675   5.063637290970012   1.665316730493555 
  9.990824464764497   7.231302792280242   1.664970924310170 
  8.751120296331745   9.397269865858963   1.665867698400690 
  7.509363476186124  11.572273289691857   1.665403550612055 
  7.516324434158850  14.464304046073265   1.665217983467940 
 15.028644527621292   1.452347377096272   1.665720448074360 
 13.776442906750740   3.618749723335084   1.665949753712745 
 12.520062791206250   5.784917431960419   1.665151244740140 
 11.257454887862060   7.950703196666472   1.665095897809845 
 10.015303527838032  10.119737783328796   1.665993560766120 
  8.768456413962468  12.294071714028318   1.665877886343900 
 -7.512047691014832  14.451151351226928   1.665313759621695 
  0.004764055349337   1.448715603425343   1.665357548363295 
 -1.243681601632623   3.618516585244775   1.665249855869520 
 -2.497219199713992   5.785682875846255   1.665550535427015 
 -3.758684248845185   7.951312395536108   1.665300224223930 
 -5.012817340391653  10.116473486672154   1.665469167371595 
 -6.261811307111749  12.282013863452342   1.665152571804765 
 -5.011048166522109  14.437622663842189   1.665483035459640 
  2.503763174402498   1.422559979171843   1.665948784667370 
  1.266546001520844   3.614514427881635   1.665058147642950 
  0.015035562511413   5.786694619432581   1.664948562442455 
 -1.250222906810059   7.957169926036479   1.666102525206480 
 -2.513661429973999  10.119737783328796   1.666019934585315 
 -3.760962929602997  12.280481801344402   1.665052509876405 
 -2.504321828270969  14.438571968394465   1.665748990241115 
  5.010479591741113   1.399841016415082   1.666339757966145 
  3.781447630644125   3.545690802517206   1.665311701293765 
  2.562236972626623   5.780132155871384   1.663767237729900 
  1.242254102840347   7.994531820918745   1.664953092651735 
 -0.023484764709301  10.135791458541012   1.666551648876870 
 -1.260495918839659  12.288150904995687   1.665888507129510 
 -0.000495464014850  14.451121899349795   1.665336579589920 
  7.518104873191909   1.419700365954737   1.665742945308360 
  6.252771094753580   3.546250182161110   1.665417807543045 
  2.455952905350873  10.151999966375771   1.664896622077230 
  1.241575633896707  12.298793085465345   1.665769572602640 
  2.503189594700556  14.464676324360584   1.665501146549745 
 10.018669036773348   1.444260149325892   1.665228359522010 
  8.766012646438671   3.605540152323043   1.665258439827180 
  7.499832819963705   5.786557296572524   1.664967937018440 
  6.247570079052364   8.008125129900700   1.666413425798040 
  5.034512563779309  10.158469336402572   1.664261884304100 
  3.753218394298052  12.310885426896501   1.665098969355045 
  5.010695906241411  14.468101280574841   1.665117933755700 
 12.522835783344442   1.451149483442782   1.665745580416425 
 11.269938108021909   3.615639126278520   1.665905466431295 
 10.011314209152143   5.782703130813136   1.665212656696140 
  8.742133163249282   7.955322088822175   1.665873076003815 
  7.524138280399136  10.139690368621133   1.665862903292565 
  6.266471271205847  12.305394736833263   1.665046595976465 
