 B N Sn 
 1.0
 14.936314146199660   0.000000000000000   0.000000000000000
 -7.468157073099825  12.935227489513863   0.000000000000000
  0.000000000000001   0.000000000000001  13.341276283792837
 B N Sn 
 143 143   1
Cartesian
  1.245295765992531   0.706961448680536   5.002978606422314 
  4.883505534106371   7.392692104568770   5.002978606422314 
  6.243902192601578   0.652773478612356   5.002978606422314 
  9.924221944968917   7.168039198882800   5.002978606422314 
 11.220335602743395   0.729073785302418   5.002978606422314 
 -3.733967658280370   9.342172758025402  11.673616748318732 
  1.244737853299535   9.342189020852439  11.673616748318732 
  2.489269194568743   2.874433467373428  11.673616748318732 
  6.223571826350098   9.342283076729100  11.673616748318732 
  7.468331314778973   2.874433985749940  11.673616748318732 
 12.447076760179050   2.874536073952221  11.673616748318732 
 -1.281301034939920   9.338978441104871   5.002978606422314 
  0.030120337034618   2.891884982364720   5.002978606422314 
  5.018856684843110   2.736144254211087   5.002978606422314 
  3.685867991010898   9.445694448633814   5.002978606422314 
  8.680429323006280   9.322351214201412   5.002978606422314 
  9.986186048720846   2.859469237898665   5.002978606422314 
 -4.978719932321711  11.498100949765572  11.673616748318732 
  0.000092609925675  11.498033459044485  11.673616748318732 
  1.244581310484689   5.030296122172424  11.673616748318732 
  6.223680520279351   5.030291651489979  11.673616748318732 
  4.978876780468376  11.498140105961792  11.673616748318732 
 11.202423657053082   5.030366168230212  11.673616748318732 
 -1.254491233983381   5.036719540739026   5.002978606422314 
 -2.510400706211067  11.467841519312717   5.002978606422314 
  2.479760855413563  11.532831615365410   5.002978606422314 
  7.460039178803562  11.502481417862345   5.002978606422314 
  8.730725221759927   4.998725810093187   5.002978606422314 
  0.000038903193858   7.186216326839419  11.673616748318732 
  1.244709896917672   0.718699988428113  11.673616748318732 
  4.978814927741491   7.186462106359905  11.673616748318732 
  6.223556254630701   0.718622588087947  11.673616748318732 
  9.957721139180208   7.186281382168843  11.673616748318732 
 -2.524379903532785   7.180108217578054   5.002978606422314 
 11.202366490506666   0.718699313515428  11.673616748318732 
  3.726458982399459   0.667954567513693   5.002978606422314 
  2.389613083953874   7.290127756426624   5.002978606422314 
  7.422328483139784   7.159778345424377   5.002978606422314 
  8.738219893148257   0.692862584920220   5.002978606422314 
  2.489366285769496   7.186374912032719  11.673616748318732 
 13.707498779456747   0.735381977052083   5.002978606422314 
 -1.244600511934675   9.342134501197027  11.673616748318732 
  0.000009964492115   2.874500750671907  11.673616748318732 
  4.978880686790900   2.874409483289217  11.673616748318732 
  3.734112819517042   9.342290146107050  11.673616748318732 
  8.712977114258136   9.342241275751668  11.673616748318732 
  9.957734127236495   2.874506217721772  11.673616748318732 
 -3.768685107506767   9.322128629368988   5.002978606422314 
  1.197883820662537   9.392733674736823   5.002978606422314 
  2.515636822156988   2.845951870593288   5.002978606422314 
  6.205000457940336   9.373409426963653   5.002978606422314 
  7.533759653374683   2.780950587399024   5.002978606422314 
 12.469380245407233   2.879866183818554   5.002978606422314 
 -1.244618294896076   5.030342893363117  11.673616748318732 
 -2.489317216492755  11.498047074521335  11.673616748318732 
  2.489471585364204  11.498089389445674  11.673616748318732 
  3.734026292109434   5.030336082580244  11.673616748318732 
  7.468251029518423  11.498142883353262  11.673616748318732 
 -5.001576597555503  11.470738751967083   5.002978606422314 
  8.713054695934607   5.030372262036334  11.673616748318732 
 -0.012290318008771  11.490884172268142   5.002978606422314 
  1.233099337926866   5.067371955891441   5.002978606422314 
 -0.047690575792870   7.204973357666482   5.002978606422314 
  6.354626240933110   4.844636296278201   5.002978606422314 
  4.980080334687540  11.530298682665283   5.002978606422314 
 11.202075012795715   5.021085229644517   5.002978606422314 
 -2.489255212519025   7.186221571417070  11.673616748318732 
  3.734079656697033   0.718668024239101  11.673616748318732 
  7.468320728155099   7.186331980464613  11.673616748318732 
  8.712987607893067   0.718643436706633  11.673616748318732 
 13.691731026293455   0.718731647184700  11.673616748318732 
  0.000517746538380   1.437620488927654   1.667659671667977 
  3.734007658354105   7.906061820029398   1.657875643731840 
  4.979194849801392   1.436588221929091   1.667085940345209 
  8.713404561145042   7.905181466605064   1.667608613215559 
  9.958118820066620   1.437276119055686   1.667616981875126 
 -4.978380539545484  10.061042084606285   8.338174937509535 
  0.000099318686839  10.061021254865606   8.338275841704377 
  1.244984664197569   3.593287228681189   8.338235931295372 
  4.978942160063651  10.061567343574191   8.339855426284897 
  6.224468518179424   3.592457076550247   8.348081569112788 
 11.202940626686054   3.593181415102268   8.338143455178860 
 -2.489109681088646  10.060891846259969   1.667646309171726 
 -1.244110953351759   3.593380633695787   1.667659671667977 
  3.734173616759080   3.590243296165059   1.671383619785524 
  2.489374802331089  10.061407969943851   1.667114141761818 
  7.468618413080434  10.061392261527029   1.667819044309967 
  8.713658310421634   3.592849219306071   1.666101786559731 
 -6.223080760414351  12.216991616875855   8.338247497343771 
 -1.244393110060944  12.216545371091572   8.338275841704377 
  0.000022965557881   5.749322795233071   8.338449940412294 
  4.981937296423912   5.750817836845908   8.350009171285935 
  3.734391350354950  12.217088309058466   8.338340230969502 
  9.958344811429438   5.749059642641055   8.338138168534648 
 -2.488858046304301   5.749128149259452   1.667709715500857 
 -3.733788407297463  12.216717368992459   1.667742534474498 
  1.244994392414067  12.216777838278773   1.667715526013682 
  2.486943017591945   5.750510062677125   1.671383619785524 
  6.223871008194397  12.217182968752462   1.667813757665768 
  7.469391807469473   5.749146354663796   1.657752392970639 
 -1.244449375379864   7.905055688446825   8.338214678370129 
  0.000517746538381   1.437620488927655   8.338297541176638 
  3.734007658354105   7.906061820029398   8.348081569112788 
  4.979194849801393   1.436588221929092   8.338871272499418 
  8.713404561145042   7.905181466605065   8.338348599629056 
 -3.733615000092542   7.905044926762889   1.667782275335107 
  9.958118820066620   1.437276119055687   8.338340230969502 
  2.489685386974409   1.437100987644655   1.667507272432333 
  1.244333628835445   7.905557615860888   1.667085940345209 
  6.224217005914950   7.905852375260738   1.657752392970639 
  7.468736609942792   1.436900329892316   1.667114141761818 
  1.244333628835446   7.905557615860888   8.338871272499418 
 12.447485822860191   1.437569295223015   1.667583763015473 
 -2.489109681088645  10.060891846259969   8.338310903672902 
 -1.244110953351759   3.593380633695788   8.338297541176638 
  3.734173616759080   3.590243296165060   8.334573593059105 
  2.489374802331090  10.061407969943851   8.338843071082810 
  7.468618413080435  10.061392261527029   8.338138168534648 
  8.713658310421634   3.592849219306072   8.339855426284897 
 -4.978380539545485  10.061042084606285   1.667782275335107 
  0.000099318686838  10.061021254865606   1.667681371140238 
  1.244984664197568   3.593287228681188   1.667721281549256 
  4.978942160063650  10.061567343574191   1.666101786559731 
  6.224468518179423   3.592457076550246   1.657875643731840 
 11.202940626686054   3.593181415102267   1.667813757665768 
 -2.488858046304300   5.749128149259453   8.338247497343771 
 -3.733788407297463  12.216717368992459   8.338214678370129 
  1.244994392414067  12.216777838278773   8.338241686830944 
  2.486943017591945   5.750510062677126   8.334573593059105 
  6.223871008194398  12.217182968752462   8.338143455178860 
 -6.223080760414352  12.216991616875855   1.667709715500857 
  7.469391807469473   5.749146354663797   8.348204819874002 
 -1.244393110060945  12.216545371091572   1.667681371140238 
  0.000022965557880   5.749322795233070   1.667507272432333 
 -1.244449375379864   7.905055688446824   1.667742534474498 
  4.981937296423911   5.750817836845907   1.655948041558692 
  3.734391350354949  12.217088309058466   1.667616981875126 
  9.958344811429438   5.749059642641054   1.667819044309967 
 -3.733615000092541   7.905044926762890   8.338174937509535 
  2.489685386974409   1.437100987644656   8.338449940412294 
  6.224217005914951   7.905852375260739   8.348204819874002 
  7.468736609942793   1.436900329892317   8.338843071082810 
 12.447485822860191   1.437569295223015   8.338373449829154 
  1.245045530571338   0.718666208032511   1.666702758828501 
  4.979384575961519   7.187594256912408   1.645655523165288 
  6.224038586939183   0.718547493852942   1.667281257323590 
  9.957775193369892   7.186347763310525   1.668501944199173 
 11.202732357575069   0.718910546965857   1.667125899154871 
 -3.733903877179186   9.342209582061336   8.338346815064279 
  1.244913985938593   9.342644280002139   8.338675955521039 
  2.489779878085471   2.874440747900431   8.340780095540966 
  6.223806566205525   9.342639193634492   8.339597775383485 
  7.468917241364998   2.874306897425944   8.341411807497119 
 12.447404742619238   2.874755789821271   8.338704520758398 
 -1.244482048389481   9.342325193076183   1.667632163063819 
  0.000479262851760   2.874771700206186   1.666716110793669 
  4.979665112701030   2.874413075634051   1.663650189616379 
  3.734295721092933   9.342861117577323   1.664545405347522 
  8.713061629108017   9.342254897482258   1.668501944199173 
  9.958119883524713   2.874581284414751   1.667728731036846 
 -4.978521763775755  11.498040183049133   8.338521526495725 
  0.000343596309128  11.498178366100534   8.338329316808455 
  1.244842957364392   5.030734746807703   8.340780095540966 
  6.224945815528751   5.030218906043479   8.360301689679327 
  4.979134668275592  11.498436647360553   8.338228481807782 
 11.202620203120638   5.030528751969713   8.337934146619931 
 -1.244479732749990   5.030650450831369   1.666702758828501 
 -2.489092840708534  11.498054321021355   1.667632163063819 
  2.489714372943256  11.498428714318301   1.667605535658844 
  3.734945677752366   5.030866890128663   1.682790591771400 
  7.468490104200851  11.498231805371027   1.668023066224683 
  8.713480472149115   5.030397494261702   1.666359437461142 
  0.000226224519273   7.186633604072101   8.338646546715776 
  1.245045530571338   0.718666208032512   8.339254454016139 
  4.979384575961520   7.187594256912408   8.360301689679327 
  6.224038586939184   0.718547493852943   8.338675955521039 
  9.957775193369892   7.186347763310526   8.337455268645455 
 -2.489208753766187   7.186423573770318   1.667435686348903 
 11.202732357575069   0.718910546965858   8.338831313689758 
  3.734534690043656   0.718621610649251   1.667310666128851 
  2.489761609786461   7.187052448625836   1.663650189616379 
  7.468466612542588   7.186416206854982   1.664255631853526 
  8.713402865642419   0.718684034481515   1.667605535658844 
  2.489761609786461   7.187052448625836   8.342307023228249 
 13.692085297037762   0.718905830375373   1.667252692086242 
 -1.244482048389481   9.342325193076183   8.338325049780808 
  0.000479262851761   2.874771700206187   8.339241102050959 
  4.979665112701031   2.874413075634052   8.342307023228249 
  3.734295721092934   9.342861117577323   8.341411807497119 
  8.713061629108017   9.342254897482258   8.337455268645455 
  9.958119883524713   2.874581284414752   8.338228481807782 
 -3.733903877179187   9.342209582061336   1.667610397780336 
  1.244913985938592   9.342644280002139   1.667281257323590 
  2.489779878085471   2.874440747900430   1.665177117303649 
  6.223806566205524   9.342639193634492   1.666359437461142 
  7.468917241364997   2.874306897425943   1.664545405347522 
 12.447404742619238   2.874755789821270   1.667252692086242 
 -1.244479732749990   5.030650450831370   8.339254454016139 
 -2.489092840708534  11.498054321021355   8.338325049780808 
  2.489714372943256  11.498428714318301   8.338351677185784 
  3.734945677752366   5.030866890128664   8.323166621073229 
  7.468490104200852  11.498231805371027   8.337934146619931 
 -4.978521763775756  11.498040183049133   1.667435686348903 
  8.713480472149115   5.030397494261703   8.339597775383485 
  0.000343596309127  11.498178366100534   1.667627896036186 
  1.244842957364392   5.030734746807702   1.665177117303649 
  0.000226224519272   7.186633604072100   1.667310666128851 
  6.224945815528750   5.030218906043478   1.645655523165288 
  4.979134668275591  11.498436647360553   1.667728731036846 
 11.202620203120638   5.030528751969713   1.668023066224683 
 -2.489208753766187   7.186423573770319   8.338521526495725 
  3.734534690043656   0.718621610649252   8.338646546715776 
  7.468466612542589   7.186416206854983   8.341701580991089 
  8.713402865642419   0.718684034481515   8.338351677185784 
 13.692085297037762   0.718905830375374   8.338704520758398 
  0.015124783408021   1.448979962665231   5.002978606422314 
  3.639338697727045   8.041289253104893   5.002978606422314 
  4.999249723262836   1.329953740002631   5.002978606422314 
  8.669562218928643   7.879869078524521   5.002978606422314 
  9.975079535701004   1.428242834147195   5.002978606422314 
 -4.978705004033415  10.060790267811475  11.673616748318732 
  0.000102513164531  10.060798393979789  11.673616748318732 
  1.244771934805972   3.593164409309693  11.673616748318732 
  4.978870582072601  10.060787708367515  11.673616748318732 
  6.223544417476030   3.593115085867751  11.673616748318732 
 11.202335610647969   3.593187171022824  11.673616748318732 
 -2.525891555417802  10.039655821214730   5.002978606422314 
 -1.226969842086583   3.600350961830137   5.002978606422314 
  3.799863271877667   3.429061752226408   5.002978606422314 
  2.443109885423759  10.119845064083258   5.002978606422314 
  7.451713990088564  10.066385962865057   5.002978606422314 
  8.741037779164198   3.559580790586843   5.002978606422314 
 -6.223402317259970  12.216647315724899  11.673616748318732 
 -1.244584516010726  12.216659568033315  11.673616748318732 
  0.000076969302694   5.749014420017897  11.673616748318732 
  4.978754827359565   5.748980437474920  11.673616748318732 
  3.734162042820826  12.216653713429327  11.673616748318732 
  9.957658446874960   5.749047908377763  11.673616748318732 
 -2.503597636989935   5.746330639650332   5.002978606422314 
 -3.754811266390222  12.174625352206599   5.002978606422314 
  1.236108606784129  12.211647627553385   5.002978606422314 
  2.380200533479169   5.887989744744987   5.002978606422314 
  6.227526640758281  12.234755131356863   5.002978606422314 
  7.475509577672724   5.707923401499826   5.002978606422314 
 -1.244606907348655   7.904883387400552  11.673616748318732 
  0.000074119361595   1.437282408275338  11.673616748318732 
  3.734115460787286   7.904932520685867  11.673616748318732 
  4.978866142759747   1.437314341008787  11.673616748318732 
  8.712957084503177   7.904923115845400  11.673616748318732 
 -3.772529071364445   7.888950434147134   5.002978606422314 
  9.957627795444358   1.437294830720413  11.673616748318732 
  2.490070115126911   1.402512759680837   5.002978606422314 
  1.162012895298467   7.976242886711399   5.002978606422314 
  6.191575766357570   7.931761996253240   5.002978606422314 
  7.496212159537174   1.367615189476927   5.002978606422314 
  1.244798112883826   7.904909887672546  11.673616748318732 
 12.463337357627758   1.446721183088130   5.002978606422314 
 -2.489302114846509  10.060780744578066  11.673616748318732 
 -1.244625553373587   3.593165481617041  11.673616748318732 
  3.734181413109022   3.593245177306818  11.673616748318732 
  2.489453406196525  10.060801852278081  11.673616748318732 
  7.468265068633091  10.060803719518240  11.673616748318732 
  8.712947337531464   3.593177048550773  11.673616748318732 
 -5.011775814647689  10.035388756627990   5.002978606422314 
 -0.043847865267739  10.072444963776423   5.002978606422314 
  1.277553177497097   3.612090668601776   5.002978606422314 
  4.963820590020081  10.101912873407002   5.002978606422314 
  6.294244430197829   3.442857635159597   5.002978606422314 
 11.219986382182837   3.587561204467293   5.002978606422314 
 -2.489316998270377   5.749021823437841  11.673616748318732 
 -3.734016390365021  12.216667092828702  11.673616748318732 
  1.244774537646091  12.216650905069319  11.673616748318732 
  2.489546621094820   5.749015873943351  11.673616748318732 
  6.223573484948778  12.216656131533510  11.673616748318732 
 -6.232873270145992  12.205625511705261   5.002978606422314 
  7.468276118773153   5.749059684008908  11.673616748318732 
 -1.256473479916035  12.172774138906723   5.002978606422314 
 -0.029738954454415   5.766950093568584   5.002978606422314 
 -1.291413560759310   7.907895366805230   5.002978606422314 
  3.735048653961758  12.236293362118467   5.002978606422314 
  9.954217272151164   5.731923132224736   5.002978606422314 
 -3.733995312077912   7.904889840671121  11.673616748318732 
  2.489445328076578   1.437301943867151  11.673616748318732 
  6.223584102577903   7.904929495834439  11.673616748318732 
  7.468250998579261   1.437271461669520  11.673616748318732 
 12.447030804893879   1.437306590477679  11.673616748318732 
  4.292709233582491   5.352891829231360   5.002978606422314 
Generated by cif2cell 2.0.0.  :  Failed to get author information, No journal information. Species order: B N Sn 
 1.0
 14.936314146199660   0.000000000000000   0.000000000000000
 -7.468157073099825  12.935227489513863   0.000000000000000
  0.000000000000001   0.000000000000001  13.341276283792837
 B N Sn 
 143 143   1
Cartesian
  1.245295765992531   0.706961448680536   5.002978606422314 
  4.883505534106371   7.392692104568770   5.002978606422314 
  6.243902192601578   0.652773478612356   5.002978606422314 
  9.924221944968917   7.168039198882800   5.002978606422314 
 11.220335602743395   0.729073785302418   5.002978606422314 
 -3.733967658280370   9.342172758025402  11.673616748318732 
  1.244737853299535   9.342189020852439  11.673616748318732 
  2.489269194568743   2.874433467373428  11.673616748318732 
  6.223571826350098   9.342283076729100  11.673616748318732 
  7.468331314778973   2.874433985749940  11.673616748318732 
 12.447076760179050   2.874536073952221  11.673616748318732 
 -1.281301034939920   9.338978441104871   5.002978606422314 
  0.030120337034618   2.891884982364720   5.002978606422314 
  5.018856684843110   2.736144254211087   5.002978606422314 
  3.685867991010898   9.445694448633814   5.002978606422314 
  8.680429323006280   9.322351214201412   5.002978606422314 
  9.986186048720846   2.859469237898665   5.002978606422314 
 -4.978719932321711  11.498100949765572  11.673616748318732 
  0.000092609925675  11.498033459044485  11.673616748318732 
  1.244581310484689   5.030296122172424  11.673616748318732 
  6.223680520279351   5.030291651489979  11.673616748318732 
  4.978876780468376  11.498140105961792  11.673616748318732 
 11.202423657053082   5.030366168230212  11.673616748318732 
 -1.254491233983381   5.036719540739026   5.002978606422314 
 -2.510400706211067  11.467841519312717   5.002978606422314 
  2.479760855413563  11.532831615365410   5.002978606422314 
  7.460039178803562  11.502481417862345   5.002978606422314 
  8.730725221759927   4.998725810093187   5.002978606422314 
  0.000038903193858   7.186216326839419  11.673616748318732 
  1.244709896917672   0.718699988428113  11.673616748318732 
  4.978814927741491   7.186462106359905  11.673616748318732 
  6.223556254630701   0.718622588087947  11.673616748318732 
  9.957721139180208   7.186281382168843  11.673616748318732 
 -2.524379903532785   7.180108217578054   5.002978606422314 
 11.202366490506666   0.718699313515428  11.673616748318732 
  3.726458982399459   0.667954567513693   5.002978606422314 
  2.389613083953874   7.290127756426624   5.002978606422314 
  7.422328483139784   7.159778345424377   5.002978606422314 
  8.738219893148257   0.692862584920220   5.002978606422314 
  2.489366285769496   7.186374912032719  11.673616748318732 
 13.707498779456747   0.735381977052083   5.002978606422314 
 -1.244600511934675   9.342134501197027  11.673616748318732 
  0.000009964492115   2.874500750671907  11.673616748318732 
  4.978880686790900   2.874409483289217  11.673616748318732 
  3.734112819517042   9.342290146107050  11.673616748318732 
  8.712977114258136   9.342241275751668  11.673616748318732 
  9.957734127236495   2.874506217721772  11.673616748318732 
 -3.768685107506767   9.322128629368988   5.002978606422314 
  1.197883820662537   9.392733674736823   5.002978606422314 
  2.515636822156988   2.845951870593288   5.002978606422314 
  6.205000457940336   9.373409426963653   5.002978606422314 
  7.533759653374683   2.780950587399024   5.002978606422314 
 12.469380245407233   2.879866183818554   5.002978606422314 
 -1.244618294896076   5.030342893363117  11.673616748318732 
 -2.489317216492755  11.498047074521335  11.673616748318732 
  2.489471585364204  11.498089389445674  11.673616748318732 
  3.734026292109434   5.030336082580244  11.673616748318732 
  7.468251029518423  11.498142883353262  11.673616748318732 
 -5.001576597555503  11.470738751967083   5.002978606422314 
  8.713054695934607   5.030372262036334  11.673616748318732 
 -0.012290318008771  11.490884172268142   5.002978606422314 
  1.233099337926866   5.067371955891441   5.002978606422314 
 -0.047690575792870   7.204973357666482   5.002978606422314 
  6.354626240933110   4.844636296278201   5.002978606422314 
  4.980080334687540  11.530298682665283   5.002978606422314 
 11.202075012795715   5.021085229644517   5.002978606422314 
 -2.489255212519025   7.186221571417070  11.673616748318732 
  3.734079656697033   0.718668024239101  11.673616748318732 
  7.468320728155099   7.186331980464613  11.673616748318732 
  8.712987607893067   0.718643436706633  11.673616748318732 
 13.691731026293455   0.718731647184700  11.673616748318732 
  0.000517746538380   1.437620488927654   1.667659671667977 
  3.734007658354105   7.906061820029398   1.657875643731840 
  4.979194849801392   1.436588221929091   1.667085940345209 
  8.713404561145042   7.905181466605064   1.667608613215559 
  9.958118820066620   1.437276119055686   1.667616981875126 
 -4.978380539545484  10.061042084606285   8.338174937509535 
  0.000099318686839  10.061021254865606   8.338275841704377 
  1.244984664197569   3.593287228681189   8.338235931295372 
  4.978942160063651  10.061567343574191   8.339855426284897 
  6.224468518179424   3.592457076550247   8.348081569112788 
 11.202940626686054   3.593181415102268   8.338143455178860 
 -2.489109681088646  10.060891846259969   1.667646309171726 
 -1.244110953351759   3.593380633695787   1.667659671667977 
  3.734173616759080   3.590243296165059   1.671383619785524 
  2.489374802331089  10.061407969943851   1.667114141761818 
  7.468618413080434  10.061392261527029   1.667819044309967 
  8.713658310421634   3.592849219306071   1.666101786559731 
 -6.223080760414351  12.216991616875855   8.338247497343771 
 -1.244393110060944  12.216545371091572   8.338275841704377 
  0.000022965557881   5.749322795233071   8.338449940412294 
  4.981937296423912   5.750817836845908   8.350009171285935 
  3.734391350354950  12.217088309058466   8.338340230969502 
  9.958344811429438   5.749059642641055   8.338138168534648 
 -2.488858046304301   5.749128149259452   1.667709715500857 
 -3.733788407297463  12.216717368992459   1.667742534474498 
  1.244994392414067  12.216777838278773   1.667715526013682 
  2.486943017591945   5.750510062677125   1.671383619785524 
  6.223871008194397  12.217182968752462   1.667813757665768 
  7.469391807469473   5.749146354663796   1.657752392970639 
 -1.244449375379864   7.905055688446825   8.338214678370129 
  0.000517746538381   1.437620488927655   8.338297541176638 
  3.734007658354105   7.906061820029398   8.348081569112788 
  4.979194849801393   1.436588221929092   8.338871272499418 
  8.713404561145042   7.905181466605065   8.338348599629056 
 -3.733615000092542   7.905044926762889   1.667782275335107 
  9.958118820066620   1.437276119055687   8.338340230969502 
  2.489685386974409   1.437100987644655   1.667507272432333 
  1.244333628835445   7.905557615860888   1.667085940345209 
  6.224217005914950   7.905852375260738   1.657752392970639 
  7.468736609942792   1.436900329892316   1.667114141761818 
  1.244333628835446   7.905557615860888   8.338871272499418 
 12.447485822860191   1.437569295223015   1.667583763015473 
 -2.489109681088645  10.060891846259969   8.338310903672902 
 -1.244110953351759   3.593380633695788   8.338297541176638 
  3.734173616759080   3.590243296165060   8.334573593059105 
  2.489374802331090  10.061407969943851   8.338843071082810 
  7.468618413080435  10.061392261527029   8.338138168534648 
  8.713658310421634   3.592849219306072   8.339855426284897 
 -4.978380539545485  10.061042084606285   1.667782275335107 
  0.000099318686838  10.061021254865606   1.667681371140238 
  1.244984664197568   3.593287228681188   1.667721281549256 
  4.978942160063650  10.061567343574191   1.666101786559731 
  6.224468518179423   3.592457076550246   1.657875643731840 
 11.202940626686054   3.593181415102267   1.667813757665768 
 -2.488858046304300   5.749128149259453   8.338247497343771 
 -3.733788407297463  12.216717368992459   8.338214678370129 
  1.244994392414067  12.216777838278773   8.338241686830944 
  2.486943017591945   5.750510062677126   8.334573593059105 
  6.223871008194398  12.217182968752462   8.338143455178860 
 -6.223080760414352  12.216991616875855   1.667709715500857 
  7.469391807469473   5.749146354663797   8.348204819874002 
 -1.244393110060945  12.216545371091572   1.667681371140238 
  0.000022965557880   5.749322795233070   1.667507272432333 
 -1.244449375379864   7.905055688446824   1.667742534474498 
  4.981937296423911   5.750817836845907   1.655948041558692 
  3.734391350354949  12.217088309058466   1.667616981875126 
  9.958344811429438   5.749059642641054   1.667819044309967 
 -3.733615000092541   7.905044926762890   8.338174937509535 
  2.489685386974409   1.437100987644656   8.338449940412294 
  6.224217005914951   7.905852375260739   8.348204819874002 
  7.468736609942793   1.436900329892317   8.338843071082810 
 12.447485822860191   1.437569295223015   8.338373449829154 
  1.245045530571338   0.718666208032511   1.666702758828501 
  4.979384575961519   7.187594256912408   1.645655523165288 
  6.224038586939183   0.718547493852942   1.667281257323590 
  9.957775193369892   7.186347763310525   1.668501944199173 
 11.202732357575069   0.718910546965857   1.667125899154871 
 -3.733903877179186   9.342209582061336   8.338346815064279 
  1.244913985938593   9.342644280002139   8.338675955521039 
  2.489779878085471   2.874440747900431   8.340780095540966 
  6.223806566205525   9.342639193634492   8.339597775383485 
  7.468917241364998   2.874306897425944   8.341411807497119 
 12.447404742619238   2.874755789821271   8.338704520758398 
 -1.244482048389481   9.342325193076183   1.667632163063819 
  0.000479262851760   2.874771700206186   1.666716110793669 
  4.979665112701030   2.874413075634051   1.663650189616379 
  3.734295721092933   9.342861117577323   1.664545405347522 
  8.713061629108017   9.342254897482258   1.668501944199173 
  9.958119883524713   2.874581284414751   1.667728731036846 
 -4.978521763775755  11.498040183049133   8.338521526495725 
  0.000343596309128  11.498178366100534   8.338329316808455 
  1.244842957364392   5.030734746807703   8.340780095540966 
  6.224945815528751   5.030218906043479   8.360301689679327 
  4.979134668275592  11.498436647360553   8.338228481807782 
 11.202620203120638   5.030528751969713   8.337934146619931 
 -1.244479732749990   5.030650450831369   1.666702758828501 
 -2.489092840708534  11.498054321021355   1.667632163063819 
  2.489714372943256  11.498428714318301   1.667605535658844 
  3.734945677752366   5.030866890128663   1.682790591771400 
  7.468490104200851  11.498231805371027   1.668023066224683 
  8.713480472149115   5.030397494261702   1.666359437461142 
  0.000226224519273   7.186633604072101   8.338646546715776 
  1.245045530571338   0.718666208032512   8.339254454016139 
  4.979384575961520   7.187594256912408   8.360301689679327 
  6.224038586939184   0.718547493852943   8.338675955521039 
  9.957775193369892   7.186347763310526   8.337455268645455 
 -2.489208753766187   7.186423573770318   1.667435686348903 
 11.202732357575069   0.718910546965858   8.338831313689758 
  3.734534690043656   0.718621610649251   1.667310666128851 
  2.489761609786461   7.187052448625836   1.663650189616379 
  7.468466612542588   7.186416206854982   1.664255631853526 
  8.713402865642419   0.718684034481515   1.667605535658844 
  2.489761609786461   7.187052448625836   8.342307023228249 
 13.692085297037762   0.718905830375373   1.667252692086242 
 -1.244482048389481   9.342325193076183   8.338325049780808 
  0.000479262851761   2.874771700206187   8.339241102050959 
  4.979665112701031   2.874413075634052   8.342307023228249 
  3.734295721092934   9.342861117577323   8.341411807497119 
  8.713061629108017   9.342254897482258   8.337455268645455 
  9.958119883524713   2.874581284414752   8.338228481807782 
 -3.733903877179187   9.342209582061336   1.667610397780336 
  1.244913985938592   9.342644280002139   1.667281257323590 
  2.489779878085471   2.874440747900430   1.665177117303649 
  6.223806566205524   9.342639193634492   1.666359437461142 