Species order: X N B                    
   2.51242800000000     
     5.9449720136058266    0.0000000000000000    0.0000000000000000
    -2.9724860068029120    5.1484967885702053   -0.0000000000000001
     0.0000000000000000    0.0000000000000009    5.3101128803662583
   Ga   N    B 
     1   143   143
Direct
  0.4752155550752168  0.4042744442043558  0.3750000000000000
  0.1114721428869470  0.0557214755013991  0.1239628502909707
  0.6114567761192919  0.5557494397122890  0.1256772386215511
  0.4447838596203142  0.0556933037427044  0.1239440805062909
  0.9447792156922027  0.5557267880691039  0.1245459967097883
  0.7781303316613437  0.0557318324973216  0.1250865277021777
  0.1114468992122755  0.7223901162726362  0.6252988020120230
  0.4447838596203142  0.7224238892111291  0.6260559194936989
  0.2781578191862379  0.2223956132645610  0.6257098744700326
  0.7781151717593002  0.7223878077184331  0.6254451937807460
  0.6114402763551016  0.2223637143365280  0.6256439215196985
  0.9448125947545000  0.2224126020283062  0.6252336993314952
  0.2781154023271958  0.7224032260615311  0.1243089809459898
  0.1115003332603556  0.2224168332967297  0.1240823375000693
  0.4448077916964077  0.2223653115603763  0.1246468320498294
  0.6114402763551016  0.7224098953522735  0.1243560784802864
  0.9447792156922027  0.7223857609564136  0.1245459967097883
  0.7781215272764850  0.2224006909516594  0.1247639581383387
  0.1114536842992340  0.8890476401919002  0.6256949427112167
  0.4447827725576367  0.8890580529455017  0.6258131910191003
  0.2781578191862379  0.3890955392549071  0.6257098744700326
  0.6114567761192919  0.3890406697407298  0.6243227613780269
  0.7781215272764850  0.8890541696582106  0.6252360418615449
  0.9447933633773363  0.3890727665390042  0.6255659998560978
  0.1114721428869473  0.3890840007187378  0.1239628502909707
  0.2781154023271958  0.8890455095990428  0.1243089809459898
  0.6114512131505022  0.8890707060047622  0.1244560077658715
  0.4448900720801348  0.3891117027065540  0.1284710502967520
  0.9447933633773362  0.8890539301720511  0.1244340001438738
  0.7781151717593002  0.3890606973741992  0.1245548062193206
  0.2781283893425422  0.5557570317140907  0.6261150052440871
  0.1114721428869470  0.0557214755013991  0.6260371497090013
  0.6114567761192919  0.5557494397122890  0.6243227613780737
  0.4447838596203142  0.0556933037427046  0.6260559194936989
  0.9447792156922027  0.5557267880691039  0.6254540032901936
  0.1114536842992492  0.5557393774404475  0.1243050572888478
  0.7781303316613437  0.0557318324973224  0.6249134722975410
  0.2781283893425504  0.0557046909618085  0.1238849947561322
  0.4448077916964077  0.5557758134692607  0.1246468320498320
  0.7781048122199747  0.5557190727766081  0.1248771630003996
  0.6114512131505022  0.0557138404785407  0.1244560077658714
  0.4448077916964077  0.5557758134692607  0.6253531679501014
  0.9448125947545000  0.0557333260596013  0.1247663006683063
  0.2781154023271958  0.7224032260615311  0.6256910190540431
  0.1115003332603556  0.2224168332967297  0.6259176624997780
  0.4448077916964077  0.2223653115603763  0.6253531679501014
  0.6114402763551016  0.7224098953522735  0.6256439215197063
  0.9447792156922027  0.7223857609564136  0.6254540032901936
  0.7781215272764850  0.2224006909516607  0.6252360418615451
  0.1114468992122755  0.7223901162726362  0.1247011979879833
  0.4447838596203142  0.7224238892111382  0.1239440805062922
  0.2781578191862379  0.2223956132645610  0.1242901255299240
  0.7781151717593002  0.7223878077184331  0.1245548062193206
  0.6114402763551016  0.2223637143365280  0.1243560784802864
  0.9448125947545000  0.2224126020283062  0.1247663006683063
  0.1114721428869470  0.3890840007187378  0.6260371497090013
  0.2781154023271958  0.8890455095990428  0.6256910190540431
  0.6114512131505022  0.8890707060047622  0.6255439922339618
  0.4448900720801348  0.3891117027065540  0.6215289497032794
  0.9447933633773363  0.8890539301720511  0.6255659998560978
  0.1114536842992349  0.8890476401919002  0.1243050572888459
  0.7781151717593002  0.3890606973741992  0.6254451937807460
  0.4447827725576367  0.8890580529455017  0.1241868089806887
  0.2781578191862379  0.3890955392549071  0.1242901255299273
  0.2781283893425422  0.5557570317140907  0.1238849947561323
  0.6114567761192919  0.3890406697407298  0.1256772386215658
  0.7781215272764850  0.8890541696582106  0.1247639581383387
  0.9447933633773541  0.3890727665390042  0.1244340001438323
  0.1114536842992492  0.5557393774404475  0.6256949427112167
  0.2781283893425422  0.0557046909618119  0.6261150052440871
  0.7781048122199771  0.5557190727766081  0.6251228369995897
  0.6114512131505022  0.0557138404785412  0.6255439922339618
  0.9448125947545000  0.0557333260596011  0.6252336993314952
  0.0553399834879716  0.1110598102179733  0.3750000000000000
  0.5540190402641301  0.6121680556715368  0.3750000000000000
  0.3867986551932480  0.1055388277889940  0.3750000000000000
  0.8867688537287384  0.6100510935311820  0.3750000000000000
  0.7218627166132501  0.1106504036007810  0.3750000000000000
  0.0555088853993773  0.7777555779221852  0.8750000000000000
  0.3888549668187126  0.7777583924708209  0.8750000000000000
  0.2221723742704576  0.2777528538018045  0.8750000000000000
  0.7221859194610242  0.7777601828310197  0.8750000000000000
  0.5555160846283258  0.2777631733037704  0.8750000000000000
  0.8888506437295292  0.2777584828248570  0.8750000000000000
  0.2200130023965310  0.7766731678650622  0.3750000000000000
  0.0553399834879662  0.2776135066033176  0.3750000000000000
  0.3862751220603585  0.2673032497264887  0.3750000000000000
  0.5547440194797689  0.7785604250016481  0.3750000000000000
  0.8873633882058264  0.7770989381086862  0.3750000000000000
  0.7215264192071834  0.2768233031965304  0.3750000000000000
  0.0555098627488206  0.9444232068830657  0.8750000000000000
  0.3888549668187126  0.9444299076818796  0.8750000000000000
  0.2221751113826176  0.4444150898867616  0.8750000000000000
  0.5555012231728242  0.4444172782530764  0.8750000000000000
  0.7221879678712438  0.9444276527483312  0.8750000000000000
  0.8888473635269085  0.4444223265245020  0.8750000000000000
  0.0539415381108001  0.4439862734284318  0.3750000000000000
  0.2199211540244191  0.9422288770150737  0.3750000000000000
  0.5548132981722594  0.9440733157527997  0.3750000000000000
  0.3862751220603585  0.4523052056674032  0.3750000000000000
  0.8883411268756994  0.9444289657807992  0.3750000000000000
  0.7206021012148034  0.4438047370399292  0.3750000000000000
  0.2221799644939757  0.6110853309303607  0.8750000000000000
  0.0555070022379863  0.1110872391796320  0.8750000000000000
  0.5555160846283258  0.6110862446577109  0.8750000000000000
  0.3888524515909311  0.1111026785486466  0.8750000000000000
  0.8888388435513541  0.6110860884422937  0.8750000000000000
  0.0533180769315281  0.6102007149454665  0.3750000000000000
  0.7221879678712438  0.1110936484562886  0.8750000000000000
  0.2203804466574185  0.1088147768808363  0.3750000000000000
  0.3867986551932476  0.6145931607376817  0.3750000000000000
  0.7206021012148034  0.6101306975084616  0.3750000000000000
  0.5547440194797689  0.1095169278113389  0.3750000000000000
  0.3888524515909311  0.6110831063756634  0.8750000000000000
  0.8886559995442023  0.1109946664388336  0.3750000000000000
  0.2221810512822478  0.7777571923077554  0.8750000000000000
  0.0555070022379875  0.2777530963917131  0.8750000000000000
  0.3888489970538814  0.2777696589451006  0.8750000000000000
  0.5555214471527117  0.7777592575939897  0.8750000000000000
  0.8888473635269085  0.7777583703355772  0.8750000000000000
  0.7221859194610257  0.2777590699629436  0.8750000000000000
  0.0533180769315248  0.7764506953192329  0.3750000000000000
  0.3872471156975531  0.7782223853513435  0.3750000000000000
  0.2230782112069317  0.2782057722701156  0.3750000000000000
  0.7215264192071972  0.7780364493437609  0.3750000000000000
  0.5540190402641301  0.2751843179261056  0.3750000000000000
  0.8883411268756994  0.2772454944289343  0.3750000000000000
  0.0555098627488205  0.4444199891991818  0.8750000000000000
  0.2221799644939757  0.9444279668971387  0.8750000000000000
  0.5555227135535886  0.9444280234430106  0.8750000000000000
  0.3888489970538814  0.4444126714421792  0.8750000000000000
  0.8888506437295292  0.9444254942376756  0.8750000000000000
  0.0539415381108001  0.9432885980157087  0.3750000000000000
  0.7221738239030639  0.4444199220081972  0.8750000000000000
  0.3872471156975533  0.9423580636796082  0.3750000000000000
  0.2203804466574185  0.4448990031098308  0.3750000000000000
  0.2199211540244711  0.6110256103429470  0.3750000000000000
  0.7218627166132501  0.9445456463453730  0.3750000000000000
  0.8873633882058264  0.4435977834308314  0.3750000000000000
  0.0555088853993773  0.6110866408105414  0.8750000000000000
  0.2221751113826176  0.1110933548292782  0.8750000000000000
  0.7221738239030639  0.6110872352279187  0.8750000000000000
  0.5555214471527117  0.1110955228922207  0.8750000000000000
  0.8888497866839229  0.1110915600086015  0.8750000000000000
  0.1097104865330674  0.0543965993844076  0.3750000000000000
  0.6140796091239094  0.5645343394146753  0.3750000000000000
  0.4432652159621670  0.0521192845346844  0.3750000000000000
  0.9429528384853222  0.5546349709008189  0.3750000000000000
  0.7778027215559016  0.0555680274447316  0.3750000000000000
  0.1110839563015266  0.7222086448174239  0.8750000000000000
  0.4443955224379844  0.7222185807827386  0.8750000000000000
  0.2776634064260861  0.2221623821297525  0.8750000000000000
  0.7777796255122625  0.7222651028379762  0.8750000000000000
  0.6110861985829168  0.2221616661780840  0.8750000000000000
  0.9444068231210035  0.2221914095519807  0.8750000000000000
  0.2758955197150968  0.7218831821093911  0.3750000000000000
  0.1115463028527219  0.2224398180930309  0.3750000000000000
  0.4407386675276696  0.2141667241257936  0.3750000000000000
  0.6111365031740931  0.7249148212165278  0.3750000000000000
  0.9429528384853222  0.7216512009178867  0.3750000000000000
  0.7777270352101665  0.2212952549357561  0.3750000000000000
  0.1110718648569873  0.8888785510567275  0.8750000000000000
  0.4444081170158600  0.8888707251746287  0.8750000000000000
  0.2776634064260861  0.3888343576295971  0.8750000000000000
  0.6110818602669436  0.3888350465930983  0.8750000000000000
  0.7777683061806040  0.8889203890285514  0.8750000000000000
  0.9444259403331802  0.3888525157357384  0.8750000000000000
  0.1097104865330733  0.3886472204821708  0.3750000000000000
  0.2758955197150968  0.8873456709390412  0.3750000000000000
  0.6109196865453760  0.8895660188600273  0.3750000000000000
  0.9434159056174446  0.8886826524882111  0.3750000000000000
  0.7774665885572596  0.3872607531555445  0.3750000000000000
  0.2777039957903440  0.5555231913849137  0.8750000000000000
  0.1110444434111243  0.0555314003173251  0.8750000000000000
  0.6110818602669436  0.5555801470070350  0.8750000000000000
  0.4443955224379844  0.0555102749886461  0.8750000000000000
  0.9444402126527880  0.5555393944393718  0.8750000000000000
  0.1090991072597686  0.5549339605983066  0.3750000000000000
  0.7777601061210659  0.0555467197272061  0.8750000000000000
  0.2753520931102992  0.0526832563728325  0.3750000000000000
  0.4407386675276696  0.5599052767353542  0.3750000000000000
  0.7774241246278997  0.5553787289802856  0.3750000000000000
  0.6109196865453760  0.0546870010187661  0.3750000000000000
  0.4443660691877013  0.5555433998013252  0.8750000000000000
  0.9444099622741328  0.0557893715571949  0.3750000000000000
  0.2777319317563579  0.7222018324558179  0.8750000000000000
  0.1110272379696750  0.2221802856514382  0.8750000000000000
  0.4443660691876991  0.2221560027200105  0.8750000000000000
  0.6110861985829168  0.7222578657381508  0.8750000000000000
  0.9444402126527880  0.7222341515467150  0.8750000000000000
  0.7777683061806040  0.2221812504852783  0.8750000000000000
  0.1091123206844616  0.7212228270085919  0.3750000000000000
  0.4432652159621670  0.7244792647611331  0.3750000000000000
  0.2766339954434355  0.2200286969516336  0.3750000000000000
  0.7774665885572596  0.7235391687351278  0.3750000000000000
  0.6111365031740931  0.2195550152909083  0.3750000000000000
  0.9444099622741422  0.2219539240502215  0.3750000000000000
  0.1110444434111243  0.3888463764271669  0.8750000000000000
  0.2777319317563579  0.8888634326336141  0.8750000000000000
  0.6110894103027363  0.8888976891163359  0.8750000000000000
  0.4443283120757754  0.3888308227046539  0.8750000000000000
  0.9444259403331802  0.8889067579312754  0.8750000000000000
  0.1090991072597686  0.8874984799945222  0.3750000000000000
  0.7777796255122625  0.3888478560074420  0.8750000000000000
  0.4435123586061684  0.8884228459697129  0.3750000000000000
  0.2766339954434355  0.3899386318249335  0.3750000000000000
  0.2753520931102992  0.5560021700707271  0.3750000000000000
  0.6140796091239094  0.3828786030430836  0.3750000000000000
  0.7777270352101665  0.8897651136076725  0.3750000000000000
  0.9434159056174356  0.3880665864627154  0.3750000000000000
  0.1110718648569895  0.5555266471337821  0.8750000000000000
  0.2777039957903414  0.0555141377387997  0.8750000000000000
  0.7777795226973645  0.5555564280152310  0.8750000000000000
  0.6110894103027363  0.0555250545195063  0.8750000000000000
  0.9444068231210035  0.0555487469025292  0.8750000000000000
  0.0559287726167484  0.1112954814484145  0.1241330454111760
  0.5558035008531556  0.6114678441046492  0.1242581053712171
  0.3891179411997777  0.1110575465987935  0.1237937854676461
  0.8894329472467872  0.6113831402899695  0.1242370047345728
  0.7225734362949967  0.1112400121075495  0.1246055967086363
  0.0559946196377663  0.7779993997174579  0.6256615112927273
  0.3891750110996389  0.7779838209510764  0.6260702272957075
  0.2225085894863844  0.2779209614099560  0.6258973501359986
  0.7226118973027076  0.7780906167041295  0.6258399483874584
  0.5558035008531556  0.2776689900817105  0.6257418946288615
  0.8892981670435448  0.2779449163245122  0.6255102701058364
  0.2225725987491503  0.7779529660411068  0.1243242139279598
  0.0559287726167489  0.2779666245016599  0.1241330454111760
  0.3889803949860040  0.2775824564231508  0.1255264289585518
  0.5558379950609220  0.7780605259219454  0.1239193197610817
  0.8893696351323739  0.7780677475549835  0.1241744856746935
  0.7226118973027076  0.2778546139319011  0.1241600516124224
  0.0559540349942281  0.9446431720102222  0.6259619346819738
  0.3891750110996389  0.9445245234820282  0.6260702272957075
  0.2225093984149353  0.4446549609477813  0.6262060835504916
  0.5560242663326352  0.4446787998329819  0.6247162618539364
  0.7225734362949967  0.9446667575208781  0.6253944032915301
  0.8893696351323739  0.4446352209110409  0.6258255143252111
  0.0559540349942276  0.4446441963174241  0.1240380653179087
  0.2225522534429825  0.9445587359960820  0.1239757378839546
  0.5558587566274820  0.9445960449804446  0.1241591211718496
  0.3889803949860040  0.4447312718960569  0.1255264289585511
  0.8892981670435448  0.9446865840525235  0.1244897298941188
  0.7227710514799240  0.4446423723849953  0.1243137769568682
  0.2225522534429825  0.6113268507796773  0.6260242621162003
  0.0559287726167489  0.1112954814484167  0.6258669545887783
  0.5558035008531556  0.6114678441046493  0.6257418946288615
  0.3891179411997777  0.1110575465987932  0.6262062145323908
  0.8894329472467872  0.6113831402899695  0.6257629952655787
  0.0559946196377651  0.6113285532538164  0.1243384887074139
  0.7225734362949967  0.1112400121075495  0.6253944032915301
  0.2225093984149353  0.1111877708006109  0.1237939164495323
  0.3891179411997777  0.6113937279345824  0.1237937854676461
  0.7227710514799242  0.6114620124280239  0.1243137769568682
  0.5558379950609220  0.1111108024725101  0.1239193197610817
  0.3891179411997777  0.6113937279345824  0.6262062145324314
  0.8892769500254896  0.1113051416793714  0.1247932692989853
  0.2225725987491503  0.7779529660411068  0.6256757860716200
  0.0559287726167484  0.2779666245016599  0.6258669545887783
  0.3889803949860040  0.2775824564231508  0.6244735710411766
  0.5558379950609220  0.7780605259219454  0.6260806802390374
  0.8893696351323739  0.7780677475549835  0.6258255143252111
  0.7226118973027076  0.2778546139319011  0.6258399483874584
  0.0559946196377663  0.7779993997174579  0.1243384887074139
  0.3891750110996389  0.7779838209510764  0.1239297727042856
  0.2225085894863844  0.2779209614099560  0.1241026498640939
  0.7226118973027076  0.7780906167041295  0.1241600516124224
  0.5558035008531556  0.2776689900817105  0.1242581053712138
  0.8892981670435448  0.2779449163245122  0.1244897298941164
  0.0559540349942281  0.4446441963174241  0.6259619346819738
  0.2225522534429825  0.9445587359960820  0.6260242621162003
  0.5558587566274820  0.9445960449804446  0.6258408788282713
  0.3889803949860040  0.4447312718960569  0.6244735710411766
  0.8892981670435448  0.9446865840525235  0.6255102701058364
  0.0559540349942264  0.9446431720102222  0.1240380653179087
  0.7227710514799242  0.4446423723849953  0.6256862230432071
  0.3891750110996389  0.9445245234820282  0.1239297727042856
  0.2225093984149353  0.4446549609477813  0.1237939164495326
  0.2225522534429825  0.6113268507796773  0.1239757378839546
  0.5560242663326352  0.4446787998329819  0.1252837381461580
  0.7225734362949967  0.9446667575208781  0.1246055967086363
  0.8893696351323739  0.4446352209110409  0.1241744856746935
  0.0559946196377651  0.6113285532538164  0.6256615112927273
  0.2225093984149353  0.1111877708006109  0.6262060835504916
  0.7227710514799242  0.6114620124280239  0.6256862230432071
  0.5558379950609220  0.1111108024725102  0.6260806802390374
  0.8892769500254896  0.1113051416793714  0.6252067307007642
 
  0.00000000E+00  0.00000000E+00  0.00000000E+00
  0.00000000E+00  0.00000000E+00  0.00000000E+00
  0.00000000E+00  0.00000000E+00  0.00000000E+00
  0.00000000E+00  0.00000000E+00  0.00000000E+00
  0.00000000E+00  0.00000000E+00  0.00000000E+00
  0.00000000E+00  0.00000000E+00  0.00000000E+00
  0.00000000E+00  0.00000000E+00  0.00000000E+00
  0.00000000E+00  0.00000000E+00  0.00000000E+00
  0.00000000E+00  0.00000000E+00  0.00000000E+00
  0.00000000E+00  0.00000000E+00  0.00000000E+00
  0.00000000E+00  0.00000000E+00  0.00000000E+00
  0.00000000E+00  0.00000000E+00  0.00000000E+00
  0.00000000E+00  0.00000000E+00  0.00000000E+00
  0.00000000E+00  0.00000000E+00  0.00000000E+00
  0.00000000E+00  0.00000000E+00  0.00000000E+00
  0.00000000E+00  0.00000000E+00  0.00000000E+00
  0.00000000E+00  0.00000000E+00  0.00000000E+00
  0.00000000E+00  0.00000000E+00  0.00000000E+00
  0.00000000E+00  0.00000000E+00  0.00000000E+00
  0.00000000E+00  0.00000000E+00  0.00000000E+00
  0.00000000E+00  0.00000000E+00  0.00000000E+00
  0.00000000E+00  0.00000000E+00  0.00000000E+00
  0.00000000E+00  0.00000000E+00  0.00000000E+00
  0.00000000E+00  0.00000000E+00  0.00000000E+00
  0.00000000E+00  0.00000000E+00  0.00000000E+00
  0.00000000E+00  0.00000000E+00  0.00000000E+00
  0.00000000E+00  0.00000000E+00  0.00000000E+00
  0.00000000E+00  0.00000000E+00  0.00000000E+00
  0.00000000E+00  0.00000000E+00  0.00000000E+00
  0.00000000E+00  0.00000000E+00  0.00000000E+00
  0.00000000E+00  0.00000000E+00  0.00000000E+00
  0.00000000E+00  0.00000000E+00  0.00000000E+00
  0.00000000E+00  0.00000000E+00  0.00000000E+00
  0.00000000E+00  0.00000000E+00  0.00000000E+00
  0.00000000E+00  0.00000000E+00  0.00000000E+00
  0.00000000E+00  0.00000000E+00  0.00000000E+00
  0.00000000E+00  0.00000000E+00  0.00000000E+00
  0.00000000E+00  0.00000000E+00  0.00000000E+00
  0.00000000E+00  0.00000000E+00  0.00000000E+00
  0.00000000E+00  0.00000000E+00  0.00000000E+00
  0.00000000E+00  0.00000000E+00  0.00000000E+00
  0.00000000E+00  0.00000000E+00  0.00000000E+00
  0.00000000E+00  0.00000000E+00  0.00000000E+00
  0.00000000E+00  0.00000000E+00  0.00000000E+00
  0.00000000E+00  0.00000000E+00  0.00000000E+00
  0.00000000E+00  0.00000000E+00  0.00000000E+00
  0.00000000E+00  0.00000000E+00  0.00000000E+00
  0.00000000E+00  0.00000000E+00  0.00000000E+00
  0.00000000E+00  0.00000000E+00  0.00000000E+00
  0.00000000E+00  0.00000000E+00  0.00000000E+00
  0.00000000E+00  0.00000000E+00  0.00000000E+00
  0.00000000E+00  0.00000000E+00  0.00000000E+00
  0.00000000E+00  0.00000000E+00  0.00000000E+00
  0.00000000E+00  0.00000000E+00  0.00000000E+00
  0.00000000E+00  0.00000000E+00  0.00000000E+00
  0.00000000E+00  0.00000000E+00  0.00000000E+00
  0.00000000E+00  0.00000000E+00  0.00000000E+00
  0.00000000E+00  0.00000000E+00  0.00000000E+00
  0.00000000E+00  0.00000000E+00  0.00000000E+00
  0.00000000E+00  0.00000000E+00  0.00000000E+00
  0.00000000E+00  0.00000000E+00  0.00000000E+00
  0.00000000E+00  0.00000000E+00  0.00000000E+00
  0.00000000E+00  0.00000000E+00  0.00000000E+00
  0.00000000E+00  0.00000000E+00  0.00000000E+00
  0.00000000E+00  0.00000000E+00  0.00000000E+00
  0.00000000E+00  0.00000000E+00  0.00000000E+00
  0.00000000E+00  0.00000000E+00  0.00000000E+00
  0.00000000E+00  0.00000000E+00  0.00000000E+00
  0.00000000E+00  0.00000000E+00  0.00000000E+00
  0.00000000E+00  0.00000000E+00  0.00000000E+00
  0.00000000E+00  0.00000000E+00  0.00000000E+00
  0.00000000E+00  0.00000000E+00  0.00000000E+00
  0.00000000E+00  0.00000000E+00  0.00000000E+00
  0.00000000E+00  0.00000000E+00  0.00000000E+00
  0.00000000E+00  0.00000000E+00  0.00000000E+00
  0.00000000E+00  0.00000000E+00  0.00000000E+00
  0.00000000E+00  0.00000000E+00  0.00000000E+00
  0.00000000E+00  0.00000000E+00  0.00000000E+00
  0.00000000E+00  0.00000000E+00  0.00000000E+00
  0.00000000E+00  0.00000000E+00  0.00000000E+00
  0.00000000E+00  0.00000000E+00  0.00000000E+00
  0.00000000E+00  0.00000000E+00  0.00000000E+00
  0.00000000E+00  0.00000000E+00  0.00000000E+00
  0.00000000E+00  0.00000000E+00  0.00000000E+00
  0.00000000E+00  0.00000000E+00  0.00000000E+00
  0.00000000E+00  0.00000000E+00  0.00000000E+00
  0.00000000E+00  0.00000000E+00  0.00000000E+00
  0.00000000E+00  0.00000000E+00  0.00000000E+00
  0.00000000E+00  0.00000000E+00  0.00000000E+00
  0.00000000E+00  0.00000000E+00  0.00000000E+00
  0.00000000E+00  0.00000000E+00  0.00000000E+00
  0.00000000E+00  0.00000000E+00  0.00000000E+00
  0.00000000E+00  0.00000000E+00  0.00000000E+00
  0.00000000E+00  0.00000000E+00  0.00000000E+00
  0.00000000E+00  0.00000000E+00  0.00000000E+00
  0.00000000E+00  0.00000000E+00  0.00000000E+00
  0.00000000E+00  0.00000000E+00  0.00000000E+00
  0.00000000E+00  0.00000000E+00  0.00000000E+00
  0.00000000E+00  0.00000000E+00  0.00000000E+00
  0.00000000E+00  0.00000000E+00  0.00000000E+00
  0.00000000E+00  0.00000000E+00  0.00000000E+00
  0.00000000E+00  0.00000000E+00  0.00000000E+00
  0.00000000E+00  0.00000000E+00  0.00000000E+00
  0.00000000E+00  0.00000000E+00  0.00000000E+00
  0.00000000E+00  0.00000000E+00  0.00000000E+00
  0.00000000E+00  0.00000000E+00  0.00000000E+00
  0.00000000E+00  0.00000000E+00  0.00000000E+00
  0.00000000E+00  0.00000000E+00  0.00000000E+00
  0.00000000E+00  0.00000000E+00  0.00000000E+00
  0.00000000E+00  0.00000000E+00  0.00000000E+00
  0.00000000E+00  0.00000000E+00  0.00000000E+00
  0.00000000E+00  0.00000000E+00  0.00000000E+00
  0.00000000E+00  0.00000000E+00  0.00000000E+00
  0.00000000E+00  0.00000000E+00  0.00000000E+00
  0.00000000E+00  0.00000000E+00  0.00000000E+00
  0.00000000E+00  0.00000000E+00  0.00000000E+00
  0.00000000E+00  0.00000000E+00  0.00000000E+00
  0.00000000E+00  0.00000000E+00  0.00000000E+00
  0.00000000E+00  0.00000000E+00  0.00000000E+00
  0.00000000E+00  0.00000000E+00  0.00000000E+00
  0.00000000E+00  0.00000000E+00  0.00000000E+00
  0.00000000E+00  0.00000000E+00  0.00000000E+00
  0.00000000E+00  0.00000000E+00  0.00000000E+00
  0.00000000E+00  0.00000000E+00  0.00000000E+00
  0.00000000E+00  0.00000000E+00  0.00000000E+00
  0.00000000E+00  0.00000000E+00  0.00000000E+00
  0.00000000E+00  0.00000000E+00  0.00000000E+00
  0.00000000E+00  0.00000000E+00  0.00000000E+00
  0.00000000E+00  0.00000000E+00  0.00000000E+00
  0.00000000E+00  0.00000000E+00  0.00000000E+00
  0.00000000E+00  0.00000000E+00  0.00000000E+00
  0.00000000E+00  0.00000000E+00  0.00000000E+00
  0.00000000E+00  0.00000000E+00  0.00000000E+00
  0.00000000E+00  0.00000000E+00  0.00000000E+00
  0.00000000E+00  0.00000000E+00  0.00000000E+00
  0.00000000E+00  0.00000000E+00  0.00000000E+00
  0.00000000E+00  0.00000000E+00  0.00000000E+00
  0.00000000E+00  0.00000000E+00  0.00000000E+00
  0.00000000E+00  0.00000000E+00  0.00000000E+00
  0.00000000E+00  0.00000000E+00  0.00000000E+00
  0.00000000E+00  0.00000000E+00  0.00000000E+00
  0.00000000E+00  0.00000000E+00  0.00000000E+00
  0.00000000E+00  0.00000000E+00  0.00000000E+00
  0.00000000E+00  0.00000000E+00  0.00000000E+00
  0.00000000E+00  0.00000000E+00  0.00000000E+00
  0.00000000E+00  0.00000000E+00  0.00000000E+00
  0.00000000E+00  0.00000000E+00  0.00000000E+00
  0.00000000E+00  0.00000000E+00  0.00000000E+00
  0.00000000E+00  0.00000000E+00  0.00000000E+00
  0.00000000E+00  0.00000000E+00  0.00000000E+00
  0.00000000E+00  0.00000000E+00  0.00000000E+00
  0.00000000E+00  0.00000000E+00  0.00000000E+00
  0.00000000E+00  0.00000000E+00  0.00000000E+00
  0.00000000E+00  0.00000000E+00  0.00000000E+00
  0.00000000E+00  0.00000000E+00  0.00000000E+00
  0.00000000E+00  0.00000000E+00  0.00000000E+00
  0.00000000E+00  0.00000000E+00  0.00000000E+00
  0.00000000E+00  0.00000000E+00  0.00000000E+00
  0.00000000E+00  0.00000000E+00  0.00000000E+00
  0.00000000E+00  0.00000000E+00  0.00000000E+00
  0.00000000E+00  0.00000000E+00  0.00000000E+00
  0.00000000E+00  0.00000000E+00  0.00000000E+00
  0.00000000E+00  0.00000000E+00  0.00000000E+00
  0.00000000E+00  0.00000000E+00  0.00000000E+00
  0.00000000E+00  0.00000000E+00  0.00000000E+00
  0.00000000E+00  0.00000000E+00  0.00000000E+00
  0.00000000E+00  0.00000000E+00  0.00000000E+00
  0.00000000E+00  0.00000000E+00  0.00000000E+00
  0.00000000E+00  0.00000000E+00  0.00000000E+00
  0.00000000E+00  0.00000000E+00  0.00000000E+00
  0.00000000E+00  0.00000000E+00  0.00000000E+00
  0.00000000E+00  0.00000000E+00  0.00000000E+00
  0.00000000E+00  0.00000000E+00  0.00000000E+00
  0.00000000E+00  0.00000000E+00  0.00000000E+00
  0.00000000E+00  0.00000000E+00  0.00000000E+00
  0.00000000E+00  0.00000000E+00  0.00000000E+00
  0.00000000E+00  0.00000000E+00  0.00000000E+00
  0.00000000E+00  0.00000000E+00  0.00000000E+00
  0.00000000E+00  0.00000000E+00  0.00000000E+00
  0.00000000E+00  0.00000000E+00  0.00000000E+00
  0.00000000E+00  0.00000000E+00  0.00000000E+00
  0.00000000E+00  0.00000000E+00  0.00000000E+00
  0.00000000E+00  0.00000000E+00  0.00000000E+00
  0.00000000E+00  0.00000000E+00  0.00000000E+00
  0.00000000E+00  0.00000000E+00  0.00000000E+00
  0.00000000E+00  0.00000000E+00  0.00000000E+00
  0.00000000E+00  0.00000000E+00  0.00000000E+00
  0.00000000E+00  0.00000000E+00  0.00000000E+00
  0.00000000E+00  0.00000000E+00  0.00000000E+00
  0.00000000E+00  0.00000000E+00  0.00000000E+00
  0.00000000E+00  0.00000000E+00  0.00000000E+00
  0.00000000E+00  0.00000000E+00  0.00000000E+00
  0.00000000E+00  0.00000000E+00  0.00000000E+00
  0.00000000E+00  0.00000000E+00  0.00000000E+00
  0.00000000E+00  0.00000000E+00  0.00000000E+00
  0.00000000E+00  0.00000000E+00  0.00000000E+00
  0.00000000E+00  0.00000000E+00  0.00000000E+00
  0.00000000E+00  0.00000000E+00  0.00000000E+00
  0.00000000E+00  0.00000000E+00  0.00000000E+00
  0.00000000E+00  0.00000000E+00  0.00000000E+00
  0.00000000E+00  0.00000000E+00  0.00000000E+00
  0.00000000E+00  0.00000000E+00  0.00000000E+00
  0.00000000E+00  0.00000000E+00  0.00000000E+00
  0.00000000E+00  0.00000000E+00  0.00000000E+00
  0.00000000E+00  0.00000000E+00  0.00000000E+00
  0.00000000E+00  0.00000000E+00  0.00000000E+00
  0.00000000E+00  0.00000000E+00  0.00000000E+00
  0.00000000E+00  0.00000000E+00  0.00000000E+00
  0.00000000E+00  0.00000000E+00  0.00000000E+00
  0.00000000E+00  0.00000000E+00  0.00000000E+00
  0.00000000E+00  0.00000000E+00  0.00000000E+00
  0.00000000E+00  0.00000000E+00  0.00000000E+00
  0.00000000E+00  0.00000000E+00  0.00000000E+00
  0.00000000E+00  0.00000000E+00  0.00000000E+00
  0.00000000E+00  0.00000000E+00  0.00000000E+00
  0.00000000E+00  0.00000000E+00  0.00000000E+00
  0.00000000E+00  0.00000000E+00  0.00000000E+00
  0.00000000E+00  0.00000000E+00  0.00000000E+00
  0.00000000E+00  0.00000000E+00  0.00000000E+00
  0.00000000E+00  0.00000000E+00  0.00000000E+00
  0.00000000E+00  0.00000000E+00  0.00000000E+00
  0.00000000E+00  0.00000000E+00  0.00000000E+00
  0.00000000E+00  0.00000000E+00  0.00000000E+00
  0.00000000E+00  0.00000000E+00  0.00000000E+00
  0.00000000E+00  0.00000000E+00  0.00000000E+00
  0.00000000E+00  0.00000000E+00  0.00000000E+00
  0.00000000E+00  0.00000000E+00  0.00000000E+00
  0.00000000E+00  0.00000000E+00  0.00000000E+00
  0.00000000E+00  0.00000000E+00  0.00000000E+00
  0.00000000E+00  0.00000000E+00  0.00000000E+00
  0.00000000E+00  0.00000000E+00  0.00000000E+00
  0.00000000E+00  0.00000000E+00  0.00000000E+00
  0.00000000E+00  0.00000000E+00  0.00000000E+00
  0.00000000E+00  0.00000000E+00  0.00000000E+00
  0.00000000E+00  0.00000000E+00  0.00000000E+00
  0.00000000E+00  0.00000000E+00  0.00000000E+00
  0.00000000E+00  0.00000000E+00  0.00000000E+00
  0.00000000E+00  0.00000000E+00  0.00000000E+00
  0.00000000E+00  0.00000000E+00  0.00000000E+00
  0.00000000E+00  0.00000000E+00  0.00000000E+00
  0.00000000E+00  0.00000000E+00  0.00000000E+00
  0.00000000E+00  0.00000000E+00  0.00000000E+00
  0.00000000E+00  0.00000000E+00  0.00000000E+00
  0.00000000E+00  0.00000000E+00  0.00000000E+00
  0.00000000E+00  0.00000000E+00  0.00000000E+00
  0.00000000E+00  0.00000000E+00  0.00000000E+00
  0.00000000E+00  0.00000000E+00  0.00000000E+00
  0.00000000E+00  0.00000000E+00  0.00000000E+00