B N O Se                                
   1.0000000000000000     
     8.7639499999999995  -15.1796066749929999    0.0000000000000000
     8.7639499999999995   15.1796066749929999    0.0000000000000000
     0.0000000000000000    0.0000000000000000   15.0000000000000000
   B    N    O    Se
    48    48     1     1
Selective dynamics
Direct
  0.9063249130858689  0.9538725205261622  0.1109676934547958   T   T   T
  0.9044145750098763  0.0955874461861250  0.1109969574268769   T   T   T
  0.9038843937877798  0.2380932039495791  0.1110100335600219   T   T   T
  0.9044997928033071  0.3810013991850069  0.1109448998132244   T   T   T
  0.9066938117093483  0.5242926955414914  0.1109804981340931   T   T   T
  0.9079557040734944  0.6679917163399895  0.1110141828382294   T   T   T
  0.9087702457528951  0.8123014102514979  0.1109941812677458   T   T   T
  0.0481951444686231  0.9518068767273767  0.1109643897277977   T   T   T
  0.0461295006698550  0.0936771081101204  0.1109676934547958   T   T   T
  0.0453531231957809  0.2367255211028318  0.1109461990474693   T   T   T
  0.0459114149493637  0.3802828805976003  0.1109597549033461   T   T   T
  0.0474899335596800  0.5237213739062182  0.1109706529930573   T   T   T
  0.0491267894675696  0.6667403886479839  0.1110186097315419   T   T   T
  0.0492544226343835  0.8095318822703748  0.1110061671354258   T   T   T
  0.1904701389256215  0.9507475985616227  0.1110061671354258   T   T   T
  0.1877006109445000  0.0912317754431181  0.1109941812677458   T   T   T
  0.1855379292696864  0.2333076100472723  0.1109343927439076   T   T   T
  0.1862877348209398  0.3783258173462342  0.1109584676111083   T   T   T
  0.1880512134820651  0.5231621611542950  0.1110191476090010   T   T   T
  0.1911228955913485  0.6662952685416925  0.1110196140216592   T   T   T
  0.1912304586843364  0.8087715625116658  0.1109654315483656   T   T   T
  0.3332616325490059  0.9508752317284481  0.1110186097315419   T   T   T
  0.3320103048569997  0.0920463171224893  0.1110141828382294   T   T   T
  0.3262077689277347  0.2293504632345883  0.1110082782570764   T   T   T
  0.3245056496800854  0.3715052177066585  0.1111654948668723   T   T   T
  0.3270301086277426  0.5216549212015081  0.1111770604042146   T   T   T
  0.3338574227246750  0.6661445984723157  0.1110722771308397   T   T   T
  0.3337067526553071  0.8088791256046505  0.1110196140216592   T   T   T
  0.4762806472907719  0.9525120876363297  0.1109706529930573   T   T   T
  0.4757093256555079  0.0933082094866545  0.1109804981340931   T   T   T
  0.4748278902522477  0.2331027676682798  0.1109748557519696   T   T   T
  0.4622039422870124  0.3595932601554296  0.1116887805851334   T   T   T
  0.4783470999955018  0.6729719125692659  0.1111770604042146   T   T   T
  0.4768398600427035  0.8119508077139648  0.1110191476090010   T   T   T
  0.6197191405984001  0.9540906062466427  0.1109597549033446   T   T   T
  0.6190006220109953  0.0955022283926810  0.1109448998132244   T   T   T
  0.6188588250396417  0.2374032111393807  0.1109108684995953   T   T   T
  0.6196987027107911  0.3803033184852076  0.1111070493915824   T   T   T
  0.6404087610405708  0.5377980789099756  0.1116887805851351   T   T   T
  0.6284968034893600  0.6754963715169001  0.1111654948668723   T   T   T
  0.6216762038497714  0.8137142863750753  0.1109584676111083   T   T   T
  0.7632765000931521  0.9546488980002247  0.1109461990474693   T   T   T
  0.7619088172464134  0.0961176274082228  0.1110100335600219   T   T   T
  0.7616950178291770  0.2383070033668131  0.1109982874996285   T   T   T
  0.7625988100566180  0.3811431961563335  0.1109108684995953   T   T   T
  0.7668992535277319  0.5251741309447562  0.1109748557519694   T   T   T
  0.7706515579614082  0.6737942522692579  0.1110082782570764   T   T   T
  0.7666944111487263  0.8144640919263234  0.1109343927439076   T   T   T
  0.9541636653076898  0.9063353468436958  0.1109597015969314   T   T   T
  0.9520033106529855  0.0479980912650140  0.1109697445292412   T   T   T
  0.9509481038621479  0.1902055820418872  0.1109774906349391   T   T   T
  0.9512470244853583  0.3330050378783171  0.1109503975132151   T   T   T
  0.9528449836509946  0.4760623710060003  0.1109424846555685   T   T   T
  0.9543917878569710  0.6194539963407951  0.1110090765209956   T   T   T
  0.9548043895430574  0.7630307743097345  0.1110062568480310   T   T   T
  0.0958233713378175  0.9041780305801914  0.1109657526455595   T   T   T
  0.0936660550743209  0.0458377366103220  0.1109597015969314   T   T   T
  0.0917361507536590  0.1879386043075344  0.1109242872043171   T   T   T
  0.0920851999844510  0.3316209028805120  0.1109279151193389   T   T   T
  0.0936030071814015  0.4754524995148878  0.1109541182490262   T   T   T
  0.0960569680651550  0.6188027053165668  0.1109876305827784   T   T   T
  0.0964480982984644  0.7616467519751999  0.1109647136027711   T   T   T
  0.2383546499427976  0.9035533036195270  0.1109647136027711   T   T   T
  0.2369706276082739  0.0451970123749655  0.1110062568480310   T   T   T
  0.2326317149333852  0.1848887673378640  0.1109310365084319   T   T   T
  0.2307268882107867  0.3275568657346847  0.1109249266523851   T   T   T
  0.2328650046693453  0.4740179212972370  0.1110035171701178   T   T   T
  0.2382807855093461  0.6184863373219907  0.1110297535059576   T   T   T
  0.2387170279157818  0.7612843740022434  0.1109794259647853   T   T   T
  0.3811986966014225  0.9039444338528198  0.1109876305827784   T   T   T
  0.3805474055772219  0.0456096140610477  0.1110090765209956   T   T   T
  0.3787420405434005  0.1863425320753541  0.1109728380467657   T   T   T
  0.3701058215391866  0.3221946378247704  0.1111758653957897   T   T   T
  0.3604223246785083  0.4635575142741953  0.1114422677160985   T   T   T
  0.3816586464952908  0.6183427554226985  0.1110762737317594   T   T   T
  0.3815150645959994  0.7617206164086512  0.1110297535059576   T   T   T
  0.5245489024020982  0.9063983947365984  0.1109541182490262   T   T   T
  0.5239390309109957  0.0471564182670127  0.1109424846555685   T   T   T
  0.5236090239215206  0.1878627283195644  0.1108965940641215   T   T   T
  0.5230373237783597  0.3274032839300267  0.1111682917972477   T   T   T
  0.5364438876428081  0.6395790772394776  0.1114422677160985   T   T   T
  0.5259834806197808  0.7671363972486535  0.1110035171701178   T   T   T
  0.6683804990364882  0.9079162019335509  0.1109279151193389   T   T   T
  0.6669963640386797  0.0487543774326606  0.1109503975132151   T   T   T
  0.6666640620656687  0.1905492430144146  0.1109408898494461   T   T   T
  0.6669774277164833  0.3330239742005058  0.1108872197358689   T   T   T
  0.6725981179869779  0.4769640781386408  0.1111682917972477   T   T   T
  0.6778067640922378  0.6298955803788017  0.1111758653957897   T   T   T
  0.6724445361823169  0.7692745137072147  0.1109249266523851   T   T   T
  0.8120627976104514  0.9082652511643411  0.1109242872043171   T   T   T
  0.8097958198761298  0.0490532980558431  0.1109774906349391   T   T   T
  0.8090963953126102  0.1909050066053795  0.1110126405202937   T   T   T
  0.8094521589035859  0.3333373398513250  0.1109408898494461   T   T   T
  0.8121386735984277  0.4763923779954875  0.1108965940641215   T   T   T
  0.8136588698426483  0.6212593613746096  0.1109728380467657   T   T   T
  0.8151126345801548  0.7673696869846115  0.1109310365084319   T   T   T
  0.4640028736045814  0.5359991475924287  0.1110901966422632   T   T   T
  0.5219988286604638  0.4780025732565434  0.1113545805775885   T   T   T

  0.00000000E+00  0.00000000E+00  0.00000000E+00
  0.00000000E+00  0.00000000E+00  0.00000000E+00
  0.00000000E+00  0.00000000E+00  0.00000000E+00
  0.00000000E+00  0.00000000E+00  0.00000000E+00
  0.00000000E+00  0.00000000E+00  0.00000000E+00
  0.00000000E+00  0.00000000E+00  0.00000000E+00
  0.00000000E+00  0.00000000E+00  0.00000000E+00
  0.00000000E+00  0.00000000E+00  0.00000000E+00
  0.00000000E+00  0.00000000E+00  0.00000000E+00
  0.00000000E+00  0.00000000E+00  0.00000000E+00
  0.00000000E+00  0.00000000E+00  0.00000000E+00
  0.00000000E+00  0.00000000E+00  0.00000000E+00
  0.00000000E+00  0.00000000E+00  0.00000000E+00
  0.00000000E+00  0.00000000E+00  0.00000000E+00
  0.00000000E+00  0.00000000E+00  0.00000000E+00
  0.00000000E+00  0.00000000E+00  0.00000000E+00
  0.00000000E+00  0.00000000E+00  0.00000000E+00
  0.00000000E+00  0.00000000E+00  0.00000000E+00
  0.00000000E+00  0.00000000E+00  0.00000000E+00
  0.00000000E+00  0.00000000E+00  0.00000000E+00
  0.00000000E+00  0.00000000E+00  0.00000000E+00
  0.00000000E+00  0.00000000E+00  0.00000000E+00
  0.00000000E+00  0.00000000E+00  0.00000000E+00
  0.00000000E+00  0.00000000E+00  0.00000000E+00
  0.00000000E+00  0.00000000E+00  0.00000000E+00
  0.00000000E+00  0.00000000E+00  0.00000000E+00
  0.00000000E+00  0.00000000E+00  0.00000000E+00
  0.00000000E+00  0.00000000E+00  0.00000000E+00
  0.00000000E+00  0.00000000E+00  0.00000000E+00
  0.00000000E+00  0.00000000E+00  0.00000000E+00
  0.00000000E+00  0.00000000E+00  0.00000000E+00
  0.00000000E+00  0.00000000E+00  0.00000000E+00
  0.00000000E+00  0.00000000E+00  0.00000000E+00
  0.00000000E+00  0.00000000E+00  0.00000000E+00
  0.00000000E+00  0.00000000E+00  0.00000000E+00
  0.00000000E+00  0.00000000E+00  0.00000000E+00
  0.00000000E+00  0.00000000E+00  0.00000000E+00
  0.00000000E+00  0.00000000E+00  0.00000000E+00
  0.00000000E+00  0.00000000E+00  0.00000000E+00
  0.00000000E+00  0.00000000E+00  0.00000000E+00
  0.00000000E+00  0.00000000E+00  0.00000000E+00
  0.00000000E+00  0.00000000E+00  0.00000000E+00
  0.00000000E+00  0.00000000E+00  0.00000000E+00
  0.00000000E+00  0.00000000E+00  0.00000000E+00
  0.00000000E+00  0.00000000E+00  0.00000000E+00
  0.00000000E+00  0.00000000E+00  0.00000000E+00
  0.00000000E+00  0.00000000E+00  0.00000000E+00
  0.00000000E+00  0.00000000E+00  0.00000000E+00
  0.00000000E+00  0.00000000E+00  0.00000000E+00
  0.00000000E+00  0.00000000E+00  0.00000000E+00
  0.00000000E+00  0.00000000E+00  0.00000000E+00
  0.00000000E+00  0.00000000E+00  0.00000000E+00
  0.00000000E+00  0.00000000E+00  0.00000000E+00
  0.00000000E+00  0.00000000E+00  0.00000000E+00
  0.00000000E+00  0.00000000E+00  0.00000000E+00
  0.00000000E+00  0.00000000E+00  0.00000000E+00
  0.00000000E+00  0.00000000E+00  0.00000000E+00
  0.00000000E+00  0.00000000E+00  0.00000000E+00
  0.00000000E+00  0.00000000E+00  0.00000000E+00
  0.00000000E+00  0.00000000E+00  0.00000000E+00
  0.00000000E+00  0.00000000E+00  0.00000000E+00
  0.00000000E+00  0.00000000E+00  0.00000000E+00
  0.00000000E+00  0.00000000E+00  0.00000000E+00
  0.00000000E+00  0.00000000E+00  0.00000000E+00
  0.00000000E+00  0.00000000E+00  0.00000000E+00
  0.00000000E+00  0.00000000E+00  0.00000000E+00
  0.00000000E+00  0.00000000E+00  0.00000000E+00
  0.00000000E+00  0.00000000E+00  0.00000000E+00
  0.00000000E+00  0.00000000E+00  0.00000000E+00
  0.00000000E+00  0.00000000E+00  0.00000000E+00
  0.00000000E+00  0.00000000E+00  0.00000000E+00
  0.00000000E+00  0.00000000E+00  0.00000000E+00
  0.00000000E+00  0.00000000E+00  0.00000000E+00
  0.00000000E+00  0.00000000E+00  0.00000000E+00
  0.00000000E+00  0.00000000E+00  0.00000000E+00
  0.00000000E+00  0.00000000E+00  0.00000000E+00
  0.00000000E+00  0.00000000E+00  0.00000000E+00
  0.00000000E+00  0.00000000E+00  0.00000000E+00
  0.00000000E+00  0.00000000E+00  0.00000000E+00
  0.00000000E+00  0.00000000E+00  0.00000000E+00
  0.00000000E+00  0.00000000E+00  0.00000000E+00
  0.00000000E+00  0.00000000E+00  0.00000000E+00
  0.00000000E+00  0.00000000E+00  0.00000000E+00
  0.00000000E+00  0.00000000E+00  0.00000000E+00
  0.00000000E+00  0.00000000E+00  0.00000000E+00
  0.00000000E+00  0.00000000E+00  0.00000000E+00
  0.00000000E+00  0.00000000E+00  0.00000000E+00
  0.00000000E+00  0.00000000E+00  0.00000000E+00
  0.00000000E+00  0.00000000E+00  0.00000000E+00
  0.00000000E+00  0.00000000E+00  0.00000000E+00
  0.00000000E+00  0.00000000E+00  0.00000000E+00
  0.00000000E+00  0.00000000E+00  0.00000000E+00
  0.00000000E+00  0.00000000E+00  0.00000000E+00
  0.00000000E+00  0.00000000E+00  0.00000000E+00
  0.00000000E+00  0.00000000E+00  0.00000000E+00
  0.00000000E+00  0.00000000E+00  0.00000000E+00
  0.00000000E+00  0.00000000E+00  0.00000000E+00
  0.00000000E+00  0.00000000E+00  0.00000000E+00
