B C N                                   
   1.0000000000000000     
     8.7639499999999995  -15.1796066749929999    0.0000000000000000
     8.7639499999999995   15.1796066749929999    0.0000000000000000
     0.0000000000000000    0.0000000000000000   15.0000000000000000
   B    C    N 
    49     1    47
Selective dynamics
Direct
  0.9048378334871632  0.9524386938181334  0.1109958687573584   T   T   T
  0.9046468298303684  0.0952034717797231  0.1110358349475083   T   T   T
  0.9045119011782422  0.2380658765752028  0.1110485608525856   T   T   T
  0.9045884877947438  0.3810540238788043  0.1109808290463369   T   T   T
  0.9050204347360704  0.5240566305116031  0.1109719956895958   T   T   T
  0.9047970097171362  0.6670106577901904  0.1110335174693327   T   T   T
  0.9053968046593829  0.8101073983004163  0.1110407959017956   T   T   T
  0.0478284643858764  0.9524933077720416  0.1109901820982224   T   T   T
  0.0474250101866634  0.0950904324177299  0.1109873956327721   T   T   T
  0.0472434223304257  0.2378976217932199  0.1109757482756961   T   T   T
  0.0472997307308498  0.3809041011293950  0.1110087063286529   T   T   T
  0.0476313270388348  0.5239417533518893  0.1110043583446667   T   T   T
  0.0479414758390146  0.6668117939899463  0.1110142512796497   T   T   T
  0.0479650778773860  0.8096990011800167  0.1109753916751147   T   T   T
  0.1906906088965255  0.9524069266757369  0.1109813467677506   T   T   T
  0.1902359291260653  0.0949868978612964  0.1110364719527686   T   T   T
  0.1899567148077766  0.2377501421793324  0.1109690472055541   T   T   T
  0.1898071644492136  0.3805567118002989  0.1109640445504003   T   T   T
  0.1901016600699709  0.5238121921604036  0.1110629650728876   T   T   T
  0.1911954647969089  0.6666681205079974  0.1110823888859279   T   T   T
  0.1908266187924375  0.8095447112634409  0.1109970576897247   T   T   T
  0.3335713507495200  0.9523142079009767  0.1110158109923391   T   T   T
  0.3334204094103445  0.0952717791185120  0.1110515828129499   T   T   T
  0.3325856182077199  0.2376004065840648  0.1110600301174906   T   T   T
  0.3324890508227009  0.3801584617171312  0.1110011187772624   T   T   T
  0.3316994163246423  0.5232846620938373  0.1109984965416021   T   T   T
  0.3349460070286489  0.6666055168253059  0.1110724515195220   T   T   T
  0.3337162811423700  0.8093465010989894  0.1110719212393501   T   T   T
  0.4763397808077151  0.9519326866609162  0.1109846552843833   T   T   T
  0.4762862080607624  0.0951184707058921  0.1109860201325894   T   T   T
  0.4762717550728101  0.2382446467689212  0.1110731965259851   T   T   T
  0.4750464239360703  0.3807612032412128  0.1111625156157044   T   T   T
  0.4715603870813956  0.5202397794219267  0.1111666195255653   T   T   T
  0.4793881645259202  0.6652155437137474  0.1110839418861228   T   T   T
  0.4764191564473856  0.8084952353772863  0.1110099553969367   T   T   T
  0.6190123681548764  0.9523640865832824  0.1109851624561130   T   T   T
  0.6189742545450353  0.0952569728893675  0.1109889866604805   T   T   T
  0.6189737392263680  0.2383449790570308  0.1110132084001874   T   T   T
  0.6187214463788543  0.3815219481491275  0.1110359822471834   T   T   T
  0.6210594902886702  0.5252995179098348  0.1111657195608371   T   T   T
  0.6188871621894780  0.6677913897776639  0.1110796210961495   T   T   T
  0.6194939480783580  0.8101990949077267  0.1109947761548268   T   T   T
  0.7620707240050185  0.9525297694803161  0.1109840197039224   T   T   T
  0.7617722080736797  0.0952342477587172  0.1110574201934038   T   T   T
  0.7617220607340549  0.2381861601401855  0.1110640339473367   T   T   T
  0.7617466592436093  0.3811811140603526  0.1110031244382579   T   T   T
  0.7625412374372474  0.5242446111543009  0.1110298759326510   T   T   T
  0.7621626460520385  0.6680816029347783  0.1110764032802373   T   T   T
  0.7622440355751641  0.8097173935429132  0.1110060256276546   T   T   T
  0.5244665113363666  0.4796443031579874  0.1113365757784576   T   T   T
  0.9525656220768256  0.9050464371482444  0.1109959456578460   T   T   T
  0.9521058773578832  0.0474764494989878  0.1109894410770571   T   T   T
  0.9520248484002841  0.1903183341503925  0.1110142548266391   T   T   T
  0.9521421928411953  0.3333116382248963  0.1109892868005904   T   T   T
  0.9525628917567970  0.4763750527826764  0.1109380843899017   T   T   T
  0.9526722209472460  0.6194123307310393  0.1109869809459332   T   T   T
  0.9527159346049027  0.7623133861930254  0.1110087236513031   T   T   T
  0.0954192198861256  0.9048215750824354  0.1109427919793454   T   T   T
  0.0950008694824436  0.0474572740751978  0.1109906245258339   T   T   T
  0.0946946749596125  0.1902112504019009  0.1109522206844174   T   T   T
  0.0947036457435238  0.3331521244890689  0.1109579385719894   T   T   T
  0.0951122340513981  0.4762925404688355  0.1110211686374949   T   T   T
  0.0958378068188832  0.6192320449141397  0.1110217437775120   T   T   T
  0.0956283764548665  0.7620371834808961  0.1109680017141433   T   T   T
  0.2383480554204777  0.9046543011802261  0.1109677343525113   T   T   T
  0.2380250939708376  0.0474389332546080  0.1110167655037337   T   T   T
  0.2372629174113137  0.1898946531429090  0.1110156766624330   T   T   T
  0.2371757164228496  0.3330315054553008  0.1109462242509832   T   T   T
  0.2372272266552423  0.4761503108050723  0.1109894862477947   T   T   T
  0.2393813703694288  0.6191665874002137  0.1110790559814033   T   T   T
  0.2386413520624134  0.7618314331068556  0.1110488002284445   T   T   T
  0.3812108300320110  0.9043774568736992  0.1110194110686899   T   T   T
  0.3810107753112575  0.0473541853118144  0.1109994639252461   T   T   T
  0.3806545152767506  0.1901781393381506  0.1110645106386424   T   T   T
  0.3791625391595016  0.3322020234785619  0.1110448205860755   T   T   T
  0.3784023209535346  0.4766110800919134  0.1109737662212104   T   T   T
  0.3841337183057202  0.6190230214615737  0.1110416682014419   T   T   T
  0.3816736451107292  0.7614520319877351  0.1110401219328349   T   T   T
  0.5238857365424822  0.9037470481113355  0.1109640154399835   T   T   T
  0.5238098801942928  0.0470927946421333  0.1109435382808810   T   T   T
  0.5237746569037790  0.1901489153770352  0.1110070365676723   T   T   T
  0.5234688724025417  0.3328629876409534  0.1110671110857237   T   T   T
  0.5243248089644393  0.7598092370033962  0.1110076470260694   T   T   T
  0.6666248508618456  0.9045979821320507  0.1109695510463179   T   T   T
  0.6665063669045669  0.0473532041307778  0.1109982715643356   T   T   T
  0.6665637141254025  0.1904005100405658  0.1110168461471507   T   T   T
  0.6666320208178997  0.3335735462315679  0.1109925748252071   T   T   T
  0.6683060598360053  0.4772569363263209  0.1110332789244931   T   T   T
  0.6665602395115153  0.6218219801088560  0.1110851229439196   T   T   T
  0.6656763221665188  0.7614762376935436  0.1110013505977377   T   T   T
  0.8092931413570345  0.9046642884002387  0.1109623616228699   T   T   T
  0.8093330819898501  0.0474697946620347  0.1110194564155585   T   T   T
  0.8092958249269321  0.1903630316179529  0.1110618307059637   T   T   T
  0.8094338150895873  0.3334073640068134  0.1110109274643987   T   T   T
  0.8101229893262248  0.4765889599482118  0.1109795395932734   T   T   T
  0.8095845905197694  0.6199551177547838  0.1110440756983909   T   T   T
  0.8100434311654264  0.7629355963569349  0.1110388944168606   T   T   T

  0.00000000E+00  0.00000000E+00  0.00000000E+00
  0.00000000E+00  0.00000000E+00  0.00000000E+00
  0.00000000E+00  0.00000000E+00  0.00000000E+00
  0.00000000E+00  0.00000000E+00  0.00000000E+00
  0.00000000E+00  0.00000000E+00  0.00000000E+00
  0.00000000E+00  0.00000000E+00  0.00000000E+00
  0.00000000E+00  0.00000000E+00  0.00000000E+00
  0.00000000E+00  0.00000000E+00  0.00000000E+00
  0.00000000E+00  0.00000000E+00  0.00000000E+00
  0.00000000E+00  0.00000000E+00  0.00000000E+00
  0.00000000E+00  0.00000000E+00  0.00000000E+00
  0.00000000E+00  0.00000000E+00  0.00000000E+00
  0.00000000E+00  0.00000000E+00  0.00000000E+00
  0.00000000E+00  0.00000000E+00  0.00000000E+00
  0.00000000E+00  0.00000000E+00  0.00000000E+00
  0.00000000E+00  0.00000000E+00  0.00000000E+00
  0.00000000E+00  0.00000000E+00  0.00000000E+00
  0.00000000E+00  0.00000000E+00  0.00000000E+00
  0.00000000E+00  0.00000000E+00  0.00000000E+00
  0.00000000E+00  0.00000000E+00  0.00000000E+00
  0.00000000E+00  0.00000000E+00  0.00000000E+00
  0.00000000E+00  0.00000000E+00  0.00000000E+00
  0.00000000E+00  0.00000000E+00  0.00000000E+00
  0.00000000E+00  0.00000000E+00  0.00000000E+00
  0.00000000E+00  0.00000000E+00  0.00000000E+00
  0.00000000E+00  0.00000000E+00  0.00000000E+00
  0.00000000E+00  0.00000000E+00  0.00000000E+00
  0.00000000E+00  0.00000000E+00  0.00000000E+00
  0.00000000E+00  0.00000000E+00  0.00000000E+00
  0.00000000E+00  0.00000000E+00  0.00000000E+00
  0.00000000E+00  0.00000000E+00  0.00000000E+00
  0.00000000E+00  0.00000000E+00  0.00000000E+00
  0.00000000E+00  0.00000000E+00  0.00000000E+00
  0.00000000E+00  0.00000000E+00  0.00000000E+00
  0.00000000E+00  0.00000000E+00  0.00000000E+00
  0.00000000E+00  0.00000000E+00  0.00000000E+00
  0.00000000E+00  0.00000000E+00  0.00000000E+00
  0.00000000E+00  0.00000000E+00  0.00000000E+00
  0.00000000E+00  0.00000000E+00  0.00000000E+00
  0.00000000E+00  0.00000000E+00  0.00000000E+00
  0.00000000E+00  0.00000000E+00  0.00000000E+00
  0.00000000E+00  0.00000000E+00  0.00000000E+00
  0.00000000E+00  0.00000000E+00  0.00000000E+00
  0.00000000E+00  0.00000000E+00  0.00000000E+00
  0.00000000E+00  0.00000000E+00  0.00000000E+00
  0.00000000E+00  0.00000000E+00  0.00000000E+00
  0.00000000E+00  0.00000000E+00  0.00000000E+00
  0.00000000E+00  0.00000000E+00  0.00000000E+00
  0.00000000E+00  0.00000000E+00  0.00000000E+00
  0.00000000E+00  0.00000000E+00  0.00000000E+00
  0.00000000E+00  0.00000000E+00  0.00000000E+00
  0.00000000E+00  0.00000000E+00  0.00000000E+00
  0.00000000E+00  0.00000000E+00  0.00000000E+00
  0.00000000E+00  0.00000000E+00  0.00000000E+00
  0.00000000E+00  0.00000000E+00  0.00000000E+00
  0.00000000E+00  0.00000000E+00  0.00000000E+00
  0.00000000E+00  0.00000000E+00  0.00000000E+00
  0.00000000E+00  0.00000000E+00  0.00000000E+00
  0.00000000E+00  0.00000000E+00  0.00000000E+00
  0.00000000E+00  0.00000000E+00  0.00000000E+00
  0.00000000E+00  0.00000000E+00  0.00000000E+00
  0.00000000E+00  0.00000000E+00  0.00000000E+00
  0.00000000E+00  0.00000000E+00  0.00000000E+00
  0.00000000E+00  0.00000000E+00  0.00000000E+00
  0.00000000E+00  0.00000000E+00  0.00000000E+00
  0.00000000E+00  0.00000000E+00  0.00000000E+00
  0.00000000E+00  0.00000000E+00  0.00000000E+00
  0.00000000E+00  0.00000000E+00  0.00000000E+00
  0.00000000E+00  0.00000000E+00  0.00000000E+00
  0.00000000E+00  0.00000000E+00  0.00000000E+00
  0.00000000E+00  0.00000000E+00  0.00000000E+00
  0.00000000E+00  0.00000000E+00  0.00000000E+00
  0.00000000E+00  0.00000000E+00  0.00000000E+00
  0.00000000E+00  0.00000000E+00  0.00000000E+00
  0.00000000E+00  0.00000000E+00  0.00000000E+00
  0.00000000E+00  0.00000000E+00  0.00000000E+00
  0.00000000E+00  0.00000000E+00  0.00000000E+00
  0.00000000E+00  0.00000000E+00  0.00000000E+00
  0.00000000E+00  0.00000000E+00  0.00000000E+00
  0.00000000E+00  0.00000000E+00  0.00000000E+00
  0.00000000E+00  0.00000000E+00  0.00000000E+00
  0.00000000E+00  0.00000000E+00  0.00000000E+00
  0.00000000E+00  0.00000000E+00  0.00000000E+00
  0.00000000E+00  0.00000000E+00  0.00000000E+00
  0.00000000E+00  0.00000000E+00  0.00000000E+00
  0.00000000E+00  0.00000000E+00  0.00000000E+00
  0.00000000E+00  0.00000000E+00  0.00000000E+00
  0.00000000E+00  0.00000000E+00  0.00000000E+00
  0.00000000E+00  0.00000000E+00  0.00000000E+00
  0.00000000E+00  0.00000000E+00  0.00000000E+00
  0.00000000E+00  0.00000000E+00  0.00000000E+00
  0.00000000E+00  0.00000000E+00  0.00000000E+00
  0.00000000E+00  0.00000000E+00  0.00000000E+00
  0.00000000E+00  0.00000000E+00  0.00000000E+00
  0.00000000E+00  0.00000000E+00  0.00000000E+00
  0.00000000E+00  0.00000000E+00  0.00000000E+00
  0.00000000E+00  0.00000000E+00  0.00000000E+00
