Species order:X N B                     
   2.51242800000000     
     5.9449720136058266    0.0000000000000000    0.0000000000000000
    -2.9724860068029120    5.1484967885702053   -0.0000000000000001
     0.0000000000000000    0.0000000000000009    5.3101128803662583
   O    N    B 
     1   144   142
Direct
  0.4380763788581329  0.3848437662585087  0.3750000000000000
  0.6173027570379498  0.4524252837433856  0.3750000000000000
  0.1110780855778017  0.0556086120296987  0.1247241072733583
  0.6111582960595471  0.5556460097156388  0.1276637666006209
  0.4444544154877454  0.0555956035143329  0.1261507147569695
  0.9444353289543844  0.5555875729708654  0.1259708577383792
  0.7778002982184103  0.0555655367242886  0.1247097515932936
  0.1111071292011194  0.7222653150754180  0.6251068250443531
  0.4444852210927702  0.7222284912870045  0.6251864065434908
  0.2777369989832656  0.2222584359373320  0.6237091379936518
  0.7778293355233393  0.7223196617960368  0.6242532886393815
  0.6111645712240831  0.2221954685900106  0.6220449731325567
  0.9444286167825209  0.2222291472774254  0.6252726300273010
  0.2777943842041352  0.7222463238800438  0.1246465945884306
  0.1110552519077523  0.2222276877438485  0.1246947245333733
  0.4443942895620893  0.2222320278503352  0.1282886235273728
  0.6111818899766932  0.7222706678184126  0.1254240953011780
  0.9444454028855385  0.7222864000295222  0.1254590284910513
  0.7778013249019043  0.2222036940620434  0.1259097389153900
  0.1110990850861020  0.8889521423283429  0.6252853636721564
  0.4444707176147264  0.8889194328395267  0.6251725940859471
  0.2777765473070282  0.3888685048044560  0.6241734088420067
  0.6112074907380904  0.3888691631514801  0.6210121120915258
  0.7778271527364484  0.8889593559449724  0.6253293868386182
  0.9444323325695395  0.3888952607228742  0.6244827253452042
  0.1111005281366641  0.3888941546686534  0.1246828216215482
  0.2777851079180032  0.8889428247754760  0.1248565436496090
  0.6111489532640934  0.8889081820960119  0.1246522857906716
  0.4444911958736485  0.3889244610926003  0.1294093074335755
  0.9444610303621828  0.8889730261600391  0.1246993435941837
  0.7777968076092162  0.3888848738376890  0.1276341347037547
  0.2777952844382471  0.5555519003144086  0.6251279676976521
  0.1110780855778017  0.0556086120296987  0.6252758927266531
  0.6111582960595471  0.5556460097156388  0.6223362333993787
  0.4444544154877454  0.0555956035143329  0.6238492852430386
  0.9444353289543844  0.5555875729708654  0.6240291422616261
  0.1111060023640901  0.5555707373947408  0.1248570703617951
  0.7778002982184103  0.0555655367242886  0.6252902484067139
  0.2777484674321326  0.0556079302853140  0.1255505095632100
  0.4444771152464793  0.5555516577108908  0.1263995401652409
  0.7777955632525285  0.5556213902269085  0.1275223016726456
  0.6111413946191299  0.0555575872740205  0.1254862986211187
  0.4444771152464793  0.5555516577108908  0.6236004598347674
  0.9444351083048437  0.0555953159460764  0.1244960304162568
  0.2777943842041352  0.7222463238800438  0.6253534054115527
  0.1110552519077523  0.2222276877438485  0.6253052754666197
  0.4443942895620893  0.2222320278503351  0.6217113764726294
  0.6111818899766932  0.7222706678184126  0.6245759046987890
  0.9444454028855385  0.7222864000295222  0.6245409715089406
  0.7778013249019043  0.2222036940620434  0.6240902610845845
  0.1111071292011194  0.7222653150754180  0.1248931749556295
  0.4444852210927703  0.7222284912870045  0.1248135934565077
  0.2777369989832656  0.2222584359373319  0.1262908620063170
  0.7778293355233393  0.7223196617960368  0.1257467113606141
  0.6111645712240831  0.2221954685900106  0.1279550268674498
  0.9444286167825209  0.2222291472774254  0.1247273699727012
  0.1111005281366636  0.3888941546686534  0.6253171783784520
  0.2777851079180032  0.8889428247754760  0.6251434563503881
  0.6111489532640934  0.8889081820960119  0.6253477142093359
  0.4444911958736485  0.3889244610926003  0.6205906925664173
  0.9444610303621828  0.8889730261600391  0.6253006564058142
  0.1110990850861020  0.8889521423283429  0.1247146363278453
  0.7777968076092162  0.3888848738376890  0.6223658652962504
  0.4444707176147264  0.8889194328395267  0.1248274059140324
  0.2777765473070282  0.3888685048044560  0.1258265911579836
  0.2777952844382471  0.5555519003144086  0.1248720323023519
  0.6112074907380904  0.3888691631514801  0.1289878879084595
  0.7778271527364484  0.8889593559449724  0.1246706131613772
  0.9444323325695395  0.3888952607228742  0.1255172746548035
  0.1111060023640901  0.5555707373947408  0.6251429296382262
  0.2777484674321326  0.0556079302853140  0.6244494904367891
  0.7777955632525285  0.5556213902269085  0.6224776983273684
  0.6111413946191299  0.0555575872740205  0.6245137013788837
  0.9444351083048437  0.0555953159460764  0.6255039695837273
  0.0527029584128484  0.1112841289580066  0.3750000000000000
  0.5587689967488630  0.6007946003447011  0.3750000000000000
  0.3849180206827646  0.1085417322099052  0.3750000000000000
  0.8973400304056683  0.6186922232894768  0.3750000000000000
  0.7193484734732690  0.1114244958787572  0.3750000000000000
  0.0555628280647595  0.7777829437157933  0.8750000000000000
  0.3888885684154790  0.7777900263909342  0.8750000000000000
  0.2222375448377684  0.2777965778410791  0.8750000000000000
  0.7222197168682779  0.7777785214120159  0.8750000000000000
  0.5555569218178864  0.2777860772393853  0.8750000000000000
  0.8888929040450373  0.2778004174087960  0.8750000000000000
  0.2231850470361719  0.7764874796521564  0.3750000000000000
  0.0510193824968657  0.2777147131807659  0.3750000000000000
  0.3817980732992557  0.2754668080613086  0.3750000000000000
  0.5555802623965457  0.7717741092858524  0.3750000000000000
  0.8956447697549960  0.7849930149350527  0.3750000000000000
  0.7172545183456034  0.2796760778317532  0.3750000000000000
  0.0555652998088482  0.9444538496332943  0.8750000000000000
  0.3888930550981913  0.9444549323902497  0.8750000000000000
  0.2222328085746902  0.4444618748565872  0.8750000000000000
  0.5555545312507019  0.4444490773777940  0.8750000000000000
  0.7222191616783743  0.9444527109590110  0.8750000000000000
  0.8888943587382061  0.4444614025810164  0.8750000000000000
  0.0511303468319014  0.4443582931920641  0.3750000000000000
  0.2225431057911476  0.9439824827249615  0.3750000000000000
  0.5541035638857703  0.9399223961505679  0.3750000000000000
  0.3813439855578946  0.4375836005070164  0.3750000000000000
  0.8884001740471517  0.9462602117527221  0.3750000000000000
  0.7190651384943565  0.4604576744300495  0.3750000000000000
  0.2222255920003609  0.6111238823549144  0.8750000000000000
  0.0555656038739401  0.1111231074788575  0.8750000000000000
  0.5555496477977246  0.6111141221819658  0.8750000000000000
  0.3888999645491067  0.1111231658741105  0.8750000000000000
  0.8888936207713862  0.6111151129719014  0.8750000000000000
  0.0568069553167795  0.6116725235740579  0.3750000000000000
  0.7222182053844823  0.1111263426766717  0.8750000000000000
  0.2205432669974158  0.1109218634418070  0.3750000000000000
  0.3896823494399099  0.6055116562691299  0.3750000000000000
  0.7369955233819985  0.6253246720805830  0.3750000000000000
  0.5522638684214427  0.1056270873517175  0.3750000000000000
  0.3888910343113922  0.6111222806310042  0.8750000000000000
  0.8859099043439100  0.1119847433799342  0.3750000000000000
  0.2222272342624127  0.7777867598939510  0.8750000000000000
  0.0555642813403888  0.2777972639203744  0.8750000000000000
  0.3889053643808881  0.2777988779881983  0.8750000000000000
  0.5555501527707080  0.7777836901564910  0.8750000000000000
  0.8888933735901772  0.7777811537987738  0.8750000000000000
  0.7222220881420561  0.2777953569087144  0.8750000000000000
  0.0597383774222435  0.7809721122925244  0.3750000000000000
  0.3890136253844500  0.7737851205030243  0.3750000000000000
  0.2161244253079789  0.2753649391933593  0.3750000000000000
  0.7232163939316258  0.7793610051604560  0.3750000000000000
  0.5489998514330098  0.2688123977666294  0.3750000000000000
  0.8844931631182887  0.2791148321360226  0.3750000000000000
  0.0555615145589059  0.4444634825382227  0.8750000000000000
  0.2222318842073181  0.9444540986077765  0.8750000000000000
  0.5555508540802175  0.9444561183107429  0.8750000000000000
  0.3889025510633357  0.4444582117932911  0.8750000000000000
  0.8888951370553511  0.9444526152034314  0.8750000000000000
  0.0575822227712107  0.9474182086752119  0.3750000000000000
  0.7222239510637442  0.4444522756556027  0.8750000000000000
  0.3877937486264950  0.9414541830051959  0.3750000000000000
  0.2184317362918080  0.4426299239672126  0.3750000000000000
  0.2223676364408780  0.6091781946025540  0.3750000000000000
  0.7206463608890706  0.9442408676259699  0.3750000000000000
  0.8819623987951685  0.4465697821402437  0.3750000000000000
  0.0555621670754696  0.6111203445376068  0.8750000000000000
  0.2222373108736496  0.1111266799494428  0.8750000000000000
  0.7222185650992615  0.6111090490573838  0.8750000000000000
  0.5555540177069997  0.1111232461598414  0.8750000000000000
  0.8888931833579834  0.1111252483538655  0.8750000000000000
  0.1108159502810300  0.0575643473800633  0.3750000000000000
  0.6285064911771679  0.5504144571049223  0.3750000000000000
  0.4420671558354859  0.0538398220171545  0.3750000000000000
  0.9451545482213676  0.5573574983613883  0.3750000000000000
  0.7746402180943046  0.0560680852305675  0.3750000000000000
  0.1110964548560478  0.7222179097976402  0.8750000000000000
  0.4444548409135166  0.7222109322898050  0.8750000000000000
  0.2779173840140951  0.2222982543532399  0.8750000000000000
  0.7777122928516814  0.7221100980505166  0.8750000000000000
  0.6110783701543464  0.2223121422836308  0.8750000000000000
  0.9444297962337583  0.2222636643308519  0.8750000000000000
  0.2781630117081814  0.7200984045003821  0.3750000000000000
  0.1064720271512164  0.2217559710451279  0.3750000000000000
  0.4455835243537781  0.2231357360853056  0.3750000000000000
  0.6113462482102344  0.7140390066360058  0.3750000000000000
  0.9498462941986199  0.7279959147060958  0.3750000000000000
  0.7725071438608616  0.2246475640371869  0.3750000000000000
  0.1111372383790328  0.8888994501834454  0.8750000000000000
  0.4444529028136530  0.8889351604612294  0.8750000000000000
  0.2778816975263882  0.3889224858043998  0.8750000000000000
  0.6110816010882317  0.3888825744651553  0.8750000000000000
  0.7777432006124737  0.8888403283931370  0.8750000000000000
  0.9443895390945467  0.3889186958204823  0.8750000000000000
  0.1067493421142909  0.3885974229475563  0.3750000000000000
  0.2777243390931959  0.8876686309196669  0.3750000000000000
  0.6095762565521654  0.8841403883678653  0.3750000000000000
  0.9474239077840566  0.8937605301045388  0.3750000000000000
  0.7642338284526641  0.3928877763384156  0.3750000000000000
  0.2778166667675780  0.5555652133102047  0.8750000000000000
  0.1111828880979335  0.0555928959981438  0.8750000000000000
  0.6110811819793820  0.5554526637822013  0.8750000000000000
  0.4444867714745402  0.0556533317813972  0.8750000000000000
  0.9443718951319082  0.5555311026026042  0.8750000000000000
  0.1107391020696329  0.5551527755523338  0.3750000000000000
  0.7777407293499612  0.0555823806094900  0.8750000000000000
  0.2765765141549342  0.0550218389865713  0.3750000000000000
  0.4472001743500636  0.5486792570437196  0.3750000000000000
  0.7881288783975000  0.5677712300881304  0.3750000000000000
  0.6079860390545895  0.0521596360720335  0.3750000000000000
  0.4444960892625341  0.5555236886244214  0.8750000000000000
  0.9420017612492704  0.0567162315856299  0.3750000000000000
  0.2777901316491398  0.7222413291709492  0.8750000000000000
  0.1111810678618633  0.2222672770019635  0.8750000000000000
  0.4445466575076728  0.2223193026268276  0.8750000000000000
  0.6110846147338085  0.7221390367528527  0.8750000000000000
  0.9443903328243758  0.7221605499605837  0.8750000000000000
  0.7777122136251822  0.2222858995259941  0.8750000000000000
  0.1125501283498906  0.7226625257004294  0.3750000000000000
  0.4445936176951611  0.7170339795114083  0.3750000000000000
  0.2740728356311512  0.2219496199234390  0.3750000000000000
  0.7852264798127961  0.7308581523656194  0.3750000000000000
  0.6034717051061751  0.2193078628997499  0.3750000000000000
  0.9398660308619565  0.2233288462950217  0.3750000000000000
  0.1111348730304141  0.3889216584457596  0.8750000000000000
  0.2778159833748200  0.8889400205014567  0.8750000000000000
  0.6110854857902602  0.8888857475592581  0.8750000000000000
  0.4445544611135731  0.3889111803111457  0.8750000000000000
  0.9444328256170752  0.8888506998567614  0.8750000000000000
  0.1129887495184960  0.8910926727202867  0.3750000000000000
  0.7776837937024086  0.3889043127729540  0.8750000000000000
  0.4433886279523842  0.8855058375932432  0.3750000000000000
  0.2721967776182527  0.3851826939155357  0.3750000000000000
  0.2779952575095888  0.5531642986316875  0.3750000000000000
  0.7767778282878212  0.8895594889813616  0.3750000000000000
  0.9378975110864126  0.3905127221906665  0.3750000000000000
  0.1110963434524628  0.5555655685228944  0.8750000000000000
  0.2778783691870738  0.0556382437270516  0.8750000000000000
  0.7776824143854540  0.5554701386220632  0.8750000000000000
  0.6110816673082917  0.0556277384310088  0.8750000000000000
  0.9444524687581939  0.0555647830062934  0.8750000000000000
  0.0555758580687075  0.1111599039518790  0.1249706320360033
  0.5557646541409331  0.6108675403189517  0.1273902426553048
  0.3891559863867178  0.1115657950258726  0.1275683234642144
  0.8885186688292034  0.6109437700495240  0.1269614395476359
  0.7221913266687140  0.1112243997287032  0.1258702645716867
  0.0554316462639975  0.7777898703331056  0.6246589974769073
  0.3890057309039379  0.7778440308272873  0.6249749318808809
  0.2223731895709891  0.2777881321944147  0.6239968404992230
  0.7222361253808561  0.7776731551511838  0.6242256207432896
  0.5557205552792541  0.2781294778130706  0.6184521935782082
  0.8887169765647038  0.2777681437027872  0.6241821098552421
  0.2222373789318250  0.7778811392302691  0.1250596843195019
  0.0555251653785084  0.2777608577537984  0.1249916329505971
  0.3892607730791354  0.2780040051018218  0.1293985306518887
  0.5556905483308557  0.7777217461628857  0.1253109979621816
  0.8887372043012038  0.7776977365272890  0.1257612018955623
  0.7219984108257881  0.2778367567421715  0.1283011310648657
  0.0555503140006109  0.9445243836318395  0.6249718773614394
  0.3890462699728977  0.9447489003490447  0.6243287272136222
  0.2223251081581326  0.4443697725259056  0.6246350424623051
  0.5558548543938961  0.4442990981821219  0.6179002433139935
  0.7222533409048127  0.9444673123787307  0.6249863844356370
  0.8885292842131635  0.4443363345280206  0.6229414795745828
  0.0554193464930958  0.4443880445978567  0.1253138004355396
  0.2223185118917919  0.9446741425212309  0.1253762346759257
  0.5556557014904199  0.9446030288166141  0.1253459352546748
  0.3892274418190291  0.4442962930229356  0.1280610749245363
  0.8888673426092661  0.9444508308121548  0.1249767210377013
  0.7217782847382732  0.4442575634219404  0.1299270224367010
  0.2222354189943298  0.6110815696743912  0.6249790624284911
  0.0555758580687076  0.1111599039518790  0.6250293679639902
  0.5557646541409331  0.6108675403189517  0.6226097573446978
  0.3891559863867178  0.1115657950258726  0.6224316765357760
  0.8885186688292034  0.6109437700495240  0.6230385604523845
  0.0553589188967559  0.6110558334691307  0.1255706912149219
  0.7221913266687140  0.1112243997287032  0.6241297354283291
  0.2223908471365779  0.1113175576025596  0.1259785164909799
  0.3890697933571761  0.6109895905396863  0.1256811106569511
  0.7220075400225420  0.6108690733926233  0.1282638296802907
  0.5556837855984266  0.1114856525631440  0.1274600514842190
  0.3890697933571761  0.6109895905396863  0.6243188893430416
  0.8888472450791371  0.1111366600643783  0.1249825669047868
  0.2222373789318250  0.7778811392302691  0.6249403156804714
  0.0555251653785084  0.2777608577537984  0.6250083670494172
  0.3892607730791354  0.2780040051018218  0.6206014693481190
  0.5556905483308557  0.7777217461628857  0.6246890020378122
  0.8887372043012038  0.7776977365272890  0.6242387981044402
  0.7219984108257881  0.2778367567421715  0.6216988689351448
  0.0554316462639975  0.7777898703331056  0.1253410025230860
  0.3890057309039379  0.7778440308272873  0.1250250681191059
  0.2223731895709876  0.2777881321944147  0.1260031595007700
  0.7222361253808561  0.7776731551511838  0.1257743792567087
  0.5557205552792541  0.2781294778130706  0.1315478064218146
  0.8887169765647038  0.2777681437027872  0.1258178901447613
  0.0554193464930958  0.4443880445978567  0.6246861995644521
  0.2223185118917919  0.9446741425212309  0.6246237653240676
  0.5556557014904199  0.9446030288166141  0.6246540647453311
  0.3892274418190291  0.4442962930229356  0.6219389250754467
  0.8888673426092661  0.9444508308121548  0.6250232789623037
  0.0555503140006109  0.9445243836318395  0.1250281226385486
  0.7217782847382732  0.4442575634219404  0.6200729775633016
  0.3890462699728977  0.9447489003490447  0.1256712727863822
  0.2223251081581326  0.4443697725259056  0.1253649575377287
  0.2222354189943298  0.6110815696743912  0.1250209375714991
  0.5558548543938961  0.4442990981821219  0.1320997566860073
  0.7222533409048127  0.9444673123787307  0.1250136155643680
  0.8885292842131635  0.4443363345280206  0.1270585204254109
  0.0553589188967546  0.6110558334691307  0.6244293087850570
  0.2223908471365779  0.1113175576025596  0.6240214835090181
  0.7220075400225420  0.6108690733926233  0.6217361703197010
  0.5556837855984266  0.1114856525631440  0.6225399485157593
  0.8888472450791371  0.1111366600643783  0.6250174330952205
 
  0.00000000E+00  0.00000000E+00  0.00000000E+00
  0.00000000E+00  0.00000000E+00  0.00000000E+00
  0.00000000E+00  0.00000000E+00  0.00000000E+00
  0.00000000E+00  0.00000000E+00  0.00000000E+00
  0.00000000E+00  0.00000000E+00  0.00000000E+00
  0.00000000E+00  0.00000000E+00  0.00000000E+00
  0.00000000E+00  0.00000000E+00  0.00000000E+00
  0.00000000E+00  0.00000000E+00  0.00000000E+00
  0.00000000E+00  0.00000000E+00  0.00000000E+00
  0.00000000E+00  0.00000000E+00  0.00000000E+00
  0.00000000E+00  0.00000000E+00  0.00000000E+00
  0.00000000E+00  0.00000000E+00  0.00000000E+00
  0.00000000E+00  0.00000000E+00  0.00000000E+00
  0.00000000E+00  0.00000000E+00  0.00000000E+00
  0.00000000E+00  0.00000000E+00  0.00000000E+00
  0.00000000E+00  0.00000000E+00  0.00000000E+00
  0.00000000E+00  0.00000000E+00  0.00000000E+00
  0.00000000E+00  0.00000000E+00  0.00000000E+00
  0.00000000E+00  0.00000000E+00  0.00000000E+00
  0.00000000E+00  0.00000000E+00  0.00000000E+00
  0.00000000E+00  0.00000000E+00  0.00000000E+00
  0.00000000E+00  0.00000000E+00  0.00000000E+00
  0.00000000E+00  0.00000000E+00  0.00000000E+00
  0.00000000E+00  0.00000000E+00  0.00000000E+00
  0.00000000E+00  0.00000000E+00  0.00000000E+00
  0.00000000E+00  0.00000000E+00  0.00000000E+00
  0.00000000E+00  0.00000000E+00  0.00000000E+00
  0.00000000E+00  0.00000000E+00  0.00000000E+00
  0.00000000E+00  0.00000000E+00  0.00000000E+00
  0.00000000E+00  0.00000000E+00  0.00000000E+00
  0.00000000E+00  0.00000000E+00  0.00000000E+00
  0.00000000E+00  0.00000000E+00  0.00000000E+00
  0.00000000E+00  0.00000000E+00  0.00000000E+00
  0.00000000E+00  0.00000000E+00  0.00000000E+00
  0.00000000E+00  0.00000000E+00  0.00000000E+00
  0.00000000E+00  0.00000000E+00  0.00000000E+00
  0.00000000E+00  0.00000000E+00  0.00000000E+00
  0.00000000E+00  0.00000000E+00  0.00000000E+00
  0.00000000E+00  0.00000000E+00  0.00000000E+00
  0.00000000E+00  0.00000000E+00  0.00000000E+00
  0.00000000E+00  0.00000000E+00  0.00000000E+00
  0.00000000E+00  0.00000000E+00  0.00000000E+00
  0.00000000E+00  0.00000000E+00  0.00000000E+00
  0.00000000E+00  0.00000000E+00  0.00000000E+00
  0.00000000E+00  0.00000000E+00  0.00000000E+00
  0.00000000E+00  0.00000000E+00  0.00000000E+00
  0.00000000E+00  0.00000000E+00  0.00000000E+00
  0.00000000E+00  0.00000000E+00  0.00000000E+00
  0.00000000E+00  0.00000000E+00  0.00000000E+00
  0.00000000E+00  0.00000000E+00  0.00000000E+00
  0.00000000E+00  0.00000000E+00  0.00000000E+00
  0.00000000E+00  0.00000000E+00  0.00000000E+00
  0.00000000E+00  0.00000000E+00  0.00000000E+00
  0.00000000E+00  0.00000000E+00  0.00000000E+00
  0.00000000E+00  0.00000000E+00  0.00000000E+00
  0.00000000E+00  0.00000000E+00  0.00000000E+00
  0.00000000E+00  0.00000000E+00  0.00000000E+00
  0.00000000E+00  0.00000000E+00  0.00000000E+00
  0.00000000E+00  0.00000000E+00  0.00000000E+00
  0.00000000E+00  0.00000000E+00  0.00000000E+00
  0.00000000E+00  0.00000000E+00  0.00000000E+00
  0.00000000E+00  0.00000000E+00  0.00000000E+00
  0.00000000E+00  0.00000000E+00  0.00000000E+00
  0.00000000E+00  0.00000000E+00  0.00000000E+00
  0.00000000E+00  0.00000000E+00  0.00000000E+00
  0.00000000E+00  0.00000000E+00  0.00000000E+00
  0.00000000E+00  0.00000000E+00  0.00000000E+00
  0.00000000E+00  0.00000000E+00  0.00000000E+00
  0.00000000E+00  0.00000000E+00  0.00000000E+00
  0.00000000E+00  0.00000000E+00  0.00000000E+00
  0.00000000E+00  0.00000000E+00  0.00000000E+00
  0.00000000E+00  0.00000000E+00  0.00000000E+00
  0.00000000E+00  0.00000000E+00  0.00000000E+00
  0.00000000E+00  0.00000000E+00  0.00000000E+00
  0.00000000E+00  0.00000000E+00  0.00000000E+00
  0.00000000E+00  0.00000000E+00  0.00000000E+00
  0.00000000E+00  0.00000000E+00  0.00000000E+00
  0.00000000E+00  0.00000000E+00  0.00000000E+00
  0.00000000E+00  0.00000000E+00  0.00000000E+00
  0.00000000E+00  0.00000000E+00  0.00000000E+00
  0.00000000E+00  0.00000000E+00  0.00000000E+00
  0.00000000E+00  0.00000000E+00  0.00000000E+00
  0.00000000E+00  0.00000000E+00  0.00000000E+00
  0.00000000E+00  0.00000000E+00  0.00000000E+00
  0.00000000E+00  0.00000000E+00  0.00000000E+00
  0.00000000E+00  0.00000000E+00  0.00000000E+00
  0.00000000E+00  0.00000000E+00  0.00000000E+00
  0.00000000E+00  0.00000000E+00  0.00000000E+00
  0.00000000E+00  0.00000000E+00  0.00000000E+00
  0.00000000E+00  0.00000000E+00  0.00000000E+00
  0.00000000E+00  0.00000000E+00  0.00000000E+00
  0.00000000E+00  0.00000000E+00  0.00000000E+00
  0.00000000E+00  0.00000000E+00  0.00000000E+00
  0.00000000E+00  0.00000000E+00  0.00000000E+00
  0.00000000E+00  0.00000000E+00  0.00000000E+00
  0.00000000E+00  0.00000000E+00  0.00000000E+00
  0.00000000E+00  0.00000000E+00  0.00000000E+00
  0.00000000E+00  0.00000000E+00  0.00000000E+00
  0.00000000E+00  0.00000000E+00  0.00000000E+00
  0.00000000E+00  0.00000000E+00  0.00000000E+00
  0.00000000E+00  0.00000000E+00  0.00000000E+00
  0.00000000E+00  0.00000000E+00  0.00000000E+00
  0.00000000E+00  0.00000000E+00  0.00000000E+00
  0.00000000E+00  0.00000000E+00  0.00000000E+00
  0.00000000E+00  0.00000000E+00  0.00000000E+00
  0.00000000E+00  0.00000000E+00  0.00000000E+00
  0.00000000E+00  0.00000000E+00  0.00000000E+00
  0.00000000E+00  0.00000000E+00  0.00000000E+00
  0.00000000E+00  0.00000000E+00  0.00000000E+00
  0.00000000E+00  0.00000000E+00  0.00000000E+00
  0.00000000E+00  0.00000000E+00  0.00000000E+00
  0.00000000E+00  0.00000000E+00  0.00000000E+00
  0.00000000E+00  0.00000000E+00  0.00000000E+00
  0.00000000E+00  0.00000000E+00  0.00000000E+00
  0.00000000E+00  0.00000000E+00  0.00000000E+00
  0.00000000E+00  0.00000000E+00  0.00000000E+00
  0.00000000E+00  0.00000000E+00  0.00000000E+00
  0.00000000E+00  0.00000000E+00  0.00000000E+00
  0.00000000E+00  0.00000000E+00  0.00000000E+00
  0.00000000E+00  0.00000000E+00  0.00000000E+00
  0.00000000E+00  0.00000000E+00  0.00000000E+00
  0.00000000E+00  0.00000000E+00  0.00000000E+00
  0.00000000E+00  0.00000000E+00  0.00000000E+00
  0.00000000E+00  0.00000000E+00  0.00000000E+00
  0.00000000E+00  0.00000000E+00  0.00000000E+00
  0.00000000E+00  0.00000000E+00  0.00000000E+00
  0.00000000E+00  0.00000000E+00  0.00000000E+00
  0.00000000E+00  0.00000000E+00  0.00000000E+00
  0.00000000E+00  0.00000000E+00  0.00000000E+00
  0.00000000E+00  0.00000000E+00  0.00000000E+00
  0.00000000E+00  0.00000000E+00  0.00000000E+00
  0.00000000E+00  0.00000000E+00  0.00000000E+00
  0.00000000E+00  0.00000000E+00  0.00000000E+00
  0.00000000E+00  0.00000000E+00  0.00000000E+00
  0.00000000E+00  0.00000000E+00  0.00000000E+00
  0.00000000E+00  0.00000000E+00  0.00000000E+00
  0.00000000E+00  0.00000000E+00  0.00000000E+00
  0.00000000E+00  0.00000000E+00  0.00000000E+00
  0.00000000E+00  0.00000000E+00  0.00000000E+00
  0.00000000E+00  0.00000000E+00  0.00000000E+00
  0.00000000E+00  0.00000000E+00  0.00000000E+00
  0.00000000E+00  0.00000000E+00  0.00000000E+00
  0.00000000E+00  0.00000000E+00  0.00000000E+00
  0.00000000E+00  0.00000000E+00  0.00000000E+00
  0.00000000E+00  0.00000000E+00  0.00000000E+00
  0.00000000E+00  0.00000000E+00  0.00000000E+00
  0.00000000E+00  0.00000000E+00  0.00000000E+00
  0.00000000E+00  0.00000000E+00  0.00000000E+00
  0.00000000E+00  0.00000000E+00  0.00000000E+00
  0.00000000E+00  0.00000000E+00  0.00000000E+00
  0.00000000E+00  0.00000000E+00  0.00000000E+00
  0.00000000E+00  0.00000000E+00  0.00000000E+00
  0.00000000E+00  0.00000000E+00  0.00000000E+00
  0.00000000E+00  0.00000000E+00  0.00000000E+00
  0.00000000E+00  0.00000000E+00  0.00000000E+00
  0.00000000E+00  0.00000000E+00  0.00000000E+00
  0.00000000E+00  0.00000000E+00  0.00000000E+00
  0.00000000E+00  0.00000000E+00  0.00000000E+00
  0.00000000E+00  0.00000000E+00  0.00000000E+00
  0.00000000E+00  0.00000000E+00  0.00000000E+00
  0.00000000E+00  0.00000000E+00  0.00000000E+00
  0.00000000E+00  0.00000000E+00  0.00000000E+00
  0.00000000E+00  0.00000000E+00  0.00000000E+00
  0.00000000E+00  0.00000000E+00  0.00000000E+00
  0.00000000E+00  0.00000000E+00  0.00000000E+00
  0.00000000E+00  0.00000000E+00  0.00000000E+00
  0.00000000E+00  0.00000000E+00  0.00000000E+00
  0.00000000E+00  0.00000000E+00  0.00000000E+00
  0.00000000E+00  0.00000000E+00  0.00000000E+00
  0.00000000E+00  0.00000000E+00  0.00000000E+00
  0.00000000E+00  0.00000000E+00  0.00000000E+00
  0.00000000E+00  0.00000000E+00  0.00000000E+00
  0.00000000E+00  0.00000000E+00  0.00000000E+00
  0.00000000E+00  0.00000000E+00  0.00000000E+00
  0.00000000E+00  0.00000000E+00  0.00000000E+00
  0.00000000E+00  0.00000000E+00  0.00000000E+00
  0.00000000E+00  0.00000000E+00  0.00000000E+00
  0.00000000E+00  0.00000000E+00  0.00000000E+00
  0.00000000E+00  0.00000000E+00  0.00000000E+00
  0.00000000E+00  0.00000000E+00  0.00000000E+00
  0.00000000E+00  0.00000000E+00  0.00000000E+00
  0.00000000E+00  0.00000000E+00  0.00000000E+00
  0.00000000E+00  0.00000000E+00  0.00000000E+00
  0.00000000E+00  0.00000000E+00  0.00000000E+00
  0.00000000E+00  0.00000000E+00  0.00000000E+00
  0.00000000E+00  0.00000000E+00  0.00000000E+00
  0.00000000E+00  0.00000000E+00  0.00000000E+00
  0.00000000E+00  0.00000000E+00  0.00000000E+00
  0.00000000E+00  0.00000000E+00  0.00000000E+00
  0.00000000E+00  0.00000000E+00  0.00000000E+00
  0.00000000E+00  0.00000000E+00  0.00000000E+00
  0.00000000E+00  0.00000000E+00  0.00000000E+00
  0.00000000E+00  0.00000000E+00  0.00000000E+00
  0.00000000E+00  0.00000000E+00  0.00000000E+00
  0.00000000E+00  0.00000000E+00  0.00000000E+00
  0.00000000E+00  0.00000000E+00  0.00000000E+00
  0.00000000E+00  0.00000000E+00  0.00000000E+00
  0.00000000E+00  0.00000000E+00  0.00000000E+00
  0.00000000E+00  0.00000000E+00  0.00000000E+00
  0.00000000E+00  0.00000000E+00  0.00000000E+00
  0.00000000E+00  0.00000000E+00  0.00000000E+00
  0.00000000E+00  0.00000000E+00  0.00000000E+00
  0.00000000E+00  0.00000000E+00  0.00000000E+00
  0.00000000E+00  0.00000000E+00  0.00000000E+00
  0.00000000E+00  0.00000000E+00  0.00000000E+00
  0.00000000E+00  0.00000000E+00  0.00000000E+00
  0.00000000E+00  0.00000000E+00  0.00000000E+00
  0.00000000E+00  0.00000000E+00  0.00000000E+00
  0.00000000E+00  0.00000000E+00  0.00000000E+00
  0.00000000E+00  0.00000000E+00  0.00000000E+00
  0.00000000E+00  0.00000000E+00  0.00000000E+00
  0.00000000E+00  0.00000000E+00  0.00000000E+00
  0.00000000E+00  0.00000000E+00  0.00000000E+00
  0.00000000E+00  0.00000000E+00  0.00000000E+00
  0.00000000E+00  0.00000000E+00  0.00000000E+00
  0.00000000E+00  0.00000000E+00  0.00000000E+00
  0.00000000E+00  0.00000000E+00  0.00000000E+00
  0.00000000E+00  0.00000000E+00  0.00000000E+00
  0.00000000E+00  0.00000000E+00  0.00000000E+00
  0.00000000E+00  0.00000000E+00  0.00000000E+00
  0.00000000E+00  0.00000000E+00  0.00000000E+00
  0.00000000E+00  0.00000000E+00  0.00000000E+00
  0.00000000E+00  0.00000000E+00  0.00000000E+00
  0.00000000E+00  0.00000000E+00  0.00000000E+00
  0.00000000E+00  0.00000000E+00  0.00000000E+00
  0.00000000E+00  0.00000000E+00  0.00000000E+00
  0.00000000E+00  0.00000000E+00  0.00000000E+00
  0.00000000E+00  0.00000000E+00  0.00000000E+00
  0.00000000E+00  0.00000000E+00  0.00000000E+00
  0.00000000E+00  0.00000000E+00  0.00000000E+00
  0.00000000E+00  0.00000000E+00  0.00000000E+00
  0.00000000E+00  0.00000000E+00  0.00000000E+00
  0.00000000E+00  0.00000000E+00  0.00000000E+00
  0.00000000E+00  0.00000000E+00  0.00000000E+00
  0.00000000E+00  0.00000000E+00  0.00000000E+00
  0.00000000E+00  0.00000000E+00  0.00000000E+00
  0.00000000E+00  0.00000000E+00  0.00000000E+00
  0.00000000E+00  0.00000000E+00  0.00000000E+00
  0.00000000E+00  0.00000000E+00  0.00000000E+00
  0.00000000E+00  0.00000000E+00  0.00000000E+00
  0.00000000E+00  0.00000000E+00  0.00000000E+00
  0.00000000E+00  0.00000000E+00  0.00000000E+00
  0.00000000E+00  0.00000000E+00  0.00000000E+00
  0.00000000E+00  0.00000000E+00  0.00000000E+00
  0.00000000E+00  0.00000000E+00  0.00000000E+00
  0.00000000E+00  0.00000000E+00  0.00000000E+00
  0.00000000E+00  0.00000000E+00  0.00000000E+00
  0.00000000E+00  0.00000000E+00  0.00000000E+00