 B N O 
 1.0
 14.936314146199660   0.000000000000000   0.000000000000000
 -7.468157073099825  12.935227489513863   0.000000000000000
  0.000000000000001   0.000000000000001  13.341276283792837
 B N O 
 142 144   1
Cartesian
  1.225282257762314   0.744607928646517   5.002978606422314 
  5.276988774183322   7.119736216169437   5.002978606422314 
  6.200769665663968   0.696430345786838   5.002978606422314 
  9.954691905310945   7.209546034290906   5.002978606422314 
 11.151544380447335   0.725253437358837   5.002978606422314 
 -3.734265241115594   9.342052960233678  11.673616748318732 
  1.244932445433358   9.341962704582523  11.673616748318732 
  2.490903073738638   2.875478490580976  11.673616748318732 
  6.223323485081161   9.340658390758600  11.673616748318732 
  7.466996506741516   2.875658134119942  11.673616748318732 
 12.446400168713204   2.875031060772520  11.673616748318732 
 -1.223077866171021   9.314636677048414   5.002978606422314 
 -0.065808778349531   2.868463932626780   5.002978606422314 
  4.988962772412021   2.886311507303561   5.002978606422314 
  3.798704157490746   9.236256987223236   5.002978606422314 
  8.750414801154065   9.416792768160084   5.002978606422314 
  9.860706086570325   2.905867345786147   5.002978606422314 
 -4.978460010391725  11.498116603426658  11.673616748318732 
 -0.000219226510586  11.498578523993508  11.673616748318732 
  1.245994116485669   5.030800829667140  11.673616748318732 
  6.223070613719281   5.030284567414596  11.673616748318732 
  4.978617584073120  11.497351849619436  11.673616748318732 
 11.201192923248367   5.030751805362980  11.673616748318732 
 -1.307664884054963   5.026596067665473   5.002978606422314 
 -2.481070789829893  11.482195676251212   5.002978606422314 
  2.501923168924839  11.436557056205471   5.002978606422314 
  7.476277091725112  11.560995778050716   5.002978606422314 
  8.480688917125645   5.082092764786654   5.002978606422314 
  0.000508732539793   7.186362419427798  11.673616748318732 
  1.245486064849864   0.719106756536879  11.673616748318732 
  4.979092763077869   7.184906565679229  11.673616748318732 
  6.223366229188977   0.719888507141763  11.673616748318732 
  9.956641763303518   7.185921189665151  11.673616748318732 
 -2.491934110612055   7.181027443204472   5.002978606422314 
 11.201481908976975   0.718970737592499  11.673616748318732 
  3.720121964876412   0.711720004182699   5.002978606422314 
  2.581899415973601   7.097291008637971   5.002978606422314 
  7.531535787551794   7.344250023191081   5.002978606422314 
  8.691534120761290   0.674696758362001   5.002978606422314 
  2.490395061507440   7.185825288170752  11.673616748318732 
 13.646468506216676   0.733637357908076   5.002978606422314 
 -1.244651017907324   9.342355895155093  11.673616748318732 
  0.000708419833881   2.875077791495185  11.673616748318732 
  4.979573056778467   2.875750754788099  11.673616748318732 
  3.734304020486234   9.341032719456567  11.673616748318732 
  8.712502268597138   9.341310997692597  11.673616748318732 
  9.956087925246647   2.875318678079956  11.673616748318732 
 -3.715873178544777   9.347804168081709   5.002978606422314 
  1.285667555549280   9.274997642691485   5.002978606422314 
  2.436083348023567   2.870968824920823   5.002978606422314 
  6.270225898376460   9.453816463415066   5.002978606422314 
  7.375817398307417   2.836797096847384   5.002978606422314 
 12.370279389210582   2.888809431796786   5.002978606422314 
 -1.244582658223140   5.030790127594917  11.673616748318732 
 -2.489196899147765  11.498641389719467  11.673616748318732 
  2.489026403134055  11.497939356865595  11.673616748318732 
  3.735555304238542   5.030654590540020  11.673616748318732 
  7.468268732334636  11.497486006860813  11.673616748318732 
 -4.967184588768917  11.526486435875837   5.002978606422314 
  8.711330954953148   5.030565757371213  11.673616748318732 
  0.009495151656089  11.454219452561116   5.002978606422314 
  1.189011720088521   4.982425770821247   5.002978606422314 
  0.021106627904354   7.155306041878255   5.002978606422314 
  4.958827675530408  11.506654355429617   5.002978606422314 
 11.092321514161746   5.051370899085607   5.002978606422314 
 -2.489681043834896   7.186367014184737  11.673616748318732 
  3.734963473186750   0.719693339726437  11.673616748318732 
  7.467370602590065   7.185132606708186  11.673616748318732 
  8.711871063676030   0.719557451332276  11.673616748318732 
 13.691672242302500   0.718743108591875  11.673616748318732 
 -0.000061147884509   1.437878645330066   1.667267729352528 
  3.739020723642906   7.901710599985425   1.699548423123835 
  4.979365183307739   1.443128938708142   1.701924248396332 
  8.708569924834492   7.902696648891840   1.693827642393074 
  9.956235241249416   1.438712912875397   1.679269975564978 
 -4.980712439273506  10.060888911798216   8.333748268496469 
  0.001250400861946  10.061589490111393   8.337963236667441 
  1.246870412853793   3.593252683821909   8.324914249313945 
  4.979760382220340  10.059379174368575   8.327966469758318 
  6.223302164184206   3.597668067051773   8.250941582844604 
 11.199739821955404   3.592994128135529   8.327385978979516 
 -2.489931225219732  10.062069495745737   1.668455800470391 
 -1.245020401351216   3.592899882727878   1.667547908356339 
  3.737943614451248   3.596045048988040   1.726341548143687 
  2.491820438433705  10.060007710158887   1.671808645211271 
  7.466489225078011  10.059697140060498   1.677814940270544 
  8.709066537119725   3.593881653408720   1.711700837059493 
 -6.224139515502218  12.217637771670715   8.337922485479652 
 -1.244615876722593  12.220541946482960   8.329342041665662 
  0.002094398276587   5.748024097086122   8.333428678028280 
  4.984327272256615   5.747109908371605   8.243577861874812 
  3.734372553643721  12.216899542028639   8.338116028364597 
  9.952978977565035   5.747591568976686   8.310834387639204 
 -2.490998949466516   5.748260450493513   1.671846033782618 
 -3.734355745113013  12.219574936973565   1.672678986233177 
  1.245004323659543  12.218655065026722   1.672274753283028 
  2.495548842039396   5.747073622999388   1.708498181767730 
  6.223094711184879  12.216686349215594   1.667348964406474 
  7.462921940208338   5.746572646799927   1.733392303058579 
 -1.244275114293127   7.904479118387465   8.338018343444309 
 -0.000061147884494   1.437878645330067   8.338689483492006 
  3.739020723642906   7.901710599985426   8.306408789720832 
  4.979365183307740   1.443128938708142   8.304032964448163 
  8.708569924834492   7.902696648891841   8.312129570451821 
 -3.736602741345463   7.904146214717708   1.675273284645113 
  9.956235241249416   1.438712912875398   8.326687237279863 
  2.490362550901640   1.439917931166177   1.680714194328516 
  1.248302426200445   7.903289347355766   1.676746420928324 
  6.222065242506457   7.901730430642118   1.711203188982110 
  7.467275222908970   1.442092277721172   1.700479761997425 
  1.248302426200445   7.903289347355767   8.329210791916211 
 12.446115646545636   1.437577980357500   1.667426955734386 
 -2.489931225219731  10.062069495745737   8.337501412373877 
 -1.245020401351216   3.592899882727879   8.338409304488476 
  3.737943614451248   3.596045048988041   8.279615664701048 
  2.491820438433705  10.060007710158887   8.334148567633276 
  7.466489225078012  10.059697140060498   8.328142272574111 
  8.709066537119725   3.593881653408721   8.294256375785281 
 -4.980712439273507  10.060888911798216   1.672208944348065 
  0.001250400861945  10.061589490111393   1.667993976177013 
  1.246870412853777   3.593252683821908   1.681042963530589 
  4.979760382220339  10.059379174368575   1.677990743086298 
  6.223302164184205   3.597668067051772   1.755015630000331 
 11.199739821955404   3.592994128135528   1.678571233865152 
 -2.490998949466515   5.748260450493514   8.334111179061903 
 -3.734355745113012  12.219574936973565   8.333278226611371 
  1.245004323659543  12.218655065026722   8.333682459561681 
  2.495548842039397   5.747073622999389   8.297459031076672 
  6.223094711184880  12.216686349215594   8.338608248438222 
 -6.224139515502219  12.217637771670715   1.668034727364816 
  7.462921940208338   5.746572646799928   8.272564909786089 
 -1.244615876722594  12.220541946482960   1.676615171179018 
  0.002094398276587   5.748024097086121   1.672528534816800 
 -1.244275114293127   7.904479118387464   1.667938869400185 
  4.984327272256614   5.747109908371604   1.762379350969830 
  3.734372553643721  12.216899542028639   1.667841184480098 
  9.952978977565035   5.747591568976685   1.695122825205343 
 -3.736602741345477   7.904146214717709   8.330683928199235 
  2.490362550901641   1.439917931166178   8.325243018516085 
  6.222065242506458   7.901730430642119   8.294754023862410 
  7.467275222908971   1.442092277721173   8.305477450846910 
 12.446115646545636   1.437577980357501   8.338530257110348 
  5.841444819596622   5.852223967228557   5.002978606422314 
  1.243803331693640   0.719310046980274   1.663978774383285 
  4.978800625403948   7.187407539312422   1.703197581648529 
  6.223314073771687   0.719141778874714   1.683011538970679 
  9.957167501223363   7.186651646725023   1.680612016794077 
 11.202497441089864   0.718752858105615   1.663787251289309 
 -3.734459835804850   9.342666158285938   8.339722859801265 
  1.245255079985363   9.342189834205790   8.340784578568343 
  2.488506156435306   2.874963430312934   8.321075930699584 
  6.223506616225183   9.343369145480455   8.328335594804258 
  7.469155370469100   2.874148933350925   8.298873847505936 
 12.446640330835702   2.874584574834174   8.341934909888005 
 -1.244624801682052   9.342420502853477   1.662944656238175 
 -0.000875147983314   2.874565695435326   1.663586771131170 
  4.977949023016780   2.874621835700064   1.711533970546169 
  3.734773912599310   9.342735397234271   1.673317508057779 
  8.712384944248214   9.342938896963881   1.673783561395349 
  9.958032842586791   2.874255331702867   1.679796613690441 
 -4.979423393175271  11.498798188307822   8.342104792962115 
  0.000164317303949  11.498375083628922   8.340600302756091 
  1.244826698363311   5.030102573152754   8.327269896357999 
  6.225051098874396   5.030111089021276   8.285094162994774 
  4.978982602916906  11.498891498079940   8.342692118188772 
 11.202007117024229   5.030448667044181   8.331396573286286 
 -1.244890241817970   5.030434359981217   1.663427971095931 
 -2.489679007429042  11.498677663641843   1.665745644668874 
  2.489806828616948  11.498229552702130   1.663020584139659 
  3.734511171778534   5.030826380469365   1.726485324165624 
  7.467776455220930  11.499068325421664   1.663648395297621 
  8.713164139189997   5.030314310321406   1.702802254325627 
  0.000288782895445   7.186190212798611   8.340004929780299 
  1.243803331693640   0.719310046980275   8.341978438461489 
  4.978800625403949   7.187407539312423   8.302759631196100 
  6.223314073771688   0.719141778874715   8.322945673874068 
  9.957167501223363   7.186651646725024   8.325345196050616 
 -2.489575377243370   7.186433874717943   1.665752671681669 
 11.202497441089864   0.718752858105616   8.342169961555426 
  3.733249605311134   0.719301228461564   1.675004035653759 
  2.489902782112078   7.186187074666914   1.686331187488850 
  7.467931058871440   7.187089080625010   1.701310258959948 
  8.713287069413065   0.718650030157969   1.674147379734881 
  2.489902782112078   7.186187074666915   8.319626025355884 
 13.691184916327343   0.719138059113891   1.660935938018761 
 -1.244624801682052   9.342420502853477   8.343012556606240 
 -0.000875147983314   2.874565695435327   8.342370441713364 
  4.977949023016781   2.874621835700065   8.294423242298485 
  3.734773912599310   9.342735397234271   8.332639704786409 
  8.712384944248214   9.342938896963881   8.332173651449171 
  9.958032842586791   2.874255331702868   8.326160599153853 
 -3.734459835804850   9.342666158285938   1.666234353043136 
  1.245255079985363   9.342189834205790   1.665172634276271 
  2.488506156435306   2.874963430312933   1.684881282144631 
  6.223506616225182   9.343369145480455   1.677621618040303 
  7.469155370469100   2.874148933350924   1.707083365338786 
 12.446640330835702   2.874584574834173   1.664022302956651 
 -1.244890241817970   5.030434359981218   8.342529241748696 
 -2.489679007429042  11.498677663641843   8.340211568175715 
  2.489806828616949  11.498229552702130   8.342936628705075 
  3.734511171778534   5.030826380469366   8.279471888678911 
  7.467776455220931  11.499068325421664   8.342308817546980 
 -4.979423393175272  11.498798188307822   1.663852419882527 
  8.713164139189997   5.030314310321407   8.303154958519068 
  0.000164317303948  11.498375083628922   1.665356910088257 
  1.244826698363311   5.030102573152753   1.678687316486509 
  0.000288782895445   7.186190212798610   1.665952283064382 
  6.225051098874395   5.030111089021275   1.720863049849653 
  4.978982602916905  11.498891498079940   1.663265094655790 
 11.202007117024229   5.030448667044181   1.674560639558448 
 -2.489575377243370   7.186433874717943   8.340204541163239 
  3.733249605311135   0.719301228461565   8.330953177190855 
  7.467931058871441   7.187089080625011   8.304646953884866 
  8.713287069413065   0.718650030157970   8.331809833109787 
 13.691184916327343   0.719138059113892   8.345021274825653 
 -0.043899411513099   1.439485524044218   5.002978606422314 
  3.859120826553375   7.771414829930273   5.002978606422314 
  4.938649772321247   1.404011998241016   5.002978606422314 
  8.782461886668248   8.002924654242493   5.002978606422314 
  9.912279143372396   1.441301202096122   5.002978606422314 
 -4.978701337620982  10.060799314427541  11.673616748318732 
 -0.000096261258500  10.060890930441724  11.673616748318732 
  1.244781307090256   3.593361930182804  11.673616748318732 
  4.978728407735704  10.060742110922158  11.673616748318732 
  6.223422652823663   3.593226102511115  11.673616748318732 
 11.202126504962798   3.593411595864685  11.673616748318732 
 -2.465368488071093  10.044042192059905   5.002978606422314 
 -1.311975575026515   3.592302992178303   5.002978606422314 
  3.645426572184156   3.563225828083284   5.002978606422314 
  2.534591059484397   9.983073674129429   5.002978606422314 
  7.515180507640111  10.154063225864265   5.002978606422314 
  8.624473929955030   3.617673690128711   5.002978606422314 
 -6.223388923782520  12.216725398353780  11.673616748318732 
 -1.244708943332348  12.216739404061322  11.673616748318732 
  0.000027948030395   5.749215461685796  11.673616748318732 
  4.978721483253518   5.749049923386316  11.673616748318732 
  3.733971087676315  12.216710669342891  11.673616748318732 
  9.957497817493257   5.749209352693847  11.673616748318732 
 -2.554838607607460   5.747875609291448   5.002978606422314 
 -3.725835716077226  12.210628160163473   5.002978606422314 
  1.256776808749873  12.158110016696567   5.002978606422314 
  2.427930504857587   5.660243418238807   5.002978606422314 
  6.202604193712687  12.240091103297019   5.002978606422314 
  7.301412561974400   5.956124768045195   5.002978606422314 
 -1.244737891106489   7.905026442535720  11.673616748318732 
  0.000060494081400   1.437402674580716  11.673616748318732 
  3.733967809272959   7.904900192478302  11.673616748318732 
  4.978846784743387   1.437403429936611  11.673616748318732 
  8.712890708974987   7.904913008571505  11.673616748318732 
 -3.719579953049882   7.912123241515473   5.002978606422314 
  9.957369015658667   1.437444522600427  11.673616748318732 
  2.465721619678250   1.434799537180565   5.002978606422314 
  1.298361829852954   7.832431021393520   5.002978606422314 
  6.337973788793924   8.088716888167999   5.002978606422314 
  7.459946950821489   1.366310403949212   5.002978606422314 
  1.244641474492133   7.905005723872570  11.673616748318732 
 12.395908983158209   1.448548130974278   5.002978606422314 
 -2.489377909480898  10.060848677560156  11.673616748318732 
 -1.244708040026849   3.593370804774561  11.673616748318732 
  3.734167039988435   3.593391683109048  11.673616748318732 
  2.489260838768627  10.060808969807777  11.673616748318732 
  7.468198845352044  10.060776161443714  11.673616748318732 
  8.712716632241946   3.593346137144914  11.673616748318732 
 -4.940151232548261  10.102051935469964   5.002978606422314 
  0.031680895150118  10.009086561707512   5.002978606422314 
  1.171633692746252   3.561908131102252   5.002978606422314 
  4.981796852257203  10.081211898206687   5.002978606422314 
  6.192501037502604   3.477149517113035   5.002978606422314 
 11.126594336676872   3.610413849376933   5.002978606422314 
 -2.489438864961943   5.749236257413488  11.673616748318732 
 -3.734006320913420  12.216728618895356  11.673616748318732 
  1.244535440536883  12.216754744212682  11.673616748318732 
  2.489486936839076   5.749168079128753  11.673616748318732 
  6.223496531648795  12.216709430722682  11.673616748318732 
 -6.215401827754091  12.255070056921584   5.002978606422314 
  7.468124410904908   5.749091293837351  11.673616748318732 
 -1.238718462391959  12.177924028126627   5.002978606422314 
 -0.043064764687094   5.725518760182126   5.002978606422314 
 -1.228085568970375   7.879858528835383   5.002978606422314 
  3.712061320283933  12.213970427637868   5.002978606422314 
  9.838214176417143   5.776481721926702   5.002978606422314 
 -3.734048741490879   7.904980680064038  11.673616748318732 
  2.489494789340938   1.437448885300445  11.673616748318732 
  6.223425003386918   7.904834570457750  11.673616748318732 
  7.468043476860691   1.437404468450793  11.673616748318732 
 12.446887019556389   1.437430367285984  11.673616748318732 
  3.669172719632794   4.978041664475114   5.002978606422314 
Generated by cif2cell 2.0.0.  :  Failed to get author information, No journal information. Species order: B N O 
 1.0
 14.936314146199660   0.000000000000000   0.000000000000000
 -7.468157073099825  12.935227489513863   0.000000000000000
  0.000000000000001   0.000000000000001  13.341276283792837
 B N O 
 142 144   1
Cartesian
  1.225282257762314   0.744607928646517   5.002978606422314 
  5.276988774183322   7.119736216169437   5.002978606422314 
  6.200769665663968   0.696430345786838   5.002978606422314 
  9.954691905310945   7.209546034290906   5.002978606422314 
 11.151544380447335   0.725253437358837   5.002978606422314 
 -3.734265241115594   9.342052960233678  11.673616748318732 
  1.244932445433358   9.341962704582523  11.673616748318732 
  2.490903073738638   2.875478490580976  11.673616748318732 
  6.223323485081161   9.340658390758600  11.673616748318732 
  7.466996506741516   2.875658134119942  11.673616748318732 
 12.446400168713204   2.875031060772520  11.673616748318732 
 -1.223077866171021   9.314636677048414   5.002978606422314 
 -0.065808778349531   2.868463932626780   5.002978606422314 
  4.988962772412021   2.886311507303561   5.002978606422314 
  3.798704157490746   9.236256987223236   5.002978606422314 
  8.750414801154065   9.416792768160084   5.002978606422314 
  9.860706086570325   2.905867345786147   5.002978606422314 
 -4.978460010391725  11.498116603426658  11.673616748318732 
 -0.000219226510586  11.498578523993508  11.673616748318732 
  1.245994116485669   5.030800829667140  11.673616748318732 
  6.223070613719281   5.030284567414596  11.673616748318732 
  4.978617584073120  11.497351849619436  11.673616748318732 
 11.201192923248367   5.030751805362980  11.673616748318732 
 -1.307664884054963   5.026596067665473   5.002978606422314 
 -2.481070789829893  11.482195676251212   5.002978606422314 
  2.501923168924839  11.436557056205471   5.002978606422314 
  7.476277091725112  11.560995778050716   5.002978606422314 
  8.480688917125645   5.082092764786654   5.002978606422314 
  0.000508732539793   7.186362419427798  11.673616748318732 
  1.245486064849864   0.719106756536879  11.673616748318732 
  4.979092763077869   7.184906565679229  11.673616748318732 
  6.223366229188977   0.719888507141763  11.673616748318732 
  9.956641763303518   7.185921189665151  11.673616748318732 
 -2.491934110612055   7.181027443204472   5.002978606422314 
 11.201481908976975   0.718970737592499  11.673616748318732 
  3.720121964876412   0.711720004182699   5.002978606422314 
  2.581899415973601   7.097291008637971   5.002978606422314 
  7.531535787551794   7.344250023191081   5.002978606422314 
  8.691534120761290   0.674696758362001   5.002978606422314 
  2.490395061507440   7.185825288170752  11.673616748318732 
 13.646468506216676   0.733637357908076   5.002978606422314 
 -1.244651017907324   9.342355895155093  11.673616748318732 
  0.000708419833881   2.875077791495185  11.673616748318732 
  4.979573056778467   2.875750754788099  11.673616748318732 
  3.734304020486234   9.341032719456567  11.673616748318732 
  8.712502268597138   9.341310997692597  11.673616748318732 
  9.956087925246647   2.875318678079956  11.673616748318732 
 -3.715873178544777   9.347804168081709   5.002978606422314 
  1.285667555549280   9.274997642691485   5.002978606422314 
  2.436083348023567   2.870968824920823   5.002978606422314 
  6.270225898376460   9.453816463415066   5.002978606422314 
  7.375817398307417   2.836797096847384   5.002978606422314 
 12.370279389210582   2.888809431796786   5.002978606422314 
 -1.244582658223140   5.030790127594917  11.673616748318732 
 -2.489196899147765  11.498641389719467  11.673616748318732 
  2.489026403134055  11.497939356865595  11.673616748318732 
  3.735555304238542   5.030654590540020  11.673616748318732 
  7.468268732334636  11.497486006860813  11.673616748318732 
 -4.967184588768917  11.526486435875837   5.002978606422314 
  8.711330954953148   5.030565757371213  11.673616748318732 
  0.009495151656089  11.454219452561116   5.002978606422314 
  1.189011720088521   4.982425770821247   5.002978606422314 
  0.021106627904354   7.155306041878255   5.002978606422314 
  4.958827675530408  11.506654355429617   5.002978606422314 
 11.092321514161746   5.051370899085607   5.002978606422314 
 -2.489681043834896   7.186367014184737  11.673616748318732 
  3.734963473186750   0.719693339726437  11.673616748318732 
  7.467370602590065   7.185132606708186  11.673616748318732 
  8.711871063676030   0.719557451332276  11.673616748318732 
 13.691672242302500   0.718743108591875  11.673616748318732 
 -0.000061147884509   1.437878645330066   1.667267729352528 
  3.739020723642906   7.901710599985425   1.699548423123835 
  4.979365183307739   1.443128938708142   1.701924248396332 
  8.708569924834492   7.902696648891840   1.693827642393074 
  9.956235241249416   1.438712912875397   1.679269975564978 
 -4.980712439273506  10.060888911798216   8.333748268496469 
  0.001250400861946  10.061589490111393   8.337963236667441 
  1.246870412853793   3.593252683821909   8.324914249313945 
  4.979760382220340  10.059379174368575   8.327966469758318 
  6.223302164184206   3.597668067051773   8.250941582844604 
 11.199739821955404   3.592994128135529   8.327385978979516 
 -2.489931225219732  10.062069495745737   1.668455800470391 
 -1.245020401351216   3.592899882727878   1.667547908356339 
  3.737943614451248   3.596045048988040   1.726341548143687 
  2.491820438433705  10.060007710158887   1.671808645211271 
  7.466489225078011  10.059697140060498   1.677814940270544 
  8.709066537119725   3.593881653408720   1.711700837059493 
 -6.224139515502218  12.217637771670715   8.337922485479652 
 -1.244615876722593  12.220541946482960   8.329342041665662 
  0.002094398276587   5.748024097086122   8.333428678028280 
  4.984327272256615   5.747109908371605   8.243577861874812 
  3.734372553643721  12.216899542028639   8.338116028364597 
  9.952978977565035   5.747591568976686   8.310834387639204 
 -2.490998949466516   5.748260450493513   1.671846033782618 
 -3.734355745113013  12.219574936973565   1.672678986233177 
  1.245004323659543  12.218655065026722   1.672274753283028 
  2.495548842039396   5.747073622999388   1.708498181767730 
  6.223094711184879  12.216686349215594   1.667348964406474 
  7.462921940208338   5.746572646799927   1.733392303058579 
 -1.244275114293127   7.904479118387465   8.338018343444309 
 -0.000061147884494   1.437878645330067   8.338689483492006 
  3.739020723642906   7.901710599985426   8.306408789720832 
  4.979365183307740   1.443128938708142   8.304032964448163 
  8.708569924834492   7.902696648891841   8.312129570451821 
 -3.736602741345463   7.904146214717708   1.675273284645113 
  9.956235241249416   1.438712912875398   8.326687237279863 
  2.490362550901640   1.439917931166177   1.680714194328516 
  1.248302426200445   7.903289347355766   1.676746420928324 
  6.222065242506457   7.901730430642118   1.711203188982110 
  7.467275222908970   1.442092277721172   1.700479761997425 
  1.248302426200445   7.903289347355767   8.329210791916211 
 12.446115646545636   1.437577980357500   1.667426955734386 
 -2.489931225219731  10.062069495745737   8.337501412373877 
 -1.245020401351216   3.592899882727879   8.338409304488476 
  3.737943614451248   3.596045048988041   8.279615664701048 
  2.491820438433705  10.060007710158887   8.334148567633276 
  7.466489225078012  10.059697140060498   8.328142272574111 
  8.709066537119725   3.593881653408721   8.294256375785281 
 -4.980712439273507  10.060888911798216   1.672208944348065 
  0.001250400861945  10.061589490111393   1.667993976177013 
  1.246870412853777   3.593252683821908   1.681042963530589 
  4.979760382220339  10.059379174368575   1.677990743086298 
  6.223302164184205   3.597668067051772   1.755015630000331 
 11.199739821955404   3.592994128135528   1.678571233865152 
 -2.490998949466515   5.748260450493514   8.334111179061903 
 -3.734355745113012  12.219574936973565   8.333278226611371 
  1.245004323659543  12.218655065026722   8.333682459561681 
  2.495548842039397   5.747073622999389   8.297459031076672 
  6.223094711184880  12.216686349215594   8.338608248438222 
 -6.224139515502219  12.217637771670715   1.668034727364816 
  7.462921940208338   5.746572646799928   8.272564909786089 
 -1.244615876722594  12.220541946482960   1.676615171179018 
  0.002094398276587   5.748024097086121   1.672528534816800 
 -1.244275114293127   7.904479118387464   1.667938869400185 
  4.984327272256614   5.747109908371604   1.762379350969830 
  3.734372553643721  12.216899542028639   1.667841184480098 
  9.952978977565035   5.747591568976685   1.695122825205343 
 -3.736602741345477   7.904146214717709   8.330683928199235 
  2.490362550901641   1.439917931166178   8.325243018516085 
  6.222065242506458   7.901730430642119   8.294754023862410 
  7.467275222908971   1.442092277721173   8.305477450846910 
 12.446115646545636   1.437577980357501   8.338530257110348 
  5.841444819596622   5.852223967228557   5.002978606422314 
  1.243803331693640   0.719310046980274   1.663978774383285 
  4.978800625403948   7.187407539312422   1.703197581648529 
  6.223314073771687   0.719141778874714   1.683011538970679 
  9.957167501223363   7.186651646725023   1.680612016794077 
 11.202497441089864   0.718752858105615   1.663787251289309 
 -3.734459835804850   9.342666158285938   8.339722859801265 
  1.245255079985363   9.342189834205790   8.340784578568343 
  2.488506156435306   2.874963430312934   8.321075930699584 
  6.223506616225183   9.343369145480455   8.328335594804258 
  7.469155370469100   2.874148933350925   8.298873847505936 
 12.446640330835702   2.874584574834174   8.341934909888005 
 -1.244624801682052   9.342420502853477   1.662944656238175 
 -0.000875147983314   2.874565695435326   1.663586771131170 
  4.977949023016780   2.874621835700064   1.711533970546169 
  3.734773912599310   9.342735397234271   1.673317508057779 
  8.712384944248214   9.342938896963881   1.673783561395349 
  9.958032842586791   2.874255331702867   1.679796613690441 
 -4.979423393175271  11.498798188307822   8.342104792962115 
  0.000164317303949  11.498375083628922   8.340600302756091 
  1.244826698363311   5.030102573152754   8.327269896357999 
  6.225051098874396   5.030111089021276   8.285094162994774 
  4.978982602916906  11.498891498079940   8.342692118188772 
 11.202007117024229   5.030448667044181   8.331396573286286 
 -1.244890241817970   5.030434359981217   1.663427971095931 
 -2.489679007429042  11.498677663641843   1.665745644668874 
  2.489806828616948  11.498229552702130   1.663020584139659 
  3.734511171778534   5.030826380469365   1.726485324165624 
  7.467776455220930  11.499068325421664   1.663648395297621 
  8.713164139189997   5.030314310321406   1.702802254325627 
  0.000288782895445   7.186190212798611   8.340004929780299 
  1.243803331693640   0.719310046980275   8.341978438461489 
  4.978800625403949   7.187407539312423   8.302759631196100 
  6.223314073771688   0.719141778874715   8.322945673874068 
  9.957167501223363   7.186651646725024   8.325345196050616 
 -2.489575377243370   7.186433874717943   1.665752671681669 
 11.202497441089864   0.718752858105616   8.342169961555426 
  3.733249605311134   0.719301228461564   1.675004035653759 
  2.489902782112078   7.186187074666914   1.686331187488850 
  7.467931058871440   7.187089080625010   1.701310258959948 
  8.713287069413065   0.718650030157969   1.674147379734881 
  2.489902782112078   7.186187074666915   8.319626025355884 
 13.691184916327343   0.719138059113891   1.660935938018761 
 -1.244624801682052   9.342420502853477   8.343012556606240 
 -0.000875147983314   2.874565695435327   8.342370441713364 
  4.977949023016781   2.874621835700065   8.294423242298485 
  3.734773912599310   9.342735397234271   8.332639704786409 
  8.712384944248214   9.342938896963881   8.332173651449171 
  9.958032842586791   2.874255331702868   8.326160599153853 
 -3.734459835804850   9.342666158285938   1.666234353043136 
  1.245255079985363   9.342189834205790   1.665172634276271 
  2.488506156435306   2.874963430312933   1.684881282144631 
  6.223506616225182   9.343369145480455   1.677621618040303 