 B N P 
 1.0
 14.936314146199660   0.000000000000000   0.000000000000000
 -7.468157073099825  12.935227489513863   0.000000000000000
  0.000000000000001   0.000000000000001  13.341276283792837
 B N P 
 143 143   1
Cartesian
  1.280599833239436   0.742856267421601   5.002978606422314 
  4.881639578367621   7.233815455599614   5.002978606422314 
  6.246239476019457   0.695249888534218   5.002978606422314 
  9.937247522678444   7.178979302425266   5.002978606422314 
 11.232825287025506   0.736284707884728   5.002978606422314 
 -3.734390936498023   9.341928378232558  11.673616748318732 
  1.244386030531899   9.341897584952523  11.673616748318732 
  2.489257237868897   2.874411861307052  11.673616748318732 
  6.223148515347376   9.341784936305862  11.673616748318732 
  7.467692070460639   2.874395549742445  11.673616748318732 
 12.446656213527648   2.874355274813482  11.673616748318732 
 -1.251853466582691   9.346018402166992   5.002978606422314 
  0.055850568728886   2.906740338559717   5.002978606422314 
  5.022097458946254   2.818347424712907   5.002978606422314 
  3.722443859937447   9.404412802098127   5.002978606422314 
  8.696416519448857   9.328161643625586   5.002978606422314 
  9.987881841723935   2.879682292417924   5.002978606422314 
 -4.979064742211885  11.497796948426066  11.673616748318732 
 -0.000319646362603  11.497795442765508  11.673616748318732 
  1.244556620732417   5.030296570399787  11.673616748318732 
  6.222923084523831   5.030300791501726  11.673616748318732 
  4.978463901704277  11.497727263199810  11.673616748318732 
 11.201909210821139   5.030228563615356  11.673616748318732 
 -1.205753375465876   5.049346350461136   5.002978606422314 
 -2.489580136911003  11.489823881058697   5.002978606422314 
  2.500655524911640  11.525360003052926   5.002978606422314 
  7.478274711432300  11.502988304116851   5.002978606422314 
  8.695604546921746   5.020375885093328   5.002978606422314 
 -0.000254558115364   7.186087515917699  11.673616748318732 
  1.244462961377139   0.718470825711536  11.673616748318732 
  4.978444125346116   7.185801577747977  11.673616748318732 
  6.223127952353988   0.718463618583489  11.673616748318732 
  9.957207404344183   7.186075744431338  11.673616748318732 
 -2.495753223259504   7.189284847255013   5.002978606422314 
 11.201917150726262   0.718439887072322  11.673616748318732 
  3.748945037950643   0.707238098960663   5.002978606422314 
  2.462423504931600   7.251832763877040   5.002978606422314 
  7.427024273745035   7.162489461394437   5.002978606422314 
  8.742196621827450   0.714693705665488   5.002978606422314 
  2.489134691428275   7.186026766739954  11.673616748318732 
 13.727447451385299   0.742431913973846   5.002978606422314 
 -1.244988826814292   9.341932605899576  11.673616748318732 
 -0.000173012022888   2.874395109131732  11.673616748318732 
  4.978463386952563   2.874382989352703  11.673616748318732 
  3.733759910798956   9.341755762291909  11.673616748318732 
  8.712542159335468   9.341899187201614  11.673616748318732 
  9.957170155534802   2.874355075604369  11.673616748318732 
 -3.746265163091123   9.335072790312619   5.002978606422314 
  1.235838112425371   9.373519616591619   5.002978606422314 
  2.565725357111895   2.928609642028243   5.002978606422314 
  6.206189635465213   9.332168992855653   5.002978606422314 
  7.516296633227958   2.833267042322828   5.002978606422314 
 12.485460005840833   2.893617272019560   5.002978606422314 
 -1.244940223400558   5.030243622270310  11.673616748318732 
 -2.489686220389075  11.497811731619670  11.673616748318732 
  2.489048602820633  11.497753793135413  11.673616748318732 
  3.733988019037524   5.030313985611805  11.673616748318732 
  7.467874637310308  11.497766162154946  11.673616748318732 
 -4.979316062997539  11.490941869471358   5.002978606422314 
  8.712411638172114   5.030254734165815  11.673616748318732 
  0.006794345094234  11.501902707648073   5.002978606422314 
  1.329727335287206   5.069421013883245   5.002978606422314 
 -0.002427011833771   7.204805087281115   5.002978606422314 
  6.216102048988244   4.922458655690789   5.002978606422314 
  4.998433249890842  11.521660755225890   5.002978606422314 
 11.211631755483316   5.036624221025290   5.002978606422314 
 -2.489690890346909   7.186074957962457  11.673616748318732 
  3.733821372511921   0.718478284751160  11.673616748318732 
  7.467778390278991   7.186018861545850  11.673616748318732 
  8.712485481691216   0.718444921233610  11.673616748318732 
 13.691364176320626   0.718457842670479  11.673616748318732 
 -0.000156805887891   1.437086796190726   1.667791629295649 
  3.734245787449693   7.904147811634900   1.660623719455773 
  4.978611612521104   1.437662518138560   1.666217550035733 
  8.711976871376063   7.904357189532625   1.667313358286659 
  9.957454722506755   1.437201460408971   1.667730515105501 
 -4.979127956595314  10.060498435674250   8.338243480774919 
  0.000014515138179  10.060663620382599   8.338210329904758 
  1.244397626650417   3.592948302395385   8.341846059653260 
  4.978380579048783  10.060383554662510   8.338827593477241 
  6.222930002834508   3.593620306593683   8.345333493388855 
 11.201975001659743   3.593065731036746   8.338124817013945 
 -2.489550986301627  10.060637058576457   1.667637812414454 
 -1.244910421032889   3.593063300526915   1.667791629295649 
  3.733424827290453   3.593431641547698   1.654070376914228 
  2.489383136891514  10.060584739304486   1.667601173879453 
  7.467635167062868  10.060309392503548   1.667829710108026 
  8.712352328643966   3.592954770336752   1.667129619367387 
 -6.223692792346497  12.216350385162519   8.337967346779905 
 -1.244745232382888  12.216650746305710   8.338210329904758 
 -0.000190385870142   5.748805057907319   8.338923880891873 
  4.977397890341188   5.748197009522079   8.344247989333196 
  3.733994645290342  12.216550513024403   8.338226697739128 
  9.956915396337349   5.748749561123414   8.338127502736588 
 -2.489719385223888   5.748918729915045   1.667989866064723 
 -3.734233956557002  12.216607839485409   1.667701837767091 
  1.244690079459009  12.216602143112201   1.667756180204537 
  2.489329810955036   5.748267419283888   1.654070376914228 
  6.223288010341635  12.216404554981999   1.667832395830683 
  7.466676795692749   5.748324623418389   1.662110866685260 
 -1.244767005345194   7.904724596222938   8.338255375077537 
 -0.000156805887891   1.437086796190727   8.338165583548978 
  3.734245787449693   7.904147811634901   8.345333493388855 
  4.978611612521105   1.437662518138560   8.339739662808894 
  8.711976871376063   7.904357189532626   8.338643854557956 
 -3.734459522403273   7.904669469076417   1.667713732069708 
  9.957454722506755   1.437201460408972   8.338226697739128 
  2.489130337583809   1.437175088550930   1.667033331952756 
  1.244972378003897   7.904515369454977   1.666217550035733 
  6.222147859892990   7.903911971713211   1.662110866685260 
  7.468027838576143   1.437319163153054   1.667601173879453 
  1.244972378003898   7.904515369454978   8.339739662808894 
 12.446826703310469   1.437188752373554   1.667614600661471 
 -2.489550986301627  10.060637058576457   8.338319400430175 
 -1.244910421032889   3.593063300526916   8.338165583548978 
  3.733424827290454   3.593431641547699   8.351886835930413 
  2.489383136891515  10.060584739304486   8.338356038965161 
  7.467635167062869  10.060309392503548   8.338127502736588 
  8.712352328643966   3.592954770336753   8.338827593477241 
 -4.979127956595315  10.060498435674250   1.667713732069708 
  0.000014515138179  10.060663620382599   1.667746882939870 
  1.244397626650417   3.592948302395384   1.664111153191367 
  4.978380579048782  10.060383554662510   1.667129619367387 
  6.222930002834508   3.593620306593682   1.660623719455773 
 11.201975001659743   3.593065731036745   1.667832395830683 
 -2.489719385223887   5.748918729915046   8.337967346779905 
 -3.734233956557002  12.216607839485409   8.338255375077537 
  1.244690079459009  12.216602143112201   8.338201032640089 
  2.489329810955037   5.748267419283889   8.351886835930413 
  6.223288010341636  12.216404554981999   8.338124817013945 
 -6.223692792346498  12.216350385162519   1.667989866064723 
  7.466676795692750   5.748324623418390   8.343846346159367 
 -1.244745232382889  12.216650746305710   1.667746882939870 
 -0.000190385870142   5.748805057907318   1.667033331952756 
 -1.244767005345195   7.904724596222938   1.667701837767091 
  4.977397890341187   5.748197009522078   1.661709223511432 
  3.733994645290341  12.216550513024403   1.667730515105501 
  9.956915396337349   5.748749561123413   1.667829710108026 
 -3.734459522403272   7.904669469076418   8.338243480774919 
  2.489130337583810   1.437175088550931   8.338923880891873 
  6.222147859892991   7.903911971713212   8.343846346159367 
  7.468027838576144   1.437319163153055   8.338356038965161 
 12.446826703310469   1.437188752373554   8.338342612183157 
  1.244387909957803   0.718244165049221   1.668503391351826 
  4.978405877740473   7.186428747915188   1.652837886852595 
  6.223436675561162   0.718540847031969   1.668241744941623 
  9.957101937940953   7.186043059726160   1.668205970391904 
 11.202215758398928   0.718612288292397   1.667871536039229 
 -3.734351558543627   9.341951113105127   8.338069966466080 
  1.244607273933818   9.342126332868341   8.337715467903006 
  2.488664887919413   2.874011223422725   8.343431354104794 
  6.223038090315030   9.341781893390621   8.338392756736830 
  7.467994611689806   2.874309352227898   8.339393011717009 
 12.446668391016916   2.874432456711002   8.337909178723599 
 -1.244824044630790   9.342087007992836   1.667928025092072 
 -0.000530813887659   2.874188532128719   1.667763356583500 
  4.978582439933660   2.874331759717324   1.660870008309867 
  3.733836532176199   9.342060869439331   1.666564201127619 
  8.712461120348854   9.341824192969758   1.668205970391904 
  9.957387506309873   2.874425306513232   1.668423906645566 
 -4.978996273062215  11.497733691693261   8.338131784743139 
  0.000008141499570  11.497984691175917   8.338000345793375 
  1.243913483172129   5.029983899237767   8.343431354104794 
  6.223447106018356   5.029954083019921   8.353119325992031 
  4.978633398843072  11.497880379038032   8.337533306199061 
 11.201836325155039   5.030316415956452   8.337538744925657 
 -1.245174043001717   5.030291956165538   1.668503391351826 
 -2.489470113162103  11.497877236129940   1.667928025092072 
  2.489349791275564  11.498028687090930   1.668184015025785 
  3.732050317747986   5.029195253250801   1.636325408396536 
  7.467914276836428  11.497659115145982   1.668418467918970 
  8.712353790413990   5.030160624740300   1.667564456107798 
 -0.000234568532727   7.186199779332589   8.338297403198196 
  1.244387909957803   0.718244165049221   8.337453821492895 
  4.978405877740474   7.186428747915189   8.353119325992031 
  6.223436675561163   0.718540847031970   8.337715467903006 
  9.957101937940953   7.186043059726161   8.337751242452725 
 -2.489711437709687   7.186165882351925   1.667825428101489 
 11.202215758398928   0.718612288292398   8.338085676805399 
  3.733928590272456   0.718439464530077   1.667659809646431 
  2.489149851753159   7.186155484463670   1.660870008309867 
  7.467648175787458   7.185943682174103   1.665557216355988 
  8.712874141067463   0.718568311109225   1.668184015025785 
  2.489149851753159   7.186155484463671   8.345087204534760 
 13.691437106549216   0.718429797736792   1.668048034121028 
 -1.244824044630790   9.342087007992836   8.338029187752555 
 -0.000530813887659   2.874188532128720   8.338193856261128 
  4.978582439933660   2.874331759717325   8.345087204534760 
  3.733836532176200   9.342060869439331   8.339393011717009 
  8.712461120348854   9.341824192969758   8.337751242452725 
  9.957387506309873   2.874425306513233   8.337533306199061 
 -3.734351558543628   9.341951113105127   1.667887246378547 
  1.244607273933817   9.342126332868341   1.668241744941623 
  2.488664887919413   2.874011223422724   1.662525858739834 
  6.223038090315029   9.341781893390621   1.667564456107798 
  7.467994611689805   2.874309352227897   1.666564201127619 
 12.446668391016916   2.874432456711002   1.668048034121028 
 -1.245174043001716   5.030291956165539   8.337453821492895 
 -2.489470113162102  11.497877236129940   8.338029187752555 
  2.489349791275564  11.498028687090930   8.337773197818828 
  3.732050317747986   5.029195253250802   8.369631804448090 
  7.467914276836429  11.497659115145982   8.337538744925657 
 -4.978996273062216  11.497733691693261   1.667825428101489 
  8.712353790413990   5.030160624740301   8.338392756736830 
  0.000008141499570  11.497984691175917   1.667956867051238 
  1.243913483172129   5.029983899237767   1.662525858739834 
 -0.000234568532727   7.186199779332588   1.667659809646431 
  6.223447106018355   5.029954083019920   1.652837886852595 
  4.978633398843071  11.497880379038032   1.668423906645566 
 11.201836325155039   5.030316415956452   1.668418467918970 
 -2.489711437709687   7.186165882351926   8.338131784743139 
  3.733928590272456   0.718439464530077   8.338297403198196 
  7.467648175787459   7.185943682174104   8.340399996488639 
  8.712874141067463   0.718568311109226   8.337773197818828 
 13.691437106549216   0.718429797736793   8.337909178723599 
  0.039298876958664   1.465017050975522   5.002978606422314 
  3.685467271231922   7.983210281958678   5.002978606422314 
  5.000976148699539   1.397245161605020   5.002978606422314 
  8.680175811677843   7.885996839155332   5.002978606422314 
  9.984375881758471   1.444016925774453   5.002978606422314 
 -4.979060422299442  10.060577367031913  11.673616748318732 
 -0.000336259014835  10.060592510710636  11.673616748318732 
  1.244384035062611   3.592940455288447  11.673616748318732 
  4.978465066407121  10.060584584739335  11.673616748318732 
  6.223163445624516   3.592871007615575  11.673616748318732 
 11.201973176565261   3.592964489627465  11.673616748318732 
 -2.499716582036088  10.054767949142693   5.002978606422314 
 -1.200994269431807   3.613267796803296   5.002978606422314 
  3.844667108712117   3.616896201404483   5.002978606422314 
  2.478702927642440  10.099101527679062   5.002978606422314 
  7.456926388757096  10.053603103760505   5.002978606422314 
  8.735556923715219   3.584916470779894   5.002978606422314 
 -6.223771900433363  12.216416696867398  11.673616748318732 
 -1.244982202241720  12.216382521814102  11.673616748318732 
 -0.000370871729862   5.748846444097110  11.673616748318732 
  4.978518673417617   5.748844093932958  11.673616748318732 
  3.733757483780042  12.216436636511403  11.673616748318732 
  9.957305741491888   5.748836267782614  11.673616748318732 
 -2.472456978534074   5.754119735056601   5.002978606422314 
 -3.733666266774140  12.206158222447305   5.002978606422314 
  1.255111542289269  12.222618977482661   5.002978606422314 
  2.565271856590464   5.832873781041596   5.002978606422314 
  6.245110331739363  12.236853514476730   5.002978606422314 
  7.414767953180746   5.723807064494909   5.002978606422314 
 -1.245055458141767   7.904703794166686  11.673616748318732 
 -0.000289208584568   1.437063226822302  11.673616748318732 
  3.733713596894678   7.904724628510340  11.673616748318732 
  4.978481483170238   1.436941592123008  11.673616748318732 
  8.712647984558149   7.904744656908967  11.673616748318732 
 -3.750046682821496   7.897858873563002   5.002978606422314 
  9.957237521798451   1.437053010772753  11.673616748318732 
  2.531975547845538   1.469639244052271   5.002978606422314 
  1.221152188581257   7.944092304196128   5.002978606422314 
  6.174960609770473   7.871216374878512   5.002978606422314 
  7.496044251156169   1.408811436438347   5.002978606422314 
  1.244282973084806   7.904763137139021  11.673616748318732 
 12.480292141539614   1.456510032143693   5.002978606422314 
 -2.489702550829740  10.060549552755285  11.673616748318732 
 -1.244997034053036   3.592960421112277  11.673616748318732 
  3.733818919318462   3.592821221455554  11.673616748318732 
  2.489024334433119  10.060587718733530  11.673616748318732 
  7.467905429809690  10.060604087994012  11.673616748318732 
  8.712568669476589   3.592927423496961  11.673616748318732 
 -4.992819685533998  10.050404856536002   5.002978606422314 
 -0.009267993793710  10.072374373641235   5.002978606422314 
  1.309764556336802   3.630687916845797   5.002978606422314 
  4.983021504964933  10.084498473257188   5.002978606422314 
  6.267010852511967   3.511845637228293   5.002978606422314 
 11.230595480762107   3.601739935989182   5.002978606422314 
 -2.489701511646275   5.748817064449645  11.673616748318732 
 -3.734396198064506  12.216368433064003  11.673616748318732 
  1.244363936050789  12.216413844127672  11.673616748318732 
  2.488998217662210   5.748913923037735  11.673616748318732 
  6.223199420162094  12.216453595108364  11.673616748318732 
 -6.210557386423733  12.228699565315477   5.002978606422314 
  7.467936797534775   5.748862884440172  11.673616748318732 
 -1.239244677029350  12.202756481130429   5.002978606422314 
  0.049347002637299   5.769678020673778   5.002978606422314 
 -1.253532794268587   7.910441038515430   5.002978606422314 
  3.753357591061267  12.236457188153063   5.002978606422314 
  9.945753190767874   5.742828631438640   5.002978606422314 
 -3.734357398694496   7.904688489813528  11.673616748318732 
  2.489075936145682   1.436998090116481  11.673616748318732 
  6.223244008532726   7.904734034806343  11.673616748318732 
  7.467851017608176   1.437006941394638  11.673616748318732 
 12.446649955652191   1.437086707065523  11.673616748318732 
  4.272730589452067   5.341357153664616   5.002978606422314 
Generated by cif2cell 2.0.0.  :  Failed to get author information, No journal information. Species order: B N P 
 1.0
 14.936314146199660   0.000000000000000   0.000000000000000
 -7.468157073099825  12.935227489513863   0.000000000000000
  0.000000000000001   0.000000000000001  13.341276283792837
 B N P 
 143 143   1
Cartesian
  1.280599833239436   0.742856267421601   5.002978606422314 
  4.881639578367621   7.233815455599614   5.002978606422314 
  6.246239476019457   0.695249888534218   5.002978606422314 
  9.937247522678444   7.178979302425266   5.002978606422314 
 11.232825287025506   0.736284707884728   5.002978606422314 
 -3.734390936498023   9.341928378232558  11.673616748318732 
  1.244386030531899   9.341897584952523  11.673616748318732 
  2.489257237868897   2.874411861307052  11.673616748318732 
  6.223148515347376   9.341784936305862  11.673616748318732 
  7.467692070460639   2.874395549742445  11.673616748318732 
 12.446656213527648   2.874355274813482  11.673616748318732 
 -1.251853466582691   9.346018402166992   5.002978606422314 
  0.055850568728886   2.906740338559717   5.002978606422314 
  5.022097458946254   2.818347424712907   5.002978606422314 
  3.722443859937447   9.404412802098127   5.002978606422314 
  8.696416519448857   9.328161643625586   5.002978606422314 
  9.987881841723935   2.879682292417924   5.002978606422314 
 -4.979064742211885  11.497796948426066  11.673616748318732 
 -0.000319646362603  11.497795442765508  11.673616748318732 
  1.244556620732417   5.030296570399787  11.673616748318732 
  6.222923084523831   5.030300791501726  11.673616748318732 
  4.978463901704277  11.497727263199810  11.673616748318732 
 11.201909210821139   5.030228563615356  11.673616748318732 
 -1.205753375465876   5.049346350461136   5.002978606422314 
 -2.489580136911003  11.489823881058697   5.002978606422314 
  2.500655524911640  11.525360003052926   5.002978606422314 
  7.478274711432300  11.502988304116851   5.002978606422314 
  8.695604546921746   5.020375885093328   5.002978606422314 
 -0.000254558115364   7.186087515917699  11.673616748318732 
  1.244462961377139   0.718470825711536  11.673616748318732 
  4.978444125346116   7.185801577747977  11.673616748318732 
  6.223127952353988   0.718463618583489  11.673616748318732 
  9.957207404344183   7.186075744431338  11.673616748318732 
 -2.495753223259504   7.189284847255013   5.002978606422314 
 11.201917150726262   0.718439887072322  11.673616748318732 
  3.748945037950643   0.707238098960663   5.002978606422314 
  2.462423504931600   7.251832763877040   5.002978606422314 
  7.427024273745035   7.162489461394437   5.002978606422314 
  8.742196621827450   0.714693705665488   5.002978606422314 
  2.489134691428275   7.186026766739954  11.673616748318732 
 13.727447451385299   0.742431913973846   5.002978606422314 
 -1.244988826814292   9.341932605899576  11.673616748318732 
 -0.000173012022888   2.874395109131732  11.673616748318732 
  4.978463386952563   2.874382989352703  11.673616748318732 
  3.733759910798956   9.341755762291909  11.673616748318732 
  8.712542159335468   9.341899187201614  11.673616748318732 
  9.957170155534802   2.874355075604369  11.673616748318732 
 -3.746265163091123   9.335072790312619   5.002978606422314 
  1.235838112425371   9.373519616591619   5.002978606422314 
  2.565725357111895   2.928609642028243   5.002978606422314 
  6.206189635465213   9.332168992855653   5.002978606422314 
  7.516296633227958   2.833267042322828   5.002978606422314 
 12.485460005840833   2.893617272019560   5.002978606422314 
 -1.244940223400558   5.030243622270310  11.673616748318732 
 -2.489686220389075  11.497811731619670  11.673616748318732 
  2.489048602820633  11.497753793135413  11.673616748318732 
  3.733988019037524   5.030313985611805  11.673616748318732 
  7.467874637310308  11.497766162154946  11.673616748318732 
 -4.979316062997539  11.490941869471358   5.002978606422314 
  8.712411638172114   5.030254734165815  11.673616748318732 
  0.006794345094234  11.501902707648073   5.002978606422314 
  1.329727335287206   5.069421013883245   5.002978606422314 
 -0.002427011833771   7.204805087281115   5.002978606422314 
  6.216102048988244   4.922458655690789   5.002978606422314 
  4.998433249890842  11.521660755225890   5.002978606422314 
 11.211631755483316   5.036624221025290   5.002978606422314 
 -2.489690890346909   7.186074957962457  11.673616748318732 
  3.733821372511921   0.718478284751160  11.673616748318732 
  7.467778390278991   7.186018861545850  11.673616748318732 
  8.712485481691216   0.718444921233610  11.673616748318732 
 13.691364176320626   0.718457842670479  11.673616748318732 
 -0.000156805887891   1.437086796190726   1.667791629295649 
  3.734245787449693   7.904147811634900   1.660623719455773 
  4.978611612521104   1.437662518138560   1.666217550035733 
  8.711976871376063   7.904357189532625   1.667313358286659 
  9.957454722506755   1.437201460408971   1.667730515105501 
 -4.979127956595314  10.060498435674250   8.338243480774919 
  0.000014515138179  10.060663620382599   8.338210329904758 
  1.244397626650417   3.592948302395385   8.341846059653260 
  4.978380579048783  10.060383554662510   8.338827593477241 
  6.222930002834508   3.593620306593683   8.345333493388855 
 11.201975001659743   3.593065731036746   8.338124817013945 
 -2.489550986301627  10.060637058576457   1.667637812414454 
 -1.244910421032889   3.593063300526915   1.667791629295649 
  3.733424827290453   3.593431641547698   1.654070376914228 
  2.489383136891514  10.060584739304486   1.667601173879453 
  7.467635167062868  10.060309392503548   1.667829710108026 
  8.712352328643966   3.592954770336752   1.667129619367387 
 -6.223692792346497  12.216350385162519   8.337967346779905 
 -1.244745232382888  12.216650746305710   8.338210329904758 
 -0.000190385870142   5.748805057907319   8.338923880891873 
  4.977397890341188   5.748197009522079   8.344247989333196 
  3.733994645290342  12.216550513024403   8.338226697739128 
  9.956915396337349   5.748749561123414   8.338127502736588 
 -2.489719385223888   5.748918729915045   1.667989866064723 
 -3.734233956557002  12.216607839485409   1.667701837767091 
  1.244690079459009  12.216602143112201   1.667756180204537 
  2.489329810955036   5.748267419283888   1.654070376914228 
  6.223288010341635  12.216404554981999   1.667832395830683 
  7.466676795692749   5.748324623418389   1.662110866685260 
 -1.244767005345194   7.904724596222938   8.338255375077537 
 -0.000156805887891   1.437086796190727   8.338165583548978 
  3.734245787449693   7.904147811634901   8.345333493388855 
  4.978611612521105   1.437662518138560   8.339739662808894 
  8.711976871376063   7.904357189532626   8.338643854557956 
 -3.734459522403273   7.904669469076417   1.667713732069708 
  9.957454722506755   1.437201460408972   8.338226697739128 
  2.489130337583809   1.437175088550930   1.667033331952756 
  1.244972378003897   7.904515369454977   1.666217550035733 
  6.222147859892990   7.903911971713211   1.662110866685260 
  7.468027838576143   1.437319163153054   1.667601173879453 
  1.244972378003898   7.904515369454978   8.339739662808894 
 12.446826703310469   1.437188752373554   1.667614600661471 
 -2.489550986301627  10.060637058576457   8.338319400430175 
 -1.244910421032889   3.593063300526916   8.338165583548978 
  3.733424827290454   3.593431641547699   8.351886835930413 
  2.489383136891515  10.060584739304486   8.338356038965161 
  7.467635167062869  10.060309392503548   8.338127502736588 
  8.712352328643966   3.592954770336753   8.338827593477241 
 -4.979127956595315  10.060498435674250   1.667713732069708 
  0.000014515138179  10.060663620382599   1.667746882939870 
  1.244397626650417   3.592948302395384   1.664111153191367 
  4.978380579048782  10.060383554662510   1.667129619367387 
  6.222930002834508   3.593620306593682   1.660623719455773 
 11.201975001659743   3.593065731036745   1.667832395830683 
 -2.489719385223887   5.748918729915046   8.337967346779905 
 -3.734233956557002  12.216607839485409   8.338255375077537 
  1.244690079459009  12.216602143112201   8.338201032640089 
  2.489329810955037   5.748267419283889   8.351886835930413 
  6.223288010341636  12.216404554981999   8.338124817013945 
 -6.223692792346498  12.216350385162519   1.667989866064723 
  7.466676795692750   5.748324623418390   8.343846346159367 
 -1.244745232382889  12.216650746305710   1.667746882939870 
 -0.000190385870142   5.748805057907318   1.667033331952756 
 -1.244767005345195   7.904724596222938   1.667701837767091 
  4.977397890341187   5.748197009522078   1.661709223511432 
  3.733994645290341  12.216550513024403   1.667730515105501 
  9.956915396337349   5.748749561123413   1.667829710108026 
 -3.734459522403272   7.904669469076418   8.338243480774919 
  2.489130337583810   1.437175088550931   8.338923880891873 
  6.222147859892991   7.903911971713212   8.343846346159367 
  7.468027838576144   1.437319163153055   8.338356038965161 
 12.446826703310469   1.437188752373554   8.338342612183157 
  1.244387909957803   0.718244165049221   1.668503391351826 
  4.978405877740473   7.186428747915188   1.652837886852595 
  6.223436675561162   0.718540847031969   1.668241744941623 
  9.957101937940953   7.186043059726160   1.668205970391904 
 11.202215758398928   0.718612288292397   1.667871536039229 
 -3.734351558543627   9.341951113105127   8.338069966466080 
  1.244607273933818   9.342126332868341   8.337715467903006 
  2.488664887919413   2.874011223422725   8.343431354104794 
  6.223038090315030   9.341781893390621   8.338392756736830 
  7.467994611689806   2.874309352227898   8.339393011717009 
 12.446668391016916   2.874432456711002   8.337909178723599 
 -1.244824044630790   9.342087007992836   1.667928025092072 
 -0.000530813887659   2.874188532128719   1.667763356583500 
  4.978582439933660   2.874331759717324   1.660870008309867 
  3.733836532176199   9.342060869439331   1.666564201127619 
  8.712461120348854   9.341824192969758   1.668205970391904 
  9.957387506309873   2.874425306513232   1.668423906645566 
 -4.978996273062215  11.497733691693261   8.338131784743139 
  0.000008141499570  11.497984691175917   8.338000345793375 
  1.243913483172129   5.029983899237767   8.343431354104794 
  6.223447106018356   5.029954083019921   8.353119325992031 
  4.978633398843072  11.497880379038032   8.337533306199061 
 11.201836325155039   5.030316415956452   8.337538744925657 
 -1.245174043001717   5.030291956165538   1.668503391351826 
 -2.489470113162103  11.497877236129940   1.667928025092072 
  2.489349791275564  11.498028687090930   1.668184015025785 
  3.732050317747986   5.029195253250801   1.636325408396536 
  7.467914276836428  11.497659115145982   1.668418467918970 
  8.712353790413990   5.030160624740300   1.667564456107798 
 -0.000234568532727   7.186199779332589   8.338297403198196 
  1.244387909957803   0.718244165049221   8.337453821492895 
  4.978405877740474   7.186428747915189   8.353119325992031 
  6.223436675561163   0.718540847031970   8.337715467903006 
  9.957101937940953   7.186043059726161   8.337751242452725 
 -2.489711437709687   7.186165882351925   1.667825428101489 
 11.202215758398928   0.718612288292398   8.338085676805399 
  3.733928590272456   0.718439464530077   1.667659809646431 
  2.489149851753159   7.186155484463670   1.660870008309867 
  7.467648175787458   7.185943682174103   1.665557216355988 
  8.712874141067463   0.718568311109225   1.668184015025785 
  2.489149851753159   7.186155484463671   8.345087204534760 
 13.691437106549216   0.718429797736792   1.668048034121028 
 -1.244824044630790   9.342087007992836   8.338029187752555 
 -0.000530813887659   2.874188532128720   8.338193856261128 
  4.978582439933660   2.874331759717325   8.345087204534760 
  3.733836532176200   9.342060869439331   8.339393011717009 
  8.712461120348854   9.341824192969758   8.337751242452725 
  9.957387506309873   2.874425306513233   8.337533306199061 
 -3.734351558543628   9.341951113105127   1.667887246378547 
  1.244607273933817   9.342126332868341   1.668241744941623 
  2.488664887919413   2.874011223422724   1.662525858739834 
  6.223038090315029   9.341781893390621   1.667564456107798 