Species order: X N B                    
   2.51242800000000     
     5.9449720136058266    0.0000000000000000    0.0000000000000000
    -2.9724860068029120    5.1484967885702053   -0.0000000000000001
     0.0000000000000000    0.0000000000000009    5.3101128803662583
   As   N    B 
     1   143   143
Direct
  0.4860403118360300  0.4096868225846791  0.3750000000000000
  0.1110458378375644  0.0555071937972315  0.1250290362067313
  0.6110052508620732  0.5555009406961894  0.1246791742779917
  0.4444184649857437  0.0555331746098309  0.1250659879852140
  0.9443874727628127  0.5555338294859432  0.1250663688007451
  0.7777513052163705  0.0555423192748529  0.1249978841824156
  0.1110733865250285  0.7222033599291787  0.6249812519546951
  0.4444184649857437  0.7222186237092485  0.6249340120147866
  0.2776684463325941  0.2221545840489681  0.6255404609405303
  0.7777049281332746  0.7221708398701845  0.6248529933698861
  0.6110589760545250  0.2221917124958167  0.6249698179369954
  0.9443978238796710  0.2222062439951736  0.6250067032770212
  0.2777538821921207  0.7222155315735269  0.1250142214618610
  0.1110377104751734  0.2221855219042509  0.1250010497018037
  0.4443817560911562  0.2221830221957445  0.1244956585179220
  0.6110589760545250  0.7222005968920387  0.1250301820630048
  0.9443874727628127  0.7221869766102055  0.1250663688007451
  0.7777394343943262  0.2222093376946049  0.1250290943753984
  0.1110682296555252  0.8888570786305615  0.6249900036794855
  0.4444305242848444  0.8888819288090870  0.6249847137040752
  0.2776684463325941  0.3888471956169547  0.6255404609405303
  0.6110052508620732  0.3888376434992127  0.6253208257220080
  0.7777394343943262  0.8888634300330489  0.6249709056246016
  0.9443912167605841  0.3888773077607821  0.6249805173369182
  0.1110458378375644  0.3888719773736619  0.1250290362067313
  0.2777538821921207  0.8888716839519231  0.1250142214618610
  0.6110910882181032  0.8888844981106799  0.1250101216678700
  0.4442117974971583  0.3887725654152432  0.1221416725278892
  0.9443912167605841  0.8888472423331309  0.1250194826630817
  0.7777049281332746  0.3888674215964188  0.1251470066301134
  0.2777331074203800  0.5555452473273431  0.6250035471915398
  0.1110458378375644  0.0555071937972315  0.6249709637932689
  0.6110052508620732  0.5555009406961894  0.6253208257220080
  0.4444184649857437  0.0555331746098309  0.6249340120147866
  0.9443874727628127  0.5555338294859432  0.6249336311992555
  0.1110682296555252  0.5555444843582916  0.1250099963205143
  0.7777513052163705  0.0555423192748529  0.6250021158175849
  0.2777331074203800  0.0555211934263719  0.1249964528084598
  0.4443817560911562  0.5555320672287468  0.1244956585179220
  0.7776935013884325  0.5555134173608839  0.1251994867505097
  0.6110910882181032  0.0555399234407510  0.1250101216678700
  0.4443817560911562  0.5555320672287468  0.6255043414820799
  0.9443978238796710  0.0555249132178340  0.1249932967229776
  0.2777538821921207  0.7222155315735269  0.6249857785381385
  0.1110377104751734  0.2221855219042509  0.6249989502981961
  0.4443817560911562  0.2221830221957445  0.6255043414820799
  0.6110589760545250  0.7222005968920387  0.6249698179369954
  0.9443874727628127  0.7221869766102055  0.6249336311992555
  0.7777394343943262  0.2222093376946049  0.6249709056246016
  0.1110733865250285  0.7222033599291787  0.1250187480453062
  0.4444184649857437  0.7222186237092485  0.1250659879852140
  0.2776684463325941  0.2221545840489681  0.1244595390594705
  0.7777049281332746  0.7221708398701845  0.1251470066301134
  0.6110589760545250  0.2221917124958167  0.1250301820630048
  0.9443978238796710  0.2222062439951736  0.1249932967229776
  0.1110458378375644  0.3888719773736619  0.6249709637932689
  0.2777538821921207  0.8888716839519231  0.6249857785381385
  0.6110910882181032  0.8888844981106799  0.6249898783321303
  0.4442117974971583  0.3887725654152432  0.6278583274721112
  0.9443912167605841  0.8888472423331309  0.6249805173369182
  0.1110682296555252  0.8888570786305615  0.1250099963205143
  0.7777049281332746  0.3888674215964188  0.6248529933698861
  0.4444305242848444  0.8888819288090870  0.1250152862959251
  0.2776684463325941  0.3888471956169547  0.1244595390594705
  0.2777331074203800  0.5555452473273431  0.1249964528084598
  0.6110052508620732  0.3888376434992127  0.1246791742779917
  0.7777394343943262  0.8888634300330489  0.1250290943753984
  0.9443912167605841  0.3888773077607821  0.1250194826630817
  0.1110682296555252  0.5555444843582916  0.6249900036794855
  0.2777331074203800  0.0555211934263718  0.6250035471915398
  0.7776935013884325  0.5555134173608839  0.6248005132494902
  0.6110910882181032  0.0555399234407510  0.6249898783321303
  0.9443978238796710  0.0555249132178340  0.6250067032770212
  0.0562785770575314  0.1115660426583663  0.3750000000000000
  0.5552753933210035  0.6166155692221492  0.3750000000000000
  0.3872098634826083  0.1053459260238641  0.3750000000000000
  0.8868455204883611  0.6100894269108502  0.3750000000000000
  0.7226681750908092  0.1106932286350977  0.3750000000000000
  0.0555598186257035  0.7777803448991955  0.8750000000000000
  0.3888950635458406  0.7777812410765260  0.8750000000000000
  0.2222250409000719  0.2777791871167040  0.8750000000000000
  0.7222284168931693  0.7777783407355400  0.8750000000000000
  0.5555614929256705  0.2777831628149698  0.8750000000000000
  0.8888956043058158  0.2777830391503351  0.8750000000000000
  0.2202051833304405  0.7767692583318881  0.3750000000000000
  0.0562785770575314  0.2780458677325009  0.3750000000000000
  0.3865180149394216  0.2670686601756152  0.3750000000000000
  0.5551888935901059  0.7802866863532089  0.3750000000000000
  0.8884804998310896  0.7781372671044938  0.3750000000000000
  0.7226402495770267  0.2763329295228552  0.3750000000000000
  0.0555583664280455  0.9444448515452281  0.8750000000000000
  0.3888950635458406  0.9444471558026510  0.8750000000000000
  0.2222230795941746  0.4444471536179007  0.8750000000000000
  0.5555679032793599  0.4444506183063442  0.8750000000000000
  0.7222267780327739  0.9444458066489624  0.8750000000000000
  0.8888966749948887  0.4444490240537101  0.8750000000000000
  0.0547521139199799  0.4443170684330771  0.3750000000000000
  0.2202960368008576  0.9422908821773066  0.3750000000000000
  0.5551463937987622  0.9442398635660459  0.3750000000000000
  0.3865180149394218  0.4527826880971417  0.3750000000000000
  0.8893845774708586  0.9452543980176538  0.3750000000000000
  0.7221221356208390  0.4428877831681596  0.3750000000000000
  0.2222245351174147  0.6111129058753645  0.8750000000000000
  0.0555585953179593  0.1111113000807100  0.8750000000000000
  0.5555614929256705  0.6111116634440361  0.8750000000000000
  0.3888925829556891  0.1111116736782460  0.8750000000000000
  0.8888970124274302  0.6111151728803870  0.8750000000000000
  0.0536482740811699  0.6103909751680217  0.3750000000000000
  0.7222267780327739  0.1111143047171466  0.8750000000000000
  0.2209799000411367  0.1089557887772409  0.3750000000000000
  0.3872098634826083  0.6151972707920880  0.3750000000000000
  0.7221221356208390  0.6125676857860139  0.3750000000000000
  0.5551888935901059  0.1082355405702338  0.3750000000000000
  0.3888925829556891  0.6111142426107866  0.8750000000000000
  0.8896340482049897  0.1114836907691663  0.3750000000000000
  0.2222263628692325  0.7777798481012835  0.8750000000000000
  0.0555585953179593  0.2777806285705853  0.8750000000000000
  0.3888917036355275  0.2777729942781519  0.8750000000000000
  0.5555597623021491  0.7777789106556487  0.8750000000000000
  0.8888966749948887  0.7777809842745134  0.8750000000000000
  0.7222284168931693  0.2777834094909646  0.8750000000000000
  0.0536482740811699  0.7765906322464839  0.3750000000000000
  0.3873950163278707  0.7785114654230632  0.3750000000000000
  0.2238402825452583  0.2785868079392971  0.3750000000000000
  0.7226402495770267  0.7796406533875071  0.3750000000000000
  0.5552753933210035  0.2719931574321908  0.3750000000000000
  0.8893845774708586  0.2774635127865396  0.3750000000000000
  0.0555583664280455  0.4444468482161464  0.8750000000000000
  0.2222245351174147  0.9444449625753852  0.8750000000000000
  0.5555598013785830  0.9444465673559563  0.8750000000000000
  0.3888917036355275  0.4444520426907121  0.8750000000000000
  0.8888956043058158  0.9444458984888158  0.8750000000000000
  0.0547521139199799  0.9437683788202323  0.3750000000000000
  0.7222305398942619  0.4444503478921412  0.8750000000000000
  0.3873950163278707  0.9422168842381423  0.3750000000000000
  0.2209799000411367  0.4453574445972318  0.3750000000000000
  0.2202960368008576  0.6113384879568877  0.3750000000000000
  0.7226681750908092  0.9453082797890462  0.3750000000000000
  0.8884804998310896  0.4436765660599311  0.3750000000000000
  0.0555598186257035  0.6111128070598431  0.8750000000000000
  0.2222230795941746  0.1111092593096092  0.8750000000000000
  0.7222305398942619  0.6111135253354554  0.8750000000000000
  0.5555597623021491  0.1111141849798377  0.8750000000000000
  0.8888946371788617  0.1111139852561023  0.8750000000000000
  0.1105897401551162  0.0547820436809438  0.3750000000000000
  0.6133337128869240  0.5651345611311291  0.3750000000000000
  0.4437802681745338  0.0521203464846709  0.3750000000000000
  0.9428744209504749  0.5547244888708412  0.3750000000000000
  0.7786688108791209  0.0560010721062278  0.3750000000000000
  0.1111200961402671  0.7222267147367981  0.8750000000000000
  0.4444414359964618  0.7222124881199385  0.8750000000000000
  0.2777871032510952  0.2222314395668145  0.8750000000000000
  0.7777833554330229  0.7222237995369356  0.8750000000000000
  0.6111069122961252  0.2222274608701754  0.8750000000000000
  0.9444602408767507  0.2222284651138713  0.8750000000000000
  0.2761861056108529  0.7221099890528047  0.3750000000000000
  0.1126554999674549  0.2229944166503916  0.3750000000000000
  0.4426446245777241  0.2147284140370403  0.3750000000000000
  0.6117463823991489  0.7267346894129597  0.3750000000000000
  0.9428744209504749  0.7214832654129696  0.3750000000000000
  0.7785701441196032  0.2214598450170627  0.3750000000000000
  0.1111209462627088  0.8889000406724947  0.8750000000000000
  0.4444455496177995  0.8888894414755627  0.8750000000000000
  0.2777871032510952  0.3888889970176095  0.8750000000000000
  0.6111020520463580  0.3888909164798756  0.8750000000000000
  0.7777868785414478  0.8888932735570007  0.8750000000000000
  0.9444578200851715  0.3888916192144334  0.8750000000000000
  0.1105897401551162  0.3891410298075015  0.3750000000000000
  0.2761861056108529  0.8874094498913767  0.3750000000000000
  0.6115294438743822  0.8903846867632106  0.3750000000000000
  0.9442155462072819  0.8891657234073596  0.3750000000000000
  0.7781203276003684  0.3873497510782146  0.3750000000000000
  0.2777806155119236  0.5555473153164820  0.8750000000000000
  0.1111248359914370  0.0555678021026600  0.8750000000000000
  0.6111020520463580  0.5555444688998112  0.8750000000000000
  0.4444414359964618  0.0555622812098600  0.8750000000000000
  0.9444564353962189  0.5555591293304603  0.8750000000000000
  0.1095052672538263  0.5552511000916522  0.3750000000000000
  0.7777883784511623  0.0555608558922490  0.8750000000000000
  0.2761328899770870  0.0529412336422996  0.3750000000000000
  0.4426446245777240  0.5612495438740216  0.3750000000000000
  0.7760670559254699  0.5547001946294036  0.3750000000000000
  0.6115294438743822  0.0544780904445009  0.3750000000000000
  0.4444353995730002  0.5555402004644650  0.8750000000000000
  0.9453914452267573  0.0563325276596219  0.3750000000000000
  0.2777817018408437  0.7222197324507970  0.8750000000000000
  0.1111289066523962  0.2222311199928626  0.8750000000000000
  0.4444353995730002  0.2222285324418707  0.8750000000000000
  0.6111069122961252  0.7222127847592786  0.8750000000000000
  0.9444564353962189  0.7222306393990943  0.8750000000000000
  0.7777868785414478  0.2222269383177760  0.8750000000000000
  0.1092617377980317  0.7212975355656789  0.3750000000000000
  0.4437802681745338  0.7249932550231979  0.3750000000000000
  0.2776845356718793  0.2204544443694098  0.3750000000000000
  0.7781203276003684  0.7241039098554813  0.3750000000000000
  0.6117463823991489  0.2183450263195176  0.3750000000000000
  0.9453914452267573  0.2223922509004709  0.3750000000000000
  0.1111248359914370  0.3888903672221049  0.8750000000000000
  0.2777817018408437  0.8888953027233754  0.8750000000000000
  0.6111125933013284  0.8888870853322760  0.8750000000000000
  0.4444336185653706  0.3888834759493497  0.8750000000000000
  0.9444578200851715  0.8888995342040654  0.8750000000000000
  0.1095052672538263  0.8875875004955032  0.3750000000000000
  0.7777833554330229  0.3888928892294158  0.8750000000000000
  0.4438219343225513  0.8885776338279405  0.3750000000000000
  0.2776845356718793  0.3905634246357980  0.3750000000000000
  0.2761328899770870  0.5565249896681231  0.3750000000000000
  0.6133337128869240  0.3815324850891252  0.3750000000000000
  0.7785701441196032  0.8904436324358693  0.3750000000000000
  0.9442155462072819  0.3883831561332503  0.3750000000000000
  0.1111209462627088  0.5555542389235423  0.8750000000000000
  0.2777806155119236  0.0555666335287764  0.8750000000000000
  0.7777815394895622  0.5555574364114493  0.8750000000000000
  0.6111125933013284  0.0555588413023795  0.8750000000000000
  0.9444602408767507  0.0555651090962156  0.8750000000000000
  0.0555315641089433  0.1111032618118399  0.1250265391053055
  0.5554233313247542  0.6110543054149775  0.1246640523577378
  0.3888336572301994  0.1110961656532575  0.1249466394005874
  0.8888324307949678  0.6110828820641557  0.1250297261194663
  0.7221961038462138  0.1110911944301852  0.1249927062033345
  0.0555347015028479  0.7777717713084296  0.6250027927552042
  0.3888663696925642  0.7777659389089174  0.6249876117349624
  0.2221755368362245  0.2777544350847799  0.6252485712297569
  0.7221595257269874  0.7777595603025397  0.6249899175546608
  0.5554233313247542  0.2777023592431111  0.6253359476422624
  0.8888636463981718  0.2777588885493019  0.6250039009360503
  0.2222076082329600  0.7777704707831476  0.1249949551613741
  0.0555315641089433  0.2777616356304389  0.1250265391053055
  0.3887431709258033  0.2777171202505268  0.1238196228206563
  0.5555096958581215  0.7777681811302026  0.1250029285083779
  0.8888391898693336  0.7777576519786921  0.1250214393656478
  0.7221595257269874  0.2777332987577839  0.1250100824453400
  0.0555286367074791  0.9444385475896443  0.6249875552312336
  0.3888663696925642  0.9444337641169808  0.6249876117349624
  0.2221793387952533  0.4444061482644359  0.6250285789243002
  0.5552913226689240  0.4443123280011263  0.6258407783601800
  0.7221961038462138  0.9444382427493637  0.6250072937966650
  0.8888391898693336  0.4444148712239748  0.6249785606343516
  0.0555286367074791  0.4444234224511636  0.1250124447687657
  0.2222020514486055  0.9444455751405262  0.1250106298720552
  0.5555336471678864  0.9444334902506073  0.1249960320245992
  0.3887431709258033  0.4443593840086126  0.1238196228206563
  0.8888636463981718  0.9444380911822049  0.1249960990639494
  0.7220930205035198  0.4443838154890126  0.1249844288723366
  0.2222020514486055  0.6110898096414142  0.6249893701279444
  0.0555315641089433  0.1111032618118399  0.6249734608946940
  0.5554233313247542  0.6110543054149775  0.6253359476422624
  0.3888336572301994  0.1110961656532575  0.6250533605994124
  0.8888324307949678  0.6110828820641557  0.6249702738805341
  0.0555347015028479  0.6110962635277534  0.1249972072447958
  0.7221961038462138  0.1110911944301852  0.6250072937966650
  0.2221793387952533  0.1111065238641531  0.1249714210756997
  0.3888336572301994  0.6110708249102850  0.1249466394005874
  0.7220930205035198  0.6110425383478428  0.1249844288723366
  0.5555096958581215  0.1110748480612549  0.1250029285083779
  0.3888336572301994  0.6110708249102850  0.6250533605994124
  0.8888718822612122  0.1111026077972775  0.1249926867540650
  0.2222076082329600  0.7777704707831476  0.6250050448386254
  0.0555315641089433  0.2777616356304389  0.6249734608946940
  0.3887431709258033  0.2777171202505268  0.6261803771793421
  0.5555096958581215  0.7777681811302026  0.6249970714916222
  0.8888391898693336  0.7777576519786921  0.6249785606343516
  0.7221595257269874  0.2777332987577839  0.6249899175546608
  0.0555347015028479  0.7777717713084296  0.1249972072447958
  0.3888663696925642  0.7777659389089174  0.1250123882650378
  0.2221755368362245  0.2777544350847799  0.1247514287702428
  0.7221595257269874  0.7777595603025397  0.1250100824453400
  0.5554233313247542  0.2777023592431111  0.1246640523577378
  0.8888636463981718  0.2777588885493019  0.1249960990639494
  0.0555286367074791  0.4444234224511636  0.6249875552312336
  0.2222020514486055  0.9444455751405262  0.6249893701279444
  0.5555336471678864  0.9444334902506073  0.6250039679754006
  0.3887431709258033  0.4443593840086126  0.6261803771793421
  0.8888636463981718  0.9444380911822049  0.6250039009360503
  0.0555286367074791  0.9444385475896443  0.1250124447687657
  0.7220930205035198  0.4443838154890126  0.6250155711276639
  0.3888663696925642  0.9444337641169808  0.1250123882650378
  0.2221793387952533  0.4444061482644359  0.1249714210756997
  0.2222020514486055  0.6110898096414142  0.1250106298720552
  0.5552913226689240  0.4443123280011263  0.1241592216398194
  0.7221961038462138  0.9444382427493637  0.1249927062033345
  0.8888391898693336  0.4444148712239748  0.1250214393656478
  0.0555347015028479  0.6110962635277534  0.6250027927552042
  0.2221793387952533  0.1111065238641531  0.6250285789243002
  0.7220930205035198  0.6110425383478428  0.6250155711276639
  0.5555096958581215  0.1110748480612549  0.6249970714916222
  0.8888718822612122  0.1111026077972775  0.6250073132459349
 
  0.00000000E+00  0.00000000E+00  0.00000000E+00
  0.00000000E+00  0.00000000E+00  0.00000000E+00
  0.00000000E+00  0.00000000E+00  0.00000000E+00
  0.00000000E+00  0.00000000E+00  0.00000000E+00
  0.00000000E+00  0.00000000E+00  0.00000000E+00
  0.00000000E+00  0.00000000E+00  0.00000000E+00
  0.00000000E+00  0.00000000E+00  0.00000000E+00
  0.00000000E+00  0.00000000E+00  0.00000000E+00
  0.00000000E+00  0.00000000E+00  0.00000000E+00
  0.00000000E+00  0.00000000E+00  0.00000000E+00
  0.00000000E+00  0.00000000E+00  0.00000000E+00
  0.00000000E+00  0.00000000E+00  0.00000000E+00
  0.00000000E+00  0.00000000E+00  0.00000000E+00
  0.00000000E+00  0.00000000E+00  0.00000000E+00
  0.00000000E+00  0.00000000E+00  0.00000000E+00
  0.00000000E+00  0.00000000E+00  0.00000000E+00
  0.00000000E+00  0.00000000E+00  0.00000000E+00
  0.00000000E+00  0.00000000E+00  0.00000000E+00
  0.00000000E+00  0.00000000E+00  0.00000000E+00
  0.00000000E+00  0.00000000E+00  0.00000000E+00
  0.00000000E+00  0.00000000E+00  0.00000000E+00
  0.00000000E+00  0.00000000E+00  0.00000000E+00
  0.00000000E+00  0.00000000E+00  0.00000000E+00
  0.00000000E+00  0.00000000E+00  0.00000000E+00
  0.00000000E+00  0.00000000E+00  0.00000000E+00
  0.00000000E+00  0.00000000E+00  0.00000000E+00
  0.00000000E+00  0.00000000E+00  0.00000000E+00
  0.00000000E+00  0.00000000E+00  0.00000000E+00
  0.00000000E+00  0.00000000E+00  0.00000000E+00
  0.00000000E+00  0.00000000E+00  0.00000000E+00
  0.00000000E+00  0.00000000E+00  0.00000000E+00
  0.00000000E+00  0.00000000E+00  0.00000000E+00
  0.00000000E+00  0.00000000E+00  0.00000000E+00
  0.00000000E+00  0.00000000E+00  0.00000000E+00
  0.00000000E+00  0.00000000E+00  0.00000000E+00
  0.00000000E+00  0.00000000E+00  0.00000000E+00
  0.00000000E+00  0.00000000E+00  0.00000000E+00
  0.00000000E+00  0.00000000E+00  0.00000000E+00
  0.00000000E+00  0.00000000E+00  0.00000000E+00
  0.00000000E+00  0.00000000E+00  0.00000000E+00
  0.00000000E+00  0.00000000E+00  0.00000000E+00
  0.00000000E+00  0.00000000E+00  0.00000000E+00
  0.00000000E+00  0.00000000E+00  0.00000000E+00
  0.00000000E+00  0.00000000E+00  0.00000000E+00
  0.00000000E+00  0.00000000E+00  0.00000000E+00
  0.00000000E+00  0.00000000E+00  0.00000000E+00
  0.00000000E+00  0.00000000E+00  0.00000000E+00
  0.00000000E+00  0.00000000E+00  0.00000000E+00
  0.00000000E+00  0.00000000E+00  0.00000000E+00
  0.00000000E+00  0.00000000E+00  0.00000000E+00
  0.00000000E+00  0.00000000E+00  0.00000000E+00
  0.00000000E+00  0.00000000E+00  0.00000000E+00
  0.00000000E+00  0.00000000E+00  0.00000000E+00
  0.00000000E+00  0.00000000E+00  0.00000000E+00
  0.00000000E+00  0.00000000E+00  0.00000000E+00
  0.00000000E+00  0.00000000E+00  0.00000000E+00
  0.00000000E+00  0.00000000E+00  0.00000000E+00
  0.00000000E+00  0.00000000E+00  0.00000000E+00
  0.00000000E+00  0.00000000E+00  0.00000000E+00
  0.00000000E+00  0.00000000E+00  0.00000000E+00
  0.00000000E+00  0.00000000E+00  0.00000000E+00
  0.00000000E+00  0.00000000E+00  0.00000000E+00
  0.00000000E+00  0.00000000E+00  0.00000000E+00
  0.00000000E+00  0.00000000E+00  0.00000000E+00
  0.00000000E+00  0.00000000E+00  0.00000000E+00
  0.00000000E+00  0.00000000E+00  0.00000000E+00
  0.00000000E+00  0.00000000E+00  0.00000000E+00
  0.00000000E+00  0.00000000E+00  0.00000000E+00
  0.00000000E+00  0.00000000E+00  0.00000000E+00
  0.00000000E+00  0.00000000E+00  0.00000000E+00
  0.00000000E+00  0.00000000E+00  0.00000000E+00
  0.00000000E+00  0.00000000E+00  0.00000000E+00
  0.00000000E+00  0.00000000E+00  0.00000000E+00
  0.00000000E+00  0.00000000E+00  0.00000000E+00
  0.00000000E+00  0.00000000E+00  0.00000000E+00
  0.00000000E+00  0.00000000E+00  0.00000000E+00
  0.00000000E+00  0.00000000E+00  0.00000000E+00
  0.00000000E+00  0.00000000E+00  0.00000000E+00
  0.00000000E+00  0.00000000E+00  0.00000000E+00
  0.00000000E+00  0.00000000E+00  0.00000000E+00
  0.00000000E+00  0.00000000E+00  0.00000000E+00
  0.00000000E+00  0.00000000E+00  0.00000000E+00
  0.00000000E+00  0.00000000E+00  0.00000000E+00
  0.00000000E+00  0.00000000E+00  0.00000000E+00
  0.00000000E+00  0.00000000E+00  0.00000000E+00
  0.00000000E+00  0.00000000E+00  0.00000000E+00
  0.00000000E+00  0.00000000E+00  0.00000000E+00
  0.00000000E+00  0.00000000E+00  0.00000000E+00
  0.00000000E+00  0.00000000E+00  0.00000000E+00
  0.00000000E+00  0.00000000E+00  0.00000000E+00
  0.00000000E+00  0.00000000E+00  0.00000000E+00
  0.00000000E+00  0.00000000E+00  0.00000000E+00
  0.00000000E+00  0.00000000E+00  0.00000000E+00
  0.00000000E+00  0.00000000E+00  0.00000000E+00
  0.00000000E+00  0.00000000E+00  0.00000000E+00
  0.00000000E+00  0.00000000E+00  0.00000000E+00
  0.00000000E+00  0.00000000E+00  0.00000000E+00
  0.00000000E+00  0.00000000E+00  0.00000000E+00
  0.00000000E+00  0.00000000E+00  0.00000000E+00
  0.00000000E+00  0.00000000E+00  0.00000000E+00
  0.00000000E+00  0.00000000E+00  0.00000000E+00
  0.00000000E+00  0.00000000E+00  0.00000000E+00
  0.00000000E+00  0.00000000E+00  0.00000000E+00
  0.00000000E+00  0.00000000E+00  0.00000000E+00
  0.00000000E+00  0.00000000E+00  0.00000000E+00
  0.00000000E+00  0.00000000E+00  0.00000000E+00
  0.00000000E+00  0.00000000E+00  0.00000000E+00
  0.00000000E+00  0.00000000E+00  0.00000000E+00
  0.00000000E+00  0.00000000E+00  0.00000000E+00
  0.00000000E+00  0.00000000E+00  0.00000000E+00
  0.00000000E+00  0.00000000E+00  0.00000000E+00
  0.00000000E+00  0.00000000E+00  0.00000000E+00
  0.00000000E+00  0.00000000E+00  0.00000000E+00
  0.00000000E+00  0.00000000E+00  0.00000000E+00
  0.00000000E+00  0.00000000E+00  0.00000000E+00
  0.00000000E+00  0.00000000E+00  0.00000000E+00
  0.00000000E+00  0.00000000E+00  0.00000000E+00
  0.00000000E+00  0.00000000E+00  0.00000000E+00
  0.00000000E+00  0.00000000E+00  0.00000000E+00
  0.00000000E+00  0.00000000E+00  0.00000000E+00
  0.00000000E+00  0.00000000E+00  0.00000000E+00
  0.00000000E+00  0.00000000E+00  0.00000000E+00
  0.00000000E+00  0.00000000E+00  0.00000000E+00
  0.00000000E+00  0.00000000E+00  0.00000000E+00
  0.00000000E+00  0.00000000E+00  0.00000000E+00
  0.00000000E+00  0.00000000E+00  0.00000000E+00
  0.00000000E+00  0.00000000E+00  0.00000000E+00
  0.00000000E+00  0.00000000E+00  0.00000000E+00
  0.00000000E+00  0.00000000E+00  0.00000000E+00
  0.00000000E+00  0.00000000E+00  0.00000000E+00
  0.00000000E+00  0.00000000E+00  0.00000000E+00
  0.00000000E+00  0.00000000E+00  0.00000000E+00
  0.00000000E+00  0.00000000E+00  0.00000000E+00
  0.00000000E+00  0.00000000E+00  0.00000000E+00
  0.00000000E+00  0.00000000E+00  0.00000000E+00
  0.00000000E+00  0.00000000E+00  0.00000000E+00
  0.00000000E+00  0.00000000E+00  0.00000000E+00
  0.00000000E+00  0.00000000E+00  0.00000000E+00
  0.00000000E+00  0.00000000E+00  0.00000000E+00
  0.00000000E+00  0.00000000E+00  0.00000000E+00
  0.00000000E+00  0.00000000E+00  0.00000000E+00
  0.00000000E+00  0.00000000E+00  0.00000000E+00
  0.00000000E+00  0.00000000E+00  0.00000000E+00
  0.00000000E+00  0.00000000E+00  0.00000000E+00
  0.00000000E+00  0.00000000E+00  0.00000000E+00
  0.00000000E+00  0.00000000E+00  0.00000000E+00
  0.00000000E+00  0.00000000E+00  0.00000000E+00
  0.00000000E+00  0.00000000E+00  0.00000000E+00
  0.00000000E+00  0.00000000E+00  0.00000000E+00
  0.00000000E+00  0.00000000E+00  0.00000000E+00
  0.00000000E+00  0.00000000E+00  0.00000000E+00
  0.00000000E+00  0.00000000E+00  0.00000000E+00
  0.00000000E+00  0.00000000E+00  0.00000000E+00
  0.00000000E+00  0.00000000E+00  0.00000000E+00
  0.00000000E+00  0.00000000E+00  0.00000000E+00
  0.00000000E+00  0.00000000E+00  0.00000000E+00
  0.00000000E+00  0.00000000E+00  0.00000000E+00
  0.00000000E+00  0.00000000E+00  0.00000000E+00
  0.00000000E+00  0.00000000E+00  0.00000000E+00
  0.00000000E+00  0.00000000E+00  0.00000000E+00
  0.00000000E+00  0.00000000E+00  0.00000000E+00
  0.00000000E+00  0.00000000E+00  0.00000000E+00
  0.00000000E+00  0.00000000E+00  0.00000000E+00
  0.00000000E+00  0.00000000E+00  0.00000000E+00
  0.00000000E+00  0.00000000E+00  0.00000000E+00
  0.00000000E+00  0.00000000E+00  0.00000000E+00
  0.00000000E+00  0.00000000E+00  0.00000000E+00
  0.00000000E+00  0.00000000E+00  0.00000000E+00
  0.00000000E+00  0.00000000E+00  0.00000000E+00
  0.00000000E+00  0.00000000E+00  0.00000000E+00
  0.00000000E+00  0.00000000E+00  0.00000000E+00
  0.00000000E+00  0.00000000E+00  0.00000000E+00
  0.00000000E+00  0.00000000E+00  0.00000000E+00
  0.00000000E+00  0.00000000E+00  0.00000000E+00
  0.00000000E+00  0.00000000E+00  0.00000000E+00
  0.00000000E+00  0.00000000E+00  0.00000000E+00
  0.00000000E+00  0.00000000E+00  0.00000000E+00
  0.00000000E+00  0.00000000E+00  0.00000000E+00
  0.00000000E+00  0.00000000E+00  0.00000000E+00
  0.00000000E+00  0.00000000E+00  0.00000000E+00
  0.00000000E+00  0.00000000E+00  0.00000000E+00
  0.00000000E+00  0.00000000E+00  0.00000000E+00
  0.00000000E+00  0.00000000E+00  0.00000000E+00
  0.00000000E+00  0.00000000E+00  0.00000000E+00
  0.00000000E+00  0.00000000E+00  0.00000000E+00
  0.00000000E+00  0.00000000E+00  0.00000000E+00
  0.00000000E+00  0.00000000E+00  0.00000000E+00
  0.00000000E+00  0.00000000E+00  0.00000000E+00
  0.00000000E+00  0.00000000E+00  0.00000000E+00
  0.00000000E+00  0.00000000E+00  0.00000000E+00
  0.00000000E+00  0.00000000E+00  0.00000000E+00
  0.00000000E+00  0.00000000E+00  0.00000000E+00
  0.00000000E+00  0.00000000E+00  0.00000000E+00
  0.00000000E+00  0.00000000E+00  0.00000000E+00
  0.00000000E+00  0.00000000E+00  0.00000000E+00
  0.00000000E+00  0.00000000E+00  0.00000000E+00
  0.00000000E+00  0.00000000E+00  0.00000000E+00
  0.00000000E+00  0.00000000E+00  0.00000000E+00
  0.00000000E+00  0.00000000E+00  0.00000000E+00
  0.00000000E+00  0.00000000E+00  0.00000000E+00
  0.00000000E+00  0.00000000E+00  0.00000000E+00
  0.00000000E+00  0.00000000E+00  0.00000000E+00
  0.00000000E+00  0.00000000E+00  0.00000000E+00
  0.00000000E+00  0.00000000E+00  0.00000000E+00
  0.00000000E+00  0.00000000E+00  0.00000000E+00
  0.00000000E+00  0.00000000E+00  0.00000000E+00
  0.00000000E+00  0.00000000E+00  0.00000000E+00
  0.00000000E+00  0.00000000E+00  0.00000000E+00
  0.00000000E+00  0.00000000E+00  0.00000000E+00
  0.00000000E+00  0.00000000E+00  0.00000000E+00
  0.00000000E+00  0.00000000E+00  0.00000000E+00
  0.00000000E+00  0.00000000E+00  0.00000000E+00
  0.00000000E+00  0.00000000E+00  0.00000000E+00
  0.00000000E+00  0.00000000E+00  0.00000000E+00
  0.00000000E+00  0.00000000E+00  0.00000000E+00
  0.00000000E+00  0.00000000E+00  0.00000000E+00
  0.00000000E+00  0.00000000E+00  0.00000000E+00
  0.00000000E+00  0.00000000E+00  0.00000000E+00
  0.00000000E+00  0.00000000E+00  0.00000000E+00
  0.00000000E+00  0.00000000E+00  0.00000000E+00
  0.00000000E+00  0.00000000E+00  0.00000000E+00
  0.00000000E+00  0.00000000E+00  0.00000000E+00
  0.00000000E+00  0.00000000E+00  0.00000000E+00
  0.00000000E+00  0.00000000E+00  0.00000000E+00
  0.00000000E+00  0.00000000E+00  0.00000000E+00
  0.00000000E+00  0.00000000E+00  0.00000000E+00
  0.00000000E+00  0.00000000E+00  0.00000000E+00
  0.00000000E+00  0.00000000E+00  0.00000000E+00
  0.00000000E+00  0.00000000E+00  0.00000000E+00
  0.00000000E+00  0.00000000E+00  0.00000000E+00
  0.00000000E+00  0.00000000E+00  0.00000000E+00
  0.00000000E+00  0.00000000E+00  0.00000000E+00
  0.00000000E+00  0.00000000E+00  0.00000000E+00
  0.00000000E+00  0.00000000E+00  0.00000000E+00
  0.00000000E+00  0.00000000E+00  0.00000000E+00
  0.00000000E+00  0.00000000E+00  0.00000000E+00
  0.00000000E+00  0.00000000E+00  0.00000000E+00
  0.00000000E+00  0.00000000E+00  0.00000000E+00
  0.00000000E+00  0.00000000E+00  0.00000000E+00
  0.00000000E+00  0.00000000E+00  0.00000000E+00
  0.00000000E+00  0.00000000E+00  0.00000000E+00
  0.00000000E+00  0.00000000E+00  0.00000000E+00
  0.00000000E+00  0.00000000E+00  0.00000000E+00
  0.00000000E+00  0.00000000E+00  0.00000000E+00
  0.00000000E+00  0.00000000E+00  0.00000000E+00
  0.00000000E+00  0.00000000E+00  0.00000000E+00
  0.00000000E+00  0.00000000E+00  0.00000000E+00
  0.00000000E+00  0.00000000E+00  0.00000000E+00