 N B Ge 
 1.0
 17.527899999999772   0.000000000000000   0.000000000000000
 -8.763949999999658  15.179606674993195   0.000000000000000
  0.000000000000001   0.000000000000002  15.000000000000000
 N B Ge 
  49  47   1
Cartesian
  8.765104657505553  13.761648633762501   1.665097024467930 
 16.281625920415088   0.753775419624953   1.647593725825125 
 15.026717513461740   2.912661560649180   1.653131012403210 
 13.763511486269845   5.070241615858466   1.662785056766205 
 12.473637744739410   7.226217108587528   1.671690044883810 
 11.225111405200167   9.381750855134493   1.668425058241065 
  9.992458272114877  11.556814279767528   1.665981933159615 
 -6.272627977661771  13.721781394200228   1.659456351408885 
  1.257722281464795   0.733949497210397   1.661628519263100 
  0.005851377710815   2.899583283081967   1.683787443026445 
 -1.250653117318590   5.069010358539391   1.706592790742820 
 -2.526968743165782   7.230316127193908   1.699066560429495 
 -3.784622208952938   9.386749169242760   1.677778985479335 
 -5.032402984891951  11.547356188550348   1.664597754736380 
 -3.771044607340271  13.709383106486159   1.649215909720485 
  3.749000631371846   0.698447330449315   1.653333415257960 
  2.522401752942936   2.894570428277962   1.679347728170745 
  1.259827914969457   5.041089482076631   1.729906077986610 
 -0.011207025021926   7.229257237998988   1.743730040691120 
 -1.266677776297827   9.392333612255758   1.702349937258420 
 -2.523111019961398  11.549317645463447   1.665889655943030 
 -1.263246376468047  13.714178948261168   1.645410667032435 
  6.255073960090949   0.685339576874054   1.645523509295790 
  5.010273234066814   2.840249345194340   1.685386669312620 
  3.816407438635641   5.070193493182262   1.618995596517225 
  2.453409710653846   7.167033057407536   1.620029115884295 
  1.250892914634064   9.405031434520142   1.688889482197500 
 -0.014103067075363  11.563294689250247   1.695692388150630 
  1.240762894789447  13.746618982419839   1.668564642830295 
  8.767363511048046   0.696872872553861   1.624049302933380 
  7.534193165558695   2.819639123821724   1.704271879440645 
  6.315097379696159   4.911376299760970   1.808356748766165 
  5.580121071647326   7.075134569093268   1.344199049612385 
  3.757487174049794   9.588052678839716   1.599914707324470 
  2.480134132077588  11.623215566060649   1.768754674634220 
  3.745086911597536  13.789697797388730   1.695541754828040 
 11.267130985019385   0.736499806588488   1.628159237311290 
 10.028175263498376   2.870166503072917   1.648637331466770 
  8.782533049361273   4.999972658555039   1.741859377030560 
  7.419816236891637   7.084818080691744   1.667528911787295 
  6.227912185119712   9.662346315179404   1.608555055772550 
  5.000632533196021  11.698226337901405   1.783391160161655 
  6.264470712369478  13.797412211275063   1.687848379346580 
 13.772853569873380   0.757837978196624   1.639787674586955 
 12.519887440441009   2.905096030374673   1.636143197899875 
 11.255702919120914   5.059868891664398   1.661277239674665 
  9.928562453104831   7.212047748144708   1.671873357874410 
  8.712521131964447   9.380399570499311   1.644860052192660 
  7.509181468188210  11.627343955634947   1.693898082566385 
  7.520167295776382  14.496719121629098   1.663491482811570 
 15.027960104930905   1.472638010079596   1.644825479321505 
 13.770145131980330   3.628432827404565   1.650217573561935 
 12.501764629479847   5.783747567240902   1.663119407533800 
 11.198007308713127   7.935511061443497   1.670819733040575 
  9.974317551820810  10.101646476112379   1.661403783530610 
  8.764761292488776  12.318691335185648   1.674061142902020 
 -7.509390807490185  14.468760451120032   1.660588890076230 
  0.007919650094355   1.460324193903536   1.662342121255470 
 -1.246411635252959   3.626137230325444   1.681712202633240 
 -2.511222109822818   5.787608575934495   1.690229318062590 
 -3.793078042537441   7.943975864623225   1.682219667542325 
 -5.043142411049187  10.102142385032064   1.670414086801620 
 -6.280814599483109  12.273977955736992   1.663513766421225 
 -5.019671647980832  14.434971465784450   1.652833663861935 
  2.513288768408492   1.445890811599745   1.666178212423830 
  1.261760341576150   3.604464007708231   1.701701750133495 
  0.006299731850494   5.780687898292634   1.731318699182010 
 -1.271175655532753   7.948033420887822   1.719667853748600 
 -2.527144437785114  10.106847909064856   1.682396333503635 
 -3.777512018468621  12.266842337919313   1.658998888666575 
 -2.516782901261881  14.427074063341658   1.643303930594940 
  5.002927807545957   1.404657707916260   1.660163207390070 
  3.786713728732175   3.608425051795739   1.665942095789145 
  2.517747440394893   5.740941026989054   1.660382964504225 
  1.240865922348279   7.948745688503665   1.694261874185625 
 -0.014393570986251  10.119737783328796   1.700956533241590 
 -1.270485580457728  12.273633883810843   1.667893694955030 
 -0.012607158307256  14.443443190922334   1.640803667161005 
  7.515769078980492   1.394475422552495   1.652197127804745 
  6.282044769671874   3.507320802471065   1.746820274773575 
  5.164401526597197   5.703233610666291   1.595292997944435 
  2.471087297848787  10.190233382820798   1.698164353795665 
  1.226057770026698  12.312851731351353   1.716245600132910 
  2.489336599194660  14.482826258561403   1.661679365894145 
 10.013391788926207   1.434505383941927   1.629805800831360 
  8.772836596720435   3.565236374120813   1.702891535066610 
  7.521758743204465   5.676531418864815   1.749396692128950 
  4.982140718988725  10.282888273277088   1.688554886160615 
  3.731183372874511  12.363024692604522   1.754094073820445 
  5.005297124227393  14.502511891660513   1.673457785512440 
 12.517075827061127   1.465675590576503   1.633268445857295 
 11.263761802715585   3.614458172294075   1.648376392893375 
  9.994741890880221   5.765451590861352   1.689703222870575 
  8.622716890575624   7.923265247867997   1.645780526803815 
  7.521707620747494  10.172959596231523   1.656145609054305 
  6.268008153853094  12.367872450251671   1.727901125083140 
  4.009032836958789   7.920379205011602   1.039715581269255 
