Species order: N B                      
   2.51242800000000     
     5.9449720136058266    0.0000000000000000    0.0000000000000000
    -2.9724860068029120    5.1484967885702053   -0.0000000000000001
     0.0000000000000000    0.0000000000000009    5.3101128803662583
   N    B    C 
   142   142     4
Direct
  0.1123095037598443  0.0568156730265732  0.1250000000000000
  0.6071743056661648  0.5514157243902944  0.1250000000000000
  0.4443154960240051  0.0559714600550595  0.1250000000000000
  0.9465796415244695  0.5556010768807230  0.1250000000000000
  0.7778697855816274  0.0556667617370979  0.1250000000000000
  0.1111080270859137  0.7222196159336186  0.6250000000000000
  0.4444455984944480  0.7222206247004169  0.6250000000000000
  0.2777698505368560  0.2222211618388071  0.6250000000000000
  0.7777818945640815  0.7222290326375246  0.6250000000000000
  0.6111120942560694  0.2222224376053330  0.6250000000000000
  0.9444481859329288  0.2222211585336017  0.6250000000000000
  0.2780677302286892  0.7224181358249621  0.1250000000000000
  0.1124240533083863  0.2223983280222468  0.1250000000000000
  0.4417678799428942  0.2214814070517714  0.1250000000000000
  0.6105437989853142  0.7212190648059790  0.1250000000000000
  0.9466036736784451  0.7243993022498897  0.1250000000000000
  0.7775235069962528  0.2215448103673826  0.1250000000000000
  0.1111092550497315  0.8888954386792127  0.6250000000000000
  0.4444476607455491  0.8888924233899717  0.6250000000000000
  0.2777728177109675  0.3888868660016266  0.6250000000000000
  0.6111042538889677  0.3888872469180561  0.6250000000000000
  0.7777845881431934  0.8888955856241167  0.6250000000000000
  0.9444498085665675  0.3888858946058821  0.6250000000000000
  0.1109774577942510  0.3886490056697019  0.1250000000000000
  0.2780752345845986  0.8891846813763440  0.1250000000000000
  0.6110448098360056  0.8887960937569923  0.1250000000000000
  0.9448165547325456  0.8895466258344122  0.1250000000000000
  0.7769721915572139  0.3866686556530795  0.1250000000000000
  0.2777765185114329  0.5555512261629501  0.6250000000000000
  0.1111088756746240  0.0555604280463782  0.6250000000000000
  0.6111025711457012  0.5555520995389746  0.6250000000000000
  0.4444467817664685  0.0555576736290457  0.6250000000000000
  0.9444467347064440  0.5555494760403769  0.6250000000000000
  0.1118294587568067  0.5553877605501383  0.1250000000000000
  0.7777833989040684  0.0555585398349196  0.6250000000000000
  0.2776812274536291  0.0554143926959320  0.1250000000000000
  0.4432179315832866  0.5556916289430501  0.1250000000000000
  0.6109189438666297  0.0557562394469901  0.1250000000000000
  0.4444418041014277  0.5555516344941581  0.6250000000000000
  0.9449078347621883  0.0559573937722484  0.1250000000000000
  0.2777775875622987  0.7222202245539098  0.6250000000000000
  0.1111081055185803  0.2222200225356173  0.6250000000000000
  0.4444420927448469  0.2222220086943306  0.6250000000000000
  0.6111122017668830  0.7222212513454724  0.6250000000000000
  0.9444456085650287  0.7222297574065081  0.6250000000000000
  0.7777824788697766  0.2222222314661650  0.6250000000000000
  0.1118687043156969  0.7226824693227792  0.1250000000000000
  0.4443595135332639  0.7225213338218344  0.1250000000000000
  0.2813255180974013  0.2237030121447211  0.1250000000000000
  0.7767378526191410  0.7232744612964284  0.1250000000000000
  0.6097377588534857  0.2225270330447101  0.1250000000000000
  0.9448981722893185  0.2221555645355550  0.1250000000000000
  0.1111096516024429  0.3888851112969938  0.6250000000000000
  0.2777792463618002  0.8888918570065126  0.6250000000000000
  0.6111142175209592  0.8888921634307974  0.6250000000000000
  0.4444364405644169  0.3888878748148260  0.6250000000000000
  0.9444501423369390  0.8889017075454586  0.6250000000000000
  0.1119524734945136  0.8899718366605203  0.1250000000000000
  0.7777837917579841  0.3888879388738691  0.6250000000000000
  0.4445415415537438  0.8892683178751332  0.1250000000000000
  0.2772717788817666  0.3890447654362090  0.1250000000000000
  0.2776321711369140  0.5555514349761782  0.1250000000000000
  0.6085239789689919  0.3886568204565711  0.1250000000000000
  0.7778057534313790  0.8895850191740540  0.1250000000000000
  0.9443883361489912  0.3884943499911752  0.1250000000000000
  0.1111092846000261  0.5555497686814066  0.6250000000000000
  0.2777747403509658  0.0555582913635803  0.6250000000000000
  0.7777771142198073  0.5555560192148795  0.6250000000000000
  0.6111129949363947  0.0555568880305841  0.6250000000000000
  0.9444491083505672  0.0555599591662813  0.6250000000000000
  0.0555636050697452  0.1111030102180177  0.3750798142765557
  0.5555445367763939  0.6111040999305821  0.3751429369772685
  0.3888648186975651  0.1110594840376029  0.3750728810401274
  0.8889881523277846  0.6111598926416304  0.3756917784861817
  0.7222015232105254  0.1110984209972808  0.3750867551415994
  0.0555831811217248  0.7777742961731663  0.8748378613023826
  0.3888968387126003  0.7777839222224210  0.8749095037385931
  0.2222505202587773  0.2777856926961151  0.8749434669896623
  0.7221979688030378  0.7777712317707641  0.8748417002255379
  0.5555435390868809  0.2777527029337728  0.8750115862506178
  0.8888771961922876  0.2777818861306695  0.8748994919751751
  0.2222450920559170  0.7777728450377627  0.3751194109331230
  0.0555620213554470  0.2777832723149787  0.3750754764352910
  0.3888999679930168  0.2777351762520227  0.3754879606189614
  0.5555412991600905  0.7777787773759615  0.3751036091068433
  0.8888874160833706  0.7777675118928800  0.3751533106963482
  0.7221958242087733  0.2777555065871134  0.3751366350086328
  0.0555560441144771  0.9444258004313162  0.8749140376926302
  0.3888873729878706  0.9444255407434139  0.8749182576404372
  0.2222344271232546  0.4444552993802293  0.8749107243838075
  0.5556078805001449  0.4444503349502953  0.8745239450865580
  0.7222059542385906  0.9444367185032485  0.8749027703415991
  0.8888936169683996  0.4444559529647614  0.8748497271741705
  0.0555537344217032  0.4444570416018004  0.3751022855857273
  0.2222159385221217  0.9444019159584740  0.3751139269239743
  0.5555429359219818  0.9444380243199845  0.3750926024208639
  0.3889079732050341  0.4444412959046665  0.3752496190503851
  0.8888805511971570  0.9444291564198312  0.3751022687099366
  0.7222138068035536  0.4443937096479751  0.3756487285755575
  0.2222349294649484  0.6111210972111538  0.8749124954845015
  0.0555636050697452  0.1111030102180177  0.8749201857234445
  0.5555445367763939  0.6111040999305821  0.8748570630227314
  0.3888648186975651  0.1110594840376029  0.8749271189598725
  0.8889881523277846  0.6111598926416304  0.8743082215138184
  0.0555892819724572  0.6111271069401993  0.3751745424571101
  0.7222015232105254  0.1110984209972808  0.8749132448584004
  0.2222343187064565  0.1110835722922975  0.3750297642745568
  0.3888976108878258  0.6111129242191322  0.3750749102975428
  0.7221980514261698  0.6111371237639476  0.3756242465747801
  0.5555323971584950  0.1110830420480639  0.3750803793782491
  0.3888976108878258  0.6111129242191322  0.8749250897024575
  0.8888824998286728  0.1111045443021818  0.3750937589262695
  0.2222450920559170  0.7777728450377627  0.8748805890668772
  0.0555620213554470  0.2777832723149787  0.8749245235647093
  0.3888999679930168  0.2777351762520227  0.8745120393810386
  0.5555412991600905  0.7777787773759615  0.8748963908931566
  0.8888874160833706  0.7777675118928800  0.8748466893036521
  0.7221958242087733  0.2777555065871134  0.8748633649913671
  0.0555831811217248  0.7777742961731663  0.3751621386976171
  0.3888968387126003  0.7777839222224210  0.3750904962614071
  0.2222505202587773  0.2777856926961151  0.3750565330103378
  0.7221979688030378  0.7777712317707641  0.3751582997744622
  0.5555435390868809  0.2777527029337728  0.3749884137493822
  0.8888771961922876  0.2777818861306695  0.3751005080248248
  0.0555537344217032  0.4444570416018004  0.8748977144142727
  0.2222159385221217  0.9444019159584740  0.8748860730760255
  0.5555429359219818  0.9444380243199845  0.8749073975791362
  0.3889079732050341  0.4444412959046665  0.8747503809496148
  0.8888805511971570  0.9444291564198312  0.8748977312900635
  0.0555560441144771  0.9444258004313162  0.3750859623073702
  0.7222138068035536  0.4443937096479751  0.8743512714244427
  0.3888873729878706  0.9444255407434139  0.3750817423595632
  0.2222344271232546  0.4444552993802293  0.3750892756161926
  0.2222349294649484  0.6111210972111538  0.3750875045154987
  0.5556078805001449  0.4444503349502953  0.3754760549134418
  0.7222059542385906  0.9444367185032485  0.3750972296584008
  0.8888936169683996  0.4444559529647614  0.3751502728258294
  0.0555892819724572  0.6111271069401993  0.8748254575428897
  0.2222343187064565  0.1110835722922975  0.8749702357254430
  0.7221980514261698  0.6111371237639476  0.8743757534252199
  0.5555323971584950  0.1110830420480639  0.8749196206217509
  0.8888824998286728  0.1111045443021818  0.8749062410737305
  0.1111150999801774  0.0554893420946357  0.3748917476378485
  0.6112836121918450  0.5555232588321728  0.3748040722005181
  0.4444407236897591  0.0555727151937647  0.3749092798322380
  0.9443045490072759  0.5556291803699828  0.3747687230415853
  0.7777457467628607  0.0555337878833399  0.3749292714905142
  0.1110204134899358  0.7221706987139536  0.8751392328503995
  0.4444667179095532  0.7221963679184843  0.8750789082633280
  0.2779512854310453  0.2222917558388796  0.8750941974598001
  0.7777066344309187  0.7219857698780899  0.8752589462205022
  0.6111255401537912  0.2223295605810925  0.8751753233778822
  0.9444157695247625  0.2222576997142094  0.8750726313037900
  0.2777531887965404  0.7222159978669159  0.3749267903386636
  0.1111719024244125  0.2222439440251360  0.3749024754286439
  0.4445055714719767  0.2223172897811838  0.3748658739574142
  0.6111330053908784  0.7221194821680169  0.3748297734366628
  0.9443004522013774  0.7220067283468442  0.3747658473097445
  0.7777315603272809  0.2223044220703118  0.3748919064604688
  0.1110374810106750  0.8887595796010999  0.8751188180928802
  0.4444350222818521  0.8888781406481362  0.8750597713466229
  0.2779251877803719  0.3889410725812679  0.8750738441413776
  0.6112945813902200  0.3890794157041264  0.8752037713787640
  0.7777308969353690  0.8887525102587351  0.8751191243238102
  0.9443553257418402  0.3889973140678968  0.8751614345293459
  0.1111116734656597  0.3889461922882295  0.3749255305962125
  0.2777404152197717  0.8888445367181596  0.3749310450665640
  0.6110983630366668  0.8888418918898739  0.3749238298587476
  0.4446599091317980  0.3889384291259866  0.3745485436275195
  0.9443524900773260  0.8886882200703612  0.3748293211606856
  0.7777180342682812  0.3890630238619343  0.3747601521533577
  0.2778058489837020  0.5555742500554230  0.8750736735814360
  0.1111150999801774  0.0554893420946357  0.8751082523621512
  0.6112836121918450  0.5555232588321728  0.8751959277994817
  0.4444407236897591  0.0555727151937647  0.8750907201677618
  0.9443045490072759  0.5556291803699828  0.8752312769584150
  0.1110429597853705  0.5555987584132048  0.3748844586262426
  0.7777457467628607  0.0555337878833399  0.8750707285094855
  0.2777876332747694  0.0555228164271735  0.3749195088115397
  0.4445505714785991  0.5555157387323819  0.3748845021707883
  0.7777881172474677  0.5555596887130376  0.3734781660638758
  0.6110929976354903  0.0555776963472376  0.3749335165922663
  0.4445505714785991  0.5555157387323819  0.8751154978292118
  0.9444185443188244  0.0554832499018501  0.3749276003910807
  0.2777531887965404  0.7222159978669159  0.8750732096613363
  0.1111719024244125  0.2222439440251360  0.8750975245713564
  0.4445055714719767  0.2223172897811838  0.8751341260425857
  0.6111330053908784  0.7221194821680169  0.8751702265633372
  0.9443004522013774  0.7220067283468442  0.8752341526902553
  0.7777315603272809  0.2223044220703118  0.8751080935395312
  0.1110204134899358  0.7221706987139536  0.3748607671496002
  0.4444667179095532  0.7221963679184843  0.3749210917366720
  0.2779512854310453  0.2222917558388796  0.3749058025402001
  0.7777066344309187  0.7219857698780899  0.3747410537794976
  0.6111255401537912  0.2223295605810925  0.3748246766221178
  0.9444157695247625  0.2222576997142094  0.3749273686962104
  0.1111116734656597  0.3889461922882295  0.8750744694037876
  0.2777404152197717  0.8888445367181596  0.8750689549334364
  0.6110983630366668  0.8888418918898739  0.8750761701412525
  0.4446599091317980  0.3889384291259866  0.8754514563724803
  0.9443524900773260  0.8886882200703612  0.8751706788393143
  0.1110374810106750  0.8887595796010999  0.3748811819071195
  0.7777180342682812  0.3890630238619343  0.8752398478466425
  0.4444350222818521  0.8888781406481362  0.3749402286533774
  0.2779251877803719  0.3889410725812679  0.3749261558586222
  0.2778058489837020  0.5555742500554230  0.3749263264185639
  0.6112945813902200  0.3890794157041264  0.3747962286212361
  0.7777308969353690  0.8887525102587351  0.3748808756761897
  0.9443553257418402  0.3889973140678968  0.3748385654706539
  0.1110429597853705  0.5555987584132048  0.8751155413737575
  0.2777876332747694  0.0555228164271735  0.8750804911884603
  0.7777881172474677  0.5555596887130376  0.8765218339361242
  0.6110929976354903  0.0555776963472376  0.8750664834077340
  0.9444185443188244  0.0554832499018501  0.8750723996089194
  0.0561194720807846  0.1114944557327092  0.1250000000000000
  0.5539770812182345  0.6088649729955617  0.1250000000000000
  0.3882702751992718  0.1111463885257085  0.1250000000000000
  0.8904752390205778  0.6119407751892887  0.1250000000000000
  0.7221602956485339  0.1110062622362166  0.1250000000000000
  0.0554958135576415  0.7777428038763879  0.6250000000000000
  0.3888863970402974  0.7777637853932928  0.6250000000000000
  0.2222420245205579  0.2777871057512362  0.6250000000000000
  0.7222381890873529  0.7777340468302479  0.6250000000000000
  0.5555845286621324  0.2778430464781491  0.6250000000000000
  0.8888891059934515  0.2778030708321138  0.6250000000000000
  0.2223358577300183  0.7779479744720253  0.1250000000000000
  0.0562124234766399  0.2776607989475588  0.1250000000000000
  0.5556330796718612  0.7771755790571871  0.1250000000000000
  0.8883617615912079  0.7772112029922826  0.1250000000000000
  0.7217809242159950  0.2773265359892491  0.1250000000000000
  0.0555342069127605  0.9444251548180344  0.6250000000000000
  0.3888852936390595  0.9444560165703407  0.6250000000000000
  0.2222286149975034  0.4444345981402243  0.6250000000000000
  0.5555822726592176  0.4444594927363144  0.6250000000000000
  0.7222377067856597  0.9444315201531087  0.6250000000000000
  0.8888639755679867  0.4444663834572382  0.6250000000000000
  0.0553115147886063  0.4442295126502939  0.1250000000000000
  0.2224390398512543  0.9447429646737856  0.1250000000000000
  0.5556233329368142  0.9445679478075417  0.1250000000000000
  0.3881387165607544  0.4450775802048442  0.1250000000000000
  0.8890538101304248  0.9446091965548286  0.1250000000000000
  0.7212733894454006  0.4434311670262498  0.1250000000000000
  0.2222006231191201  0.6110918911903483  0.6250000000000000
  0.0555584426733047  0.1111082463318733  0.6250000000000000
  0.5555874837491369  0.6110780794412058  0.6250000000000000
  0.3889031336695514  0.1111518027025278  0.6250000000000000
  0.8888297329725617  0.6110825720522846  0.6250000000000000
  0.0561433653021566  0.6109739472153737  0.1250000000000000
  0.7222365854325519  0.1111367759125853  0.6250000000000000
  0.2236550502112083  0.1122103912943001  0.1250000000000000
  0.3885493512412838  0.6114862830509347  0.1250000000000000
  0.7204986722246132  0.6103665862393923  0.1250000000000000
  0.5553228469508341  0.1116818433970354  0.1250000000000000
  0.3889058645740104  0.6110859695900918  0.6250000000000000
  0.8891188409891867  0.1111836788100292  0.1250000000000000
  0.2221829292790915  0.7777592909640944  0.6250000000000000
  0.0555591108937230  0.2777820937371040  0.6250000000000000
  0.3889208788397296  0.2778177566929134  0.6250000000000000
  0.5555770861429628  0.7777510703231136  0.6250000000000000
  0.8888632735305151  0.7777329144867023  0.6250000000000000
  0.7222382442492546  0.2778384033059657  0.6250000000000000
  0.0561723058308116  0.7786837823420506  0.1250000000000000
  0.3889974414312319  0.7780938559488427  0.1250000000000000
  0.2240677405088695  0.2783941871467803  0.1250000000000000
  0.7220787229783937  0.7780779967096548  0.1250000000000000
  0.5535367825461350  0.2782990072736024  0.1250000000000000
  0.8889100379645705  0.2776846766430731  0.1250000000000000
  0.0555347990107735  0.4444448824348674  0.6250000000000000
  0.2222003741774795  0.9444442387195687  0.6250000000000000
  0.5555685283579781  0.9444507000231126  0.6250000000000000
  0.3889229742595186  0.4444380618517403  0.6250000000000000
  0.8888887630147153  0.9444193714029034  0.6250000000000000
  0.0560069677492294  0.9451082266077619  0.1250000000000000
  0.7222327951028312  0.4444928698818656  0.6250000000000000
  0.3889774310077036  0.9448977729082070  0.1250000000000000
  0.2218205986920261  0.4443894222188951  0.1250000000000000
  0.2223741680530563  0.6111570467743545  0.1250000000000000
  0.7222640803504952  0.9446186752257236  0.1250000000000000
  0.8883763954228484  0.4445191517244186  0.1250000000000000
  0.0554958786556576  0.6110885548489815  0.6250000000000000
  0.2222275771175733  0.1111273348400120  0.6250000000000000
  0.7222323847482182  0.6110764821668599  0.6250000000000000
  0.5555738629230614  0.1111562704972116  0.6250000000000000
  0.8888981892101148  0.1111138894460858  0.6250000000000000
  0.4465530369796342  0.3864680695331172  0.1250000000000000
  0.7778187659224202  0.5555402231848049  0.1250000000000000
  0.3902726128570497  0.2785008821696408  0.1250000000000000
  0.5541795191063976  0.4427752351593794  0.1250000000000000
 
  0.00000000E+00  0.00000000E+00  0.00000000E+00
  0.00000000E+00  0.00000000E+00  0.00000000E+00
  0.00000000E+00  0.00000000E+00  0.00000000E+00
  0.00000000E+00  0.00000000E+00  0.00000000E+00
  0.00000000E+00  0.00000000E+00  0.00000000E+00
  0.00000000E+00  0.00000000E+00  0.00000000E+00
  0.00000000E+00  0.00000000E+00  0.00000000E+00
  0.00000000E+00  0.00000000E+00  0.00000000E+00
  0.00000000E+00  0.00000000E+00  0.00000000E+00
  0.00000000E+00  0.00000000E+00  0.00000000E+00
  0.00000000E+00  0.00000000E+00  0.00000000E+00
  0.00000000E+00  0.00000000E+00  0.00000000E+00
  0.00000000E+00  0.00000000E+00  0.00000000E+00
  0.00000000E+00  0.00000000E+00  0.00000000E+00
  0.00000000E+00  0.00000000E+00  0.00000000E+00
  0.00000000E+00  0.00000000E+00  0.00000000E+00
  0.00000000E+00  0.00000000E+00  0.00000000E+00
  0.00000000E+00  0.00000000E+00  0.00000000E+00
  0.00000000E+00  0.00000000E+00  0.00000000E+00
  0.00000000E+00  0.00000000E+00  0.00000000E+00
  0.00000000E+00  0.00000000E+00  0.00000000E+00
  0.00000000E+00  0.00000000E+00  0.00000000E+00
  0.00000000E+00  0.00000000E+00  0.00000000E+00
  0.00000000E+00  0.00000000E+00  0.00000000E+00
  0.00000000E+00  0.00000000E+00  0.00000000E+00
  0.00000000E+00  0.00000000E+00  0.00000000E+00
  0.00000000E+00  0.00000000E+00  0.00000000E+00
  0.00000000E+00  0.00000000E+00  0.00000000E+00
  0.00000000E+00  0.00000000E+00  0.00000000E+00
  0.00000000E+00  0.00000000E+00  0.00000000E+00
  0.00000000E+00  0.00000000E+00  0.00000000E+00
  0.00000000E+00  0.00000000E+00  0.00000000E+00
  0.00000000E+00  0.00000000E+00  0.00000000E+00
  0.00000000E+00  0.00000000E+00  0.00000000E+00
  0.00000000E+00  0.00000000E+00  0.00000000E+00
  0.00000000E+00  0.00000000E+00  0.00000000E+00
  0.00000000E+00  0.00000000E+00  0.00000000E+00
  0.00000000E+00  0.00000000E+00  0.00000000E+00
  0.00000000E+00  0.00000000E+00  0.00000000E+00
  0.00000000E+00  0.00000000E+00  0.00000000E+00
  0.00000000E+00  0.00000000E+00  0.00000000E+00
  0.00000000E+00  0.00000000E+00  0.00000000E+00
  0.00000000E+00  0.00000000E+00  0.00000000E+00
  0.00000000E+00  0.00000000E+00  0.00000000E+00
  0.00000000E+00  0.00000000E+00  0.00000000E+00
  0.00000000E+00  0.00000000E+00  0.00000000E+00
  0.00000000E+00  0.00000000E+00  0.00000000E+00
  0.00000000E+00  0.00000000E+00  0.00000000E+00
  0.00000000E+00  0.00000000E+00  0.00000000E+00
  0.00000000E+00  0.00000000E+00  0.00000000E+00
  0.00000000E+00  0.00000000E+00  0.00000000E+00
  0.00000000E+00  0.00000000E+00  0.00000000E+00
  0.00000000E+00  0.00000000E+00  0.00000000E+00
  0.00000000E+00  0.00000000E+00  0.00000000E+00
  0.00000000E+00  0.00000000E+00  0.00000000E+00
  0.00000000E+00  0.00000000E+00  0.00000000E+00
  0.00000000E+00  0.00000000E+00  0.00000000E+00
  0.00000000E+00  0.00000000E+00  0.00000000E+00
  0.00000000E+00  0.00000000E+00  0.00000000E+00
  0.00000000E+00  0.00000000E+00  0.00000000E+00
  0.00000000E+00  0.00000000E+00  0.00000000E+00
  0.00000000E+00  0.00000000E+00  0.00000000E+00
  0.00000000E+00  0.00000000E+00  0.00000000E+00
  0.00000000E+00  0.00000000E+00  0.00000000E+00
  0.00000000E+00  0.00000000E+00  0.00000000E+00
  0.00000000E+00  0.00000000E+00  0.00000000E+00
  0.00000000E+00  0.00000000E+00  0.00000000E+00
  0.00000000E+00  0.00000000E+00  0.00000000E+00
  0.00000000E+00  0.00000000E+00  0.00000000E+00
  0.00000000E+00  0.00000000E+00  0.00000000E+00
  0.00000000E+00  0.00000000E+00  0.00000000E+00
  0.00000000E+00  0.00000000E+00  0.00000000E+00
  0.00000000E+00  0.00000000E+00  0.00000000E+00
  0.00000000E+00  0.00000000E+00  0.00000000E+00
  0.00000000E+00  0.00000000E+00  0.00000000E+00
  0.00000000E+00  0.00000000E+00  0.00000000E+00
  0.00000000E+00  0.00000000E+00  0.00000000E+00
  0.00000000E+00  0.00000000E+00  0.00000000E+00
  0.00000000E+00  0.00000000E+00  0.00000000E+00
  0.00000000E+00  0.00000000E+00  0.00000000E+00
  0.00000000E+00  0.00000000E+00  0.00000000E+00
  0.00000000E+00  0.00000000E+00  0.00000000E+00
  0.00000000E+00  0.00000000E+00  0.00000000E+00
  0.00000000E+00  0.00000000E+00  0.00000000E+00
  0.00000000E+00  0.00000000E+00  0.00000000E+00
  0.00000000E+00  0.00000000E+00  0.00000000E+00
  0.00000000E+00  0.00000000E+00  0.00000000E+00
  0.00000000E+00  0.00000000E+00  0.00000000E+00
  0.00000000E+00  0.00000000E+00  0.00000000E+00
  0.00000000E+00  0.00000000E+00  0.00000000E+00
  0.00000000E+00  0.00000000E+00  0.00000000E+00
  0.00000000E+00  0.00000000E+00  0.00000000E+00
  0.00000000E+00  0.00000000E+00  0.00000000E+00
  0.00000000E+00  0.00000000E+00  0.00000000E+00
  0.00000000E+00  0.00000000E+00  0.00000000E+00
  0.00000000E+00  0.00000000E+00  0.00000000E+00
  0.00000000E+00  0.00000000E+00  0.00000000E+00
  0.00000000E+00  0.00000000E+00  0.00000000E+00
  0.00000000E+00  0.00000000E+00  0.00000000E+00
  0.00000000E+00  0.00000000E+00  0.00000000E+00
  0.00000000E+00  0.00000000E+00  0.00000000E+00
  0.00000000E+00  0.00000000E+00  0.00000000E+00
  0.00000000E+00  0.00000000E+00  0.00000000E+00
  0.00000000E+00  0.00000000E+00  0.00000000E+00
  0.00000000E+00  0.00000000E+00  0.00000000E+00
  0.00000000E+00  0.00000000E+00  0.00000000E+00
  0.00000000E+00  0.00000000E+00  0.00000000E+00
  0.00000000E+00  0.00000000E+00  0.00000000E+00
  0.00000000E+00  0.00000000E+00  0.00000000E+00
  0.00000000E+00  0.00000000E+00  0.00000000E+00
  0.00000000E+00  0.00000000E+00  0.00000000E+00
  0.00000000E+00  0.00000000E+00  0.00000000E+00
  0.00000000E+00  0.00000000E+00  0.00000000E+00
  0.00000000E+00  0.00000000E+00  0.00000000E+00
  0.00000000E+00  0.00000000E+00  0.00000000E+00
  0.00000000E+00  0.00000000E+00  0.00000000E+00
  0.00000000E+00  0.00000000E+00  0.00000000E+00
  0.00000000E+00  0.00000000E+00  0.00000000E+00
  0.00000000E+00  0.00000000E+00  0.00000000E+00
  0.00000000E+00  0.00000000E+00  0.00000000E+00
  0.00000000E+00  0.00000000E+00  0.00000000E+00
  0.00000000E+00  0.00000000E+00  0.00000000E+00
  0.00000000E+00  0.00000000E+00  0.00000000E+00
  0.00000000E+00  0.00000000E+00  0.00000000E+00
  0.00000000E+00  0.00000000E+00  0.00000000E+00
  0.00000000E+00  0.00000000E+00  0.00000000E+00
  0.00000000E+00  0.00000000E+00  0.00000000E+00
  0.00000000E+00  0.00000000E+00  0.00000000E+00
  0.00000000E+00  0.00000000E+00  0.00000000E+00
  0.00000000E+00  0.00000000E+00  0.00000000E+00
  0.00000000E+00  0.00000000E+00  0.00000000E+00
  0.00000000E+00  0.00000000E+00  0.00000000E+00
  0.00000000E+00  0.00000000E+00  0.00000000E+00
  0.00000000E+00  0.00000000E+00  0.00000000E+00
  0.00000000E+00  0.00000000E+00  0.00000000E+00
  0.00000000E+00  0.00000000E+00  0.00000000E+00
  0.00000000E+00  0.00000000E+00  0.00000000E+00
  0.00000000E+00  0.00000000E+00  0.00000000E+00
  0.00000000E+00  0.00000000E+00  0.00000000E+00
  0.00000000E+00  0.00000000E+00  0.00000000E+00
  0.00000000E+00  0.00000000E+00  0.00000000E+00
  0.00000000E+00  0.00000000E+00  0.00000000E+00
  0.00000000E+00  0.00000000E+00  0.00000000E+00
  0.00000000E+00  0.00000000E+00  0.00000000E+00
  0.00000000E+00  0.00000000E+00  0.00000000E+00
  0.00000000E+00  0.00000000E+00  0.00000000E+00
  0.00000000E+00  0.00000000E+00  0.00000000E+00
  0.00000000E+00  0.00000000E+00  0.00000000E+00
  0.00000000E+00  0.00000000E+00  0.00000000E+00
  0.00000000E+00  0.00000000E+00  0.00000000E+00
  0.00000000E+00  0.00000000E+00  0.00000000E+00
  0.00000000E+00  0.00000000E+00  0.00000000E+00
  0.00000000E+00  0.00000000E+00  0.00000000E+00
  0.00000000E+00  0.00000000E+00  0.00000000E+00
  0.00000000E+00  0.00000000E+00  0.00000000E+00
  0.00000000E+00  0.00000000E+00  0.00000000E+00
  0.00000000E+00  0.00000000E+00  0.00000000E+00
  0.00000000E+00  0.00000000E+00  0.00000000E+00
  0.00000000E+00  0.00000000E+00  0.00000000E+00
  0.00000000E+00  0.00000000E+00  0.00000000E+00
  0.00000000E+00  0.00000000E+00  0.00000000E+00
  0.00000000E+00  0.00000000E+00  0.00000000E+00
  0.00000000E+00  0.00000000E+00  0.00000000E+00
  0.00000000E+00  0.00000000E+00  0.00000000E+00
  0.00000000E+00  0.00000000E+00  0.00000000E+00
  0.00000000E+00  0.00000000E+00  0.00000000E+00
  0.00000000E+00  0.00000000E+00  0.00000000E+00
  0.00000000E+00  0.00000000E+00  0.00000000E+00
  0.00000000E+00  0.00000000E+00  0.00000000E+00
  0.00000000E+00  0.00000000E+00  0.00000000E+00
  0.00000000E+00  0.00000000E+00  0.00000000E+00
  0.00000000E+00  0.00000000E+00  0.00000000E+00
  0.00000000E+00  0.00000000E+00  0.00000000E+00
  0.00000000E+00  0.00000000E+00  0.00000000E+00
  0.00000000E+00  0.00000000E+00  0.00000000E+00
  0.00000000E+00  0.00000000E+00  0.00000000E+00
  0.00000000E+00  0.00000000E+00  0.00000000E+00
  0.00000000E+00  0.00000000E+00  0.00000000E+00
  0.00000000E+00  0.00000000E+00  0.00000000E+00
  0.00000000E+00  0.00000000E+00  0.00000000E+00
  0.00000000E+00  0.00000000E+00  0.00000000E+00
  0.00000000E+00  0.00000000E+00  0.00000000E+00
  0.00000000E+00  0.00000000E+00  0.00000000E+00
  0.00000000E+00  0.00000000E+00  0.00000000E+00
  0.00000000E+00  0.00000000E+00  0.00000000E+00
  0.00000000E+00  0.00000000E+00  0.00000000E+00
  0.00000000E+00  0.00000000E+00  0.00000000E+00
  0.00000000E+00  0.00000000E+00  0.00000000E+00
  0.00000000E+00  0.00000000E+00  0.00000000E+00
  0.00000000E+00  0.00000000E+00  0.00000000E+00
  0.00000000E+00  0.00000000E+00  0.00000000E+00
  0.00000000E+00  0.00000000E+00  0.00000000E+00
  0.00000000E+00  0.00000000E+00  0.00000000E+00
  0.00000000E+00  0.00000000E+00  0.00000000E+00
  0.00000000E+00  0.00000000E+00  0.00000000E+00
  0.00000000E+00  0.00000000E+00  0.00000000E+00
  0.00000000E+00  0.00000000E+00  0.00000000E+00
  0.00000000E+00  0.00000000E+00  0.00000000E+00
  0.00000000E+00  0.00000000E+00  0.00000000E+00
  0.00000000E+00  0.00000000E+00  0.00000000E+00
  0.00000000E+00  0.00000000E+00  0.00000000E+00
  0.00000000E+00  0.00000000E+00  0.00000000E+00
  0.00000000E+00  0.00000000E+00  0.00000000E+00
  0.00000000E+00  0.00000000E+00  0.00000000E+00
  0.00000000E+00  0.00000000E+00  0.00000000E+00
  0.00000000E+00  0.00000000E+00  0.00000000E+00
  0.00000000E+00  0.00000000E+00  0.00000000E+00
  0.00000000E+00  0.00000000E+00  0.00000000E+00
  0.00000000E+00  0.00000000E+00  0.00000000E+00
  0.00000000E+00  0.00000000E+00  0.00000000E+00
  0.00000000E+00  0.00000000E+00  0.00000000E+00
  0.00000000E+00  0.00000000E+00  0.00000000E+00
  0.00000000E+00  0.00000000E+00  0.00000000E+00
  0.00000000E+00  0.00000000E+00  0.00000000E+00
  0.00000000E+00  0.00000000E+00  0.00000000E+00
  0.00000000E+00  0.00000000E+00  0.00000000E+00
  0.00000000E+00  0.00000000E+00  0.00000000E+00
  0.00000000E+00  0.00000000E+00  0.00000000E+00
  0.00000000E+00  0.00000000E+00  0.00000000E+00
  0.00000000E+00  0.00000000E+00  0.00000000E+00
  0.00000000E+00  0.00000000E+00  0.00000000E+00
  0.00000000E+00  0.00000000E+00  0.00000000E+00
  0.00000000E+00  0.00000000E+00  0.00000000E+00
  0.00000000E+00  0.00000000E+00  0.00000000E+00
  0.00000000E+00  0.00000000E+00  0.00000000E+00
  0.00000000E+00  0.00000000E+00  0.00000000E+00
  0.00000000E+00  0.00000000E+00  0.00000000E+00
  0.00000000E+00  0.00000000E+00  0.00000000E+00
  0.00000000E+00  0.00000000E+00  0.00000000E+00
  0.00000000E+00  0.00000000E+00  0.00000000E+00
  0.00000000E+00  0.00000000E+00  0.00000000E+00
  0.00000000E+00  0.00000000E+00  0.00000000E+00
  0.00000000E+00  0.00000000E+00  0.00000000E+00
  0.00000000E+00  0.00000000E+00  0.00000000E+00
  0.00000000E+00  0.00000000E+00  0.00000000E+00
  0.00000000E+00  0.00000000E+00  0.00000000E+00
  0.00000000E+00  0.00000000E+00  0.00000000E+00
  0.00000000E+00  0.00000000E+00  0.00000000E+00
  0.00000000E+00  0.00000000E+00  0.00000000E+00
  0.00000000E+00  0.00000000E+00  0.00000000E+00
  0.00000000E+00  0.00000000E+00  0.00000000E+00
  0.00000000E+00  0.00000000E+00  0.00000000E+00
  0.00000000E+00  0.00000000E+00  0.00000000E+00
  0.00000000E+00  0.00000000E+00  0.00000000E+00
  0.00000000E+00  0.00000000E+00  0.00000000E+00
  0.00000000E+00  0.00000000E+00  0.00000000E+00
  0.00000000E+00  0.00000000E+00  0.00000000E+00