Species order:  N B                     
   2.51242800000000     
     5.9449720136058266    0.0000000000000000    0.0000000000000000
    -2.9724860068029120    5.1484967885702053   -0.0000000000000001
     0.0000000000000000    0.0000000000000009    5.3101128803662583
   N    B 
   144   143
Direct
  0.4352659376133776  0.3842996354733511  0.3750000000000000
  0.1110048553725383  0.0555182309151517  0.1247320010930288
  0.6110689478507273  0.5554944556863721  0.1244529317635954
  0.4443461351507926  0.0555381422172330  0.1248585310991524
  0.9443920271185611  0.5555240083589801  0.1247400313415927
  0.7776318782333076  0.0554826057833177  0.1247860622792865
  0.1110426943378391  0.7221880138355707  0.6252979357860193
  0.4443461351507926  0.7221413262668971  0.6251414689008458
  0.2776747405202299  0.2221935798248187  0.6251951977403439
  0.7777152093879425  0.7221757379381674  0.6252716461429455
  0.6110108229625543  0.2222214235746466  0.6251182264995141
  0.9443097938879452  0.2221556426950131  0.6253182283232792
  0.2776935044018789  0.7221661332816138  0.1247322607768900
  0.1109691907819516  0.2221512620576362  0.1246685083894613
  0.4443763645272238  0.2222359818129552  0.1248169156384462
  0.6110108229625543  0.7221227327212623  0.1248817735004836
  0.9443920271185611  0.7222013520928982  0.1247400313415927
  0.7776585054296196  0.2221793103032536  0.1248072944809477
  0.1110365921644100  0.8888669116275200  0.6252756260351185
  0.4443336166595296  0.8888334749964291  0.6251990679312522
  0.2776747405202299  0.3888144940287399  0.6251951977403439
  0.6110689478507273  0.3889078254976955  0.6255470682364083
  0.7776585054296196  0.8888125284596873  0.6251927055190658
  0.9443548640163159  0.3888387901825899  0.6252776327760619
  0.1110048553725383  0.3888199577907173  0.1247320010930289
  0.2776935044018789  0.8888607044535994  0.1247322607768900
  0.6109811249663200  0.8888043011197641  0.1248623262645485
  0.4443534197634729  0.3888433765484027  0.1240621516947286
  0.9443548640163159  0.8888494071670741  0.1247223672239406
  0.7777152093879425  0.3888728047831049  0.1247283538570560
  0.2776936318270531  0.5554814731306303  0.6251881329356345
  0.1110048553725380  0.0555182309151517  0.6252679989069709
  0.6110689478507273  0.5554944556863721  0.6255470682364083
  0.4443461351507926  0.0555381422172330  0.6251414689008458
  0.9443920271185611  0.5555240083589801  0.6252599686584051
  0.1110365921644100  0.5555030138702228  0.1247243739648849
  0.7776318782333076  0.0554826057833174  0.6252139377207244
  0.2776936318270531  0.0555454920297532  0.1248118670643810
  0.4443763645272238  0.5554737160475920  0.1248169156384462
  0.7777501078205848  0.5555417205769698  0.1247192971440040
  0.6109811249663200  0.0555101571798771  0.1248623262645486
  0.4443763645272238  0.5554737160475920  0.6251830843615394
  0.9443097938879452  0.0554874845262561  0.1246817716767131
  0.2776935044018789  0.7221661332816138  0.6252677392231013
  0.1109691907819516  0.2221512620576362  0.6253314916105360
  0.4443763645272238  0.2222359818129563  0.6251830843615394
  0.6110108229625543  0.7221227327212623  0.6251182264995141
  0.9443920271185611  0.7222013520928982  0.6252599686584051
  0.7776585054296196  0.2221793103032536  0.6251927055190658
  0.1110426943378391  0.7221880138355707  0.1247020642139790
  0.4443461351507926  0.7221413262668971  0.1248585310991524
  0.2776747405202299  0.2221935798248187  0.1248048022596578
  0.7777152093879425  0.7221757379381674  0.1247283538570560
  0.6110108229625543  0.2222214235746466  0.1248817735004836
  0.9443097938879452  0.2221556426950131  0.1246817716767134
  0.1110048553725380  0.3888199577907173  0.6252679989069709
  0.2776935044018789  0.8888607044535994  0.6252677392230978
  0.6109811249663200  0.8888043011197641  0.6251376737354610
  0.4443534197634729  0.3888433765484027  0.6259378483052807
  0.9443548640163159  0.8888494071670741  0.6252776327760592
  0.1110365921644100  0.8888669116275200  0.1247243739648849
  0.7777152093879425  0.3888728047831049  0.6252716461429455
  0.4443336166595296  0.8888334749964291  0.1248009320687485
  0.2776747405202299  0.3888144940287399  0.1248048022596579
  0.2776936318270531  0.5554814731306303  0.1248118670643813
  0.6110689478507273  0.3889078254976952  0.1244529317635956
  0.7776585054296196  0.8888125284596873  0.1248072944809477
  0.9443548640163159  0.3888387901825899  0.1247223672239406
  0.1110365921644100  0.5555030138702228  0.6252756260351185
  0.2776936318270531  0.0555454920297532  0.6251881329356345
  0.7777501078205848  0.5555417205769698  0.6252807028559995
  0.6109811249663195  0.0555101571798771  0.6251376737354610
  0.9443097938879452  0.0554874845262558  0.6253182283232792
  0.0518793736721397  0.1088397322831889  0.3750000000000000
  0.5569404188654269  0.5971891717081435  0.3750000000000000
  0.3906081226589467  0.1176452921294947  0.3750000000000000
  0.8952794876105752  0.6143064104719521  0.3750000000000000
  0.7206125428983035  0.1115951315761308  0.3750000000000000
  0.0555627333172099  0.7777835088625237  0.8750000000000000
  0.3889022699829464  0.7777848283615886  0.8750000000000000
  0.2222279793515560  0.2777806563424508  0.8750000000000000
  0.7222302714412053  0.7777795766083843  0.8750000000000000
  0.5555632685176745  0.2777809183147508  0.8750000000000000
  0.8889001074803636  0.2777865377567189  0.8750000000000000
  0.2255976087522463  0.7794654710427882  0.3750000000000000
  0.0518793736721397  0.2763729747222866  0.3750000000000000
  0.3815673781766216  0.2795660061278310  0.3750000000000000
  0.5560238858813044  0.7722710258647510  0.3750000000000000
  0.8911021595537482  0.7782834455745384  0.3750000000000000
  0.7215054768648150  0.2807292543569739  0.3750000000000000
  0.0555612883555578  0.9444446147224024  0.8750000000000000
  0.3889022699829464  0.9444507749546954  0.8750000000000000
  0.2222315066329002  0.4444494020319827  0.8750000000000000
  0.5555675203188420  0.4444504268260883  0.8750000000000000
  0.7222298834042984  0.9444494360704743  0.8750000000000000
  0.8888975221188145  0.4444489496419112  0.8750000000000000
  0.0556951605041505  0.4445889370756115  0.3750000000000000
  0.2247870706986362  0.9471527541446748  0.3750000000000000
  0.5559101929423838  0.9446217631378625  0.3750000000000000
  0.3815673781766216  0.4353347053821148  0.3750000000000000
  0.8868986450673634  0.9423647980150559  0.3750000000000000
  0.7276409389410946  0.4492887480222172  0.3750000000000000
  0.2222308323888347  0.6111171616103381  0.8750000000000000
  0.0555644025662830  0.1111143548649185  0.8750000000000000
  0.5555632685176745  0.6111156835362648  0.8750000000000000
  0.3889003917050063  0.1111128459814022  0.8750000000000000
  0.8888964287758612  0.6111148810546061  0.8750000000000000
  0.0594690494725114  0.6127021327053167  0.3750000000000000
  0.7222298834042984  0.1111137806671612  0.8750000000000000
  0.2201415238754264  0.1107365492408405  0.3750000000000000
  0.3906081226589467  0.6062961638627946  0.3750000000000000
  0.7276409389410946  0.6116855242522121  0.3750000000000000
  0.5560238858813040  0.1170861933498518  0.3750000000000000
  0.3889003917050063  0.6111208790569375  0.8750000000000000
  0.8859353638550012  0.1096343485941667  0.3750000000000000
  0.2222326630124881  0.7777829981729122  0.8750000000000000
  0.0555644025662830  0.2777833810346988  0.8750000000000000
  0.3888967487365884  0.2777779739684673  0.8750000000000000
  0.5555638162328806  0.7777799213259546  0.8750000000000000
  0.8888975221188145  0.7777819058102385  0.8750000000000000
  0.7222302714412053  0.2777840281661456  0.8750000000000000
  0.0594690494725114  0.7801002501005485  0.3750000000000000
  0.3911224064657321  0.7769848223717415  0.3750000000000000
  0.2154645293457318  0.2743989313395335  0.3750000000000000
  0.7215054768648150  0.7741095558411676  0.3750000000000000
  0.5569404188654269  0.2930845804906047  0.3750000000000000
  0.8868986450673634  0.2778671803856395  0.3750000000000000
  0.0555612883555578  0.4444500069664751  0.8750000000000000
  0.2222308323888347  0.9444470041118526  0.8750000000000000
  0.5555654772470263  0.9444494052901503  0.8750000000000000
  0.3888967487365884  0.4444521081014466  0.8750000000000000
  0.8889001074803636  0.9444469030569688  0.8750000000000000
  0.0556951605041505  0.9444395567618890  0.3750000000000000
  0.7222288106932506  0.4444484072707641  0.8750000000000000
  0.3911224064657301  0.9474709174273462  0.3750000000000000
  0.2201415238754261  0.4427383079679214  0.3750000000000000
  0.2247870706986362  0.6109676498872941  0.3750000000000000
  0.7206125428983035  0.9423507446555148  0.3750000000000000
  0.8911021595537482  0.4461520473125533  0.3750000000000000
  0.0555627333172099  0.6111125577880214  0.8750000000000000
  0.2222315066329002  0.1111154379342516  0.8750000000000000
  0.7222288106932506  0.6111137367558118  0.8750000000000000
  0.5555638162328806  0.1111172282402705  0.8750000000000000
  0.8888955168076326  0.1111144250704900  0.8750000000000000
  0.1091223239914633  0.0548077745935848  0.3750000000000000
  0.6183366333050307  0.5409444241824459  0.3750000000000000
  0.4452924678495480  0.0600942031441323  0.3750000000000000
  0.9487763875806532  0.5573044773269084  0.3750000000000000
  0.7750271562317572  0.0541802447825456  0.3750000000000000
  0.1113027156502476  0.7223180244917926  0.8750000000000000
  0.4443633032658417  0.7220446879654546  0.8750000000000000
  0.2776990885768942  0.2223220398709744  0.8750000000000000
  0.7776905124464878  0.7223102123541626  0.8750000000000000
  0.6113000806327114  0.2223215104128567  0.8750000000000000
  0.9443581980600385  0.2220437039581496  0.8750000000000000
  0.2802332893743000  0.7224764379981380  0.3750000000000000
  0.1054234024216205  0.2193783678774705  0.3750000000000000
  0.4452848769381303  0.2307995773430445  0.3750000000000000
  0.6103401327577155  0.7127727043666100  0.3750000000000000
  0.9487763875806532  0.7248052435870719  0.3750000000000000
  0.7756546487461893  0.2230942851928208  0.3750000000000000
  0.1110266594787563  0.8889813040171298  0.8750000000000000
  0.4446389724476065  0.8889861528904729  0.8750000000000000
  0.2776990885768948  0.3887103820392486  0.8750000000000000
  0.6110235608674265  0.3889882082037855  0.8750000000000000
  0.7776903448837812  0.8887050412503402  0.8750000000000000
  0.9446331174534007  0.3889879971250193  0.8750000000000000
  0.1091223239914634  0.3876478827312098  0.3750000000000000
  0.2802332893743000  0.8910901847094869  0.3750000000000000
  0.6098682085648239  0.8855885753707012  0.3750000000000000
  0.9446375837882462  0.8887239350050791  0.3750000000000000
  0.7799858434393115  0.3914851885653506  0.3750000000000000
  0.2779755483049242  0.5556600670935761  0.8750000000000000
  0.1110261444004609  0.0553731498590522  0.8750000000000000
  0.6110235608674265  0.5553686859969483  0.8750000000000000
  0.4443633032658417  0.0556519486337224  0.8750000000000000
  0.9443565848100659  0.5556493058723828  0.8750000000000000
  0.1135903790258595  0.5559368645502036  0.3750000000000000
  0.7779653068768828  0.0556493201051084  0.8750000000000000
  0.2790785701091262  0.0585910513550890  0.3750000000000000
  0.4452848769381303  0.5478186329284105  0.3750000000000000
  0.7858174512230517  0.5595753922781870  0.3750000000000000
  0.6098682085648239  0.0576129665274417  0.3750000000000000
  0.4443676921750153  0.5556563908529832  0.8750000000000000
  0.9410253568783711  0.0533682434569080  0.3750000000000000
  0.2776991247405834  0.7223218685285920  0.8750000000000000
  0.1113066078343686  0.2223199705838499  0.8750000000000000
  0.4443676921750153  0.2220446346553648  0.8750000000000000
  0.6113000806327114  0.7223119035531803  0.8750000000000000
  0.9443565848100667  0.7220406122710260  0.8750000000000000
  0.7776903448837812  0.2223186369667718  0.8750000000000000
  0.1146955704375647  0.7240144518854282  0.3750000000000000
  0.4452924678495480  0.7185315980387508  0.3750000000000000
  0.2713974215270654  0.2205943060863573  0.3750000000000000
  0.7799858434393115  0.7218339882072825  0.3750000000000000
  0.6103401327577154  0.2309007617244381  0.3750000000000000
  0.9410253568783711  0.2209904467548122  0.3750000000000000
  0.1110261444004615  0.3889863278747396  0.8750000000000000
  0.2776991247405834  0.8887105895453030  0.8750000000000000
  0.6110283843689313  0.8889827775708855  0.8750000000000000
  0.4446493096453836  0.3889913214893633  0.8750000000000000
  0.9446331174534081  0.8889784536617046  0.8750000000000000
  0.1135903790258595  0.8909868478089782  0.3750000000000000
  0.7776905124464878  0.3887136334256642  0.8750000000000000
  0.4453346024705154  0.8893339679019349  0.3750000000000000
  0.2713974215270654  0.3841364487740315  0.3750000000000000
  0.2790785701091283  0.5538208520873698  0.3750000000000000
  0.6183366333050307  0.4107255424559236  0.3750000000000000
  0.7756546487461893  0.8858936968866908  0.3750000000000000
  0.9446375837882462  0.3892469821164967  0.3750000000000000
  0.1110266594787567  0.5553786887949616  0.8750000000000000
  0.2779755483049242  0.0556488145446914  0.8750000000000000
  0.7779605854718751  0.5556469594026052  0.8750000000000000
  0.6110283843689313  0.0553789401313740  0.8750000000000000
  0.9443581980600408  0.0556478274352219  0.8750000000000000
  0.0554148865032859  0.1110412245742778  0.1247976045429496
  0.5554985414631071  0.6109931652810194  0.1249631252182568
  0.3888315531511060  0.1111398519944935  0.1249471503120067
  0.8888229976479914  0.6110781654906725  0.1248213131359761
  0.7220858661055763  0.1110599363406251  0.1249603479844813
  0.0554884050239219  0.7777498600441228  0.6251417212987948
  0.3888103030054491  0.7777178977012187  0.6250445327134662
  0.2221056457616379  0.2777194895474832  0.6252543892957582
  0.7221154720067104  0.7776809305846486  0.6250925701420282
  0.5554985414631071  0.2778387095154435  0.6250368747817521
  0.8887612871955060  0.2777251201457646  0.6251297794884075
  0.2221546926976328  0.7777440130154897  0.1248100909593550
  0.0554148865032859  0.2777069952623438  0.1247976045429497
  0.3888662285103558  0.2778451590546174  0.1247315511948143
  0.5554624685845587  0.7776812793512466  0.1250419164869939
  0.8887956610053830  0.7777245971894063  0.1248831096619409
  0.7221154720067104  0.2777678747554109  0.1249074298579683
  0.0554564197834155  0.9444009495526338  0.6251933251236045
  0.3888103030054491  0.9444257386375717  0.6250445327134662
  0.2221323124465827  0.4443753233547239  0.6250973090108866
  0.5554351761925408  0.4443842547629347  0.6253046646265848
  0.7220858661055763  0.9443592630982871  0.6250396520155277
  0.8887956610053830  0.4444043971493163  0.6251168903380582
  0.0554564197834155  0.4443888035641015  0.1248066748764015
  0.2221507857713764  0.9444294752489822  0.1248965144126474
  0.5554438120436604  0.9443885726885000  0.1249538627096391
  0.3888662285103558  0.4443544027890695  0.1247315511948145
  0.8887612871955060  0.9443695003830633  0.1248702205115877
  0.7221319922997805  0.4444251889622868  0.1248485055207287
  0.2221507857713764  0.6110546438557416  0.6251034855873326
  0.0554148865032859  0.1110412245742778  0.6252023954570464
  0.5554985414631071  0.6109931652810194  0.6250368747817521
  0.3888315531511060  0.1111398519944935  0.6250528496880002
  0.8888229976479914  0.6110781654906725  0.6251786868640373
  0.0554884050239219  0.6110718783131336  0.1248582787012047
  0.7220858661055763  0.1110599363406251  0.6250396520155277
  0.2221323124465827  0.1110903224251875  0.1249026909891111
  0.3888315531511060  0.6110250344899691  0.1249471503120067
  0.7221319922997805  0.6110401366708212  0.1248485055207287
  0.5554624685845587  0.1111145225666615  0.1250419164869939
  0.3888315531511060  0.6110250344899691  0.6250528496880002
  0.8887397167185077  0.1110365250259265  0.1247860725201953
  0.2221546926976328  0.7777440130154897  0.6251899090406396
  0.0554148865032859  0.2777069952623438  0.6252023954570464
  0.3888662285103558  0.2778451590546174  0.6252684488051804
  0.5554624685845587  0.7776812793512466  0.6249580835129912
  0.8887956610053823  0.7777245971894063  0.6251168903380582
  0.7221154720067104  0.2777678747554109  0.6250925701420282
  0.0554884050239219  0.7777498600441228  0.1248582787012047
  0.3888103030054491  0.7777178977012187  0.1249554672865327
  0.2221056457616379  0.2777194895474832  0.1247456107042331
  0.7221154720067104  0.7776809305846486  0.1249074298579683
  0.5554985414631071  0.2778387095154435  0.1249631252182568
  0.8887612871955060  0.2777251201457646  0.1248702205115877
  0.0554564197834155  0.4443888035641015  0.6251933251236045
  0.2221507857713764  0.9444294752489822  0.6251034855873326
  0.5554438120436604  0.9443885726885000  0.6250461372903692
  0.3888662285103558  0.4443544027890695  0.6252684488051810
  0.8887612871955060  0.9443695003830633  0.6251297794884075
  0.0554564197834155  0.9444009495526338  0.1248066748764015
  0.7221319922997805  0.4444251889622868  0.6251514944792613
  0.3888103030054491  0.9444257386375717  0.1249554672865327
  0.2221323124465827  0.4443753233547239  0.1249026909891110
  0.2221507857713764  0.6110546438557416  0.1248965144126474
  0.5554351761925408  0.4443842547629347  0.1246953353734087
  0.7220858661055763  0.9443592630982871  0.1249603479844813
  0.8887956610053830  0.4444043971493163  0.1248831096619409
  0.0554884050239219  0.6110718783131336  0.6251417212987948
  0.2221323124465827  0.1110903224251875  0.6250973090108866
  0.7221319922997805  0.6110401366708212  0.6251514944792613
  0.5554624685845587  0.1111145225666615  0.6249580835129912
  0.8887397167185077  0.1110365250259265  0.6252139274797964
 
  0.00000000E+00  0.00000000E+00  0.00000000E+00
  0.00000000E+00  0.00000000E+00  0.00000000E+00
  0.00000000E+00  0.00000000E+00  0.00000000E+00
  0.00000000E+00  0.00000000E+00  0.00000000E+00
  0.00000000E+00  0.00000000E+00  0.00000000E+00
  0.00000000E+00  0.00000000E+00  0.00000000E+00
  0.00000000E+00  0.00000000E+00  0.00000000E+00
  0.00000000E+00  0.00000000E+00  0.00000000E+00
  0.00000000E+00  0.00000000E+00  0.00000000E+00
  0.00000000E+00  0.00000000E+00  0.00000000E+00
  0.00000000E+00  0.00000000E+00  0.00000000E+00
  0.00000000E+00  0.00000000E+00  0.00000000E+00
  0.00000000E+00  0.00000000E+00  0.00000000E+00
  0.00000000E+00  0.00000000E+00  0.00000000E+00
  0.00000000E+00  0.00000000E+00  0.00000000E+00
  0.00000000E+00  0.00000000E+00  0.00000000E+00
  0.00000000E+00  0.00000000E+00  0.00000000E+00
  0.00000000E+00  0.00000000E+00  0.00000000E+00
  0.00000000E+00  0.00000000E+00  0.00000000E+00
  0.00000000E+00  0.00000000E+00  0.00000000E+00
  0.00000000E+00  0.00000000E+00  0.00000000E+00
  0.00000000E+00  0.00000000E+00  0.00000000E+00
  0.00000000E+00  0.00000000E+00  0.00000000E+00
  0.00000000E+00  0.00000000E+00  0.00000000E+00
  0.00000000E+00  0.00000000E+00  0.00000000E+00
  0.00000000E+00  0.00000000E+00  0.00000000E+00
  0.00000000E+00  0.00000000E+00  0.00000000E+00
  0.00000000E+00  0.00000000E+00  0.00000000E+00
  0.00000000E+00  0.00000000E+00  0.00000000E+00
  0.00000000E+00  0.00000000E+00  0.00000000E+00
  0.00000000E+00  0.00000000E+00  0.00000000E+00
  0.00000000E+00  0.00000000E+00  0.00000000E+00
  0.00000000E+00  0.00000000E+00  0.00000000E+00
  0.00000000E+00  0.00000000E+00  0.00000000E+00
  0.00000000E+00  0.00000000E+00  0.00000000E+00
  0.00000000E+00  0.00000000E+00  0.00000000E+00
  0.00000000E+00  0.00000000E+00  0.00000000E+00
  0.00000000E+00  0.00000000E+00  0.00000000E+00
  0.00000000E+00  0.00000000E+00  0.00000000E+00
  0.00000000E+00  0.00000000E+00  0.00000000E+00
  0.00000000E+00  0.00000000E+00  0.00000000E+00
  0.00000000E+00  0.00000000E+00  0.00000000E+00
  0.00000000E+00  0.00000000E+00  0.00000000E+00
  0.00000000E+00  0.00000000E+00  0.00000000E+00
  0.00000000E+00  0.00000000E+00  0.00000000E+00
  0.00000000E+00  0.00000000E+00  0.00000000E+00
  0.00000000E+00  0.00000000E+00  0.00000000E+00
  0.00000000E+00  0.00000000E+00  0.00000000E+00
  0.00000000E+00  0.00000000E+00  0.00000000E+00
  0.00000000E+00  0.00000000E+00  0.00000000E+00
  0.00000000E+00  0.00000000E+00  0.00000000E+00
  0.00000000E+00  0.00000000E+00  0.00000000E+00
  0.00000000E+00  0.00000000E+00  0.00000000E+00
  0.00000000E+00  0.00000000E+00  0.00000000E+00
  0.00000000E+00  0.00000000E+00  0.00000000E+00
  0.00000000E+00  0.00000000E+00  0.00000000E+00
  0.00000000E+00  0.00000000E+00  0.00000000E+00
  0.00000000E+00  0.00000000E+00  0.00000000E+00
  0.00000000E+00  0.00000000E+00  0.00000000E+00
  0.00000000E+00  0.00000000E+00  0.00000000E+00
  0.00000000E+00  0.00000000E+00  0.00000000E+00
  0.00000000E+00  0.00000000E+00  0.00000000E+00
  0.00000000E+00  0.00000000E+00  0.00000000E+00
  0.00000000E+00  0.00000000E+00  0.00000000E+00
  0.00000000E+00  0.00000000E+00  0.00000000E+00
  0.00000000E+00  0.00000000E+00  0.00000000E+00
  0.00000000E+00  0.00000000E+00  0.00000000E+00
  0.00000000E+00  0.00000000E+00  0.00000000E+00
  0.00000000E+00  0.00000000E+00  0.00000000E+00
  0.00000000E+00  0.00000000E+00  0.00000000E+00
  0.00000000E+00  0.00000000E+00  0.00000000E+00
  0.00000000E+00  0.00000000E+00  0.00000000E+00
  0.00000000E+00  0.00000000E+00  0.00000000E+00
  0.00000000E+00  0.00000000E+00  0.00000000E+00
  0.00000000E+00  0.00000000E+00  0.00000000E+00
  0.00000000E+00  0.00000000E+00  0.00000000E+00
  0.00000000E+00  0.00000000E+00  0.00000000E+00
  0.00000000E+00  0.00000000E+00  0.00000000E+00
  0.00000000E+00  0.00000000E+00  0.00000000E+00
  0.00000000E+00  0.00000000E+00  0.00000000E+00
  0.00000000E+00  0.00000000E+00  0.00000000E+00
  0.00000000E+00  0.00000000E+00  0.00000000E+00
  0.00000000E+00  0.00000000E+00  0.00000000E+00
  0.00000000E+00  0.00000000E+00  0.00000000E+00
  0.00000000E+00  0.00000000E+00  0.00000000E+00
  0.00000000E+00  0.00000000E+00  0.00000000E+00
  0.00000000E+00  0.00000000E+00  0.00000000E+00
  0.00000000E+00  0.00000000E+00  0.00000000E+00
  0.00000000E+00  0.00000000E+00  0.00000000E+00
  0.00000000E+00  0.00000000E+00  0.00000000E+00
  0.00000000E+00  0.00000000E+00  0.00000000E+00
  0.00000000E+00  0.00000000E+00  0.00000000E+00
  0.00000000E+00  0.00000000E+00  0.00000000E+00
  0.00000000E+00  0.00000000E+00  0.00000000E+00
  0.00000000E+00  0.00000000E+00  0.00000000E+00
  0.00000000E+00  0.00000000E+00  0.00000000E+00
  0.00000000E+00  0.00000000E+00  0.00000000E+00
  0.00000000E+00  0.00000000E+00  0.00000000E+00
  0.00000000E+00  0.00000000E+00  0.00000000E+00
  0.00000000E+00  0.00000000E+00  0.00000000E+00
  0.00000000E+00  0.00000000E+00  0.00000000E+00
  0.00000000E+00  0.00000000E+00  0.00000000E+00
  0.00000000E+00  0.00000000E+00  0.00000000E+00
  0.00000000E+00  0.00000000E+00  0.00000000E+00
  0.00000000E+00  0.00000000E+00  0.00000000E+00
  0.00000000E+00  0.00000000E+00  0.00000000E+00
  0.00000000E+00  0.00000000E+00  0.00000000E+00
  0.00000000E+00  0.00000000E+00  0.00000000E+00
  0.00000000E+00  0.00000000E+00  0.00000000E+00
  0.00000000E+00  0.00000000E+00  0.00000000E+00
  0.00000000E+00  0.00000000E+00  0.00000000E+00
  0.00000000E+00  0.00000000E+00  0.00000000E+00
  0.00000000E+00  0.00000000E+00  0.00000000E+00
  0.00000000E+00  0.00000000E+00  0.00000000E+00
  0.00000000E+00  0.00000000E+00  0.00000000E+00
  0.00000000E+00  0.00000000E+00  0.00000000E+00
  0.00000000E+00  0.00000000E+00  0.00000000E+00
  0.00000000E+00  0.00000000E+00  0.00000000E+00
  0.00000000E+00  0.00000000E+00  0.00000000E+00
  0.00000000E+00  0.00000000E+00  0.00000000E+00
  0.00000000E+00  0.00000000E+00  0.00000000E+00
  0.00000000E+00  0.00000000E+00  0.00000000E+00
  0.00000000E+00  0.00000000E+00  0.00000000E+00
  0.00000000E+00  0.00000000E+00  0.00000000E+00
  0.00000000E+00  0.00000000E+00  0.00000000E+00
  0.00000000E+00  0.00000000E+00  0.00000000E+00
  0.00000000E+00  0.00000000E+00  0.00000000E+00
  0.00000000E+00  0.00000000E+00  0.00000000E+00
  0.00000000E+00  0.00000000E+00  0.00000000E+00
  0.00000000E+00  0.00000000E+00  0.00000000E+00
  0.00000000E+00  0.00000000E+00  0.00000000E+00
  0.00000000E+00  0.00000000E+00  0.00000000E+00
  0.00000000E+00  0.00000000E+00  0.00000000E+00
  0.00000000E+00  0.00000000E+00  0.00000000E+00
  0.00000000E+00  0.00000000E+00  0.00000000E+00
  0.00000000E+00  0.00000000E+00  0.00000000E+00
  0.00000000E+00  0.00000000E+00  0.00000000E+00
  0.00000000E+00  0.00000000E+00  0.00000000E+00
  0.00000000E+00  0.00000000E+00  0.00000000E+00
  0.00000000E+00  0.00000000E+00  0.00000000E+00
  0.00000000E+00  0.00000000E+00  0.00000000E+00
  0.00000000E+00  0.00000000E+00  0.00000000E+00
  0.00000000E+00  0.00000000E+00  0.00000000E+00
  0.00000000E+00  0.00000000E+00  0.00000000E+00
  0.00000000E+00  0.00000000E+00  0.00000000E+00
  0.00000000E+00  0.00000000E+00  0.00000000E+00
  0.00000000E+00  0.00000000E+00  0.00000000E+00
  0.00000000E+00  0.00000000E+00  0.00000000E+00
  0.00000000E+00  0.00000000E+00  0.00000000E+00
  0.00000000E+00  0.00000000E+00  0.00000000E+00
  0.00000000E+00  0.00000000E+00  0.00000000E+00
  0.00000000E+00  0.00000000E+00  0.00000000E+00
  0.00000000E+00  0.00000000E+00  0.00000000E+00
  0.00000000E+00  0.00000000E+00  0.00000000E+00
  0.00000000E+00  0.00000000E+00  0.00000000E+00
  0.00000000E+00  0.00000000E+00  0.00000000E+00
  0.00000000E+00  0.00000000E+00  0.00000000E+00
  0.00000000E+00  0.00000000E+00  0.00000000E+00
  0.00000000E+00  0.00000000E+00  0.00000000E+00
  0.00000000E+00  0.00000000E+00  0.00000000E+00
  0.00000000E+00  0.00000000E+00  0.00000000E+00
  0.00000000E+00  0.00000000E+00  0.00000000E+00
  0.00000000E+00  0.00000000E+00  0.00000000E+00
  0.00000000E+00  0.00000000E+00  0.00000000E+00
  0.00000000E+00  0.00000000E+00  0.00000000E+00
  0.00000000E+00  0.00000000E+00  0.00000000E+00
  0.00000000E+00  0.00000000E+00  0.00000000E+00
  0.00000000E+00  0.00000000E+00  0.00000000E+00
  0.00000000E+00  0.00000000E+00  0.00000000E+00
  0.00000000E+00  0.00000000E+00  0.00000000E+00
  0.00000000E+00  0.00000000E+00  0.00000000E+00
  0.00000000E+00  0.00000000E+00  0.00000000E+00
  0.00000000E+00  0.00000000E+00  0.00000000E+00
  0.00000000E+00  0.00000000E+00  0.00000000E+00
  0.00000000E+00  0.00000000E+00  0.00000000E+00
  0.00000000E+00  0.00000000E+00  0.00000000E+00
  0.00000000E+00  0.00000000E+00  0.00000000E+00
  0.00000000E+00  0.00000000E+00  0.00000000E+00
  0.00000000E+00  0.00000000E+00  0.00000000E+00
  0.00000000E+00  0.00000000E+00  0.00000000E+00
  0.00000000E+00  0.00000000E+00  0.00000000E+00
  0.00000000E+00  0.00000000E+00  0.00000000E+00
  0.00000000E+00  0.00000000E+00  0.00000000E+00
  0.00000000E+00  0.00000000E+00  0.00000000E+00
  0.00000000E+00  0.00000000E+00  0.00000000E+00
  0.00000000E+00  0.00000000E+00  0.00000000E+00
  0.00000000E+00  0.00000000E+00  0.00000000E+00
  0.00000000E+00  0.00000000E+00  0.00000000E+00
  0.00000000E+00  0.00000000E+00  0.00000000E+00
  0.00000000E+00  0.00000000E+00  0.00000000E+00
  0.00000000E+00  0.00000000E+00  0.00000000E+00
  0.00000000E+00  0.00000000E+00  0.00000000E+00
  0.00000000E+00  0.00000000E+00  0.00000000E+00
  0.00000000E+00  0.00000000E+00  0.00000000E+00
  0.00000000E+00  0.00000000E+00  0.00000000E+00
  0.00000000E+00  0.00000000E+00  0.00000000E+00
  0.00000000E+00  0.00000000E+00  0.00000000E+00
  0.00000000E+00  0.00000000E+00  0.00000000E+00
  0.00000000E+00  0.00000000E+00  0.00000000E+00
  0.00000000E+00  0.00000000E+00  0.00000000E+00
  0.00000000E+00  0.00000000E+00  0.00000000E+00
  0.00000000E+00  0.00000000E+00  0.00000000E+00
  0.00000000E+00  0.00000000E+00  0.00000000E+00
  0.00000000E+00  0.00000000E+00  0.00000000E+00
  0.00000000E+00  0.00000000E+00  0.00000000E+00
  0.00000000E+00  0.00000000E+00  0.00000000E+00
  0.00000000E+00  0.00000000E+00  0.00000000E+00
  0.00000000E+00  0.00000000E+00  0.00000000E+00
  0.00000000E+00  0.00000000E+00  0.00000000E+00
  0.00000000E+00  0.00000000E+00  0.00000000E+00
  0.00000000E+00  0.00000000E+00  0.00000000E+00
  0.00000000E+00  0.00000000E+00  0.00000000E+00
  0.00000000E+00  0.00000000E+00  0.00000000E+00
  0.00000000E+00  0.00000000E+00  0.00000000E+00
  0.00000000E+00  0.00000000E+00  0.00000000E+00
  0.00000000E+00  0.00000000E+00  0.00000000E+00
  0.00000000E+00  0.00000000E+00  0.00000000E+00
  0.00000000E+00  0.00000000E+00  0.00000000E+00
  0.00000000E+00  0.00000000E+00  0.00000000E+00
  0.00000000E+00  0.00000000E+00  0.00000000E+00
  0.00000000E+00  0.00000000E+00  0.00000000E+00
  0.00000000E+00  0.00000000E+00  0.00000000E+00
  0.00000000E+00  0.00000000E+00  0.00000000E+00
  0.00000000E+00  0.00000000E+00  0.00000000E+00
  0.00000000E+00  0.00000000E+00  0.00000000E+00
  0.00000000E+00  0.00000000E+00  0.00000000E+00
  0.00000000E+00  0.00000000E+00  0.00000000E+00
  0.00000000E+00  0.00000000E+00  0.00000000E+00
  0.00000000E+00  0.00000000E+00  0.00000000E+00
  0.00000000E+00  0.00000000E+00  0.00000000E+00
  0.00000000E+00  0.00000000E+00  0.00000000E+00
  0.00000000E+00  0.00000000E+00  0.00000000E+00
  0.00000000E+00  0.00000000E+00  0.00000000E+00
  0.00000000E+00  0.00000000E+00  0.00000000E+00
  0.00000000E+00  0.00000000E+00  0.00000000E+00
  0.00000000E+00  0.00000000E+00  0.00000000E+00
  0.00000000E+00  0.00000000E+00  0.00000000E+00
  0.00000000E+00  0.00000000E+00  0.00000000E+00
  0.00000000E+00  0.00000000E+00  0.00000000E+00
  0.00000000E+00  0.00000000E+00  0.00000000E+00
  0.00000000E+00  0.00000000E+00  0.00000000E+00
  0.00000000E+00  0.00000000E+00  0.00000000E+00
  0.00000000E+00  0.00000000E+00  0.00000000E+00
  0.00000000E+00  0.00000000E+00  0.00000000E+00
  0.00000000E+00  0.00000000E+00  0.00000000E+00
  0.00000000E+00  0.00000000E+00  0.00000000E+00
  0.00000000E+00  0.00000000E+00  0.00000000E+00
  0.00000000E+00  0.00000000E+00  0.00000000E+00