B In N                                  
   1.0000000000000000     
     8.7639499999999995  -15.1796066749929999    0.0000000000000000
     8.7639499999999995   15.1796066749929999    0.0000000000000000
     0.0000000000000000    0.0000000000000000   15.0000000000000000
   B    In   N 
    47     1    49
Selective dynamics
Direct
  0.9081396654901313  0.9568933386785208  0.1110805749833812   T   T   T
  0.9069875508894871  0.0982946024710857  0.1110848146769618   T   T   T
  0.9058693702747919  0.2395696212483062  0.1110868522077273   T   T   T
  0.9038734755579672  0.3808382793005219  0.1110300603004779   T   T   T
  0.8979997303821455  0.5217784517388731  0.1110502730549367   T   T   T
  0.8991126882088534  0.6640305211336889  0.1110748381012109   T   T   T
  0.9059152449179548  0.8123153523330071  0.1110723695297939   T   T   T
  0.0484456449705538  0.9537027792404463  0.1110135879019187   T   T   T
  0.0496009350190263  0.0970505548633332  0.1110217474102689   T   T   T
  0.0491639322591834  0.2394982738217344  0.1110716224494388   T   T   T
  0.0474358254396067  0.3815557317869723  0.1110560422534240   T   T   T
  0.0438633548282189  0.5231852345970252  0.1110884357825192   T   T   T
  0.0430532532632188  0.6647805537362684  0.1110805197070622   T   T   T
  0.0446454736983121  0.8079870124155423  0.1110076427128469   T   T   T
  0.1881248011015338  0.9502710231872091  0.1110262316845409   T   T   T
  0.1918200517626740  0.0957897539197750  0.1109676759337043   T   T   T
  0.1912061265118117  0.2373619947024831  0.1109435162998593   T   T   T
  0.1908692177454679  0.3810492942086759  0.1109770048635514   T   T   T
  0.1879867038574263  0.5237803103506703  0.1111052768308713   T   T   T
  0.1871834755913468  0.6655700274106191  0.1111541519194182   T   T   T
  0.1868994200517924  0.8074415274295387  0.1110368583825188   T   T   T
  0.3301301081041128  0.9493944970540883  0.1110123949606913   T   T   T
  0.3307726613048860  0.0911216954917540  0.1110603123246384   T   T   T
  0.3372134513500285  0.2386693022412848  0.1110102395345494   T   T   T
  0.3324601059340533  0.3779554170624753  0.1110591296559799   T   T   T
  0.3309553573223788  0.5235988566093661  0.1110825655152656   T   T   T
  0.3311676306842950  0.6668223255769948  0.1111573092979074   T   T   T
  0.3301698356456681  0.8084219251182325  0.1110447370187009   T   T   T
  0.4740411351176533  0.9513716569616929  0.1109825117414442   T   T   T
  0.4736582429547494  0.0892055214761765  0.1110705565328378   T   T   T
  0.4729650619044916  0.2256529671519441  0.1107296538470664   T   T   T
  0.4890226107109707  0.3729324603784296  0.1110471700557704   T   T   T
  0.4758649875032784  0.6761881171256302  0.1109703286076935   T   T   T
  0.4746396999440420  0.8137121510324321  0.1110383829106323   T   T   T
  0.6190372557050735  0.9556754576972829  0.1109832075339046   T   T   T
  0.6183028359575248  0.0935951884424042  0.1110588055386798   T   T   T
  0.6177887363062640  0.2313765159408115  0.1109733673112851   T   T   T
  0.6165155598666461  0.3666546857035036  0.1106759116023477   T   T   T
  0.6246569844538271  0.6860248066104777  0.1105589900780716   T   T   T
  0.6208640458699791  0.8186226449424476  0.1110857932484143   T   T   T
  0.7644451547646307  0.9578036141254370  0.1110691934967188   T   T   T
  0.7631762759460857  0.0974152201580232  0.1110498631368341   T   T   T
  0.7621323373559927  0.2375459551900460  0.1110569705125045   T   T   T
  0.7603170591367318  0.3780732238945259  0.1110127958682940   T   T   T
  0.7483970645432917  0.5184923439410788  0.1111805484670332   T   T   T
  0.7636041373895404  0.6710305485435101  0.1108105683161994   T   T   T
  0.7667895125500991  0.8186019414866981  0.1110655760631810   T   T   T
  0.4992645941227190  0.5190970846831102  0.1115941748114881   T   T   T
  0.9534252755108916  0.9070472235757960  0.1110584907875594   T   T   T
  0.9548112372806669  0.0508070623651470  0.1110474513332473   T   T   T
  0.9541124257883328  0.1926432136838624  0.1110822440255262   T   T   T
  0.9525065442554200  0.3343069261327852  0.1110266915817627   T   T   T
  0.9481031019633812  0.4758270443772624  0.1110096897863367   T   T   T
  0.9468336313774023  0.6171162651482708  0.1110596455967559   T   T   T
  0.9485708671616743  0.7603349137758123  0.1110293794869950   T   T   T
  0.0929709027040784  0.9033046451669664  0.1109796561361671   T   T   T
  0.0965372271813393  0.0488483689516866  0.1109656338907610   T   T   T
  0.0965447482619598  0.1913965773665605  0.1110096752383883   T   T   T
  0.0958302408105800  0.3343097847960476  0.1110248127873461   T   T   T
  0.0929014234582682  0.4765289271460249  0.1110711570485134   T   T   T
  0.0915715508954144  0.6181364863815683  0.1111073328459649   T   T   T
  0.0913449391589960  0.7599320657186770  0.1110129783208474   T   T   T
  0.2350139418611231  0.9022724317067889  0.1109910423166190   T   T   T
  0.2362670377540391  0.0452485061510625  0.1110214026074726   T   T   T
  0.2409530256329474  0.1915614863213591  0.1109276739970807   T   T   T
  0.2376776634858399  0.3314467536635733  0.1109050281081480   T   T   T
  0.2361044787925256  0.4766543500912157  0.1110092309722615   T   T   T
  0.2359619022574913  0.6190148688237249  0.1111483210837244   T   T   T
  0.2349808764986379  0.7604948021340301  0.1110843629981911   T   T   T
  0.3785902688646107  0.9029843938195556  0.1109745429338951   T   T   T
  0.3784165176864432  0.0437342386880521  0.1110471279366440   T   T   T
  0.3792200737425460  0.1855769227645716  0.1109735986629006   T   T   T
  0.3894455811405696  0.3364438500040889  0.1111315875570531   T   T   T
  0.3706887938952680  0.4701481924170571  0.1111350468058024   T   T   T
  0.3807402594130178  0.6208567400053189  0.1111373871514682   T   T   T
  0.3792619704491745  0.7623590135737880  0.1110581707226608   T   T   T
  0.5234776165282764  0.9070914265093446  0.1109404658360972   T   T   T
  0.5228663949866779  0.0448434026472622  0.1110355677404846   T   T   T
  0.5225995129399374  0.1822260138009118  0.1110043340116117   T   T   T
  0.5233397084045148  0.3169552388354341  0.1102485907827428   T   T   T
  0.5690878240705521  0.4609905032040527  0.1119496798608019   T   T   T
  0.5339258392779952  0.6434595854731113  0.1104205457679152   T   T   T
  0.5246891559226938  0.7701836746009426  0.1110946987425811   T   T   T
  0.6689523320203187  0.9113941478089493  0.1110191320141762   T   T   T
  0.6676876643690292  0.0490877048152766  0.1109942530191225   T   T   T
  0.6669886772759763  0.1874151725575926  0.1110635469341710   T   T   T
  0.6667898662711058  0.3254272435402347  0.1108237136979144   T   T   T
  0.6502468436864449  0.4595523585742874  0.1112046169058418   T   T   T
  0.6719359615678597  0.6397659276736231  0.1102428696828826   T   T   T
  0.6735728725431117  0.7772470183144859  0.1110658548936019   T   T   T
  0.8135636714129815  0.9116055859109120  0.1110798036219601   T   T   T
  0.8118951570469422  0.0514393319439618  0.1110471356953798   T   T   T
  0.8107861943107786  0.1916817842973285  0.1110549596708880   T   T   T
  0.8092608166623702  0.3325336584895044  0.1110241641829484   T   T   T
  0.8009774621922133  0.4736358932868353  0.1110437306842319   T   T   T
  0.8018488235441984  0.6159577646412235  0.1110806531521464   T   T   T
  0.8106079799592073  0.7666432025879717  0.1109970117298408   T   T   T

  0.00000000E+00  0.00000000E+00  0.00000000E+00
  0.00000000E+00  0.00000000E+00  0.00000000E+00
  0.00000000E+00  0.00000000E+00  0.00000000E+00
  0.00000000E+00  0.00000000E+00  0.00000000E+00
  0.00000000E+00  0.00000000E+00  0.00000000E+00
  0.00000000E+00  0.00000000E+00  0.00000000E+00
  0.00000000E+00  0.00000000E+00  0.00000000E+00
  0.00000000E+00  0.00000000E+00  0.00000000E+00
  0.00000000E+00  0.00000000E+00  0.00000000E+00
  0.00000000E+00  0.00000000E+00  0.00000000E+00
  0.00000000E+00  0.00000000E+00  0.00000000E+00
  0.00000000E+00  0.00000000E+00  0.00000000E+00
  0.00000000E+00  0.00000000E+00  0.00000000E+00
  0.00000000E+00  0.00000000E+00  0.00000000E+00
  0.00000000E+00  0.00000000E+00  0.00000000E+00
  0.00000000E+00  0.00000000E+00  0.00000000E+00
  0.00000000E+00  0.00000000E+00  0.00000000E+00
  0.00000000E+00  0.00000000E+00  0.00000000E+00
  0.00000000E+00  0.00000000E+00  0.00000000E+00
  0.00000000E+00  0.00000000E+00  0.00000000E+00
  0.00000000E+00  0.00000000E+00  0.00000000E+00
  0.00000000E+00  0.00000000E+00  0.00000000E+00
  0.00000000E+00  0.00000000E+00  0.00000000E+00
  0.00000000E+00  0.00000000E+00  0.00000000E+00
  0.00000000E+00  0.00000000E+00  0.00000000E+00
  0.00000000E+00  0.00000000E+00  0.00000000E+00
  0.00000000E+00  0.00000000E+00  0.00000000E+00
  0.00000000E+00  0.00000000E+00  0.00000000E+00
  0.00000000E+00  0.00000000E+00  0.00000000E+00
  0.00000000E+00  0.00000000E+00  0.00000000E+00
  0.00000000E+00  0.00000000E+00  0.00000000E+00
  0.00000000E+00  0.00000000E+00  0.00000000E+00
  0.00000000E+00  0.00000000E+00  0.00000000E+00
  0.00000000E+00  0.00000000E+00  0.00000000E+00
  0.00000000E+00  0.00000000E+00  0.00000000E+00
  0.00000000E+00  0.00000000E+00  0.00000000E+00
  0.00000000E+00  0.00000000E+00  0.00000000E+00
  0.00000000E+00  0.00000000E+00  0.00000000E+00
  0.00000000E+00  0.00000000E+00  0.00000000E+00
  0.00000000E+00  0.00000000E+00  0.00000000E+00
  0.00000000E+00  0.00000000E+00  0.00000000E+00
  0.00000000E+00  0.00000000E+00  0.00000000E+00
  0.00000000E+00  0.00000000E+00  0.00000000E+00
  0.00000000E+00  0.00000000E+00  0.00000000E+00
  0.00000000E+00  0.00000000E+00  0.00000000E+00
  0.00000000E+00  0.00000000E+00  0.00000000E+00
  0.00000000E+00  0.00000000E+00  0.00000000E+00
  0.00000000E+00  0.00000000E+00  0.00000000E+00
  0.00000000E+00  0.00000000E+00  0.00000000E+00
  0.00000000E+00  0.00000000E+00  0.00000000E+00
  0.00000000E+00  0.00000000E+00  0.00000000E+00
  0.00000000E+00  0.00000000E+00  0.00000000E+00
  0.00000000E+00  0.00000000E+00  0.00000000E+00
  0.00000000E+00  0.00000000E+00  0.00000000E+00
  0.00000000E+00  0.00000000E+00  0.00000000E+00
  0.00000000E+00  0.00000000E+00  0.00000000E+00
  0.00000000E+00  0.00000000E+00  0.00000000E+00
  0.00000000E+00  0.00000000E+00  0.00000000E+00
  0.00000000E+00  0.00000000E+00  0.00000000E+00
  0.00000000E+00  0.00000000E+00  0.00000000E+00
  0.00000000E+00  0.00000000E+00  0.00000000E+00
  0.00000000E+00  0.00000000E+00  0.00000000E+00
  0.00000000E+00  0.00000000E+00  0.00000000E+00
  0.00000000E+00  0.00000000E+00  0.00000000E+00
  0.00000000E+00  0.00000000E+00  0.00000000E+00
  0.00000000E+00  0.00000000E+00  0.00000000E+00
  0.00000000E+00  0.00000000E+00  0.00000000E+00
  0.00000000E+00  0.00000000E+00  0.00000000E+00
  0.00000000E+00  0.00000000E+00  0.00000000E+00
  0.00000000E+00  0.00000000E+00  0.00000000E+00
  0.00000000E+00  0.00000000E+00  0.00000000E+00
  0.00000000E+00  0.00000000E+00  0.00000000E+00
  0.00000000E+00  0.00000000E+00  0.00000000E+00
  0.00000000E+00  0.00000000E+00  0.00000000E+00
  0.00000000E+00  0.00000000E+00  0.00000000E+00
  0.00000000E+00  0.00000000E+00  0.00000000E+00
  0.00000000E+00  0.00000000E+00  0.00000000E+00
  0.00000000E+00  0.00000000E+00  0.00000000E+00
  0.00000000E+00  0.00000000E+00  0.00000000E+00
  0.00000000E+00  0.00000000E+00  0.00000000E+00
  0.00000000E+00  0.00000000E+00  0.00000000E+00
  0.00000000E+00  0.00000000E+00  0.00000000E+00
  0.00000000E+00  0.00000000E+00  0.00000000E+00
  0.00000000E+00  0.00000000E+00  0.00000000E+00
  0.00000000E+00  0.00000000E+00  0.00000000E+00
  0.00000000E+00  0.00000000E+00  0.00000000E+00
  0.00000000E+00  0.00000000E+00  0.00000000E+00
  0.00000000E+00  0.00000000E+00  0.00000000E+00
  0.00000000E+00  0.00000000E+00  0.00000000E+00
  0.00000000E+00  0.00000000E+00  0.00000000E+00
  0.00000000E+00  0.00000000E+00  0.00000000E+00
  0.00000000E+00  0.00000000E+00  0.00000000E+00
  0.00000000E+00  0.00000000E+00  0.00000000E+00
  0.00000000E+00  0.00000000E+00  0.00000000E+00
  0.00000000E+00  0.00000000E+00  0.00000000E+00
  0.00000000E+00  0.00000000E+00  0.00000000E+00
  0.00000000E+00  0.00000000E+00  0.00000000E+00
