B C N                                   
   1.0000000000000000     
     8.7639499999999995  -15.1796066749929999    0.0000000000000000
     8.7639499999999995   15.1796066749929999    0.0000000000000000
     0.0000000000000000    0.0000000000000000   15.0000000000000000
   B    C    N 
    47     1    49
Selective dynamics
Direct
  0.9057763539778938  0.9506518761635711  0.1107417560685546   T   T   T
  0.9080886128853356  0.0946593161272919  0.1107719972309348   T   T   T
  0.9088606501035468  0.2377573535940131  0.1107393662261644   T   T   T
  0.9087105344634095  0.3807438895118662  0.1107098051806990   T   T   T
  0.9067536589502212  0.5234908421398684  0.1107485992220201   T   T   T
  0.9036538735646719  0.6654427285980938  0.1107488591598786   T   T   T
  0.9035476022987836  0.8070446203574667  0.1107008094169195   T   T   T
  0.0497989702982579  0.9533983023774112  0.1106986401967251   T   T   T
  0.0517538061232971  0.0967176308364888  0.1107755427984813   T   T   T
  0.0524804365086726  0.2392274038154376  0.1108087076483116   T   T   T
  0.0517587187173165  0.3817029933514303  0.1107759484258173   T   T   T
  0.0498302575696530  0.5245510189179136  0.1107336134046076   T   T   T
  0.0482323478174899  0.6673084828091819  0.1107433917059916   T   T   T
  0.0482903651696382  0.8100416102460208  0.1107145882883620   T   T   T
  0.1929653421165073  0.9547159348567921  0.1106914833526333   T   T   T
  0.1962009397854367  0.0997460339034597  0.1107118299882637   T   T   T
  0.1978715658702723  0.2427035831260685  0.1107793913350030   T   T   T
  0.1960874393416632  0.3834994059432339  0.1107594110937022   T   T   T
  0.1926221303483188  0.5256630173181398  0.1107410574502773   T   T   T
  0.1913992767546262  0.6683996554277609  0.1107386027507642   T   T   T
  0.1916775348790411  0.8112709013358145  0.1107183846437266   T   T   T
  0.3356373266103122  0.9546391503362397  0.1107173777530145   T   T   T
  0.3375361928439122  0.0986950356656551  0.1107289603436812   T   T   T
  0.3440987540818202  0.2471945088103846  0.1107545748150545   T   T   T
  0.3444550584131101  0.3881921299156582  0.1107600742735944   T   T   T
  0.3353760606302800  0.5289286697880623  0.1106741378105344   T   T   T
  0.3339104239528702  0.6697080400358765  0.1107540302060840   T   T   T
  0.3345436005494149  0.8117838701041344  0.1107579945716838   T   T   T
  0.4784666927063763  0.9533518420710831  0.1107535303044224   T   T   T
  0.4796319459842549  0.0959474535759547  0.1107729666645651   T   T   T
  0.4816242639217826  0.2392696906652953  0.1107834393797068   T   T   T
  0.4981362901552725  0.3943511743466474  0.1107307034414097   T   T   T
  0.4757335151987034  0.6693279773239740  0.1106428738941828   T   T   T
  0.4772756555925304  0.8110974884872235  0.1107354613674547   T   T   T
  0.6212796889877602  0.9510552561716049  0.1107369508981281   T   T   T
  0.6223835212687232  0.0942189599152525  0.1107569624840951   T   T   T
  0.6232787970702588  0.2366334442138371  0.1107650640427729   T   T   T
  0.6246370609296081  0.3779533576331832  0.1107587020413797   T   T   T
  0.6041423039164545  0.5015444548052216  0.1107181877356548   T   T   T
  0.6188866933276446  0.8065458106742251  0.1107224310823260   T   T   T
  0.7636192630410007  0.9502889981236516  0.1107479066540073   T   T   T
  0.7652049513253391  0.0940228406047290  0.1107485115857958   T   T   T
  0.7659756626288501  0.2371024512987547  0.1107177039893009   T   T   T
  0.7663381913707201  0.3799336774146044  0.1107230603491879   T   T   T
  0.7629045038449397  0.5217441855075893  0.1107431754791674   T   T   T
  0.7547422709891711  0.6595444263074317  0.1106691345299761   T   T   T
  0.7600138758008710  0.8042600161618171  0.1107265459880344   T   T   T
  0.6140702658003231  0.6595608999683203  0.1107881317150260   T   T   T
  0.9531928876389560  0.9034130116221308  0.1106912319415216   T   T   T
  0.9552458401397327  0.0468567028221430  0.1107590555291573   T   T   T
  0.9566502628316943  0.1903271390633274  0.1107577971855448   T   T   T
  0.9565884022208296  0.3332572895900210  0.1107255574748668   T   T   T
  0.9550358863666655  0.4762207070475759  0.1107085708959689   T   T   T
  0.9528781560529657  0.6189435388933341  0.1107443059246998   T   T   T
  0.9524509595599785  0.7611096571568874  0.1107037544070952   T   T   T
  0.0971294079304792  0.9058394018876276  0.1106745906974378   T   T   T
  0.0995152441179909  0.0497025054377585  0.1107109986359095   T   T   T
  0.1011326887600398  0.1928519180006519  0.1107797974584896   T   T   T
  0.1004214050943384  0.3348487075534999  0.1107810089390069   T   T   T
  0.0979323218987725  0.4771918461819765  0.1107438094944004   T   T   T
  0.0964151920018706  0.6200126117746271  0.1107155116631226   T   T   T
  0.0962389216261410  0.7628313399029110  0.1107130383651972   T   T   T
  0.2401247827048384  0.9066926880922992  0.1106886155654224   T   T   T
  0.2419122478076407  0.0504618177996805  0.1106813546462035   T   T   T
  0.2464841016992483  0.1965325733096429  0.1107289404895876   T   T   T
  0.2471390531061994  0.3391032402903568  0.1107445206194263   T   T   T
  0.2412584469568766  0.4789099180008123  0.1106897966875788   T   T   T
  0.2393017689643671  0.6210050881449657  0.1107343490065681   T   T   T
  0.2393320586608062  0.7636845051643062  0.1107242124271774   T   T   T
  0.3830559992461315  0.9066437813184677  0.1107272570885323   T   T   T
  0.3841422838296559  0.0496798278149511  0.1107251688888461   T   T   T
  0.3864568750965239  0.1941789812487982  0.1107358142479342   T   T   T
  0.3964956002299403  0.3457071530514103  0.1107405992211644   T   T   T
  0.3876097023263870  0.4862724569484277  0.1107078003690184   T   T   T
  0.3818525932402759  0.6228037511859755  0.1106873357284910   T   T   T
  0.3821943112697664  0.7643143056282304  0.1107450110945465   T   T   T
  0.5259977090470073  0.9054314142192569  0.1107361836447215   T   T   T
  0.5269912353107780  0.0478451752723392  0.1107481519764552   T   T   T
  0.5281718196263168  0.1903102857130358  0.1107726834137606   T   T   T
  0.5307420549413085  0.3328434849771939  0.1107543572164456   T   T   T
  0.4768466249017785  0.5298800029715630  0.1111063706617945   T   T   T
  0.5210282093445480  0.6198873710490815  0.1106764142360198   T   T   T
  0.5244608923262472  0.7630849997442503  0.1106690508661763   T   T   T
  0.6681013546307087  0.9017772746527689  0.1107213666866226   T   T   T
  0.6697568054043740  0.0460570380063497  0.1107308518407015   T   T   T
  0.6707945217009310  0.1889952710014102  0.1107316891273333   T   T   T
  0.6720190907178341  0.3312118082743228  0.1107287115997407   T   T   T
  0.6686275748545208  0.4730454585084806  0.1107213105520752   T   T   T
  0.6565083480290130  0.6100195863719104  0.1106392167562234   T   T   T
  0.6620550129993730  0.7528597529941380  0.1107137540399652   T   T   T
  0.8089600989428882  0.9006243288657566  0.1107250210964633   T   T   T
  0.8122943634536979  0.0458296872500590  0.1107366958063101   T   T   T
  0.8134860566512160  0.1893420544974348  0.1107177436977048   T   T   T
  0.8139258257741296  0.3324050389789768  0.1106858642099703   T   T   T
  0.8120829822704237  0.4752495299576991  0.1107265699212606   T   T   T
  0.8076753947234677  0.6167682207218171  0.1107074009004501   T   T   T
  0.8066743563949861  0.7569053394656383  0.1106885382767721   T   T   T

  0.00000000E+00  0.00000000E+00  0.00000000E+00
  0.00000000E+00  0.00000000E+00  0.00000000E+00
  0.00000000E+00  0.00000000E+00  0.00000000E+00
  0.00000000E+00  0.00000000E+00  0.00000000E+00
  0.00000000E+00  0.00000000E+00  0.00000000E+00
  0.00000000E+00  0.00000000E+00  0.00000000E+00
  0.00000000E+00  0.00000000E+00  0.00000000E+00
  0.00000000E+00  0.00000000E+00  0.00000000E+00
  0.00000000E+00  0.00000000E+00  0.00000000E+00
  0.00000000E+00  0.00000000E+00  0.00000000E+00
  0.00000000E+00  0.00000000E+00  0.00000000E+00
  0.00000000E+00  0.00000000E+00  0.00000000E+00
  0.00000000E+00  0.00000000E+00  0.00000000E+00
  0.00000000E+00  0.00000000E+00  0.00000000E+00
  0.00000000E+00  0.00000000E+00  0.00000000E+00
  0.00000000E+00  0.00000000E+00  0.00000000E+00
  0.00000000E+00  0.00000000E+00  0.00000000E+00
  0.00000000E+00  0.00000000E+00  0.00000000E+00
  0.00000000E+00  0.00000000E+00  0.00000000E+00
  0.00000000E+00  0.00000000E+00  0.00000000E+00
  0.00000000E+00  0.00000000E+00  0.00000000E+00
  0.00000000E+00  0.00000000E+00  0.00000000E+00
  0.00000000E+00  0.00000000E+00  0.00000000E+00
  0.00000000E+00  0.00000000E+00  0.00000000E+00
  0.00000000E+00  0.00000000E+00  0.00000000E+00
  0.00000000E+00  0.00000000E+00  0.00000000E+00
  0.00000000E+00  0.00000000E+00  0.00000000E+00
  0.00000000E+00  0.00000000E+00  0.00000000E+00
  0.00000000E+00  0.00000000E+00  0.00000000E+00
  0.00000000E+00  0.00000000E+00  0.00000000E+00
  0.00000000E+00  0.00000000E+00  0.00000000E+00
  0.00000000E+00  0.00000000E+00  0.00000000E+00
  0.00000000E+00  0.00000000E+00  0.00000000E+00
  0.00000000E+00  0.00000000E+00  0.00000000E+00
  0.00000000E+00  0.00000000E+00  0.00000000E+00
  0.00000000E+00  0.00000000E+00  0.00000000E+00
  0.00000000E+00  0.00000000E+00  0.00000000E+00
  0.00000000E+00  0.00000000E+00  0.00000000E+00
  0.00000000E+00  0.00000000E+00  0.00000000E+00
  0.00000000E+00  0.00000000E+00  0.00000000E+00
  0.00000000E+00  0.00000000E+00  0.00000000E+00
  0.00000000E+00  0.00000000E+00  0.00000000E+00
  0.00000000E+00  0.00000000E+00  0.00000000E+00
  0.00000000E+00  0.00000000E+00  0.00000000E+00
  0.00000000E+00  0.00000000E+00  0.00000000E+00
  0.00000000E+00  0.00000000E+00  0.00000000E+00
  0.00000000E+00  0.00000000E+00  0.00000000E+00
  0.00000000E+00  0.00000000E+00  0.00000000E+00
  0.00000000E+00  0.00000000E+00  0.00000000E+00
  0.00000000E+00  0.00000000E+00  0.00000000E+00
  0.00000000E+00  0.00000000E+00  0.00000000E+00
  0.00000000E+00  0.00000000E+00  0.00000000E+00
  0.00000000E+00  0.00000000E+00  0.00000000E+00
  0.00000000E+00  0.00000000E+00  0.00000000E+00
  0.00000000E+00  0.00000000E+00  0.00000000E+00
  0.00000000E+00  0.00000000E+00  0.00000000E+00
  0.00000000E+00  0.00000000E+00  0.00000000E+00
  0.00000000E+00  0.00000000E+00  0.00000000E+00
  0.00000000E+00  0.00000000E+00  0.00000000E+00
  0.00000000E+00  0.00000000E+00  0.00000000E+00
  0.00000000E+00  0.00000000E+00  0.00000000E+00
  0.00000000E+00  0.00000000E+00  0.00000000E+00
  0.00000000E+00  0.00000000E+00  0.00000000E+00
  0.00000000E+00  0.00000000E+00  0.00000000E+00
  0.00000000E+00  0.00000000E+00  0.00000000E+00
  0.00000000E+00  0.00000000E+00  0.00000000E+00
  0.00000000E+00  0.00000000E+00  0.00000000E+00
  0.00000000E+00  0.00000000E+00  0.00000000E+00
  0.00000000E+00  0.00000000E+00  0.00000000E+00
  0.00000000E+00  0.00000000E+00  0.00000000E+00
  0.00000000E+00  0.00000000E+00  0.00000000E+00
  0.00000000E+00  0.00000000E+00  0.00000000E+00
  0.00000000E+00  0.00000000E+00  0.00000000E+00
  0.00000000E+00  0.00000000E+00  0.00000000E+00
  0.00000000E+00  0.00000000E+00  0.00000000E+00
  0.00000000E+00  0.00000000E+00  0.00000000E+00
  0.00000000E+00  0.00000000E+00  0.00000000E+00
  0.00000000E+00  0.00000000E+00  0.00000000E+00
  0.00000000E+00  0.00000000E+00  0.00000000E+00
  0.00000000E+00  0.00000000E+00  0.00000000E+00
  0.00000000E+00  0.00000000E+00  0.00000000E+00
  0.00000000E+00  0.00000000E+00  0.00000000E+00
  0.00000000E+00  0.00000000E+00  0.00000000E+00
  0.00000000E+00  0.00000000E+00  0.00000000E+00
  0.00000000E+00  0.00000000E+00  0.00000000E+00
  0.00000000E+00  0.00000000E+00  0.00000000E+00
  0.00000000E+00  0.00000000E+00  0.00000000E+00
  0.00000000E+00  0.00000000E+00  0.00000000E+00
  0.00000000E+00  0.00000000E+00  0.00000000E+00
  0.00000000E+00  0.00000000E+00  0.00000000E+00
  0.00000000E+00  0.00000000E+00  0.00000000E+00
  0.00000000E+00  0.00000000E+00  0.00000000E+00
  0.00000000E+00  0.00000000E+00  0.00000000E+00
  0.00000000E+00  0.00000000E+00  0.00000000E+00
  0.00000000E+00  0.00000000E+00  0.00000000E+00
  0.00000000E+00  0.00000000E+00  0.00000000E+00
  0.00000000E+00  0.00000000E+00  0.00000000E+00
