 As B N 
 1.0
 17.527899999999772   0.000000000000000   0.000000000000000
 -8.763949999999658  15.179606674993195   0.000000000000000
  0.000000000000001   0.000000000000002  15.000000000000000
 As B N 
   1  48  48
Cartesian
  4.477215106326803   7.534836890454839   1.674727761086595 
  7.514715251752044  14.479880647375946   1.665242890540470 
 15.006415320641004   1.455800312358744   1.665120014853765 
 13.746575950410801   3.621303268766149   1.665726938538360 
 12.495448568302876   5.788867985198052   1.664543651661750 
 11.267273476637541   7.959872699365723   1.664769503649315 
 10.039547005493944  10.138499703450712   1.666113704023740 
  8.791337256455115  12.325454200308521   1.665672692336385 
 -7.507081493842535  14.453973758600974   1.664769206420730 
 -0.018619144857513   1.431762722041942   1.665242890540470 
 -1.282136302230028   3.606075138750934   1.665014978544420 
 -2.530854429495967   5.779926127924483   1.664805309170445 
 -3.761521580210580   7.950157470187668   1.664876297338605 
 -4.992351002248672  10.119737783328796   1.665432941469855 
 -6.242649844211987  12.290331869111373   1.665017142508965 
 -5.001096828037050  14.440764773416495   1.665017142508965 
  2.485479891239445   1.403388858472541   1.665672692336385 
  1.206926942299700   3.561991155543923   1.665139427085675 
 -0.038613409649313   5.761192714573215   1.665311110978755 
 -1.260431862335879   7.939831082107069   1.666137404378895 
 -2.485653380139699  10.111282717740858   1.665968972816565 
 -3.740444118803420  12.279304656182388   1.664884061730615 
 -2.496193214784906  14.443271256845357   1.665432941469855 
  5.003542916975707   1.415884754982504   1.666113704023740 
  3.706872934601929   3.520698713807603   1.664707050613065 
  2.416006785429984   5.703438373268624   1.664783559224595 
  1.261322007992483   7.903149584808954   1.666069330494225 
  0.036135712952619  10.098895273711959   1.666695003238470 
 -1.235486674801834  12.276634969286999   1.665968972816565 
 -0.001831409696168  14.462131866205580   1.664876297338605 
  7.504152483456084   1.441955944115862   1.664769503649315 
  6.237815364891945   3.590807854118846   1.664681396712990 
  4.900404017722035   5.627067096567984   1.668151694102580 
  2.550300407312716  10.135725662290364   1.666069330494225 
  1.257656363648304  12.301287827422222   1.666137404378895 
  2.492977640132986  14.481458521215160   1.664805309170445 
  9.998385263476175   1.463827471522215   1.664543651661750 
  8.733862847842694   3.633320785119473   1.665289393499445 
  7.454759647103639   5.815750748303123   1.665176269339560 
  6.340986668085546   8.122229439530193   1.668151694102580 
  5.032648586197389  10.235594917436451   1.664783559224595 
  3.755321761917882  12.332481192350055   1.665311110978755 
  4.999946884432109  14.486962395423586   1.665014978544420 
 12.501115063306917   1.464101733462452   1.665726938538360 
 11.242100069840966   3.629128735722950   1.665912322366695 
  9.984351037570535   5.799229863992919   1.665289393499445 
  8.773144574322377   7.982126858795892   1.664681396712990 
  7.568389655724436  10.209041869098597   1.664707050613065 
  6.282656356054115  12.353412385638210   1.665139427085675 
  8.772154498992020  13.758720591087590   1.664954527060305 
 16.258819669418621   0.732718057526912   1.664882771864280 
 14.993733408599226   2.894302465366525   1.665171955508565 
 13.743576802324501   5.059868891664398   1.664685458722875 
 12.510797076655109   7.232094737051790   1.664085482719455 
 11.283436817580757   9.404915668080115   1.665375682494375 
 10.036791934167532  11.583515862776531   1.665600254302515 
 -6.252607572360747  13.729696635411051   1.664230080765180 
  1.234637980381191   0.703359017964392   1.664954527060305 
 -0.043075589936303   2.860933376901390   1.665007366784835 
 -1.294734143067747   5.045118661879632   1.664612685607830 
 -2.522868419189877   7.223282555068798   1.664949176739645 
 -3.746876739103211   9.395065659268568   1.665200461688850 
 -4.993401188412834  11.563879984759007   1.664630921953935 
 -3.747352140982663  13.722100243630615   1.664630921953935 
  3.750739251118483   0.695753236681079   1.665600254302515 
  2.456601882340448   2.822388008471635   1.665122797381950 
  1.174215892511447   4.982028445447650   1.664915454109185 
 -0.036760724639402   7.206496726323191   1.665927538683840 
 -1.241106492495976   9.389302982384313   1.666240685750970 
 -2.491830063300392  11.558410728192788   1.665450649172355 
 -1.245841614361649  13.726985566835241   1.665200461688850 
  6.260784806121891   0.705427195495522   1.665375682494375 
  4.991609683548416   2.846523255989837   1.665180529010235 
  3.671607311404018   4.923278849774789   1.664385459834720 
  2.385761946078508   7.085482826343962   1.663939201916850 
  1.281844318480552   9.379678808037475   1.666256925516870 
  0.012034133517458  11.559806215668392   1.666240685750970 
  1.246981885324272  13.752854819446645   1.664949176739645 
  8.756183059786464   0.728912497055808   1.664085482719455 
  7.497723654758740   2.884000653487802   1.664632365960000 
  6.219216191933452   5.031205111147208   1.664448514088850 
  3.820635133668714   9.570756089698916   1.663939201916850 
  2.504572686716704  11.608215313794862   1.665927538683840 
  3.747394288493188  13.778341283661016   1.664612685607830 
 11.253751114822865   0.747406860049348   1.664685458722875 
  9.990430121951420   2.910409872120228   1.664990004332385 
  8.722365496365434   5.083891903064314   1.665129069871095 
  7.516418944393577   7.278026186126328   1.664448514088850 
  6.336081388204055   9.538283326273183   1.664385459834720 
  5.036507036443029  11.671712940391018   1.664915454109185 
  6.264783508439775  13.786465822274209   1.665007366784835 
 13.754289529395344   0.747522693455394   1.665171955508565 
 12.493961968739782   2.906359664474433   1.665904340260950 
 11.238688462642562   5.072456739138453   1.664990004332385 
 10.015206283276026   7.244408473221321   1.664632365960000 
  8.794605675963098   9.433505535832746   1.665180529010235 
  7.548003512836448  11.640954314229818   1.665122797381950 
