 B N Ga 
 1.0
 17.527899999999772   0.000000000000000   0.000000000000000
 -8.763949999999658  15.179606674993195   0.000000000000000
  0.000000000000001   0.000000000000002  15.000000000000000
 B N Ga 
  49  47   1
Cartesian
  7.503262356043590  14.405294415873414   1.621688061193200 
 15.048195405484094   1.406339506716959   1.630192181243085 
 13.813433056720765   3.577964253092059   1.626286117860975 
 12.562887766700928   5.749379051779684   1.618722730114200 
 11.291579288044408   7.923473853177589   1.603124567884290 
 10.013583742306832  10.091048357729509   1.587698279057700 
  8.739732136211749  12.240223169208013   1.603502997818805 
 -7.521321858015223  14.460654577374248   1.599318916231965 
  0.023557448447312   1.460821265343501   1.615636128795240 
 -1.211118020508989   3.616120037248434   1.623395949512055 
 -2.473593093203444   5.772390688164844   1.615184236516275 
 -3.761821925126226   7.941887708296389   1.608682215436005 
 -5.038058336963478  10.119737783328796   1.601032130087715 
 -6.285790080514241  12.288077390244110   1.592312304439530 
 -5.027378765338132  14.481559197473139   1.619655722053050 
  2.522012804775512   1.501611241716795   1.633978458178830 
  1.312897400403600   3.704139205392230   1.646326691947905 
  0.038469766684341   5.820617629759762   1.639894571778150 
 -1.286718825568339   7.968803634847061   1.617078213549840 
 -2.573414462195619  10.135476864086984   1.625414732645130 
 -3.798291520261388  12.306335152394167   1.621863283451925 
 -2.530332468623523  14.477660802182086   1.649572600283895 
  5.009807896573665   1.480048490359345   1.671708389018460 
  3.815228803109247   3.724872389015994   1.699258114150395 
  2.610440154200593   5.989603484824982   1.701381835700955 
  1.180750515167435   8.031751755384480   1.619603048015670 
 -0.134940112951680  10.165534201881822   1.592442705472350 
 -1.313256619369095  12.315102195824661   1.639143756695820 
 -0.012773281582744  14.442193325360337   1.659569929659990 
  7.526971426569297   1.430577379115870   1.682045109815475 
  6.307174041655987   3.604981273239284   1.729474630509615 
  5.196991070464913   5.890669785703150   1.767433215615765 
  3.428740676088199   8.787201984623421   1.733862724082985 
  2.334138309218115  10.085505357051634   1.562439820661865 
  1.199523268727533  12.270987709572486   1.632303305951610 
  2.510860132701220  14.390308020884945   1.664716822215435 
 10.047442556032385   1.392898575515384   1.666489026705090 
  8.821738608701885   3.556693452359283   1.694417617150170 
  7.621765785760232   5.707009168872877   1.700517268702635 
  6.304329508870786   7.729404720085984   1.698481684727415 
  4.992586932087922   9.874348010670351   1.789015730850240 
  3.725307196555380  12.171411213160583   1.686465175863075 
  5.010810739796646  14.375025990256336   1.664024767641510 
 12.551461790534360   1.386394164530575   1.649775979038375 
 11.318087583871002   3.561915981863178   1.649972326626270 
 10.084275080605696   5.733744162592740   1.646645229702180 
  8.817332506577802   7.897892817796243   1.612964441467770 
  7.512312394772295  10.012323542026104   1.646294276397090 
  6.221566802897561  12.160062653627644   1.677157376492760 
  8.754861919907750  13.696210123550616   1.600352001710265 
 16.299078800513353   0.691331812335503   1.618684267659180 
 15.068581215210871   2.863415045388424   1.623872473304235 
 13.814078049034245   5.029717602977843   1.616755258267110 
 12.535414165150900   7.199159282686607   1.607450314105950 
 11.257286536088664   9.371947180235514   1.590269696947830 
  9.995033173107444  11.537031381588768   1.585025025964785 
 -6.276057672771479  13.740987668395709   1.598104588280205 
  1.271772549836915   0.746144151988293   1.610304052435470 
  0.059637443112020   2.930986174161378   1.624660037848785 
 -1.202777700877639   5.069029242918212   1.624054486790010 
 -2.508234015520700   7.220410358636469   1.611039143020320 
 -3.796959870820758   9.390685033677366   1.613122564047330 
 -5.041205976623000  11.566809856332711   1.602819631947120 
 -3.784083266557180  13.755514321549462   1.628755327201920 
  3.756800918995921   0.761104666722733   1.638795001053135 
  2.561256412665069   2.983174625881985   1.657774064426490 
  1.355136926138346   5.189500851812362   1.662173786515080 
 -0.012972926101636   7.260932562085296   1.631351808919665 
 -1.339262398537965   9.410328312600170   1.621177105800945 
 -2.556811858514624  11.581882785199273   1.633267709179170 
 -1.284210993862485  13.751754074229650   1.652451764961450 
  6.253428997486503   0.745085447663039   1.667872724796015 
  5.031388986294290   2.944851832491958   1.708630783447455 
  3.876859001074172   5.252987896310565   1.733208882454965 
  2.578322944444919   7.516174208230428   1.705219410273030 
  1.082290534687465   9.448476528375592   1.543424927810220 
 -0.072522638267793  11.591858823868154   1.622355930952635 
  1.236426866095683  13.705847614673406   1.657878321700095 
  8.774971679893873   0.702066287244015   1.668556874563365 
  7.547331116474081   2.874249740806625   1.708490287337760 
  6.343421512859862   5.054852981516246   1.760394975749040 
  2.441396589116090  11.506698085392099   1.621629392201745 
  3.758019001699402  13.628257888620100   1.678987599161580 
 11.295798715411241   0.659153496954678   1.659384554649480 
 10.064147480790373   2.837505633548731   1.671056916245985 
  8.843413930979702   4.999168983951970   1.689217311598065 
  7.580349063274783   7.142493852692512   1.643040440633970 
  6.255959981944607   9.198156765430435   1.709296136824335 
  4.956489333228920  11.353091945384090   1.739803507464270 
  6.248775552060081  13.628388679546356   1.652655450190650 
 13.797884640589187   0.653317858741166   1.647568429785495 
 12.564966348954622   2.838447522536174   1.639519851088005 
 11.322117922087330   5.011969921946070   1.637604622711005 
 10.055583231489674   7.180907849885870   1.616947432744365 
  8.771307588706446   9.335025370009950   1.601999344543545 
  7.483519462587962  11.461580645524720   1.639777540840335 
  4.608322506925995   7.770969000733901   3.519215146004910 
