 N P B 
 1.0
 14.936314146199660   0.000000000000000   0.000000000000000
 -7.468157073099825  12.935227489513863   0.000000000000000
  0.000000000000001   0.000000000000001  13.341276283792837
 N P B 
 143   1 143
Cartesian
  1.244332507250362   0.718411811205656   1.666989564772291 
  4.978535042388343   7.187038075275651   1.653358866287556 
  6.223674293286593   0.718728420591777   1.666702541671720 
  9.957183499751849   7.185996057945893   1.666527700735251 
 11.202385709229507   0.718710409450232   1.665927150019926 
 -3.734249982259137   9.342009758200259   8.339776423746743 
  1.244888526264346   9.342238329075153   8.339254671172894 
  2.488559706965732   2.874026347683368   8.342236986794495 
  6.223087327422490   9.342161719829013   8.340506702714711 
  7.468423259909575   2.874254142631460   8.341272838288051 
 12.446767689737761   2.874367970352628   8.339662079300076 
 -1.244574687864295   9.342119951729128   1.666356206869009 
 -0.000589120981610   2.874154868512392   1.666554528907769 
  4.978812901395803   2.874429777876043   1.663050004776644 
  3.734003043373035   9.342459694485157   1.664684374556563 
  8.712461196518568   9.341918328460105   1.666527700735251 
  9.957726616198450   2.874327873496939   1.666193702522600 
 -4.978974256875262  11.497920540413213   8.339776457565703 
  0.000265648514046  11.498133362920044   8.339661420220150 
  1.243873990689218   5.029885247729565   8.342236986794495 
  6.224039381315635   5.029761279206080   8.352598346557071 
  4.978718574320023  11.498222773324462   8.339763510322040 
 11.202025984551442   5.030201325746720   8.339301984294615 
 -1.245056558525177   5.030160152935341   1.666989564772291 
 -2.489316904666384  11.498076713556275   1.666356206869009 
  2.489576094773797  11.498250030033867   1.666170077104708 
  3.731799291079650   5.029050322936204   1.642746953864091 
  7.467909435489275  11.497880910106201   1.666655228550014 
  8.712707348312405   5.030013352106961   1.665450510129917 
  0.000006515912868   7.186121704567785   8.339387499317603 
  1.244332507250362   0.718411811205657   8.338967648072336 
  4.978535042388343   7.187038075275652   8.352598346557071 
  6.223674293286594   0.718728420591777   8.339254671172894 
  9.957183499751849   7.185996057945894   8.339429512109364 
 -2.489538613878008   7.186091524569041   1.666180755278923 
 11.202385709229507   0.718710409450233   8.340030062824688 
  3.733981517765530   0.718687287166834   1.666569713527011 
  2.489349968699713   7.186306060865120   1.663050004776644 
  7.467710523243504   7.185979678494625   1.665180220101765 
  8.713178981428111   0.718653624216192   1.666170077104708 
  2.489349968699714   7.186306060865121   8.342907208067997 
 13.691430909085090   0.718548036130793   1.666295133544537 
 -1.244574687864295   9.342119951729128   8.339601005975620 
 -0.000589120981609   2.874154868512393   8.339402683936859 
  4.978812901395804   2.874429777876044   8.342907208067997 
  3.734003043373036   9.342459694485157   8.341272838288051 
  8.712461196518568   9.341918328460105   8.339429512109364 
  9.957726616198450   2.874327873496940   8.339763510322040 
 -3.734249982259137   9.342009758200259   1.666180789097885 
  1.244888526264345   9.342238329075153   1.666702541671720 
  2.488559706965731   2.874026347683367   1.663720226050133 
  6.223087327422489   9.342161719829013   1.665450510129917 
  7.468423259909574   2.874254142631459   1.664684374556563 
 12.446767689737761   2.874367970352627   1.666295133544537 
 -1.245056558525177   5.030160152935342   8.338967648072336 
 -2.489316904666384  11.498076713556275   8.339601005975620 
  2.489576094773798  11.498250030033867   8.339787135739920 
  3.731799291079650   5.029050322936205   8.363210258980537 
  7.467909435489275  11.497880910106201   8.339301984294615 
 -4.978974256875262  11.497920540413213   1.666180755278923 
  8.712707348312405   5.030013352106962   8.340506702714711 
  0.000265648514046  11.498133362920044   1.666295792624491 
  1.243873990689217   5.029885247729564   1.663720226050133 
  0.000006515912868   7.186121704567784   1.666569713527011 
  6.224039381315635   5.029761279206079   1.653358866287556 
  4.978718574320022  11.498222773324462   1.666193702522600 
 11.202025984551442   5.030201325746719   1.666655228550014 
 -2.489538613878007   7.186091524569042   8.339776457565703 
  3.733981517765531   0.718687287166835   8.339387499317603 
  7.467710523243505   7.185979678494625   8.340776992742864 
  8.713178981428111   0.718653624216193   8.339787135739920 
 13.691430909085090   0.718548036130793   8.339662079300076 
  0.027948346762661   1.459110306715168   5.002978606422314 
  3.650611070495826   8.013679803437544   5.002978606422314 
  4.985709678195896   1.376166200318843   5.002978606422314 
  8.645645577173422   7.866060798969033   5.002978606422314 
  9.971556293774668   1.431083045966826   5.002978606422314 
 -4.978628748366275  10.060790762304720  11.673616748318732 
  0.000000873271999  10.060799117716609  11.673616748318732 
  1.244789651788584   3.593174638214375  11.673616748318732 
  4.978864801988031  10.060719511380356  11.673616748318732 
  6.223490671321590   3.593107057715061  11.673616748318732 
 11.202302483487959   3.593229704595285  11.673616748318732 
 -2.526101059585904  10.039534863926873   5.002978606422314 
 -1.211784925112934   3.606391321437313   5.002978606422314 
  3.837643308041230   3.607241918785042   5.002978606422314 
  2.449448192377873  10.104626292793457   5.002978606422314 
  7.432671215192928  10.043479045475053   5.002978606422314 
  8.725905754564414   3.564208735154595   5.002978606422314 
 -6.223341956275686  12.216593909968324  11.673616748318732 
 -1.244634709182530  12.216571183435949  11.673616748318732 
  0.000001279890007   5.749103642365219  11.673616748318732 
  4.978859979873823   5.749041147307325  11.673616748318732 
  3.734115249122703  12.216601504286110  11.673616748318732 
  9.957675679816052   5.749116191051595  11.673616748318732 
 -2.492074000250140   5.743828321892284   5.002978606422314 
 -3.755440850469970  12.188645003710880   5.002978606422314 
  1.234715722066092  12.210843445186468   5.002978606422314 
  2.553399102251269   5.831618132539210   5.002978606422314 
  6.229653481595519  12.232014240082513   5.002978606422314 
  7.392540547634971   5.691437502238539   5.002978606422314 
 -1.244703707305306   7.904962021921482  11.673616748318732 
  0.000100497460390   1.437254600492892  11.673616748318732 
  3.734081635125868   7.904889989227152  11.673616748318732 
  4.978843374228282   1.437138950429465  11.673616748318732 
  8.713082402087029   7.904995467986181  11.673616748318732 
 -3.778290802073760   7.883175342824417   5.002978606422314 
  9.957559184150952   1.437280410760723  11.673616748318732 
  2.517286476020718   1.455940957902714   5.002978606422314 
  1.195264037370217   7.941410633556936   5.002978606422314 
  6.135814043774203   7.868151658143809   5.002978606422314 
  7.486201470462892   1.380713709961049   5.002978606422314 
  1.244634835920815   7.904977864835552  11.673616748318732 
 12.468335199855344   1.449606688643612   5.002978606422314 
 -2.489319737832626  10.060770569942278  11.673616748318732 
 -1.244636446570210   3.593202229611923  11.673616748318732 
  3.734200043073015   3.593028613060040  11.673616748318732 
  2.489378498494920  10.060755413990949  11.673616748318732 
  7.468332819633797  10.060784502346120  11.673616748318732 
  8.712885387165816   3.593206141344316  11.673616748318732 
 -5.019658055797001  10.033286497125330   5.002978606422314 
 -0.035495145484174  10.062301434906241   5.002978606422314 
  1.303072720673168   3.626824383724086   5.002978606422314 
  4.960262495283183  10.086494183408995   5.002978606422314 
  6.275970131785781   3.466424521171978   5.002978606422314 
 11.218676121128857   3.590773548299322   5.002978606422314 
 -2.489333068520136   5.749100800461914  11.673616748318732 
 -3.733996690850608  12.216543944346691  11.673616748318732 
  1.244689016341375  12.216601529321002  11.673616748318732 
  2.489368385937563   5.749140290088818  11.673616748318732 
  6.223593756523045  12.216606175785142  11.673616748318732 
 -6.229278522522913  12.216856432744942   5.002978606422314 
  7.468304283437656   5.749136143191456  11.673616748318732 
 -1.261081673709852  12.185079570865076   5.002978606422314 
  0.030139402931065   5.763806054390248   5.002978606422314 
 -1.279586978444273   7.900340305246212   5.002978606422314 
  3.735746728586527  12.231822039196750   5.002978606422314 
  9.924857912321187   5.726885064101610   5.002978606422314 
 -3.733956756000623   7.904955632769411  11.673616748318732 
  2.489484752189608   1.437191783739292  11.673616748318732 
  6.223664400504600   7.904915657558103  11.673616748318732 
  7.468173327992103   1.437229808840542  11.673616748318732 
 12.447002357766699   1.437290166521145  11.673616748318732 
  4.388844398972410   5.408395492847819   5.002978606422314 
  1.269801551747754   0.734894910275013   5.002978606422314 
  4.813699802554876   7.211683261353845   5.002978606422314 
  6.227575152441916   0.679190657545382   5.002978606422314 
  9.903985652623600   7.162518411257635   5.002978606422314 
 11.219896485023035   0.728820260568354   5.002978606422314 
 -3.734067114900339   9.342115336719116  11.673616748318732 
  1.244943740404838   9.341674814786630  11.673616748318732 
  2.490103090335355   2.875123316779112  11.673616748318732 
  6.223430824476594   9.341344015721642  11.673616748318732 
  7.467448861822028   2.875079624546364  11.673616748318732 
 12.447125611230348   2.874763810549710  11.673616748318732 
 -1.276718794497560   9.333600859406397   5.002978606422314 
  0.054898906152055   2.906190895914815   5.002978606422314 
  5.004729892491056   2.808823236893985   5.002978606422314 
  3.692330102049911   9.409492398082985   5.002978606422314 
  8.665530034501330   9.307586464764542   5.002978606422314 
  9.974272985710643   2.867829810716581   5.002978606422314 
 -4.978641918455560  11.498066805661631  11.673616748318732 
 -0.000048953440928  11.497951727396636  11.673616748318732 
  1.245595685478111   5.030673372387564  11.673616748318732 
  6.222713789221860   5.030753210333075  11.673616748318732 
  4.978890074064153  11.497471203939705  11.673616748318732 
 11.202148253990392   5.030643417631078  11.673616748318732 
 -1.218047253749323   5.043975442945523   5.002978606422314 
 -2.512766708351684  11.474498646791275   5.002978606422314 
  2.479615640844594  11.520939902589658   5.002978606422314 
  7.459378156650581  11.490747503723648   5.002978606422314 
  8.665951227153315   5.004102390457941   5.002978606422314 
  0.000502124469675   7.186141698464331  11.673616748318732 
  1.245160648613140   0.718925795750443  11.673616748318732 
  4.978731283896215   7.185394113283929  11.673616748318732 
  6.223213882667582   0.719057994584355  11.673616748318732 
  9.957313641471599   7.186280359364068  11.673616748318732 
 -2.520737043197824   7.178047975596850   5.002978606422314 
 11.202207599408560   0.718607577697173  11.673616748318732 
  3.732096959875042   0.694472398478231   5.002978606422314 
  2.445491533102446   7.241554104034308   5.002978606422314 
  7.376868023515380   7.133531736822762   5.002978606422314 
  8.727848760505456   0.698682681802383   5.002978606422314 
  2.489907245505323   7.185762915413894  11.673616748318732 
 13.717415968474949   0.737447771835755   5.002978606422314 
 -1.244523040877085   9.342033377499156  11.673616748318732 
  0.000713107153461   2.874906710276722  11.673616748318732 
  4.978621162039889   2.875183966472268  11.673616748318732 
  3.734230732637942   9.341203100030480  11.673616748318732 
  8.712772479628907   9.341888883786426  11.673616748318732 
  9.957161487890605   2.874852181324478  11.673616748318732 
 -3.773835711016513   9.319154927046148   5.002978606422314 
  1.212598248635019   9.365385453723446   5.002978606422314 
  2.573831497658544   2.929331862109268   5.002978606422314 
  6.177269715818402   9.314625211947339   5.002978606422314 
  7.505638813448091   2.804647964996288   5.002978606422314 
 12.476127870677992   2.887421824050626   5.002978606422314 
 -1.244197364170851   5.030620352121040  11.673616748318732 
 -2.489366056655247  11.498164728274213  11.673616748318732 
  2.489387676311973  11.497607986760375  11.673616748318732 
  3.734600904632897   5.030667835275346  11.673616748318732 
  7.468353433011410  11.497765752604261  11.673616748318732 
 -5.001539389281689  11.474923682550200   5.002978606422314 
  8.712170944309687   5.030719681335639  11.673616748318732 
 -0.015021909579448  11.489307087139522   5.002978606422314 
  1.334405866497822   5.076080027482778   5.002978606422314 
 -0.021906471786504   7.196597073903993   5.002978606422314 
  6.162965118623603   4.874687181032313   5.002978606422314 
  4.981364271632943  11.515801381052604   5.002978606422314 
 11.191582633989295   5.026379724736905   5.002978606422314 
 -2.489245775247360   7.186306205458988  11.673616748318732 
  3.734246637266265   0.719106499819089  11.673616748318732 
  7.467723718613748   7.185987296845196  11.673616748318732 
  8.712528746412010   0.718811470678483  11.673616748318732 
 13.691952677497895   0.718660085137393  11.673616748318732 
  0.000289344915778   1.437794063441808   1.669362049355786 
  3.735362378662617   7.902474510374526   1.667907657938549 
  4.978540308012630   1.440014328454355   1.670292709100738 
  8.710429400356219   7.903463756722761   1.669739677835855 
  9.957432559354165   1.437541868339698   1.668287700164828 
 -4.979690351473542  10.060485616427412   8.337450048490174 
  0.001034419566503  10.060342311912001   8.337175175646021 
  1.245830084665800   3.593775332416099   8.335978992512656 
  4.978354712822073  10.059472006444151   8.337204778357393 
  6.222039177041303   3.595423953579906   8.338049554906091 
 11.201916017230181   3.593043239742528   8.337338917987784 
 -2.489259237758929  10.060805499676121   1.668247150131719 
 -1.244074834224354   3.593096044831271   1.669362049355786 
  3.733883411196774   3.595767046657075   1.667800053533439 
  2.490364240596162  10.059727714636441   1.669033937031704 
  7.466785168036502  10.059723704887789   1.669187028360396 
  8.711549971616739   3.593388143636500   1.668752434487234 
 -6.223828346652255  12.217021198920294   8.336862345179673 
 -1.244513541466656  12.217694663685267   8.337175175646021 
  0.001694953068616   5.748161892994030   8.335494780362815 
  4.976627500723191   5.747752224868755   8.322546880875326 
  3.734278365629707  12.216361115205865   8.337669512679787 
  9.955983176470244   5.748306284181255   8.336770184484232 
 -2.489206220621274   5.748465929563689   1.669094867664955 
 -3.734235834104042  12.217927207974054   1.668916620291446 
  1.245106406444945  12.216842509609670   1.668396459332352 
  2.491581623061045   5.747496862041839   1.667800053533439 
  6.223239040094747  12.216364718614589   1.668618294856843 
  7.464604402040278   5.747628040945870   1.667683272280007 
 -1.243625337490611   7.904063285975209   8.337040592553182 
  0.000289344915778   1.437794063441809   8.336595163488855 
  3.735362378662618   7.902474510374526   8.338049554906091 
  4.978540308012631   1.440014328454356   8.335664503743903 
  8.710429400356219   7.903463756722762   8.336217535008773 
 -3.734751821635842   7.904188830448396   1.668507164354453 
  9.957432559354165   1.437541868339699   8.337669512679787 
  2.489516009899457   1.439129422423283   1.670462432481826 
  1.246973453228021   7.903277712781337   1.670292709100738 
  6.220508404949723   7.902465517399787   1.667683272280007 
  7.467776185294269   1.438597336219051   1.669033937031704 
  1.246973453228021   7.903277712781338   8.335664503743903 
 12.447061695188907   1.437324424997811   1.668189186164935 
 -2.489259237758928  10.060805499676121   8.337710062712922 
 -1.244074834224353   3.593096044831272   8.336595163488855 
  3.733883411196774   3.595767046657076   8.338157159311189 
  2.490364240596163  10.059727714636441   8.336923275812925 
  7.466785168036503  10.059723704887789   8.336770184484232 
  8.711549971616739   3.593388143636501   8.337204778357393 
 -4.979690351473542  10.060485616427412   1.668507164354453 
  0.001034419566502  10.060342311912001   1.668782037198607 
  1.245830084665799   3.593775332416099   1.669978220331972 
  4.978354712822072  10.059472006444151   1.668752434487234 
  6.222039177041302   3.595423953579905   1.667907657938549 
 11.201916017230181   3.593043239742527   1.668618294856843 
 -2.489206220621273   5.748465929563690   8.336862345179673 
 -3.734235834104042  12.217927207974054   8.337040592553182 
  1.245106406444946  12.216842509609670   8.337560753512275 
  2.491581623061045   5.747496862041840   8.338157159311189 
  6.223239040094748  12.216364718614589   8.337338917987784 
 -6.223828346652256  12.217021198920294   1.669094867664955 
  7.464604402040279   5.747628040945870   8.338273940564608 
 -1.244513541466657  12.217694663685267   1.668782037198607 
  0.001694953068616   5.748161892994029   1.670462432481826 
 -1.243625337490612   7.904063285975208   1.668916620291446 
  4.976627500723190   5.747752224868754   1.683410331969302 
  3.734278365629707  12.216361115205865   1.668287700164828 
  9.955983176470244   5.748306284181254   1.669187028360396 
 -3.734751821635842   7.904188830448397   8.337450048490174 
  2.489516009899457   1.439129422423284   8.335494780362815 
  6.220508404949724   7.902465517399788   8.338273940564608 
  7.467776185294269   1.438597336219051   8.336923275812925 
 12.447061695188907   1.437324424997811   8.337768026679678 
Generated by cif2cell 2.0.0.  :  Failed to get author information, No journal information. Species order: N P B 
 1.0
 14.936314146199660   0.000000000000000   0.000000000000000
 -7.468157073099825  12.935227489513863   0.000000000000000
  0.000000000000001   0.000000000000001  13.341276283792837
 N P B 
 143   1 143
Cartesian
  1.244332507250362   0.718411811205656   1.666989564772291 
  4.978535042388343   7.187038075275651   1.653358866287556 
  6.223674293286593   0.718728420591777   1.666702541671720 
  9.957183499751849   7.185996057945893   1.666527700735251 
 11.202385709229507   0.718710409450232   1.665927150019926 
 -3.734249982259137   9.342009758200259   8.339776423746743 
  1.244888526264346   9.342238329075153   8.339254671172894 
  2.488559706965732   2.874026347683368   8.342236986794495 
  6.223087327422490   9.342161719829013   8.340506702714711 
  7.468423259909575   2.874254142631460   8.341272838288051 
 12.446767689737761   2.874367970352628   8.339662079300076 
 -1.244574687864295   9.342119951729128   1.666356206869009 
 -0.000589120981610   2.874154868512392   1.666554528907769 
  4.978812901395803   2.874429777876043   1.663050004776644 
  3.734003043373035   9.342459694485157   1.664684374556563 
  8.712461196518568   9.341918328460105   1.666527700735251 
  9.957726616198450   2.874327873496939   1.666193702522600 
 -4.978974256875262  11.497920540413213   8.339776457565703 
  0.000265648514046  11.498133362920044   8.339661420220150 
  1.243873990689218   5.029885247729565   8.342236986794495 
  6.224039381315635   5.029761279206080   8.352598346557071 
  4.978718574320023  11.498222773324462   8.339763510322040 
 11.202025984551442   5.030201325746720   8.339301984294615 
 -1.245056558525177   5.030160152935341   1.666989564772291 
 -2.489316904666384  11.498076713556275   1.666356206869009 
  2.489576094773797  11.498250030033867   1.666170077104708 
  3.731799291079650   5.029050322936204   1.642746953864091 
  7.467909435489275  11.497880910106201   1.666655228550014 
  8.712707348312405   5.030013352106961   1.665450510129917 
  0.000006515912868   7.186121704567785   8.339387499317603 
  1.244332507250362   0.718411811205657   8.338967648072336 
  4.978535042388343   7.187038075275652   8.352598346557071 
  6.223674293286594   0.718728420591777   8.339254671172894 
  9.957183499751849   7.185996057945894   8.339429512109364 
 -2.489538613878008   7.186091524569041   1.666180755278923 
 11.202385709229507   0.718710409450233   8.340030062824688 
  3.733981517765530   0.718687287166834   1.666569713527011 
  2.489349968699713   7.186306060865120   1.663050004776644 
  7.467710523243504   7.185979678494625   1.665180220101765 
  8.713178981428111   0.718653624216192   1.666170077104708 
  2.489349968699714   7.186306060865121   8.342907208067997 
 13.691430909085090   0.718548036130793   1.666295133544537 
 -1.244574687864295   9.342119951729128   8.339601005975620 
 -0.000589120981609   2.874154868512393   8.339402683936859 
  4.978812901395804   2.874429777876044   8.342907208067997 
  3.734003043373036   9.342459694485157   8.341272838288051 
  8.712461196518568   9.341918328460105   8.339429512109364 
  9.957726616198450   2.874327873496940   8.339763510322040 
 -3.734249982259137   9.342009758200259   1.666180789097885 
  1.244888526264345   9.342238329075153   1.666702541671720 
  2.488559706965731   2.874026347683367   1.663720226050133 
  6.223087327422489   9.342161719829013   1.665450510129917 
  7.468423259909574   2.874254142631459   1.664684374556563 
 12.446767689737761   2.874367970352627   1.666295133544537 
 -1.245056558525177   5.030160152935342   8.338967648072336 
 -2.489316904666384  11.498076713556275   8.339601005975620 
  2.489576094773798  11.498250030033867   8.339787135739920 
  3.731799291079650   5.029050322936205   8.363210258980537 
  7.467909435489275  11.497880910106201   8.339301984294615 
 -4.978974256875262  11.497920540413213   1.666180755278923 
  8.712707348312405   5.030013352106962   8.340506702714711 
  0.000265648514046  11.498133362920044   1.666295792624491 
  1.243873990689217   5.029885247729564   1.663720226050133 
  0.000006515912868   7.186121704567784   1.666569713527011 
  6.224039381315635   5.029761279206079   1.653358866287556 
  4.978718574320022  11.498222773324462   1.666193702522600 
 11.202025984551442   5.030201325746719   1.666655228550014 
 -2.489538613878007   7.186091524569042   8.339776457565703 
  3.733981517765531   0.718687287166835   8.339387499317603 
  7.467710523243505   7.185979678494625   8.340776992742864 
  8.713178981428111   0.718653624216193   8.339787135739920 
 13.691430909085090   0.718548036130793   8.339662079300076 
  0.027948346762661   1.459110306715168   5.002978606422314 
  3.650611070495826   8.013679803437544   5.002978606422314 
  4.985709678195896   1.376166200318843   5.002978606422314 
  8.645645577173422   7.866060798969033   5.002978606422314 
  9.971556293774668   1.431083045966826   5.002978606422314 
 -4.978628748366275  10.060790762304720  11.673616748318732 
  0.000000873271999  10.060799117716609  11.673616748318732 
  1.244789651788584   3.593174638214375  11.673616748318732 
  4.978864801988031  10.060719511380356  11.673616748318732 
  6.223490671321590   3.593107057715061  11.673616748318732 
 11.202302483487959   3.593229704595285  11.673616748318732 
 -2.526101059585904  10.039534863926873   5.002978606422314 
 -1.211784925112934   3.606391321437313   5.002978606422314 
  3.837643308041230   3.607241918785042   5.002978606422314 
  2.449448192377873  10.104626292793457   5.002978606422314 
  7.432671215192928  10.043479045475053   5.002978606422314 
  8.725905754564414   3.564208735154595   5.002978606422314 
 -6.223341956275686  12.216593909968324  11.673616748318732 
 -1.244634709182530  12.216571183435949  11.673616748318732 
  0.000001279890007   5.749103642365219  11.673616748318732 
  4.978859979873823   5.749041147307325  11.673616748318732 
  3.734115249122703  12.216601504286110  11.673616748318732 
  9.957675679816052   5.749116191051595  11.673616748318732 
 -2.492074000250140   5.743828321892284   5.002978606422314 
 -3.755440850469970  12.188645003710880   5.002978606422314 
  1.234715722066092  12.210843445186468   5.002978606422314 
  2.553399102251269   5.831618132539210   5.002978606422314 
  6.229653481595519  12.232014240082513   5.002978606422314 
  7.392540547634971   5.691437502238539   5.002978606422314 
 -1.244703707305306   7.904962021921482  11.673616748318732 
  0.000100497460390   1.437254600492892  11.673616748318732 
  3.734081635125868   7.904889989227152  11.673616748318732 
  4.978843374228282   1.437138950429465  11.673616748318732 
  8.713082402087029   7.904995467986181  11.673616748318732 
 -3.778290802073760   7.883175342824417   5.002978606422314 
  9.957559184150952   1.437280410760723  11.673616748318732 
  2.517286476020718   1.455940957902714   5.002978606422314 
  1.195264037370217   7.941410633556936   5.002978606422314 
  6.135814043774203   7.868151658143809   5.002978606422314 
  7.486201470462892   1.380713709961049   5.002978606422314 
  1.244634835920815   7.904977864835552  11.673616748318732 
 12.468335199855344   1.449606688643612   5.002978606422314 
 -2.489319737832626  10.060770569942278  11.673616748318732 
 -1.244636446570210   3.593202229611923  11.673616748318732 
  3.734200043073015   3.593028613060040  11.673616748318732 
  2.489378498494920  10.060755413990949  11.673616748318732 
  7.468332819633797  10.060784502346120  11.673616748318732 
  8.712885387165816   3.593206141344316  11.673616748318732 
 -5.019658055797001  10.033286497125330   5.002978606422314 
 -0.035495145484174  10.062301434906241   5.002978606422314 
  1.303072720673168   3.626824383724086   5.002978606422314 
  4.960262495283183  10.086494183408995   5.002978606422314 
  6.275970131785781   3.466424521171978   5.002978606422314 
 11.218676121128857   3.590773548299322   5.002978606422314 
 -2.489333068520136   5.749100800461914  11.673616748318732 
 -3.733996690850608  12.216543944346691  11.673616748318732 
  1.244689016341375  12.216601529321002  11.673616748318732 
  2.489368385937563   5.749140290088818  11.673616748318732 
  6.223593756523045  12.216606175785142  11.673616748318732 
 -6.229278522522913  12.216856432744942   5.002978606422314 
  7.468304283437656   5.749136143191456  11.673616748318732 
 -1.261081673709852  12.185079570865076   5.002978606422314 
  0.030139402931065   5.763806054390248   5.002978606422314 
 -1.279586978444273   7.900340305246212   5.002978606422314 
  3.735746728586527  12.231822039196750   5.002978606422314 
  9.924857912321187   5.726885064101610   5.002978606422314 
 -3.733956756000623   7.904955632769411  11.673616748318732 
  2.489484752189608   1.437191783739292  11.673616748318732 
  6.223664400504600   7.904915657558103  11.673616748318732 
  7.468173327992103   1.437229808840542  11.673616748318732 
 12.447002357766699   1.437290166521145  11.673616748318732 
  4.388844398972410   5.408395492847819   5.002978606422314 
  1.269801551747754   0.734894910275013   5.002978606422314 
  4.813699802554876   7.211683261353845   5.002978606422314 
  6.227575152441916   0.679190657545382   5.002978606422314 
  9.903985652623600   7.162518411257635   5.002978606422314 
 11.219896485023035   0.728820260568354   5.002978606422314 
 -3.734067114900339   9.342115336719116  11.673616748318732 
  1.244943740404838   9.341674814786630  11.673616748318732 
  2.490103090335355   2.875123316779112  11.673616748318732 
  6.223430824476594   9.341344015721642  11.673616748318732 
  7.467448861822028   2.875079624546364  11.673616748318732 
 12.447125611230348   2.874763810549710  11.673616748318732 
 -1.276718794497560   9.333600859406397   5.002978606422314 
  0.054898906152055   2.906190895914815   5.002978606422314 
  5.004729892491056   2.808823236893985   5.002978606422314 
  3.692330102049911   9.409492398082985   5.002978606422314 
  8.665530034501330   9.307586464764542   5.002978606422314 
  9.974272985710643   2.867829810716581   5.002978606422314 
 -4.978641918455560  11.498066805661631  11.673616748318732 
 -0.000048953440928  11.497951727396636  11.673616748318732 
  1.245595685478111   5.030673372387564  11.673616748318732 
  6.222713789221860   5.030753210333075  11.673616748318732 
  4.978890074064153  11.497471203939705  11.673616748318732 
 11.202148253990392   5.030643417631078  11.673616748318732 
 -1.218047253749323   5.043975442945523   5.002978606422314 
 -2.512766708351684  11.474498646791275   5.002978606422314 
  2.479615640844594  11.520939902589658   5.002978606422314 
  7.459378156650581  11.490747503723648   5.002978606422314 
  8.665951227153315   5.004102390457941   5.002978606422314 
  0.000502124469675   7.186141698464331  11.673616748318732 
  1.245160648613140   0.718925795750443  11.673616748318732 
  4.978731283896215   7.185394113283929  11.673616748318732 
  6.223213882667582   0.719057994584355  11.673616748318732 
  9.957313641471599   7.186280359364068  11.673616748318732 
 -2.520737043197824   7.178047975596850   5.002978606422314 
 11.202207599408560   0.718607577697173  11.673616748318732 
  3.732096959875042   0.694472398478231   5.002978606422314 
  2.445491533102446   7.241554104034308   5.002978606422314 
  7.376868023515380   7.133531736822762   5.002978606422314 
  8.727848760505456   0.698682681802383   5.002978606422314 
  2.489907245505323   7.185762915413894  11.673616748318732 
 13.717415968474949   0.737447771835755   5.002978606422314 
 -1.244523040877085   9.342033377499156  11.673616748318732 
  0.000713107153461   2.874906710276722  11.673616748318732 
  4.978621162039889   2.875183966472268  11.673616748318732 
  3.734230732637942   9.341203100030480  11.673616748318732 
  8.712772479628907   9.341888883786426  11.673616748318732 
  9.957161487890605   2.874852181324478  11.673616748318732 
 -3.773835711016513   9.319154927046148   5.002978606422314 
  1.212598248635019   9.365385453723446   5.002978606422314 
  2.573831497658544   2.929331862109268   5.002978606422314 
  6.177269715818402   9.314625211947339   5.002978606422314 