Species order: X N B                    
   2.51242800000000     
     5.9449720136058266    0.0000000000000000    0.0000000000000000
    -2.9724860068029120    5.1484967885702053   -0.0000000000000001
     0.0000000000000000    0.0000000000000009    5.3101128803662583
   Ga   N    B 
     1   143   144
Direct
  0.5555555555555571  0.4444444444444429  0.3750000000000000
  0.1111264435390230  0.0555366880447480  0.1243978611392019
  0.6111116697110575  0.5555566727556180  0.1257738737932836
  0.4444182967643812  0.0555370191709202  0.1243741615058523
  0.9444629808290264  0.5555817032354400  0.1243741615058524
  0.7777591087945265  0.0555462210639098  0.1245922864341857
  0.1111244218435078  0.7222288775883203  0.6248013195502476
  0.4444182967643812  0.7222146109269515  0.6256258384942210
  0.2777925967652292  0.2222147472624675  0.6257996793106254
  0.7777852527375416  0.7222074032346745  0.6257996793106254
  0.6110888171638894  0.2222147472624675  0.6257996793106254
  0.9444537789361430  0.2222408912055489  0.6254077135657966
  0.2777711224115510  0.7222288775883203  0.1251986804498129
  0.1111358379282477  0.2222345856307577  0.1243207240165687
  0.4444478187803920  0.2222289708941901  0.1244049144331349
  0.6110888171638894  0.7222074032346745  0.1242003206894052
  0.9444629808290264  0.7222146109269515  0.1243741615058523
  0.7777654143690703  0.2222345856307577  0.1243207240165687
  0.1111266964739453  0.8888733035261518  0.6251608275188097
  0.4444132737188602  0.8888733035261518  0.6251608275188097
  0.2777925967652291  0.3889111828361868  0.6257996793106255
  0.6111116697110575  0.3888883302888553  0.6242261262067599
  0.7777654143690703  0.8888641620719974  0.6256792759834259
  0.9444633119552153  0.3889230888276113  0.6256021388607570
  0.1111264435390230  0.3889230888276119  0.1243978611392019
  0.2777711224115510  0.8888755781564306  0.1251986804498208
  0.6110769111724755  0.8888735564609566  0.1243978611392019
  0.4444433272443693  0.3888883302888552  0.1257738737932746
  0.9444633119552153  0.8888735564609566  0.1243978611392019
  0.7777852527375416  0.3889111828361868  0.1242003206894052
  0.2777853890731876  0.5555817032354400  0.6256258384942210
  0.1111264435390230  0.0555366880447480  0.6256021388607570
  0.6111116697110575  0.5555566727556182  0.6242261262067592
  0.4444182967643812  0.0555370191709207  0.6256258384942210
  0.9444629808290264  0.5555817032354400  0.6256258384942210
  0.1111266964739453  0.5555867262812295  0.1248391724812036
  0.7777591087945265  0.0555462210639098  0.6254077135657966
  0.2777853890731876  0.0555370191709219  0.1243741615058523
  0.4444478187803920  0.5555521812197884  0.1244049144331349
  0.7777710291058803  0.5555521812197884  0.1244049144331376
  0.6110769111724755  0.0555366880447479  0.1243978611392019
  0.4444478187803920  0.5555521812197884  0.6255950855670454
  0.9444537789361430  0.0555462210639098  0.1245922864341863
  0.2777711224115510  0.7222288775883203  0.6248013195502476
  0.1111358379282476  0.2222345856307577  0.6256792759834259
  0.4444478187803920  0.2222289708941902  0.6255950855670436
  0.6110888171638894  0.7222074032346745  0.6257996793106254
  0.9444629808290264  0.7222146109269515  0.6256258384942210
  0.7777654143690703  0.2222345856307577  0.6256792759834259
  0.1111244218435078  0.7222288775883203  0.1251986804498208
  0.4444182967643812  0.7222146109269515  0.1243741615058523
  0.2777925967652292  0.2222147472624674  0.1242003206894052
  0.7777852527375416  0.7222074032346745  0.1242003206894052
  0.6110888171638894  0.2222147472624674  0.1242003206894052
  0.9444537789361430  0.2222408912055489  0.1245922864341863
  0.1111264435390230  0.3889230888276119  0.6256021388607570
  0.2777711224115510  0.8888755781564306  0.6248013195502476
  0.6110769111724755  0.8888735564609566  0.6256021388607570
  0.4444433272443693  0.3888883302888553  0.6242261262067592
  0.9444633119552153  0.8888735564609566  0.6256021388607570
  0.1111266964739453  0.8888733035261518  0.1248391724812036
  0.7777852527375416  0.3889111828361868  0.6257996793106720
  0.4444132737188602  0.8888733035261518  0.1248391724812036
  0.2777925967652291  0.3889111828361869  0.1242003206894052
  0.2777853890731872  0.5555817032354400  0.1243741615058523
  0.6111116697110575  0.3888883302888552  0.1257738737932712
  0.7777654143690703  0.8888641620719555  0.1243207240165686
  0.9444633119552153  0.3889230888276113  0.1243978611392019
  0.1111266964739453  0.5555867262812295  0.6251608275188097
  0.2777853890731876  0.0555370191709207  0.6256258384942210
  0.7777710291058803  0.5555521812197884  0.6255950855670455
  0.6110769111724755  0.0555366880447481  0.6256021388607570
  0.9444537789361430  0.0555462210639098  0.6254077135657966
  0.0544963030729320  0.1104413506142869  0.3750000000000000
  0.5551074905583048  0.6194257216273953  0.3750000000000000
  0.3877037276382775  0.1087407886099373  0.3750000000000000
  0.8912592113901329  0.6122962723616261  0.3750000000000000
  0.7226117142080772  0.1104413506142869  0.3750000000000000
  0.0555428659878596  0.7777754751966482  0.8750000000000000
  0.3888992758753402  0.7777754751966482  0.8750000000000000
  0.2222360465256186  0.2777846899295003  0.8750000000000000
  0.7222153100704759  0.7777639534743351  0.8750000000000000
  0.5555610266953892  0.2777981764133035  0.8750000000000000
  0.8888865855376270  0.2777806397799792  0.8750000000000000
  0.2222222222222214  0.7777777777777786  0.3750000000000000
  0.0544963030729320  0.2773882857919231  0.3750000000000000
  0.3805742783726154  0.2690151022643048  0.3750000000000000
  0.5551588563217873  0.7812845870917174  0.3750000000000000
  0.8927923974364581  0.7812845870917178  0.3750000000000000
  0.7238769065122654  0.2761230934876189  0.3750000000000000
  0.0555539615476794  0.9444460384523585  0.8750000000000000
  0.3888992758753402  0.9444571340121984  0.8750000000000000
  0.2222335023658912  0.4444401211553193  0.8750000000000000
  0.5555555555555571  0.4444444444444429  0.8750000000000000
  0.7222193602201380  0.9444392790911978  0.8750000000000000
  0.8888732854560100  0.4444401211553193  0.8750000000000000
  0.0557150064234019  0.4447633461802043  0.3750000000000000
  0.2218508063221437  0.9435156176878622  0.3750000000000000
  0.5552366538199514  0.9442849935766109  0.3750000000000000
  0.3805742783726153  0.4448925094417356  0.3750000000000000
  0.8895586493857495  0.9455036969270001  0.3750000000000000
  0.7309848977356617  0.4448925094417360  0.3750000000000000
  0.2222245248033498  0.6111007241245553  0.8750000000000000
  0.0555607209089772  0.1111134144623495  0.8750000000000000
  0.5555610266953911  0.6110961836150995  0.8750000000000000
  0.3889036635032448  0.1111406603398748  0.8750000000000000
  0.8888593396601676  0.6110963364967963  0.8750000000000000
  0.0564843823121579  0.6116685219676125  0.3750000000000000
  0.7222193602201380  0.1111134144623495  0.8750000000000000
  0.2187154129083362  0.1072076025635499  0.3750000000000000
  0.3877037276382622  0.6122962723616259  0.3750000000000000
  0.7309848977356673  0.6194257216273955  0.3750000000000000
  0.5551588563217865  0.1072076025635506  0.3750000000000000
  0.3889036635032448  0.6110963364967963  0.8750000000000000
  0.8888888888888857  0.1111111111111143  0.3750000000000000
  0.2222222222222214  0.7777777777777786  0.8750000000000000
  0.0555607209089771  0.2777806397799792  0.8750000000000000
  0.3889038163847017  0.2777981764133035  0.8750000000000000
  0.5555598788445735  0.7777664976341558  0.8750000000000000
  0.8888732854560097  0.7777664976341557  0.8750000000000000
  0.7222153100704759  0.2777846899295003  0.8750000000000000
  0.0564843823121579  0.7781491936778968  0.3750000000000000
  0.3883314780323830  0.7781491936778968  0.3750000000000000
  0.2189128536420107  0.2761230934876192  0.3750000000000000
  0.7238769065122654  0.7810871463580975  0.3750000000000000
  0.5551074905583053  0.2690151022643050  0.3750000000000000
  0.8895586493857495  0.2773882857919231  0.3750000000000000
  0.0555539615476786  0.4444412564285795  0.8750000000000000
  0.2222245248033498  0.9444571340121984  0.8750000000000000
  0.5555587435714257  0.9444460384523585  0.8750000000000000
  0.3889038163847018  0.4444389733048121  0.8750000000000000
  0.8888865855376270  0.9444392790911978  0.8750000000000000
  0.0557150064234019  0.9442849935766109  0.3750000000000000
  0.7222018235865164  0.4444389733048121  0.8750000000000000
  0.3883314780324019  0.9435156176878634  0.3750000000000000
  0.2187154129083362  0.4448411436780593  0.3750000000000000
  0.2218508063221437  0.6116685219676125  0.3750000000000000
  0.7226117142080772  0.9455036969270001  0.3750000000000000
  0.8927923974364563  0.4448411436780593  0.3750000000000000
  0.0555428659878595  0.6111007241245553  0.8750000000000000
  0.2222335023658912  0.1111267145439345  0.8750000000000000
  0.7222018235865164  0.6110961836150995  0.8750000000000000
  0.5555598788445734  0.1111267145439345  0.8750000000000000
  0.8888888888888857  0.1111111111111143  0.8750000000000000
  0.1085463120594336  0.0537777983084653  0.3750000000000000
  0.6280624072200197  0.5894581477730949  0.3750000000000000
  0.4439609298875590  0.0531817467778969  0.3750000000000000
  0.9468182532220565  0.5560390701125423  0.3750000000000000
  0.7784602215399428  0.0558967774367079  0.3750000000000000
  0.1111196124292842  0.7222264728813265  0.8750000000000000
  0.4444486698728807  0.7222563053854061  0.8750000000000000
  0.2776990633574325  0.2221729024396822  0.8750000000000000
  0.7778270975602074  0.7223009366425946  0.8750000000000000
  0.6111405057488496  0.2221729024396822  0.8750000000000000
  0.9444349912012818  0.2222033157360170  0.8750000000000000
  0.2774443291371976  0.7225556708627981  0.3750000000000000
  0.1079882329617103  0.2206607831475742  0.3750000000000000
  0.4418711947512764  0.2170757228358693  0.3750000000000000
  0.6129965602256139  0.7311112932455526  0.3750000000000000
  0.9468182532220565  0.7241125164430100  0.3750000000000000
  0.7793392168524668  0.2206607831475742  0.3750000000000000
  0.1111061201957988  0.8888938798042981  0.8750000000000000
  0.4444544262750170  0.8888938798042981  0.8750000000000000
  0.2776990633574325  0.3888594942510573  0.8750000000000000
  0.6111461682840580  0.3888538317160218  0.8750000000000000
  0.7778078159249884  0.8889489651828869  0.8750000000000000
  0.9444617824059029  0.3888657780999564  0.8750000000000000
  0.1085463120594336  0.3881018470842976  0.3750000000000000
  0.2774443291371976  0.8882219916077237  0.3750000000000000
  0.6118981529157722  0.8914536879405572  0.3750000000000000
  0.4105418522267716  0.3719375927801167  0.3750000000000000
  0.9462222016917234  0.8914536879405572  0.3750000000000000
  0.7847813996865636  0.3870034397744167  0.3750000000000000
  0.2777436946146277  0.5555513301270774  0.8750000000000000
  0.1110706623607821  0.0555382175941186  0.8750000000000000
  0.6111461682840580  0.5556256699012849  0.8750000000000000
  0.4444486698728807  0.0555256978208131  0.8750000000000000
  0.9444743021789777  0.5555513301270774  0.8750000000000000
  0.1111879666627643  0.5557092666589055  0.3750000000000000
  0.7777966842639473  0.0555650087986581  0.8750000000000000
  0.2758874835569662  0.0531817467778953  0.3750000000000000
  0.4418711947512766  0.5581288052488189  0.3750000000000000
  0.7829242771641115  0.5581288052488189  0.3750000000000000
  0.6118981529157722  0.0537777983084646  0.3750000000000000
  0.4444177491970446  0.5555822508027561  0.8750000000000000
  0.9441032225634052  0.0558967774367082  0.3750000000000000
  0.2777735271186789  0.7222264728813265  0.8750000000000000
  0.1110510348169865  0.2221921840751485  0.8750000000000000
  0.4444177491970446  0.2221688317275096  0.8750000000000000
  0.6111405057488496  0.7223009366425946  0.8750000000000000
  0.9444743021789777  0.7222563053854061  0.8750000000000000
  0.7778078159249884  0.2221921840751485  0.8750000000000000
  0.1117780083923614  0.7225556708627981  0.3750000000000000
  0.4439609298875590  0.7241125164430100  0.3750000000000000
  0.2688887067543476  0.2152186003134433  0.3750000000000000
  0.7847813996865634  0.7311112932455563  0.3750000000000000
  0.6129965602256139  0.2152186003134443  0.3750000000000000
  0.9441032225634052  0.2215397784599202  0.3750000000000000
  0.1110706623607824  0.3888657780999564  0.8750000000000000
  0.2777735271186789  0.8888803875706863  0.8750000000000000
  0.6111342218999367  0.8889293376391522  0.8750000000000000
  0.4443743300986900  0.3888538317160218  0.8750000000000000
  0.9444617824059029  0.8889293376391522  0.8750000000000000
  0.1111879666627641  0.8888120333371797  0.3750000000000000
  0.7778270975602074  0.3888594942510573  0.8750000000000000
  0.4442907333411446  0.8888120333371797  0.3750000000000000
  0.2688887067543487  0.3870034397744166  0.3750000000000000
  0.2758874835569662  0.5560390701125423  0.3750000000000000
  0.6280624072200198  0.3719375927801167  0.3750000000000000
  0.7793392168524661  0.8920117670383215  0.3750000000000000
  0.9462222016917157  0.3881018470842976  0.3750000000000000
  0.1111061201957988  0.5555455737250216  0.8750000000000000
  0.2777436946146277  0.0555256978208130  0.8750000000000000
  0.7778311682725751  0.5555822508027561  0.8750000000000000
  0.6111342218999367  0.0555382175941186  0.8750000000000000
  0.9444349912012818  0.0555650087986581  0.8750000000000000
  0.0554923067781876  0.1110499915636664  0.1240331085920681
  0.5554732326468644  0.6113922917401894  0.1236995586910146
  0.3887280718260960  0.1107894769855995  0.1236254624943719
  0.8892105230144651  0.6112719281739205  0.1236254624943719
  0.7222243514523483  0.1110499915636674  0.1240331085920681
  0.0556900236325402  0.7778256501866705  0.6255890543052519
  0.3888022932209484  0.7778256501866705  0.6255890543052519
  0.2220151368297422  0.2776742350814803  0.6264507937356332
  0.7223257649184245  0.7779848631703751  0.6264507937356332
  0.5554732326468644  0.2774142742400816  0.6263004413089196
  0.8889500084362735  0.2777756485478254  0.6259668914077832
  0.2222222222222214  0.7777777777777786  0.1249226947675360
  0.0554923067781875  0.2777756485478254  0.1240331085920681
  0.3886077082598458  0.2774142742400815  0.1236995586910118
  0.5554916955003172  0.7779340764547318  0.1237104922371103
  0.8891090476211361  0.7779340764547318  0.1237104922371103
  0.7223257649184245  0.2776742350814803  0.1235492062645106
  0.0555862606346223  0.9444137393653144  0.6258734773776967
  0.3888022932209484  0.9443099763672553  0.6255890543052519
  0.2220659235452993  0.4445083044997259  0.6262895077630647
  0.5555555555555571  0.4444444444444429  0.6260937371967449
  0.7222243514523483  0.9445076932218877  0.6259668914077832
  0.8891090476211363  0.4445083044997259  0.6262895077630647
  0.0555862606346233  0.4445058546025679  0.1241265226222527
  0.2221743498131541  0.9443099763672569  0.1244109456947742
  0.5554941453973483  0.9444137393653144  0.1241265226222527
  0.3886077082598458  0.4445267673530654  0.1236995586910143
  0.8889500084362735  0.9445076932218879  0.1240331085920681
  0.7225857257599181  0.4445267673530654  0.1236995586910126
  0.2221743498131535  0.6111977067788666  0.6255890543052519
  0.0554923067781876  0.1110499915636674  0.6259668914077832
  0.5554732326468644  0.6113922917401894  0.6263004413089196
  0.3887280718260960  0.1107894769856079  0.6263745375054687
  0.8892105230144649  0.6112719281739205  0.6263745375054687
  0.0556900236325402  0.6111977067788666  0.1244109456947742
  0.7222243514523483  0.1110499915636674  0.6259668914077832
  0.2220659235452993  0.1108909523788336  0.1237104922371103
  0.3887280718260960  0.6112719281739205  0.1236254624943719
  0.7225857257599189  0.6113922917401894  0.1236995586910152
  0.5554916955003172  0.1108909523788336  0.1237104922371103
  0.3887280718260960  0.6112719281739205  0.6263745375054687
  0.8888888888888857  0.1111111111111143  0.1242674192741838
  0.2222222222222214  0.7777777777777786  0.6250773052325697
  0.0554923067781875  0.2777756485478254  0.6259668914077832
  0.3886077082598458  0.2774142742400814  0.6263004413089196
  0.5554916955003172  0.7779340764547318  0.6262895077630647
  0.8891090476211363  0.7779340764547318  0.6262895077630647
  0.7223257649184245  0.2776742350814803  0.6264507937356332
  0.0556900236325404  0.7778256501866705  0.1244109456947766
  0.3888022932209484  0.7778256501866705  0.1244109456947742
  0.2220151368297425  0.2776742350814803  0.1235492062645140
  0.7223257649184245  0.7779848631703751  0.1235492062645107
  0.5554732326468644  0.2774142742400815  0.1236995586910157
  0.8889500084362735  0.2777756485478254  0.1240331085920681
  0.0555862606346223  0.4445058546025679  0.6258734773776967
  0.2221743498131540  0.9443099763672553  0.6255890543052519
  0.5554941453973483  0.9444137393653144  0.6258734773776967
  0.3886077082598458  0.4445267673530654  0.6263004413089196
  0.8889500084362735  0.9445076932218879  0.6259668914077832
  0.0555862606346233  0.9444137393653144  0.1241265226222527
  0.7225857257599189  0.4445267673530654  0.6263004413089196
  0.3888022932209484  0.9443099763672569  0.1244109456947766
  0.2220659235453016  0.4445083044997259  0.1237104922371103
  0.2221743498131535  0.6111977067788666  0.1244109456947742
  0.5555555555555571  0.4444444444444429  0.1239062628033345
  0.7222243514523483  0.9445076932218877  0.1240331085920681
  0.8891090476211363  0.4445083044997259  0.1237104922371103
  0.0556900236325402  0.6111977067788666  0.6255890543052519
  0.2220659235453016  0.1108909523788336  0.6262895077630647
  0.7225857257599181  0.6113922917401894  0.6263004413089196
  0.5554916955003172  0.1108909523788340  0.6262895077630647
  0.8888888888888857  0.1111111111111143  0.6257325807259190
 
  0.00000000E+00  0.00000000E+00  0.00000000E+00
  0.00000000E+00  0.00000000E+00  0.00000000E+00
  0.00000000E+00  0.00000000E+00  0.00000000E+00
  0.00000000E+00  0.00000000E+00  0.00000000E+00
  0.00000000E+00  0.00000000E+00  0.00000000E+00
  0.00000000E+00  0.00000000E+00  0.00000000E+00
  0.00000000E+00  0.00000000E+00  0.00000000E+00
  0.00000000E+00  0.00000000E+00  0.00000000E+00
  0.00000000E+00  0.00000000E+00  0.00000000E+00
  0.00000000E+00  0.00000000E+00  0.00000000E+00
  0.00000000E+00  0.00000000E+00  0.00000000E+00
  0.00000000E+00  0.00000000E+00  0.00000000E+00
  0.00000000E+00  0.00000000E+00  0.00000000E+00
  0.00000000E+00  0.00000000E+00  0.00000000E+00
  0.00000000E+00  0.00000000E+00  0.00000000E+00
  0.00000000E+00  0.00000000E+00  0.00000000E+00
  0.00000000E+00  0.00000000E+00  0.00000000E+00
  0.00000000E+00  0.00000000E+00  0.00000000E+00
  0.00000000E+00  0.00000000E+00  0.00000000E+00
  0.00000000E+00  0.00000000E+00  0.00000000E+00
  0.00000000E+00  0.00000000E+00  0.00000000E+00
  0.00000000E+00  0.00000000E+00  0.00000000E+00
  0.00000000E+00  0.00000000E+00  0.00000000E+00
  0.00000000E+00  0.00000000E+00  0.00000000E+00
  0.00000000E+00  0.00000000E+00  0.00000000E+00
  0.00000000E+00  0.00000000E+00  0.00000000E+00
  0.00000000E+00  0.00000000E+00  0.00000000E+00
  0.00000000E+00  0.00000000E+00  0.00000000E+00
  0.00000000E+00  0.00000000E+00  0.00000000E+00
  0.00000000E+00  0.00000000E+00  0.00000000E+00
  0.00000000E+00  0.00000000E+00  0.00000000E+00
  0.00000000E+00  0.00000000E+00  0.00000000E+00
  0.00000000E+00  0.00000000E+00  0.00000000E+00
  0.00000000E+00  0.00000000E+00  0.00000000E+00
  0.00000000E+00  0.00000000E+00  0.00000000E+00
  0.00000000E+00  0.00000000E+00  0.00000000E+00
  0.00000000E+00  0.00000000E+00  0.00000000E+00
  0.00000000E+00  0.00000000E+00  0.00000000E+00
  0.00000000E+00  0.00000000E+00  0.00000000E+00
  0.00000000E+00  0.00000000E+00  0.00000000E+00
  0.00000000E+00  0.00000000E+00  0.00000000E+00
  0.00000000E+00  0.00000000E+00  0.00000000E+00
  0.00000000E+00  0.00000000E+00  0.00000000E+00
  0.00000000E+00  0.00000000E+00  0.00000000E+00
  0.00000000E+00  0.00000000E+00  0.00000000E+00
  0.00000000E+00  0.00000000E+00  0.00000000E+00
  0.00000000E+00  0.00000000E+00  0.00000000E+00
  0.00000000E+00  0.00000000E+00  0.00000000E+00
  0.00000000E+00  0.00000000E+00  0.00000000E+00
  0.00000000E+00  0.00000000E+00  0.00000000E+00
  0.00000000E+00  0.00000000E+00  0.00000000E+00
  0.00000000E+00  0.00000000E+00  0.00000000E+00
  0.00000000E+00  0.00000000E+00  0.00000000E+00
  0.00000000E+00  0.00000000E+00  0.00000000E+00
  0.00000000E+00  0.00000000E+00  0.00000000E+00
  0.00000000E+00  0.00000000E+00  0.00000000E+00
  0.00000000E+00  0.00000000E+00  0.00000000E+00
  0.00000000E+00  0.00000000E+00  0.00000000E+00
  0.00000000E+00  0.00000000E+00  0.00000000E+00
  0.00000000E+00  0.00000000E+00  0.00000000E+00
  0.00000000E+00  0.00000000E+00  0.00000000E+00
  0.00000000E+00  0.00000000E+00  0.00000000E+00
  0.00000000E+00  0.00000000E+00  0.00000000E+00
  0.00000000E+00  0.00000000E+00  0.00000000E+00
  0.00000000E+00  0.00000000E+00  0.00000000E+00
  0.00000000E+00  0.00000000E+00  0.00000000E+00
  0.00000000E+00  0.00000000E+00  0.00000000E+00
  0.00000000E+00  0.00000000E+00  0.00000000E+00
  0.00000000E+00  0.00000000E+00  0.00000000E+00
  0.00000000E+00  0.00000000E+00  0.00000000E+00
  0.00000000E+00  0.00000000E+00  0.00000000E+00
  0.00000000E+00  0.00000000E+00  0.00000000E+00
  0.00000000E+00  0.00000000E+00  0.00000000E+00
  0.00000000E+00  0.00000000E+00  0.00000000E+00
  0.00000000E+00  0.00000000E+00  0.00000000E+00
  0.00000000E+00  0.00000000E+00  0.00000000E+00
  0.00000000E+00  0.00000000E+00  0.00000000E+00
  0.00000000E+00  0.00000000E+00  0.00000000E+00
  0.00000000E+00  0.00000000E+00  0.00000000E+00
  0.00000000E+00  0.00000000E+00  0.00000000E+00
  0.00000000E+00  0.00000000E+00  0.00000000E+00
  0.00000000E+00  0.00000000E+00  0.00000000E+00
  0.00000000E+00  0.00000000E+00  0.00000000E+00
  0.00000000E+00  0.00000000E+00  0.00000000E+00
  0.00000000E+00  0.00000000E+00  0.00000000E+00
  0.00000000E+00  0.00000000E+00  0.00000000E+00
  0.00000000E+00  0.00000000E+00  0.00000000E+00
  0.00000000E+00  0.00000000E+00  0.00000000E+00
  0.00000000E+00  0.00000000E+00  0.00000000E+00
  0.00000000E+00  0.00000000E+00  0.00000000E+00
  0.00000000E+00  0.00000000E+00  0.00000000E+00
  0.00000000E+00  0.00000000E+00  0.00000000E+00
  0.00000000E+00  0.00000000E+00  0.00000000E+00
  0.00000000E+00  0.00000000E+00  0.00000000E+00
  0.00000000E+00  0.00000000E+00  0.00000000E+00
  0.00000000E+00  0.00000000E+00  0.00000000E+00
  0.00000000E+00  0.00000000E+00  0.00000000E+00
  0.00000000E+00  0.00000000E+00  0.00000000E+00
  0.00000000E+00  0.00000000E+00  0.00000000E+00
  0.00000000E+00  0.00000000E+00  0.00000000E+00
  0.00000000E+00  0.00000000E+00  0.00000000E+00
  0.00000000E+00  0.00000000E+00  0.00000000E+00
  0.00000000E+00  0.00000000E+00  0.00000000E+00
  0.00000000E+00  0.00000000E+00  0.00000000E+00
  0.00000000E+00  0.00000000E+00  0.00000000E+00
  0.00000000E+00  0.00000000E+00  0.00000000E+00
  0.00000000E+00  0.00000000E+00  0.00000000E+00
  0.00000000E+00  0.00000000E+00  0.00000000E+00
  0.00000000E+00  0.00000000E+00  0.00000000E+00
  0.00000000E+00  0.00000000E+00  0.00000000E+00
  0.00000000E+00  0.00000000E+00  0.00000000E+00
  0.00000000E+00  0.00000000E+00  0.00000000E+00
  0.00000000E+00  0.00000000E+00  0.00000000E+00
  0.00000000E+00  0.00000000E+00  0.00000000E+00
  0.00000000E+00  0.00000000E+00  0.00000000E+00
  0.00000000E+00  0.00000000E+00  0.00000000E+00
  0.00000000E+00  0.00000000E+00  0.00000000E+00
  0.00000000E+00  0.00000000E+00  0.00000000E+00
  0.00000000E+00  0.00000000E+00  0.00000000E+00
  0.00000000E+00  0.00000000E+00  0.00000000E+00
  0.00000000E+00  0.00000000E+00  0.00000000E+00
  0.00000000E+00  0.00000000E+00  0.00000000E+00
  0.00000000E+00  0.00000000E+00  0.00000000E+00
  0.00000000E+00  0.00000000E+00  0.00000000E+00
  0.00000000E+00  0.00000000E+00  0.00000000E+00
  0.00000000E+00  0.00000000E+00  0.00000000E+00
  0.00000000E+00  0.00000000E+00  0.00000000E+00
  0.00000000E+00  0.00000000E+00  0.00000000E+00
  0.00000000E+00  0.00000000E+00  0.00000000E+00
  0.00000000E+00  0.00000000E+00  0.00000000E+00
  0.00000000E+00  0.00000000E+00  0.00000000E+00
  0.00000000E+00  0.00000000E+00  0.00000000E+00
  0.00000000E+00  0.00000000E+00  0.00000000E+00
  0.00000000E+00  0.00000000E+00  0.00000000E+00
  0.00000000E+00  0.00000000E+00  0.00000000E+00
  0.00000000E+00  0.00000000E+00  0.00000000E+00
  0.00000000E+00  0.00000000E+00  0.00000000E+00
  0.00000000E+00  0.00000000E+00  0.00000000E+00
  0.00000000E+00  0.00000000E+00  0.00000000E+00
  0.00000000E+00  0.00000000E+00  0.00000000E+00
  0.00000000E+00  0.00000000E+00  0.00000000E+00
  0.00000000E+00  0.00000000E+00  0.00000000E+00
  0.00000000E+00  0.00000000E+00  0.00000000E+00
  0.00000000E+00  0.00000000E+00  0.00000000E+00
  0.00000000E+00  0.00000000E+00  0.00000000E+00
  0.00000000E+00  0.00000000E+00  0.00000000E+00
  0.00000000E+00  0.00000000E+00  0.00000000E+00
  0.00000000E+00  0.00000000E+00  0.00000000E+00
  0.00000000E+00  0.00000000E+00  0.00000000E+00
  0.00000000E+00  0.00000000E+00  0.00000000E+00
  0.00000000E+00  0.00000000E+00  0.00000000E+00
  0.00000000E+00  0.00000000E+00  0.00000000E+00
  0.00000000E+00  0.00000000E+00  0.00000000E+00
  0.00000000E+00  0.00000000E+00  0.00000000E+00
  0.00000000E+00  0.00000000E+00  0.00000000E+00
  0.00000000E+00  0.00000000E+00  0.00000000E+00
  0.00000000E+00  0.00000000E+00  0.00000000E+00
  0.00000000E+00  0.00000000E+00  0.00000000E+00
  0.00000000E+00  0.00000000E+00  0.00000000E+00
  0.00000000E+00  0.00000000E+00  0.00000000E+00
  0.00000000E+00  0.00000000E+00  0.00000000E+00
  0.00000000E+00  0.00000000E+00  0.00000000E+00
  0.00000000E+00  0.00000000E+00  0.00000000E+00
  0.00000000E+00  0.00000000E+00  0.00000000E+00
  0.00000000E+00  0.00000000E+00  0.00000000E+00
  0.00000000E+00  0.00000000E+00  0.00000000E+00
  0.00000000E+00  0.00000000E+00  0.00000000E+00
  0.00000000E+00  0.00000000E+00  0.00000000E+00
  0.00000000E+00  0.00000000E+00  0.00000000E+00
  0.00000000E+00  0.00000000E+00  0.00000000E+00
  0.00000000E+00  0.00000000E+00  0.00000000E+00
  0.00000000E+00  0.00000000E+00  0.00000000E+00
  0.00000000E+00  0.00000000E+00  0.00000000E+00
  0.00000000E+00  0.00000000E+00  0.00000000E+00
  0.00000000E+00  0.00000000E+00  0.00000000E+00
  0.00000000E+00  0.00000000E+00  0.00000000E+00
  0.00000000E+00  0.00000000E+00  0.00000000E+00
  0.00000000E+00  0.00000000E+00  0.00000000E+00
  0.00000000E+00  0.00000000E+00  0.00000000E+00
  0.00000000E+00  0.00000000E+00  0.00000000E+00
  0.00000000E+00  0.00000000E+00  0.00000000E+00
  0.00000000E+00  0.00000000E+00  0.00000000E+00
  0.00000000E+00  0.00000000E+00  0.00000000E+00
  0.00000000E+00  0.00000000E+00  0.00000000E+00
  0.00000000E+00  0.00000000E+00  0.00000000E+00
  0.00000000E+00  0.00000000E+00  0.00000000E+00
  0.00000000E+00  0.00000000E+00  0.00000000E+00
  0.00000000E+00  0.00000000E+00  0.00000000E+00
  0.00000000E+00  0.00000000E+00  0.00000000E+00
  0.00000000E+00  0.00000000E+00  0.00000000E+00
  0.00000000E+00  0.00000000E+00  0.00000000E+00
  0.00000000E+00  0.00000000E+00  0.00000000E+00
  0.00000000E+00  0.00000000E+00  0.00000000E+00
  0.00000000E+00  0.00000000E+00  0.00000000E+00
  0.00000000E+00  0.00000000E+00  0.00000000E+00
  0.00000000E+00  0.00000000E+00  0.00000000E+00
  0.00000000E+00  0.00000000E+00  0.00000000E+00
  0.00000000E+00  0.00000000E+00  0.00000000E+00
  0.00000000E+00  0.00000000E+00  0.00000000E+00
  0.00000000E+00  0.00000000E+00  0.00000000E+00
  0.00000000E+00  0.00000000E+00  0.00000000E+00
  0.00000000E+00  0.00000000E+00  0.00000000E+00
  0.00000000E+00  0.00000000E+00  0.00000000E+00
  0.00000000E+00  0.00000000E+00  0.00000000E+00
  0.00000000E+00  0.00000000E+00  0.00000000E+00
  0.00000000E+00  0.00000000E+00  0.00000000E+00
  0.00000000E+00  0.00000000E+00  0.00000000E+00
  0.00000000E+00  0.00000000E+00  0.00000000E+00
  0.00000000E+00  0.00000000E+00  0.00000000E+00
  0.00000000E+00  0.00000000E+00  0.00000000E+00
  0.00000000E+00  0.00000000E+00  0.00000000E+00
  0.00000000E+00  0.00000000E+00  0.00000000E+00
  0.00000000E+00  0.00000000E+00  0.00000000E+00
  0.00000000E+00  0.00000000E+00  0.00000000E+00
  0.00000000E+00  0.00000000E+00  0.00000000E+00
  0.00000000E+00  0.00000000E+00  0.00000000E+00
  0.00000000E+00  0.00000000E+00  0.00000000E+00
  0.00000000E+00  0.00000000E+00  0.00000000E+00
  0.00000000E+00  0.00000000E+00  0.00000000E+00
  0.00000000E+00  0.00000000E+00  0.00000000E+00
  0.00000000E+00  0.00000000E+00  0.00000000E+00
  0.00000000E+00  0.00000000E+00  0.00000000E+00
  0.00000000E+00  0.00000000E+00  0.00000000E+00
  0.00000000E+00  0.00000000E+00  0.00000000E+00
  0.00000000E+00  0.00000000E+00  0.00000000E+00
  0.00000000E+00  0.00000000E+00  0.00000000E+00
  0.00000000E+00  0.00000000E+00  0.00000000E+00
  0.00000000E+00  0.00000000E+00  0.00000000E+00
  0.00000000E+00  0.00000000E+00  0.00000000E+00
  0.00000000E+00  0.00000000E+00  0.00000000E+00
  0.00000000E+00  0.00000000E+00  0.00000000E+00
  0.00000000E+00  0.00000000E+00  0.00000000E+00
  0.00000000E+00  0.00000000E+00  0.00000000E+00
  0.00000000E+00  0.00000000E+00  0.00000000E+00
  0.00000000E+00  0.00000000E+00  0.00000000E+00
  0.00000000E+00  0.00000000E+00  0.00000000E+00
  0.00000000E+00  0.00000000E+00  0.00000000E+00
  0.00000000E+00  0.00000000E+00  0.00000000E+00
  0.00000000E+00  0.00000000E+00  0.00000000E+00
  0.00000000E+00  0.00000000E+00  0.00000000E+00
  0.00000000E+00  0.00000000E+00  0.00000000E+00
  0.00000000E+00  0.00000000E+00  0.00000000E+00
  0.00000000E+00  0.00000000E+00  0.00000000E+00
  0.00000000E+00  0.00000000E+00  0.00000000E+00
  0.00000000E+00  0.00000000E+00  0.00000000E+00
  0.00000000E+00  0.00000000E+00  0.00000000E+00
  0.00000000E+00  0.00000000E+00  0.00000000E+00