 N B Ga 
 1.0
 14.936314146199660   0.000000000000000   0.000000000000000
 -7.468157073099825  12.935227489513863   0.000000000000000
  0.000000000000001   0.000000000000001  13.341276283792837
 N B Ga 
 143 144   1
Cartesian
  1.245062761010844   0.718379693872981   1.659626234570990 
  4.978771382065282   7.186251945411328   1.677983999559093 
  6.223212110251596   0.718383977065343   1.659310051214643 
  9.957624354415881   7.186575720361996   1.659310051214643 
 11.202026475300913   0.718503005644503   1.662220116147930 
 -3.733929426588712   9.342194831101180   8.335647026598194 
  1.244359137901636   9.342010288590856   8.346647161630958 
  2.489662856258738   2.874398307364852   8.348966419992005 
  6.223686546457138   9.341917055451580   8.348966419992005 
  7.467879907874122   2.874398307364852   8.348966419992005 
 12.446928455166910   2.874736485216078   8.343737096696472 
 -1.244841955476753   9.342194831101180   1.670310186247248 
  0.000276995631689   2.874654921171704   1.658597126906207 
  4.978771382066012   2.874582293276903   1.659720334514061 
  3.733856217677324   9.341917055451580   1.656990792853024 
  8.713183626228332   9.342010288590856   1.659310051214643 
  9.957265768499827   2.874654921171704   1.658597126906207 
 -4.978422200254218  11.497778390466483   8.340443321733003 
 -0.000349181812529  11.497778390466483   8.340443321733003 
  1.244747691868339   5.030654623201999   8.348966419992017 
  6.223476742720263   5.030359020303545   8.327973213286121 
  4.978771382062648  11.497660143677402   8.347360085938353 
 11.202262010203507   5.030808629909557   8.346330978273091 
 -1.244719246070995   5.030808629909569   1.659626234570990 
 -2.489385691033240  11.497807813326595   1.670310186247355 
  2.488989374986154  11.497781662235724   1.659626234570990 
  3.734066021411421   5.030359020303544   1.677983999558973 
  7.468553389147969  11.497781662235724   1.659626234570990 
  8.712795072263535   5.030654623201998   1.656990792853024 
 -0.000081590281164   7.186575720361997   8.346647161630958 
  1.245062761010844   0.718379693872981   8.346330978273091 
  4.978771382065283   7.186251945411329   8.327973213286109 
  6.223212110251588   0.718383977065357   8.346647161630958 
  9.957624354415881   7.186575720361997   8.346647161630958 
 -2.489385691033323   7.186640694601980   1.665513891111810 
 11.202026475300913   0.718503005644504   8.343737096696472 
  3.734330653881233   0.718383977065369   1.659310051214643 
  2.489461291244557   7.186193846373589   1.659720334514061 
  7.468081472885829   7.186193846373589   1.659720334514101 
  8.712480003123524   0.718379693872981   1.659626234570990 
  2.489461291244557   7.186193846373590   8.346236878332968 
 13.691830435033234   0.718503005644503   1.662220116147930 
 -1.244841955476752   9.342194831101180   8.335647026598194 
  0.000276995631690   2.874654921171705   8.347360085938353 
  4.978771382066013   2.874582293276903   8.346236878332954 
  3.733856217677324   9.341917055451580   8.348966419992005 
  8.713183626228332   9.342010288590856   8.346647161630958 
  9.957265768499827   2.874654921171705   8.347360085938353 
 -3.733929426588713   9.342194831101180   1.670310186247355 
  1.244359137901635   9.342010288590856   1.659310051214643 
  2.489662856258745   2.874398307364839   1.656990792853024 
  6.223686546457137   9.341917055451580   1.656990792853024 
  7.467879907874129   2.874398307364839   1.656990792853024 
 12.446928455166910   2.874736485216077   1.662220116147930 
 -1.244719246070994   5.030808629909570   8.346330978273091 
 -2.489385691033239  11.497807813326595   8.335647026598194 
  2.488989374986155  11.497781662235724   8.346330978273091 
  3.734066021411421   5.030359020303545   8.327973213286109 
  7.468553389147970  11.497781662235724   8.346330978273091 
 -4.978422200254219  11.497778390466483   1.665513891111810 
  8.712795072263535   5.030654623201999   8.348966419992632 
 -0.000349181812529  11.497778390466483   1.665513891111810 
  1.244747691868339   5.030654623201998   1.656990792853024 
 -0.000081590281179   7.186575720361996   1.659310051214643 
  6.223476742720262   5.030359020303544   1.677983999558920 
  4.978771382062954  11.497660143676871   1.658597126906207 
 11.202262010203507   5.030808629909556   1.659626234570990 
 -2.489385691033323   7.186640694601981   8.340443321733003 
  3.734330653881241   0.718383977065357   8.346647161630958 
  7.468081472885830   7.186193846373590   8.346236878332968 
  8.712480003123524   0.718379693872981   8.346330978273091 
 13.691830435033234   0.718503005644504   8.343737096696472 
 -0.010819451248967   1.428583994444965   5.002978606422314 
  3.665291279655813   8.012412622106641   5.002978606422314 
  4.978771382066182   1.406586838058673   5.002978606422314 
  8.739402829747062   7.920191573978973   5.002978606422314 
  9.968362215382902   1.428583994444965   5.002978606422314 
 -4.978943721398478  10.060702707433391  11.673616748318732 
  0.000172339330222  10.060702707433391  11.673616748318732 
  1.244847708620253   3.593208157342155  11.673616748318732 
  4.978771382066187  10.060553671334201  11.673616748318732 
  6.223393606032297   3.593382608078193  11.673616748318732 
 11.202179832189726   3.593155767736734  11.673616748318732 
 -2.489385691033300  10.060732491844131   5.002978606422314 
 -1.257605386028167   3.588080579644811   5.002978606422314 
  3.675329938990775   3.479771545903621   5.002978606422314 
  2.457271063874249  10.106093868082265   5.002978606422314 
  7.500271700256787  10.106093868082279   5.002978606422314 
  8.749922245170627   3.571715029370656   5.002978606422314 
 -6.223499940487063  12.216624358951423  11.673616748318732 
 -1.244632469909140  12.216767882542063  11.673616748318732 
  0.000200770771716   5.748934072611156  11.673616748318732 
  4.978771382066590   5.748989995339477  11.673616748318732 
  3.734074364457086  12.216536925077122  11.673616748318732 
  9.957341993360131   5.748934072611156  11.673616748318732 
 -2.489385691033771   5.753115061838347   5.002978606422314 
 -3.732689497000515  12.204589154701685   5.002978606422314 
  1.241120433138308  12.214541206847601   5.002978606422314 
  2.361849836580186   5.754785818009550   5.002978606422314 
  6.225557316847219  12.230305411927114   5.002978606422314 
  7.595692927551049   5.754785818009550   5.002978606422314 
 -1.244580881794446   7.904726885557772  11.673616748318732 
  0.000059949552541   1.437277293207125  11.673616748318732 
  3.734271736098158   7.904668153035054  11.673616748318732 
  4.978771382066169   1.437629724831076  11.673616748318732 
  8.712518901193917   7.904670130594570  11.673616748318732 
 -3.724368120156501   7.912071479825770   5.002978606422314 
  9.957482814582050   1.437277293207125  11.673616748318732 
  2.466158900439628   1.386754727764909   5.002978606422314 
  1.218139934387579   7.920191573978973   5.002978606422314 
  6.292251484475955   8.012412622106654   5.002978606422314 
  7.491383863692072   1.386754727764922   5.002978606422314 
  1.245023862938454   7.904670130594570  11.673616748318732 
 12.446928455166319   1.437247498834912   5.002978606422314 
 -2.489385691033299  10.060732491844133  11.673616748318732 
 -1.244637068057240   3.593155767736734  11.673616748318732 
  3.734149158102611   3.593382608078193  11.673616748318732 
  2.489534506920568  10.060586580620255  11.673616748318732 
  7.468008257208971  10.060586580620255  11.673616748318732 
  8.712695055511787   3.593208157342155  11.673616748318732 
 -4.967671926124076  10.065536841005381   5.002978606422314 
 -0.011099455942807  10.065536841005381   5.002978606422314 
  1.207620518962339   3.571715029370656   5.002978606422314 
  4.978771382064806  10.103539927277208   5.002978606422314 
  6.282212825141563   3.479771545903621   5.002978606422314 
 11.215148150162641   3.588080579644811   5.002978606422314 
 -2.489385691032442   5.748948757629049  11.673616748318732 
 -3.734138912160010  12.216767882542063  11.673616748318732 
  1.244728558421706  12.216624358951423  11.673616748318732 
  2.489649512130305   5.748919224903723  11.673616748318732 
  6.223468399674543  12.216536925077122  11.673616748318732 
 -6.219891815203725  12.214541206847601   5.002978606422314 
  7.467893251998915   5.748919224903723  11.673616748318732 
 -1.246081885065775  12.204589154701697   5.002978606422314 
 -0.055341417750433   5.754121390171216   5.002978606422314 
 -1.254403261909697   7.912071479825770   5.002978606422314 
  3.731985447288280  12.230305411927114   5.002978606422314 
 10.012884181884534   5.754121390171216   5.002978606422314 
 -3.734190500272289   7.904726885557772  11.673616748318732 
  2.489437645915529   1.437449332788056  11.673616748318732 
  6.223271028037052   7.904668153035054  11.673616748318732 
  7.468105118215541   1.437449332788056  11.673616748318732 
 12.446928455166319   1.437247498834912  11.673616748318732 
  1.219660771518029   0.695628055005189   5.002978606422314 
  4.978771382068635   7.624775236992464   5.002978606422314 
  6.233970279080347   0.687917992861819   5.002978606422314 
  9.989387755099816   7.192491864963482   5.002978606422314 
 11.209880505463335   0.723037532074544   5.002978606422314 
 -3.733983302780874   9.342163725669169  11.673616748318732 
  1.244501419426969   9.342549615896026  11.673616748318732 
  2.488578315605980   2.873857035062858  11.673616748318732 
  6.223613031691920   9.343126931360908  11.673616748318732 
  7.468964448526137   2.873857035062858  11.673616748318732 
 12.446928455165491   2.874250437969657  11.673616748318732 
 -1.252163585987588   9.346421976448596   5.002978606422314 
 -0.034983216810207   2.854297428028157   5.002978606422314 
  4.978771382066677   2.807923857332626   5.002978606422314 
  3.695855218194634   9.457090898283909   5.002978606422314 
  8.734188858086668   9.366560128194683   5.002978606422314 
  9.992525980942366   2.854297428028157   5.002978606422314 
 -4.978883200885741  11.498044549305190  11.673616748318732 
  0.000111818816977  11.498044549305190  11.673616748318732 
  1.243736665978956   5.029986019594731  11.673616748318732 
  6.224249665004916   5.029912773415886  11.673616748318732 
  4.978771382069715  11.498757091208585  11.673616748318732 
 11.202667169890580   5.030067302609750  11.673616748318732 
 -1.277123738054579   5.020185681135918   5.002978606422314 
 -2.489385691033231  11.489353522634984   5.002978606422314 
  2.481986872495094  11.531156249877206   5.002978606422314 
  3.354293710749192   4.811097374512983   5.002978606422314 
  7.475555891642075  11.531156249877206   5.002978606422314 
  8.831539045747521   5.005977532706463   5.002978606422314 
 -0.000477520668318   7.186182837295759  11.673616748318732 
  1.244218172894238   0.718399478942052  11.673616748318732 
  4.978771382067785   7.187144439186659  11.673616748318732 
  6.223750322162628   0.718237532826222  11.673616748318732 
  9.958020284799375   7.186182837295759  11.673616748318732 
 -2.489385691033606   7.188225782263872   5.002978606422314 
 11.202447404562230   0.718746029267482  11.673616748318732 
  3.723572485052198   0.687917992861793   5.002978606422314 
  2.431733392341922   7.219523064344054   5.002978606422314 
  7.525809371789746   7.219523064344054   5.002978606422314 
  8.737881992616188   0.695628055005189   5.002978606422314 
  2.488787598132713   7.186582803269796  11.673616748318732 
 13.683976404869034   0.723037532074544   5.002978606422314 
 -1.244788079286114   9.342163725669169  11.673616748318732 
 -0.000672988801263   2.874106447403993  11.673616748318732 
  4.978771382065908   2.873804379474869  11.673616748318732 
  3.733929732438141   9.343126931360908  11.673616748318732 
  8.713041344702955   9.342549615896026  11.673616748318732 
  9.958215752936738   2.874106447403993  11.673616748318732 
 -3.726607796077548   9.346421976448596   5.002978606422314 
  1.223353906045525   9.366560128194683   5.002978606422314 
  2.408919882254817   2.783901555029145   5.002978606422314 
  6.261687545937822   9.457090898283948   5.002978606422314 
  7.548622881876080   2.783901555029158   5.002978606422314 
 12.446928455168051   2.865667432355569   5.002978606422314 
 -1.245124405756538   5.030067302609750  11.673616748318732 
 -2.489385691033232  11.497870024194077  11.673616748318732 
  2.489428803414977  11.498503204465312  11.673616748318732 
  3.733293099129083   5.029912773415886  11.673616748318732 
  7.468113960718458  11.498503204465312  11.673616748318732 
 -4.977049474071079  11.496985846633802   5.002978606422314 
  8.713806098152890   5.029986019594731  11.673616748318732 
 -0.001721907994532  11.496985846633802   5.002978606422314 
  1.126003718383041   5.005977532706463   5.002978606422314 
 -0.031844990969492   7.192491864963482   5.002978606422314 
  6.603249053384044   4.811097374512983   5.002978606422314 
  4.978771382066134  11.538375129963939   5.002978606422314 
 11.234666502190461   5.020185681135918   5.002978606422314 
 -2.489385691033950   7.186108376925656  11.673616748318732 
  3.733792441970919   0.718237532826222  11.673616748318732 
  7.468755166003349   7.186582803269796  11.673616748318732 
  8.713324591237875   0.718399478942052  11.673616748318732 
 13.691409505769109   0.718746029267482  11.673616748318732 
 -0.000488253227567   1.436456903584615   1.654759970064458 
  3.730749034620406   7.908498378994573   1.650309988680078 
  4.978771382065996   1.433087088252997   1.649321450849086 
  8.716452939871118   7.906941448883447   1.649321450849086 
  9.958031017363705   1.436456903584628   1.654759970064458 
 -4.977120443295148  10.061351732343608   8.346156413603047 
 -0.001650938769136  10.061351732343608   8.346156413603047 
  1.242373026159191   3.591779398755695   8.357653117428399 
  4.978771382065112  10.063411188507116   8.357653117428399 
  6.224949328273687   3.588416746133848   8.355647224163683 
 11.203164411833681   3.593091205013368   8.351197242778182 
 -2.489385691033300  10.060732491844131   1.666628185009619 
 -1.245621647701045   3.593091205013367   1.654759970064458 
  3.732593435858845   3.588416746133847   1.650309988680039 
  2.487264594117033  10.062754250786830   1.650455856139293 
  7.470278170016893  10.062754250786830   1.650455856139293 
  8.715169737974207   3.591779398755695   1.648304095418150 
 -6.222776296522478  12.216206562912792   8.349950980394022 
 -1.244982036894930  12.214864364927903   8.346156413603047 
 -0.002811443062697   5.749816039682056   8.355501356707670 
  4.978771382066590   5.748989995339477   8.352889527494160 
  3.733637987595338  12.217421877421092   8.351197242778182 
  9.960354207196440   5.749816039682056   8.355501356707670 
 -2.489385691033189   5.749784349704989   1.656006232449939 
 -3.733789345168935  12.214864364927930   1.659800799241927 
  1.244004914455775  12.216206562912792   1.656006232449939 
  2.484571088413775   5.750054860890100   1.650309988680065 
  6.223904776538769  12.217421877421092   1.654759970064458 
  7.472971675719819   5.750054860890100   1.650309988680052 
 -1.246054592906064   7.905981378253835   8.346156413603047 
 -0.000488253227574   1.436456903584629   8.351197242778182 
  3.730749034620406   7.908498378994574   8.355647224163683 
  4.978771382065937   1.433087088253101   8.356635761993420 
  8.716452939871118   7.906941448883448   8.356635761993420 
 -3.732716789158088   7.905981378253834   1.659800799241927 
  9.958031017363705   1.436456903584629   8.351197242778182 
  2.488695344887776   1.434399695549067   1.650455856139293 
  1.241089824261599   7.906941448883447   1.649321450849086 
  6.226793729511622   7.908498378994573   1.650309988680078 
  7.468847419247053   1.434399695549067   1.650455856139293 
  1.241089824261600   7.906941448883448   8.356635761993420 
 12.446928455166319   1.437247498834911   1.657885973610812 
 -2.489385691033300  10.060732491844131   8.339329027836422 
 -1.245621647701044   3.593091205013368   8.351197242778182 
  3.732593435858853   3.588416746133835   8.355647224163683 
  2.487264594117033  10.062754250786830   8.355501356707670 
  7.470278170016894  10.062754250786830   8.355501356707670 
  8.715169737974207   3.591779398755695   8.357653117428399 
 -4.977120443295149  10.061351732343608   1.659800799241967 
 -0.001650938769137  10.061351732343608   1.659800799241927 
  1.242373026159191   3.591779398755695   1.648304095418190 
  4.978771382065111  10.063411188507116   1.648304095418150 
  6.224949328273686   3.588416746133847   1.650309988680092 
 11.203164411833681   3.593091205013367   1.654759970064458 
 -2.489385691033204   5.749784349704990   8.349950980394022 
 -3.733789345168919  12.214864364927903   8.346156413603047 
  1.244004914455775  12.216206562912792   8.349950980394022 
  2.484571088413776   5.750054860890101   8.355647224163683 
  6.223904776538770  12.217421877421092   8.351197242778182 
 -6.222776296522464  12.216206562912792   1.656006232449939 
  7.472971675719834   5.750054860890101   8.355647224163683 
 -1.244982036894945  12.214864364927930   1.659800799241967 
 -0.002811443062653   5.749816039682055   1.650455856139293 
 -1.246054592906064   7.905981378253834   1.659800799241927 
  4.978771382066589   5.748989995339476   1.653067685351522 
  3.733637987595338  12.217421877421092   1.654759970064458 
  9.960354207196440   5.749816039682055   1.650455856139293 
 -3.732716789158087   7.905981378253835   8.346156413603047 
  2.488695344887822   1.434399695549067   8.355501356707670 
  6.226793729511608   7.908498378994574   8.355647224163683 
  7.468847419247054   1.434399695549067   8.355501356707670 
 12.446928455166319   1.437247498834912   8.348071239235189 
  4.978771382066589   5.748989995339477   5.002978606422314 
Generated by cif2cell 2.0.0.  :  Failed to get author information, No journal information. Species order: N B Ga 
 1.0
 14.936314146199660   0.000000000000000   0.000000000000000
 -7.468157073099825  12.935227489513863   0.000000000000000
  0.000000000000001   0.000000000000001  13.341276283792837
 N B Ga 
 143 144   1
Cartesian
  1.245062761010844   0.718379693872981   1.659626234570990 
  4.978771382065282   7.186251945411328   1.677983999559093 
  6.223212110251596   0.718383977065343   1.659310051214643 
  9.957624354415881   7.186575720361996   1.659310051214643 
 11.202026475300913   0.718503005644503   1.662220116147930 
 -3.733929426588712   9.342194831101180   8.335647026598194 
  1.244359137901636   9.342010288590856   8.346647161630958 
  2.489662856258738   2.874398307364852   8.348966419992005 
  6.223686546457138   9.341917055451580   8.348966419992005 
  7.467879907874122   2.874398307364852   8.348966419992005 
 12.446928455166910   2.874736485216078   8.343737096696472 
 -1.244841955476753   9.342194831101180   1.670310186247248 
  0.000276995631689   2.874654921171704   1.658597126906207 
  4.978771382066012   2.874582293276903   1.659720334514061 
  3.733856217677324   9.341917055451580   1.656990792853024 
  8.713183626228332   9.342010288590856   1.659310051214643 
  9.957265768499827   2.874654921171704   1.658597126906207 
 -4.978422200254218  11.497778390466483   8.340443321733003 
 -0.000349181812529  11.497778390466483   8.340443321733003 
  1.244747691868339   5.030654623201999   8.348966419992017 
  6.223476742720263   5.030359020303545   8.327973213286121 
  4.978771382062648  11.497660143677402   8.347360085938353 
 11.202262010203507   5.030808629909557   8.346330978273091 
 -1.244719246070995   5.030808629909569   1.659626234570990 
 -2.489385691033240  11.497807813326595   1.670310186247355 
  2.488989374986154  11.497781662235724   1.659626234570990 
  3.734066021411421   5.030359020303544   1.677983999558973 
  7.468553389147969  11.497781662235724   1.659626234570990 
  8.712795072263535   5.030654623201998   1.656990792853024 
 -0.000081590281164   7.186575720361997   8.346647161630958 
  1.245062761010844   0.718379693872981   8.346330978273091 
  4.978771382065283   7.186251945411329   8.327973213286109 
  6.223212110251588   0.718383977065357   8.346647161630958 
  9.957624354415881   7.186575720361997   8.346647161630958 
 -2.489385691033323   7.186640694601980   1.665513891111810 
 11.202026475300913   0.718503005644504   8.343737096696472 
  3.734330653881233   0.718383977065369   1.659310051214643 
  2.489461291244557   7.186193846373589   1.659720334514061 
  7.468081472885829   7.186193846373589   1.659720334514101 
  8.712480003123524   0.718379693872981   1.659626234570990 
  2.489461291244557   7.186193846373590   8.346236878332968 
 13.691830435033234   0.718503005644503   1.662220116147930 
 -1.244841955476752   9.342194831101180   8.335647026598194 
  0.000276995631690   2.874654921171705   8.347360085938353 
  4.978771382066013   2.874582293276903   8.346236878332954 
  3.733856217677324   9.341917055451580   8.348966419992005 
  8.713183626228332   9.342010288590856   8.346647161630958 
  9.957265768499827   2.874654921171705   8.347360085938353 
 -3.733929426588713   9.342194831101180   1.670310186247355 
  1.244359137901635   9.342010288590856   1.659310051214643 
  2.489662856258745   2.874398307364839   1.656990792853024 
  6.223686546457137   9.341917055451580   1.656990792853024 
  7.467879907874129   2.874398307364839   1.656990792853024 
 12.446928455166910   2.874736485216077   1.662220116147930 
 -1.244719246070994   5.030808629909570   8.346330978273091 
 -2.489385691033239  11.497807813326595   8.335647026598194 
  2.488989374986155  11.497781662235724   8.346330978273091 
  3.734066021411421   5.030359020303545   8.327973213286109 
  7.468553389147970  11.497781662235724   8.346330978273091 
 -4.978422200254219  11.497778390466483   1.665513891111810 
  8.712795072263535   5.030654623201999   8.348966419992632 
 -0.000349181812529  11.497778390466483   1.665513891111810 
  1.244747691868339   5.030654623201998   1.656990792853024 
 -0.000081590281179   7.186575720361996   1.659310051214643 
  6.223476742720262   5.030359020303544   1.677983999558920 
  4.978771382062954  11.497660143676871   1.658597126906207 
 11.202262010203507   5.030808629909556   1.659626234570990 
 -2.489385691033323   7.186640694601981   8.340443321733003 
  3.734330653881241   0.718383977065357   8.346647161630958 
  7.468081472885830   7.186193846373590   8.346236878332968 
  8.712480003123524   0.718379693872981   8.346330978273091 
 13.691830435033234   0.718503005644504   8.343737096696472 
 -0.010819451248967   1.428583994444965   5.002978606422314 
  3.665291279655813   8.012412622106641   5.002978606422314 
  4.978771382066182   1.406586838058673   5.002978606422314 
  8.739402829747062   7.920191573978973   5.002978606422314 
  9.968362215382902   1.428583994444965   5.002978606422314 
 -4.978943721398478  10.060702707433391  11.673616748318732 
  0.000172339330222  10.060702707433391  11.673616748318732 
  1.244847708620253   3.593208157342155  11.673616748318732 
  4.978771382066187  10.060553671334201  11.673616748318732 
  6.223393606032297   3.593382608078193  11.673616748318732 
 11.202179832189726   3.593155767736734  11.673616748318732 
 -2.489385691033300  10.060732491844131   5.002978606422314 
 -1.257605386028167   3.588080579644811   5.002978606422314 
  3.675329938990775   3.479771545903621   5.002978606422314 
  2.457271063874249  10.106093868082265   5.002978606422314 
  7.500271700256787  10.106093868082279   5.002978606422314 
  8.749922245170627   3.571715029370656   5.002978606422314 
 -6.223499940487063  12.216624358951423  11.673616748318732 
 -1.244632469909140  12.216767882542063  11.673616748318732 
  0.000200770771716   5.748934072611156  11.673616748318732 
  4.978771382066590   5.748989995339477  11.673616748318732 
  3.734074364457086  12.216536925077122  11.673616748318732 
  9.957341993360131   5.748934072611156  11.673616748318732 
 -2.489385691033771   5.753115061838347   5.002978606422314 
 -3.732689497000515  12.204589154701685   5.002978606422314 
  1.241120433138308  12.214541206847601   5.002978606422314 
  2.361849836580186   5.754785818009550   5.002978606422314 
  6.225557316847219  12.230305411927114   5.002978606422314 
  7.595692927551049   5.754785818009550   5.002978606422314 
 -1.244580881794446   7.904726885557772  11.673616748318732 
  0.000059949552541   1.437277293207125  11.673616748318732 
  3.734271736098158   7.904668153035054  11.673616748318732 
  4.978771382066169   1.437629724831076  11.673616748318732 
  8.712518901193917   7.904670130594570  11.673616748318732 
 -3.724368120156501   7.912071479825770   5.002978606422314 
  9.957482814582050   1.437277293207125  11.673616748318732 
  2.466158900439628   1.386754727764909   5.002978606422314 
  1.218139934387579   7.920191573978973   5.002978606422314 
  6.292251484475955   8.012412622106654   5.002978606422314 
  7.491383863692072   1.386754727764922   5.002978606422314 
  1.245023862938454   7.904670130594570  11.673616748318732 
 12.446928455166319   1.437247498834912   5.002978606422314 
 -2.489385691033299  10.060732491844133  11.673616748318732 
 -1.244637068057240   3.593155767736734  11.673616748318732 
  3.734149158102611   3.593382608078193  11.673616748318732 
  2.489534506920568  10.060586580620255  11.673616748318732 
  7.468008257208971  10.060586580620255  11.673616748318732 
  8.712695055511787   3.593208157342155  11.673616748318732 
 -4.967671926124076  10.065536841005381   5.002978606422314 
 -0.011099455942807  10.065536841005381   5.002978606422314 
  1.207620518962339   3.571715029370656   5.002978606422314 
  4.978771382064806  10.103539927277208   5.002978606422314 
  6.282212825141563   3.479771545903621   5.002978606422314 
 11.215148150162641   3.588080579644811   5.002978606422314 
 -2.489385691032442   5.748948757629049  11.673616748318732 
 -3.734138912160010  12.216767882542063  11.673616748318732 
  1.244728558421706  12.216624358951423  11.673616748318732 
  2.489649512130305   5.748919224903723  11.673616748318732 
  6.223468399674543  12.216536925077122  11.673616748318732 
 -6.219891815203725  12.214541206847601   5.002978606422314 
  7.467893251998915   5.748919224903723  11.673616748318732 
 -1.246081885065775  12.204589154701697   5.002978606422314 
 -0.055341417750433   5.754121390171216   5.002978606422314 
 -1.254403261909697   7.912071479825770   5.002978606422314 
  3.731985447288280  12.230305411927114   5.002978606422314 
 10.012884181884534   5.754121390171216   5.002978606422314 
 -3.734190500272289   7.904726885557772  11.673616748318732 
  2.489437645915529   1.437449332788056  11.673616748318732 
  6.223271028037052   7.904668153035054  11.673616748318732 
  7.468105118215541   1.437449332788056  11.673616748318732 
 12.446928455166319   1.437247498834912  11.673616748318732 
  1.219660771518029   0.695628055005189   5.002978606422314 
  4.978771382068635   7.624775236992464   5.002978606422314 
  6.233970279080347   0.687917992861819   5.002978606422314 
  9.989387755099816   7.192491864963482   5.002978606422314 
 11.209880505463335   0.723037532074544   5.002978606422314 
 -3.733983302780874   9.342163725669169  11.673616748318732 
  1.244501419426969   9.342549615896026  11.673616748318732 
  2.488578315605980   2.873857035062858  11.673616748318732 
  6.223613031691920   9.343126931360908  11.673616748318732 
  7.468964448526137   2.873857035062858  11.673616748318732 
 12.446928455165491   2.874250437969657  11.673616748318732 
 -1.252163585987588   9.346421976448596   5.002978606422314 
 -0.034983216810207   2.854297428028157   5.002978606422314 
  4.978771382066677   2.807923857332626   5.002978606422314 
  3.695855218194634   9.457090898283909   5.002978606422314 
  8.734188858086668   9.366560128194683   5.002978606422314 
  9.992525980942366   2.854297428028157   5.002978606422314 
 -4.978883200885741  11.498044549305190  11.673616748318732 
  0.000111818816977  11.498044549305190  11.673616748318732 
  1.243736665978956   5.029986019594731  11.673616748318732 
  6.224249665004916   5.029912773415886  11.673616748318732 
  4.978771382069715  11.498757091208585  11.673616748318732 
 11.202667169890580   5.030067302609750  11.673616748318732 
 -1.277123738054579   5.020185681135918   5.002978606422314 
 -2.489385691033231  11.489353522634984   5.002978606422314 
  2.481986872495094  11.531156249877206   5.002978606422314 
  3.354293710749192   4.811097374512983   5.002978606422314 
  7.475555891642075  11.531156249877206   5.002978606422314 
  8.831539045747521   5.005977532706463   5.002978606422314 
 -0.000477520668318   7.186182837295759  11.673616748318732 
  1.244218172894238   0.718399478942052  11.673616748318732 
  4.978771382067785   7.187144439186659  11.673616748318732 
  6.223750322162628   0.718237532826222  11.673616748318732 
  9.958020284799375   7.186182837295759  11.673616748318732 
 -2.489385691033606   7.188225782263872   5.002978606422314 
 11.202447404562230   0.718746029267482  11.673616748318732 
  3.723572485052198   0.687917992861793   5.002978606422314 
  2.431733392341922   7.219523064344054   5.002978606422314 
  7.525809371789746   7.219523064344054   5.002978606422314 
  8.737881992616188   0.695628055005189   5.002978606422314 
  2.488787598132713   7.186582803269796  11.673616748318732 
 13.683976404869034   0.723037532074544   5.002978606422314 
 -1.244788079286114   9.342163725669169  11.673616748318732 
 -0.000672988801263   2.874106447403993  11.673616748318732 
  4.978771382065908   2.873804379474869  11.673616748318732 
  3.733929732438141   9.343126931360908  11.673616748318732 
  8.713041344702955   9.342549615896026  11.673616748318732 
  9.958215752936738   2.874106447403993  11.673616748318732 
 -3.726607796077548   9.346421976448596   5.002978606422314 
  1.223353906045525   9.366560128194683   5.002978606422314 
  2.408919882254817   2.783901555029145   5.002978606422314 