Species order:X N B                     
   2.51242800000000     
     5.9449720136058266    0.0000000000000000    0.0000000000000000
    -2.9724860068029120    5.1484967885702053   -0.0000000000000001
     0.0000000000000000    0.0000000000000009    5.3101128803662583
   C    N    B 
     2   143   143
Direct
  0.4432722529989532  0.3883027931661411  0.3750000000000000
  0.5511934181991568  0.4422633757662427  0.3750000000000000
  0.1111029667456107  0.0555658956641801  0.1249356532827510
  0.6111370354798441  0.5556654545245323  0.1243468296554669
  0.4444645266396948  0.0555733437562207  0.1249279762617816
  0.9444192767189578  0.5555401014296761  0.1248996028291735
  0.7777990796445192  0.0555662064889275  0.1248702653331122
  0.1110971310082316  0.7222152321707801  0.6250947060797526
  0.4444645266396948  0.7222245162168096  0.6250720237382186
  0.2777598819653125  0.2222363138850852  0.6250873908316673
  0.7777835390655173  0.7222605240536057  0.6251313135289064
  0.6111594564144195  0.2221874397665369  0.6252175690239552
  0.9444373246775171  0.2222134997335413  0.6251044360462716
  0.2777801057640274  0.7222131917443296  0.1249162963314452
  0.1110648629567983  0.2221990981450634  0.1248647874406133
  0.4444713867954990  0.2222403854819383  0.1249242267631244
  0.6111594564144195  0.7223053499812115  0.1247824309760446
  0.9444192767189578  0.7222125086226173  0.1248996028291735
  0.7778123538533018  0.2222034313908604  0.1248792522317828
  0.1111023228047058  0.8888950076911325  0.6250873999684776
  0.4444525153463318  0.8888929243398304  0.6250943914179931
  0.2777598819653125  0.3888569014135562  0.6250873908316673
  0.6111370354798441  0.3888049142886399  0.6256531703445328
  0.7778123538533018  0.8889422557957701  0.6251207477682171
  0.9444466210728342  0.3888773694079751  0.6250915638218528
  0.1111029667456107  0.3888704044147591  0.1249356532827510
  0.2777801057640274  0.8889002473530268  0.1249162963314452
  0.6111341968823651  0.8889215569897508  0.1248984973667334
  0.4444184906805568  0.3888759120069427  0.1247630769301897
  0.9444466210728342  0.8889025849981882  0.1249084361781473
  0.7777835390655173  0.3888563483452400  0.1248686864710934
  0.2777850214996059  0.5555362474788248  0.6250751714360301
  0.1111029667456107  0.0555658956641801  0.6250643467172489
  0.6111370354798441  0.5556654545245323  0.6256531703445328
  0.4444645266396948  0.0555733437562207  0.6250720237382186
  0.9444192767189578  0.5555401014296761  0.6251003971708264
  0.1111023228047058  0.5555406484469018  0.1249126000315218
  0.7777990796445192  0.0555662064889275  0.6251297346668880
  0.2777850214996059  0.0555821073541164  0.1249248285639695
  0.4444713867954990  0.5555643346468965  0.1249242267631244
  0.7777392718911633  0.5555363026122492  0.1248516821273370
  0.6111341968823651  0.0555459732259432  0.1248984973667334
  0.4444713867954990  0.5555643346468965  0.6250757732368754
  0.9444373246775171  0.0555571582773117  0.1248955639537283
  0.2777801057640274  0.7222131917443296  0.6250837036685548
  0.1110648629567983  0.2221990981450634  0.6251352125593865
  0.4444713867954990  0.2222403854819383  0.6250757732368754
  0.6111594564144195  0.7223053499812115  0.6252175690239552
  0.9444192767189578  0.7222125086226173  0.6251003971708264
  0.7778123538533018  0.2222034313908604  0.6251207477682171
  0.1110971310082316  0.7222152321707801  0.1249052939202472
  0.4444645266396948  0.7222245162168096  0.1249279762617816
  0.2777598819653125  0.2222363138850852  0.1249126091683327
  0.7777835390655173  0.7222605240536057  0.1248686864710934
  0.6111594564144195  0.2221874397665369  0.1247824309760446
  0.9444373246775171  0.2222134997335413  0.1248955639537283
  0.1111029667456107  0.3888704044147591  0.6250643467172489
  0.2777801057640274  0.8889002473530268  0.6250837036685548
  0.6111341968823651  0.8889215569897508  0.6251015026332668
  0.4444184906805568  0.3888759120069427  0.6252369230698104
  0.9444466210728342  0.8889025849981882  0.6250915638218528
  0.1111023228047058  0.8888950076911325  0.1249126000315218
  0.7777835390655173  0.3888563483452400  0.6251313135289064
  0.4444525153463318  0.8888929243398304  0.1249056085820072
  0.2777598819653125  0.3888569014135562  0.1249126091683327
  0.2777850214996059  0.5555362474788248  0.1249248285639695
  0.6111370354798441  0.3888049142886399  0.1243468296554669
  0.7778123538533018  0.8889422557957701  0.1248792522317828
  0.9444466210728342  0.3888773694079751  0.1249084361781473
  0.1111023228047058  0.5555406484469018  0.6250873999684776
  0.2777850214996059  0.0555821073541164  0.6250751714360301
  0.7777392718911633  0.5555363026122492  0.6251483178726627
  0.6111341968823651  0.0555459732259432  0.6251015026332668
  0.9444373246775171  0.0555571582773117  0.6251044360462716
  0.0555371170820040  0.1110741731924243  0.3750000000000000
  0.5555287593724710  0.6131005287140434  0.3750000000000000
  0.3886156279334693  0.1116118948889992  0.3750000000000000
  0.8893691487084581  0.6113512410208999  0.3750000000000000
  0.7222317015397254  0.1109892855940728  0.3750000000000000
  0.0555555031494779  0.7777766850530854  0.8750000000000000
  0.3888815664741762  0.7777772777154789  0.8750000000000000
  0.2222173947300455  0.2777753640316907  0.8750000000000000
  0.7222185828120418  0.7777710026272204  0.8750000000000000
  0.5555442777501933  0.2777651253548187  0.8750000000000000
  0.8888882164818145  0.2777839598557605  0.8750000000000000
  0.2223219613454259  0.7778276473393810  0.3750000000000000
  0.0555371170820040  0.2777962772229152  0.3750000000000000
  0.3883985515558419  0.2793938647420390  0.3750000000000000
  0.5553552440395105  0.7783836520740124  0.3750000000000000
  0.8895004391375496  0.7782575391021755  0.3750000000000000
  0.7224560104291524  0.2774907709319246  0.3750000000000000
  0.0555549189774981  0.9444397956400625  0.8750000000000000
  0.3888815664741762  0.9444376220920326  0.8750000000000000
  0.2222202815516366  0.4444466778729648  0.8750000000000000
  0.5555503637454130  0.4444418485393708  0.8750000000000000
  0.7222138714705504  0.9444386880425476  0.8750000000000000
  0.8888897562503842  0.4444485590157559  0.8750000000000000
  0.0559127075988549  0.4445465512991847  0.3750000000000000
  0.2222924044270326  0.9444623129386907  0.3750000000000000
  0.5553560609105623  0.9443446971219456  0.3750000000000000
  0.3883985515558419  0.4423380201471387  0.3750000000000000
  0.8890897242089856  0.9446121309871924  0.3750000000000000
  0.7231796191474870  0.4443908586920650  0.3750000000000000
  0.2222178044208322  0.6111117133884606  0.8750000000000000
  0.0555533143863104  0.1111042926474943  0.8750000000000000
  0.5555442777501933  0.6111124857287105  0.8750000000000000
  0.3888826310149804  0.1111016650513890  0.8750000000000000
  0.8888920944273423  0.6111127138803428  0.8750000000000000
  0.0558783771695259  0.6112814712259507  0.3750000000000000
  0.7222138714705504  0.1111085167613382  0.8750000000000000
  0.2224752220647157  0.1112820594265815  0.3750000000000000
  0.3886156279334693  0.6103370663778132  0.3750000000000000
  0.7231796191474870  0.6121220937887577  0.3750000000000000
  0.5553552440395105  0.1103049252988336  0.3750000000000000
  0.3888826310149804  0.6111142992969342  0.8750000000000000
  0.8889800698356197  0.1111567015844813  0.3750000000000000
  0.2222180455011125  0.7777756894172241  0.8750000000000000
  0.0555533143863104  0.2777823550721519  0.8750000000000000
  0.3888867214613488  0.2777740437321469  0.8750000000000000
  0.5555435253628105  0.7777761055620825  0.8750000000000000
  0.8888897562503842  0.7777745305679638  0.8750000000000000
  0.7222185828120418  0.2777809135181569  0.8750000000000000
  0.0558783771695259  0.7779302392769106  0.3750000000000000
  0.3887627030519850  0.7775825425598111  0.3750000000000000
  0.2215785173320909  0.2774559253327133  0.3750000000000000
  0.7224560104291524  0.7782985728305637  0.3750000000000000
  0.5555287593724710  0.2757615639917630  0.3750000000000000
  0.8890897242089856  0.2778109265551293  0.3750000000000000
  0.0555549189774981  0.4444484566707640  0.8750000000000000
  0.2222178044208322  0.9444394243657074  0.8750000000000000
  0.5555424384829573  0.9444378859081431  0.8750000000000000
  0.3888867214613488  0.4444460110625376  0.8750000000000000
  0.8888882164818145  0.9444375899593892  0.8750000000000000
  0.0559127075988549  0.9446994896329987  0.3750000000000000
  0.7222202658640279  0.4444465899573815  0.8750000000000000
  0.3887627030519850  0.9445134938255094  0.3750000000000000
  0.2224752220647157  0.4445264959714699  0.3750000000000000
  0.2222924044270326  0.6111634248216780  0.3750000000000000
  0.7222317015397254  0.9445757492789879  0.3750000000000000
  0.8895004391375496  0.4445762333687094  0.3750000000000000
  0.0555555031494779  0.6111121514297282  0.8750000000000000
  0.2222202815516366  0.1111069370120076  0.8750000000000000
  0.7222202658640279  0.6111070092399820  0.8750000000000000
  0.5555435253628105  0.1111007531340638  0.8750000000000000
  0.8888864140413011  0.1111098736873218  0.8750000000000000
  0.1115420338091958  0.0558651744045559  0.3750000000000000
  0.6105455308863591  0.5558261752825863  0.3750000000000000
  0.4442905986419018  0.0559985275760102  0.3750000000000000
  0.9445468958797287  0.5556757313736524  0.3750000000000000
  0.7777717286375954  0.0555525309854656  0.3750000000000000
  0.1110976671861867  0.7222155002597577  0.8750000000000000
  0.4444450519980737  0.7221982864330307  0.8750000000000000
  0.2778312556946519  0.2222600217057298  0.8750000000000000
  0.7777326395716347  0.7221604267585467  0.8750000000000000
  0.6110862864175418  0.2222553931372629  0.8750000000000000
  0.9444453903282651  0.2222343973690037  0.8750000000000000
  0.2777953339788378  0.7221912152374728  0.3750000000000000
  0.1112148160226513  0.2222740746779899  0.3750000000000000
  0.4448108334404876  0.2237058121199059  0.3750000000000000
  0.6108346345310237  0.7225892605424808  0.3750000000000000
  0.9445468958797287  0.7222044978394119  0.3750000000000000
  0.7777221378191019  0.2222903540917175  0.3750000000000000
  0.1111082262750904  0.8888853835435141  0.8750000000000000
  0.4444352262529533  0.8888842797931408  0.8750000000000000
  0.2778312556946520  0.3889045673222506  0.8750000000000000
  0.6110795617540420  0.3889070312383099  0.8750000000000000
  0.7777535617307633  0.8888438893647356  0.8750000000000000
  0.9444288663051151  0.3889026002476122  0.8750000000000000
  0.1115420338091958  0.3890101927379686  0.3750000000000000
  0.2777953339788378  0.8889374520746941  0.3750000000000000
  0.6109930237777094  0.8889584167397088  0.3750000000000000
  0.9447080665665539  0.8890315425982575  0.3750000000000000
  0.7779214451799602  0.3892033046607478  0.3750000000000000
  0.2778003457927514  0.5555495903653783  0.8750000000000000
  0.1111303329371570  0.0555637861393996  0.8750000000000000
  0.6110795617540420  0.5555058638490608  0.8750000000000000
  0.4444450519980737  0.0555800988983785  0.8750000000000000
  0.9444105774078996  0.5555494404478457  0.8750000000000000
  0.1112671782191810  0.5556385815265800  0.3750000000000000
  0.7777611392150299  0.0555472362741828  0.8750000000000000
  0.2779150184682002  0.0557602326062948  0.3750000000000000
  0.4448108334404876  0.5544383546539174  0.3750000000000000
  0.7773525575877943  0.5553429454605647  0.3750000000000000
  0.6109930237777094  0.0553679403713300  0.3750000000000000
  0.4444656632248779  0.5555340275429879  0.8750000000000000
  0.9445645952847471  0.0556038162381213  0.3750000000000000
  0.2777800460561686  0.7222163575169834  0.8750000000000000
  0.1111430980562315  0.2222382156947799  0.8750000000000000
  0.4444656632248779  0.2222649690152257  0.8750000000000000
  0.6110862864175418  0.7221642266136078  0.8750000000000000
  0.9444105774078996  0.7221944702933899  0.8750000000000000
  0.7777535617307633  0.2222430056993560  0.8750000000000000
  0.1112394352723521  0.7222863843028403  0.3750000000000000
  0.4442905986419018  0.7216254043992275  0.3750000000000000
  0.2781394539097304  0.2227151209633250  0.3750000000000000
  0.7779214451799602  0.7220514738525415  0.3750000000000000
  0.6108346345310237  0.2215787073218715  0.3750000000000000
  0.9445645952847471  0.2222941123799615  0.3750000000000000
  0.1111303329371570  0.3888998801310861  0.8750000000000000
  0.2777800460561686  0.8888970218725132  0.8750000000000000
  0.6110910192356872  0.8888614947646848  0.8750000000000000
  0.4444934118061012  0.3889133725697149  0.8750000000000000
  0.9444288663051151  0.8888595993908316  0.8750000000000000
  0.1112671782191810  0.8889619300259297  0.3750000000000000
  0.7777326395716347  0.3889055461464165  0.8750000000000000
  0.4443041153073968  0.8888187243203625  0.3750000000000000
  0.2781394539097304  0.3887576662797341  0.3750000000000000
  0.2779150184682002  0.5554881191952411  0.3750000000000000
  0.6105455308863591  0.3880526889371013  0.3750000000000000
  0.7777221378191019  0.8887651170607128  0.3750000000000000
  0.9447080665665539  0.3890098573016248  0.3750000000000000
  0.1111082262750904  0.5555561760649046  0.8750000000000000
  0.2778003457927514  0.0555840887607090  0.8750000000000000
  0.7777224717174558  0.5555279025253957  0.8750000000000000
  0.6110910192356872  0.0555628578043313  0.8750000000000000
  0.9444453903282651  0.0555443262925971  0.8750000000000000
  0.0555630546570267  0.1111432449908436  0.1250801920654994
  0.5556524915648063  0.6110068059515782  0.1252070192363972
  0.3889960471054844  0.1113175491023091  0.1252038471146958
  0.8886732753564606  0.6110033043449018  0.1251853879073900
  0.7222403917090882  0.1111373671370935  0.1250794354423436
  0.0554661835200417  0.7777444032494566  0.6249151046634376
  0.3889428461271762  0.7777520398135276  0.6249187411881941
  0.2223020923228096  0.2778177128280728  0.6248456081463711
  0.7221836216474716  0.7777243251005552  0.6248522193202791
  0.5556524915648063  0.2779790189465640  0.6247929807636027
  0.8888621242825222  0.2777621212676231  0.6249172926068997
  0.2222185676702895  0.7777759505018128  0.1250675150195443
  0.0555630546570267  0.2777531429995188  0.1250801920654994
  0.3890593905731798  0.2779994009146308  0.1254613345161393
  0.5556318810729723  0.7777347609895578  0.1251180729810706
  0.8887668589065180  0.7777086966299087  0.1251451911176393
  0.7221836216474716  0.2777926298802524  0.1251477806797210
  0.0555317603005038  0.9444636319292223  0.6249108996277528
  0.3889428461271762  0.9445241396469848  0.6249187411881941
  0.2223044808432715  0.4443911669030201  0.6248403219927774
  0.5556096560494487  0.4444714946913886  0.6233119670236509
  0.7222403917090882  0.9444363579053305  0.6249205645576560
  0.8887668589065180  0.4443914956099448  0.6248548088823607
  0.0555317603005038  0.4444014617046099  0.1250891003722472
  0.2222480594547572  0.9445273823060251  0.1250816413287154
  0.5556065799251070  0.9444699566292175  0.1250750620693208
  0.3890593905731798  0.4443933229918844  0.1254613345161393
  0.8888621242825222  0.9444333363482349  0.1250827073931003
  0.7220035636329766  0.4443636466445710  0.1252919993636740
  0.2222480594547572  0.6110540104820678  0.6249183586712844
  0.0555630546570267  0.1111432449908436  0.6249198079345007
  0.5556524915648063  0.6110068059515782  0.6247929807636027
  0.3889960471054844  0.1113175491023091  0.6247961528853040
  0.8886732753564606  0.6110033043449018  0.6248146120926099
  0.0554661835200417  0.6110551136039206  0.1250848953365623
  0.7222403917090882  0.1111373671370935  0.6249205645576560
  0.2223044808432715  0.1112466472735871  0.1251596780072226
  0.3889960471054844  0.6110118313365180  0.1252038471146958
  0.7220035636329766  0.6109732503217411  0.1252919993636740
  0.5556318810729723  0.1112304534167499  0.1251180729810706
  0.3889960471054844  0.6110118313365180  0.6247961528853040
  0.8888929586253380  0.1111131459793404  0.1250637018342325
  0.2222185676702895  0.7777759505018128  0.6249324849804559
  0.0555630546570267  0.2777531429995188  0.6249198079345007
  0.3890593905731798  0.2779994009146308  0.6245386654838606
  0.5556318810729723  0.7777347609895578  0.6248819270189296
  0.8887668589065180  0.7777086966299087  0.6248548088823607
  0.7221836216474716  0.2777926298802524  0.6248522193202791
  0.0554661835200417  0.7777444032494566  0.1250848953365623
  0.3889428461271762  0.7777520398135276  0.1250812588118058
  0.2223020923228096  0.2778177128280728  0.1251543918536288
  0.7221836216474716  0.7777243251005552  0.1251477806797210
  0.5556524915648063  0.2779790189465640  0.1252070192363972
  0.8888621242825222  0.2777621212676231  0.1250827073931003
  0.0555317603005038  0.4444014617046099  0.6249108996277528
  0.2222480594547572  0.9445273823060251  0.6249183586712844
  0.5556065799251070  0.9444699566292175  0.6249249379306796
  0.3890593905731798  0.4443933229918844  0.6245386654838606
  0.8888621242825222  0.9444333363482349  0.6249172926068997
  0.0555317603005038  0.9444636319292223  0.1250891003722472
  0.7220035636329766  0.4443636466445710  0.6247080006363258
  0.3889428461271762  0.9445241396469848  0.1250812588118058
  0.2223044808432715  0.4443911669030201  0.1251596780072226
  0.2222480594547572  0.6110540104820678  0.1250816413287154
  0.5556096560494487  0.4444714946913886  0.1266880329763493
  0.7222403917090882  0.9444363579053305  0.1250794354423436
  0.8887668589065180  0.4443914956099448  0.1251451911176393
  0.0554661835200417  0.6110551136039206  0.6249151046634376
  0.2223044808432715  0.1112466472735871  0.6248403219927774
  0.7220035636329766  0.6109732503217411  0.6247080006363258
  0.5556318810729723  0.1112304534167499  0.6248819270189296
  0.8888929586253380  0.1111131459793404  0.6249362981657673
 
  0.00000000E+00  0.00000000E+00  0.00000000E+00
  0.00000000E+00  0.00000000E+00  0.00000000E+00
  0.00000000E+00  0.00000000E+00  0.00000000E+00
  0.00000000E+00  0.00000000E+00  0.00000000E+00
  0.00000000E+00  0.00000000E+00  0.00000000E+00
  0.00000000E+00  0.00000000E+00  0.00000000E+00
  0.00000000E+00  0.00000000E+00  0.00000000E+00
  0.00000000E+00  0.00000000E+00  0.00000000E+00
  0.00000000E+00  0.00000000E+00  0.00000000E+00
  0.00000000E+00  0.00000000E+00  0.00000000E+00
  0.00000000E+00  0.00000000E+00  0.00000000E+00
  0.00000000E+00  0.00000000E+00  0.00000000E+00
  0.00000000E+00  0.00000000E+00  0.00000000E+00
  0.00000000E+00  0.00000000E+00  0.00000000E+00
  0.00000000E+00  0.00000000E+00  0.00000000E+00
  0.00000000E+00  0.00000000E+00  0.00000000E+00
  0.00000000E+00  0.00000000E+00  0.00000000E+00
  0.00000000E+00  0.00000000E+00  0.00000000E+00
  0.00000000E+00  0.00000000E+00  0.00000000E+00
  0.00000000E+00  0.00000000E+00  0.00000000E+00
  0.00000000E+00  0.00000000E+00  0.00000000E+00
  0.00000000E+00  0.00000000E+00  0.00000000E+00
  0.00000000E+00  0.00000000E+00  0.00000000E+00
  0.00000000E+00  0.00000000E+00  0.00000000E+00
  0.00000000E+00  0.00000000E+00  0.00000000E+00
  0.00000000E+00  0.00000000E+00  0.00000000E+00
  0.00000000E+00  0.00000000E+00  0.00000000E+00
  0.00000000E+00  0.00000000E+00  0.00000000E+00
  0.00000000E+00  0.00000000E+00  0.00000000E+00
  0.00000000E+00  0.00000000E+00  0.00000000E+00
  0.00000000E+00  0.00000000E+00  0.00000000E+00
  0.00000000E+00  0.00000000E+00  0.00000000E+00
  0.00000000E+00  0.00000000E+00  0.00000000E+00
  0.00000000E+00  0.00000000E+00  0.00000000E+00
  0.00000000E+00  0.00000000E+00  0.00000000E+00
  0.00000000E+00  0.00000000E+00  0.00000000E+00
  0.00000000E+00  0.00000000E+00  0.00000000E+00
  0.00000000E+00  0.00000000E+00  0.00000000E+00
  0.00000000E+00  0.00000000E+00  0.00000000E+00
  0.00000000E+00  0.00000000E+00  0.00000000E+00
  0.00000000E+00  0.00000000E+00  0.00000000E+00
  0.00000000E+00  0.00000000E+00  0.00000000E+00
  0.00000000E+00  0.00000000E+00  0.00000000E+00
  0.00000000E+00  0.00000000E+00  0.00000000E+00
  0.00000000E+00  0.00000000E+00  0.00000000E+00
  0.00000000E+00  0.00000000E+00  0.00000000E+00
  0.00000000E+00  0.00000000E+00  0.00000000E+00
  0.00000000E+00  0.00000000E+00  0.00000000E+00
  0.00000000E+00  0.00000000E+00  0.00000000E+00
  0.00000000E+00  0.00000000E+00  0.00000000E+00
  0.00000000E+00  0.00000000E+00  0.00000000E+00
  0.00000000E+00  0.00000000E+00  0.00000000E+00
  0.00000000E+00  0.00000000E+00  0.00000000E+00
  0.00000000E+00  0.00000000E+00  0.00000000E+00
  0.00000000E+00  0.00000000E+00  0.00000000E+00
  0.00000000E+00  0.00000000E+00  0.00000000E+00
  0.00000000E+00  0.00000000E+00  0.00000000E+00
  0.00000000E+00  0.00000000E+00  0.00000000E+00
  0.00000000E+00  0.00000000E+00  0.00000000E+00
  0.00000000E+00  0.00000000E+00  0.00000000E+00
  0.00000000E+00  0.00000000E+00  0.00000000E+00
  0.00000000E+00  0.00000000E+00  0.00000000E+00
  0.00000000E+00  0.00000000E+00  0.00000000E+00
  0.00000000E+00  0.00000000E+00  0.00000000E+00
  0.00000000E+00  0.00000000E+00  0.00000000E+00
  0.00000000E+00  0.00000000E+00  0.00000000E+00
  0.00000000E+00  0.00000000E+00  0.00000000E+00
  0.00000000E+00  0.00000000E+00  0.00000000E+00
  0.00000000E+00  0.00000000E+00  0.00000000E+00
  0.00000000E+00  0.00000000E+00  0.00000000E+00
  0.00000000E+00  0.00000000E+00  0.00000000E+00
  0.00000000E+00  0.00000000E+00  0.00000000E+00
  0.00000000E+00  0.00000000E+00  0.00000000E+00
  0.00000000E+00  0.00000000E+00  0.00000000E+00
  0.00000000E+00  0.00000000E+00  0.00000000E+00
  0.00000000E+00  0.00000000E+00  0.00000000E+00
  0.00000000E+00  0.00000000E+00  0.00000000E+00
  0.00000000E+00  0.00000000E+00  0.00000000E+00
  0.00000000E+00  0.00000000E+00  0.00000000E+00
  0.00000000E+00  0.00000000E+00  0.00000000E+00
  0.00000000E+00  0.00000000E+00  0.00000000E+00
  0.00000000E+00  0.00000000E+00  0.00000000E+00
  0.00000000E+00  0.00000000E+00  0.00000000E+00
  0.00000000E+00  0.00000000E+00  0.00000000E+00
  0.00000000E+00  0.00000000E+00  0.00000000E+00
  0.00000000E+00  0.00000000E+00  0.00000000E+00
  0.00000000E+00  0.00000000E+00  0.00000000E+00
  0.00000000E+00  0.00000000E+00  0.00000000E+00
  0.00000000E+00  0.00000000E+00  0.00000000E+00
  0.00000000E+00  0.00000000E+00  0.00000000E+00
  0.00000000E+00  0.00000000E+00  0.00000000E+00
  0.00000000E+00  0.00000000E+00  0.00000000E+00
  0.00000000E+00  0.00000000E+00  0.00000000E+00
  0.00000000E+00  0.00000000E+00  0.00000000E+00
  0.00000000E+00  0.00000000E+00  0.00000000E+00
  0.00000000E+00  0.00000000E+00  0.00000000E+00
  0.00000000E+00  0.00000000E+00  0.00000000E+00
  0.00000000E+00  0.00000000E+00  0.00000000E+00
  0.00000000E+00  0.00000000E+00  0.00000000E+00
  0.00000000E+00  0.00000000E+00  0.00000000E+00
  0.00000000E+00  0.00000000E+00  0.00000000E+00
  0.00000000E+00  0.00000000E+00  0.00000000E+00
  0.00000000E+00  0.00000000E+00  0.00000000E+00
  0.00000000E+00  0.00000000E+00  0.00000000E+00
  0.00000000E+00  0.00000000E+00  0.00000000E+00
  0.00000000E+00  0.00000000E+00  0.00000000E+00
  0.00000000E+00  0.00000000E+00  0.00000000E+00
  0.00000000E+00  0.00000000E+00  0.00000000E+00
  0.00000000E+00  0.00000000E+00  0.00000000E+00
  0.00000000E+00  0.00000000E+00  0.00000000E+00
  0.00000000E+00  0.00000000E+00  0.00000000E+00
  0.00000000E+00  0.00000000E+00  0.00000000E+00
  0.00000000E+00  0.00000000E+00  0.00000000E+00
  0.00000000E+00  0.00000000E+00  0.00000000E+00
  0.00000000E+00  0.00000000E+00  0.00000000E+00
  0.00000000E+00  0.00000000E+00  0.00000000E+00
  0.00000000E+00  0.00000000E+00  0.00000000E+00
  0.00000000E+00  0.00000000E+00  0.00000000E+00
  0.00000000E+00  0.00000000E+00  0.00000000E+00
  0.00000000E+00  0.00000000E+00  0.00000000E+00
  0.00000000E+00  0.00000000E+00  0.00000000E+00
  0.00000000E+00  0.00000000E+00  0.00000000E+00
  0.00000000E+00  0.00000000E+00  0.00000000E+00
  0.00000000E+00  0.00000000E+00  0.00000000E+00
  0.00000000E+00  0.00000000E+00  0.00000000E+00
  0.00000000E+00  0.00000000E+00  0.00000000E+00
  0.00000000E+00  0.00000000E+00  0.00000000E+00
  0.00000000E+00  0.00000000E+00  0.00000000E+00
  0.00000000E+00  0.00000000E+00  0.00000000E+00
  0.00000000E+00  0.00000000E+00  0.00000000E+00
  0.00000000E+00  0.00000000E+00  0.00000000E+00
  0.00000000E+00  0.00000000E+00  0.00000000E+00
  0.00000000E+00  0.00000000E+00  0.00000000E+00
  0.00000000E+00  0.00000000E+00  0.00000000E+00
  0.00000000E+00  0.00000000E+00  0.00000000E+00
  0.00000000E+00  0.00000000E+00  0.00000000E+00
  0.00000000E+00  0.00000000E+00  0.00000000E+00
  0.00000000E+00  0.00000000E+00  0.00000000E+00
  0.00000000E+00  0.00000000E+00  0.00000000E+00
  0.00000000E+00  0.00000000E+00  0.00000000E+00
  0.00000000E+00  0.00000000E+00  0.00000000E+00
  0.00000000E+00  0.00000000E+00  0.00000000E+00
  0.00000000E+00  0.00000000E+00  0.00000000E+00
  0.00000000E+00  0.00000000E+00  0.00000000E+00
  0.00000000E+00  0.00000000E+00  0.00000000E+00
  0.00000000E+00  0.00000000E+00  0.00000000E+00
  0.00000000E+00  0.00000000E+00  0.00000000E+00
  0.00000000E+00  0.00000000E+00  0.00000000E+00
  0.00000000E+00  0.00000000E+00  0.00000000E+00
  0.00000000E+00  0.00000000E+00  0.00000000E+00
  0.00000000E+00  0.00000000E+00  0.00000000E+00
  0.00000000E+00  0.00000000E+00  0.00000000E+00
  0.00000000E+00  0.00000000E+00  0.00000000E+00
  0.00000000E+00  0.00000000E+00  0.00000000E+00
  0.00000000E+00  0.00000000E+00  0.00000000E+00
  0.00000000E+00  0.00000000E+00  0.00000000E+00
  0.00000000E+00  0.00000000E+00  0.00000000E+00
  0.00000000E+00  0.00000000E+00  0.00000000E+00
  0.00000000E+00  0.00000000E+00  0.00000000E+00
  0.00000000E+00  0.00000000E+00  0.00000000E+00
  0.00000000E+00  0.00000000E+00  0.00000000E+00
  0.00000000E+00  0.00000000E+00  0.00000000E+00
  0.00000000E+00  0.00000000E+00  0.00000000E+00
  0.00000000E+00  0.00000000E+00  0.00000000E+00
  0.00000000E+00  0.00000000E+00  0.00000000E+00
  0.00000000E+00  0.00000000E+00  0.00000000E+00
  0.00000000E+00  0.00000000E+00  0.00000000E+00
  0.00000000E+00  0.00000000E+00  0.00000000E+00
  0.00000000E+00  0.00000000E+00  0.00000000E+00
  0.00000000E+00  0.00000000E+00  0.00000000E+00
  0.00000000E+00  0.00000000E+00  0.00000000E+00
  0.00000000E+00  0.00000000E+00  0.00000000E+00
  0.00000000E+00  0.00000000E+00  0.00000000E+00
  0.00000000E+00  0.00000000E+00  0.00000000E+00
  0.00000000E+00  0.00000000E+00  0.00000000E+00
  0.00000000E+00  0.00000000E+00  0.00000000E+00
  0.00000000E+00  0.00000000E+00  0.00000000E+00
  0.00000000E+00  0.00000000E+00  0.00000000E+00
  0.00000000E+00  0.00000000E+00  0.00000000E+00
  0.00000000E+00  0.00000000E+00  0.00000000E+00
  0.00000000E+00  0.00000000E+00  0.00000000E+00
  0.00000000E+00  0.00000000E+00  0.00000000E+00
  0.00000000E+00  0.00000000E+00  0.00000000E+00
  0.00000000E+00  0.00000000E+00  0.00000000E+00
  0.00000000E+00  0.00000000E+00  0.00000000E+00
  0.00000000E+00  0.00000000E+00  0.00000000E+00
  0.00000000E+00  0.00000000E+00  0.00000000E+00
  0.00000000E+00  0.00000000E+00  0.00000000E+00
  0.00000000E+00  0.00000000E+00  0.00000000E+00
  0.00000000E+00  0.00000000E+00  0.00000000E+00
  0.00000000E+00  0.00000000E+00  0.00000000E+00
  0.00000000E+00  0.00000000E+00  0.00000000E+00
  0.00000000E+00  0.00000000E+00  0.00000000E+00
  0.00000000E+00  0.00000000E+00  0.00000000E+00
  0.00000000E+00  0.00000000E+00  0.00000000E+00
  0.00000000E+00  0.00000000E+00  0.00000000E+00
  0.00000000E+00  0.00000000E+00  0.00000000E+00
  0.00000000E+00  0.00000000E+00  0.00000000E+00
  0.00000000E+00  0.00000000E+00  0.00000000E+00
  0.00000000E+00  0.00000000E+00  0.00000000E+00
  0.00000000E+00  0.00000000E+00  0.00000000E+00
  0.00000000E+00  0.00000000E+00  0.00000000E+00
  0.00000000E+00  0.00000000E+00  0.00000000E+00
  0.00000000E+00  0.00000000E+00  0.00000000E+00
  0.00000000E+00  0.00000000E+00  0.00000000E+00
  0.00000000E+00  0.00000000E+00  0.00000000E+00
  0.00000000E+00  0.00000000E+00  0.00000000E+00
  0.00000000E+00  0.00000000E+00  0.00000000E+00
  0.00000000E+00  0.00000000E+00  0.00000000E+00
  0.00000000E+00  0.00000000E+00  0.00000000E+00
  0.00000000E+00  0.00000000E+00  0.00000000E+00
  0.00000000E+00  0.00000000E+00  0.00000000E+00
  0.00000000E+00  0.00000000E+00  0.00000000E+00
  0.00000000E+00  0.00000000E+00  0.00000000E+00
  0.00000000E+00  0.00000000E+00  0.00000000E+00
  0.00000000E+00  0.00000000E+00  0.00000000E+00
  0.00000000E+00  0.00000000E+00  0.00000000E+00
  0.00000000E+00  0.00000000E+00  0.00000000E+00
  0.00000000E+00  0.00000000E+00  0.00000000E+00
  0.00000000E+00  0.00000000E+00  0.00000000E+00
  0.00000000E+00  0.00000000E+00  0.00000000E+00
  0.00000000E+00  0.00000000E+00  0.00000000E+00
  0.00000000E+00  0.00000000E+00  0.00000000E+00
  0.00000000E+00  0.00000000E+00  0.00000000E+00
  0.00000000E+00  0.00000000E+00  0.00000000E+00
  0.00000000E+00  0.00000000E+00  0.00000000E+00
  0.00000000E+00  0.00000000E+00  0.00000000E+00
  0.00000000E+00  0.00000000E+00  0.00000000E+00
  0.00000000E+00  0.00000000E+00  0.00000000E+00
  0.00000000E+00  0.00000000E+00  0.00000000E+00
  0.00000000E+00  0.00000000E+00  0.00000000E+00
  0.00000000E+00  0.00000000E+00  0.00000000E+00
  0.00000000E+00  0.00000000E+00  0.00000000E+00
  0.00000000E+00  0.00000000E+00  0.00000000E+00
  0.00000000E+00  0.00000000E+00  0.00000000E+00
  0.00000000E+00  0.00000000E+00  0.00000000E+00
  0.00000000E+00  0.00000000E+00  0.00000000E+00
  0.00000000E+00  0.00000000E+00  0.00000000E+00
  0.00000000E+00  0.00000000E+00  0.00000000E+00
  0.00000000E+00  0.00000000E+00  0.00000000E+00
  0.00000000E+00  0.00000000E+00  0.00000000E+00
  0.00000000E+00  0.00000000E+00  0.00000000E+00
  0.00000000E+00  0.00000000E+00  0.00000000E+00
  0.00000000E+00  0.00000000E+00  0.00000000E+00
  0.00000000E+00  0.00000000E+00  0.00000000E+00
  0.00000000E+00  0.00000000E+00  0.00000000E+00
  0.00000000E+00  0.00000000E+00  0.00000000E+00