Species order:X N B                     
   2.51242800000000     
     5.9449720136058266    0.0000000000000000    0.0000000000000000
    -2.9724860068029120    5.1484967885702053   -0.0000000000000001
     0.0000000000000000    0.0000000000000009    5.3101128803662583
   C    N    B 
     1   144   142
Direct
  0.4467978014973368  0.3922473594492361  0.3750000000000000
  0.5443588459904818  0.4432357375193577  0.3750000000000000
  0.1111157089725750  0.0555811219852548  0.1242923942768028
  0.6111420932868726  0.5555722972999050  0.1254492441229309
  0.4444840062850643  0.0556174032597838  0.1245180762711886
  0.9444665011320906  0.5555864132712310  0.1244313017354910
  0.7778504935625501  0.0555753329407887  0.1241151011086125
  0.1111292545932084  0.7222650411555821  0.6259385399529578
  0.4444995733484467  0.7222590536461954  0.6255338657448615
  0.2777641283797776  0.2222339292272348  0.6255841785120244
  0.7778423416309013  0.7222891067619526  0.6255422389350545
  0.6111772196371806  0.2222497710144460  0.6241766195090155
  0.9444988704506292  0.2222241933794664  0.6259505841988017
  0.2778130108579372  0.7222666092159641  0.1244761388121879
  0.1111247196108244  0.2222242614783623  0.1243516215864557
  0.4444143566522800  0.2222482208006939  0.1253818835415011
  0.6111728963590123  0.7222495557837023  0.1243589468695160
  0.9444821635892501  0.7222920679888326  0.1241137410351504
  0.7778502008017443  0.2222304798474896  0.1242533827020003
  0.1111298127412313  0.8889437065870852  0.6260581999347997
  0.4445004608984930  0.8889514923114773  0.6256519047987402
  0.2777969621549446  0.3888898001452790  0.6256454483853382
  0.6111373164340146  0.3889383904905633  0.6238972819591661
  0.7778454312943204  0.8889314442062995  0.6255833261693204
  0.9444817549700768  0.3888934826363760  0.6259080378129995
  0.1111406669509812  0.3888969158366814  0.1241674997235893
  0.2778084592891177  0.8889480979263350  0.1241048340825761
  0.6111798640256708  0.8889304321203862  0.1242433855173637
  0.4444461701798919  0.3888999928786890  0.1251526216548081
  0.9444911882462269  0.8889506825856882  0.1243189340441593
  0.7778396628312091  0.3888942539864381  0.1257528344699488
  0.2778123134229267  0.5555758992928655  0.6255626369561448
  0.1111157089725750  0.0555811219852547  0.6257076057231490
  0.6111420932868726  0.5555722972999050  0.6245507558771044
  0.4444840062850643  0.0556174032597838  0.6254819237286806
  0.9444665011320906  0.5555864132712310  0.6255686982645629
  0.1111292062112463  0.5555771369650823  0.1242256349669186
  0.7778504935625501  0.0555753329407887  0.6258848988913505
  0.2777756494769745  0.0555980538644126  0.1240808667053052
  0.4444852557379360  0.5555661615167236  0.1244735137304914
  0.7778376436935077  0.5556527341026323  0.1255237828725750
  0.6111813291277621  0.0556019828741866  0.1242309479622706
  0.4444852557379360  0.5555661615167236  0.6255264862695641
  0.9444909431040659  0.0555775886696811  0.1245098154453192
  0.2778130108579372  0.7222666092159641  0.6255238611879236
  0.1111247196108214  0.2222242614783623  0.6256483784135553
  0.4444143566522800  0.2222482208006939  0.6246181164585227
  0.6111728963590123  0.7222495557837023  0.6256410531303992
  0.9444821635892501  0.7222920679888326  0.6258862589646993
  0.7778502008017442  0.2222304798474899  0.6257466172978542
  0.1111292545932080  0.7222650411555821  0.1240614600470858
  0.4444995733484467  0.7222590536461955  0.1244661342550693
  0.2777641283797776  0.2222339292272348  0.1244158214879725
  0.7778423416309013  0.7222891067619526  0.1244577610650549
  0.6111772196371806  0.2222497710144460  0.1258233804909185
  0.9444988704506292  0.2222241933794664  0.1240494158011968
  0.1111406669509812  0.3888969158366814  0.6258325002764361
  0.2778084592891177  0.8889480979263350  0.6258951659175385
  0.6111798640256708  0.8889304321203862  0.6257566144826806
  0.4444461701798919  0.3888999928786890  0.6248473783451441
  0.9444911882462269  0.8889506825856882  0.6256810659558623
  0.1111298127412313  0.8889437065870852  0.1239418000653103
  0.7778396628312091  0.3888942539864381  0.6242471655300346
  0.4445004608984930  0.8889514923114773  0.1243480952013145
  0.2777969621549446  0.3888898001452790  0.1243545516146480
  0.2778123134229267  0.5555758992928655  0.1244373630439877
  0.6111373164340146  0.3889383904905633  0.1261027180410187
  0.7778454312943204  0.8889314442062995  0.1244166738306164
  0.9444817549700768  0.3888934826363760  0.1240919621869847
  0.1111292062112463  0.5555771369650823  0.6257743650330693
  0.2777756494769745  0.0555980538644126  0.6259191332948348
  0.7778376436935077  0.5556527341026323  0.6244762171272858
  0.6111813291277621  0.0556019828741890  0.6257690520377224
  0.9444909431040659  0.0555775886696811  0.6254901845547252
  0.0555222977434899  0.1109850025321664  0.3750000000000000
  0.5547171235727808  0.6119243379369181  0.3750000000000000
  0.3872735359877144  0.1103685832018919  0.3750000000000000
  0.8915762053365831  0.6132214016362837  0.3750000000000000
  0.7223702255090898  0.1104139562830006  0.3750000000000000
  0.0554296290564371  0.7777348213407572  0.8750000000000000
  0.3887566807258336  0.7777404221559781  0.8750000000000000
  0.2221011736603124  0.2777526220229514  0.8750000000000000
  0.7220821845357828  0.7777374202252108  0.8750000000000000
  0.5554292174671339  0.2777429058973372  0.8750000000000000
  0.8887552805633285  0.2777511591602636  0.8750000000000000
  0.2227597243943221  0.7779235496426953  0.3750000000000000
  0.0556852327000591  0.2776615656968527  0.3750000000000000
  0.3906066857540064  0.2833798249653751  0.3750000000000000
  0.5552204915395297  0.7776358986014457  0.3750000000000000
  0.8885298917368554  0.7774309279381335  0.3750000000000000
  0.7229654871971950  0.2773036429911157  0.3750000000000000
  0.0554287805658470  0.9444065891119088  0.8750000000000000
  0.3887620292589703  0.9444018283624962  0.8750000000000000
  0.2220971072003055  0.4444201528668773  0.8750000000000000
  0.5554254339916439  0.4444149316597008  0.8750000000000000
  0.7220804096021031  0.9444056388660703  0.8750000000000000
  0.8887594075724221  0.4444137663632295  0.8750000000000000
  0.0570034602897612  0.4446663657288495  0.3750000000000000
  0.2221821026061505  0.9444453756466408  0.3750000000000000
  0.5553538654851919  0.9433732531399399  0.3750000000000000
  0.3878377602534723  0.4428156459080425  0.3750000000000000
  0.8888231704985564  0.9441235827507208  0.3750000000000000
  0.7280307989995319  0.4471226240521442  0.3750000000000000
  0.2220935547232786  0.6110775277805262  0.8750000000000000
  0.0554276585605418  0.1110780136532668  0.8750000000000000
  0.5554190639461198  0.6110744315129348  0.8750000000000000
  0.3887695047816482  0.1110736235358958  0.8750000000000000
  0.8887574791844983  0.6110677952345431  0.8750000000000000
  0.0570173603277044  0.6117385263362725  0.3750000000000000
  0.7220791766395668  0.1110737332370906  0.8750000000000000
  0.2233148872494175  0.1127874837381912  0.3750000000000000
  0.3885759894837914  0.6104794314491001  0.3750000000000000
  0.7199560593637446  0.6093354981354890  0.3750000000000000
  0.5553137589416910  0.1087502519412808  0.3750000000000000
  0.3887579145051780  0.6110801447671128  0.8750000000000000
  0.8889996220518170  0.1107356001883076  0.3750000000000000
  0.2220973716408012  0.7777358051427445  0.8750000000000000
  0.0554280621594143  0.2777527884795338  0.8750000000000000
  0.3887715475422702  0.2777530476590416  0.8750000000000000
  0.5554153772557281  0.7777396698862574  0.8750000000000000
  0.8887560107314609  0.7777363409877133  0.8750000000000000
  0.7220858937265140  0.2777448815368023  0.8750000000000000
  0.0566664839849478  0.7786200647786836  0.3750000000000000
  0.3889017266373889  0.7773936934689172  0.3750000000000000
  0.2215380449115589  0.2777585160931712  0.3750000000000000
  0.7218323079110566  0.7773511572357797  0.3750000000000000
  0.5534231408816290  0.2725641442834165  0.3750000000000000
  0.8895710786839829  0.2775961234277435  0.3750000000000000
  0.0554274738134320  0.4444186372235179  0.8750000000000000
  0.2221008929772135  0.9444027996613292  0.8750000000000000
  0.5554147066823913  0.9444037613429284  0.8750000000000000
  0.3887658579498542  0.4444207379487020  0.8750000000000000
  0.8887559121956382  0.9444075830391085  0.8750000000000000
  0.0559294545184059  0.9448748454163856  0.3750000000000000
  0.7220920194047319  0.4444091943085542  0.8750000000000000
  0.3886951211246578  0.9439925210543106  0.3750000000000000
  0.2226483852326538  0.4444705892267204  0.3750000000000000
  0.2228158171521176  0.6112310910133076  0.3750000000000000
  0.7221557544860676  0.9439180222920172  0.3750000000000000
  0.8918723124661389  0.4449218818138940  0.3750000000000000
  0.0554294406894687  0.6110731565188053  0.8750000000000000
  0.2221012996582874  0.1110772274943533  0.8750000000000000
  0.7220818012680237  0.6110683975286088  0.8750000000000000
  0.5554207298218260  0.1110708573445054  0.8750000000000000
  0.8887542038444531  0.1110777071001853  0.8750000000000000
  0.1121946171961285  0.0563753254810175  0.3750000000000000
  0.6075007572874764  0.5522172768898920  0.3750000000000000
  0.4448038246982263  0.0564564811238801  0.3750000000000000
  0.9447422876950345  0.5555330895812586  0.3750000000000000
  0.7775050056067768  0.0554421274916067  0.3750000000000000
  0.1109471524732282  0.7221509722319126  0.8750000000000000
  0.4443170605700508  0.7221869753915406  0.8750000000000000
  0.2777667677889448  0.2222306274484409  0.8750000000000000
  0.7775998388099181  0.7220709463233417  0.8750000000000000
  0.6109806609451156  0.2222696908461654  0.8750000000000000
  0.9442667134190669  0.2222273000334073  0.8750000000000000
  0.2780148846635303  0.7222937439525534  0.3750000000000000
  0.1107408550070518  0.2219726190548130  0.3750000000000000
  0.4501383113590506  0.2250896204530843  0.3750000000000000
  0.6108630411766097  0.7222562196864807  0.3750000000000000
  0.9450072741503254  0.7220738640493410  0.3750000000000000
  0.7770832876754236  0.2229535225461796  0.3750000000000000
  0.1109962910754546  0.8888306169947425  0.8750000000000000
  0.4443226006355405  0.8888963040861818  0.8750000000000000
  0.2777120293271914  0.3888732990417118  0.8750000000000000
  0.6110129672062602  0.3888339537844269  0.8750000000000000
  0.7776138736248847  0.8888162585577446  0.8750000000000000
  0.9442285247307195  0.3888739438978188  0.8750000000000000
  0.1114532558974759  0.3888517911664685  0.3750000000000000
  0.2781304094297445  0.8891858861474672  0.3750000000000000
  0.6109497582983731  0.8885815949082999  0.3750000000000000
  0.9441889630089415  0.8881079317458629  0.3750000000000000
  0.7770564932316008  0.3913263991042165  0.3750000000000000
  0.2776542604993377  0.5555262435870896  0.8750000000000000
  0.1110311792639630  0.0555306577469497  0.8750000000000000
  0.6109893754007377  0.5554244959979372  0.8750000000000000
  0.4443749692079807  0.0556022600003315  0.8750000000000000
  0.9442219914717145  0.5554625717233048  0.8750000000000000
  0.1115493618407133  0.5557067200959600  0.3750000000000000
  0.7776000698387938  0.0555571515293302  0.8750000000000000
  0.2784909529594041  0.0560606488151852  0.3750000000000000
  0.4446674949281519  0.5552131017743437  0.3750000000000000
  0.7770832801533559  0.5511524204860355  0.3750000000000000
  0.6108031981340010  0.0550770552628671  0.3750000000000000
  0.4443559211477612  0.5554968972357655  0.8750000000000000
  0.9442736767688292  0.0551810461123281  0.3750000000000000
  0.2776414129406148  0.7221928597759000  0.8750000000000000
  0.1110113554751052  0.2222153528335357  0.8750000000000000
  0.4444466021984880  0.2222591743493880  0.8750000000000000
  0.6109693574770058  0.7221296002462544  0.8750000000000000
  0.9442531773419824  0.7220860836640649  0.8750000000000000
  0.7775739664489192  0.2222523364548211  0.8750000000000000
  0.1115769119674250  0.7223955631737250  0.3750000000000000
  0.4443351439414162  0.7218239856200805  0.3750000000000000
  0.2799293085750609  0.2249580567028851  0.3750000000000000
  0.7759410926474662  0.7192366955234512  0.3750000000000000
  0.6092686398416838  0.2233670548036291  0.3750000000000000
  0.9441388474739595  0.2222116863320420  0.3750000000000000
  0.1109611492509553  0.3888779295118056  0.8750000000000000
  0.2776825146419473  0.8888796865419235  0.8750000000000000
  0.6109575473854975  0.8888678027616054  0.8750000000000000
  0.4444269071600383  0.3888606038871857  0.8750000000000000
  0.9442939616598506  0.8887949720692414  0.8750000000000000
  0.1115935463322285  0.8891516918598594  0.3750000000000000
  0.7775609613496993  0.3888571210596401  0.8750000000000000
  0.4444225503122877  0.8888786243069704  0.3750000000000000
  0.2770514056351333  0.3880758109026893  0.3750000000000000
  0.2778685906534286  0.5555010985905798  0.3750000000000000
  0.7774998631357526  0.8881367604239265  0.3750000000000000
  0.9451712731122854  0.3892461441003353  0.3750000000000000
  0.1109306920462827  0.5555129129162086  0.8750000000000000
  0.2777477964159649  0.0555698849867733  0.8750000000000000
  0.7775725101918330  0.5553967691770473  0.8750000000000000
  0.6109588821941409  0.0555951496540180  0.8750000000000000
  0.9442995396761389  0.0555233617148574  0.8750000000000000
  0.0555988665306632  0.1111148678732995  0.1247519583939967
  0.5557796324311240  0.6109385202167172  0.1251870575984838
  0.3891768786662212  0.1115028057796034  0.1255129886718041
  0.8885633456643898  0.6108915922243987  0.1256136268283202
  0.7222655074985646  0.1113337731549983  0.1247488116238975
  0.0554290283631924  0.7777392236054687  0.6255602835219877
  0.3889811939927105  0.7779145494121907  0.6252118941698700
  0.2223413200108309  0.2777418952367753  0.6253215823807043
  0.7223319717321943  0.7776867315046085  0.6251512369259780
  0.5558346631387329  0.2781673384518600  0.6211337147773688
  0.8887423276966857  0.2778199085148758  0.6253287153453344
  0.2221915135817417  0.7778693590263682  0.1245749474543035
  0.0555187766646678  0.2777624711963382  0.1245256119089949
  0.3892338423274866  0.2778456828084376  0.1257885130835228
  0.5557058114641275  0.7778081572210545  0.1246751808503472
  0.8888361758632513  0.7776601594985415  0.1248139484491944
  0.7221228207332970  0.2779892954938265  0.1266854663700417
  0.0555722316906726  0.9444591778392102  0.6254460826070557
  0.3890569398024005  0.9447764034264300  0.6252244504402771
  0.2222485086524407  0.4443972205034984  0.6254102617851192
  0.5558739115813025  0.4441829535233251  0.6226650461678105
  0.7223166154585758  0.9445300866631249  0.6253685130260842
  0.8884981702779544  0.4443242143002917  0.6242849895175635
  0.0553633917841231  0.4443895298095639  0.1245505373011235
  0.2223090052538591  0.9446144096768146  0.1244220065490411
  0.5557016452932255  0.9447029607096369  0.1246815316094844
  0.3891430079362178  0.4443161735016649  0.1249567216712856
  0.8889312394771218  0.9444337745860711  0.1248259269413090
  0.7219530546334350  0.4442767414251817  0.1290191073925926
  0.2221588493622414  0.6111083863570572  0.6252759142060914
  0.0555988665306632  0.1111148678733010  0.6252480416060923
  0.5557796324311240  0.6109385202167172  0.6248129424014611
  0.3891768786662202  0.1115028057796034  0.6244870113281716
  0.8885633456643898  0.6108915922243987  0.6243863731714940
  0.0552848531532871  0.6110161495417794  0.1246894344938103
  0.7222655074985646  0.1113337731549983  0.6252511883761278
  0.2223744471296690  0.1112029900257710  0.1246871537889795
  0.3890158801329662  0.6110784179519604  0.1247389184641487
  0.7222575465343509  0.6108461728036202  0.1261985510427505
  0.5557629643081586  0.1115831259368045  0.1257896228425279
  0.3890158801329662  0.6110784179519604  0.6252610815359078
  0.8888953524379661  0.1111659153004025  0.1246136811744446
  0.2221915135817417  0.7778693590263682  0.6254250525457796
  0.0555187766646677  0.2777624711963382  0.6254743880907943
  0.3892338423274866  0.2778456828084376  0.6242114869164542
  0.5557058114641275  0.7778081572210545  0.6253248191495899
  0.8888361758632513  0.7776601594985415  0.6251860515508039
  0.7221228207332970  0.2779892954938265  0.6233145336300910
  0.0554290283631933  0.7777392236054687  0.1244397164780374
  0.3889811939927105  0.7779145494121907  0.1247881058300809
  0.2223413200108309  0.2777418952367753  0.1246784176193013
  0.7223319717321943  0.7776867315046085  0.1248487630739949
  0.5558346631387329  0.2781673384518600  0.1288662852226776
  0.8887423276966857  0.2778199085148758  0.1246712846546450
  0.0553633917841232  0.4443895298095639  0.6254494626988351
  0.2223090052538591  0.9446144096768146  0.6255779934508567
  0.5557016452932255  0.9447029607096369  0.6253184683906636
  0.3891430079362191  0.4443161735016649  0.6250432783286963
  0.8889312394771218  0.9444337745860711  0.6251740730585722
  0.0555722316906722  0.9444591778392102  0.1245539173929137
  0.7219530546334350  0.4442767414251817  0.6209808926075600
  0.3890569398024005  0.9447764034264300  0.1247755495596920
  0.2222485086524407  0.4443972205034984  0.1245897382148871
  0.2221588493622414  0.6111083863570572  0.1247240857939682
  0.5558739115813025  0.4441829535233251  0.1273349538322185
  0.7223166154585758  0.9445300866631249  0.1246314869739457
  0.8884981702779544  0.4443242143002917  0.1257150104825742
  0.0552848531532849  0.6110161495417794  0.6253105655062735
  0.2223744471296688  0.1112029900257710  0.6253128462109597
  0.7222575465343509  0.6108461728036202  0.6238014489573532
  0.5557629643081586  0.1115831259368045  0.6242103771575346
  0.8888953524379661  0.1111659153004025  0.6253863188256549
 
  0.00000000E+00  0.00000000E+00  0.00000000E+00
  0.00000000E+00  0.00000000E+00  0.00000000E+00
  0.00000000E+00  0.00000000E+00  0.00000000E+00
  0.00000000E+00  0.00000000E+00  0.00000000E+00
  0.00000000E+00  0.00000000E+00  0.00000000E+00
  0.00000000E+00  0.00000000E+00  0.00000000E+00
  0.00000000E+00  0.00000000E+00  0.00000000E+00
  0.00000000E+00  0.00000000E+00  0.00000000E+00
  0.00000000E+00  0.00000000E+00  0.00000000E+00
  0.00000000E+00  0.00000000E+00  0.00000000E+00
  0.00000000E+00  0.00000000E+00  0.00000000E+00
  0.00000000E+00  0.00000000E+00  0.00000000E+00
  0.00000000E+00  0.00000000E+00  0.00000000E+00
  0.00000000E+00  0.00000000E+00  0.00000000E+00
  0.00000000E+00  0.00000000E+00  0.00000000E+00
  0.00000000E+00  0.00000000E+00  0.00000000E+00
  0.00000000E+00  0.00000000E+00  0.00000000E+00
  0.00000000E+00  0.00000000E+00  0.00000000E+00
  0.00000000E+00  0.00000000E+00  0.00000000E+00
  0.00000000E+00  0.00000000E+00  0.00000000E+00
  0.00000000E+00  0.00000000E+00  0.00000000E+00
  0.00000000E+00  0.00000000E+00  0.00000000E+00
  0.00000000E+00  0.00000000E+00  0.00000000E+00
  0.00000000E+00  0.00000000E+00  0.00000000E+00
  0.00000000E+00  0.00000000E+00  0.00000000E+00
  0.00000000E+00  0.00000000E+00  0.00000000E+00
  0.00000000E+00  0.00000000E+00  0.00000000E+00
  0.00000000E+00  0.00000000E+00  0.00000000E+00
  0.00000000E+00  0.00000000E+00  0.00000000E+00
  0.00000000E+00  0.00000000E+00  0.00000000E+00
  0.00000000E+00  0.00000000E+00  0.00000000E+00
  0.00000000E+00  0.00000000E+00  0.00000000E+00
  0.00000000E+00  0.00000000E+00  0.00000000E+00
  0.00000000E+00  0.00000000E+00  0.00000000E+00
  0.00000000E+00  0.00000000E+00  0.00000000E+00
  0.00000000E+00  0.00000000E+00  0.00000000E+00
  0.00000000E+00  0.00000000E+00  0.00000000E+00
  0.00000000E+00  0.00000000E+00  0.00000000E+00
  0.00000000E+00  0.00000000E+00  0.00000000E+00
  0.00000000E+00  0.00000000E+00  0.00000000E+00
  0.00000000E+00  0.00000000E+00  0.00000000E+00
  0.00000000E+00  0.00000000E+00  0.00000000E+00
  0.00000000E+00  0.00000000E+00  0.00000000E+00
  0.00000000E+00  0.00000000E+00  0.00000000E+00
  0.00000000E+00  0.00000000E+00  0.00000000E+00
  0.00000000E+00  0.00000000E+00  0.00000000E+00
  0.00000000E+00  0.00000000E+00  0.00000000E+00
  0.00000000E+00  0.00000000E+00  0.00000000E+00
  0.00000000E+00  0.00000000E+00  0.00000000E+00
  0.00000000E+00  0.00000000E+00  0.00000000E+00
  0.00000000E+00  0.00000000E+00  0.00000000E+00
  0.00000000E+00  0.00000000E+00  0.00000000E+00
  0.00000000E+00  0.00000000E+00  0.00000000E+00
  0.00000000E+00  0.00000000E+00  0.00000000E+00
  0.00000000E+00  0.00000000E+00  0.00000000E+00
  0.00000000E+00  0.00000000E+00  0.00000000E+00
  0.00000000E+00  0.00000000E+00  0.00000000E+00
  0.00000000E+00  0.00000000E+00  0.00000000E+00
  0.00000000E+00  0.00000000E+00  0.00000000E+00
  0.00000000E+00  0.00000000E+00  0.00000000E+00
  0.00000000E+00  0.00000000E+00  0.00000000E+00
  0.00000000E+00  0.00000000E+00  0.00000000E+00
  0.00000000E+00  0.00000000E+00  0.00000000E+00
  0.00000000E+00  0.00000000E+00  0.00000000E+00
  0.00000000E+00  0.00000000E+00  0.00000000E+00
  0.00000000E+00  0.00000000E+00  0.00000000E+00
  0.00000000E+00  0.00000000E+00  0.00000000E+00
  0.00000000E+00  0.00000000E+00  0.00000000E+00
  0.00000000E+00  0.00000000E+00  0.00000000E+00
  0.00000000E+00  0.00000000E+00  0.00000000E+00
  0.00000000E+00  0.00000000E+00  0.00000000E+00
  0.00000000E+00  0.00000000E+00  0.00000000E+00
  0.00000000E+00  0.00000000E+00  0.00000000E+00
  0.00000000E+00  0.00000000E+00  0.00000000E+00
  0.00000000E+00  0.00000000E+00  0.00000000E+00
  0.00000000E+00  0.00000000E+00  0.00000000E+00
  0.00000000E+00  0.00000000E+00  0.00000000E+00
  0.00000000E+00  0.00000000E+00  0.00000000E+00
  0.00000000E+00  0.00000000E+00  0.00000000E+00
  0.00000000E+00  0.00000000E+00  0.00000000E+00
  0.00000000E+00  0.00000000E+00  0.00000000E+00
  0.00000000E+00  0.00000000E+00  0.00000000E+00
  0.00000000E+00  0.00000000E+00  0.00000000E+00
  0.00000000E+00  0.00000000E+00  0.00000000E+00
  0.00000000E+00  0.00000000E+00  0.00000000E+00
  0.00000000E+00  0.00000000E+00  0.00000000E+00
  0.00000000E+00  0.00000000E+00  0.00000000E+00
  0.00000000E+00  0.00000000E+00  0.00000000E+00
  0.00000000E+00  0.00000000E+00  0.00000000E+00
  0.00000000E+00  0.00000000E+00  0.00000000E+00
  0.00000000E+00  0.00000000E+00  0.00000000E+00
  0.00000000E+00  0.00000000E+00  0.00000000E+00
  0.00000000E+00  0.00000000E+00  0.00000000E+00
  0.00000000E+00  0.00000000E+00  0.00000000E+00
  0.00000000E+00  0.00000000E+00  0.00000000E+00
  0.00000000E+00  0.00000000E+00  0.00000000E+00
  0.00000000E+00  0.00000000E+00  0.00000000E+00
  0.00000000E+00  0.00000000E+00  0.00000000E+00
  0.00000000E+00  0.00000000E+00  0.00000000E+00
  0.00000000E+00  0.00000000E+00  0.00000000E+00
  0.00000000E+00  0.00000000E+00  0.00000000E+00
  0.00000000E+00  0.00000000E+00  0.00000000E+00
  0.00000000E+00  0.00000000E+00  0.00000000E+00
  0.00000000E+00  0.00000000E+00  0.00000000E+00
  0.00000000E+00  0.00000000E+00  0.00000000E+00
  0.00000000E+00  0.00000000E+00  0.00000000E+00
  0.00000000E+00  0.00000000E+00  0.00000000E+00
  0.00000000E+00  0.00000000E+00  0.00000000E+00
  0.00000000E+00  0.00000000E+00  0.00000000E+00
  0.00000000E+00  0.00000000E+00  0.00000000E+00
  0.00000000E+00  0.00000000E+00  0.00000000E+00
  0.00000000E+00  0.00000000E+00  0.00000000E+00
  0.00000000E+00  0.00000000E+00  0.00000000E+00
  0.00000000E+00  0.00000000E+00  0.00000000E+00
  0.00000000E+00  0.00000000E+00  0.00000000E+00
  0.00000000E+00  0.00000000E+00  0.00000000E+00
  0.00000000E+00  0.00000000E+00  0.00000000E+00
  0.00000000E+00  0.00000000E+00  0.00000000E+00
  0.00000000E+00  0.00000000E+00  0.00000000E+00
  0.00000000E+00  0.00000000E+00  0.00000000E+00
  0.00000000E+00  0.00000000E+00  0.00000000E+00
  0.00000000E+00  0.00000000E+00  0.00000000E+00
  0.00000000E+00  0.00000000E+00  0.00000000E+00
  0.00000000E+00  0.00000000E+00  0.00000000E+00
  0.00000000E+00  0.00000000E+00  0.00000000E+00
  0.00000000E+00  0.00000000E+00  0.00000000E+00
  0.00000000E+00  0.00000000E+00  0.00000000E+00
  0.00000000E+00  0.00000000E+00  0.00000000E+00
  0.00000000E+00  0.00000000E+00  0.00000000E+00
  0.00000000E+00  0.00000000E+00  0.00000000E+00
  0.00000000E+00  0.00000000E+00  0.00000000E+00
  0.00000000E+00  0.00000000E+00  0.00000000E+00
  0.00000000E+00  0.00000000E+00  0.00000000E+00
  0.00000000E+00  0.00000000E+00  0.00000000E+00
  0.00000000E+00  0.00000000E+00  0.00000000E+00
  0.00000000E+00  0.00000000E+00  0.00000000E+00
  0.00000000E+00  0.00000000E+00  0.00000000E+00
  0.00000000E+00  0.00000000E+00  0.00000000E+00
  0.00000000E+00  0.00000000E+00  0.00000000E+00
  0.00000000E+00  0.00000000E+00  0.00000000E+00
  0.00000000E+00  0.00000000E+00  0.00000000E+00
  0.00000000E+00  0.00000000E+00  0.00000000E+00
  0.00000000E+00  0.00000000E+00  0.00000000E+00
  0.00000000E+00  0.00000000E+00  0.00000000E+00
  0.00000000E+00  0.00000000E+00  0.00000000E+00
  0.00000000E+00  0.00000000E+00  0.00000000E+00
  0.00000000E+00  0.00000000E+00  0.00000000E+00
  0.00000000E+00  0.00000000E+00  0.00000000E+00
  0.00000000E+00  0.00000000E+00  0.00000000E+00
  0.00000000E+00  0.00000000E+00  0.00000000E+00
  0.00000000E+00  0.00000000E+00  0.00000000E+00
  0.00000000E+00  0.00000000E+00  0.00000000E+00
  0.00000000E+00  0.00000000E+00  0.00000000E+00
  0.00000000E+00  0.00000000E+00  0.00000000E+00
  0.00000000E+00  0.00000000E+00  0.00000000E+00
  0.00000000E+00  0.00000000E+00  0.00000000E+00
  0.00000000E+00  0.00000000E+00  0.00000000E+00
  0.00000000E+00  0.00000000E+00  0.00000000E+00
  0.00000000E+00  0.00000000E+00  0.00000000E+00
  0.00000000E+00  0.00000000E+00  0.00000000E+00
  0.00000000E+00  0.00000000E+00  0.00000000E+00
  0.00000000E+00  0.00000000E+00  0.00000000E+00
  0.00000000E+00  0.00000000E+00  0.00000000E+00
  0.00000000E+00  0.00000000E+00  0.00000000E+00
  0.00000000E+00  0.00000000E+00  0.00000000E+00
  0.00000000E+00  0.00000000E+00  0.00000000E+00
  0.00000000E+00  0.00000000E+00  0.00000000E+00
  0.00000000E+00  0.00000000E+00  0.00000000E+00
  0.00000000E+00  0.00000000E+00  0.00000000E+00
  0.00000000E+00  0.00000000E+00  0.00000000E+00
  0.00000000E+00  0.00000000E+00  0.00000000E+00
  0.00000000E+00  0.00000000E+00  0.00000000E+00
  0.00000000E+00  0.00000000E+00  0.00000000E+00
  0.00000000E+00  0.00000000E+00  0.00000000E+00
  0.00000000E+00  0.00000000E+00  0.00000000E+00
  0.00000000E+00  0.00000000E+00  0.00000000E+00
  0.00000000E+00  0.00000000E+00  0.00000000E+00
  0.00000000E+00  0.00000000E+00  0.00000000E+00
  0.00000000E+00  0.00000000E+00  0.00000000E+00
  0.00000000E+00  0.00000000E+00  0.00000000E+00
  0.00000000E+00  0.00000000E+00  0.00000000E+00
  0.00000000E+00  0.00000000E+00  0.00000000E+00
  0.00000000E+00  0.00000000E+00  0.00000000E+00
  0.00000000E+00  0.00000000E+00  0.00000000E+00
  0.00000000E+00  0.00000000E+00  0.00000000E+00
  0.00000000E+00  0.00000000E+00  0.00000000E+00
  0.00000000E+00  0.00000000E+00  0.00000000E+00
  0.00000000E+00  0.00000000E+00  0.00000000E+00
  0.00000000E+00  0.00000000E+00  0.00000000E+00
  0.00000000E+00  0.00000000E+00  0.00000000E+00
  0.00000000E+00  0.00000000E+00  0.00000000E+00
  0.00000000E+00  0.00000000E+00  0.00000000E+00
  0.00000000E+00  0.00000000E+00  0.00000000E+00
  0.00000000E+00  0.00000000E+00  0.00000000E+00
  0.00000000E+00  0.00000000E+00  0.00000000E+00
  0.00000000E+00  0.00000000E+00  0.00000000E+00
  0.00000000E+00  0.00000000E+00  0.00000000E+00
  0.00000000E+00  0.00000000E+00  0.00000000E+00
  0.00000000E+00  0.00000000E+00  0.00000000E+00
  0.00000000E+00  0.00000000E+00  0.00000000E+00
  0.00000000E+00  0.00000000E+00  0.00000000E+00
  0.00000000E+00  0.00000000E+00  0.00000000E+00
  0.00000000E+00  0.00000000E+00  0.00000000E+00
  0.00000000E+00  0.00000000E+00  0.00000000E+00
  0.00000000E+00  0.00000000E+00  0.00000000E+00
  0.00000000E+00  0.00000000E+00  0.00000000E+00
  0.00000000E+00  0.00000000E+00  0.00000000E+00
  0.00000000E+00  0.00000000E+00  0.00000000E+00
  0.00000000E+00  0.00000000E+00  0.00000000E+00
  0.00000000E+00  0.00000000E+00  0.00000000E+00
  0.00000000E+00  0.00000000E+00  0.00000000E+00
  0.00000000E+00  0.00000000E+00  0.00000000E+00
  0.00000000E+00  0.00000000E+00  0.00000000E+00
  0.00000000E+00  0.00000000E+00  0.00000000E+00
  0.00000000E+00  0.00000000E+00  0.00000000E+00
  0.00000000E+00  0.00000000E+00  0.00000000E+00
  0.00000000E+00  0.00000000E+00  0.00000000E+00
  0.00000000E+00  0.00000000E+00  0.00000000E+00
  0.00000000E+00  0.00000000E+00  0.00000000E+00
  0.00000000E+00  0.00000000E+00  0.00000000E+00
  0.00000000E+00  0.00000000E+00  0.00000000E+00
  0.00000000E+00  0.00000000E+00  0.00000000E+00
  0.00000000E+00  0.00000000E+00  0.00000000E+00
  0.00000000E+00  0.00000000E+00  0.00000000E+00
  0.00000000E+00  0.00000000E+00  0.00000000E+00
  0.00000000E+00  0.00000000E+00  0.00000000E+00
  0.00000000E+00  0.00000000E+00  0.00000000E+00
  0.00000000E+00  0.00000000E+00  0.00000000E+00
  0.00000000E+00  0.00000000E+00  0.00000000E+00
  0.00000000E+00  0.00000000E+00  0.00000000E+00
  0.00000000E+00  0.00000000E+00  0.00000000E+00
  0.00000000E+00  0.00000000E+00  0.00000000E+00
  0.00000000E+00  0.00000000E+00  0.00000000E+00
  0.00000000E+00  0.00000000E+00  0.00000000E+00
  0.00000000E+00  0.00000000E+00  0.00000000E+00
  0.00000000E+00  0.00000000E+00  0.00000000E+00
  0.00000000E+00  0.00000000E+00  0.00000000E+00
  0.00000000E+00  0.00000000E+00  0.00000000E+00
  0.00000000E+00  0.00000000E+00  0.00000000E+00
  0.00000000E+00  0.00000000E+00  0.00000000E+00
  0.00000000E+00  0.00000000E+00  0.00000000E+00
  0.00000000E+00  0.00000000E+00  0.00000000E+00
  0.00000000E+00  0.00000000E+00  0.00000000E+00
  0.00000000E+00  0.00000000E+00  0.00000000E+00
  0.00000000E+00  0.00000000E+00  0.00000000E+00
  0.00000000E+00  0.00000000E+00  0.00000000E+00
  0.00000000E+00  0.00000000E+00  0.00000000E+00
  0.00000000E+00  0.00000000E+00  0.00000000E+00