Species order: N B Al 
 1.0
 17.527901000000000   0.000000000000000   0.000000000000000
 -8.763950499999996  15.179607541018669   0.000000000000000
  0.000000000000001   0.000000000000002  15.000000000000000
N B Al
  48  48   1
Cartesian
  8.757044507006004  13.727101254633675   1.664910000000000 
 16.282850372217499   0.728150594135125   1.664715000000000 
 15.043189573992500   2.904875956302120   1.665510000000000 
 13.793283717633001   5.069776404194661   1.665510000000000 
 12.528014656047000   7.231716828616704   1.664715000000000 
 11.258565190072503   9.394340335378091   1.664910000000000 
 10.003251976254505  11.558102312705058   1.665045000000000 
 -6.267626839579997  13.725097546438260   1.664355000000000 
  1.251632354608000   0.712439700330170   1.665120000000000 
  0.014688381038001   2.893840381619799   1.665045000000000 
 -1.224911069533499   5.075499116237626   1.665000000000000 
 -2.494483230814998   7.239853098258690   1.665045000000000 
 -3.765168413809998   9.401793522680732   1.665120000000000 
 -5.019465009369998  11.563217840446381   1.664355000000000 
 -3.761548902253496  13.730729180835977   1.664520000000000 
  3.759226455371000   0.705669595366876   1.665480000000000 
  2.515218737698000   2.865727748453833   1.665825000000000 
  1.282890444724668   5.059869180339556   1.665255000000000 
  0.015485900533502   7.255078244622332   1.665255000000000 
 -1.268581834874998   9.419462585858479   1.665825000000000 
 -2.517234446312997  11.576818768803134   1.665480000000000 
 -1.256794321452497  13.751160932586188   1.665120000000000 
  6.272490832107500   0.710056501946230   1.665120000000000 
  5.040516018471001   2.846662161382313   1.665885000000000 
  3.813335085758001   4.973719847675095   1.664820000000000 
  1.206059812008002   9.489653091128149   1.664820000000000 
 -0.022435713279997  11.615951797043879   1.665885000000000 
  1.248862946250004  13.773216902343290   1.665165000000000 
  8.777657318582001   0.730746307024639   1.664460000000000 
  7.544420496073501   2.868991364075152   1.665165000000000 
  6.315626996468502   5.001392272222373   1.665105000000000 
  5.055037884449502   7.124412182909243   1.665135000000000 
  3.689474173341503   9.489637911520607   1.665135000000000 
  2.481170790005504  11.642865241214105   1.665105000000000 
  3.761259691887004  13.765019914271139   1.664895000000000 
 11.282026285561001   0.741645265239090   1.664775000000000 
 10.039289340710500   2.894128794163078   1.664775000000000 
  8.793520068987002   5.048889264218220   1.664895000000000 
  7.522978030516834   7.209296548278619   1.665300000000000 
  6.226252229269501   9.377430252577398   1.665900000000000 
  4.996024363099336  11.586108688618236   1.665300000000000 
  6.260659498932503  13.743358614310106   1.664730000000000 
 13.785168299470001   0.739975508409578   1.665030000000000 
 12.540275422796499   2.903084762612279   1.665720000000000 
 11.291076525110668   5.059869180339556   1.665030000000000 
 10.024451972514001   7.224278820921605   1.664730000000000 
  8.748210444902004   9.387980079818407   1.665765000000000 
  7.496358991531504  11.556250400585053   1.665765000000000 
  7.511327818985503  14.460109323181925   1.664880000000000 
 15.037896147890500   1.459838036827307   1.665450000000000 
 13.793310009484500   3.626544858017229   1.666185000000000 
 12.539179928984002   5.787741481669762   1.665450000000000 
 11.270501690653500   7.949029182967542   1.664880000000000 
  9.997362601518503  10.110392782303025   1.665585000000000 
  8.746554058257505  12.276856729772291   1.665585000000000 
 -7.519013803573997  14.448830874778947   1.665030000000000 
  0.008176765816500   1.450274884076465   1.665150000000000 
 -1.228425413683999   3.631447871252978   1.665405000000000 
 -2.477270832032999   5.794511586633057   1.665405000000000 
 -3.747920959225997   7.956026982043951   1.665150000000000 
 -5.019611075211665  10.119738360679111   1.665030000000000 
 -6.272823862226497  12.280864146163120   1.664595000000000 
 -5.013663274138996  14.447434350885175   1.664850000000000 
  2.506735233614000   1.432469204430850   1.665885000000000 
  1.273156617036001   3.618697000918522   1.665600000000000 
  0.042093254251501   5.807034762854396   1.665210000000000 
 -1.237522394302998   7.967320610054468   1.665600000000000 
 -2.514070660182497  10.128760107427658   1.665885000000000 
 -3.766938731810996  12.288044100530023   1.664850000000000 
 -2.506954332376497  14.455100052693389   1.665180000000000 
  5.022450595173666   1.420598751333773   1.665885000000000 
  3.785646844811667   3.562805685952492   1.665855000000000 
  2.574226416414501   5.728191881286346   1.666275000000000 
  1.239879896987502   8.039347847836602   1.666275000000000 
 -0.030431357452832  10.172447017930711   1.665855000000000 
 -1.265377150308831  12.311435875750732   1.665885000000000 
 -0.001419759980997  14.473816508791465   1.665105000000000 
  7.525998672122499   1.435945334557743   1.665105000000000 
  6.291596244197500   3.576087842550883   1.665690000000000 
  5.066378436396501   5.715896399178122   1.665120000000000 
  2.475316471071502  10.203747368680292   1.665120000000000 
  1.234788041747001  12.334736573326197   1.665690000000000 
  2.509863963942502  14.479083832608199   1.665120000000000 
 10.030025845032000   1.453811732633522   1.664760000000000 
  8.786202170319498   3.608147173677514   1.665120000000000 
  7.535253403850501   5.764440784094298   1.665345000000000 
  6.233570127937003   7.907027208901543   1.665690000000000 
  4.956060748819336  10.119738360679111   1.665690000000000 
  3.751794625347003  12.317583616804844   1.665345000000000 
  5.014776295852505  14.473345940957694   1.664910000000000 
 12.535095928051000   1.459883575649930   1.665450000000000 
 11.287819256841500   3.620230141280166   1.665450000000000 
 10.033680412390503   5.780349012797286   1.664910000000000 
  8.759542232898504   7.939374952571453   1.665570000000000 
  7.474159904915003  10.097930324511848   1.666245000000000 
  6.247478517380504  12.290396939698880   1.665570000000000 
  3.312370147277002   7.695119887628922   1.667685000000000 
