B C N                                   
   1.0000000000000000     
    17.5278999999999989    0.0000000000000000    0.0000000000000000
    -8.7639499999999995   15.1796066749929999    0.0000000000000000
     0.0000000000000000    0.0000000000000000   15.0000000000000000
   B    C    N 
    47     4    47
Selective dynamics
Direct
  0.9045625455219198  0.9521511778602171  0.1110112317117954   T   T   T
  0.9046555172556073  0.0951448407144991  0.1110373299614532   T   T   T
  0.9046890832282639  0.2381056640972378  0.1110390215473390   T   T   T
  0.9045481209068641  0.3809743384459022  0.1110031351117881   T   T   T
  0.9042916978134390  0.5238208896823954  0.1110008025762236   T   T   T
  0.9050899502987919  0.6668230253501983  0.1110443137977530   T   T   T
  0.9047027864027436  0.8093855040245684  0.1110348652121964   T   T   T
  0.0473030745400801  0.9520244645598103  0.1110092135241261   T   T   T
  0.0472563693914048  0.0948452235699097  0.1110094408922134   T   T   T
  0.0476314611928057  0.2380641946117393  0.1110047534978458   T   T   T
  0.0476087546327962  0.3810055656018516  0.1110161618761482   T   T   T
  0.0471923005531018  0.5238238484148544  0.1110126408114497   T   T   T
  0.0475044442293713  0.6666784712882600  0.1110178223814627   T   T   T
  0.0475972715791832  0.8095035442555530  0.1109997685155191   T   T   T
  0.1902715963186349  0.9520567411931842  0.1110014650840779   T   T   T
  0.1898924181469737  0.0943842408638971  0.1110434584513023   T   T   T
  0.1899767954986042  0.2373124959206483  0.1110164119059432   T   T   T
  0.1909557255611036  0.3811398337374947  0.1110012390897865   T   T   T
  0.1900181276634584  0.5240412040014846  0.1110463996676519   T   T   T
  0.1901778323182445  0.6668489777743530  0.1110451370119160   T   T   T
  0.1903500298760568  0.8095414291231614  0.1109997016574537   T   T   T
  0.3332970138757865  0.9522370646569112  0.1110207049072226   T   T   T
  0.3331090575469680  0.0943410846698754  0.1110600143814522   T   T   T
  0.3324743063376698  0.2357975978889869  0.1110340535284817   T   T   T
  0.3331401781086928  0.3778376650900972  0.1109745425228433   T   T   T
  0.3330572858451263  0.5263204063394871  0.1109643735635517   T   T   T
  0.3330685061135012  0.6678695332333848  0.1110653775908901   T   T   T
  0.3332800272531636  0.8099605272328101  0.1110489538741020   T   T   T
  0.4762982350146724  0.9523595703688535  0.1110114295793447   T   T   T
  0.4762919624423443  0.0950585847900750  0.1110014425197328   T   T   T
  0.4759870778683893  0.2374256562869752  0.1110318269630226   T   T   T
  0.4747881998833036  0.3790677251301596  0.1110931543881714   T   T   T
  0.4760033220425172  0.6664018304326218  0.1110498653845531   T   T   T
  0.4762839449897590  0.8095163412369341  0.1110576540492805   T   T   T
  0.6191215987350155  0.9522868721426764  0.1110231319501103   T   T   T
  0.6191297804710079  0.0954332296220193  0.1110038386658928   T   T   T
  0.6190766853256676  0.2387199335751631  0.1110091944906435   T   T   T
  0.6185704774634041  0.3820999733202517  0.1110078953862277   T   T   T
  0.6194317285068059  0.6659869297149960  0.1110313980784415   T   T   T
  0.6191214611476964  0.8091109768095203  0.1110021713307328   T   T   T
  0.7618339847287436  0.9522092886752161  0.1110022971604302   T   T   T
  0.7618664379380846  0.0952298236282864  0.1110411709004089   T   T   T
  0.7618303369579197  0.2382518866154525  0.1110491524321448   T   T   T
  0.7616454588375023  0.3811935455423758  0.1110104582187287   T   T   T
  0.7616718478435971  0.5243923596427901  0.1110279784163481   T   T   T
  0.7626363328800715  0.6667164159123371  0.1110442900869222   T   T   T
  0.7619338765148074  0.8093392005764618  0.1109974203800414   T   T   T
  0.3853633596959054  0.4783815070668409  0.1108220551715968   T   T   T
  0.4805930375348140  0.5259993996508503  0.1111093313150585   T   T   T
  0.5266289555029839  0.4810345322219033  0.1112565493879182   T   T   T
  0.6205566929737997  0.5254892155689446  0.1112943254457694   T   T   T
  0.9520876220144999  0.9044738130584107  0.1110050445171741   T   T   T
  0.9520572811116341  0.0473152572259221  0.1110030167859144   T   T   T
  0.9523003730590172  0.1904393423991892  0.1110168492247925   T   T   T
  0.9522703963770742  0.3333655311473787  0.1110039929965436   T   T   T
  0.9518938696057483  0.4761937612474121  0.1109795899652807   T   T   T
  0.9523182468949352  0.6190262002057181  0.1110067779235760   T   T   T
  0.9524231001252093  0.7619425639337712  0.1110167217445965   T   T   T
  0.0950612717723757  0.9045751057254899  0.1109789321953145   T   T   T
  0.0947353929167507  0.0470680916797560  0.1110039931014117   T   T   T
  0.0947982638074619  0.1899851063101325  0.1109899856752457   T   T   T
  0.0954864888537582  0.3334669759522888  0.1109917680967309   T   T   T
  0.0948005263444794  0.4762633145538754  0.1110099438739297   T   T   T
  0.0949614589064390  0.6190711117335853  0.1110108320926596   T   T   T
  0.0951282479775671  0.7618888473652349  0.1109848287551382   T   T   T
  0.2380317120326625  0.9046586459697571  0.1109873637085229   T   T   T
  0.2378387639478136  0.0470686593722553  0.1110263800015331   T   T   T
  0.2373465901691203  0.1892890352534320  0.1110166842051468   T   T   T
  0.2378799715914114  0.3324178904076839  0.1109964484586646   T   T   T
  0.2378530737393869  0.4768008164246660  0.1109991875406192   T   T   T
  0.2377848450537449  0.6194288081384955  0.1110420819032889   T   T   T
  0.2379911875971133  0.7620917310250234  0.1110145107329117   T   T   T
  0.3810677926373154  0.9049653249805675  0.1110117589880034   T   T   T
  0.3810356504792507  0.0472516783495136  0.1110130583417819   T   T   T
  0.3807770849507084  0.1891928719910017  0.1110337072150383   T   T   T
  0.3799954828909918  0.3301433838927335  0.1110156610754022   T   T   T
  0.3807086884463790  0.6209114786108556  0.1110300890452218   T   T   T
  0.3810484320509998  0.7627724104532350  0.1110460040018315   T   T   T
  0.5239568072554611  0.9047056938844397  0.1110141034369926   T   T   T
  0.5239613421733823  0.0475774219221760  0.1109743786611308   T   T   T
  0.5239053362341041  0.1903178032748740  0.1110020594706515   T   T   T
  0.5233538808778538  0.3328110680141433  0.1110089687457883   T   T   T
  0.5243500632817930  0.6190188623169564  0.1110364164826476   T   T   T
  0.5240031740210048  0.7616404339918221  0.1110220150649223   T   T   T
  0.6666378111855910  0.9044049831485363  0.1109937576320007   T   T   T
  0.6666645695852383  0.0476184268882591  0.1110068718687622   T   T   T
  0.6666328355039614  0.1908670808886444  0.1110097222477528   T   T   T
  0.6664729085359649  0.3344294910781911  0.1109826870335754   T   T   T
  0.6661845907168622  0.4784043777299945  0.1110432409105079   T   T   T
  0.6674853656317242  0.6180119227119313  0.1110472818794050   T   T   T
  0.6666965390565135  0.7610991811813302  0.1109754281736395   T   T   T
  0.8093209459755707  0.9044684457928923  0.1109834414605635   T   T   T
  0.8093903899844808  0.0474747934168538  0.1110156823609939   T   T   T
  0.8094106547635371  0.1905081671130603  0.1110302661455751   T   T   T
  0.8092741426746508  0.3334905035531263  0.1110133583826733   T   T   T
  0.8088276111327974  0.4763260791321279  0.1109862330715073   T   T   T
  0.8100994539753698  0.6193864970501579  0.1110306622553994   T   T   T
  0.8094024887710577  0.7617127567686305  0.1110078461937177   T   T   T

  0.00000000E+00  0.00000000E+00  0.00000000E+00
  0.00000000E+00  0.00000000E+00  0.00000000E+00
  0.00000000E+00  0.00000000E+00  0.00000000E+00
  0.00000000E+00  0.00000000E+00  0.00000000E+00
  0.00000000E+00  0.00000000E+00  0.00000000E+00
  0.00000000E+00  0.00000000E+00  0.00000000E+00
  0.00000000E+00  0.00000000E+00  0.00000000E+00
  0.00000000E+00  0.00000000E+00  0.00000000E+00
  0.00000000E+00  0.00000000E+00  0.00000000E+00
  0.00000000E+00  0.00000000E+00  0.00000000E+00
  0.00000000E+00  0.00000000E+00  0.00000000E+00
  0.00000000E+00  0.00000000E+00  0.00000000E+00
  0.00000000E+00  0.00000000E+00  0.00000000E+00
  0.00000000E+00  0.00000000E+00  0.00000000E+00
  0.00000000E+00  0.00000000E+00  0.00000000E+00
  0.00000000E+00  0.00000000E+00  0.00000000E+00
  0.00000000E+00  0.00000000E+00  0.00000000E+00
  0.00000000E+00  0.00000000E+00  0.00000000E+00
  0.00000000E+00  0.00000000E+00  0.00000000E+00
  0.00000000E+00  0.00000000E+00  0.00000000E+00
  0.00000000E+00  0.00000000E+00  0.00000000E+00
  0.00000000E+00  0.00000000E+00  0.00000000E+00
  0.00000000E+00  0.00000000E+00  0.00000000E+00
  0.00000000E+00  0.00000000E+00  0.00000000E+00
  0.00000000E+00  0.00000000E+00  0.00000000E+00
  0.00000000E+00  0.00000000E+00  0.00000000E+00
  0.00000000E+00  0.00000000E+00  0.00000000E+00
  0.00000000E+00  0.00000000E+00  0.00000000E+00
  0.00000000E+00  0.00000000E+00  0.00000000E+00
  0.00000000E+00  0.00000000E+00  0.00000000E+00
  0.00000000E+00  0.00000000E+00  0.00000000E+00
  0.00000000E+00  0.00000000E+00  0.00000000E+00
  0.00000000E+00  0.00000000E+00  0.00000000E+00
  0.00000000E+00  0.00000000E+00  0.00000000E+00
  0.00000000E+00  0.00000000E+00  0.00000000E+00
  0.00000000E+00  0.00000000E+00  0.00000000E+00
  0.00000000E+00  0.00000000E+00  0.00000000E+00
  0.00000000E+00  0.00000000E+00  0.00000000E+00
  0.00000000E+00  0.00000000E+00  0.00000000E+00
  0.00000000E+00  0.00000000E+00  0.00000000E+00
  0.00000000E+00  0.00000000E+00  0.00000000E+00
  0.00000000E+00  0.00000000E+00  0.00000000E+00
  0.00000000E+00  0.00000000E+00  0.00000000E+00
  0.00000000E+00  0.00000000E+00  0.00000000E+00
  0.00000000E+00  0.00000000E+00  0.00000000E+00
  0.00000000E+00  0.00000000E+00  0.00000000E+00
  0.00000000E+00  0.00000000E+00  0.00000000E+00
  0.00000000E+00  0.00000000E+00  0.00000000E+00
  0.00000000E+00  0.00000000E+00  0.00000000E+00
  0.00000000E+00  0.00000000E+00  0.00000000E+00
  0.00000000E+00  0.00000000E+00  0.00000000E+00
  0.00000000E+00  0.00000000E+00  0.00000000E+00
  0.00000000E+00  0.00000000E+00  0.00000000E+00
  0.00000000E+00  0.00000000E+00  0.00000000E+00
  0.00000000E+00  0.00000000E+00  0.00000000E+00
  0.00000000E+00  0.00000000E+00  0.00000000E+00
  0.00000000E+00  0.00000000E+00  0.00000000E+00
  0.00000000E+00  0.00000000E+00  0.00000000E+00
  0.00000000E+00  0.00000000E+00  0.00000000E+00
  0.00000000E+00  0.00000000E+00  0.00000000E+00
  0.00000000E+00  0.00000000E+00  0.00000000E+00
  0.00000000E+00  0.00000000E+00  0.00000000E+00
  0.00000000E+00  0.00000000E+00  0.00000000E+00
  0.00000000E+00  0.00000000E+00  0.00000000E+00
  0.00000000E+00  0.00000000E+00  0.00000000E+00
  0.00000000E+00  0.00000000E+00  0.00000000E+00
  0.00000000E+00  0.00000000E+00  0.00000000E+00
  0.00000000E+00  0.00000000E+00  0.00000000E+00
  0.00000000E+00  0.00000000E+00  0.00000000E+00
  0.00000000E+00  0.00000000E+00  0.00000000E+00
  0.00000000E+00  0.00000000E+00  0.00000000E+00
  0.00000000E+00  0.00000000E+00  0.00000000E+00
  0.00000000E+00  0.00000000E+00  0.00000000E+00
  0.00000000E+00  0.00000000E+00  0.00000000E+00
  0.00000000E+00  0.00000000E+00  0.00000000E+00
  0.00000000E+00  0.00000000E+00  0.00000000E+00
  0.00000000E+00  0.00000000E+00  0.00000000E+00
  0.00000000E+00  0.00000000E+00  0.00000000E+00
  0.00000000E+00  0.00000000E+00  0.00000000E+00
  0.00000000E+00  0.00000000E+00  0.00000000E+00
  0.00000000E+00  0.00000000E+00  0.00000000E+00
  0.00000000E+00  0.00000000E+00  0.00000000E+00
  0.00000000E+00  0.00000000E+00  0.00000000E+00
  0.00000000E+00  0.00000000E+00  0.00000000E+00
  0.00000000E+00  0.00000000E+00  0.00000000E+00
  0.00000000E+00  0.00000000E+00  0.00000000E+00
  0.00000000E+00  0.00000000E+00  0.00000000E+00
  0.00000000E+00  0.00000000E+00  0.00000000E+00
  0.00000000E+00  0.00000000E+00  0.00000000E+00
  0.00000000E+00  0.00000000E+00  0.00000000E+00
  0.00000000E+00  0.00000000E+00  0.00000000E+00
  0.00000000E+00  0.00000000E+00  0.00000000E+00
  0.00000000E+00  0.00000000E+00  0.00000000E+00
  0.00000000E+00  0.00000000E+00  0.00000000E+00
  0.00000000E+00  0.00000000E+00  0.00000000E+00
  0.00000000E+00  0.00000000E+00  0.00000000E+00
  0.00000000E+00  0.00000000E+00  0.00000000E+00
  0.00000000E+00  0.00000000E+00  0.00000000E+00
