 C N B 
 1.0
 17.527899999999999   0.000000000000000   0.000000000000000
 -8.763949999999996  15.179606674993002   0.000000000000000
  0.000000000000001   0.000000000000002  15.000000000000000
 C N B 
   4  47  47
Cartesian
  2.562098823555413   7.261643117865032   1.662330827573955 
  3.813954264036402   7.984463997982354   1.666639969725870 
  5.014937080494608   7.301914996217735   1.668848240818770 
  6.271694447990015   7.976719604287194   1.669414881686535 
  8.761333355954696  13.729556730057828   1.665075667757610 
 16.272896269031492   0.718226994415617   1.665045251788710 
 15.022824834121774   2.890794313064007   1.665252738371895 
 13.769983613991048   5.059868891664333   1.665059894948160 
 12.511362243178333   7.228433996821239   1.664693849479215 
 11.267024332456831   9.396574240638271   1.665101668853640 
 10.016350323497280  11.565988429450352   1.665250826168940 
 -6.261426532323876  13.731094312903149   1.664683982929725 
  1.248010091428722   0.714475118641207   1.665059896521180 
 -0.003405484255867   2.883899187894535   1.664849785128690 
 -1.247639038686880   5.059868891664333   1.664876521450965 
 -2.512293729871037   7.229489788656292   1.665149158108950 
 -3.761033314111377   9.397255979966465   1.665162481389900 
 -5.009757346140551  11.565173033068046   1.664772431327070 
 -3.756187095009352  13.732362420952654   1.664810455627845 
  3.756306693295415   0.714483735990054   1.665395700022995 
  2.501267657316003   2.873333103035982   1.665250263077205 
  1.256242583418672   5.045972828119572   1.664946726879975 
 -0.009593623908349   7.237648855641972   1.664987813109285 
 -1.260774117467833   9.402685670702073   1.665631228549335 
 -2.507448089033311  11.568252727224412   1.665217660993680 
 -1.251752697295843  13.737017687712227   1.665176384820045 
  6.264643431564039   0.717261892078905   1.665195875126730 
  5.016145796821974   2.871873382535710   1.665505608225570 
  3.767162715298293   5.011446713842922   1.665234916131030 
  1.231386667247676   9.425192025301126   1.665451335678330 
 -0.005920454444904  11.578585173216426   1.665690060027465 
  1.255067055974460  13.733076589792420   1.665211551554895 
  8.766975862625968   0.722206551388821   1.664615679916965 
  7.515024630966920   2.888949396961282   1.665030892059780 
  6.256554929116389   5.051941109539035   1.665134531186820 
  3.765705115794255   9.396462854373040   1.665546247239720 
  2.509696552440148  11.561402215766828   1.665330225973830 
  3.759106614602057  13.728511919098450   1.664906364480015 
 11.267941154339308   0.722828990645683   1.665103078031430 
 10.012517113112635   2.897287215093689   1.665145833716295 
  8.754343328331956   5.076508135085020   1.664740305503625 
  7.484104841419297   7.261990285536106   1.665648613657620 
  6.283391150205070   9.381177907223286   1.665709228191075 
  5.015031497752552  11.553186210991825   1.664631422604600 
  6.258980373458598  13.729475257078329   1.664751621908460 
 13.770847100843346   0.720648691044391   1.665235235414910 
 12.517664964459298   2.891839045150088   1.665453992183625 
 11.263559578720351   5.059868891664333   1.665200375740095 
 10.002551543964540   7.230442530267295   1.664793496072605 
  8.771069928512155   9.402043405023113   1.665459933830985 
  7.511513368247795  11.562500047072417   1.665117692905770 
  7.510476526445615  14.453280375049399   1.665168475676925 
 15.022866814124720   1.444261259200955   1.665559949421795 
 13.770553647051699   3.614350328084075   1.665585323210085 
 12.515988955020459   5.783040610874457   1.665047026676820 
 11.259594363972152   7.951395073523656   1.665012038643360 
 10.021692806508865  10.119737783328667   1.665664706966295 
  8.764125881792546  12.286153599533908   1.665522978182940 
 -7.514371245947876  14.451356916988731   1.665138202861890 
 -0.002913880049905   1.439713188793010   1.665141613383195 
 -1.251503209726165   3.613720837605186   1.665071302467690 
 -2.504632236328164   5.783514626819357   1.665242428142220 
 -3.763584091450641   7.951439985918640   1.665189612171750 
 -5.009980185325338  10.119737783328667   1.665267335721945 
 -6.260168370165689  12.287945403812087   1.664996527732785 
 -5.008716163866598  14.451846863588139   1.665021976261170 
  2.501236548319196   1.432715652631758   1.665651876769530 
  1.250099425196219   3.602310347136318   1.665246178589145 
  0.006762416178757   5.785552764307402   1.665018586346790 
 -1.262052169936487   7.954739358232311   1.665695995014780 
 -2.509215306242364  10.119737783328667   1.665677055178740 
 -3.758344319099383  12.288520481201308   1.664995524861810 
 -2.502724689466599  14.454584102841789   1.665310573608345 
  5.011901700784950   1.432060558580915   1.665900215721780 
  3.761058036036859   3.579314790862983   1.665510802927230 
  2.531282928366979   5.735427143065406   1.664618137842645 
  1.225149075425839   7.989336753255905   1.664465603453280 
 -0.015183727473889  10.137996824693952   1.665980663863350 
 -1.255820229308649  12.294882225664013   1.665734308111530 
  0.002076176779555  14.456443691364523   1.665171443690175 
  7.515309204322183   1.442951928194811   1.665021637795995 
  6.262267321753102   3.604028076988360   1.665477404445345 
  4.999909499080100   5.754098970660189   1.666397315822565 
  2.503026306609057  10.115717673462584   1.665747980768295 
  1.253696620602573  12.288139656956075   1.665864810739215 
  2.506106937352667  14.455340160885173   1.665346979251650 
 10.015672826371887   1.448638889386540   1.665057579988395 
  8.758984670863725   3.623674697151430   1.665137917359660 
  7.493536410750777   5.800127305526745   1.665118430793420 
  5.020661241418708  10.109419643759848   1.665470971176630 
  3.760890913640910  12.281986384387897   1.665032569960995 
  5.008235305441795  14.454162474364647   1.665034457406450 
 12.519329324747840   1.445551266406337   1.665617563506135 
 11.265258341461237   3.616569928397591   1.665737286482175 
 10.009284264501746   5.786368088379300   1.665156873280935 
  8.754759561526356   7.960069762749026   1.665419676245220 
  7.524780045755266  10.119737783328667   1.665664351303830 
  6.262092507271804  12.285450731403962   1.664961305700615 
