B Ga N                                  
   1.0000000000000000     
     8.7639499999999995  -15.1796066749929999    0.0000000000000000
     8.7639499999999995   15.1796066749929999    0.0000000000000000
     0.0000000000000000    0.0000000000000000   15.0000000000000000
   B    Ga   N 
    47     1    49
Selective dynamics
Direct
  0.9093306015150545  0.9541879469055807  0.1107220359719953   T   T   T
  0.9090522005827154  0.0960051426067430  0.1107640560759695   T   T   T
  0.9089526383742641  0.2379264498988287  0.1107309138843656   T   T   T
  0.9089555512759746  0.3802332954433725  0.1106988030219363   T   T   T
  0.9080795711475317  0.5227911676005095  0.1107432552415961   T   T   T
  0.9071415779838810  0.6652833839801993  0.1107577925439491   T   T   T
  0.9041959018377066  0.8071857300990862  0.1107280664602275   T   T   T
  0.0505409841129938  0.9538504095907739  0.1106964217922386   T   T   T
  0.0527772302928732  0.0975487121740931  0.1107750064480418   T   T   T
  0.0520648155391869  0.2389894616483069  0.1108053465884861   T   T   T
  0.0508777280025292  0.3812323113942142  0.1107427208627870   T   T   T
  0.0494304056924197  0.5243674358297316  0.1107231047001853   T   T   T
  0.0491534006098132  0.6675350812288730  0.1107408589747332   T   T   T
  0.0489629205401455  0.8105019121241535  0.1107267036830288   T   T   T
  0.1933672262699184  0.9552391752827377  0.1106918123034563   T   T   T
  0.1967156848453142  0.1001942964528989  0.1107131636698094   T   T   T
  0.1966283599355806  0.2415171467807332  0.1107608920067481   T   T   T
  0.1935974195286778  0.3821057784118816  0.1107394647438803   T   T   T
  0.1899512402250952  0.5251504461234213  0.1107101571243445   T   T   T
  0.1900819504812577  0.6687107634347399  0.1107450613769196   T   T   T
  0.1917735902260508  0.8117875212133538  0.1107373608772542   T   T   T
  0.3356110314001427  0.9551708514524224  0.1107252476634549   T   T   T
  0.3378983137416787  0.0995114473034337  0.1107278476574218   T   T   T
  0.3448579125632121  0.2486004123629221  0.1107622186315365   T   T   T
  0.3399131270413521  0.3848374918966840  0.1107600726513369   T   T   T
  0.3293528710526494  0.5268386302180330  0.1107031612358531   T   T   T
  0.3297182319461079  0.6698975198401348  0.1107474359015555   T   T   T
  0.3341304962327636  0.8123799587439653  0.1107949798886231   T   T   T
  0.4780807604837766  0.9536873412880877  0.1107574988694427   T   T   T
  0.4794708943341350  0.0960458778184583  0.1107588946987445   T   T   T
  0.4821719442364438  0.2397600628296943  0.1107866474390852   T   T   T
  0.5032493230035231  0.3988638690829412  0.1107324420068622   T   T   T
  0.4669987261016704  0.6677599767733122  0.1106827793257510   T   T   T
  0.4767825469735824  0.8114067667154533  0.1107551091219994   T   T   T
  0.6213012088905806  0.9543496672058084  0.1107596188022826   T   T   T
  0.6221676742255717  0.0947610638061662  0.1107376056103503   T   T   T
  0.6233170711544820  0.2350239962277080  0.1107363572424529   T   T   T
  0.6257881654051215  0.3739503061733274  0.1107693219516464   T   T   T
  0.6090718036305692  0.4966721537599386  0.1106870303370213   T   T   T
  0.6207591105807075  0.8141909401739230  0.1106848805887500   T   T   T
  0.7653476023508691  0.9536226032648214  0.1107379380994308   T   T   T
  0.7655934093047194  0.0952835647793471  0.1107264439136180   T   T   T
  0.7661718818612704  0.2367371217318602  0.1107072397502651   T   T   T
  0.7671882462089809  0.3782051770677186  0.1107125809050580   T   T   T
  0.7652475044953404  0.5188301481988727  0.1107279153328146   T   T   T
  0.7604925158727317  0.6560463380329108  0.1107724019639018   T   T   T
  0.7665141755773123  0.8123486824947551  0.1107403277105601   T   T   T
  0.6159911703746316  0.6582719827766107  0.1108187912466868   T   T   T
  0.9545320166288498  0.9044171869485372  0.1106888167804001   T   T   T
  0.9573850728069836  0.0493807828047059  0.1107485598406811   T   T   T
  0.9568355477138111  0.1909531041597948  0.1107579688537869   T   T   T
  0.9563598523196737  0.3328785289086670  0.1107084159844365   T   T   T
  0.9554896982399308  0.4754430161430517  0.1107099368412300   T   T   T
  0.9551389107008792  0.6184466115081879  0.1107384640809987   T   T   T
  0.9537526937581485  0.7614003488832293  0.1107214315480231   T   T   T
  0.0977949297969817  0.9062681458049027  0.1106866235373302   T   T   T
  0.1001294951178709  0.0501411366016686  0.1107071013895497   T   T   T
  0.1006421169185051  0.1926757609453029  0.1107809867442250   T   T   T
  0.0986266205624248  0.3339259095102484  0.1107670073992671   T   T   T
  0.0960956937354520  0.4764262679394208  0.1107110620288574   T   T   T
  0.0959621461834848  0.6198255649265874  0.1107186872560169   T   T   T
  0.0967078830686553  0.7631628911539744  0.1107191027269678   T   T   T
  0.2402133963473496  0.9070742483675005  0.1106952473775925   T   T   T
  0.2421792907181718  0.0507342386738893  0.1106806762389923   T   T   T
  0.2463220659509077  0.1964735418907632  0.1107236873907117   T   T   T
  0.2432788565042616  0.3364383750189406  0.1107312159199245   T   T   T
  0.2361217672214742  0.4770274014229771  0.1106669005298030   T   T   T
  0.2358047594930538  0.6206139812940047  0.1107090047813304   T   T   T
  0.2388455743570680  0.7640859645930690  0.1107517054493462   T   T   T
  0.3827075802163126  0.9071674001931901  0.1107451061389577   T   T   T
  0.3840432362428925  0.0499307018366731  0.1107206213810582   T   T   T
  0.3865626121619619  0.1944055639704758  0.1107400694865857   T   T   T
  0.3956688286702866  0.3458907474868059  0.1107394046001028   T   T   T
  0.3760298260233285  0.4798973997952009  0.1107220635330509   T   T   T
  0.3737311858080572  0.6216086551524548  0.1107281576563111   T   T   T
  0.3809954979463804  0.7648664535104777  0.1107664920121752   T   T   T
  0.5256481281190551  0.9063594180212333  0.1107529995691038   T   T   T
  0.5267845952765641  0.0480761156915028  0.1107371496463191   T   T   T
  0.5282757763270608  0.1898239890059628  0.1107520910341216   T   T   T
  0.5320547861666438  0.3322284077748144  0.1107763433995806   T   T   T
  0.4643304761998143  0.5236416000498516  0.1110500192634707   T   T   T
  0.5006341406101382  0.6111124084620356  0.1106759728762387   T   T   T
  0.5237016687134742  0.7635191933994663  0.1106602495051149   T   T   T
  0.6694477305143949  0.9085395385957629  0.1107164861747802   T   T   T
  0.6702236113068435  0.0484097621220375  0.1107221557893633   T   T   T
  0.6711833959402057  0.1884981137137648  0.1107098594073974   T   T   T
  0.6733250691614872  0.3280794497255980  0.1107277964649941   T   T   T
  0.6725388075171254  0.4664469572056461  0.1107152947223063   T   T   T
  0.6676807702686161  0.5959192072568942  0.1106963260403843   T   T   T
  0.6738802726702141  0.7749807437691073  0.1106811100558973   T   T   T
  0.8147913597703885  0.9075978588772523  0.1107235078446323   T   T   T
  0.8136903693501992  0.0484973190014162  0.1107240703666941   T   T   T
  0.8139947260901884  0.1898917560277289  0.1107042484227810   T   T   T
  0.8147541384172279  0.3313502943961252  0.1106773188719118   T   T   T
  0.8144178711895512  0.4731293006269663  0.1107115654870249   T   T   T
  0.8137075487186064  0.6150724948431736  0.1107389869258843   T   T   T
  0.8078098663071447  0.7572706208554154  0.1107442739338247   T   T   T

  0.00000000E+00  0.00000000E+00  0.00000000E+00
  0.00000000E+00  0.00000000E+00  0.00000000E+00
  0.00000000E+00  0.00000000E+00  0.00000000E+00
  0.00000000E+00  0.00000000E+00  0.00000000E+00
  0.00000000E+00  0.00000000E+00  0.00000000E+00
  0.00000000E+00  0.00000000E+00  0.00000000E+00
  0.00000000E+00  0.00000000E+00  0.00000000E+00
  0.00000000E+00  0.00000000E+00  0.00000000E+00
  0.00000000E+00  0.00000000E+00  0.00000000E+00
  0.00000000E+00  0.00000000E+00  0.00000000E+00
  0.00000000E+00  0.00000000E+00  0.00000000E+00
  0.00000000E+00  0.00000000E+00  0.00000000E+00
  0.00000000E+00  0.00000000E+00  0.00000000E+00
  0.00000000E+00  0.00000000E+00  0.00000000E+00
  0.00000000E+00  0.00000000E+00  0.00000000E+00
  0.00000000E+00  0.00000000E+00  0.00000000E+00
  0.00000000E+00  0.00000000E+00  0.00000000E+00
  0.00000000E+00  0.00000000E+00  0.00000000E+00
  0.00000000E+00  0.00000000E+00  0.00000000E+00
  0.00000000E+00  0.00000000E+00  0.00000000E+00
  0.00000000E+00  0.00000000E+00  0.00000000E+00
  0.00000000E+00  0.00000000E+00  0.00000000E+00
  0.00000000E+00  0.00000000E+00  0.00000000E+00
  0.00000000E+00  0.00000000E+00  0.00000000E+00
  0.00000000E+00  0.00000000E+00  0.00000000E+00
  0.00000000E+00  0.00000000E+00  0.00000000E+00
  0.00000000E+00  0.00000000E+00  0.00000000E+00
  0.00000000E+00  0.00000000E+00  0.00000000E+00
  0.00000000E+00  0.00000000E+00  0.00000000E+00
  0.00000000E+00  0.00000000E+00  0.00000000E+00
  0.00000000E+00  0.00000000E+00  0.00000000E+00
  0.00000000E+00  0.00000000E+00  0.00000000E+00
  0.00000000E+00  0.00000000E+00  0.00000000E+00
  0.00000000E+00  0.00000000E+00  0.00000000E+00
  0.00000000E+00  0.00000000E+00  0.00000000E+00
  0.00000000E+00  0.00000000E+00  0.00000000E+00
  0.00000000E+00  0.00000000E+00  0.00000000E+00
  0.00000000E+00  0.00000000E+00  0.00000000E+00
  0.00000000E+00  0.00000000E+00  0.00000000E+00
  0.00000000E+00  0.00000000E+00  0.00000000E+00
  0.00000000E+00  0.00000000E+00  0.00000000E+00
  0.00000000E+00  0.00000000E+00  0.00000000E+00
  0.00000000E+00  0.00000000E+00  0.00000000E+00
  0.00000000E+00  0.00000000E+00  0.00000000E+00
  0.00000000E+00  0.00000000E+00  0.00000000E+00
  0.00000000E+00  0.00000000E+00  0.00000000E+00
  0.00000000E+00  0.00000000E+00  0.00000000E+00
  0.00000000E+00  0.00000000E+00  0.00000000E+00
  0.00000000E+00  0.00000000E+00  0.00000000E+00
  0.00000000E+00  0.00000000E+00  0.00000000E+00
  0.00000000E+00  0.00000000E+00  0.00000000E+00
  0.00000000E+00  0.00000000E+00  0.00000000E+00
  0.00000000E+00  0.00000000E+00  0.00000000E+00
  0.00000000E+00  0.00000000E+00  0.00000000E+00
  0.00000000E+00  0.00000000E+00  0.00000000E+00
  0.00000000E+00  0.00000000E+00  0.00000000E+00
  0.00000000E+00  0.00000000E+00  0.00000000E+00
  0.00000000E+00  0.00000000E+00  0.00000000E+00
  0.00000000E+00  0.00000000E+00  0.00000000E+00
  0.00000000E+00  0.00000000E+00  0.00000000E+00
  0.00000000E+00  0.00000000E+00  0.00000000E+00
  0.00000000E+00  0.00000000E+00  0.00000000E+00
  0.00000000E+00  0.00000000E+00  0.00000000E+00
  0.00000000E+00  0.00000000E+00  0.00000000E+00
  0.00000000E+00  0.00000000E+00  0.00000000E+00
  0.00000000E+00  0.00000000E+00  0.00000000E+00
  0.00000000E+00  0.00000000E+00  0.00000000E+00
  0.00000000E+00  0.00000000E+00  0.00000000E+00
  0.00000000E+00  0.00000000E+00  0.00000000E+00
  0.00000000E+00  0.00000000E+00  0.00000000E+00
  0.00000000E+00  0.00000000E+00  0.00000000E+00
  0.00000000E+00  0.00000000E+00  0.00000000E+00
  0.00000000E+00  0.00000000E+00  0.00000000E+00
  0.00000000E+00  0.00000000E+00  0.00000000E+00
  0.00000000E+00  0.00000000E+00  0.00000000E+00
  0.00000000E+00  0.00000000E+00  0.00000000E+00
  0.00000000E+00  0.00000000E+00  0.00000000E+00
  0.00000000E+00  0.00000000E+00  0.00000000E+00
  0.00000000E+00  0.00000000E+00  0.00000000E+00
  0.00000000E+00  0.00000000E+00  0.00000000E+00
  0.00000000E+00  0.00000000E+00  0.00000000E+00
  0.00000000E+00  0.00000000E+00  0.00000000E+00
  0.00000000E+00  0.00000000E+00  0.00000000E+00
  0.00000000E+00  0.00000000E+00  0.00000000E+00
  0.00000000E+00  0.00000000E+00  0.00000000E+00
  0.00000000E+00  0.00000000E+00  0.00000000E+00
  0.00000000E+00  0.00000000E+00  0.00000000E+00
  0.00000000E+00  0.00000000E+00  0.00000000E+00
  0.00000000E+00  0.00000000E+00  0.00000000E+00
  0.00000000E+00  0.00000000E+00  0.00000000E+00
  0.00000000E+00  0.00000000E+00  0.00000000E+00
  0.00000000E+00  0.00000000E+00  0.00000000E+00
  0.00000000E+00  0.00000000E+00  0.00000000E+00
  0.00000000E+00  0.00000000E+00  0.00000000E+00
  0.00000000E+00  0.00000000E+00  0.00000000E+00
  0.00000000E+00  0.00000000E+00  0.00000000E+00
  0.00000000E+00  0.00000000E+00  0.00000000E+00
