B Ga N                                  
   1.0000000000000000     
     8.7639499999999995  -15.1796066749929999    0.0000000000000000
     8.7639499999999995   15.1796066749929999    0.0000000000000000
     0.0000000000000000    0.0000000000000000   15.0000000000000000
   B    Ga   N 
    49     1    48
Selective dynamics
Direct
  0.9057152251540795  0.9538166000768800  0.1234847396682683   T   T   T
  0.9057589349868899  0.0967720254086000  0.1189376390739294   T   T   T
  0.9053752875827238  0.2392633762571749  0.1120644675100569   T   T   T
  0.9042154228534859  0.3814556848634670  0.1068085181237402   T   T   T
  0.9022581303880396  0.5235359984899076  0.1055242043760740   T   T   T
  0.9029837780855726  0.6660071339792798  0.1121244652030028   T   T   T
  0.9046983699938456  0.8099505064125181  0.1215872669909534   T   T   T
  0.0473932104752249  0.9520245330795685  0.1223993329809373   T   T   T
  0.0484952169798992  0.0960310736037454  0.1195312222020970   T   T   T
  0.0489857534594984  0.2391315034521135  0.1124180744514450   T   T   T
  0.0486819871035586  0.3814521754677234  0.1071950615991754   T   T   T
  0.0474326005572662  0.5234741383423872  0.1065069596580232   T   T   T
  0.0465966429424827  0.6657422410731481  0.1108004927992504   T   T   T
  0.0466340008780074  0.8084520660770437  0.1183321111791556   T   T   T
  0.1895476358208712  0.9507472019668858  0.1211178261230470   T   T   T
  0.1898681374816124  0.0938924845742631  0.1197683862772720   T   T   T
  0.1918874781961348  0.2383522258931756  0.1113525351814694   T   T   T
  0.1930925483129138  0.3813984647581362  0.1050578838386957   T   T   T
  0.1926743543500495  0.5235283615168081  0.1054502574595154   T   T   T
  0.1905212761076382  0.6657312893355184  0.1103158432042209   T   T   T
  0.1897736734773389  0.8081276906010523  0.1166865801732088   T   T   T
  0.3326592197352518  0.9507366022057402  0.1198854498269430   T   T   T
  0.3320912662577608  0.0926779425428284  0.1171723373079601   T   T   T
  0.3317238863083352  0.2344374783238557  0.1062824217621497   T   T   T
  0.3367868567380859  0.3797537330627083  0.0950160427152266   T   T   T
  0.3388416417685006  0.5237448140353118  0.1020828432961910   T   T   T
  0.3344328412619764  0.6660012580029773  0.1110780305410899   T   T   T
  0.3332417532536871  0.8084558651239883  0.1167496028271111   T   T   T
  0.4760786062406924  0.9519963939995019  0.1198872575328885   T   T   T
  0.4755110979841941  0.0938343765000641  0.1174690684868415   T   T   T
  0.4741453137135609  0.2343984992070137  0.1053049686859257   T   T   T
  0.4687057958144914  0.3662457069914372  0.0585720294487959   T   T   T
  0.4889097177953398  0.5303236827901263  0.0998958385149278   T   T   T
  0.4778156764853945  0.6680732096972880  0.1175596277328550   T   T   T
  0.4766731588377162  0.8099410016529116  0.1197959852455638   T   T   T
  0.6195293604982396  0.9537858259183909  0.1215984909989451   T   T   T
  0.6190023481626816  0.0959956968466962  0.1169317115086680   T   T   T
  0.6179200756146758  0.2383098914551547  0.1092793838124308   T   T   T
  0.6143505652162106  0.3797718299564108  0.0942648996729158   T   T   T
  0.6128761451706487  0.5303733512846517  0.0999143953522095   T   T   T
  0.6214431739066116  0.6715213346538690  0.1233647412181837   T   T   T
  0.6200392421886390  0.8119544524566196  0.1248079069468044   T   T   T
  0.7628830399840839  0.9543548443176900  0.1235674189791542   T   T   T
  0.7624553538544242  0.0967568960085624  0.1177916726347331   T   T   T
  0.7616284421149830  0.2391205716208930  0.1108782551455693   T   T   T
  0.7597316086556782  0.3814095575615300  0.1041427040619875   T   T   T
  0.7563086073724800  0.5237724415185631  0.1021602499793394   T   T   T
  0.7616675841814928  0.6680811463881636  0.1182424254897888   T   T   T
  0.7632939041975138  0.8119524424901942  0.1255859120675622   T   T   T
  0.5234383004656681  0.4756502256106322  0.9688303046760651   T   T   T
  0.9523830777941613  0.9051212838672902  0.1231888305371817   T   T   T
  0.9532946469417398  0.0489735640845119  0.1213143394800567   T   T   T
  0.9534792833561913  0.1919256999525100  0.1145920114521522   T   T   T
  0.9529215673141670  0.3343977598530570  0.1083696644481759   T   T   T
  0.9513790890138200  0.4765443732035025  0.1056597966181703   T   T   T
  0.9508477581827285  0.6185999390219346  0.1086858782036249   T   T   T
  0.9512289014477775  0.7612091000298815  0.1177892574862919   T   T   T
  0.0943377842076923  0.9035943634636573  0.1215055763740628   T   T   T
  0.0949395587619423  0.0471775461798897  0.1217248819135291   T   T   T
  0.0964927605410096  0.1913633904561894  0.1148717776073071   T   T   T
  0.0972373123414701  0.3343627752170080  0.1080549700169378   T   T   T
  0.0965735910711399  0.4765409529408134  0.1057764867627443   T   T   T
  0.0949519312871703  0.6185260025368118  0.1085790173639536   T   T   T
  0.0943278508983666  0.7607788596962128  0.1152339357562769   T   T   T
  0.2373055518082663  0.9031572911160299  0.1199428910661929   T   T   T
  0.2370004311785791  0.0457139708140588  0.1207014327274053   T   T   T
  0.2373192451355749  0.1887607622866796  0.1150327111316558   T   T   T
  0.2411426233592228  0.3340628976623244  0.1046085320450961   T   T   T
  0.2422638163518801  0.4766655001399147  0.1028850454325137   T   T   T
  0.2391490390523846  0.6185988603399848  0.1080540269316571   T   T   T
  0.2378569629433025  0.7607808102817016  0.1144376406500218   T   T   T
  0.3807105700278871  0.9035906949618653  0.1194570653943063   T   T   T
  0.3802121704780769  0.0456873597311006  0.1193120188557426   T   T   T
  0.3791775308995651  0.1868844347117274  0.1096822277124632   T   T   T
  0.3786134144330113  0.3273265631481069  0.0889318297059697   T   T   T
  0.3903414145175639  0.4769738254516347  0.0952480220877967   T   T   T
  0.3832160473711001  0.6188434911740582  0.1093190084473381   T   T   T
  0.3814076550507719  0.7612222509332227  0.1160635637371497   T   T   T
  0.5241821196273614  0.9051025653850088  0.1209691196663935   T   T   T
  0.5237111164440297  0.0471251876109668  0.1188369815161703   T   T   T
  0.5229156086342575  0.1886883519618814  0.1129323676054564   T   T   T
  0.5200828718889293  0.3273506703570899  0.0883324481088424   T   T   T
  0.5268829433646420  0.6221202817924959  0.1195089242530704   T   T   T
  0.5248237145252648  0.7630991972569292  0.1220743016295222   T   T   T
  0.6675880434488457  0.9068282271883096  0.1240771544082502   T   T   T
  0.6671192573227361  0.0489345537908344  0.1191756554664581   T   T   T
  0.6663405758230664  0.1913254271037876  0.1124945635447973   T   T   T
  0.6643456010035874  0.3340584829934277  0.1032226415664631   T   T   T
  0.6580607847716793  0.4770055060264416  0.0951325179739310   T   T   T
  0.6666357617492772  0.6221385674450453  0.1196884733128159   T   T   T
  0.6683918557898423  0.7654176906608510  0.1267612675090534   T   T   T
  0.8106596917096118  0.9068357904570702  0.1250569527476997   T   T   T
  0.8104336674187383  0.0494282172898157  0.1205412563884692   T   T   T
  0.8099140070253528  0.1919111347868432  0.1135345527280788   T   T   T
  0.8085730833409567  0.3343722246255708  0.1071036374404598   T   T   T
  0.8058182863498102  0.4766906634250861  0.1026581844867019   T   T   T
  0.8070362823635301  0.6188517240596250  0.1099546382676092   T   T   T
  0.8096827589557558  0.7630972313690674  0.1233060768946192   T   T   T

  0.00000000E+00  0.00000000E+00  0.00000000E+00
  0.00000000E+00  0.00000000E+00  0.00000000E+00
  0.00000000E+00  0.00000000E+00  0.00000000E+00
  0.00000000E+00  0.00000000E+00  0.00000000E+00
  0.00000000E+00  0.00000000E+00  0.00000000E+00
  0.00000000E+00  0.00000000E+00  0.00000000E+00
  0.00000000E+00  0.00000000E+00  0.00000000E+00
  0.00000000E+00  0.00000000E+00  0.00000000E+00
  0.00000000E+00  0.00000000E+00  0.00000000E+00
  0.00000000E+00  0.00000000E+00  0.00000000E+00
  0.00000000E+00  0.00000000E+00  0.00000000E+00
  0.00000000E+00  0.00000000E+00  0.00000000E+00
  0.00000000E+00  0.00000000E+00  0.00000000E+00
  0.00000000E+00  0.00000000E+00  0.00000000E+00
  0.00000000E+00  0.00000000E+00  0.00000000E+00
  0.00000000E+00  0.00000000E+00  0.00000000E+00
  0.00000000E+00  0.00000000E+00  0.00000000E+00
  0.00000000E+00  0.00000000E+00  0.00000000E+00
  0.00000000E+00  0.00000000E+00  0.00000000E+00
  0.00000000E+00  0.00000000E+00  0.00000000E+00
  0.00000000E+00  0.00000000E+00  0.00000000E+00
  0.00000000E+00  0.00000000E+00  0.00000000E+00
  0.00000000E+00  0.00000000E+00  0.00000000E+00
  0.00000000E+00  0.00000000E+00  0.00000000E+00
  0.00000000E+00  0.00000000E+00  0.00000000E+00
  0.00000000E+00  0.00000000E+00  0.00000000E+00
  0.00000000E+00  0.00000000E+00  0.00000000E+00
  0.00000000E+00  0.00000000E+00  0.00000000E+00
  0.00000000E+00  0.00000000E+00  0.00000000E+00
  0.00000000E+00  0.00000000E+00  0.00000000E+00
  0.00000000E+00  0.00000000E+00  0.00000000E+00
  0.00000000E+00  0.00000000E+00  0.00000000E+00
  0.00000000E+00  0.00000000E+00  0.00000000E+00
  0.00000000E+00  0.00000000E+00  0.00000000E+00
  0.00000000E+00  0.00000000E+00  0.00000000E+00
  0.00000000E+00  0.00000000E+00  0.00000000E+00
  0.00000000E+00  0.00000000E+00  0.00000000E+00
  0.00000000E+00  0.00000000E+00  0.00000000E+00
  0.00000000E+00  0.00000000E+00  0.00000000E+00
  0.00000000E+00  0.00000000E+00  0.00000000E+00
  0.00000000E+00  0.00000000E+00  0.00000000E+00
  0.00000000E+00  0.00000000E+00  0.00000000E+00
  0.00000000E+00  0.00000000E+00  0.00000000E+00
  0.00000000E+00  0.00000000E+00  0.00000000E+00
  0.00000000E+00  0.00000000E+00  0.00000000E+00
  0.00000000E+00  0.00000000E+00  0.00000000E+00
  0.00000000E+00  0.00000000E+00  0.00000000E+00
  0.00000000E+00  0.00000000E+00  0.00000000E+00
  0.00000000E+00  0.00000000E+00  0.00000000E+00
  0.00000000E+00  0.00000000E+00  0.00000000E+00
  0.00000000E+00  0.00000000E+00  0.00000000E+00
  0.00000000E+00  0.00000000E+00  0.00000000E+00
  0.00000000E+00  0.00000000E+00  0.00000000E+00
  0.00000000E+00  0.00000000E+00  0.00000000E+00
  0.00000000E+00  0.00000000E+00  0.00000000E+00
  0.00000000E+00  0.00000000E+00  0.00000000E+00
  0.00000000E+00  0.00000000E+00  0.00000000E+00
  0.00000000E+00  0.00000000E+00  0.00000000E+00
  0.00000000E+00  0.00000000E+00  0.00000000E+00
  0.00000000E+00  0.00000000E+00  0.00000000E+00
  0.00000000E+00  0.00000000E+00  0.00000000E+00
  0.00000000E+00  0.00000000E+00  0.00000000E+00
  0.00000000E+00  0.00000000E+00  0.00000000E+00
  0.00000000E+00  0.00000000E+00  0.00000000E+00
  0.00000000E+00  0.00000000E+00  0.00000000E+00
  0.00000000E+00  0.00000000E+00  0.00000000E+00
  0.00000000E+00  0.00000000E+00  0.00000000E+00
  0.00000000E+00  0.00000000E+00  0.00000000E+00
  0.00000000E+00  0.00000000E+00  0.00000000E+00
  0.00000000E+00  0.00000000E+00  0.00000000E+00
  0.00000000E+00  0.00000000E+00  0.00000000E+00
  0.00000000E+00  0.00000000E+00  0.00000000E+00
  0.00000000E+00  0.00000000E+00  0.00000000E+00
  0.00000000E+00  0.00000000E+00  0.00000000E+00
  0.00000000E+00  0.00000000E+00  0.00000000E+00
  0.00000000E+00  0.00000000E+00  0.00000000E+00
  0.00000000E+00  0.00000000E+00  0.00000000E+00
  0.00000000E+00  0.00000000E+00  0.00000000E+00
  0.00000000E+00  0.00000000E+00  0.00000000E+00
  0.00000000E+00  0.00000000E+00  0.00000000E+00
  0.00000000E+00  0.00000000E+00  0.00000000E+00
  0.00000000E+00  0.00000000E+00  0.00000000E+00
  0.00000000E+00  0.00000000E+00  0.00000000E+00
  0.00000000E+00  0.00000000E+00  0.00000000E+00
  0.00000000E+00  0.00000000E+00  0.00000000E+00
  0.00000000E+00  0.00000000E+00  0.00000000E+00
  0.00000000E+00  0.00000000E+00  0.00000000E+00
  0.00000000E+00  0.00000000E+00  0.00000000E+00
  0.00000000E+00  0.00000000E+00  0.00000000E+00
  0.00000000E+00  0.00000000E+00  0.00000000E+00
  0.00000000E+00  0.00000000E+00  0.00000000E+00
  0.00000000E+00  0.00000000E+00  0.00000000E+00
  0.00000000E+00  0.00000000E+00  0.00000000E+00
  0.00000000E+00  0.00000000E+00  0.00000000E+00
  0.00000000E+00  0.00000000E+00  0.00000000E+00
  0.00000000E+00  0.00000000E+00  0.00000000E+00
  0.00000000E+00  0.00000000E+00  0.00000000E+00
  0.00000000E+00  0.00000000E+00  0.00000000E+00
