B N As                                  
   1.0000000000000000     
     8.7639499999999995  -15.1796066749929999    0.0000000000000000
     8.7639499999999995   15.1796066749929999    0.0000000000000000
     0.0000000000000000    0.0000000000000000   15.0000000000000000
   B    N    As
    48    48     1
Selective dynamics
Direct
  0.9055799368997968  0.9534221027646905  0.1215660008110871   T   T   T
  0.9043825521443479  0.0958031646867343  0.1196544559770682   T   T   T
  0.9038937949521174  0.2385701697035031  0.1177528383397440   T   T   T
  0.9037925297532743  0.3813383418308090  0.1165612674392416   T   T   T
  0.9045908761646330  0.5241326608285628  0.1161414244237856   T   T   T
  0.9060638808808074  0.6672763821736921  0.1173812895677925   T   T   T
  0.9067972346005618  0.8110285338263081  0.1214467663962553   T   T   T
  0.0480287642126481  0.9521401498782333  0.1215610049656191   T   T   T
  0.0467624216128879  0.0945917167765866  0.1217922132697166   T   T   T
  0.0463789266768262  0.2377217136051112  0.1189297034344558   T   T   T
  0.0467021691044470  0.3807384733037902  0.1155905317697187   T   T   T
  0.0476637988131400  0.5235304271474946  0.1144428396155626   T   T   T
  0.0486030165865195  0.6663791372450960  0.1156917726038918   T   T   T
  0.0486483353558562  0.8093615896738522  0.1188235952786845   T   T   T
  0.1908031147290304  0.9515050364976487  0.1190744852718935   T   T   T
  0.1891421265178740  0.0933609390472143  0.1216050878180813   T   T   T
  0.1877604012087276  0.2356988650785305  0.1182957157577211   T   T   T
  0.1888581955048435  0.3797230158238344  0.1112651196613867   T   T   T
  0.1906563383307489  0.5227611996950444  0.1086650936701549   T   T   T
  0.1917421495393089  0.6657689085412153  0.1105754367071136   T   T   T
  0.1914212854489069  0.8087505346260551  0.1146662359906247   T   T   T
  0.3337939691831857  0.9515640881499248  0.1159903252146399   T   T   T
  0.3328803572988433  0.0940821021486481  0.1174063345246791   T   T   T
  0.3292242143193911  0.2338814164355878  0.1102687892321911   T   T   T
  0.3272316183658687  0.3763013401636110  0.0947469076563478   T   T   T
  0.3335612577957924  0.5201931028274965  0.0930439640838719   T   T   T
  0.3353436715318575  0.6647949031705527  0.1029382843269839   T   T   T
  0.3343956467239795  0.8084230853398278  0.1107028709747725   T   T   T
  0.4766388059723143  0.9525147656623578  0.1145022506943918   T   T   T
  0.4760352743426818  0.0955790757530563  0.1161301714251696   T   T   T
  0.4748461472847178  0.2381729751369745  0.1077634730078490   T   T   T
  0.4649789764460305  0.3704422209611558  0.0732793906070284   T   T   T
  0.4799149484885155  0.6665724717260229  0.0938061542045548   T   T   T
  0.4773918101650734  0.8095297318606629  0.1087742537839182   T   T   T
  0.6194332831971457  0.9534870575228106  0.1154128729010714   T   T   T
  0.6188414823133053  0.0963833956546775  0.1164333507519565   T   T   T
  0.6181686469115770  0.2396805174366751  0.1126578268311586   T   T   T
  0.6169461769805374  0.3831577469627316  0.0979627040023683   T   T   T
  0.6295710141078593  0.5351544918009592  0.0746462079564863   T   T   T
  0.6237011704880644  0.6727919500830019  0.0964841255257487   T   T   T
  0.6204189746594854  0.8113132671221287  0.1116525844729002   T   T   T
  0.7624443432358223  0.9538069351417647  0.1187179654027860   T   T   T
  0.7616204825332037  0.0962975289540960  0.1175976453734040   T   T   T
  0.7610554260003897  0.2391133855203704  0.1164008531394173   T   T   T
  0.7604778052481633  0.3819944024869401  0.1127969428764653   T   T   T
  0.7619520535726229  0.5252841474951783  0.1083188326414242   T   T   T
  0.7661987425419134  0.6708716341579537  0.1112831534224139   T   T   T
  0.7644614778207168  0.8124154163404582  0.1186155175189403   T   T   T
  0.9534985511186467  0.9058203211615323  0.1220793303601558   T   T   T
  0.9520691742174036  0.0481121382462759  0.1211000407768154   T   T   T
  0.9512803782325321  0.1907141652295632  0.1189423708897351   T   T   T
  0.9512804021694488  0.3335866426639352  0.1170131497523162   T   T   T
  0.9521303842521669  0.4764257972824119  0.1163057049329813   T   T   T
  0.9533832383885017  0.6193266150993616  0.1170372629162573   T   T   T
  0.9538658168658052  0.7625718618877935  0.1199887999718464   T   T   T
  0.0957688647258099  0.9043908185971016  0.1200045533866636   T   T   T
  0.0943544001334475  0.0466652068470769  0.1223761856410912   T   T   T
  0.0929720674231397  0.1890478735254668  0.1210944089548813   T   T   T
  0.0934369264903449  0.3325787392294630  0.1163257800573987   T   T   T
  0.0948410229548588  0.4757995122149412  0.1133010314630244   T   T   T
  0.0960830769550751  0.6187306076506446  0.1134722608122507   T   T   T
  0.0962157185311205  0.7615964315477038  0.1161858530098993   T   T   T
  0.2385729703202893  0.9039445823024991  0.1164804267239868   T   T   T
  0.2375955693776166  0.0462889745126610  0.1202872993031835   T   T   T
  0.2349007706217503  0.1873208782021060  0.1201291187471410   T   T   T
  0.2334245338965264  0.3293939123098586  0.1117257381102349   T   T   T
  0.2368711525882506  0.4746839676375643  0.1054362169495976   T   T   T
  0.2391425842583498  0.6182097245395122  0.1069366622101062   T   T   T
  0.2389890122706430  0.7611738793038834  0.1114133070206835   T   T   T
  0.3814378113530709  0.9040802844045520  0.1137043718382055   T   T   T
  0.3808494348779868  0.0467798476736446  0.1172532663897048   T   T   T
  0.3794096718497179  0.1885547472065833  0.1127988256743518   T   T   T
  0.3730372484748503  0.3253093599088716  0.0932298267583994   T   T   T
  0.3715943343526255  0.4669453256247056  0.0817328121060516   T   T   T
  0.3827150157897330  0.6174003556959116  0.0948186258678844   T   T   T
  0.3819410167394846  0.7610086388606526  0.1070450943116117   T   T   T
  0.5243659884078198  0.9053471927809872  0.1132363426445279   T   T   T
  0.5237500642486160  0.0480482391975225  0.1162936113186132   T   T   T
  0.5230205473276766  0.1909040137391444  0.1136427103009400   T   T   T
  0.5209262216702044  0.3327713614068121  0.0940096842123538   T   T   T
  0.5330728806180433  0.6283422667321384  0.0836447109582265   T   T   T
  0.5254494476893592  0.7632993988592387  0.1058022528901707   T   T   T
  0.6675893228016908  0.9067539666394187  0.1161902064922676   T   T   T
  0.6665984681749832  0.0489075605979859  0.1167863829697344   T   T   T
  0.6659444874409927  0.1917745555120098  0.1159135268869248   T   T   T
  0.6650712072762797  0.3350842025973261  0.1085867399647886   T   T   T
  0.6673220254971994  0.4791923279326816  0.0947154964890900   T   T   T
  0.6746144123750278  0.6269283638785821  0.0952034095068418   T   T   T
  0.6707272750510131  0.7667312348033406  0.1126291342842990   T   T   T
  0.8111243221912965  0.9072182534902152  0.1208426227943140   T   T   T
  0.8094675708444229  0.0489029299220979  0.1187407915876942   T   T   T
  0.8087612354954513  0.1914254303612237  0.1174327692629822   T   T   T
  0.8083970390952243  0.3342317365633112  0.1160150128713268   T   T   T
  0.8092538698851306  0.4771426690336981  0.1138842298131649   T   T   T
  0.8115645260369705  0.6207166232769529  0.1133666519903766   T   T   T
  0.8128303834443836  0.7652618293830493  0.1204633038099064   T   T   T
  0.5045400010596074  0.4958503358519612  0.0398109710871419   T   T   T

  0.00000000E+00  0.00000000E+00  0.00000000E+00
  0.00000000E+00  0.00000000E+00  0.00000000E+00
  0.00000000E+00  0.00000000E+00  0.00000000E+00
  0.00000000E+00  0.00000000E+00  0.00000000E+00
  0.00000000E+00  0.00000000E+00  0.00000000E+00
  0.00000000E+00  0.00000000E+00  0.00000000E+00
  0.00000000E+00  0.00000000E+00  0.00000000E+00
  0.00000000E+00  0.00000000E+00  0.00000000E+00
  0.00000000E+00  0.00000000E+00  0.00000000E+00
  0.00000000E+00  0.00000000E+00  0.00000000E+00
  0.00000000E+00  0.00000000E+00  0.00000000E+00
  0.00000000E+00  0.00000000E+00  0.00000000E+00
  0.00000000E+00  0.00000000E+00  0.00000000E+00
  0.00000000E+00  0.00000000E+00  0.00000000E+00
  0.00000000E+00  0.00000000E+00  0.00000000E+00
  0.00000000E+00  0.00000000E+00  0.00000000E+00
  0.00000000E+00  0.00000000E+00  0.00000000E+00
  0.00000000E+00  0.00000000E+00  0.00000000E+00
  0.00000000E+00  0.00000000E+00  0.00000000E+00
  0.00000000E+00  0.00000000E+00  0.00000000E+00
  0.00000000E+00  0.00000000E+00  0.00000000E+00
  0.00000000E+00  0.00000000E+00  0.00000000E+00
  0.00000000E+00  0.00000000E+00  0.00000000E+00
  0.00000000E+00  0.00000000E+00  0.00000000E+00
  0.00000000E+00  0.00000000E+00  0.00000000E+00
  0.00000000E+00  0.00000000E+00  0.00000000E+00
  0.00000000E+00  0.00000000E+00  0.00000000E+00
  0.00000000E+00  0.00000000E+00  0.00000000E+00
  0.00000000E+00  0.00000000E+00  0.00000000E+00
  0.00000000E+00  0.00000000E+00  0.00000000E+00
  0.00000000E+00  0.00000000E+00  0.00000000E+00
  0.00000000E+00  0.00000000E+00  0.00000000E+00
  0.00000000E+00  0.00000000E+00  0.00000000E+00
  0.00000000E+00  0.00000000E+00  0.00000000E+00
  0.00000000E+00  0.00000000E+00  0.00000000E+00
  0.00000000E+00  0.00000000E+00  0.00000000E+00
  0.00000000E+00  0.00000000E+00  0.00000000E+00
  0.00000000E+00  0.00000000E+00  0.00000000E+00
  0.00000000E+00  0.00000000E+00  0.00000000E+00
  0.00000000E+00  0.00000000E+00  0.00000000E+00
  0.00000000E+00  0.00000000E+00  0.00000000E+00
  0.00000000E+00  0.00000000E+00  0.00000000E+00
  0.00000000E+00  0.00000000E+00  0.00000000E+00
  0.00000000E+00  0.00000000E+00  0.00000000E+00
  0.00000000E+00  0.00000000E+00  0.00000000E+00
  0.00000000E+00  0.00000000E+00  0.00000000E+00
  0.00000000E+00  0.00000000E+00  0.00000000E+00
  0.00000000E+00  0.00000000E+00  0.00000000E+00
  0.00000000E+00  0.00000000E+00  0.00000000E+00
  0.00000000E+00  0.00000000E+00  0.00000000E+00
  0.00000000E+00  0.00000000E+00  0.00000000E+00
  0.00000000E+00  0.00000000E+00  0.00000000E+00
  0.00000000E+00  0.00000000E+00  0.00000000E+00
  0.00000000E+00  0.00000000E+00  0.00000000E+00
  0.00000000E+00  0.00000000E+00  0.00000000E+00
  0.00000000E+00  0.00000000E+00  0.00000000E+00
  0.00000000E+00  0.00000000E+00  0.00000000E+00
  0.00000000E+00  0.00000000E+00  0.00000000E+00
  0.00000000E+00  0.00000000E+00  0.00000000E+00
  0.00000000E+00  0.00000000E+00  0.00000000E+00
  0.00000000E+00  0.00000000E+00  0.00000000E+00
  0.00000000E+00  0.00000000E+00  0.00000000E+00
  0.00000000E+00  0.00000000E+00  0.00000000E+00
  0.00000000E+00  0.00000000E+00  0.00000000E+00
  0.00000000E+00  0.00000000E+00  0.00000000E+00
  0.00000000E+00  0.00000000E+00  0.00000000E+00
  0.00000000E+00  0.00000000E+00  0.00000000E+00
  0.00000000E+00  0.00000000E+00  0.00000000E+00
  0.00000000E+00  0.00000000E+00  0.00000000E+00
  0.00000000E+00  0.00000000E+00  0.00000000E+00
  0.00000000E+00  0.00000000E+00  0.00000000E+00
  0.00000000E+00  0.00000000E+00  0.00000000E+00
  0.00000000E+00  0.00000000E+00  0.00000000E+00
  0.00000000E+00  0.00000000E+00  0.00000000E+00
  0.00000000E+00  0.00000000E+00  0.00000000E+00
  0.00000000E+00  0.00000000E+00  0.00000000E+00
  0.00000000E+00  0.00000000E+00  0.00000000E+00
  0.00000000E+00  0.00000000E+00  0.00000000E+00
  0.00000000E+00  0.00000000E+00  0.00000000E+00
  0.00000000E+00  0.00000000E+00  0.00000000E+00
  0.00000000E+00  0.00000000E+00  0.00000000E+00
  0.00000000E+00  0.00000000E+00  0.00000000E+00
  0.00000000E+00  0.00000000E+00  0.00000000E+00
  0.00000000E+00  0.00000000E+00  0.00000000E+00
  0.00000000E+00  0.00000000E+00  0.00000000E+00
  0.00000000E+00  0.00000000E+00  0.00000000E+00
  0.00000000E+00  0.00000000E+00  0.00000000E+00
  0.00000000E+00  0.00000000E+00  0.00000000E+00
  0.00000000E+00  0.00000000E+00  0.00000000E+00
  0.00000000E+00  0.00000000E+00  0.00000000E+00
  0.00000000E+00  0.00000000E+00  0.00000000E+00
  0.00000000E+00  0.00000000E+00  0.00000000E+00
  0.00000000E+00  0.00000000E+00  0.00000000E+00
  0.00000000E+00  0.00000000E+00  0.00000000E+00
  0.00000000E+00  0.00000000E+00  0.00000000E+00
  0.00000000E+00  0.00000000E+00  0.00000000E+00
  0.00000000E+00  0.00000000E+00  0.00000000E+00
