B N S                                   
   1.0000000000000000     
     8.7639499999999995  -15.1796066749929999    0.0000000000000000
     8.7639499999999995   15.1796066749929999    0.0000000000000000
     0.0000000000000000    0.0000000000000000   15.0000000000000000
   B    N    S 
    48    49     1
Selective dynamics
Direct
  0.9058450129706875  0.9532886700404529  0.1110199791536589   T   T   T
  0.9046865356926940  0.0953154855033018  0.1110152742222587   T   T   T
  0.9043041441214952  0.2378664189062498  0.1110401505929394   T   T   T
  0.9046865356926940  0.3807997438803898  0.1110152742222587   T   T   T
  0.9058450129706875  0.5239867481782369  0.1110199791536589   T   T   T
  0.9053167810044173  0.6669628803548323  0.1110484869478656   T   T   T
  0.9053167810044173  0.8097843058975862  0.1110484869478656   T   T   T
  0.0477623057156324  0.9522397154803710  0.1110179346080882   T   T   T
  0.0467133511555509  0.0941570082253087  0.1110199791536589   T   T   T
  0.0460630929554024  0.2370177655829714  0.1110110051337097   T   T   T
  0.0460630929554024  0.3804757326194307  0.1110110051337097   T   T   T
  0.0467133511555509  0.5239867481782369  0.1110199791536589   T   T   T
  0.0477623057156324  0.6669547070392586  0.1110179346080882   T   T   T
  0.0478344298100055  0.8096332733070053  0.1110005203534530   T   T   T
  0.1903687478889985  0.9521675913859978  0.1110005203534530   T   T   T
  0.1902177152984170  0.0946852401915792  0.1110484869478656   T   T   T
  0.1870264585217649  0.2347131290233508  0.1110304790780648   T   T   T
  0.1869140839578528  0.3791722446024264  0.1110122116366557   T   T   T
  0.1870264585217648  0.5237437347464161  0.1110304790780648   T   T   T
  0.1902177152984170  0.6669628803548323  0.1110484869478656   T   T   T
  0.1903687478889985  0.8096332733070053  0.1110005203534530   T   T   T
  0.3330473141577393  0.9522397154803710  0.1110179346080882   T   T   T
  0.3330391408421658  0.0946852401915792  0.1110484869478656   T   T   T
  0.3331699827993960  0.2377683496487938  0.1110500264717695   T   T   T
  0.3257733241873977  0.3754098800661133  0.1110427292989907   T   T   T
  0.3257733241873977  0.5217938493682842  0.1110427292989907   T   T   T
  0.3331699827993960  0.6668320383976024  0.1110500264717695   T   T   T
  0.3330391408421658  0.8097843058975862  0.1110484869478656   T   T   T
  0.4760152730187616  0.9532886700404529  0.1110199791536589   T   T   T
  0.4760152730187616  0.0941570082253087  0.1110199791536589   T   T   T
  0.4762582864505824  0.2347131290233508  0.1110304790780648   T   T   T
  0.4782081718287136  0.3754098800661133  0.1110427292989907   T   T   T
  0.4782081718287136  0.6742286970096008  0.1110427292989907   T   T   T
  0.4762582864505824  0.8129755626742385  0.1110304790780648   T   T   T
  0.6195262885765725  0.9539389282406009  0.1110110051337097   T   T   T
  0.6192022773156131  0.0953154855033018  0.1110152742222587   T   T   T
  0.6195262885765725  0.2370177655829714  0.1110110051337097   T   T   T
  0.6208297765935775  0.3791722446024264  0.1110122116366557   T   T   T
  0.6245921411298904  0.5217938493682842  0.1110427292989907   T   T   T
  0.6245921411298904  0.6742286970096008  0.1110427292989907   T   T   T
  0.6208297765935775  0.8130879372381504  0.1110122116366557   T   T   T
  0.7629842556130320  0.9539389282406009  0.1110110051337097   T   T   T
  0.7621356022897541  0.0956978770745011  0.1110401505929394   T   T   T
  0.7621356022897541  0.2378664189062498  0.1110401505929394   T   T   T
  0.7629842556130320  0.3804757326194307  0.1110110051337097   T   T   T
  0.7652888921726528  0.5237437347464161  0.1110304790780648   T   T   T
  0.7622336715472099  0.6668320383976024  0.1110500264717695   T   T   T
  0.7652888921726528  0.8129755626742385  0.1110304790780648   T   T   T
  0.9529218371350693  0.9050937524899300  0.1110102607991363   T   T   T
  0.9522684650001100  0.0477329369178957  0.1109905539835372   T   T   T
  0.9513679309105578  0.1900046778918076  0.1110080334763194   T   T   T
  0.9513679309105578  0.3327902351367485  0.1110080334763194   T   T   T
  0.9522684650001100  0.4759625102002125  0.1109905539835372   T   T   T
  0.9529218371350693  0.6192567783201350  0.1110102607991363   T   T   T
  0.9530265643113197  0.7622276289931617  0.1110209481798689   T   T   T
  0.0953338468511679  0.9046675550668305  0.1109839959914201   T   T   T
  0.0949076494280685  0.0470795647829364  0.1110102607991363   T   T   T
  0.0925059415698924  0.1882334346781326  0.1110051602229366   T   T   T
  0.0921572344055485  0.3317929640397749  0.1109934343119802   T   T   T
  0.0925059415698924  0.4757012005657606  0.1110051602229366   T   T   T
  0.0949076494280685  0.6192567783201350  0.1110102607991363   T   T   T
  0.0953338468511679  0.7620966970153426  0.1109839959914201   T   T   T
  0.2379047049026629  0.9046675550668305  0.1109839959914201   T   T   T
  0.2377737729248443  0.0469748376066858  0.1110209481798689   T   T   T
  0.2370711817237210  0.1891467013886650  0.1110355721834429   T   T   T
  0.2310715266190852  0.3277763767630428  0.1109994980299640   T   T   T
  0.2310715266190853  0.4747238435300363  0.1109994980299640   T   T   T
  0.2370711817237210  0.6193531740100517  0.1110355721834429   T   T   T
  0.2377737729248443  0.7622276289931617  0.1110209481798689   T   T   T
  0.3807446235978635  0.9050937524899300  0.1110102607991363   T   T   T
  0.3807446235978635  0.0470795647829364  0.1110102607991363   T   T   T
  0.3806482279079468  0.1891467013886650  0.1110355721834429   T   T   T
  0.3803716742745492  0.3321706403060959  0.1110195017643046   T   T   T
  0.3584159589923382  0.4649223263331662  0.1110456690133571   T   T   T
  0.3803716742745492  0.6196297276434491  0.1110195017643046   T   T   T
  0.3806482279079468  0.7629302201942841  0.1110355721834429   T   T   T
  0.5243002013512360  0.9074954603481056  0.1110051602229366   T   T   T
  0.5240388917167843  0.0477329369178957  0.1109905539835372   T   T   T
  0.5243002013512360  0.1882334346781326  0.1110051602229366   T   T   T
  0.5252775583869601  0.3277763767630427  0.1109994980299640   T   T   T
  0.5350790755838308  0.4649223263331662  0.1110456690133571   T   T   T
  0.5350790755838308  0.6415854429256601  0.1110456690133571   T   T   T
  0.5252775583869601  0.7689298752989202  0.1109994980299640   T   T   T
  0.6682084378772223  0.9078441675124498  0.1109934343119802   T   T   T
  0.6672111667802485  0.0486334710074479  0.1110080334763194   T   T   T
  0.6672111667802485  0.1900046778918076  0.1110080334763194   T   T   T
  0.6682084378772223  0.3317929640397749  0.1109934343119802   T   T   T
  0.6722250251539538  0.4747238435300363  0.1109994980299640   T   T   T
  0.6678307616109013  0.6196297276434491  0.1110195017643046   T   T   T
  0.6722250251539538  0.7689298752989202  0.1109994980299640   T   T   T
  0.8117679672398659  0.9074954603481056  0.1110051602229366   T   T   T
  0.8099967240261908  0.0486334710074479  0.1110080334763194   T   T   T
  0.8095252739059973  0.1904761280120013  0.1110299664827535   T   T   T
  0.8099967240261908  0.3327902351367485  0.1110080334763194   T   T   T
  0.8117679672398659  0.4757012005657606  0.1110051602229366   T   T   T
  0.8108547005293336  0.6193531740100517  0.1110355721834429   T   T   T
  0.8108547005293336  0.7629302201942841  0.1110355721834429   T   T   T
  0.4761912123819982  0.5238108088150000  0.1110921441838058   T   T   T

  0.00000000E+00  0.00000000E+00  0.00000000E+00
  0.00000000E+00  0.00000000E+00  0.00000000E+00
  0.00000000E+00  0.00000000E+00  0.00000000E+00
  0.00000000E+00  0.00000000E+00  0.00000000E+00
  0.00000000E+00  0.00000000E+00  0.00000000E+00
  0.00000000E+00  0.00000000E+00  0.00000000E+00
  0.00000000E+00  0.00000000E+00  0.00000000E+00
  0.00000000E+00  0.00000000E+00  0.00000000E+00
  0.00000000E+00  0.00000000E+00  0.00000000E+00
  0.00000000E+00  0.00000000E+00  0.00000000E+00
  0.00000000E+00  0.00000000E+00  0.00000000E+00
  0.00000000E+00  0.00000000E+00  0.00000000E+00
  0.00000000E+00  0.00000000E+00  0.00000000E+00
  0.00000000E+00  0.00000000E+00  0.00000000E+00
  0.00000000E+00  0.00000000E+00  0.00000000E+00
  0.00000000E+00  0.00000000E+00  0.00000000E+00
  0.00000000E+00  0.00000000E+00  0.00000000E+00
  0.00000000E+00  0.00000000E+00  0.00000000E+00
  0.00000000E+00  0.00000000E+00  0.00000000E+00
  0.00000000E+00  0.00000000E+00  0.00000000E+00
  0.00000000E+00  0.00000000E+00  0.00000000E+00
  0.00000000E+00  0.00000000E+00  0.00000000E+00
  0.00000000E+00  0.00000000E+00  0.00000000E+00
  0.00000000E+00  0.00000000E+00  0.00000000E+00
  0.00000000E+00  0.00000000E+00  0.00000000E+00
  0.00000000E+00  0.00000000E+00  0.00000000E+00
  0.00000000E+00  0.00000000E+00  0.00000000E+00
  0.00000000E+00  0.00000000E+00  0.00000000E+00
  0.00000000E+00  0.00000000E+00  0.00000000E+00
  0.00000000E+00  0.00000000E+00  0.00000000E+00
  0.00000000E+00  0.00000000E+00  0.00000000E+00
  0.00000000E+00  0.00000000E+00  0.00000000E+00
  0.00000000E+00  0.00000000E+00  0.00000000E+00
  0.00000000E+00  0.00000000E+00  0.00000000E+00
  0.00000000E+00  0.00000000E+00  0.00000000E+00
  0.00000000E+00  0.00000000E+00  0.00000000E+00
  0.00000000E+00  0.00000000E+00  0.00000000E+00
  0.00000000E+00  0.00000000E+00  0.00000000E+00
  0.00000000E+00  0.00000000E+00  0.00000000E+00
  0.00000000E+00  0.00000000E+00  0.00000000E+00
  0.00000000E+00  0.00000000E+00  0.00000000E+00
  0.00000000E+00  0.00000000E+00  0.00000000E+00
  0.00000000E+00  0.00000000E+00  0.00000000E+00
  0.00000000E+00  0.00000000E+00  0.00000000E+00
  0.00000000E+00  0.00000000E+00  0.00000000E+00
  0.00000000E+00  0.00000000E+00  0.00000000E+00
  0.00000000E+00  0.00000000E+00  0.00000000E+00
  0.00000000E+00  0.00000000E+00  0.00000000E+00
  0.00000000E+00  0.00000000E+00  0.00000000E+00
  0.00000000E+00  0.00000000E+00  0.00000000E+00
  0.00000000E+00  0.00000000E+00  0.00000000E+00
  0.00000000E+00  0.00000000E+00  0.00000000E+00
  0.00000000E+00  0.00000000E+00  0.00000000E+00
  0.00000000E+00  0.00000000E+00  0.00000000E+00
  0.00000000E+00  0.00000000E+00  0.00000000E+00
  0.00000000E+00  0.00000000E+00  0.00000000E+00
  0.00000000E+00  0.00000000E+00  0.00000000E+00
  0.00000000E+00  0.00000000E+00  0.00000000E+00
  0.00000000E+00  0.00000000E+00  0.00000000E+00
  0.00000000E+00  0.00000000E+00  0.00000000E+00
  0.00000000E+00  0.00000000E+00  0.00000000E+00
  0.00000000E+00  0.00000000E+00  0.00000000E+00
  0.00000000E+00  0.00000000E+00  0.00000000E+00
  0.00000000E+00  0.00000000E+00  0.00000000E+00
  0.00000000E+00  0.00000000E+00  0.00000000E+00
  0.00000000E+00  0.00000000E+00  0.00000000E+00
  0.00000000E+00  0.00000000E+00  0.00000000E+00
  0.00000000E+00  0.00000000E+00  0.00000000E+00
  0.00000000E+00  0.00000000E+00  0.00000000E+00
  0.00000000E+00  0.00000000E+00  0.00000000E+00
  0.00000000E+00  0.00000000E+00  0.00000000E+00
  0.00000000E+00  0.00000000E+00  0.00000000E+00
  0.00000000E+00  0.00000000E+00  0.00000000E+00
  0.00000000E+00  0.00000000E+00  0.00000000E+00
  0.00000000E+00  0.00000000E+00  0.00000000E+00
  0.00000000E+00  0.00000000E+00  0.00000000E+00
  0.00000000E+00  0.00000000E+00  0.00000000E+00
  0.00000000E+00  0.00000000E+00  0.00000000E+00
  0.00000000E+00  0.00000000E+00  0.00000000E+00
  0.00000000E+00  0.00000000E+00  0.00000000E+00
  0.00000000E+00  0.00000000E+00  0.00000000E+00
  0.00000000E+00  0.00000000E+00  0.00000000E+00
  0.00000000E+00  0.00000000E+00  0.00000000E+00
  0.00000000E+00  0.00000000E+00  0.00000000E+00
  0.00000000E+00  0.00000000E+00  0.00000000E+00
  0.00000000E+00  0.00000000E+00  0.00000000E+00
  0.00000000E+00  0.00000000E+00  0.00000000E+00
  0.00000000E+00  0.00000000E+00  0.00000000E+00
  0.00000000E+00  0.00000000E+00  0.00000000E+00
  0.00000000E+00  0.00000000E+00  0.00000000E+00
  0.00000000E+00  0.00000000E+00  0.00000000E+00
  0.00000000E+00  0.00000000E+00  0.00000000E+00
  0.00000000E+00  0.00000000E+00  0.00000000E+00
  0.00000000E+00  0.00000000E+00  0.00000000E+00
  0.00000000E+00  0.00000000E+00  0.00000000E+00
  0.00000000E+00  0.00000000E+00  0.00000000E+00
  0.00000000E+00  0.00000000E+00  0.00000000E+00
  0.00000000E+00  0.00000000E+00  0.00000000E+00
