B C N                                   
   1.0000000000000000     
     8.7639499999999995  -15.1796066749929999    0.0000000000000000
     8.7639499999999995   15.1796066749929999    0.0000000000000000
     0.0000000000000000    0.0000000000000000   15.0000000000000000
   B    C    N 
    47     4    47
Selective dynamics
Direct
  0.9047727896210712  0.9524122012249382  0.1110113973958191   T   T   T
  0.9047323457068800  0.0952544712517845  0.1110451086841451   T   T   T
  0.9047509274603557  0.2381351518103512  0.1110552052056638   T   T   T
  0.9045952860438008  0.3809462869783445  0.1110068656697478   T   T   T
  0.9042767124498818  0.5238006698506341  0.1110072856612712   T   T   T
  0.9056496914394998  0.6669511558450053  0.1110812937519942   T   T   T
  0.9044078097135494  0.8090317294122008  0.1110420941264347   T   T   T
  0.0473788977697406  0.9521380724123742  0.1110046718529536   T   T   T
  0.0474642478857949  0.0950306578031346  0.1110061295848955   T   T   T
  0.0477599065409336  0.2381812278361931  0.1110045552824660   T   T   T
  0.0476736295078574  0.3809980621246835  0.1110198664005597   T   T   T
  0.0471682982704275  0.5237921192956971  0.1110156922611481   T   T   T
  0.0475648197092940  0.6667437020756152  0.1110242471853850   T   T   T
  0.0477275026681647  0.8096451708425847  0.1109976189304647   T   T   T
  0.1903766538859052  0.9522913775673801  0.1109996354708371   T   T   T
  0.1903973147107121  0.0949789829096497  0.1110571390949545   T   T   T
  0.1901793526290057  0.2374932263561153  0.1110220770837908   T   T   T
  0.1911198988592367  0.3812326897055249  0.1110076964345777   T   T   T
  0.1900499007060133  0.5240225327818824  0.1110564370129540   T   T   T
  0.1898011649528338  0.6669075984724203  0.1110604219408518   T   T   T
  0.1903356125546909  0.8096898127846376  0.1109980610050570   T   T   T
  0.3332905451649936  0.9524574720338724  0.1110222755112804   T   T   T
  0.3332513224021344  0.0946681361363708  0.1110946602975084   T   T   T
  0.3337361378104809  0.2371844685233594  0.1110823490269123   T   T   T
  0.3330948241812228  0.3779566724979592  0.1109944962576800   T   T   T
  0.3334540617364219  0.5263926595295507  0.1109998714764307   T   T   T
  0.3320097826852551  0.6680165622762503  0.1110769423334272   T   T   T
  0.3331228004484780  0.8102023537118871  0.1110583914741847   T   T   T
  0.4762474258185856  0.9526317221371378  0.1110046641437559   T   T   T
  0.4762568377956275  0.0951521261425788  0.1110089306131510   T   T   T
  0.4760058331190125  0.2374524076194612  0.1110593716741366   T   T   T
  0.4775506987800985  0.3813228961170608  0.1110049766480650   T   T   T
  0.4736413890043742  0.6671864724604977  0.1109754431838811   T   T   T
  0.4760522783825465  0.8100420348896671  0.1110567880861087   T   T   T
  0.6191195643966008  0.9522846795300852  0.1110266129503411   T   T   T
  0.6191210995980289  0.0953831784697220  0.1110034156674238   T   T   T
  0.6189979939829219  0.2384206150007446  0.1110107577933237   T   T   T
  0.6179723431088922  0.3808217542996853  0.1110112670520115   T   T   T
  0.6211739040152028  0.6669358710622610  0.1109839007208871   T   T   T
  0.6191209302128190  0.8088869474482646  0.1110056816305253   T   T   T
  0.7618533272405245  0.9523053608233885  0.1110075804289786   T   T   T
  0.7619012252103291  0.0952600823760513  0.1110570635649666   T   T   T
  0.7618482849155054  0.2381854333445474  0.1110597145701175   T   T   T
  0.7616692989618511  0.3810186707736850  0.1110045567683565   T   T   T
  0.7618345901453394  0.5245703830659222  0.1110541279777548   T   T   T
  0.7628582750886580  0.6656935415757126  0.1110822145043441   T   T   T
  0.7621239883132845  0.8099537592461725  0.1110059603954739   T   T   T
  0.3855050820036711  0.4772660673595001  0.1108911240143981   T   T   T
  0.4791184034609562  0.5253302227260398  0.1110530011416005   T   T   T
  0.5234588116395853  0.6159163679601295  0.1108423823826205   T   T   T
  0.6197305622430422  0.5246307809300157  0.1111270425336046   T   T   T
  0.9519860717090408  0.9042016096301511  0.1110040629949549   T   T   T
  0.9522965474384114  0.0475020783633503  0.1110031271323776   T   T   T
  0.9523664744242952  0.1905518140321230  0.1110258925026780   T   T   T
  0.9521855824292823  0.3334136360237025  0.1110087524150720   T   T   T
  0.9516164196714550  0.4761646708733884  0.1109787021972213   T   T   T
  0.9521435963203114  0.6188678096129379  0.1110248455121365   T   T   T
  0.9522701259872083  0.7616852623589819  0.1110373721766672   T   T   T
  0.0950602476565187  0.9046001544660474  0.1109678037806124   T   T   T
  0.0950294793929899  0.0472795907338376  0.1110051225435969   T   T   T
  0.0949466530514609  0.1900537365412856  0.1109856391292467   T   T   T
  0.0954481525708110  0.3334573366934280  0.1109916337640619   T   T   T
  0.0946044382823543  0.4761977617597498  0.1110167214954861   T   T   T
  0.0945235750660715  0.6190095365902728  0.1110132828164775   T   T   T
  0.0949496075168725  0.7618694237614410  0.1109791519160188   T   T   T
  0.2379678368362222  0.9048172181253612  0.1109797240072200   T   T   T
  0.2380027321011834  0.0472912821325837  0.1110423929756839   T   T   T
  0.2382141817255109  0.1900018224570127  0.1110428501216414   T   T   T
  0.2378443081351237  0.3322351586823695  0.1110017003642893   T   T   T
  0.2378734794260101  0.4767097898477126  0.1110174357866478   T   T   T
  0.2367966757063914  0.6193875458480927  0.1110533678482128   T   T   T
  0.2376782799976573  0.7622166290793133  0.1110366047014878   T   T   T
  0.3809824126266377  0.9053014940839508  0.1110084928307059   T   T   T
  0.3810945952546299  0.0475179031520343  0.1110287136876513   T   T   T
  0.3811285097455339  0.1894821640327866  0.1110837704387539   T   T   T
  0.3820193345835454  0.3316645953344073  0.1110201120632420   T   T   T
  0.3788984935691813  0.6212352959705278  0.1110392289389467   T   T   T
  0.3806458938774134  0.7631521734698612  0.1110511443877293   T   T   T
  0.5239147273452782  0.9052872126443829  0.1110167030259014   T   T   T
  0.5239999195489379  0.0479415294357491  0.1109668675468750   T   T   T
  0.5240516084001361  0.1905948890795710  0.1110122494825781   T   T   T
  0.5240837346048002  0.3329623718849121  0.1110157579692325   T   T   T
  0.5283919165489983  0.4772122879393113  0.1110129155648114   T   T   T
  0.5235019438894087  0.7623440474928607  0.1110134357955431   T   T   T
  0.6667235400394688  0.9045330015233506  0.1109959244478834   T   T   T
  0.6667260966117712  0.0477851655224476  0.1110138600622211   T   T   T
  0.6666728135701638  0.1909761392676186  0.1110116166304290   T   T   T
  0.6665197599786360  0.3344917516639294  0.1109747318066679   T   T   T
  0.6645825618722296  0.4782261778002527  0.1110477265952964   T   T   T
  0.6658093507384969  0.6140374699239119  0.1110833531450108   T   T   T
  0.6682550059590154  0.7622465865481642  0.1109924651073332   T   T   T
  0.8098846083206818  0.9049519082127779  0.1109859114182993   T   T   T
  0.8095145105479445  0.0476791079505048  0.1110265940435808   T   T   T
  0.8094318767948535  0.1906561889572629  0.1110535970737828   T   T   T
  0.8091804561184537  0.3335832782088122  0.1110151372636087   T   T   T
  0.8082687723153132  0.4762786618181247  0.1109936768798670   T   T   T
  0.8100357993118866  0.6187984485655385  0.1110713976684804   T   T   T
  0.8086567737223047  0.7604235487881059  0.1110193650845603   T   T   T

  0.00000000E+00  0.00000000E+00  0.00000000E+00
  0.00000000E+00  0.00000000E+00  0.00000000E+00
  0.00000000E+00  0.00000000E+00  0.00000000E+00
  0.00000000E+00  0.00000000E+00  0.00000000E+00
  0.00000000E+00  0.00000000E+00  0.00000000E+00
  0.00000000E+00  0.00000000E+00  0.00000000E+00
  0.00000000E+00  0.00000000E+00  0.00000000E+00
  0.00000000E+00  0.00000000E+00  0.00000000E+00
  0.00000000E+00  0.00000000E+00  0.00000000E+00
  0.00000000E+00  0.00000000E+00  0.00000000E+00
  0.00000000E+00  0.00000000E+00  0.00000000E+00
  0.00000000E+00  0.00000000E+00  0.00000000E+00
  0.00000000E+00  0.00000000E+00  0.00000000E+00
  0.00000000E+00  0.00000000E+00  0.00000000E+00
  0.00000000E+00  0.00000000E+00  0.00000000E+00
  0.00000000E+00  0.00000000E+00  0.00000000E+00
  0.00000000E+00  0.00000000E+00  0.00000000E+00
  0.00000000E+00  0.00000000E+00  0.00000000E+00
  0.00000000E+00  0.00000000E+00  0.00000000E+00
  0.00000000E+00  0.00000000E+00  0.00000000E+00
  0.00000000E+00  0.00000000E+00  0.00000000E+00
  0.00000000E+00  0.00000000E+00  0.00000000E+00
  0.00000000E+00  0.00000000E+00  0.00000000E+00
  0.00000000E+00  0.00000000E+00  0.00000000E+00
  0.00000000E+00  0.00000000E+00  0.00000000E+00
  0.00000000E+00  0.00000000E+00  0.00000000E+00
  0.00000000E+00  0.00000000E+00  0.00000000E+00
  0.00000000E+00  0.00000000E+00  0.00000000E+00
  0.00000000E+00  0.00000000E+00  0.00000000E+00
  0.00000000E+00  0.00000000E+00  0.00000000E+00
  0.00000000E+00  0.00000000E+00  0.00000000E+00
  0.00000000E+00  0.00000000E+00  0.00000000E+00
  0.00000000E+00  0.00000000E+00  0.00000000E+00
  0.00000000E+00  0.00000000E+00  0.00000000E+00
  0.00000000E+00  0.00000000E+00  0.00000000E+00
  0.00000000E+00  0.00000000E+00  0.00000000E+00
  0.00000000E+00  0.00000000E+00  0.00000000E+00
  0.00000000E+00  0.00000000E+00  0.00000000E+00
  0.00000000E+00  0.00000000E+00  0.00000000E+00
  0.00000000E+00  0.00000000E+00  0.00000000E+00
  0.00000000E+00  0.00000000E+00  0.00000000E+00
  0.00000000E+00  0.00000000E+00  0.00000000E+00
  0.00000000E+00  0.00000000E+00  0.00000000E+00
  0.00000000E+00  0.00000000E+00  0.00000000E+00
  0.00000000E+00  0.00000000E+00  0.00000000E+00
  0.00000000E+00  0.00000000E+00  0.00000000E+00
  0.00000000E+00  0.00000000E+00  0.00000000E+00
  0.00000000E+00  0.00000000E+00  0.00000000E+00
  0.00000000E+00  0.00000000E+00  0.00000000E+00
  0.00000000E+00  0.00000000E+00  0.00000000E+00
  0.00000000E+00  0.00000000E+00  0.00000000E+00
  0.00000000E+00  0.00000000E+00  0.00000000E+00
  0.00000000E+00  0.00000000E+00  0.00000000E+00
  0.00000000E+00  0.00000000E+00  0.00000000E+00
  0.00000000E+00  0.00000000E+00  0.00000000E+00
  0.00000000E+00  0.00000000E+00  0.00000000E+00
  0.00000000E+00  0.00000000E+00  0.00000000E+00
  0.00000000E+00  0.00000000E+00  0.00000000E+00
  0.00000000E+00  0.00000000E+00  0.00000000E+00
  0.00000000E+00  0.00000000E+00  0.00000000E+00
  0.00000000E+00  0.00000000E+00  0.00000000E+00
  0.00000000E+00  0.00000000E+00  0.00000000E+00
  0.00000000E+00  0.00000000E+00  0.00000000E+00
  0.00000000E+00  0.00000000E+00  0.00000000E+00
  0.00000000E+00  0.00000000E+00  0.00000000E+00
  0.00000000E+00  0.00000000E+00  0.00000000E+00
  0.00000000E+00  0.00000000E+00  0.00000000E+00
  0.00000000E+00  0.00000000E+00  0.00000000E+00
  0.00000000E+00  0.00000000E+00  0.00000000E+00
  0.00000000E+00  0.00000000E+00  0.00000000E+00
  0.00000000E+00  0.00000000E+00  0.00000000E+00
  0.00000000E+00  0.00000000E+00  0.00000000E+00
  0.00000000E+00  0.00000000E+00  0.00000000E+00
  0.00000000E+00  0.00000000E+00  0.00000000E+00
  0.00000000E+00  0.00000000E+00  0.00000000E+00
  0.00000000E+00  0.00000000E+00  0.00000000E+00
  0.00000000E+00  0.00000000E+00  0.00000000E+00
  0.00000000E+00  0.00000000E+00  0.00000000E+00
  0.00000000E+00  0.00000000E+00  0.00000000E+00
  0.00000000E+00  0.00000000E+00  0.00000000E+00
  0.00000000E+00  0.00000000E+00  0.00000000E+00
  0.00000000E+00  0.00000000E+00  0.00000000E+00
  0.00000000E+00  0.00000000E+00  0.00000000E+00
  0.00000000E+00  0.00000000E+00  0.00000000E+00
  0.00000000E+00  0.00000000E+00  0.00000000E+00
  0.00000000E+00  0.00000000E+00  0.00000000E+00
  0.00000000E+00  0.00000000E+00  0.00000000E+00
  0.00000000E+00  0.00000000E+00  0.00000000E+00
  0.00000000E+00  0.00000000E+00  0.00000000E+00
  0.00000000E+00  0.00000000E+00  0.00000000E+00
  0.00000000E+00  0.00000000E+00  0.00000000E+00
  0.00000000E+00  0.00000000E+00  0.00000000E+00
  0.00000000E+00  0.00000000E+00  0.00000000E+00
  0.00000000E+00  0.00000000E+00  0.00000000E+00
  0.00000000E+00  0.00000000E+00  0.00000000E+00
  0.00000000E+00  0.00000000E+00  0.00000000E+00
  0.00000000E+00  0.00000000E+00  0.00000000E+00
  0.00000000E+00  0.00000000E+00  0.00000000E+00
