 As N B 
 1.0
 14.936314146199660   0.000000000000000   0.000000000000000
 -7.468157073099825  12.935227489513863   0.000000000000000
  0.000000000000001   0.000000000000001  13.341276283792837
 As N B 
   1 143 143
Cartesian
  4.448345940589976   5.442748723917918   5.002978606422314 
  1.243813497162359   0.718119661901103   1.667273861294241 
  4.978133183410684   7.187153137664270   1.647662154478694 
  6.223201039282162   0.718389905319541   1.667093743708285 
  9.956679969673754   7.185645081505296   1.667336480726881 
 11.201901887996407   0.718431075131097   1.665664288196853 
 -3.734821619377750   9.341679723356004   8.339435814902609 
  1.244358736436827   9.341997736720952   8.338863469136276 
  2.488017377484312   2.873662707365155   8.343742956897145 
  6.222551242486372   9.342052896707999   8.340609895344157 
  7.468070557989876   2.873825560875035   8.342076132835391 
 12.446296612697569   2.874052857396603   8.339604463600413 
 -1.245135778464788   9.341807758056179   1.666761854800937 
 -0.001093525522526   2.873863650414905   1.666520643027888 
  4.978439927783064   2.874164304702352   1.661183728968593 
  3.733455529724523   9.342368536540947   1.663881080009276 
  8.711905476965827   9.341657746841218   1.667336480726881 
  9.957322439110685   2.873927138018959   1.666147067990757 
 -4.979518631061643  11.497640486621448   8.339287783799699 
 -0.000279236503475  11.497818773408527   8.339257825082401 
  1.243287904195082   5.029597396780566   8.343742956897145 
  6.223938098778363   5.029355727928393   8.358295058365959 
  4.978169438671991  11.498073113437860   8.339810144853844 
 11.201563918224720   5.029834810480094   8.338808428892779 
 -1.245569072288612   5.029856751666573   1.667273861294241 
 -2.489867817618311  11.497746891678910   1.666761854800937 
  2.489029988299069  11.498029220201184   1.666312216331725 
  3.731074986663709   5.028632145586677   1.637183279538104 
  7.467360990794133  11.497664006562351   1.667148783951848 
  8.712345062257036   5.029603500494190   1.665347317500444 
 -0.000471197213633   7.185861609900607   8.339026637323354 
  1.243813497162359   0.718119661901104   8.338683351550399 
  4.978133183410685   7.187153137664271   8.358295058365959 
  6.223201039282163   0.718389905319542   8.338863469136276 
  9.956679969673754   7.185645081505297   8.338620732117747 
 -2.490053334669331   7.185760109590416   1.666669429044914 
 11.201901887996407   0.718431075131098   8.340292924647814 
  3.733517412613122   0.718403622797139   1.666930575521274 
  2.488933575380919   7.186115792828366   1.661183728968593 
  7.467247860801441   7.185712560209130   1.665029806705958 
  8.712714701266215   0.718291087052287   1.666312216331725 
  2.488933575380920   7.186115792828367   8.344773483876008 
 13.690922474740015   0.718297627924861   1.666352749244214 
 -1.245135778464773   9.341807758056179   8.339195358043678 
 -0.001093525522525   2.873863650414906   8.339436569816755 
  4.978439927783064   2.874164304702353   8.344773483876008 
  3.733455529724524   9.342368536540947   8.342076132835391 
  8.711905476965827   9.341657746841218   8.338620732117747 
  9.957322439110685   2.873927138018960   8.339810144853844 
 -3.734821619377750   9.341679723356004   1.666521397942032 
  1.244358736436826   9.341997736720952   1.667093743708285 
  2.488017377484312   2.873662707365154   1.662214255947455 
  6.222551242486372   9.342052896707999   1.665347317500444 
  7.468070557989875   2.873825560875034   1.663881080009276 
 12.446296612697569   2.874052857396602   1.666352749244214 
 -1.245569072288611   5.029856751666574   8.338683351550399 
 -2.489867817618296  11.497746891678910   8.339195358043678 
  2.489029988299069  11.498029220201184   8.339644996512902 
  3.731074986663709   5.028632145586678   8.368773933306535 
  7.467360990794134  11.497664006562351   8.338808428892779 
 -4.979518631061644  11.497640486621448   1.666669429044914 
  8.712345062257036   5.029603500494191   8.340609895344157 
 -0.000279236503475  11.497818773408527   1.666699387762281 
  1.243287904195081   5.029597396780565   1.662214255947455 
 -0.000471197213634   7.185861609900606   1.666930575521274 
  6.223938098778362   5.029355727928392   1.647662154478694 
  4.978169438671990  11.498073113437860   1.666147067990757 
 11.201563918224720   5.029834810480093   1.667148783951848 
 -2.490053334669330   7.185760109590417   8.339287783799699 
  3.733517412613122   0.718403622797140   8.339026637323354 
  7.467247860801442   7.185712560209131   8.340927406138658 
  8.712714701266215   0.718291087052288   8.339644996512902 
 13.690922474740015   0.718297627924862   8.339604463600413 
  0.042695062914844   1.466500018064582   5.002978606422314 
  3.654258390023156   8.048025020684948   5.002978606422314 
  5.008315374415776   1.365918262941855   5.002978606422314 
  8.668873842738407   7.879471644345809   5.002978606422314 
  9.992271923616720   1.439747795453522   5.002978606422314 
 -4.978407247472346  10.060918441413488  11.673616748318732 
  0.000212564396772  10.060921581553830  11.673616748318732 
  1.245075095518237   3.593339439228511  11.673616748318732 
  4.979129776865655  10.060866338543670  11.673616748318732 
  6.223751893835441   3.593238321284747  11.673616748318732 
 11.202556465580169   3.593383564219384  11.673616748318732 
 -2.510041906123581  10.048806620501303   5.002978606422314 
 -1.198011889281608   3.615467496572781   5.002978606422314 
  3.844543212002892   3.551450336323014   5.002978606422314 
  2.460522805369829  10.125965533385529   5.002978606422314 
  7.456755797079950  10.062728904063780   5.002978606422314 
  8.751782926094016   3.570096045216097   5.002978606422314 
 -6.223114852954119  12.216729079681908  11.673616748318732 
 -1.244422806826086  12.216693281409187  11.673616748318732 
  0.000258507496178   5.749254342630333  11.673616748318732 
  4.979139000131258   5.749202239728072  11.673616748318732 
  3.734367535771054  12.216743166631293  11.673616748318732 
  9.957913110691106   5.749279421230965  11.673616748318732 
 -2.478223648432712   5.755202648272056   5.002978606422314 
 -3.738345508929343  12.191673574956042   5.002978606422314 
  1.252466367670378  12.221091785204399   5.002978606422314 
  2.508532126502643   5.865489415884682   5.002978606422314 
  6.247564930679244  12.244724111746528   5.002978606422314 
  7.441764064206783   5.703025847325387   5.002978606422314 
 -1.244482825053732   7.905077002436242  11.673616748318732 
  0.000382509244389   1.437416195142371  11.673616748318732 
  3.734325923968748   7.905050582775318  11.673616748318732 
  4.979089557065362   1.437268270474547  11.673616748318732 
  8.713324763777951   7.905135395573710  11.673616748318732 
 -3.760491226428893   7.894806642208765   5.002978606422314 
  9.957808010664777   1.437428066234705  11.673616748318732 
  2.526784556084437   1.446711206233174   5.002978606422314 
  1.197691911375271   7.966111709442120   5.002978606422314 
  6.170461603293147   7.904986301415167   5.002978606422314 
  7.510219101409044   1.379634985853177   5.002978606422314 
  1.244869921783599   7.905126405403925  11.673616748318732 
 12.485903292112051   1.459749631437161   5.002978606422314 
 -2.489117659408044  10.060887239975143  11.673616748318732 
 -1.244355495606646   3.593365661656295  11.673616748318732 
  3.734480319087358   3.593166644691862  11.673616748318732 
  2.489619292605230  10.060894885072647  11.673616748318732 
  7.468592896553347  10.060908508425833  11.673616748318732 
  8.713145030658008   3.593362202738072  11.673616748318732 
 -5.000685267228700  10.042885732118194   5.002978606422314 
 -0.023047204375712  10.076473224942633   5.002978606422314 
  1.313085075079674   3.632605019235896   5.002978606422314 
  4.978299641121209  10.105960816300954   5.002978606422314 
  6.307537622184177   3.452410583914689   5.002978606422314 
 11.238638917410613   3.599930382392385   5.002978606422314 
 -2.489102456453590   5.749229892850924  11.673616748318732 
 -3.733786673678106  12.216677743730433  11.673616748318732 
  1.244919246758507  12.216734452914325  11.673616748318732 
  2.489628062844426   5.749314000421387  11.673616748318732 
  6.223853993912224  12.216749200917075  11.673616748318732 
 -6.212502891018373  12.223164026080289   5.002978606422314 
  7.468582660581466   5.749299304577884  11.673616748318732 
 -1.242584572967019  12.188773909071648   5.002978606422314 
  0.026895243546472   5.776646508847391   5.002978606422314 
 -1.268416488038494   7.913631019684235   5.002978606422314 
  3.753608436680439  12.245429926152053   5.002978606422314 
  9.953571069821800   5.738117994560922   5.002978606422314 
 -3.733735432201932   7.905083618616133  11.673616748318732 
  2.489743876250625   1.437339199248260  11.673616748318732 
  6.223944890982053   7.905075158543287  11.673616748318732 
  7.468414510547118   1.437368607116277  11.673616748318732 
 12.447270649868949   1.437445065038583  11.673616748318732 
  1.281482206838026   0.736487356274073   5.002978606422314 
  4.843313740544311   7.302178426086630   5.002978606422314 
  6.250326610874733   0.678198019392563   5.002978606422314 
  9.926314489323392   7.173963600299937   5.002978606422314 
 11.239520818443310   0.740150374751208   5.002978606422314 
 -3.733830425294311   9.342251989526845  11.673616748318732 
  1.245164100374104   9.341781786752955  11.673616748318732 
  2.490399342040235   2.875318509249832  11.673616748318732 
  6.223670045905903   9.341479481545671  11.673616748318732 
  7.467658266633276   2.875223826274882  11.673616748318732 
 12.447448011939105   2.874929142277966  11.673616748318732 
 -1.262069714793938   9.345336214777806   5.002978606422314 
  0.068055509990539   2.913786864682576   5.002978606422314 
  5.025035407793289   2.792885187934216   5.002978606422314 
  3.702601153818963   9.439413043942023   5.002978606422314 
  8.686606277313011   9.321201210062302   5.002978606422314 
  9.997935597707306   2.874904748057789   5.002978606422314 
 -4.978401905167556  11.498249689163227  11.673616748318732 
  0.000160275040268  11.498072525516585  11.673616748318732 
  1.245912852968837   5.030832337654519  11.673616748318732 
  6.222889607329118   5.030897199874515  11.673616748318732 
  4.979137153598184  11.497636113412103  11.673616748318732 
 11.202396017752697   5.030775565663449  11.673616748318732 
 -1.210827827514831   5.053294963986986   5.002978606422314 
 -2.495279052625796  11.481317444270971   5.002978606422314 
  2.496583941963116  11.537868784661203   5.002978606422314 
  7.477928547202858  11.505692573002964   5.002978606422314 
  8.707035388062767   5.010892021025872   5.002978606422314 
  0.000780609545323   7.186261039259525  11.673616748318732 
  1.245448670148818   0.719128373843463  11.673616748318732 
  4.978943891550633   7.185474381460501  11.673616748318732 
  6.223416703092531   0.719195345932579  11.673616748318732 
  9.957560381090078   7.186439183344566  11.673616748318732 
 -2.505479180632529   7.189030137821675   5.002978606422314 
 11.202472429611200   0.718760477485948  11.673616748318732 
  3.748169781083905   0.694452867636440   5.002978606422314 
  2.441841535467657   7.267108220602832   5.002978606422314 
  7.404591133487838   7.149537681828064   5.002978606422314 
  8.750993752996338   0.704913220594326   5.002978606422314 
  2.490147541511444   7.185858075047876  11.673616748318732 
 13.733894697875982   0.748420134904838   5.002978606422314 
 -1.244302164148535   9.342138417236786  11.673616748318732 
  0.001053170879562   2.875103046160511  11.673616748318732 
  4.978823720703400   2.875344489100992  11.673616748318732 
  3.734460317403725   9.341312349052449  11.673616748318732 
  8.713033395039972   9.342023154573926  11.673616748318732 
  9.957427843450041   2.874983703741507  11.673616748318732 
 -3.755758890457086   9.329591584262198   5.002978606422314 
  1.223114327994298   9.385585113775834   5.002978606422314 
  2.577749957393631   2.914371751230044   5.002978606422314 
  6.203691788827252   9.346810323704155   5.002978606422314 
  7.536686378744167   2.798582633822377   5.002978606422314 
 12.493869580535872   2.896206640799482   5.002978606422314 
 -1.243877915628199   5.030768497041250  11.673616748318732 
 -2.489164651209764  11.498303493263403  11.673616748318732 
  2.489626485698337  11.497744353944247  11.673616748318732 
  3.734867398687193   5.030821695689323  11.673616748318732 
  7.468591758445648  11.497914248300381  11.673616748318732 
 -4.984399626523868  11.482646298026797   5.002978606422314 
  8.712407871869292   5.030859120258537  11.673616748318732 
  0.002756499539083  11.499571456429852   5.002978606422314 
  1.323409260300517   5.086953568596696   5.002978606422314 
 -0.013886975387221   7.210526310802250   5.002978606422314 
  6.256143199196547   4.855086021270908   5.002978606422314 
  4.999322653098944  11.532756335491007   5.002978606422314 
 11.213800638922610   5.034972299565694   5.002978606422314 
 -2.488967386845012   7.186422621312795  11.673616748318732 
  3.734489231964434   0.719288004571578  11.673616748318732 
  7.467932404127827   7.186107781482856  11.673616748318732 
  8.712766248550659   0.718950102081815  11.673616748318732 
 13.692257059329009   0.718856626477221  11.673616748318732 
 -0.000174552805611   1.437623978473934   1.669663515514071 
  3.734745745426332   7.902264341206972   1.664667632575106 
  4.978005189757855   1.439810398926900   1.670335198450652 
  8.710006328498283   7.903219496071678   1.670000365967678 
  9.956957984388414   1.437120344819983   1.668131517419330 
 -4.980179319853661  10.060298532812524   8.337072693905307 
  0.000482523620364  10.060012349700417   8.336746667048349 
  1.245401552714893   3.593527919378922   8.336528864380593 
  4.977672462783785  10.059426944183510   8.337733910414194 
  6.221548848584974   3.594995018116229   8.341289580269496 
 11.201542051313366   3.592598743289759   8.337230217088912 
 -2.489769337207083  10.060510993622417   1.668496329601882 
 -1.244454080988014   3.592779340103701   1.669663515514071 
  3.733207581257837   3.595375089907442   1.665369964837525 
  2.489702367756265  10.059523161843885   1.668963181491337 
  7.466234914967544  10.059637906551426   1.669401982978305 
  8.711169821535165   3.592819828901867   1.668223302430487 
 -6.224345955735604  12.216911648644496   8.336426234351794 
 -1.245075245097282  12.217381688881520   8.336746667048349 
  0.001308344648814   5.747814606728197   8.335380487870294 
  4.976056982155899   5.747422835820361   8.326327560317102 
  3.733676028070472  12.216160882989371   8.337825695425352 
  9.955633746396874   5.747872650213208   8.336555229866363 
 -2.489559898484781   5.748072442086178   1.669530978492821 
 -3.734745587313819  12.217762211762599   1.669400084029814 
  1.244525857429266  12.216507329479137   1.668619304753795 
  2.490904263589209   5.747107554520899   1.665369964837525 
  6.222667111916365  12.216263102856836   1.668726995755716 
  7.464173051617324   5.747154285341665   1.664908426157592 
 -1.244023105006132   7.903704324851583   8.336557128814826 
 -0.000174552805610   1.437623978473935   8.336293697330570 
  3.734745745426333   7.902264341206973   8.341289580269496 
  4.978005189757856   1.439810398926901   8.335622014393987 
  8.710006328498283   7.903219496071679   8.335956846876963 
 -3.735158324989018   7.903858913216996   1.668884518939293 
  9.956957984388414   1.437120344819984   8.337825695425352 
  2.489021946960959   1.438968252843334   1.670576724974334 
  1.246529285949261   7.902916251542425   1.670335198450652 
  6.219882445349819   7.902328834777679   1.664908426157592 
  7.467268100959528   1.438126413921943   1.668963181491337 
  1.246529285949255   7.902916251542440   8.335622014393987 
 12.446594579386606   1.437054735563617   1.668129363057868 
 -2.489769337207083  10.060510993622417   8.337460883242718 
 -1.244454080988014   3.592779340103702   8.336293697330570 
  3.733207581257837   3.595375089907443   8.340587248007061 
  2.489702367756265  10.059523161843885   8.336994031353303 
  7.466234914967544  10.059637906551426   8.336555229866363 
  8.711169821535165   3.592819828901868   8.337733910414194 
 -4.980179319853661  10.060298532812524   1.668884518939293 
  0.000482523620364  10.060012349700417   1.669210545796265 
  1.245401552714892   3.593527919378921   1.669428348464035 
  4.977672462783784  10.059426944183510   1.668223302430487 
  6.221548848584973   3.594995018116228   1.664667632575106 
 11.201542051313366   3.592598743289758   1.668726995755716 
 -2.489559898484780   5.748072442086179   8.336426234351794 
 -3.734745587313819  12.217762211762599   8.336557128814826 
  1.244525857429266  12.216507329479137   8.337337908090847 
  2.490904263589210   5.747107554520900   8.340587248007061 
  6.222667111916366  12.216263102856836   8.337230217088912 
 -6.224345955735605  12.216911648644496   1.669530978492821 
  7.464173051617325   5.747154285341666   8.341048786687063 
 -1.245075245097283  12.217381688881520   1.669210545796265 
  0.001308344648813   5.747814606728197   1.670576724974334 
 -1.244023105006132   7.903704324851582   1.669400084029814 
  4.976056982155898   5.747422835820360   1.679629652527525 
  3.733676028070471  12.216160882989371   1.668131517419330 
  9.955633746396874   5.747872650213207   1.669401982978305 
 -3.735158324989017   7.903858913216997   8.337072693905307 
  2.489021946960960   1.438968252843334   8.335380487870294 
  6.219882445349820   7.902328834777680   8.341048786687063 
  7.467268100959529   1.438126413921943   8.336994031353303 
 12.446594579386606   1.437054735563618   8.337827849786759 
Generated by cif2cell 2.0.0.  :  Failed to get author information, No journal information. Species order: As N B 
 1.0
 14.936314146199660   0.000000000000000   0.000000000000000
 -7.468157073099825  12.935227489513863   0.000000000000000
  0.000000000000001   0.000000000000001  13.341276283792837
 As N B 
   1 143 143
Cartesian
  4.448345940589976   5.442748723917918   5.002978606422314 
  1.243813497162359   0.718119661901103   1.667273861294241 
  4.978133183410684   7.187153137664270   1.647662154478694 
  6.223201039282162   0.718389905319541   1.667093743708285 
  9.956679969673754   7.185645081505296   1.667336480726881 
 11.201901887996407   0.718431075131097   1.665664288196853 
 -3.734821619377750   9.341679723356004   8.339435814902609 
  1.244358736436827   9.341997736720952   8.338863469136276 
  2.488017377484312   2.873662707365155   8.343742956897145 
  6.222551242486372   9.342052896707999   8.340609895344157 
  7.468070557989876   2.873825560875035   8.342076132835391 
 12.446296612697569   2.874052857396603   8.339604463600413 
 -1.245135778464788   9.341807758056179   1.666761854800937 
 -0.001093525522526   2.873863650414905   1.666520643027888 
  4.978439927783064   2.874164304702352   1.661183728968593 
  3.733455529724523   9.342368536540947   1.663881080009276 
  8.711905476965827   9.341657746841218   1.667336480726881 
  9.957322439110685   2.873927138018959   1.666147067990757 
 -4.979518631061643  11.497640486621448   8.339287783799699 
 -0.000279236503475  11.497818773408527   8.339257825082401 
  1.243287904195082   5.029597396780566   8.343742956897145 
  6.223938098778363   5.029355727928393   8.358295058365959 
  4.978169438671991  11.498073113437860   8.339810144853844 
 11.201563918224720   5.029834810480094   8.338808428892779 
 -1.245569072288612   5.029856751666573   1.667273861294241 
 -2.489867817618311  11.497746891678910   1.666761854800937 
  2.489029988299069  11.498029220201184   1.666312216331725 
  3.731074986663709   5.028632145586677   1.637183279538104 
  7.467360990794133  11.497664006562351   1.667148783951848 
  8.712345062257036   5.029603500494190   1.665347317500444 
 -0.000471197213633   7.185861609900607   8.339026637323354 
  1.243813497162359   0.718119661901104   8.338683351550399 
  4.978133183410685   7.187153137664271   8.358295058365959 
  6.223201039282163   0.718389905319542   8.338863469136276 
  9.956679969673754   7.185645081505297   8.338620732117747 
 -2.490053334669331   7.185760109590416   1.666669429044914 
 11.201901887996407   0.718431075131098   8.340292924647814 
  3.733517412613122   0.718403622797139   1.666930575521274 
  2.488933575380919   7.186115792828366   1.661183728968593 
  7.467247860801441   7.185712560209130   1.665029806705958 
  8.712714701266215   0.718291087052287   1.666312216331725 
  2.488933575380920   7.186115792828367   8.344773483876008 
 13.690922474740015   0.718297627924861   1.666352749244214 
 -1.245135778464773   9.341807758056179   8.339195358043678 
 -0.001093525522525   2.873863650414906   8.339436569816755 
  4.978439927783064   2.874164304702353   8.344773483876008 
  3.733455529724524   9.342368536540947   8.342076132835391 
  8.711905476965827   9.341657746841218   8.338620732117747 
  9.957322439110685   2.873927138018960   8.339810144853844 
 -3.734821619377750   9.341679723356004   1.666521397942032 
  1.244358736436826   9.341997736720952   1.667093743708285 
  2.488017377484312   2.873662707365154   1.662214255947455 
  6.222551242486372   9.342052896707999   1.665347317500444 
  7.468070557989875   2.873825560875034   1.663881080009276 
 12.446296612697569   2.874052857396602   1.666352749244214 
 -1.245569072288611   5.029856751666574   8.338683351550399 
 -2.489867817618296  11.497746891678910   8.339195358043678 
  2.489029988299069  11.498029220201184   8.339644996512902 
  3.731074986663709   5.028632145586678   8.368773933306535 
  7.467360990794134  11.497664006562351   8.338808428892779 
 -4.979518631061644  11.497640486621448   1.666669429044914 
  8.712345062257036   5.029603500494191   8.340609895344157 
 -0.000279236503475  11.497818773408527   1.666699387762281 
  1.243287904195081   5.029597396780565   1.662214255947455 
 -0.000471197213634   7.185861609900606   1.666930575521274 
  6.223938098778362   5.029355727928392   1.647662154478694 
  4.978169438671990  11.498073113437860   1.666147067990757 
 11.201563918224720   5.029834810480093   1.667148783951848 
 -2.490053334669330   7.185760109590417   8.339287783799699 
  3.733517412613122   0.718403622797140   8.339026637323354 
  7.467247860801442   7.185712560209131   8.340927406138658 
  8.712714701266215   0.718291087052288   8.339644996512902 
 13.690922474740015   0.718297627924862   8.339604463600413 
  0.042695062914844   1.466500018064582   5.002978606422314 
  3.654258390023156   8.048025020684948   5.002978606422314 
  5.008315374415776   1.365918262941855   5.002978606422314 
  8.668873842738407   7.879471644345809   5.002978606422314 
  9.992271923616720   1.439747795453522   5.002978606422314 
 -4.978407247472346  10.060918441413488  11.673616748318732 
  0.000212564396772  10.060921581553830  11.673616748318732 
  1.245075095518237   3.593339439228511  11.673616748318732 
  4.979129776865655  10.060866338543670  11.673616748318732 
  6.223751893835441   3.593238321284747  11.673616748318732 
 11.202556465580169   3.593383564219384  11.673616748318732 
 -2.510041906123581  10.048806620501303   5.002978606422314 
 -1.198011889281608   3.615467496572781   5.002978606422314 
  3.844543212002892   3.551450336323014   5.002978606422314 
  2.460522805369829  10.125965533385529   5.002978606422314 
  7.456755797079950  10.062728904063780   5.002978606422314 
  8.751782926094016   3.570096045216097   5.002978606422314 
 -6.223114852954119  12.216729079681908  11.673616748318732 
 -1.244422806826086  12.216693281409187  11.673616748318732 
  0.000258507496178   5.749254342630333  11.673616748318732 
  4.979139000131258   5.749202239728072  11.673616748318732 
  3.734367535771054  12.216743166631293  11.673616748318732 
  9.957913110691106   5.749279421230965  11.673616748318732 
 -2.478223648432712   5.755202648272056   5.002978606422314 
 -3.738345508929343  12.191673574956042   5.002978606422314 
  1.252466367670378  12.221091785204399   5.002978606422314 
  2.508532126502643   5.865489415884682   5.002978606422314 
  6.247564930679244  12.244724111746528   5.002978606422314 
  7.441764064206783   5.703025847325387   5.002978606422314 
 -1.244482825053732   7.905077002436242  11.673616748318732 
  0.000382509244389   1.437416195142371  11.673616748318732 
  3.734325923968748   7.905050582775318  11.673616748318732 
  4.979089557065362   1.437268270474547  11.673616748318732 
  8.713324763777951   7.905135395573710  11.673616748318732 
 -3.760491226428893   7.894806642208765   5.002978606422314 
  9.957808010664777   1.437428066234705  11.673616748318732 
  2.526784556084437   1.446711206233174   5.002978606422314 
  1.197691911375271   7.966111709442120   5.002978606422314 
  6.170461603293147   7.904986301415167   5.002978606422314 
  7.510219101409044   1.379634985853177   5.002978606422314 
  1.244869921783599   7.905126405403925  11.673616748318732 
 12.485903292112051   1.459749631437161   5.002978606422314 
 -2.489117659408044  10.060887239975143  11.673616748318732 
 -1.244355495606646   3.593365661656295  11.673616748318732 
  3.734480319087358   3.593166644691862  11.673616748318732 
  2.489619292605230  10.060894885072647  11.673616748318732 
  7.468592896553347  10.060908508425833  11.673616748318732 
  8.713145030658008   3.593362202738072  11.673616748318732 
 -5.000685267228700  10.042885732118194   5.002978606422314 
 -0.023047204375712  10.076473224942633   5.002978606422314 
  1.313085075079674   3.632605019235896   5.002978606422314 
  4.978299641121209  10.105960816300954   5.002978606422314 
  6.307537622184177   3.452410583914689   5.002978606422314 
 11.238638917410613   3.599930382392385   5.002978606422314 
 -2.489102456453590   5.749229892850924  11.673616748318732 
 -3.733786673678106  12.216677743730433  11.673616748318732 
  1.244919246758507  12.216734452914325  11.673616748318732 
  2.489628062844426   5.749314000421387  11.673616748318732 
  6.223853993912224  12.216749200917075  11.673616748318732 
 -6.212502891018373  12.223164026080289   5.002978606422314 
  7.468582660581466   5.749299304577884  11.673616748318732 
 -1.242584572967019  12.188773909071648   5.002978606422314 
  0.026895243546472   5.776646508847391   5.002978606422314 
 -1.268416488038494   7.913631019684235   5.002978606422314 
  3.753608436680439  12.245429926152053   5.002978606422314 
  9.953571069821800   5.738117994560922   5.002978606422314 
 -3.733735432201932   7.905083618616133  11.673616748318732 
  2.489743876250625   1.437339199248260  11.673616748318732 
  6.223944890982053   7.905075158543287  11.673616748318732 
  7.468414510547118   1.437368607116277  11.673616748318732 
 12.447270649868949   1.437445065038583  11.673616748318732 
  1.281482206838026   0.736487356274073   5.002978606422314 
  4.843313740544311   7.302178426086630   5.002978606422314 
  6.250326610874733   0.678198019392563   5.002978606422314 
  9.926314489323392   7.173963600299937   5.002978606422314 
 11.239520818443310   0.740150374751208   5.002978606422314 
 -3.733830425294311   9.342251989526845  11.673616748318732 
  1.245164100374104   9.341781786752955  11.673616748318732 
  2.490399342040235   2.875318509249832  11.673616748318732 
  6.223670045905903   9.341479481545671  11.673616748318732 
  7.467658266633276   2.875223826274882  11.673616748318732 
 12.447448011939105   2.874929142277966  11.673616748318732 
 -1.262069714793938   9.345336214777806   5.002978606422314 
  0.068055509990539   2.913786864682576   5.002978606422314 
  5.025035407793289   2.792885187934216   5.002978606422314 
  3.702601153818963   9.439413043942023   5.002978606422314 
  8.686606277313011   9.321201210062302   5.002978606422314 
  9.997935597707306   2.874904748057789   5.002978606422314 
 -4.978401905167556  11.498249689163227  11.673616748318732 
  0.000160275040268  11.498072525516585  11.673616748318732 
  1.245912852968837   5.030832337654519  11.673616748318732 
  6.222889607329118   5.030897199874515  11.673616748318732 
  4.979137153598184  11.497636113412103  11.673616748318732 
 11.202396017752697   5.030775565663449  11.673616748318732 
 -1.210827827514831   5.053294963986986   5.002978606422314 
 -2.495279052625796  11.481317444270971   5.002978606422314 
  2.496583941963116  11.537868784661203   5.002978606422314 
  7.477928547202858  11.505692573002964   5.002978606422314 
  8.707035388062767   5.010892021025872   5.002978606422314 
  0.000780609545323   7.186261039259525  11.673616748318732 
  1.245448670148818   0.719128373843463  11.673616748318732 
  4.978943891550633   7.185474381460501  11.673616748318732 
  6.223416703092531   0.719195345932579  11.673616748318732 
  9.957560381090078   7.186439183344566  11.673616748318732 
 -2.505479180632529   7.189030137821675   5.002978606422314 
 11.202472429611200   0.718760477485948  11.673616748318732 
  3.748169781083905   0.694452867636440   5.002978606422314 
  2.441841535467657   7.267108220602832   5.002978606422314 
  7.404591133487838   7.149537681828064   5.002978606422314 
  8.750993752996338   0.704913220594326   5.002978606422314 
  2.490147541511444   7.185858075047876  11.673616748318732 
 13.733894697875982   0.748420134904838   5.002978606422314 
 -1.244302164148535   9.342138417236786  11.673616748318732 
  0.001053170879562   2.875103046160511  11.673616748318732 
  4.978823720703400   2.875344489100992  11.673616748318732 
  3.734460317403725   9.341312349052449  11.673616748318732 
  8.713033395039972   9.342023154573926  11.673616748318732 
  9.957427843450041   2.874983703741507  11.673616748318732 
 -3.755758890457086   9.329591584262198   5.002978606422314 
  1.223114327994298   9.385585113775834   5.002978606422314 
  2.577749957393631   2.914371751230044   5.002978606422314 
  6.203691788827252   9.346810323704155   5.002978606422314 