Species order:X N B                     
   2.51242800000000     
     5.9449720136058266    0.0000000000000000    0.0000000000000000
    -2.9724860068029120    5.1484967885702053   -0.0000000000000001
     0.0000000000000000    0.0000000000000009    5.3101128803662583
   C    N    B 
     3   143   141
Direct
  0.6111308979957185  0.3905364477599227  0.3750000000000000
  0.4460722164308831  0.3905364477599227  0.3750000000000000
  0.5533789447607159  0.4400912228547658  0.3750000000000000
  0.1111053478778625  0.0555570823241308  0.1249339010677800
  0.6110892263033557  0.5555117859400583  0.1247508077987481
  0.4444507824074445  0.0555607372635323  0.1249874705005850
  0.9444394854395110  0.5555051370353482  0.1248624286149222
  0.7777885295196773  0.0555696698333533  0.1248775121409063
  0.1110866555398433  0.7221788845789415  0.6251345482617573
  0.4444282608824224  0.7221818927385304  0.6249558837648823
  0.2777788566527881  0.2222441615851336  0.6249341215690020
  0.7777653131499651  0.7222114226831124  0.6244167050381221
  0.6111319715990235  0.2222441615851336  0.6249341215690020
  0.9444439935339299  0.2222213204012080  0.6251166020700512
  0.2777588957057728  0.7221788845789415  0.1248654517382375
  0.1110962807261806  0.2222204718165056  0.1249392897520199
  0.4444632409290008  0.2222598151913337  0.1250961701183238
  0.6111127761998272  0.7222114226831124  0.1255832949618709
  0.9444202985227601  0.7221818927385304  0.1250441162351169
  0.7777908577570012  0.2222204718165056  0.1249392897520199
  0.1110896119344015  0.8888671277417100  0.6250886605054143
  0.4444441824739824  0.8888671277417100  0.6250886605054143
  0.2777407359390588  0.3888692698325576  0.6249924870235806
  0.6111366033960844  0.3888871428979871  0.6251278358929427
  0.7777840098058713  0.8889013529450797  0.6249535990697472
  0.9444474461758487  0.3888629169710004  0.6251154766870108
  0.1110821374618249  0.3888629169710004  0.1248845233129980
  0.2777662416387623  0.8888658166108532  0.1249185680676771
  0.6111228753645457  0.8888801749609307  0.1249827400364367
  0.4444172061685771  0.3888871428979871  0.1248721641070622
  0.9444239662630558  0.8888801749609307  0.1249827400364367
  0.7777952005601759  0.3888692698325576  0.1250075129764155
  0.2777323182625167  0.5555051370353482  0.6251375713850873
  0.1111053478778625  0.0555570823241308  0.6250660989322170
  0.6110892263033557  0.5555117859400583  0.6252491922012477
  0.4444507824074445  0.0555607372635323  0.6250125294994265
  0.9444394854395110  0.5555051370353482  0.6251375713850873
  0.1110885961954835  0.5555105257242885  0.1248381597730085
  0.7777885295196773  0.0555696698333533  0.6251224878590961
  0.2777766215227511  0.0555607372635323  0.1249874705005850
  0.4443709550536545  0.5554907167386520  0.1251006744371481
  0.7777864283516570  0.5554907167386520  0.1251006744371481
  0.6111184011129355  0.0555570823241308  0.1249339010677800
  0.4443709550536545  0.5554907167386520  0.6248993255628608
  0.9444478069803427  0.0555696698333533  0.1248775121409063
  0.2777588957057728  0.7221788845789415  0.6251345482617573
  0.1110962807261806  0.2222204718165056  0.6250607102479738
  0.4444632409290008  0.2222598151913337  0.6249038298816784
  0.6111127761998272  0.7222114226831124  0.6244167050381221
  0.9444202985227601  0.7221818927385304  0.6249558837648823
  0.7777908577570012  0.2222204718165056  0.6250607102479738
  0.1110866555398433  0.7221788845789415  0.1248654517382375
  0.4444282608824224  0.7221818927385304  0.1250441162351169
  0.2777788566527881  0.2222441615851336  0.1250658784310003
  0.7777653131499651  0.7222114226831124  0.1255832949618709
  0.6111319715990235  0.2222441615851336  0.1250658784310003
  0.9444439935339299  0.2222213204012080  0.1248833979299394
  0.1110821374618249  0.3888629169710004  0.6251154766870108
  0.2777662416387623  0.8888658166108532  0.6250814319323275
  0.6111228753645457  0.8888801749609307  0.6250172599635631
  0.4444172061685771  0.3888871428979871  0.6251278358929427
  0.9444239662630558  0.8888801749609307  0.6250172599635631
  0.1110896119344015  0.8888671277417100  0.1249113394945838
  0.7777952005601759  0.3888692698325576  0.6249924870235806
  0.4444441824739824  0.8888671277417100  0.1249113394945838
  0.2777407359390588  0.3888692698325576  0.1250075129764155
  0.2777323182625167  0.5555051370353482  0.1248624286149222
  0.6111366033960844  0.3888871428979871  0.1248721641070622
  0.7777840098058713  0.8889013529450797  0.1250464009302517
  0.9444474461758487  0.3888629169710004  0.1248845233129980
  0.1110885961954835  0.5555105257242885  0.6251618402269897
  0.2777766215227511  0.0555607372635323  0.6250125294994265
  0.7777864283516570  0.5554907167386520  0.6248993255628608
  0.6111184011129355  0.0555570823241308  0.6250660989322170
  0.9444478069803427  0.0555696698333533  0.6251224878590961
  0.0554578352304262  0.1108045474617020  0.3750000000000000
  0.5516142941865602  0.6103138139951184  0.3750000000000000
  0.3907312355218630  0.1147958043770560  0.3750000000000000
  0.8902840868989164  0.6102501043418523  0.3750000000000000
  0.7220133788979363  0.1108045474617020  0.3750000000000000
  0.0555680588308319  0.7777950757260036  0.8750000000000000
  0.3888936835618388  0.7777950757260036  0.8750000000000000
  0.2222307438549545  0.2777820138554797  0.8750000000000000
  0.7222263389098204  0.7777860111529576  0.8750000000000000
  0.5555516963119885  0.2777768286471369  0.8750000000000000
  0.8888887020550483  0.2777833182271181  0.8750000000000000
  0.2226841958261140  0.7787017249855647  0.3750000000000000
  0.0552973327328903  0.2773544723376249  0.3750000000000000
  0.3907217672398773  0.2824067575990798  0.3750000000000000
  0.5547462744011360  0.7781054529386783  0.3750000000000000
  0.8900258452042130  0.7781054529386783  0.3750000000000000
  0.7223127520693172  0.2773243550912501  0.3750000000000000
  0.0555645454744872  0.9444541139183996  0.8750000000000000
  0.3888919960212379  0.9444548140562207  0.8750000000000000
  0.2222312806468413  0.4444565225852092  0.8750000000000000
  0.5555572899894905  0.4444479133122924  0.8750000000000000
  0.7222218705918098  0.9444491823001040  0.8750000000000000
  0.8888919086050296  0.4444565225852092  0.8750000000000000
  0.0553536521157154  0.4440406375647602  0.3750000000000000
  0.2234780127937049  0.9461944684035907  0.3750000000000000
  0.5553295858452709  0.9452704563350632  0.3750000000000000
  0.3903504932813310  0.4409971608461610  0.3750000000000000
  0.8886950628871130  0.9438053000766650  0.3750000000000000
  0.7173133342315082  0.4409971608461610  0.3750000000000000
  0.2222288330587759  0.6111262350597876  0.8750000000000000
  0.0555603099397480  0.1111119219696402  0.8750000000000000
  0.5555610530609585  0.6111239285736668  0.8750000000000000
  0.3888883992518735  0.1111101318370939  0.8750000000000000
  0.8888963672707468  0.6111259312720725  0.8750000000000000
  0.0560781178241270  0.6111482278140045  0.3750000000000000
  0.7222182786965479  0.1111119219696402  0.8750000000000000
  0.2237053451031481  0.1128757716837956  0.3750000000000000
  0.3866326841095943  0.6102501043418523  0.3750000000000000
  0.7253661864752200  0.6103138139951184  0.3750000000000000
  0.5558370932473224  0.1128757716837956  0.3750000000000000
  0.3888962306679943  0.6111259312720725  0.8750000000000000
  0.8886063396641612  0.1105460126616632  0.3750000000000000
  0.2222304645323373  0.7777942623980088  0.8750000000000000
  0.0555612828387262  0.2777833182271181  0.8750000000000000
  0.3888917990018088  0.2777768286471369  0.8750000000000000
  0.5555576562087663  0.7777898409717187  0.8750000000000000
  0.8888988514296177  0.7777898409717187  0.8750000000000000
  0.7222179366671934  0.2777820138554797  0.8750000000000000
  0.0565211699916713  0.7784167194963610  0.3750000000000000
  0.3885622161713667  0.7784167194963610  0.3750000000000000
  0.2216782696886072  0.2773243550912501  0.3750000000000000
  0.7215710688549030  0.7764754710431162  0.3750000000000000
  0.5583516570258612  0.2824067575990798  0.3750000000000000
  0.8887238062714089  0.2773544723376249  0.3750000000000000
  0.0555616540289615  0.4444566413912500  0.8750000000000000
  0.2222294847016630  0.9444548140562207  0.8750000000000000
  0.5555562351105714  0.9444541139183996  0.8750000000000000
  0.3888985024708235  0.4444532353960269  0.8750000000000000
  0.8888939783749664  0.9444491823001040  0.8750000000000000
  0.0566075371564731  0.9452704563350632  0.3750000000000000
  0.7222213995918705  0.4444532353960269  0.8750000000000000
  0.3893831222765468  0.9461944684035907  0.3750000000000000
  0.2228172728187582  0.4437504025506668  0.3750000000000000
  0.2217367766565290  0.6111482278140045  0.3750000000000000
  0.7217769038562072  0.9438053000766650  0.3750000000000000
  0.8875997963985751  0.4437504025506668  0.3750000000000000
  0.0555640686676780  0.6111262350597876  0.8750000000000000
  0.2222264446558853  0.1111122145282094  0.8750000000000000
  0.7222295421793561  0.6111239285736668  0.8750000000000000
  0.5555524365389921  0.1111122145282094  0.8750000000000000
  0.8888894145496705  0.1111121624326975  0.8750000000000000
  0.1115759983736734  0.0558830811819227  0.3750000000000000
  0.4448954718271600  0.0572787224421235  0.3750000000000000
  0.9447406599661441  0.5557482110687718  0.3750000000000000
  0.7771487519273577  0.0541273625501609  0.3750000000000000
  0.1110939282762170  0.7222378857628367  0.8750000000000000
  0.4445020387930084  0.7222210759421593  0.8750000000000000
  0.2778108413619471  0.2222534017593868  0.8750000000000000
  0.7777228858273894  0.7221800308043274  0.8750000000000000
  0.6111092270641157  0.2222534017593868  0.8750000000000000
  0.9444363298395569  0.2222059930124438  0.8750000000000000
  0.2778765879730610  0.7226068248774391  0.3750000000000000
  0.1102464029121550  0.2214804192676841  0.3750000000000000
  0.4464310125660688  0.2261953584654714  0.3750000000000000
  0.6083540298688522  0.7169687275474305  0.3750000000000000
  0.9441804166862824  0.7217424083915378  0.3750000000000000
  0.7779006830221982  0.2214804192676841  0.3750000000000000
  0.1110698898471971  0.8888616034664373  0.8750000000000000
  0.4444583802859101  0.8888616034664373  0.8750000000000000
  0.2778695149242705  0.3889618630316068  0.8750000000000000
  0.6111254791742758  0.3889959330061908  0.8750000000000000
  0.7777275401668627  0.8887884136670374  0.8750000000000000
  0.9444429141475533  0.3889297953850437  0.8750000000000000
  0.1114672653138498  0.3886608694553750  0.3750000000000000
  0.2782553475938100  0.8898440285209487  0.3750000000000000
  0.6102934144848023  0.8879745309045364  0.3750000000000000
  0.9443477830864169  0.8879745309045364  0.3750000000000000
  0.7761051154203409  0.3879783886826745  0.3750000000000000
  0.2778640626030643  0.5556130219395963  0.8750000000000000
  0.1110821203432621  0.0555173897984411  0.8750000000000000
  0.6111492027569547  0.5556317388472674  0.8750000000000000
  0.4444437887846413  0.0555456966500640  0.8750000000000000
  0.9444156260032039  0.5556130219395963  0.8750000000000000
  0.1111326958424403  0.5555987250182097  0.3750000000000000
  0.7777472195344326  0.0554839797119054  0.8750000000000000
  0.2790499172816309  0.0572787224421235  0.3750000000000000
  0.4480570297053507  0.5582965768772647  0.3750000000000000
  0.7769062138385733  0.5582965768772647  0.3750000000000000
  0.6109737494749258  0.0558830811819227  0.3750000000000000
  0.4445614402232522  0.5556330337341159  0.8750000000000000
  0.9436452772894653  0.0541273625501613  0.3750000000000000
  0.2778106241532877  0.7222378857628367  0.8750000000000000
  0.1111230655085543  0.2222199634628089  0.8750000000000000
  0.4444670950456915  0.2222675234247253  0.8750000000000000
  0.6111238116436077  0.7221800308043274  0.8750000000000000
  0.9443857038158096  0.7222210759421593  0.8750000000000000
  0.7777635646209192  0.2222199634628089  0.8750000000000000
  0.1113969035710605  0.7226068248774391  0.3750000000000000
  0.4442286583719087  0.7217424083915378  0.3750000000000000
  0.2777739419501784  0.2235455119698035  0.3750000000000000
  0.7752813643452440  0.7169687275474305  0.3750000000000000
  0.6124382366862845  0.2235455119698035  0.3750000000000000
  0.9440632743969914  0.2214598821273098  0.3750000000000000
  0.1111535479041587  0.3889297953850437  0.8750000000000000
  0.2777729113620134  0.8888791560573555  0.8750000000000000
  0.6111054090309147  0.8888173852196312  0.8750000000000000
  0.4445371204985822  0.3889959330061908  0.8750000000000000
  0.9443786428553973  0.8888173852196312  0.8750000000000000
  0.1117068451986462  0.8894107330272714  0.3750000000000000
  0.7777590147740151  0.3889618630316068  0.8750000000000000
  0.4443705544952871  0.8894107330272714  0.3750000000000000
  0.2785399399290136  0.3879783886826745  0.3750000000000000
  0.2776742177692924  0.5557482110687718  0.3750000000000000
  0.7762431572678700  0.8858196478691071  0.3750000000000000
  0.9438602708081877  0.3886608694553750  0.3750000000000000
  0.1111335873428142  0.5556005080189516  0.8750000000000000
  0.2777685745320868  0.0555456966500640  0.8750000000000000
  0.7777382601775256  0.5556330337341159  0.8750000000000000
  0.6111019361218490  0.0555173897984411  0.8750000000000000
  0.9444034268441349  0.0554839797119054  0.8750000000000000
  0.0554597291895121  0.1110486748732987  0.1250317495434773
  0.5557510393848977  0.6110339240276975  0.1273771328254437
  0.3889105142055417  0.1111543617444313  0.1249964003806460
  0.8886399891501618  0.6110513073124588  0.1255794881668211
  0.7222556123504438  0.1110486748732987  0.1250317495434773
  0.0553084926753436  0.7776125612976313  0.6248002039434269
  0.3889707352889502  0.7776125612976313  0.6248002039434269
  0.2222433412997195  0.2778974630602029  0.6250126700218481
  0.7220813256079924  0.7774959845493243  0.6236033471001481
  0.5557235373801817  0.2780989751525278  0.6251518529013114
  0.8889207329104530  0.2778014817789333  0.6250005271312347
  0.2221553131848465  0.7776439597030328  0.1250558872766296
  0.0555474155351367  0.2778014817789333  0.1249994728687645
  0.3890421044390067  0.2780989751525278  0.1248481470986921
  0.5556712926217309  0.7775342201830248  0.1258690817618554
  0.8885295942279476  0.7775342201830248  0.1258690817618554
  0.7223207884271534  0.2778974630602029  0.1249873299781487
  0.0553334238291566  0.9442775433143149  0.6248614198491098
  0.3888909000389848  0.9443276992423144  0.6249534436853355
  0.2222931871887985  0.4445248426460862  0.6249151146954707
  0.5558173164452048  0.4449679662237226  0.6240750881892456
  0.7221972158253266  0.9442479783934991  0.6246833691754999
  0.8888983221239389  0.4445248426460862  0.6249151146954707
  0.0555660183492197  0.4444653700317655  0.1250118002854814
  0.2221034658699902  0.9443276992423144  0.1250465563146695
  0.5556107861518332  0.9442775433143149  0.1251385801508965
  0.3891314031497112  0.4447222321149708  0.1252593972052793
  0.8887174292348373  0.9442479783934991  0.1253166308245024
  0.7222574956319169  0.4447222321149708  0.1252593972052793
  0.2222600318736979  0.6110503774351077  0.6249302061390750
  0.0554597291895121  0.1110486748732987  0.6249682504565208
  0.5557510393848977  0.6110339240276975  0.6226228671745677
  0.3889105142055417  0.1111543617444313  0.6250035996193676
  0.8886399891501618  0.6110513073124588  0.6244205118331760
  0.0554570122280751  0.6110503774351077  0.1250697938609255
  0.7222556123504438  0.1110486748732987  0.6249682504565208
  0.2221617509740728  0.1111074430237020  0.1250037353450548
  0.3890779848289423  0.6110513073124588  0.1255794881668211
  0.7219495513094852  0.6110339240276975  0.1273771328254437
  0.5556123587162936  0.1111074430237020  0.1250037353450548
  0.3890779848289423  0.6110513073124588  0.6244205118331760
  0.8888475074262235  0.1110283481857756  0.1250414834044528
  0.2221553131848465  0.7776439597030328  0.6249441127233744
  0.0555474155351367  0.2778014817789333  0.6250005271312347
  0.3890421044390067  0.2780989751525278  0.6251518529013114
  0.5556712926217309  0.7775342201830248  0.6241309182381354
  0.8885295942279476  0.7775342201830248  0.6241309182381354
  0.7223207884271534  0.2778974630602029  0.6250126700218481
  0.0553084926753436  0.7776125612976313  0.1251997960565702
  0.3889707352889502  0.7776125612976313  0.1251997960565702
  0.2222433412997195  0.2778974630602029  0.1249873299781487
  0.7220813256079924  0.7774959845493243  0.1263966528998535
  0.5557235373801817  0.2780989751525278  0.1248481470986921
  0.8889207329104530  0.2778014817789333  0.1249994728687645
  0.0555660183492197  0.4444653700317655  0.6249881997145200
  0.2221034658699902  0.9443276992423144  0.6249534436853355
  0.5556107861518332  0.9442775433143149  0.6248614198491098
  0.3891314031497112  0.4447222321149708  0.6247406027947237
  0.8887174292348373  0.9442479783934991  0.6246833691754999
  0.0553334238291566  0.9442775433143149  0.1251385801508965
  0.7222574956319169  0.4447222321149708  0.6247406027947237
  0.3888909000389848  0.9443276992423144  0.1250465563146695
  0.2222931871887985  0.4445248426460862  0.1250848853045302
  0.2222600318736979  0.6110503774351077  0.1250697938609255
  0.5558173164452048  0.4449679662237226  0.1259249118107521
  0.7221972158253266  0.9442479783934991  0.1253166308245024
  0.8888983221239389  0.4445248426460862  0.1250848853045302
  0.0554570122280751  0.6110503774351077  0.6249302061390750
  0.2221617509740728  0.1111074430237020  0.6249962646549495
  0.7219495513094852  0.6110339240276975  0.6226228671745677
  0.5556123587162936  0.1111074430237020  0.6249962646549495
  0.8888475074262235  0.1110283481857756  0.6249585165955570
 
  0.00000000E+00  0.00000000E+00  0.00000000E+00
  0.00000000E+00  0.00000000E+00  0.00000000E+00
  0.00000000E+00  0.00000000E+00  0.00000000E+00
  0.00000000E+00  0.00000000E+00  0.00000000E+00
  0.00000000E+00  0.00000000E+00  0.00000000E+00
  0.00000000E+00  0.00000000E+00  0.00000000E+00
  0.00000000E+00  0.00000000E+00  0.00000000E+00
  0.00000000E+00  0.00000000E+00  0.00000000E+00
  0.00000000E+00  0.00000000E+00  0.00000000E+00
  0.00000000E+00  0.00000000E+00  0.00000000E+00
  0.00000000E+00  0.00000000E+00  0.00000000E+00
  0.00000000E+00  0.00000000E+00  0.00000000E+00
  0.00000000E+00  0.00000000E+00  0.00000000E+00
  0.00000000E+00  0.00000000E+00  0.00000000E+00
  0.00000000E+00  0.00000000E+00  0.00000000E+00
  0.00000000E+00  0.00000000E+00  0.00000000E+00
  0.00000000E+00  0.00000000E+00  0.00000000E+00
  0.00000000E+00  0.00000000E+00  0.00000000E+00
  0.00000000E+00  0.00000000E+00  0.00000000E+00
  0.00000000E+00  0.00000000E+00  0.00000000E+00
  0.00000000E+00  0.00000000E+00  0.00000000E+00
  0.00000000E+00  0.00000000E+00  0.00000000E+00
  0.00000000E+00  0.00000000E+00  0.00000000E+00
  0.00000000E+00  0.00000000E+00  0.00000000E+00
  0.00000000E+00  0.00000000E+00  0.00000000E+00
  0.00000000E+00  0.00000000E+00  0.00000000E+00
  0.00000000E+00  0.00000000E+00  0.00000000E+00
  0.00000000E+00  0.00000000E+00  0.00000000E+00
  0.00000000E+00  0.00000000E+00  0.00000000E+00
  0.00000000E+00  0.00000000E+00  0.00000000E+00
  0.00000000E+00  0.00000000E+00  0.00000000E+00
  0.00000000E+00  0.00000000E+00  0.00000000E+00
  0.00000000E+00  0.00000000E+00  0.00000000E+00
  0.00000000E+00  0.00000000E+00  0.00000000E+00
  0.00000000E+00  0.00000000E+00  0.00000000E+00
  0.00000000E+00  0.00000000E+00  0.00000000E+00
  0.00000000E+00  0.00000000E+00  0.00000000E+00
  0.00000000E+00  0.00000000E+00  0.00000000E+00
  0.00000000E+00  0.00000000E+00  0.00000000E+00
  0.00000000E+00  0.00000000E+00  0.00000000E+00
  0.00000000E+00  0.00000000E+00  0.00000000E+00
  0.00000000E+00  0.00000000E+00  0.00000000E+00
  0.00000000E+00  0.00000000E+00  0.00000000E+00
  0.00000000E+00  0.00000000E+00  0.00000000E+00
  0.00000000E+00  0.00000000E+00  0.00000000E+00
  0.00000000E+00  0.00000000E+00  0.00000000E+00
  0.00000000E+00  0.00000000E+00  0.00000000E+00
  0.00000000E+00  0.00000000E+00  0.00000000E+00
  0.00000000E+00  0.00000000E+00  0.00000000E+00
  0.00000000E+00  0.00000000E+00  0.00000000E+00
  0.00000000E+00  0.00000000E+00  0.00000000E+00
  0.00000000E+00  0.00000000E+00  0.00000000E+00
  0.00000000E+00  0.00000000E+00  0.00000000E+00
  0.00000000E+00  0.00000000E+00  0.00000000E+00
  0.00000000E+00  0.00000000E+00  0.00000000E+00
  0.00000000E+00  0.00000000E+00  0.00000000E+00
  0.00000000E+00  0.00000000E+00  0.00000000E+00
  0.00000000E+00  0.00000000E+00  0.00000000E+00
  0.00000000E+00  0.00000000E+00  0.00000000E+00
  0.00000000E+00  0.00000000E+00  0.00000000E+00
  0.00000000E+00  0.00000000E+00  0.00000000E+00
  0.00000000E+00  0.00000000E+00  0.00000000E+00
  0.00000000E+00  0.00000000E+00  0.00000000E+00
  0.00000000E+00  0.00000000E+00  0.00000000E+00
  0.00000000E+00  0.00000000E+00  0.00000000E+00
  0.00000000E+00  0.00000000E+00  0.00000000E+00
  0.00000000E+00  0.00000000E+00  0.00000000E+00
  0.00000000E+00  0.00000000E+00  0.00000000E+00
  0.00000000E+00  0.00000000E+00  0.00000000E+00
  0.00000000E+00  0.00000000E+00  0.00000000E+00
  0.00000000E+00  0.00000000E+00  0.00000000E+00
  0.00000000E+00  0.00000000E+00  0.00000000E+00
  0.00000000E+00  0.00000000E+00  0.00000000E+00
  0.00000000E+00  0.00000000E+00  0.00000000E+00
  0.00000000E+00  0.00000000E+00  0.00000000E+00
  0.00000000E+00  0.00000000E+00  0.00000000E+00
  0.00000000E+00  0.00000000E+00  0.00000000E+00
  0.00000000E+00  0.00000000E+00  0.00000000E+00
  0.00000000E+00  0.00000000E+00  0.00000000E+00
  0.00000000E+00  0.00000000E+00  0.00000000E+00
  0.00000000E+00  0.00000000E+00  0.00000000E+00
  0.00000000E+00  0.00000000E+00  0.00000000E+00
  0.00000000E+00  0.00000000E+00  0.00000000E+00
  0.00000000E+00  0.00000000E+00  0.00000000E+00
  0.00000000E+00  0.00000000E+00  0.00000000E+00
  0.00000000E+00  0.00000000E+00  0.00000000E+00
  0.00000000E+00  0.00000000E+00  0.00000000E+00
  0.00000000E+00  0.00000000E+00  0.00000000E+00
  0.00000000E+00  0.00000000E+00  0.00000000E+00
  0.00000000E+00  0.00000000E+00  0.00000000E+00
  0.00000000E+00  0.00000000E+00  0.00000000E+00
  0.00000000E+00  0.00000000E+00  0.00000000E+00
  0.00000000E+00  0.00000000E+00  0.00000000E+00
  0.00000000E+00  0.00000000E+00  0.00000000E+00
  0.00000000E+00  0.00000000E+00  0.00000000E+00
  0.00000000E+00  0.00000000E+00  0.00000000E+00
  0.00000000E+00  0.00000000E+00  0.00000000E+00
  0.00000000E+00  0.00000000E+00  0.00000000E+00
  0.00000000E+00  0.00000000E+00  0.00000000E+00
  0.00000000E+00  0.00000000E+00  0.00000000E+00
  0.00000000E+00  0.00000000E+00  0.00000000E+00
  0.00000000E+00  0.00000000E+00  0.00000000E+00
  0.00000000E+00  0.00000000E+00  0.00000000E+00
  0.00000000E+00  0.00000000E+00  0.00000000E+00
  0.00000000E+00  0.00000000E+00  0.00000000E+00
  0.00000000E+00  0.00000000E+00  0.00000000E+00
  0.00000000E+00  0.00000000E+00  0.00000000E+00
  0.00000000E+00  0.00000000E+00  0.00000000E+00
  0.00000000E+00  0.00000000E+00  0.00000000E+00
  0.00000000E+00  0.00000000E+00  0.00000000E+00
  0.00000000E+00  0.00000000E+00  0.00000000E+00
  0.00000000E+00  0.00000000E+00  0.00000000E+00
  0.00000000E+00  0.00000000E+00  0.00000000E+00
  0.00000000E+00  0.00000000E+00  0.00000000E+00
  0.00000000E+00  0.00000000E+00  0.00000000E+00
  0.00000000E+00  0.00000000E+00  0.00000000E+00
  0.00000000E+00  0.00000000E+00  0.00000000E+00
  0.00000000E+00  0.00000000E+00  0.00000000E+00
  0.00000000E+00  0.00000000E+00  0.00000000E+00
  0.00000000E+00  0.00000000E+00  0.00000000E+00
  0.00000000E+00  0.00000000E+00  0.00000000E+00
  0.00000000E+00  0.00000000E+00  0.00000000E+00
  0.00000000E+00  0.00000000E+00  0.00000000E+00
  0.00000000E+00  0.00000000E+00  0.00000000E+00
  0.00000000E+00  0.00000000E+00  0.00000000E+00
  0.00000000E+00  0.00000000E+00  0.00000000E+00
  0.00000000E+00  0.00000000E+00  0.00000000E+00
  0.00000000E+00  0.00000000E+00  0.00000000E+00
  0.00000000E+00  0.00000000E+00  0.00000000E+00
  0.00000000E+00  0.00000000E+00  0.00000000E+00
  0.00000000E+00  0.00000000E+00  0.00000000E+00
  0.00000000E+00  0.00000000E+00  0.00000000E+00
  0.00000000E+00  0.00000000E+00  0.00000000E+00
  0.00000000E+00  0.00000000E+00  0.00000000E+00
  0.00000000E+00  0.00000000E+00  0.00000000E+00
  0.00000000E+00  0.00000000E+00  0.00000000E+00
  0.00000000E+00  0.00000000E+00  0.00000000E+00
  0.00000000E+00  0.00000000E+00  0.00000000E+00
  0.00000000E+00  0.00000000E+00  0.00000000E+00
  0.00000000E+00  0.00000000E+00  0.00000000E+00
  0.00000000E+00  0.00000000E+00  0.00000000E+00
  0.00000000E+00  0.00000000E+00  0.00000000E+00
  0.00000000E+00  0.00000000E+00  0.00000000E+00
  0.00000000E+00  0.00000000E+00  0.00000000E+00
  0.00000000E+00  0.00000000E+00  0.00000000E+00
  0.00000000E+00  0.00000000E+00  0.00000000E+00
  0.00000000E+00  0.00000000E+00  0.00000000E+00
  0.00000000E+00  0.00000000E+00  0.00000000E+00
  0.00000000E+00  0.00000000E+00  0.00000000E+00
  0.00000000E+00  0.00000000E+00  0.00000000E+00
  0.00000000E+00  0.00000000E+00  0.00000000E+00
  0.00000000E+00  0.00000000E+00  0.00000000E+00
  0.00000000E+00  0.00000000E+00  0.00000000E+00
  0.00000000E+00  0.00000000E+00  0.00000000E+00
  0.00000000E+00  0.00000000E+00  0.00000000E+00
  0.00000000E+00  0.00000000E+00  0.00000000E+00
  0.00000000E+00  0.00000000E+00  0.00000000E+00
  0.00000000E+00  0.00000000E+00  0.00000000E+00
  0.00000000E+00  0.00000000E+00  0.00000000E+00
  0.00000000E+00  0.00000000E+00  0.00000000E+00
  0.00000000E+00  0.00000000E+00  0.00000000E+00
  0.00000000E+00  0.00000000E+00  0.00000000E+00
  0.00000000E+00  0.00000000E+00  0.00000000E+00
  0.00000000E+00  0.00000000E+00  0.00000000E+00
  0.00000000E+00  0.00000000E+00  0.00000000E+00
  0.00000000E+00  0.00000000E+00  0.00000000E+00
  0.00000000E+00  0.00000000E+00  0.00000000E+00
  0.00000000E+00  0.00000000E+00  0.00000000E+00
  0.00000000E+00  0.00000000E+00  0.00000000E+00
  0.00000000E+00  0.00000000E+00  0.00000000E+00
  0.00000000E+00  0.00000000E+00  0.00000000E+00
  0.00000000E+00  0.00000000E+00  0.00000000E+00
  0.00000000E+00  0.00000000E+00  0.00000000E+00
  0.00000000E+00  0.00000000E+00  0.00000000E+00
  0.00000000E+00  0.00000000E+00  0.00000000E+00
  0.00000000E+00  0.00000000E+00  0.00000000E+00
  0.00000000E+00  0.00000000E+00  0.00000000E+00
  0.00000000E+00  0.00000000E+00  0.00000000E+00
  0.00000000E+00  0.00000000E+00  0.00000000E+00
  0.00000000E+00  0.00000000E+00  0.00000000E+00
  0.00000000E+00  0.00000000E+00  0.00000000E+00
  0.00000000E+00  0.00000000E+00  0.00000000E+00
  0.00000000E+00  0.00000000E+00  0.00000000E+00
  0.00000000E+00  0.00000000E+00  0.00000000E+00
  0.00000000E+00  0.00000000E+00  0.00000000E+00
  0.00000000E+00  0.00000000E+00  0.00000000E+00
  0.00000000E+00  0.00000000E+00  0.00000000E+00
  0.00000000E+00  0.00000000E+00  0.00000000E+00
  0.00000000E+00  0.00000000E+00  0.00000000E+00
  0.00000000E+00  0.00000000E+00  0.00000000E+00
  0.00000000E+00  0.00000000E+00  0.00000000E+00
  0.00000000E+00  0.00000000E+00  0.00000000E+00
  0.00000000E+00  0.00000000E+00  0.00000000E+00
  0.00000000E+00  0.00000000E+00  0.00000000E+00
  0.00000000E+00  0.00000000E+00  0.00000000E+00
  0.00000000E+00  0.00000000E+00  0.00000000E+00
  0.00000000E+00  0.00000000E+00  0.00000000E+00
  0.00000000E+00  0.00000000E+00  0.00000000E+00
  0.00000000E+00  0.00000000E+00  0.00000000E+00
  0.00000000E+00  0.00000000E+00  0.00000000E+00
  0.00000000E+00  0.00000000E+00  0.00000000E+00
  0.00000000E+00  0.00000000E+00  0.00000000E+00
  0.00000000E+00  0.00000000E+00  0.00000000E+00
  0.00000000E+00  0.00000000E+00  0.00000000E+00
  0.00000000E+00  0.00000000E+00  0.00000000E+00
  0.00000000E+00  0.00000000E+00  0.00000000E+00
  0.00000000E+00  0.00000000E+00  0.00000000E+00
  0.00000000E+00  0.00000000E+00  0.00000000E+00
  0.00000000E+00  0.00000000E+00  0.00000000E+00
  0.00000000E+00  0.00000000E+00  0.00000000E+00
  0.00000000E+00  0.00000000E+00  0.00000000E+00
  0.00000000E+00  0.00000000E+00  0.00000000E+00
  0.00000000E+00  0.00000000E+00  0.00000000E+00
  0.00000000E+00  0.00000000E+00  0.00000000E+00
  0.00000000E+00  0.00000000E+00  0.00000000E+00
  0.00000000E+00  0.00000000E+00  0.00000000E+00
  0.00000000E+00  0.00000000E+00  0.00000000E+00
  0.00000000E+00  0.00000000E+00  0.00000000E+00
  0.00000000E+00  0.00000000E+00  0.00000000E+00
  0.00000000E+00  0.00000000E+00  0.00000000E+00
  0.00000000E+00  0.00000000E+00  0.00000000E+00
  0.00000000E+00  0.00000000E+00  0.00000000E+00
  0.00000000E+00  0.00000000E+00  0.00000000E+00
  0.00000000E+00  0.00000000E+00  0.00000000E+00
  0.00000000E+00  0.00000000E+00  0.00000000E+00
  0.00000000E+00  0.00000000E+00  0.00000000E+00
  0.00000000E+00  0.00000000E+00  0.00000000E+00
  0.00000000E+00  0.00000000E+00  0.00000000E+00
  0.00000000E+00  0.00000000E+00  0.00000000E+00
  0.00000000E+00  0.00000000E+00  0.00000000E+00
  0.00000000E+00  0.00000000E+00  0.00000000E+00
  0.00000000E+00  0.00000000E+00  0.00000000E+00
  0.00000000E+00  0.00000000E+00  0.00000000E+00
  0.00000000E+00  0.00000000E+00  0.00000000E+00
  0.00000000E+00  0.00000000E+00  0.00000000E+00
  0.00000000E+00  0.00000000E+00  0.00000000E+00
  0.00000000E+00  0.00000000E+00  0.00000000E+00
  0.00000000E+00  0.00000000E+00  0.00000000E+00
  0.00000000E+00  0.00000000E+00  0.00000000E+00
  0.00000000E+00  0.00000000E+00  0.00000000E+00
  0.00000000E+00  0.00000000E+00  0.00000000E+00
  0.00000000E+00  0.00000000E+00  0.00000000E+00
  0.00000000E+00  0.00000000E+00  0.00000000E+00
  0.00000000E+00  0.00000000E+00  0.00000000E+00
  0.00000000E+00  0.00000000E+00  0.00000000E+00
  0.00000000E+00  0.00000000E+00  0.00000000E+00
  0.00000000E+00  0.00000000E+00  0.00000000E+00
  0.00000000E+00  0.00000000E+00  0.00000000E+00