 B P N 
 1.0
 14.936314146199660   0.000000000000000   0.000000000000000
 -7.468157073099825  12.935227489513863   0.000000000000000
  0.000000000000001   0.000000000000001  13.341276283792837
 B P N 
 143   1 143
Cartesian
  1.280605898737158   0.742731632510251   5.002978606422314 
  4.884036311853265   7.225193011077726   5.002978606422314 
  6.246173186334337   0.695315021696019   5.002978606422314 
  9.936803769851625   7.178795369455846   5.002978606422314 
 11.232678445916266   0.736199929130832   5.002978606422314 
 -3.734228487569589   9.342022168165068  11.673616748318732 
  1.244548385230040   9.341914131176722  11.673616748318732 
  2.489517222675300   2.874610893173216  11.673616748318732 
  6.223313949727911   9.341805165581315  11.673616748318732 
  7.467766944267894   2.874552090107691  11.673616748318732 
 12.446891505890344   2.874497791814768  11.673616748318732 
 -1.251745497702198   9.345987458991317   5.002978606422314 
  0.056240343417948   2.906965375081387   5.002978606422314 
  5.021460846738933   2.818061333913529   5.002978606422314 
  3.723954332370123   9.400211959276270   5.002978606422314 
  8.696035352411345   9.327869308889259   5.002978606422314 
  9.987523890913277   2.879472815560573   5.002978606422314 
 -4.978879638897807  11.497929011499746  11.673616748318732 
 -0.000197104297340  11.497866192459831  11.673616748318732 
  1.244858979787871   5.030422207913661  11.673616748318732 
  6.222953135377220   5.030443801085957  11.673616748318732 
  4.978662348756801  11.497823045200429  11.673616748318732 
 11.202105429022176   5.030360306708129  11.673616748318732 
 -1.205858279716502   5.049413920792029   5.002978606422314 
 -2.489552950046957  11.489932856439847   5.002978606422314 
  2.501142372208550  11.524184374556883   5.002978606422314 
  7.477903335483179  11.502617142045370   5.002978606422314 
  8.694295487873617   5.019946216824180   5.002978606422314 
 -0.000033535121225   7.186127060573960  11.673616748318732 
  1.244704427422946   0.718634372172702  11.673616748318732 
  4.978583000705747   7.185756097758290  11.673616748318732 
  6.223223459153558   0.718595948764391  11.673616748318732 
  9.957377273429710   7.186181463247635  11.673616748318732 
 -2.495665146110964   7.189266299205925   5.002978606422314 
 11.202114813298834   0.718554007611728  11.673616748318732 
  3.749305289598914   0.707452980049628   5.002978606422314 
  2.461857436927927   7.251424486932764   5.002978606422314 
  7.426659016368610   7.162278579949783   5.002978606422314 
  8.741421921332902   0.715703142040424   5.002978606422314 
  2.489347691625360   7.185998286797220  11.673616748318732 
 13.727462308834012   0.742437237392614   5.002978606422314 
 -1.244841527015198   9.341994649375639  11.673616748318732 
  0.000107006056463   2.874556777645214  11.673616748318732 
  4.978545222697184   2.874581692905783  11.673616748318732 
  3.733932915635612   9.341742334728435  11.673616748318732 
  8.712718649058804   9.341993438736848  11.673616748318732 
  9.957352328706808   2.874479044792879  11.673616748318732 
 -3.746402914913870   9.334993259260632   5.002978606422314 
  1.235861374555560   9.373429641459394   5.002978606422314 
  2.565660054890444   2.927313536146416   5.002978606422314 
  6.205163002304857   9.331250148599503   5.002978606422314 
  7.513413832843299   2.836675571232106   5.002978606422314 
 12.485472044781083   2.893627477238184   5.002978606422314 
 -1.244677854987533   5.030370964769457  11.673616748318732 
 -2.489558839263110  11.497908275249614  11.673616748318732 
  2.489200205291166  11.497814770545984  11.673616748318732 
  3.734161960250787   5.030414410618175  11.673616748318732 
  7.468086839275926  11.497870220555370  11.673616748318732 
 -4.979288087504933  11.491027420543967   5.002978606422314 
  8.712511874428781   5.030387889904369  11.673616748318732 
  0.006960273790316  11.501998506625414   5.002978606422314 
  1.328572223556815   5.070012513441473   5.002978606422314 
 -0.002060793527866   7.205009633815907   5.002978606422314 
  6.209833159732441   4.928845510036312   5.002978606422314 
  4.998072862205557  11.521455499159204   5.002978606422314 
 11.211124631725916   5.036488181054763   5.002978606422314 
 -2.489483968713152   7.186169230597919  11.673616748318732 
  3.733966130685903   0.718649923950763  11.673616748318732 
  7.467886015455115   7.186080998970264  11.673616748318732 
  8.712614090913034   0.718545724119186  11.673616748318732 
 13.691605245845551   0.718590353333260  11.673616748318732 
  0.000134271119662   1.437324972463011   1.667856311168863 
  3.734331752381877   7.903904801142289   1.660921246738970 
  4.978682799154256   1.437934892498341   1.666977183083900 
  8.712108187544134   7.904433004957590   1.667417128910063 
  9.957664485609067   1.437293846357736   1.667649247361479 
 -4.978914920186076  10.060665648009801   8.338286005578022 
  0.000180550458387  10.060701367436710   8.338175425140454 
  1.244795420394792   3.593177968720712   8.340277994006943 
  4.978540505384122  10.060480520574181   8.338960456420427 
  6.222762532040615   3.593816259655094   8.345035966105643 
 11.202247291638519   3.593171666153356   8.338203522369726 
 -2.489332060298295  10.060763455563405   1.667610856187216 
 -1.244558615826737   3.593196292473772   1.667856311168863 
  3.733485898177435   3.593981830223697   1.656492183335204 
  2.489469878132195  10.060637593855846   1.667549989479744 
  7.467829355279638  10.060430922669827   1.667790853616062 
  8.712516266754445   3.593044787650055   1.666996756424201 
 -6.223442212314566  12.216583345209115   8.338107922568383 
 -1.244629524814953  12.216775663583789   8.338175425140454 
  0.000235960974315   5.748843366837392   8.338348445230398 
  4.976970372351356   5.747950181895566   8.342651651852252 
  3.734179535420082  12.216685980225398   8.338307965483134 
  9.957117738657065   5.748856967969100   8.338166359228564 
 -2.489392345889452   5.749019258564990   1.667849290276258 
 -3.734042649645147  12.216834781045439   1.667706328064691 
  1.244818619758245  12.216676355888634   1.667671365670568 
  2.489836823768824   5.748045213885434   1.656492183335204 
  6.223515897833212  12.216587397462419   1.667753690474889 
  7.466487781824441   5.748306631990079   1.662316829404840 
 -1.244474814733108   7.904776802088509   8.338250884779924 
  0.000134271119662   1.437324972463011   8.338100901675752 
  3.734331752381877   7.903904801142290   8.345035966105643 
  4.978682799154257   1.437934892498342   8.338980029760714 
  8.712108187544134   7.904433004957591   8.338540083934538 
 -3.734208194068291   7.904770357851062   1.667671207266594 
  9.957664485609067   1.437293846357737   8.338307965483134 
  2.489376687512681   1.437525161284003   1.667608767614229 
  1.245243854435391   7.904440831707793   1.666977183083900 
  6.222037771924878   7.903757276615729   1.662316829404840 
  7.468116982580674   1.437367855995348   1.667549989479744 
  1.245243854435392   7.904440831707793   8.338980029760714 
 12.447116056421935   1.437355810470359   1.667631936354444 
 -2.489332060298294  10.060763455563405   8.338346356657411 
 -1.244558615826736   3.593196292473773   8.338100901675752 
  3.733485898177435   3.593981830223698   8.349465029509423 
  2.489469878132196  10.060637593855846   8.338407223364884 
  7.467829355279639  10.060430922669827   8.338166359228564 
  8.712516266754445   3.593044787650056   8.338960456420427 
 -4.978914920186077  10.060665648009801   1.667671207266594 
  0.000180550458387  10.060701367436710   1.667781787704174 
  1.244795420394792   3.593177968720711   1.665679218837685 
  4.978540505384121  10.060480520574181   1.666996756424201 
  6.222762532040614   3.593816259655093   1.660921246738970 
 11.202247291638519   3.593171666153355   1.667753690474889 
 -2.489392345889451   5.749019258564990   8.338107922568383 
 -3.734042649645147  12.216834781045439   8.338250884779924 
  1.244818619758246  12.216676355888634   8.338285847174060 
  2.489836823768824   5.748045213885435   8.349465029509423 
  6.223515897833213  12.216587397462419   8.338203522369726 
 -6.223442212314567  12.216583345209115   1.667849290276258 
  7.466487781824442   5.748306631990080   8.343640383439801 
 -1.244629524814954  12.216775663583789   1.667781787704174 
  0.000235960974315   5.748843366837391   1.667608767614229 
 -1.244474814733108   7.904776802088509   1.667706328064691 
  4.976970372351355   5.747950181895565   1.663305560992376 
  3.734179535420082  12.216685980225398   1.667649247361479 
  9.957117738657065   5.748856967969099   1.667790853616062 
 -3.734208194068291   7.904770357851063   8.338286005578022 
  2.489376687512681   1.437525161284004   8.338348445230398 
  6.222037771924879   7.903757276615730   8.343640383439801 
  7.468116982580675   1.437367855995349   8.338407223364884 
 12.447116056421935   1.437355810470359   8.338325276490185 
  4.254872680444356   5.331046885091850   5.002978606422314 
  1.244577459184896   0.718342719276531   1.668552758934810 
  4.978430193804902   7.186508822805183   1.654223324756666 
  6.223653906818500   0.718592416345890   1.668510392499889 
  9.957312671586369   7.186154598451473   1.668397278358906 
 11.202420333959669   0.718730400047520   1.668004375820187 
 -3.734188671159392   9.342045156180220   8.338016349388248 
  1.244760549898345   9.342288675998821   8.337446820344725 
  2.488794910937270   2.874056188322483   8.341518701198472 
  6.223226558124569   9.341920744538333   8.337955015608470 
  7.468195396677147   2.874344365954274   8.338825243607966 
 12.446884062916837   2.874551104713637   8.337798222441734 
 -1.244664576366416   9.342202326496217   1.668022272169142 
 -0.000346926465870   2.874294699581251   1.668231539449120 
  4.978725945815779   2.874311967514204   1.662679324979482 
  3.733967247446399   9.342217247475867   1.667131969236661 
  8.712663082541191   9.341950924297462   1.668397278358906 
  9.957612459597952   2.874521664531714   1.668526655611270 
 -4.978817362217770  11.497827436558662   8.338118672325150 
  0.000204625035881  11.498098130998498   8.337885620599787 
  1.244017435426534   5.030074020024417   8.341518701198472 
  6.223528610939467   5.029935103904517   8.351733888087962 
  4.978829323978923  11.498027015291022   8.337430557233372 
 11.202024973476043   5.030421977215275   8.337470572083530 
 -1.244993917923728   5.030406833497916   1.668552758934810 
 -2.489290510276520  11.497957680446396   1.668022272169142 
  2.489537757750476  11.498165417727799   1.668312101374254 
  3.732001687100531   5.029167176333344   1.638265926004250 
  7.468100019728719  11.497769708754955   1.668486640761084 
  8.712568272940024   5.030254417077300   1.668002197236157 
 -0.000096799321323   7.186317998885383   8.337929439612230 
  1.244577459184896   0.718342719276532   8.337404453909818 
  4.978430193804903   7.186508822805184   8.351733888087962 
  6.223653906818501   0.718592416345890   8.337446820344725 
  9.957312671586369   7.186154598451474   8.337559934485707 
 -2.489540796852508   7.186273951255448   1.667838540519479 
 11.202420333959669   0.718730400047521   8.337952837024455 
  3.734099856014094   0.718499666390626   1.668027773232398 
  2.489204464143521   7.186289660304738   1.662679324979482 
  7.467854237198525   7.186062651785259   1.666297615977908 
  8.713086536509932   0.718662729533110   1.668312101374254 
  2.489204464143521   7.186289660304739   8.343277887865158 
 13.691647694683574   0.718557251079675   1.668158990402894 
 -1.244664576366416   9.342202326496217   8.337934940675487 
 -0.000346926465870   2.874294699581251   8.337725673395507 
  4.978725945815780   2.874311967514205   8.343277887865158 
  3.733967247446400   9.342217247475867   8.338825243607966 
  8.712663082541191   9.341950924297462   8.337559934485707 
  9.957612459597952   2.874521664531715   8.337430557233372 
 -3.734188671159392   9.342045156180220   1.667940863456379 
  1.244760549898345   9.342288675998821   1.668510392499889 
  2.488794910937270   2.874056188322482   1.664438511646155 
  6.223226558124568   9.341920744538333   1.668002197236157 
  7.468195396677146   2.874344365954273   1.667131969236661 
 12.446884062916837   2.874551104713636   1.668158990402894 
 -1.244993917923728   5.030406833497917   8.337404453909818 
 -2.489290510276520  11.497957680446396   8.337934940675487 
  2.489537757750476  11.498165417727799   8.337645111470389 
  3.732001687100531   5.029167176333345   8.367691286840378 
  7.468100019728720  11.497769708754955   8.337470572083530 
 -4.978817362217771  11.497827436558662   1.667838540519479 
  8.712568272940024   5.030254417077301   8.337955015608470 
  0.000204625035881  11.498098130998498   1.668071592244828 
  1.244017435426534   5.030074020024416   1.664438511646155 
 -0.000096799321324   7.186317998885382   1.668027773232398 
  6.223528610939466   5.029935103904516   1.654223324756666 
  4.978829323978922  11.498027015291022   1.668526655611270 
 11.202024973476043   5.030421977215275   1.668486640761084 
 -2.489540796852508   7.186273951255449   8.338118672325150 
  3.734099856014094   0.718499666390627   8.337929439612230 
  7.467854237198526   7.186062651785260   8.339659596866733 
  8.713086536509932   0.718662729533110   8.337645111470389 
 13.691647694683574   0.718557251079676   8.337798222441734 
  0.039318236137255   1.464928451716284   5.002978606422314 
  3.691448302111062   7.976459637286521   5.002978606422314 
  5.002214357058833   1.397462215096549   5.002978606422314 
  8.679196680774345   7.885431537664636   5.002978606422314 
  9.983843402943830   1.444116743844219   5.002978606422314 
 -4.978903851241992  10.060654787739191  11.673616748318732 
 -0.000165961578537  10.060679921976112  11.673616748318732 
  1.244581488436943   3.593054455047260  11.673616748318732 
  4.978657274296548  10.060654449752471  11.673616748318732 
  6.223350572425864   3.593000609384905  11.673616748318732 
 11.202121950414394   3.593091977013267  11.673616748318732 
 -2.499761566753493  10.054741977204001   5.002978606422314 
 -1.201061319051761   3.613328861973359   5.002978606422314 
  3.846240644635618   3.614179154807181   5.002978606422314 
  2.481219534600470  10.096523102557059   5.002978606422314 
  7.455663472464594  10.052388352185698   5.002978606422314 
  8.733794777020247   3.585281168537031   5.002978606422314 
 -6.223597260757394  12.216495242178642  11.673616748318732 
 -1.244821353147090  12.216486298087396  11.673616748318732 
 -0.000178038312131   5.748952254876123  11.673616748318732 
  4.978702359939558   5.748950145395847  11.673616748318732 
  3.733932973160474  12.216511509439513  11.673616748318732 
  9.957445337806021   5.748951711010744  11.673616748318732 
 -2.472993221483573   5.753931714066252   5.002978606422314 
 -3.733637746071565  12.206201734140832   5.002978606422314 
  1.255597700772383  12.222899661213729   5.002978606422314 
  2.563705593175692   5.835595026423753   5.002978606422314 
  6.244653105878660  12.236295566642060   5.002978606422314 
  7.411141772726845   5.723332522764943   5.002978606422314 
 -1.244894258050978   7.904792658223406  11.673616748318732 
 -0.000099385747112   1.437165754050227  11.673616748318732 
  3.733919398719922   7.904821884189450  11.673616748318732 
  4.978664306449643   1.437071396940252  11.673616748318732 
  8.712805570637787   7.904835639274475  11.673616748318732 
 -3.750550793935451   7.897541944189491   5.002978606422314 
  9.957390108346475   1.437167552570233  11.673616748318732 
  2.532098148199543   1.469415258102575   5.002978606422314 
  1.221959266598548   7.945056097344692   5.002978606422314 
  6.172736554350225   7.868313281351695   5.002978606422314 
  7.495069572977758   1.412280094556370   5.002978606422314 
  1.244486798993717   7.904856564334870  11.673616748318732 
 12.479981251717641   1.456330539821287   5.002978606422314 
 -2.489550174873970  10.060637527054427  11.673616748318732 
 -1.244813331450345   3.593073548897770  11.673616748318732 
  3.734002493288449   3.592935187764168  11.673616748318732 
  2.489213527164170  10.060670188072423  11.673616748318732 
  7.468075204734999  10.060667260334284  11.673616748318732 
  8.712725278297514   3.593058947905445  11.673616748318732 
 -4.993346209979649  10.050126748191754   5.002978606422314 
 -0.008744662446875  10.072724163156130   5.002978606422314 
  1.310813533072337   3.631293543846493   5.002978606422314 
  4.982456269139830  10.082790060575579   5.002978606422314 
  6.264155138173535   3.520400684246513   5.002978606422314 
 11.229883670832891   3.601622940695973   5.002978606422314 
 -2.489546169573405   5.748929034189922  11.673616748318732 
 -3.734238639488486  12.216463604409320  11.673616748318732 
  1.244522750246138  12.216505535546187  11.673616748318732 
  2.489188702365699   5.749015919604808  11.673616748318732 
  6.223384214401427  12.216518693348233  11.673616748318732 
 -6.210988338852576  12.228329175793796   5.002978606422314 
  7.468103335227520   5.748969196181156  11.673616748318732 
 -1.238680084750040  12.203034804613910   5.002978606422314 
  0.049214325291774   5.769896188669708   5.002978606422314 
 -1.253480851685344   7.910443982321630   5.002978606422314 
  3.753177796638182  12.235946138937621   5.002978606422314 
  9.944069726898555   5.742342289633883   5.002978606422314 
 -3.734212064866491   7.904785373973139  11.673616748318732 
  2.489263987677167   1.437112183365429  11.673616748318732 
  6.223419346047526   7.904825104808431  11.673616748318732 
  7.468017034516215   1.437129552436494  11.673616748318732 
 12.446833006036298   1.437192391254009  11.673616748318732 
Generated by cif2cell 2.0.0.  :  Failed to get author information, No journal information. Species order: B P N 
 1.0
 14.936314146199660   0.000000000000000   0.000000000000000
 -7.468157073099825  12.935227489513863   0.000000000000000
  0.000000000000001   0.000000000000001  13.341276283792837
 B P N 
 143   1 143
Cartesian
  1.280605898737158   0.742731632510251   5.002978606422314 
  4.884036311853265   7.225193011077726   5.002978606422314 
  6.246173186334337   0.695315021696019   5.002978606422314 
  9.936803769851625   7.178795369455846   5.002978606422314 
 11.232678445916266   0.736199929130832   5.002978606422314 
 -3.734228487569589   9.342022168165068  11.673616748318732 
  1.244548385230040   9.341914131176722  11.673616748318732 
  2.489517222675300   2.874610893173216  11.673616748318732 
  6.223313949727911   9.341805165581315  11.673616748318732 
  7.467766944267894   2.874552090107691  11.673616748318732 
 12.446891505890344   2.874497791814768  11.673616748318732 
 -1.251745497702198   9.345987458991317   5.002978606422314 
  0.056240343417948   2.906965375081387   5.002978606422314 
  5.021460846738933   2.818061333913529   5.002978606422314 
  3.723954332370123   9.400211959276270   5.002978606422314 
  8.696035352411345   9.327869308889259   5.002978606422314 
  9.987523890913277   2.879472815560573   5.002978606422314 
 -4.978879638897807  11.497929011499746  11.673616748318732 
 -0.000197104297340  11.497866192459831  11.673616748318732 
  1.244858979787871   5.030422207913661  11.673616748318732 
  6.222953135377220   5.030443801085957  11.673616748318732 
  4.978662348756801  11.497823045200429  11.673616748318732 
 11.202105429022176   5.030360306708129  11.673616748318732 
 -1.205858279716502   5.049413920792029   5.002978606422314 
 -2.489552950046957  11.489932856439847   5.002978606422314 
  2.501142372208550  11.524184374556883   5.002978606422314 
  7.477903335483179  11.502617142045370   5.002978606422314 
  8.694295487873617   5.019946216824180   5.002978606422314 
 -0.000033535121225   7.186127060573960  11.673616748318732 
  1.244704427422946   0.718634372172702  11.673616748318732 
  4.978583000705747   7.185756097758290  11.673616748318732 
  6.223223459153558   0.718595948764391  11.673616748318732 
  9.957377273429710   7.186181463247635  11.673616748318732 
 -2.495665146110964   7.189266299205925   5.002978606422314 
 11.202114813298834   0.718554007611728  11.673616748318732 
  3.749305289598914   0.707452980049628   5.002978606422314 
  2.461857436927927   7.251424486932764   5.002978606422314 
  7.426659016368610   7.162278579949783   5.002978606422314 
  8.741421921332902   0.715703142040424   5.002978606422314 
  2.489347691625360   7.185998286797220  11.673616748318732 
 13.727462308834012   0.742437237392614   5.002978606422314 
 -1.244841527015198   9.341994649375639  11.673616748318732 
  0.000107006056463   2.874556777645214  11.673616748318732 
  4.978545222697184   2.874581692905783  11.673616748318732 
  3.733932915635612   9.341742334728435  11.673616748318732 
  8.712718649058804   9.341993438736848  11.673616748318732 
  9.957352328706808   2.874479044792879  11.673616748318732 
 -3.746402914913870   9.334993259260632   5.002978606422314 
  1.235861374555560   9.373429641459394   5.002978606422314 
  2.565660054890444   2.927313536146416   5.002978606422314 
  6.205163002304857   9.331250148599503   5.002978606422314 
  7.513413832843299   2.836675571232106   5.002978606422314 
 12.485472044781083   2.893627477238184   5.002978606422314 
 -1.244677854987533   5.030370964769457  11.673616748318732 
 -2.489558839263110  11.497908275249614  11.673616748318732 
  2.489200205291166  11.497814770545984  11.673616748318732 
  3.734161960250787   5.030414410618175  11.673616748318732 
  7.468086839275926  11.497870220555370  11.673616748318732 
 -4.979288087504933  11.491027420543967   5.002978606422314 
  8.712511874428781   5.030387889904369  11.673616748318732 
  0.006960273790316  11.501998506625414   5.002978606422314 
  1.328572223556815   5.070012513441473   5.002978606422314 
 -0.002060793527866   7.205009633815907   5.002978606422314 
  6.209833159732441   4.928845510036312   5.002978606422314 
  4.998072862205557  11.521455499159204   5.002978606422314 
 11.211124631725916   5.036488181054763   5.002978606422314 
 -2.489483968713152   7.186169230597919  11.673616748318732 
  3.733966130685903   0.718649923950763  11.673616748318732 
  7.467886015455115   7.186080998970264  11.673616748318732 
  8.712614090913034   0.718545724119186  11.673616748318732 
 13.691605245845551   0.718590353333260  11.673616748318732 
  0.000134271119662   1.437324972463011   1.667856311168863 
  3.734331752381877   7.903904801142289   1.660921246738970 
  4.978682799154256   1.437934892498341   1.666977183083900 
  8.712108187544134   7.904433004957590   1.667417128910063 
  9.957664485609067   1.437293846357736   1.667649247361479 
 -4.978914920186076  10.060665648009801   8.338286005578022 
  0.000180550458387  10.060701367436710   8.338175425140454 
  1.244795420394792   3.593177968720712   8.340277994006943 
  4.978540505384122  10.060480520574181   8.338960456420427 
  6.222762532040615   3.593816259655094   8.345035966105643 
 11.202247291638519   3.593171666153356   8.338203522369726 
 -2.489332060298295  10.060763455563405   1.667610856187216 
 -1.244558615826737   3.593196292473772   1.667856311168863 
  3.733485898177435   3.593981830223697   1.656492183335204 
  2.489469878132195  10.060637593855846   1.667549989479744 
  7.467829355279638  10.060430922669827   1.667790853616062 
  8.712516266754445   3.593044787650055   1.666996756424201 
 -6.223442212314566  12.216583345209115   8.338107922568383 
 -1.244629524814953  12.216775663583789   8.338175425140454 
  0.000235960974315   5.748843366837392   8.338348445230398 
  4.976970372351356   5.747950181895566   8.342651651852252 
  3.734179535420082  12.216685980225398   8.338307965483134 
  9.957117738657065   5.748856967969100   8.338166359228564 
 -2.489392345889452   5.749019258564990   1.667849290276258 
 -3.734042649645147  12.216834781045439   1.667706328064691 
  1.244818619758245  12.216676355888634   1.667671365670568 
  2.489836823768824   5.748045213885434   1.656492183335204 
  6.223515897833212  12.216587397462419   1.667753690474889 
  7.466487781824441   5.748306631990079   1.662316829404840 
 -1.244474814733108   7.904776802088509   8.338250884779924 
  0.000134271119662   1.437324972463011   8.338100901675752 
  3.734331752381877   7.903904801142290   8.345035966105643 
  4.978682799154257   1.437934892498342   8.338980029760714 
  8.712108187544134   7.904433004957591   8.338540083934538 
 -3.734208194068291   7.904770357851062   1.667671207266594 
  9.957664485609067   1.437293846357737   8.338307965483134 
  2.489376687512681   1.437525161284003   1.667608767614229 
  1.245243854435391   7.904440831707793   1.666977183083900 
  6.222037771924878   7.903757276615729   1.662316829404840 
  7.468116982580674   1.437367855995348   1.667549989479744 
  1.245243854435392   7.904440831707793   8.338980029760714 
 12.447116056421935   1.437355810470359   1.667631936354444 
 -2.489332060298294  10.060763455563405   8.338346356657411 
 -1.244558615826736   3.593196292473773   8.338100901675752 
  3.733485898177435   3.593981830223698   8.349465029509423 
  2.489469878132196  10.060637593855846   8.338407223364884 
  7.467829355279639  10.060430922669827   8.338166359228564 
  8.712516266754445   3.593044787650056   8.338960456420427 
 -4.978914920186077  10.060665648009801   1.667671207266594 
  0.000180550458387  10.060701367436710   1.667781787704174 
  1.244795420394792   3.593177968720711   1.665679218837685 
  4.978540505384121  10.060480520574181   1.666996756424201 
  6.222762532040614   3.593816259655093   1.660921246738970 
 11.202247291638519   3.593171666153355   1.667753690474889 
 -2.489392345889451   5.749019258564990   8.338107922568383 
 -3.734042649645147  12.216834781045439   8.338250884779924 
  1.244818619758246  12.216676355888634   8.338285847174060 
  2.489836823768824   5.748045213885435   8.349465029509423 
  6.223515897833213  12.216587397462419   8.338203522369726 
 -6.223442212314567  12.216583345209115   1.667849290276258 
  7.466487781824442   5.748306631990080   8.343640383439801 
 -1.244629524814954  12.216775663583789   1.667781787704174 
  0.000235960974315   5.748843366837391   1.667608767614229 
 -1.244474814733108   7.904776802088509   1.667706328064691 
  4.976970372351355   5.747950181895565   1.663305560992376 
  3.734179535420082  12.216685980225398   1.667649247361479 
  9.957117738657065   5.748856967969099   1.667790853616062 
 -3.734208194068291   7.904770357851063   8.338286005578022 
  2.489376687512681   1.437525161284004   8.338348445230398 
  6.222037771924879   7.903757276615730   8.343640383439801 
  7.468116982580675   1.437367855995349   8.338407223364884 
 12.447116056421935   1.437355810470359   8.338325276490185 
  4.254872680444356   5.331046885091850   5.002978606422314 
  1.244577459184896   0.718342719276531   1.668552758934810 
  4.978430193804902   7.186508822805183   1.654223324756666 
  6.223653906818500   0.718592416345890   1.668510392499889 
  9.957312671586369   7.186154598451473   1.668397278358906 
 11.202420333959669   0.718730400047520   1.668004375820187 
 -3.734188671159392   9.342045156180220   8.338016349388248 
  1.244760549898345   9.342288675998821   8.337446820344725 
  2.488794910937270   2.874056188322483   8.341518701198472 
  6.223226558124569   9.341920744538333   8.337955015608470 
  7.468195396677147   2.874344365954274   8.338825243607966 
 12.446884062916837   2.874551104713637   8.337798222441734 
 -1.244664576366416   9.342202326496217   1.668022272169142 
 -0.000346926465870   2.874294699581251   1.668231539449120 
  4.978725945815779   2.874311967514204   1.662679324979482 
  3.733967247446399   9.342217247475867   1.667131969236661 
  8.712663082541191   9.341950924297462   1.668397278358906 
  9.957612459597952   2.874521664531714   1.668526655611270 
 -4.978817362217770  11.497827436558662   8.338118672325150 
  0.000204625035881  11.498098130998498   8.337885620599787 
  1.244017435426534   5.030074020024417   8.341518701198472 
  6.223528610939467   5.029935103904517   8.351733888087962 
  4.978829323978923  11.498027015291022   8.337430557233372 
 11.202024973476043   5.030421977215275   8.337470572083530 
 -1.244993917923728   5.030406833497916   1.668552758934810 
 -2.489290510276520  11.497957680446396   1.668022272169142 
  2.489537757750476  11.498165417727799   1.668312101374254 
  3.732001687100531   5.029167176333344   1.638265926004250 
  7.468100019728719  11.497769708754955   1.668486640761084 
  8.712568272940024   5.030254417077300   1.668002197236157 
 -0.000096799321323   7.186317998885383   8.337929439612230 
  1.244577459184896   0.718342719276532   8.337404453909818 
  4.978430193804903   7.186508822805184   8.351733888087962 
  6.223653906818501   0.718592416345890   8.337446820344725 
  9.957312671586369   7.186154598451474   8.337559934485707 
 -2.489540796852508   7.186273951255448   1.667838540519479 
 11.202420333959669   0.718730400047521   8.337952837024455 
  3.734099856014094   0.718499666390626   1.668027773232398 
  2.489204464143521   7.186289660304738   1.662679324979482 
  7.467854237198525   7.186062651785259   1.666297615977908 
  8.713086536509932   0.718662729533110   1.668312101374254 
  2.489204464143521   7.186289660304739   8.343277887865158 
 13.691647694683574   0.718557251079675   1.668158990402894 
 -1.244664576366416   9.342202326496217   8.337934940675487 
 -0.000346926465870   2.874294699581251   8.337725673395507 
  4.978725945815780   2.874311967514205   8.343277887865158 
  3.733967247446400   9.342217247475867   8.338825243607966 
  8.712663082541191   9.341950924297462   8.337559934485707 
  9.957612459597952   2.874521664531715   8.337430557233372 
 -3.734188671159392   9.342045156180220   1.667940863456379 
  1.244760549898345   9.342288675998821   1.668510392499889 
  2.488794910937270   2.874056188322482   1.664438511646155 