B Si N                                  
   1.0000000000000000     
     8.7639499999999995  -15.1796066749929999    0.0000000000000000
     8.7639499999999995   15.1796066749929999    0.0000000000000000
     0.0000000000000000    0.0000000000000000   15.0000000000000000
   B    Si   N 
    49     1    48
Selective dynamics
Direct
  0.9047267247895165  0.9524112448615666  0.1184494518925414   T   T   T
  0.9047469561620795  0.0952558801308860  0.1179834429070724   T   T   T
  0.9047567565401119  0.2380643923759141  0.1179843463367115   T   T   T
  0.9047217235886186  0.3808855805298693  0.1185419041130466   T   T   T
  0.9051875685064685  0.5238421439597760  0.1183519557059622   T   T   T
  0.9052150428096996  0.6668898203558739  0.1169219583404298   T   T   T
  0.9051958007239441  0.8099184827798454  0.1182611228760780   T   T   T
  0.0476193676480969  0.9523839270885365  0.1193557536176113   T   T   T
  0.0475925838800079  0.0952766276573377  0.1184642690014909   T   T   T
  0.0475909144800356  0.2380641861400656  0.1172456393999786   T   T   T
  0.0475941007540345  0.3808856402328935  0.1185218497076480   T   T   T
  0.0475952511140421  0.5237970772667269  0.1193824687928616   T   T   T
  0.0477557005878790  0.6667351449620906  0.1190483050420385   T   T   T
  0.0477547189175206  0.8096077451095521  0.1190412534852195   T   T   T
  0.1903944210237218  0.9522466308480688  0.1190433985572305   T   T   T
  0.1900861986533366  0.0948073967538066  0.1182819555873986   T   T   T
  0.1904904568463979  0.2381374816836032  0.1135816171648737   T   T   T
  0.1904910662313903  0.3809210443647825  0.1135928153003583   T   T   T
  0.1900654058547978  0.5238556991624408  0.1182855262838564   T   T   T
  0.1903899466222564  0.6667370504535018  0.1190391891045069   T   T   T
  0.1904661740957089  0.8095352259054165  0.1187559813471391   T   T   T
  0.3332649089055145  0.9522443486265120  0.1190226153752864   T   T   T
  0.3331116295828001  0.0947846083705201  0.1169036717986470   T   T   T
  0.3319183780093235  0.2364461133601568  0.1069450940087549   T   T   T
  0.3328816817026999  0.3807253110125534  0.0927458414754386   T   T   T
  0.3319107984468740  0.5240346245954581  0.1069298872101530   T   T   T
  0.3331065891620396  0.6668954612868754  0.1169330279339531   T   T   T
  0.3332640982965995  0.8096116832743626  0.1190243609552736   T   T   T
  0.4762029837602649  0.9524052688338406  0.1193395710415627   T   T   T
  0.4761567142308136  0.0948095862909926  0.1183023879847113   T   T   T
  0.4759490251645511  0.2364454260520392  0.1069556404356456   T   T   T
  0.4686762323072584  0.3658885803878445  0.0604744554213241   T   T   T
  0.4686890437285116  0.5313157019511945  0.0604267399140754   T   T   T
  0.4759654638375146  0.6680894194442802  0.1069297921859171   T   T   T
  0.4761456786423733  0.8099374492222537  0.1182699861763853   T   T   T
  0.6191148470911134  0.9524078991419720  0.1184909999319258   T   T   T
  0.6191134047430275  0.0952784946464681  0.1184968428560350   T   T   T
  0.6190668774645061  0.2381374941673836  0.1135861985937853   T   T   T
  0.6192859448579308  0.3807164226717325  0.0927943682355120   T   T   T
  0.6341135756082157  0.5313257539539601  0.0604927494721860   T   T   T
  0.6192770987815077  0.6671218016597191  0.0927493825645476   T   T   T
  0.6190806014473876  0.8095120036755740  0.1135826629748648   T   T   T
  0.7619380879714224  0.9524124472965464  0.1172306296487415   T   T   T
  0.7619363695404987  0.0952446869937470  0.1179704805036057   T   T   T
  0.7619252637716218  0.2380763329401021  0.1172237140299788   T   T   T
  0.7618622230368736  0.3809338572288829  0.1136159675818999   T   T   T
  0.7635524833745999  0.5240512423206759  0.1069925685306424   T   T   T
  0.7635545518172967  0.6680842899643075  0.1069523697121773   T   T   T
  0.7618653681169613  0.8095143434303919  0.1135651927853888   T   T   T
  0.5238462784213089  0.4761644336735650  0.9938362961919230   T   T   T
  0.9525778936033916  0.9050256565431897  0.1191757824225973   T   T   T
  0.9523465497604464  0.0476568468647077  0.1185653018488348   T   T   T
  0.9523430609999024  0.1904520181202606  0.1178155296996336   T   T   T
  0.9523489482232124  0.3332621705506802  0.1186233201884211   T   T   T
  0.9525656512925045  0.4761183991607048  0.1192763731067469   T   T   T
  0.9527561654052366  0.6191489550730279  0.1187422415052456   T   T   T
  0.9527556544847628  0.7621765512276090  0.1187027065522740   T   T   T
  0.0952469064223841  0.9047536729475583  0.1192560589463277   T   T   T
  0.0949773408214773  0.0474247297924621  0.1191973977813456   T   T   T
  0.0951868143780720  0.1904916656173964  0.1171309965191879   T   T   T
  0.0951837441931613  0.3332521870635329  0.1171618071096217   T   T   T
  0.0949655630185136  0.4761231958525594  0.1192260069042859   T   T   T
  0.0952392438021406  0.6190674555443578  0.1192473076276047   T   T   T
  0.0953411090760251  0.7619643752778488  0.1188098001194398   T   T   T
  0.2380350371934088  0.9046586449809211  0.1188027322524431   T   T   T
  0.2378246335833823  0.0472452846036903  0.1187115778191912   T   T   T
  0.2372446591678554  0.1896595848064004  0.1153466061231199   T   T   T
  0.2383127475089113  0.3334433284363945  0.1080619736463329   T   T   T
  0.2372341736812287  0.4761602992094755  0.1153397777751305   T   T   T
  0.2378149726768672  0.6191591750484848  0.1187258273750098   T   T   T
  0.2380313603604319  0.7619681209807756  0.1187953780642329   T   T   T
  0.3809319260272190  0.9047601104635362  0.1192171776316336   T   T   T
  0.3808514643954837  0.0472429044860287  0.1187055928136673   T   T   T
  0.3804472091064727  0.1894680584660243  0.1112911634204492   T   T   T
  0.3780521395279905  0.3295949677380916  0.0885066712810652   T   T   T
  0.3780546231101281  0.4770214082469174  0.0884824961494432   T   T   T
  0.3804469692440224  0.6195541712141241  0.1112829387149340   T   T   T
  0.3808413808324288  0.7621859785548613  0.1187154944650918   T   T   T
  0.5238783929077424  0.9050352350856928  0.1191933084624425   T   T   T
  0.5238820787709013  0.0474337654562306  0.1192189986590859   T   T   T
  0.5238392570742276  0.1896606849406441  0.1153595296754986   T   T   T
  0.5229878478863678  0.3295924464070125  0.0885336754941536   T   T   T
  0.5229809919046347  0.6219482303024224  0.0884865130385446   T   T   T
  0.5238416000498946  0.7627686526447752  0.1153327757004183   T   T   T
  0.6667502015500683  0.9048188476418491  0.1171450039077865   T   T   T
  0.6667395697640610  0.0476533000996387  0.1185873602675279   T   T   T
  0.6667423710379297  0.1904980194205184  0.1171304482910263   T   T   T
  0.6665630320521437  0.3334386910386329  0.1080722623524099   T   T   T
  0.6704089081250104  0.4770149860004808  0.0885555019775052   T   T   T
  0.6704066815120581  0.6219504425404729  0.0885217397026730   T   T   T
  0.6665603595391549  0.7616920425917455  0.1080556281452188   T   T   T
  0.8095110480177286  0.9048169433355022  0.1171105673311369   T   T   T
  0.8095505129007521  0.0476597000273897  0.1178085992972058   T   T   T
  0.8095519481317289  0.1904499904799582  0.1177967844991399   T   T   T
  0.8095026081727443  0.3332590108110768  0.1171615243843477   T   T   T
  0.8103378948945328  0.4761629005981730  0.1154093964212742   T   T   T
  0.8105331247047991  0.6195558181646060  0.1113176353641105   T   T   T
  0.8103444137463673  0.7627607327381219  0.1153290090677570   T   T   T

  0.00000000E+00  0.00000000E+00  0.00000000E+00
  0.00000000E+00  0.00000000E+00  0.00000000E+00
  0.00000000E+00  0.00000000E+00  0.00000000E+00
  0.00000000E+00  0.00000000E+00  0.00000000E+00
  0.00000000E+00  0.00000000E+00  0.00000000E+00
  0.00000000E+00  0.00000000E+00  0.00000000E+00
  0.00000000E+00  0.00000000E+00  0.00000000E+00
  0.00000000E+00  0.00000000E+00  0.00000000E+00
  0.00000000E+00  0.00000000E+00  0.00000000E+00
  0.00000000E+00  0.00000000E+00  0.00000000E+00
  0.00000000E+00  0.00000000E+00  0.00000000E+00
  0.00000000E+00  0.00000000E+00  0.00000000E+00
  0.00000000E+00  0.00000000E+00  0.00000000E+00
  0.00000000E+00  0.00000000E+00  0.00000000E+00
  0.00000000E+00  0.00000000E+00  0.00000000E+00
  0.00000000E+00  0.00000000E+00  0.00000000E+00
  0.00000000E+00  0.00000000E+00  0.00000000E+00
  0.00000000E+00  0.00000000E+00  0.00000000E+00
  0.00000000E+00  0.00000000E+00  0.00000000E+00
  0.00000000E+00  0.00000000E+00  0.00000000E+00
  0.00000000E+00  0.00000000E+00  0.00000000E+00
  0.00000000E+00  0.00000000E+00  0.00000000E+00
  0.00000000E+00  0.00000000E+00  0.00000000E+00
  0.00000000E+00  0.00000000E+00  0.00000000E+00
  0.00000000E+00  0.00000000E+00  0.00000000E+00
  0.00000000E+00  0.00000000E+00  0.00000000E+00
  0.00000000E+00  0.00000000E+00  0.00000000E+00
  0.00000000E+00  0.00000000E+00  0.00000000E+00
  0.00000000E+00  0.00000000E+00  0.00000000E+00
  0.00000000E+00  0.00000000E+00  0.00000000E+00
  0.00000000E+00  0.00000000E+00  0.00000000E+00
  0.00000000E+00  0.00000000E+00  0.00000000E+00
  0.00000000E+00  0.00000000E+00  0.00000000E+00
  0.00000000E+00  0.00000000E+00  0.00000000E+00
  0.00000000E+00  0.00000000E+00  0.00000000E+00
  0.00000000E+00  0.00000000E+00  0.00000000E+00
  0.00000000E+00  0.00000000E+00  0.00000000E+00
  0.00000000E+00  0.00000000E+00  0.00000000E+00
  0.00000000E+00  0.00000000E+00  0.00000000E+00
  0.00000000E+00  0.00000000E+00  0.00000000E+00
  0.00000000E+00  0.00000000E+00  0.00000000E+00
  0.00000000E+00  0.00000000E+00  0.00000000E+00
  0.00000000E+00  0.00000000E+00  0.00000000E+00
  0.00000000E+00  0.00000000E+00  0.00000000E+00
  0.00000000E+00  0.00000000E+00  0.00000000E+00
  0.00000000E+00  0.00000000E+00  0.00000000E+00
  0.00000000E+00  0.00000000E+00  0.00000000E+00
  0.00000000E+00  0.00000000E+00  0.00000000E+00
  0.00000000E+00  0.00000000E+00  0.00000000E+00
  0.00000000E+00  0.00000000E+00  0.00000000E+00
  0.00000000E+00  0.00000000E+00  0.00000000E+00
  0.00000000E+00  0.00000000E+00  0.00000000E+00
  0.00000000E+00  0.00000000E+00  0.00000000E+00
  0.00000000E+00  0.00000000E+00  0.00000000E+00
  0.00000000E+00  0.00000000E+00  0.00000000E+00
  0.00000000E+00  0.00000000E+00  0.00000000E+00
  0.00000000E+00  0.00000000E+00  0.00000000E+00
  0.00000000E+00  0.00000000E+00  0.00000000E+00
  0.00000000E+00  0.00000000E+00  0.00000000E+00
  0.00000000E+00  0.00000000E+00  0.00000000E+00
  0.00000000E+00  0.00000000E+00  0.00000000E+00
  0.00000000E+00  0.00000000E+00  0.00000000E+00
  0.00000000E+00  0.00000000E+00  0.00000000E+00
  0.00000000E+00  0.00000000E+00  0.00000000E+00
  0.00000000E+00  0.00000000E+00  0.00000000E+00
  0.00000000E+00  0.00000000E+00  0.00000000E+00
  0.00000000E+00  0.00000000E+00  0.00000000E+00
  0.00000000E+00  0.00000000E+00  0.00000000E+00
  0.00000000E+00  0.00000000E+00  0.00000000E+00
  0.00000000E+00  0.00000000E+00  0.00000000E+00
  0.00000000E+00  0.00000000E+00  0.00000000E+00
  0.00000000E+00  0.00000000E+00  0.00000000E+00
  0.00000000E+00  0.00000000E+00  0.00000000E+00
  0.00000000E+00  0.00000000E+00  0.00000000E+00
  0.00000000E+00  0.00000000E+00  0.00000000E+00
  0.00000000E+00  0.00000000E+00  0.00000000E+00
  0.00000000E+00  0.00000000E+00  0.00000000E+00
  0.00000000E+00  0.00000000E+00  0.00000000E+00
  0.00000000E+00  0.00000000E+00  0.00000000E+00
  0.00000000E+00  0.00000000E+00  0.00000000E+00
  0.00000000E+00  0.00000000E+00  0.00000000E+00
  0.00000000E+00  0.00000000E+00  0.00000000E+00
  0.00000000E+00  0.00000000E+00  0.00000000E+00
  0.00000000E+00  0.00000000E+00  0.00000000E+00
  0.00000000E+00  0.00000000E+00  0.00000000E+00
  0.00000000E+00  0.00000000E+00  0.00000000E+00
  0.00000000E+00  0.00000000E+00  0.00000000E+00
  0.00000000E+00  0.00000000E+00  0.00000000E+00
  0.00000000E+00  0.00000000E+00  0.00000000E+00
  0.00000000E+00  0.00000000E+00  0.00000000E+00
  0.00000000E+00  0.00000000E+00  0.00000000E+00
  0.00000000E+00  0.00000000E+00  0.00000000E+00
  0.00000000E+00  0.00000000E+00  0.00000000E+00
  0.00000000E+00  0.00000000E+00  0.00000000E+00
  0.00000000E+00  0.00000000E+00  0.00000000E+00
  0.00000000E+00  0.00000000E+00  0.00000000E+00
  0.00000000E+00  0.00000000E+00  0.00000000E+00
  0.00000000E+00  0.00000000E+00  0.00000000E+00
