 N O C B 
 1.0
 17.527899999999772   0.000000000000000   0.000000000000000
 -8.763949999999658  15.179606674993195   0.000000000000000
  0.000000000000001   0.000000000000002  15.000000000000000
 N O C B 
  48   1   1  48
Cartesian
  8.755592660478076  13.724605085618416   1.644259236287790 
 16.282707878280341   0.718926193710141   1.649853992436795 
 15.040222364039394   2.889849732346653   1.658040163853895 
 13.786359374149974   5.059868891664398   1.665905318687595 
 12.527195935647285   7.225218671576702   1.666914554362500 
 11.258142358509563   9.394926487818399   1.652578580099460 
 10.001240160116312  11.560442611877226   1.645106068966575 
 -6.270481947969800  13.740016410980472   1.649603566987995 
  1.255901955523445   0.734759743585445   1.644259236287790 
  0.019585467918665   2.911160750824525   1.637459727334560 
 -1.235803626428706   5.070726740555872   1.646207608274235 
 -2.506353314296744   7.233724043238800   1.654777895681085 
 -3.772266098338126   9.402445271651818   1.662068825062305 
 -5.024831103868667  11.571600610214544   1.653060759162750 
 -3.769753356488434  13.745459036126380   1.653060759162750 
  3.752945385519722   0.738078601608600   1.645106068966575 
  2.521408839816427   2.925903067009061   1.654499168981775 
  1.284544463457368   5.109576080422768   1.676383937342385 
 -0.008928063624158   7.248957520332596   1.616165653037010 
 -1.280679988297553   9.410721116127176   1.661890045621710 
 -2.525439319621543  11.577815041377077   1.667828016933090 
 -1.264927225773252  13.745283590726997   1.662068825062305 
  6.256788460455676   0.732327429757017   1.652578580099460 
  5.015416441815997   2.908918392775329   1.652516767760955 
  3.792625109065306   5.126593971675168   1.673118835169835 
  2.486598797839138   7.324151857084096   1.920316950377895 
  1.200180031784003   9.426827705944898   1.669679401518510 
 -0.026301262306294  11.583368801477670   1.661890045621710 
  1.246196843762469  13.733331574978013   1.654777895681085 
  8.770337336662099   0.718148701313050   1.666914554362500 
  7.531901825925611   2.879896180606325   1.675253386311465 
  6.303359873806866   5.037324325171505   1.644738487500225 
  3.664360115831427   9.364094299066378   1.920316950377895 
  2.481716890947411  11.562881125295917   1.616165653037010 
  3.754682300136946  13.714501919855358   1.646207608274235 
 11.275142400735602   0.710356066009255   1.665905318687595 
 10.037226888641040   2.877002274206052   1.678820302444065 
  8.798026048259628   5.040209263061143   1.671616792139490 
  7.553191390534020   7.202096013043953   1.644738487500225 
  6.220514226495460   9.331821278238289   1.673118835169835 
  4.981211829835033  11.512391777701058   1.676383937342385 
  6.252615855584364  13.707086067382308   1.637459727334560 
 13.781390187026714   0.709488443558650   1.658040163853895 
 12.538157429267228   2.880843403441973   1.669786380798090 
 11.291018674460728   5.048633349327326   1.678820302444065 
 10.035849946643911   7.216861545176718   1.675253386311465 
  8.752473281567845   9.381690709998626   1.652516767760955 
  7.490760321206861  11.533072313444839   1.654499168981775 
  5.205160000946811   7.114551442639593   1.172307771909360 
  3.594913506439047   8.044233956656390   2.393671552876635 
  7.504930960665304  14.445356933104966   1.643627976742890 
 15.032891149243611   1.440514485588081   1.656112590549720 
 13.788343951739289   3.609844391469842   1.665466188599100 
 12.536856011613571   5.778718125717342   1.671866074141680 
 11.277370250524910   7.947744934961678   1.665341627258175 
 10.002458009644567  10.113413376187639   1.648711415844360 
  8.744663233484882  12.273026936582129   1.646998906987620 
 -7.520882145749785  14.461941568694616   1.646315755824960 
  0.006387123190877   1.457498023816375   1.643627976742890 
 -1.236988724280736   3.623128322162276   1.648162236622335 
 -2.492429889677573   5.787675071752587   1.655143420971465 
 -3.757982380561180   7.955733518806254   1.662527072021880 
 -5.022976380414072  10.124138113568122   1.655682980353215 
 -6.275752572298250  12.291602589829862   1.649025029872290 
 -5.018748668503449  14.468797216514631   1.649025029872290 
  2.507546221992325   1.470023379924777   1.646998906987620 
  1.272337389218765   3.652020759198648   1.648821608626275 
  0.012827250520186   5.805677047116870   1.647553491319065 
 -1.264537245270722   7.965722999991041   1.639170493805895 
 -2.528496061353478  10.132046562343710   1.666512672908325 
 -3.774825635197747  12.299154833927801   1.658522504195310 
 -2.515281274300904  14.467593447217437   1.655682980353215 
  5.006723815748200   1.460547931220473   1.648711415844360 
  3.774255934515996   3.660259205922540   1.664718347654595 
  2.536544175260595   5.855213194206492   1.782652574638230 
  1.221094974922422   7.994916747063098   1.691744299680300 
 -0.041276909729754  10.143589472256313   1.659988300935975 
 -1.274890032314955  12.303355897282852   1.666512672908325 
 -0.004890809627977  14.456278805090946   1.662527072021880 
  7.519703822464669   1.439275763635142   1.665341627258175 
  6.283770775971297   3.601356620642516   1.669447745022540 
  5.081911874667522   5.782341856304663   1.515461082501195 
  2.450714197032417  10.124679713720829   1.691744299680300 
  1.233180613540619  12.291897234394179   1.639170493805895 
  2.505479127834484  14.444307421689638   1.655143420971465 
 10.027879021286683   1.433042503449730   1.671866074141680 
  8.787964011991679   3.597102759538390   1.676694269861085 
  7.554092602832936   5.758400839573412   1.646530894804140 
  6.297268710059735   7.887401644560453   1.515461082501195 
  4.961476430525613  10.055319065268431   1.782652574638230 
  3.742517529949439  12.265690107584016   1.647553491319065 
  5.007752183357111  14.439336854294293   1.648162236622335 
 12.531922742808568   1.433659021894723   1.665466188599100 
 11.287870670141936   3.602703067318284   1.676758902585015 
 10.042767349873204   5.770485894256110   1.676694269861085 
  8.786986780073903   7.937053922097999   1.669447745022540 
  7.481218224145258  10.080906233332373   1.664718347654595 
  6.237393655655912  12.251750475106149   1.648821608626275 
