B C N                                   
   1.0000000000000000     
     8.7639499999999995  -15.1796066749929999    0.0000000000000000
     8.7639499999999995   15.1796066749929999    0.0000000000000000
     0.0000000000000000    0.0000000000000000   15.0000000000000000
   B    C    N 
    48     1    48
Selective dynamics
Direct
  0.9040974814804832  0.9508825472027077  0.1103535672145426   T   T   T
  0.9056452992495895  0.0943567219464067  0.1109368195248233   T   T   T
  0.9061373199464705  0.2373054078895842  0.1110324219576311   T   T   T
  0.9058911745420044  0.3802038825283340  0.1100753198258265   T   T   T
  0.9040024319234305  0.5228579452470560  0.1089638939632839   T   T   T
  0.9018690280078260  0.6649119941527359  0.1087053761056929   T   T   T
  0.9014007802296607  0.8066058052805875  0.1097115450891783   T   T   T
  0.0473960772151213  0.9526059439808819  0.1090919100434096   T   T   T
  0.0491194739932956  0.0959045397155130  0.1103535672145426   T   T   T
  0.0495063972943137  0.2383893867627524  0.1115970811467481   T   T   T
  0.0487507325705123  0.3810195250855453  0.1109797537445701   T   T   T
  0.0470126052531469  0.5239041280603564  0.1095039783085573   T   T   T
  0.0459617881857874  0.6666700168548173  0.1085334171319497   T   T   T
  0.0460663079301134  0.8094044036373673  0.1083594347941524   T   T   T
  0.1905976175586362  0.9539357132658899  0.1083594347941524   T   T   T
  0.1933962159154159  0.0986012409663357  0.1097115450891783   T   T   T
  0.1941173908404515  0.2407860975938728  0.1123593567667519   T   T   T
  0.1924746188331101  0.3822590534562247  0.1135773857578992   T   T   T
  0.1894987295830791  0.5248740874728675  0.1108454303281031   T   T   T
  0.1889144862425426  0.6677026801408688  0.1092350497830727   T   T   T
  0.1894104283613344  0.8105915928346618  0.1083655573995750   T   T   T
  0.3333320043421807  0.9540402330102163  0.1085334171319497   T   T   T
  0.3350900270442628  0.0981329931881703  0.1087053761056929   T   T   T
  0.3408696820303733  0.2460090505977047  0.1106368514212473   T   T   T
  0.3387408111353021  0.3843365858217607  0.1181533711192005   T   T   T
  0.3311819832540847  0.5273605779026790  0.1158789296684353   T   T   T
  0.3311597375649640  0.6688422836320269  0.1115283338219344   T   T   T
  0.3322993410561298  0.8110875349534612  0.1092350497830727   T   T   T
  0.4760978931366422  0.9529894159428565  0.1095039783085573   T   T   T
  0.4771440759499421  0.0959995892725656  0.1089638939632839   T   T   T
  0.4791578290464903  0.2401911296635141  0.1088608509678328   T   T   T
  0.4948515799030194  0.3963808517472586  0.1084234821455590   T   T   T
  0.4726414432943193  0.6688200379429138  0.1158789296684353   T   T   T
  0.4751279337241306  0.8105032916129247  0.1108454303281031   T   T   T
  0.6189824961104582  0.9512512886254912  0.1109797537445701   T   T   T
  0.6197981386676690  0.0941108466539922  0.1100753198258265   T   T   T
  0.6206460535115349  0.2364620385850739  0.1090533662476887   T   T   T
  0.6221171987575516  0.3778848224384516  0.1083357240796313   T   T   T
  0.6036211694487444  0.5051504412939786  0.1084234821455590   T   T   T
  0.6156654353742428  0.6612612100616962  0.1181533711192005   T   T   T
  0.6177429677397783  0.8075274023628934  0.1135773857578992   T   T   T
  0.7616126344332511  0.9504956239016898  0.1115970811467481   T   T   T
  0.7626966133064195  0.0938647012495256  0.1110324219576311   T   T   T
  0.7632630264963052  0.2367389946996983  0.1102891746629124   T   T   T
  0.7635399826109291  0.3793559676844685  0.1090533662476887   T   T   T
  0.7598108915324896  0.5208441921505079  0.1088608509678328   T   T   T
  0.7539929705982988  0.6591323391666249  0.1106368514212473   T   T   T
  0.7592159236021306  0.8058846303555517  0.1123593567667519   T   T   T
  0.4682369949086039  0.5317650262883944  0.1367697008012651   T   T   T
  0.9510922203116198  0.9030335255793978  0.1095919458588565   T   T   T
  0.9531545025051965  0.0468468994128092  0.1103745218805537   T   T   T
  0.9539953762906914  0.1899507499032410  0.1111616264720787   T   T   T
  0.9537550508536116  0.3327389712083095  0.1107274768286828   T   T   T
  0.9522427893856059  0.4755941574327398  0.1094632058623327   T   T   T
  0.9507444673851217  0.6182795736576906  0.1085718874030081   T   T   T
  0.9502718232897005  0.7605234925724270  0.1087366837092019   T   T   T
  0.0948606547442018  0.9051407471737967  0.1083923680477440   T   T   T
  0.0969678763386011  0.0489091816063858  0.1095919458588565   T   T   T
  0.0980302582556411  0.1918265433451841  0.1113194102022236   T   T   T
  0.0972558813266129  0.3339631885683226  0.1120009653937417   T   T   T
  0.0949598414629667  0.4764306235185951  0.1102608682164079   T   T   T
  0.0939664349317661  0.6193160237052712  0.1089230565419976   T   T   T
  0.0939926957280751  0.7621707273886117  0.1082432433382698   T   T   T
  0.2378306745293940  0.9060087061899236  0.1082432433382698   T   T   T
  0.2394779093455788  0.0497295786283055  0.1087366837092019   T   T   T
  0.2433745795574354  0.1953327578666232  0.1110347811667988   T   T   T
  0.2428208961835740  0.3369033423317665  0.1152310800329877   T   T   T
  0.2376244030343445  0.4776227319737222  0.1125822492881637   T   T   T
  0.2365405709517047  0.6201434317011971  0.1102520698264663   T   T   T
  0.2370226323397130  0.7629787695782928  0.1088059024932674   T   T   T
  0.3806853782127271  0.9060349669862324  0.1089230565419976   T   T   T
  0.3817218282603085  0.0492569345328843  0.1085718874030081   T   T   T
  0.3838902421415057  0.1937556841052903  0.1089909417577820   T   T   T
  0.3923551935639053  0.3441232201602697  0.1123285981934349   T   T   T
  0.3820813925197362  0.4822089637124553  0.1243709067675107   T   T   T
  0.3786291148399786  0.6213722870780203  0.1147732375115873   T   T   T
  0.3798579702168012  0.7634608309663014  0.1102520698264663   T   T   T
  0.5235707783984017  0.9050415604550317  0.1102608682164079   T   T   T
  0.5244072444842565  0.0477586125323998  0.1094632058623327   T   T   T
  0.5255206602914730  0.1908046369731796  0.1089051829554777   T   T   T
  0.5282135428124640  0.3346074027861969  0.1085078224741444   T   T   T
  0.5177924382045415  0.6179200093982624  0.1243709067675107   T   T   T
  0.5223786699432748  0.7623769988836608  0.1125822492881637   T   T   T
  0.6660382133486741  0.9027455205913857  0.1120009653937417   T   T   T
  0.6672624307086871  0.0462463510643941  0.1107274768286828   T   T   T
  0.6680796180072738  0.1888607662197655  0.1098865099007897   T   T   T
  0.6691927526769001  0.3308086492400967  0.1084863470344243   T   T   T
  0.6653939991307999  0.4717878591045322  0.1085078224741444   T   T   T
  0.6558781817567266  0.6076462083540930  0.1123285981934349   T   T   T
  0.6630980595852300  0.7571805057344246  0.1152310800329877   T   T   T
  0.8081748585728145  0.9019711436623573  0.1113194102022236   T   T   T
  0.8100506520147576  0.0460060256273141  0.1111616264720787   T   T   T
  0.8108636224319125  0.1891377794860788  0.1109338050203383   T   T   T
  0.8111406356982331  0.3319217839097225  0.1098865099007897   T   T   T
  0.8091967649448188  0.4744807416255165  0.1089051829554777   T   T   T
  0.8062457178127083  0.6161111597764932  0.1089909417577820   T   T   T
  0.8046686440513753  0.7566268223605703  0.1110347811667988   T   T   T

  0.00000000E+00  0.00000000E+00  0.00000000E+00
  0.00000000E+00  0.00000000E+00  0.00000000E+00
  0.00000000E+00  0.00000000E+00  0.00000000E+00
  0.00000000E+00  0.00000000E+00  0.00000000E+00
  0.00000000E+00  0.00000000E+00  0.00000000E+00
  0.00000000E+00  0.00000000E+00  0.00000000E+00
  0.00000000E+00  0.00000000E+00  0.00000000E+00
  0.00000000E+00  0.00000000E+00  0.00000000E+00
  0.00000000E+00  0.00000000E+00  0.00000000E+00
  0.00000000E+00  0.00000000E+00  0.00000000E+00
  0.00000000E+00  0.00000000E+00  0.00000000E+00
  0.00000000E+00  0.00000000E+00  0.00000000E+00
  0.00000000E+00  0.00000000E+00  0.00000000E+00
  0.00000000E+00  0.00000000E+00  0.00000000E+00
  0.00000000E+00  0.00000000E+00  0.00000000E+00
  0.00000000E+00  0.00000000E+00  0.00000000E+00
  0.00000000E+00  0.00000000E+00  0.00000000E+00
  0.00000000E+00  0.00000000E+00  0.00000000E+00
  0.00000000E+00  0.00000000E+00  0.00000000E+00
  0.00000000E+00  0.00000000E+00  0.00000000E+00
  0.00000000E+00  0.00000000E+00  0.00000000E+00
  0.00000000E+00  0.00000000E+00  0.00000000E+00
  0.00000000E+00  0.00000000E+00  0.00000000E+00
  0.00000000E+00  0.00000000E+00  0.00000000E+00
  0.00000000E+00  0.00000000E+00  0.00000000E+00
  0.00000000E+00  0.00000000E+00  0.00000000E+00
  0.00000000E+00  0.00000000E+00  0.00000000E+00
  0.00000000E+00  0.00000000E+00  0.00000000E+00
  0.00000000E+00  0.00000000E+00  0.00000000E+00
  0.00000000E+00  0.00000000E+00  0.00000000E+00
  0.00000000E+00  0.00000000E+00  0.00000000E+00
  0.00000000E+00  0.00000000E+00  0.00000000E+00
  0.00000000E+00  0.00000000E+00  0.00000000E+00
  0.00000000E+00  0.00000000E+00  0.00000000E+00
  0.00000000E+00  0.00000000E+00  0.00000000E+00
  0.00000000E+00  0.00000000E+00  0.00000000E+00
  0.00000000E+00  0.00000000E+00  0.00000000E+00
  0.00000000E+00  0.00000000E+00  0.00000000E+00
  0.00000000E+00  0.00000000E+00  0.00000000E+00
  0.00000000E+00  0.00000000E+00  0.00000000E+00
  0.00000000E+00  0.00000000E+00  0.00000000E+00
  0.00000000E+00  0.00000000E+00  0.00000000E+00
  0.00000000E+00  0.00000000E+00  0.00000000E+00
  0.00000000E+00  0.00000000E+00  0.00000000E+00
  0.00000000E+00  0.00000000E+00  0.00000000E+00
  0.00000000E+00  0.00000000E+00  0.00000000E+00
  0.00000000E+00  0.00000000E+00  0.00000000E+00
  0.00000000E+00  0.00000000E+00  0.00000000E+00
  0.00000000E+00  0.00000000E+00  0.00000000E+00
  0.00000000E+00  0.00000000E+00  0.00000000E+00
  0.00000000E+00  0.00000000E+00  0.00000000E+00
  0.00000000E+00  0.00000000E+00  0.00000000E+00
  0.00000000E+00  0.00000000E+00  0.00000000E+00
  0.00000000E+00  0.00000000E+00  0.00000000E+00
  0.00000000E+00  0.00000000E+00  0.00000000E+00
  0.00000000E+00  0.00000000E+00  0.00000000E+00
  0.00000000E+00  0.00000000E+00  0.00000000E+00
  0.00000000E+00  0.00000000E+00  0.00000000E+00
  0.00000000E+00  0.00000000E+00  0.00000000E+00
  0.00000000E+00  0.00000000E+00  0.00000000E+00
  0.00000000E+00  0.00000000E+00  0.00000000E+00
  0.00000000E+00  0.00000000E+00  0.00000000E+00
  0.00000000E+00  0.00000000E+00  0.00000000E+00
  0.00000000E+00  0.00000000E+00  0.00000000E+00
  0.00000000E+00  0.00000000E+00  0.00000000E+00
  0.00000000E+00  0.00000000E+00  0.00000000E+00
  0.00000000E+00  0.00000000E+00  0.00000000E+00
  0.00000000E+00  0.00000000E+00  0.00000000E+00
  0.00000000E+00  0.00000000E+00  0.00000000E+00
  0.00000000E+00  0.00000000E+00  0.00000000E+00
  0.00000000E+00  0.00000000E+00  0.00000000E+00
  0.00000000E+00  0.00000000E+00  0.00000000E+00
  0.00000000E+00  0.00000000E+00  0.00000000E+00
  0.00000000E+00  0.00000000E+00  0.00000000E+00
  0.00000000E+00  0.00000000E+00  0.00000000E+00
  0.00000000E+00  0.00000000E+00  0.00000000E+00
  0.00000000E+00  0.00000000E+00  0.00000000E+00
  0.00000000E+00  0.00000000E+00  0.00000000E+00
  0.00000000E+00  0.00000000E+00  0.00000000E+00
  0.00000000E+00  0.00000000E+00  0.00000000E+00
  0.00000000E+00  0.00000000E+00  0.00000000E+00
  0.00000000E+00  0.00000000E+00  0.00000000E+00
  0.00000000E+00  0.00000000E+00  0.00000000E+00
  0.00000000E+00  0.00000000E+00  0.00000000E+00
  0.00000000E+00  0.00000000E+00  0.00000000E+00
  0.00000000E+00  0.00000000E+00  0.00000000E+00
  0.00000000E+00  0.00000000E+00  0.00000000E+00
  0.00000000E+00  0.00000000E+00  0.00000000E+00
  0.00000000E+00  0.00000000E+00  0.00000000E+00
  0.00000000E+00  0.00000000E+00  0.00000000E+00
  0.00000000E+00  0.00000000E+00  0.00000000E+00
  0.00000000E+00  0.00000000E+00  0.00000000E+00
  0.00000000E+00  0.00000000E+00  0.00000000E+00
  0.00000000E+00  0.00000000E+00  0.00000000E+00
  0.00000000E+00  0.00000000E+00  0.00000000E+00
  0.00000000E+00  0.00000000E+00  0.00000000E+00
  0.00000000E+00  0.00000000E+00  0.00000000E+00
