 N C B 
 1.0
 17.527899999999772   0.000000000000000   0.000000000000000
 -8.763949999999658  15.179606674993195   0.000000000000000
  0.000000000000001   0.000000000000002  15.000000000000000
 N C B 
  48   1  48
Cartesian
  8.756508661898568  13.707693732627668   1.643879187882840 
 16.296232920351752   0.711117507029411   1.655617828208310 
 15.056816681470941   2.883377671151200   1.667424397081185 
 13.801215449135860   5.050846708384015   1.660912152430245 
 12.522732972039247   7.219332246753784   1.641948087934995 
 11.245982680322353   9.385240743306234   1.628578311045120 
  9.991079628709471  11.544447484341552   1.631050255638030 
 -6.269900180902613  13.739680527607698   1.625885520716160 
  1.271005617536073   0.742422139580752   1.643879187882840 
  0.037106329129068   2.911851477803427   1.669791153033360 
 -1.222145324148523   5.069429846393727   1.680014480906130 
 -2.510967557806910   7.232029472934035   1.653913023246120 
 -3.780620391111118   9.400973647366774   1.633845848129970 
 -5.032131574845062  11.569451860952594   1.623648650074050 
 -3.771542720529165  13.752855804082520   1.623648650074050 
  3.761717306598794   0.754875443690833   1.631050255638030 
  2.553958769719585   2.965074435157020   1.665521717501985 
  1.303536339187646   5.114060224086793   1.728466200494820 
 -0.020804967935296   7.250125210396797   1.688733739322460 
 -1.288846554673158   9.413533375304677   1.653781047396990 
 -2.532198790258219  11.581717623568752   1.632088537399005 
 -1.267829908143908  13.753254432641446   1.633845848129970 
  6.259096722164313   0.747700892225069   1.628578311045120 
  5.030724647517525   2.941135075762533   1.634864126366730 
  3.861283901945200   5.223655129764988   1.684928972901525 
  2.471029192418988   7.319742404311133   1.865563601512665 
  1.190897606666381   9.432186916585300   1.721598562673805 
 -0.032820033383873  11.589035125831915   1.653781047396990 
  1.245357262939662  13.738174912229463   1.653913023246120 
  8.773203648292162   0.724956953585233   1.641948087934995 
  7.539071283321755   2.896339341017736   1.633577744332170 
  6.325991609414491   5.079208764835492   1.627617337112160 
  3.660394011239569   9.379782699273715   1.865563601512665 
  2.474767189532410  11.572582981115699   1.688733739322460 
  3.762634594567502  13.703321930189210   1.680014480906130 
 11.290408450807861   0.702001419311154   1.660912152430245 
 10.054866424357900   2.866832147553874   1.648297648511850 
  8.830353188137648   5.021545180150460   1.627295205516360 
  7.528234269565594   7.161554135243904   1.627617337112160 
  6.170786194308938   9.223830440366095   1.684928972901525 
  4.986824385372848  11.493702259021001   1.728466200494820 
  6.260778099078836  13.691567192988360   1.669791153033360 
 13.795292315152809   0.698353373702284   1.667424397081185 
 12.555142445097168   2.871037099980275   1.664007075305070 
 11.308646030359377   5.038442126611665   1.648297648511850 
 10.025194480707320   7.202431032734419   1.633577744332170 
  8.732226918526194   9.352325073481053   1.634864126366730 
  7.473111886241252  11.485297563183400   1.665521717501985 
  3.546849120918425   8.071983942575237   2.051545512018975 
  7.513443146084702  14.434023060652759   1.655303508218145 
 15.047122647414483   1.432297926288157   1.664052292872345 
 13.802951600815703   3.602202753612712   1.665486329364465 
 12.546282101970522   5.771345393085427   1.651129797387390 
 11.262963337262743   7.936777955745438   1.634458409449260 
  9.980614664863523  10.093102544723909   1.630580641585395 
  8.730609788598745  12.243958865925460   1.645673176337670 
 -7.517837160932018  14.460183545890391   1.636378650651150 
  0.020458637367344   1.455793191227752   1.655303508218145 
 -1.221489484984344   3.618657126551405   1.673956217201220 
 -2.484738101450666   5.783726526291276   1.664696306168550 
 -3.767437339497754   7.952658599361470   1.642559674628355 
 -5.037019706191460  10.119737783328796   1.628001256979250 
 -6.286134084489208  12.286440488222663   1.625391521912280 
 -5.019468913470298  14.480368920605299   1.625391521912280 
  2.525693187176890   1.496728055535207   1.645673176337670 
  1.292232894904555   3.655038254281518   1.685390351501280 
  0.023576639907272   5.802542079420694   1.703660786368485 
 -1.278455476648446   7.967382201734094   1.662681454921545 
 -2.540438680209714  10.135464060377181   1.638525746746095 
 -3.784017142748476  12.304461553286401   1.625483360993625 
 -2.518527566756299  14.481955489213938   1.628001256979250 
  5.013391839377632   1.489620238436207   1.630580641585395 
  3.818718680674424   3.734320626561662   1.659552771318705 
  2.569108442185892   5.834078203584099   1.772300566788015 
  1.183162947569198   8.005126148459775   1.738183945026525 
 -0.057165567571818  10.152762793138409   1.672925007329010 
 -1.283820981857442  12.311989759583334   1.638525746746095 
 -0.006955330742428  14.466004499444043   1.642559674628355 
  7.521998048437607   1.457236006118448   1.634458409449260 
  6.293607460929390   3.646006875114433   1.632912764517495 
  5.199847041711759   6.016905423022181   1.626352232183385 
  2.422906582388814  10.152425112327460   1.738183945026525 
  1.224784586992270  12.303121175471512   1.662681454921545 
  2.512744562625308  14.439620410415381   1.664696306168550 
 10.038977040219672   1.428565636058198   1.651129797387390 
  8.806280478287114   3.589400739288488   1.635800493715335 
  7.592644358493011   5.736142973065345   1.625035861194465 
  6.153098286002306   7.667985010541842   1.626352232183385 
  4.996062002776078  10.037685078166598   1.772300566788015 
  3.750607186307913  12.257948347147686   1.703660786368485 
  5.019373971989515  14.428149717129914   1.673956217201220 
 12.545844419857655   1.424829245633547   1.665486329364465 
 11.303629289526071   3.593604824174714   1.654337619943680 
 10.058595728217766   5.758474379261654   1.635800493715335 
  8.753236867894891   7.906209975799290   1.632912764517495 
  7.439310525510634  10.005369655317578   1.659552771318705 
  6.244728181101354  12.233011714219561   1.685390351501280 
