 N As B 
 1.0
 14.936314146199660   0.000000000000000   0.000000000000000
 -7.468157073099825  12.935227489513863   0.000000000000000
  0.000000000000001   0.000000000000001  13.341276283792837
 N As B 
 144   1 143
Cartesian
  1.244990777786659   0.718417612619251   1.659189080770346 
  4.979049184828008   7.185838947510115   1.683670380396400 
  6.223166295312574   0.718417612619251   1.659189080770346 
  9.957688126254570   7.186454167315913   1.665488976549031 
 11.202235609649751   0.718623749417456   1.663404968146223 
 -3.734078536549858   9.342108742426664   8.336909548979186 
  1.244365359676773   9.341953793911983   8.346768132075695 
  2.489869743951004   2.874453686753394   8.322286832446160 
  6.223791713423172   9.341953793911983   8.346768132075695 
  7.467570693480708   2.874833544102375   8.346752424717874 
 12.447118605630077   2.874777880772979   8.344931592661554 
 -1.244953171024018   9.342126293148279   1.665488976549045 
  0.000586379620274   2.874833544102374   1.659204788125475 
  4.978287329150577   2.874453686753444   1.683670380396453 
  3.734078536552285   9.341431649562361   1.659204788125475 
  8.713110244120688   9.342126293148279   1.665488976549045 
  9.957352613669144   2.874777880772978   1.661025620181473 
 -4.978656418682215  11.497745766818229   8.340468236294809 
 -0.000272302185519  11.497822776937312   8.343570730115497 
  1.244899095673408   5.030806103502168   8.322286832446160 
  6.223257977428474   5.030806103502168   8.322286832446160 
  4.978921290788175  11.497673873995216   8.344931592661554 
 11.202235609651098   5.030680673402934   8.343570730115497 
 -1.244722399085776   5.030727331236057   1.659189080770333 
 -2.489500654417753  11.497745766818229   1.665488976549045 
  2.489235782309076  11.497673873995204   1.661025620181500 
  3.734078536549917   5.030366245922020   1.802368254142132 
  7.468429375288002  11.497822776937312   1.662386482733800 
  8.712879472186538   5.030727331236057   1.659189080770333 
 -0.000308399939493   7.186415548962108   8.341618124760101 
  1.244990777786659   0.718417612619252   8.346768132075708 
  4.979049184828009   7.185838947510116   8.322286832446160 
  6.223166295312575   0.718417612619252   8.346768132075695 
  9.957688126254570   7.186454167315913   8.340468236294877 
 -2.489531053154598   7.186454167315913   1.665488976549045 
 11.202235609649751   0.718623749417456   8.342552244700006 
  3.734078536549938   0.718267639840774   1.664339088084339 
  2.489107888272545   7.185838947510115   1.683670380396373 
  7.468465473039958   7.186415548962107   1.664339088084339 
  8.712509859428957   0.718646982997181   1.661025620181473 
  2.489107888272545   7.185838947510116   8.322286832446160 
 13.691961359868989   0.718646982997168   1.661025620181473 
 -1.244953171024017   9.342126293148279   8.340468236294809 
  0.000586379620275   2.874833544102375   8.346752424717874 
  4.978287329150607   2.874453686753394   8.322286832446160 
  3.734078536552285   9.341431649562361   8.346752424717874 
  8.713110244120688   9.342126293148279   8.340468236294877 
  9.957352613669144   2.874777880772979   8.344931592661554 
 -3.734078536549859   9.342108742426664   1.669047663863921 
  1.244365359676773   9.341953793911983   1.659189080770346 
  2.489869743950974   2.874453686753444   1.683670380396373 
  6.223791713423171   9.341953793911983   1.659189080770346 
  7.467570693480707   2.874833544102374   1.659204788125461 
 12.447118605630063   2.874777880772978   1.661025620181460 
 -1.244722399085791   5.030727331236058   8.346768132075708 
 -2.489500654417753  11.497745766818229   8.340468236294877 
  2.489235782309069  11.497673873995216   8.344931592661554 
  3.734078536549917   5.030366245922021   8.203588958702069 
  7.468429375287987  11.497822776937312   8.343570730115497 
 -4.978656418682216  11.497745766818229   1.665488976549045 
  8.712879472186538   5.030727331236058   8.346768132075695 
 -0.000272302185429  11.497822776937312   1.662386482733800 
  1.244899095673392   5.030806103502167   1.683670380396520 
 -0.000308399939493   7.186415548962107   1.664339088084325 
  6.223257977428473   5.030806103502167   1.683670380396413 
  4.978921290788182  11.497673873995204   1.661025620181473 
 11.202235609651098   5.030680673402933   1.662386482733800 
 -2.489531053154613   7.186454167315913   8.340468236294877 
  3.734078536549938   0.718267639840774   8.341618124760101 
  7.468465473039959   7.186415548962108   8.341618124760101 
  8.712509859428957   0.718646982997182   8.344931592661554 
 13.691961359868996   0.718646982997182   8.344931592661554 
 -0.009842061211545   1.428479083085575   5.002978606422314 
  3.734078536546865   7.921369537704828   5.002978606422314 
  5.000331997356174   1.379561364617709   5.002978606422314 
  8.729067962595717   7.914224735646260   5.002978606422314 
  9.961440273580664   1.434997270705259   5.002978606422314 
 -4.978855780124549  10.060781219086811  11.673616748318732 
  0.000127971776001  10.060786849392738  11.673616748318732 
  1.244720121344595   3.593134494794363  11.673616748318732 
  4.978716883031534  10.060831255930829  11.673616748318732 
  6.223436951752492   3.593134494794363  11.673616748318732 
 11.202235609652107   3.593040939088089  11.673616748318732 
 -2.492234093443809  10.059087965942680   5.002978606422314 
 -1.257207546911706   3.588979479926099   5.002978606422314 
  3.734078536551052   3.378059975000074   5.002978606422314 
  2.486713050847443  10.073640174753717   5.002978606422314 
  7.478819177833881  10.074388330949168   5.002978606422314 
  8.725364620011508   3.588979479926073   5.002978606422314 
 -6.223575288489402  12.216687388131714  11.673616748318732 
 -1.244581784611088  12.216687388131714  11.673616748318732 
  0.000147336607821   5.748832257811438  11.673616748318732 
  4.978491596536404   5.748828461088300  11.673616748318732 
  3.734078536551243  12.216661520105001  11.673616748318732 
  9.957525853262366   5.748851989756137  11.673616748318732 
 -2.506543046975872   5.751395729340643   5.002978606422314 
 -3.734078536549723  12.197876755983412   5.002978606422314 
  1.247472091132382  12.218208338299245   5.002978606422314 
  2.303139331100890   5.856519381382012   5.002978606422314 
  6.220684981970116  12.218208338299245   5.002978606422314 
  7.528895038421538   5.759161021885962   5.002978606422314 
 -1.244531999832999   7.904768379293568  11.673616748318732 
 -0.000112781724759   1.437245314340446  11.673616748318732 
  3.734078536548112   7.904829748177519  11.673616748318732 
  4.978834318469437   1.437453964843440  11.673616748318732 
  8.712689072929610   7.904768379293568  11.673616748318732 
 -3.734078536549254   7.908150295389418   5.002978606422314 
  9.957592803089479   1.437218608830940  11.673616748318732 
  2.467825075743060   1.379561364617657   5.002978606422314 
  1.205515495483830   7.952376351261526   5.002978606422314 
  6.262641577615752   7.952376351261526   5.002978606422314 
  7.477999134309688   1.428479083085575   5.002978606422314 
  1.244903118525855   7.904812515112391  11.673616748318732 
 12.443030945715153   1.434997270705259   5.002978606422314 
 -2.489301292977002  10.060781219086811  11.673616748318732 
 -1.244751128206168   3.593022167494805  11.673616748318732 
  3.734078536549910   3.593441815589450  11.673616748318732 
  2.489440190068234  10.060831255930829  11.673616748318732 
  7.468029101323062  10.060786849392738  11.673616748318732 
  8.712908201307153   3.593022167494805  11.673616748318732 
 -4.975922979653279  10.059087965942680   5.002978606422314 
 -0.010662104729710  10.074388330949168   5.002978606422314 
  1.230396243443375   3.584864600030702   5.002978606422314 
  4.981444022249408  10.073640174753717   5.002978606422314 
  6.237760829655144   3.584864600030702   5.002978606422314 
 11.202235609650382   3.589909550680336   5.002978606422314 
 -2.489368780163099   5.748851989756137  11.673616748318732 
 -3.734078536551044  12.216789468696390  11.673616748318732 
  1.244760229222255  12.216642644093877  11.673616748318732 
  2.489665476563432   5.748828461088300  11.673616748318732 
  6.223396843882934  12.216642644093877  11.673616748318732 
 -6.229959478793912  12.200542166986351   5.002978606422314 
  7.468009736493509   5.748832257811490  11.673616748318732 
 -1.238197594304324  12.200542166986351   5.002978606422314 
 -0.060737965323571   5.759161021885962   5.002978606422314 
 -1.260910889493401   7.914224735646260   5.002978606422314 
  5.165017741998944   5.856519381382012   5.002978606422314 
  3.734078536547336  12.221104196357434   5.002978606422314 
  9.974700120077307   5.751395729340643   5.002978606422314 
 -3.734078536549679   7.904763789109580  11.673616748318732 
  2.489322754631179   1.437453964843453  11.673616748318732 
  6.223253954573324   7.904812515112391  11.673616748318732 
  7.468269854825279   1.437245314340446  11.673616748318732 
 12.446878416210861   1.437218608830940  11.673616748318732 
  3.734078536549917   5.030366245922021   5.002978606422314 
  1.213959251084765   0.680381207228517   5.002978606422314 
  5.029666667209492   7.308480377632982   5.002978606422314 
  6.254197822015483   0.680381207228517   5.002978606422314 
  9.969603772774924   7.188500550424989   5.002978606422314 
 11.202235609649751   0.718623749417456   5.002978606422314 
 -3.734078536549858   9.342108742426666  11.673616748318732 
  1.244524872253307   9.343123794138068  11.673616748318732 
  2.488517024277769   2.873535756435369  11.673616748318732 
  6.223632200848834   9.343123794138068  11.673616748318732 
  7.469464520874546   2.873740142343830  11.673616748318732 
 12.446366180387999   2.874019781439639  11.673616748318732 
 -1.252683214038906   9.351422354180750   5.002978606422314 
 -0.033710682226194   2.855032126211773   5.002978606422314 
  5.059189182000816   2.769296946072780   5.002978606422314 
  3.734078536549404   9.381034485341237   5.002978606422314 
  8.720840287140438   9.351422354180738   5.002978606422314 
  9.968326181074396   2.865539634934096   5.002978606422314 
 -4.978959464941801  11.497746984774869  11.673616748318732 
  0.000306611528196  11.498157012929887  11.673616748318732 
  1.243427784861625   5.030093579061433  11.673616748318732 
  6.224729288237718   5.030093579061433  11.673616748318732 
  4.978640970127934  11.498704543035979  11.673616748318732 
 11.202235609647493   5.030012201424036  11.673616748318732 
 -1.293178655773227   5.022871443488477   5.002978606422314 
 -2.485315050913514  11.486403322674537   5.002978606422314 
  2.491749554189783  11.511796385057515   5.002978606422314 
  7.462549221056352  11.501217685565832   5.002978606422314 
  8.761335728873613   5.022871443488477   5.002978606422314 
 -0.000683481308964   7.186632102293457  11.673616748318732 
  1.243897771580425   0.717970754447668  11.673616748318732 
  4.979167775965623   7.187469402269043  11.673616748318732 
  6.224259301520236   0.717970754447681  11.673616748318732 
  9.957838594603967   7.186191112576553  11.673616748318732 
 -2.501446699676639   7.188500550424989   5.002978606422314 
 11.202235609649751   0.718623749417457  11.673616748318732 
  3.734078536549101   0.676000331800692   5.002978606422314 
  2.438490405888464   7.308480377632982   5.002978606422314 
  7.505070035552498   7.207549202985242   5.002978606422314 
  8.725997198714667   0.713762717773742   5.002978606422314 
  2.488989297133886   7.187469402269043  11.673616748318732 
 13.678474020583639   0.713762717773742   5.002978606422314 
 -1.244800593109640   9.342388129926414  11.673616748318732 
 -0.001307447776818   2.873740142343830  11.673616748318732 
  4.979640048822124   2.873535756435369  11.673616748318732 
  3.734078536548747   9.343618453076841  11.673616748318732 
  8.712957666211164   9.342388129926414  11.673616748318732 
  9.958105038911208   2.874019781439639  11.673616748318732 
 -3.734078536549858   9.342108742426664   5.002978606422314 
  1.226940629690961   9.387846087050711   5.002978606422314 
  2.408967891098935   2.769296946072767   5.002978606422314 
  6.241216443407083   9.387846087050711   5.002978606422314 
  7.501867755324906   2.855032126211773   5.002978606422314 
 12.436145038225096   2.865539634934096   5.002978606422314 
 -1.245655892716657   5.030004189179515  11.673616748318732 
 -2.489197608156630  11.497746984774869  11.673616748318732 
  2.489516102968576  11.498704543035979  11.673616748318732 
  3.734078536549918   5.030366245922021  11.673616748318732 
  7.467850461567150  11.498157012929887  11.673616748318732 
 -4.982842022185769  11.486403322674537   5.002978606422314 
  8.713812965818688   5.030004189179515  11.673616748318732 
  0.005607852044980  11.501217685565832   5.002978606422314 
  1.113379760437943   5.013321414060961   5.002978606422314 
 -0.036912962454589   7.207549202985242   5.002978606422314 
  6.354777312660771   5.013321414060961   5.002978606422314 
  4.976407518908054  11.511796385057515   5.002978606422314 
 11.202235609650492   5.023890856146969   5.002978606422314 
 -2.489681521502009   7.186191112576553  11.673616748318732 
  3.734078536550984   0.717834533181519  11.673616748318732 
  7.468840554406472   7.186632102293457  11.673616748318732 
  8.713542605330050   0.718374413290617  11.673616748318732 
 13.690928613966198   0.718374413290617  11.673616748318732 
 -0.001238541177818   1.435289995279981   1.652885891958112 
  3.734078536546470   7.909145209175028   1.663581498520140 
  4.979575081267782   1.431854150199624   1.656647665645888 
  8.715648109611294   7.906476779913733   1.658735888783929 
  9.958015238116289   1.436974715854437   1.657553765777453 
 -4.978044394191567  10.060312765198312   8.343626229494294 
 -0.001730487516634  10.061652013374601   8.349275567496306 
  1.240982822494211   3.590976764295595   8.342375714326302 
  4.979847359286384  10.062783851743436   8.353071320887182 
  6.227174250603742   3.590976764295595   8.342375714326302 
 11.202235609649730   3.593408216673668   8.349041159940954 
 -2.490112678907253  10.060312765198312   1.662330983349453 
 -1.247007363911116   3.593024890739282   1.652885891958166 
  3.734078536549132   3.584377341286654   1.700661074002593 
  2.488309713814946  10.062783851743436   1.652885891958166 
  7.469887560614469  10.061652013374601   1.656681645350909 
  8.715164437014099   3.593024890739282   1.652885891958112 
 -6.223395312831030  12.214645333182521   8.349275567496306 
 -1.244761760271193  12.214645333182521   8.349275567496306 
 -0.005072626532219   5.750990645731799   8.349309547199008 
  4.986341661555747   5.753360698240384   8.305296138842824 
  3.734078536552699  12.217149306055301   8.348403447068135 
  9.959204336894185   5.750028880724537   8.349275567496306 
 -2.491047263796861   5.750028880724536   1.656681645350923 
 -3.734078536547894  12.213372667449276   1.658735888783929 
  1.244442157500323  12.216459005303141   1.656916052905101 
  2.481815411544087   5.753360698240383   1.700661074002579 
  6.223714915598723  12.216459005303141   1.656916052905101 
  7.473229699631024   5.750990645731798   1.656647665645888 
 -1.247491036507603   7.906476779913734   8.347221324062152 
 -0.001238541177818   1.435289995279982   8.353071320887182 
  3.734078536546470   7.909145209175029   8.342375714326302 
  4.979575081267783   1.431854150199624   8.349309547199008 
  8.715648109611294   7.906476779913734   8.347221324062152 
 -3.734078536549890   7.905700696881918   1.662330983349453 
  9.958015238116289   1.436974715854437   8.348403447068135 
  2.488581991830002   1.431854150199624   1.656647665645888 
  1.240423918185335   7.908253941838729   1.656647665645874 
  6.227733154910797   7.908253941838729   1.656647665645888 
  7.469395614276334   1.435289995279981   1.652885891958166 
  1.240423918185335   7.908253941838730   8.349309547199008 
 12.446455981187073   1.436974715854437   1.657553765777453 
 -2.490112678907283  10.060312765198312   8.343626229494294 
 -1.247007363911116   3.593024890739283   8.353071320887182 
  3.734078536549140   3.584377341286642   8.305296138842824 
  2.488309713815469  10.062783851743436   8.353071320887182 
  7.469887560614470  10.061652013374601   8.349275567496306 
  8.715164437014099   3.593024890739283   8.353071320887182 
 -4.978044394191553  10.060312765198312   1.662330983349453 
 -0.001730487516634  10.061652013374601   1.656681645350923 
  1.240982822494203   3.590976764295607   1.663581498520127 
  4.979847359286383  10.062783851743436   1.652885891958166 
  6.227174250603733   3.590976764295607   1.663581498520127 
 11.202235609649730   3.593408216673667   1.656916052905154 
 -2.491047263796860   5.750028880724537   8.349275567496306 
 -3.734078536547908  12.213372667449249   8.347221324062152 
  1.244442157500302  12.216459005303181   8.349041159940954 
  2.481815411544088   5.753360698240384   8.305296138842824 
  6.223714915598724  12.216459005303141   8.349041159940954 
 -6.223395312831135  12.214645333182521   1.656681645350923 
  7.473229699631025   5.750990645731799   8.349309547199008 
 -1.244761760271193  12.214645333182521   1.656681645350909 
 -0.005072626532219   5.750990645731798   1.656647665645888 
 -1.247491036507603   7.906476779913733   1.658735888783929 
  4.986341661555747   5.753360698240383   1.700661074002579 
  3.734078536552699  12.217149306055301   1.657553765777453 
  9.959204336894185   5.750028880724536   1.656681645350909 
 -3.734078536549889   7.905700696881919   8.343626229494294 
  2.488581991830002   1.431854150199624   8.349309547199008 
  6.227733154910798   7.908253941838730   8.349309547199008 
  7.469395614275932   1.435289995279982   8.353071320887182 
 12.446455981187073   1.436974715854437   8.348403447068135 
Generated by cif2cell 2.0.0.  :  Failed to get author information, No journal information. Species order: N As B 
 1.0
 14.936314146199660   0.000000000000000   0.000000000000000
 -7.468157073099825  12.935227489513863   0.000000000000000
  0.000000000000001   0.000000000000001  13.341276283792837
 N As B 
 144   1 143
Cartesian
  1.244990777786659   0.718417612619251   1.659189080770346 
  4.979049184828008   7.185838947510115   1.683670380396400 
  6.223166295312574   0.718417612619251   1.659189080770346 
  9.957688126254570   7.186454167315913   1.665488976549031 
 11.202235609649751   0.718623749417456   1.663404968146223 
 -3.734078536549858   9.342108742426664   8.336909548979186 
  1.244365359676773   9.341953793911983   8.346768132075695 
  2.489869743951004   2.874453686753394   8.322286832446160 
  6.223791713423172   9.341953793911983   8.346768132075695 
  7.467570693480708   2.874833544102375   8.346752424717874 
 12.447118605630077   2.874777880772979   8.344931592661554 
 -1.244953171024018   9.342126293148279   1.665488976549045 
  0.000586379620274   2.874833544102374   1.659204788125475 
  4.978287329150577   2.874453686753444   1.683670380396453 
  3.734078536552285   9.341431649562361   1.659204788125475 
  8.713110244120688   9.342126293148279   1.665488976549045 
  9.957352613669144   2.874777880772978   1.661025620181473 
 -4.978656418682215  11.497745766818229   8.340468236294809 
 -0.000272302185519  11.497822776937312   8.343570730115497 
  1.244899095673408   5.030806103502168   8.322286832446160 
  6.223257977428474   5.030806103502168   8.322286832446160 
  4.978921290788175  11.497673873995216   8.344931592661554 
 11.202235609651098   5.030680673402934   8.343570730115497 
 -1.244722399085776   5.030727331236057   1.659189080770333 
 -2.489500654417753  11.497745766818229   1.665488976549045 
  2.489235782309076  11.497673873995204   1.661025620181500 
  3.734078536549917   5.030366245922020   1.802368254142132 
  7.468429375288002  11.497822776937312   1.662386482733800 
  8.712879472186538   5.030727331236057   1.659189080770333 
 -0.000308399939493   7.186415548962108   8.341618124760101 
  1.244990777786659   0.718417612619252   8.346768132075708 
  4.979049184828009   7.185838947510116   8.322286832446160 
  6.223166295312575   0.718417612619252   8.346768132075695 
  9.957688126254570   7.186454167315913   8.340468236294877 
 -2.489531053154598   7.186454167315913   1.665488976549045 
 11.202235609649751   0.718623749417456   8.342552244700006 
  3.734078536549938   0.718267639840774   1.664339088084339 
  2.489107888272545   7.185838947510115   1.683670380396373 
  7.468465473039958   7.186415548962107   1.664339088084339 
  8.712509859428957   0.718646982997181   1.661025620181473 
  2.489107888272545   7.185838947510116   8.322286832446160 
 13.691961359868989   0.718646982997168   1.661025620181473 
 -1.244953171024017   9.342126293148279   8.340468236294809 
  0.000586379620275   2.874833544102375   8.346752424717874 
  4.978287329150607   2.874453686753394   8.322286832446160 
  3.734078536552285   9.341431649562361   8.346752424717874 
  8.713110244120688   9.342126293148279   8.340468236294877 
  9.957352613669144   2.874777880772979   8.344931592661554 
 -3.734078536549859   9.342108742426664   1.669047663863921 
  1.244365359676773   9.341953793911983   1.659189080770346 
  2.489869743950974   2.874453686753444   1.683670380396373 
  6.223791713423171   9.341953793911983   1.659189080770346 
  7.467570693480707   2.874833544102374   1.659204788125461 
 12.447118605630063   2.874777880772978   1.661025620181460 
 -1.244722399085791   5.030727331236058   8.346768132075708 
 -2.489500654417753  11.497745766818229   8.340468236294877 
  2.489235782309069  11.497673873995216   8.344931592661554 
  3.734078536549917   5.030366245922021   8.203588958702069 
  7.468429375287987  11.497822776937312   8.343570730115497 
 -4.978656418682216  11.497745766818229   1.665488976549045 
  8.712879472186538   5.030727331236058   8.346768132075695 
 -0.000272302185429  11.497822776937312   1.662386482733800 
  1.244899095673392   5.030806103502167   1.683670380396520 
 -0.000308399939493   7.186415548962107   1.664339088084325 
  6.223257977428473   5.030806103502167   1.683670380396413 
  4.978921290788182  11.497673873995204   1.661025620181473 
 11.202235609651098   5.030680673402933   1.662386482733800 
 -2.489531053154613   7.186454167315913   8.340468236294877 
  3.734078536549938   0.718267639840774   8.341618124760101 
  7.468465473039959   7.186415548962108   8.341618124760101 
  8.712509859428957   0.718646982997182   8.344931592661554 
 13.691961359868996   0.718646982997182   8.344931592661554 
 -0.009842061211545   1.428479083085575   5.002978606422314 
  3.734078536546865   7.921369537704828   5.002978606422314 
  5.000331997356174   1.379561364617709   5.002978606422314 
  8.729067962595717   7.914224735646260   5.002978606422314 
  9.961440273580664   1.434997270705259   5.002978606422314 
 -4.978855780124549  10.060781219086811  11.673616748318732 
  0.000127971776001  10.060786849392738  11.673616748318732 
  1.244720121344595   3.593134494794363  11.673616748318732 
  4.978716883031534  10.060831255930829  11.673616748318732 
  6.223436951752492   3.593134494794363  11.673616748318732 
 11.202235609652107   3.593040939088089  11.673616748318732 
 -2.492234093443809  10.059087965942680   5.002978606422314 
 -1.257207546911706   3.588979479926099   5.002978606422314 
  3.734078536551052   3.378059975000074   5.002978606422314 
  2.486713050847443  10.073640174753717   5.002978606422314 
  7.478819177833881  10.074388330949168   5.002978606422314 
  8.725364620011508   3.588979479926073   5.002978606422314 
 -6.223575288489402  12.216687388131714  11.673616748318732 
 -1.244581784611088  12.216687388131714  11.673616748318732 
  0.000147336607821   5.748832257811438  11.673616748318732 
  4.978491596536404   5.748828461088300  11.673616748318732 
  3.734078536551243  12.216661520105001  11.673616748318732 
  9.957525853262366   5.748851989756137  11.673616748318732 
 -2.506543046975872   5.751395729340643   5.002978606422314 
 -3.734078536549723  12.197876755983412   5.002978606422314 
  1.247472091132382  12.218208338299245   5.002978606422314 
  2.303139331100890   5.856519381382012   5.002978606422314 
  6.220684981970116  12.218208338299245   5.002978606422314 
  7.528895038421538   5.759161021885962   5.002978606422314 
 -1.244531999832999   7.904768379293568  11.673616748318732 
 -0.000112781724759   1.437245314340446  11.673616748318732 
  3.734078536548112   7.904829748177519  11.673616748318732 
  4.978834318469437   1.437453964843440  11.673616748318732 
  8.712689072929610   7.904768379293568  11.673616748318732 
 -3.734078536549254   7.908150295389418   5.002978606422314 
  9.957592803089479   1.437218608830940  11.673616748318732 
  2.467825075743060   1.379561364617657   5.002978606422314 
  1.205515495483830   7.952376351261526   5.002978606422314 
  6.262641577615752   7.952376351261526   5.002978606422314 
  7.477999134309688   1.428479083085575   5.002978606422314 
  1.244903118525855   7.904812515112391  11.673616748318732 
 12.443030945715153   1.434997270705259   5.002978606422314 
 -2.489301292977002  10.060781219086811  11.673616748318732 
 -1.244751128206168   3.593022167494805  11.673616748318732 
  3.734078536549910   3.593441815589450  11.673616748318732 
  2.489440190068234  10.060831255930829  11.673616748318732 
  7.468029101323062  10.060786849392738  11.673616748318732 
  8.712908201307153   3.593022167494805  11.673616748318732 
 -4.975922979653279  10.059087965942680   5.002978606422314 
 -0.010662104729710  10.074388330949168   5.002978606422314 
  1.230396243443375   3.584864600030702   5.002978606422314 
  4.981444022249408  10.073640174753717   5.002978606422314 
  6.237760829655144   3.584864600030702   5.002978606422314 
 11.202235609650382   3.589909550680336   5.002978606422314 
 -2.489368780163099   5.748851989756137  11.673616748318732 
 -3.734078536551044  12.216789468696390  11.673616748318732 
  1.244760229222255  12.216642644093877  11.673616748318732 
  2.489665476563432   5.748828461088300  11.673616748318732 
  6.223396843882934  12.216642644093877  11.673616748318732 
 -6.229959478793912  12.200542166986351   5.002978606422314 
  7.468009736493509   5.748832257811490  11.673616748318732 
 -1.238197594304324  12.200542166986351   5.002978606422314 
 -0.060737965323571   5.759161021885962   5.002978606422314 
 -1.260910889493401   7.914224735646260   5.002978606422314 
  5.165017741998944   5.856519381382012   5.002978606422314 
  3.734078536547336  12.221104196357434   5.002978606422314 
  9.974700120077307   5.751395729340643   5.002978606422314 
 -3.734078536549679   7.904763789109580  11.673616748318732 
  2.489322754631179   1.437453964843453  11.673616748318732 
  6.223253954573324   7.904812515112391  11.673616748318732 
  7.468269854825279   1.437245314340446  11.673616748318732 
 12.446878416210861   1.437218608830940  11.673616748318732 
  3.734078536549917   5.030366245922021   5.002978606422314 
  1.213959251084765   0.680381207228517   5.002978606422314 
  5.029666667209492   7.308480377632982   5.002978606422314 
  6.254197822015483   0.680381207228517   5.002978606422314 
  9.969603772774924   7.188500550424989   5.002978606422314 
 11.202235609649751   0.718623749417456   5.002978606422314 
 -3.734078536549858   9.342108742426666  11.673616748318732 
  1.244524872253307   9.343123794138068  11.673616748318732 
  2.488517024277769   2.873535756435369  11.673616748318732 
  6.223632200848834   9.343123794138068  11.673616748318732 
  7.469464520874546   2.873740142343830  11.673616748318732 
 12.446366180387999   2.874019781439639  11.673616748318732 
 -1.252683214038906   9.351422354180750   5.002978606422314 
 -0.033710682226194   2.855032126211773   5.002978606422314 
  5.059189182000816   2.769296946072780   5.002978606422314 
  3.734078536549404   9.381034485341237   5.002978606422314 
  8.720840287140438   9.351422354180738   5.002978606422314 
  9.968326181074396   2.865539634934096   5.002978606422314 
 -4.978959464941801  11.497746984774869  11.673616748318732 
  0.000306611528196  11.498157012929887  11.673616748318732 
  1.243427784861625   5.030093579061433  11.673616748318732 
  6.224729288237718   5.030093579061433  11.673616748318732 
  4.978640970127934  11.498704543035979  11.673616748318732 
 11.202235609647493   5.030012201424036  11.673616748318732 
 -1.293178655773227   5.022871443488477   5.002978606422314 
 -2.485315050913514  11.486403322674537   5.002978606422314 
  2.491749554189783  11.511796385057515   5.002978606422314 
  7.462549221056352  11.501217685565832   5.002978606422314 
  8.761335728873613   5.022871443488477   5.002978606422314 
 -0.000683481308964   7.186632102293457  11.673616748318732 
  1.243897771580425   0.717970754447668  11.673616748318732 
  4.979167775965623   7.187469402269043  11.673616748318732 
  6.224259301520236   0.717970754447681  11.673616748318732 
  9.957838594603967   7.186191112576553  11.673616748318732 
 -2.501446699676639   7.188500550424989   5.002978606422314 
 11.202235609649751   0.718623749417457  11.673616748318732 
  3.734078536549101   0.676000331800692   5.002978606422314 
  2.438490405888464   7.308480377632982   5.002978606422314 
  7.505070035552498   7.207549202985242   5.002978606422314 
  8.725997198714667   0.713762717773742   5.002978606422314 
  2.488989297133886   7.187469402269043  11.673616748318732 
 13.678474020583639   0.713762717773742   5.002978606422314 
 -1.244800593109640   9.342388129926414  11.673616748318732 
 -0.001307447776818   2.873740142343830  11.673616748318732 
  4.979640048822124   2.873535756435369  11.673616748318732 
  3.734078536548747   9.343618453076841  11.673616748318732 
  8.712957666211164   9.342388129926414  11.673616748318732 
  9.958105038911208   2.874019781439639  11.673616748318732 
 -3.734078536549858   9.342108742426664   5.002978606422314 
  1.226940629690961   9.387846087050711   5.002978606422314 