 B N 
 1.0
 14.936314146199660   0.000000000000000   0.000000000000000
 -7.468157073099825  12.935227489513863   0.000000000000000
  0.000000000000001   0.000000000000001  13.341276283792837
 B N 
 145 143
Cartesian
  1.237250791716188   0.708463395237884   5.002978606422314 
  4.978771382066589   7.295284299597502   5.002978606422314 
  6.224259502337874   0.712447181887776   5.002978606422314 
  9.963289465899326   7.188637049798658   5.002978606422314 
 11.204149512024559   0.719728741468762   5.002978606422314 
 -3.734186433369850   9.342046448168608  11.673616748318732 
  1.244930984607660   9.341765457992789  11.673616748318732 
  2.490037511985773   2.875029353388797  11.673616748318732 
  6.223327372432091   9.341277071063578  11.673616748318732 
  7.467505252147403   2.875029353388797  11.673616748318732 
 12.446928455166372   2.874682429716898  11.673616748318732 
 -1.246951254841762   9.343412635658481   5.002978606422314 
 -0.010331679003939   2.868530000015596   5.002978606422314 
  4.978771382066543   2.874278152575493   5.002978606422314 
  3.717231120381933   9.381032257562680   5.002978606422314 
  8.717801345627986   9.345885754332087   5.002978606422314 
  9.967874443137129   2.868530000015596   5.002978606422314 
 -4.978719761258488  11.497950187391561  11.673616748318732 
 -0.000051620807989  11.497950187391561  11.673616748318732 
  1.245481521620274   5.030663561566057  11.673616748318732 
  6.222864735656818   5.030712362747129  11.673616748318732 
  4.978771382066591  11.497392254912212  11.673616748318732 
 11.201939954184454   5.030586873165536  11.673616748318732 
 -1.257212997247769   5.029001415364259   5.002978606422314 
 -2.489385691033239  11.495372204215329   5.002978606422314 
  2.484307593102632  11.509505175416287   5.002978606422314 
  3.639641232851963   4.975842843210465   5.002978606422314 
  7.473235171030550  11.509505175416287   5.002978606422314 
  8.754982379612892   5.025494778743663   5.002978606422314 
  0.000416362585995   7.186202901888848  11.673616748318732 
  1.245031742046968   0.718769480939411  11.673616748318732 
  4.978771382066589   7.185545260524174  11.673616748318732 
  6.223286004088207   0.719001626136875  11.673616748318732 
  9.957126401547093   7.186202901888848  11.673616748318732 
 -2.489385691033234   7.188935985042879   5.002978606422314 
 11.202073288735425   0.718530033393875  11.673616748318732 
  3.733283261795209   0.712447181887776   5.002978606422314 
  2.489197897672944   7.186345916721520   5.002978606422314 
  7.468344866460131   7.186345916721520   5.002978606422314 
  8.720291972416984   0.708463395237884   5.002978606422314 
  2.489937760188526   7.185918756898977  11.673616748318732 
 13.689707398308169   0.719728741468762   5.002978606422314 
 -1.244584948696630   9.342046448168608  11.673616748318732 
  0.000508994104763   2.874788865553111  11.673616748318732 
  4.978771382066528   2.875132472220580  11.673616748318732 
  3.734215391701091   9.341277071063578  11.673616748318732 
  8.712611779525414   9.341765457992789  11.673616748318732 
  9.957033770028412   2.874788865553111  11.673616748318732 
 -3.731820127224719   9.343412635658481   5.002978606422314 
  1.239741418505086   9.345885754332087   5.002978606422314 
  2.464100646204940   2.840442949712087   5.002978606422314 
  6.240311643751245   9.381032257562680   5.002978606422314 
  7.493442117928234   2.840442949712087   5.002978606422314 
 12.446928455166365   2.872285013567133   5.002978606422314 
 -1.244397190051278   5.030586873165536  11.673616748318732 
 -2.489385691033238  11.498104579195084  11.673616748318732 
  2.489342449968344  11.497613631913486  11.673616748318732 
  3.734678028476358   5.030712362747129  11.673616748318732 
  7.468200314164839  11.497613631913486  11.673616748318732 
 -4.976434420422480  11.496630745244701   5.002978606422314 
  8.712061242512902   5.030663561566057  11.673616748318732 
 -0.002336961643985  11.496630745244701   5.002978606422314 
  1.202560384520284   5.025494778743663   5.002978606422314 
 -0.005746701766239   7.188637049798658   5.002978606422314 
  6.317901531281214   4.975842843210465   5.002978606422314 
  4.978771382066598  11.509909985987225   5.002978606422314 
 11.214755761380946   5.029001415364259   5.002978606422314 
 -2.489385691033240   7.186297100749171  11.673616748318732 
  3.734256760044863   0.719001626136875  11.673616748318732 
  7.467605003944535   7.185918756898977  11.673616748318732 
  8.712511022086204   0.718769480939411  11.673616748318732 
 13.691783621597317   0.718530033393875  11.673616748318732 
  0.000091034894308   1.437632252876620   1.668839667295589 
  3.736185614716480   7.902903347750591   1.671067203210993 
  4.978771382066489   1.439960394374998   1.670199305312041 
  8.710500482160878   7.903504795821799   1.670199305312041 
  9.957451729238773   1.437632252876620   1.668839667295589 
 -4.979805359105638  10.060364228648377   8.337224597897460 
  0.001033977039055  10.060364228648377   8.337224597897460 
  1.245728313404652   3.593716574751089   8.336107075686714 
  4.978771382066538  10.059536836516342   8.336107075686714 
  6.222822179130000   3.595922478227829   8.334890009633636 
 11.201856885428219   3.593005208597434   8.337117545549040 
 -2.489385691033300  10.060732491844131   1.668535235295540 
 -1.244314121295135   3.593005208597433   1.668839667295589 
  3.734720585003070   3.595922478227828   1.671067203210993 
  2.490720286833819  10.059766124740367   1.669439528425464 
  7.466822477299255  10.059766124740367   1.669439528425464 
  8.711814450728419   3.593716574751088   1.669850137157914 
 -6.223952324407557  12.216885542929369   8.337223655578754 
 -1.244494782279916  12.217683322077079   8.337224597897460 
  0.001504196361516   5.748317385024319   8.336517684419164 
  4.978771382066590   5.748989995339477   8.317881324446816 
  3.734366225877102  12.216332524544452   8.337117545549040 
  9.956038567771571   5.748317385024319   8.336517684419164 
 -2.489385691033242   5.748426389673556   1.668733557265873 
 -3.734276599786667  12.217683322077079   1.668732614947155 
  1.245180942341080  12.216885542929369   1.668733557265873 
  2.492134817653014   5.748144160040100   1.671067203210993 
  6.223176538255990  12.216332524544452   1.668839667295589 
  7.465407946480056   5.748144160040100   1.671067203210993 
 -1.243856931714313   7.904149924806915   8.337224597897460 
  0.000091034894308   1.437632252876620   8.337117545549040 
  3.736185614716481   7.902903347750592   8.334890009633636 
  4.978771382066490   1.439960394374999   8.335757907532587 
  8.710500482160878   7.903504795821799   8.335757907532587 
 -3.734914450352258   7.904149924806914   1.668732614947155 
  9.957451729238773   1.437632252876620   8.337117545549040 
  2.489555291594231   1.438886476253834   1.669439528425464 
  1.247042281972105   7.903504795821799   1.670199305312041 
  6.221357149416593   7.902903347750591   1.671067203210993 
  7.467987472538851   1.438886476253834   1.669439528425464 
  1.247042281972105   7.903504795821799   8.335757907532587 
 12.446928455166319   1.437247498834911   1.668668870937713 
 -2.489385691033300  10.060732491844131   8.337421977549088 
 -1.244314121295135   3.593005208597434   8.337117545549040 
  3.734720585003070   3.595922478227829   8.334890009633636 
  2.490720286833819  10.059766124740367   8.336517684419164 
  7.466822477299256  10.059766124740367   8.336517684419164 
  8.711814450728419   3.593716574751089   8.336107075686714 
 -4.979805359105639  10.060364228648377   1.668732614947155 
  0.001033977039055  10.060364228648377   1.668732614947155 
  1.245728313404652   3.593716574751088   1.669850137157914 
  4.978771382066538  10.059536836516342   1.669850137157914 
  6.222822179129999   3.595922478227828   1.671067203210993 
 11.201856885428219   3.593005208597433   1.668839667295589 
 -2.489385691033241   5.748426389673557   8.337223655578754 
 -3.734276599786666  12.217683322077079   8.337224597897460 
  1.245180942341081  12.216885542929369   8.337223655578754 
  2.492134817653015   5.748144160040101   8.334890009633636 
  6.223176538255990  12.216332524544452   8.337117545549040 
 -6.223952324407558  12.216885542929369   1.668733557265873 
  7.465407946480057   5.748144160040101   8.334890009633636 
 -1.244494782279917  12.217683322077079   1.668732614947155 
  0.001504196361516   5.748317385024318   1.669439528425464 
 -1.243856931714314   7.904149924806914   1.668732614947155 
  4.978771382066589   5.748989995339476   1.688075888397812 
  3.734366225877102  12.216332524544452   1.668839667295589 
  9.956038567771571   5.748317385024318   1.669439528425464 
 -3.734914450352257   7.904149924806915   8.337224597897460 
  2.489555291594232   1.438886476253835   8.336517684419164 
  6.221357149416594   7.902903347750592   8.334890009633636 
  7.467987472538852   1.438886476253835   8.336517684419164 
 12.446928455166319   1.437247498834912   8.337288341906914 
  4.978771382066589   5.748989995339477   5.002978606422314 
  1.244426320918845   0.718643821228194   1.666348800179820 
  4.978771382066589   7.187281886061847   1.657078474960050 
  6.223557338497979   0.718826471976348   1.666290499217840 
  9.957413756704568   7.186055496477336   1.666290499217840 
 11.202369466375089   0.718701031633862   1.666320196961979 
 -3.734189029770630   9.342044949135916   8.339436743329257 
  1.244914963859953   9.342088017564835   8.339666713626773 
  2.488977643603494   2.874355672634838   8.340605119229926 
  6.223380862887922   9.342531784384276   8.340605119229926 
  7.468565120529679   2.874355672634838   8.340605119229926 
 12.446928455166372   2.874340433236920   8.339637015882648 
 -1.244582352295835   9.342044949135916   1.666520469515371 
 -0.000351230329960   2.874292214744151   1.666109871820906 
  4.978771382066535   2.874678403375737   1.665808358429553 
  3.734161901245259   9.342531784384276   1.665352093614689 
  8.712627800273122   9.342088017564835   1.666290499217840 
  9.957893994463149   2.874292214744151   1.666109871820906 
 -4.978938956679313  11.498076739926779   8.339466640344421 
  0.000167574612836  11.498076739926779   8.339466640344421 
  1.244368162782165   5.030082528999317   8.340605119229926 
  6.224368697489306   5.029844049978291   8.348878737884579 
  4.978771382066599  11.498385556530113   8.339847341023722 
 11.202351489250653   5.030125392944189   8.339608412664807 
 -1.244808725117478   5.030125392944188   1.666348800179820 
 -2.489385691033232  11.498107577260473   1.666520469515371 
  2.489536336030275  11.498200771846033   1.666348800179820 
  3.733174066643871   5.029844049978291   1.657078474960050 
  7.468006428102907  11.498200771846033   1.666348800179820 
  8.713174601351012   5.030082528999317   1.665352093614689 
  0.000129007428507   7.186055496477337   8.339666713626773 
  1.244426320918845   0.718643821228195   8.339608412664807 
  4.978771382066590   7.187281886061847   8.348878737884579 
  6.223557338497980   0.718826471976348   8.339666713626773 
  9.957413756704568   7.186055496477337   8.339666713626773 
 -2.489385691033241   7.186043995678733   1.666490572500206 
 11.202369466375089   0.718701031633862   8.339637015882648 
  3.733985425635087   0.718826471976348   1.666290499217840 
  2.489544525033836   7.186145791321391   1.665808358429553 
  7.467998239099236   7.186145791321391   1.665808358429553 
  8.713116443214343   0.718643821228194   1.666348800179820 
  2.489544525033837   7.186145791321392   8.340148854415075 
 13.691487443957651   0.718701031633862   1.666320196961979 
 -1.244582352295834   9.342044949135916   8.339436743329257 
 -0.000351230329959   2.874292214744152   8.339847341023722 
  4.978771382066536   2.874678403375738   8.340148854415075 
  3.734161901245260   9.342531784384276   8.340605119229926 
  8.712627800273122   9.342088017564835   8.339666713626773 
  9.957893994463149   2.874292214744152   8.339847341023722 
 -3.734189029770630   9.342044949135916   1.666520469515371 
  1.244914963859952   9.342088017564835   1.666290499217840 
  2.488977643603494   2.874355672634837   1.665352093614689 
  6.223380862887921   9.342531784384276   1.665352093614689 
  7.468565120529679   2.874355672634837   1.665352093614689 
 12.446928455166372   2.874340433236919   1.666320196961979 
 -1.244808725117477   5.030125392944189   8.339608412664807 
 -2.489385691033231  11.498107577260473   8.339436743329257 
  2.489536336030275  11.498200771846033   8.339608412664807 
  3.733174066643872   5.029844049978291   8.348878737884579 
  7.468006428102908  11.498200771846033   8.339608412664807 
 -4.978938956679314  11.498076739926779   1.666490572500206 
  8.713174601351012   5.030082528999317   8.340605119229926 
  0.000167574612836  11.498076739926779   1.666490572500206 
  1.244368162782165   5.030082528999317   1.665352093614689 
  0.000129007428506   7.186055496477336   1.666290499217840 
  6.224368697489306   5.029844049978291   1.657078474960050 
  4.978771382066598  11.498385556530113   1.666109871820906 
 11.202351489250653   5.030125392944188   1.666348800179820 
 -2.489385691033240   7.186043995678734   8.339466640344421 
  3.733985425635088   0.718826471976348   8.339666713626773 
  7.467998239099237   7.186145791321392   8.340148854415075 
  8.713116443214343   0.718643821228195   8.339608412664807 
 13.691487443957651   0.718701031633862   8.339637015882648 
 -0.006016550638053   1.431602763529350   5.002978606422314 
  3.704672037168003   7.973056969542120   5.002978606422314 
  4.978771382066482   1.425505717544718   5.002978606422314 
  8.723018599499394   7.910732134236947   5.002978606422314 
  9.963559314771137   1.431602763529350   5.002978606422314 
 -4.978707457377867  10.060756896493970  11.673616748318732 
 -0.000063924688701  10.060756896493970  11.673616748318732 
  1.244714112049452   3.593131025325652  11.673616748318732 
  4.978771382066552  10.060707935367221  11.673616748318732 
  6.223429934754017   3.593033826317637  11.673616748318732 
 11.202238314426577   3.593168720027638  11.673616748318732 
 -2.489385691033300  10.060732491844131   5.002978606422314 
 -1.252589605007906   3.590730629044272   5.002978606422314 
  3.689722555138363   3.533554108610951   5.002978606422314 
  2.471553481730112  10.087042680124847   5.002978606422314 
  7.485989282402979  10.087042680124847   5.002978606422314 
  8.736211491647497   3.579630936609036   5.002978606422314 
 -6.223404683912471  12.216569362542112  11.673616748318732 
 -1.244703672814256  12.216536177367177  11.673616748318732 
 -0.000055135122586   5.749055129334669  11.673616748318732 
  4.978771382066590   5.748989995339477  11.673616748318732 
  3.734033906325552  12.216581096031684  11.673616748318732 
  9.957597899255674   5.749055129334669  11.673616748318732 
 -2.489385691033234   5.752320963298816   5.002978606422314 
 -3.732582242232199  12.210413796797262   5.002978606422314 
  1.241808142644686  12.214938256116731   5.002978606422314 
  2.415623210239828   5.740358907865451   5.002978606422314 
  6.225344436436393  12.224636593444899   5.002978606422314 
  7.541919553893244   5.740358907865451   5.002978606422314 
 -1.244745942907730   7.904904401671228  11.673616748318732 
  0.000041925447480   1.437220169959202  11.673616748318732 
  3.733987846591572   7.904874005515381  11.673616748318732 
  4.978771382066490   1.437119652095000  11.673616748318732 
  8.712960637140952   7.904925166961814  11.673616748318732 
 -3.729466035563732   7.909252044132086   5.002978606422314 
  9.957500838685590   1.437220169959202  11.673616748318732 
  2.475516504255384   1.408649258432383   5.002978606422314 
  1.234524164633578   7.910732134236947   5.002978606422314 
  6.252870726965073   7.973056969542120   5.002978606422314 
  7.482026259877699   1.408649258432383   5.002978606422314 
  1.244582126992013   7.904925166961814  11.673616748318732 
 12.446928455166319   1.437247498834912   5.002978606422314 
 -2.489385691033299  10.060732491844133  11.673616748318732 
 -1.244695550293507   3.593168720027638  11.673616748318732 
  3.734112829379055   3.593033826317637  11.673616748318732 
  2.489301715777511  10.060747673263347  11.673616748318732 
  7.468241048355567  10.060747673263347  11.673616748318732 
  8.712828652083633   3.593131025325652  11.673616748318732 
 -4.972662586762648  10.062531634603024   5.002978606422314 
 -0.006108795303938  10.062531634603024   5.002978606422314 
  1.221331272485572   3.579630936609036   5.002978606422314 
  4.978771382066545  10.087708112800462   5.002978606422314 
  6.267820208994708   3.533554108610951   5.002978606422314 
 11.210132369140975   3.590730629044272   5.002978606422314 
 -2.489385691033241   5.749058750448071  11.673616748318732 
 -3.734067709252312  12.216536177367177  11.673616748318732 
  1.244633301846010  12.216569362542112  11.673616748318732 
  2.489329293904091   5.749062154185506  11.673616748318732 
  6.223508857807525  12.216581096031684  11.673616748318732 
 -6.220579524711164  12.214938256116731   5.002978606422314 
  7.468213470228984   5.749062154185506  11.673616748318732 
 -1.246189139834368  12.210413796797262   5.002978606422314 
 -0.031701396081055   5.751278047461289   5.002978606422314 
 -1.249305346502854   7.909252044132086   5.002978606422314 
  3.732198327696701  12.224636593444899   5.002978606422314 
  9.989244160214128   5.751278047461289   5.002978606422314 
 -3.734025439158840   7.904904401671228  11.673616748318732 
  2.489414531166441   1.437167183420507  11.673616748318732 
  6.223554917541503   7.904874005515381  11.673616748318732 
  7.468128232966645   1.437167183420507  11.673616748318732 
 12.446928455166319   1.437247498834912  11.673616748318732 
Generated by cif2cell 2.0.0.  :  Failed to get author information, No journal information. Species order: B N 
 1.0
 14.936314146199660   0.000000000000000   0.000000000000000
 -7.468157073099825  12.935227489513863   0.000000000000000
  0.000000000000001   0.000000000000001  13.341276283792837
 B N 
 145 143
Cartesian
  1.237250791716188   0.708463395237884   5.002978606422314 
  4.978771382066589   7.295284299597502   5.002978606422314 
  6.224259502337874   0.712447181887776   5.002978606422314 
  9.963289465899326   7.188637049798658   5.002978606422314 
 11.204149512024559   0.719728741468762   5.002978606422314 
 -3.734186433369850   9.342046448168608  11.673616748318732 
  1.244930984607660   9.341765457992789  11.673616748318732 
  2.490037511985773   2.875029353388797  11.673616748318732 
  6.223327372432091   9.341277071063578  11.673616748318732 
  7.467505252147403   2.875029353388797  11.673616748318732 
 12.446928455166372   2.874682429716898  11.673616748318732 
 -1.246951254841762   9.343412635658481   5.002978606422314 
 -0.010331679003939   2.868530000015596   5.002978606422314 
  4.978771382066543   2.874278152575493   5.002978606422314 
  3.717231120381933   9.381032257562680   5.002978606422314 
  8.717801345627986   9.345885754332087   5.002978606422314 
  9.967874443137129   2.868530000015596   5.002978606422314 
 -4.978719761258488  11.497950187391561  11.673616748318732 
 -0.000051620807989  11.497950187391561  11.673616748318732 
  1.245481521620274   5.030663561566057  11.673616748318732 
  6.222864735656818   5.030712362747129  11.673616748318732 
  4.978771382066591  11.497392254912212  11.673616748318732 
 11.201939954184454   5.030586873165536  11.673616748318732 
 -1.257212997247769   5.029001415364259   5.002978606422314 
 -2.489385691033239  11.495372204215329   5.002978606422314 
  2.484307593102632  11.509505175416287   5.002978606422314 
  3.639641232851963   4.975842843210465   5.002978606422314 
  7.473235171030550  11.509505175416287   5.002978606422314 
  8.754982379612892   5.025494778743663   5.002978606422314 
  0.000416362585995   7.186202901888848  11.673616748318732 
  1.245031742046968   0.718769480939411  11.673616748318732 
  4.978771382066589   7.185545260524174  11.673616748318732 
  6.223286004088207   0.719001626136875  11.673616748318732 
  9.957126401547093   7.186202901888848  11.673616748318732 
 -2.489385691033234   7.188935985042879   5.002978606422314 
 11.202073288735425   0.718530033393875  11.673616748318732 
  3.733283261795209   0.712447181887776   5.002978606422314 
  2.489197897672944   7.186345916721520   5.002978606422314 
  7.468344866460131   7.186345916721520   5.002978606422314 
  8.720291972416984   0.708463395237884   5.002978606422314 
  2.489937760188526   7.185918756898977  11.673616748318732 
 13.689707398308169   0.719728741468762   5.002978606422314 
 -1.244584948696630   9.342046448168608  11.673616748318732 
  0.000508994104763   2.874788865553111  11.673616748318732 
  4.978771382066528   2.875132472220580  11.673616748318732 
  3.734215391701091   9.341277071063578  11.673616748318732 
  8.712611779525414   9.341765457992789  11.673616748318732 
  9.957033770028412   2.874788865553111  11.673616748318732 
 -3.731820127224719   9.343412635658481   5.002978606422314 
  1.239741418505086   9.345885754332087   5.002978606422314 
  2.464100646204940   2.840442949712087   5.002978606422314 
  6.240311643751245   9.381032257562680   5.002978606422314 
  7.493442117928234   2.840442949712087   5.002978606422314 
 12.446928455166365   2.872285013567133   5.002978606422314 
 -1.244397190051278   5.030586873165536  11.673616748318732 
 -2.489385691033238  11.498104579195084  11.673616748318732 
  2.489342449968344  11.497613631913486  11.673616748318732 
  3.734678028476358   5.030712362747129  11.673616748318732 
  7.468200314164839  11.497613631913486  11.673616748318732 
 -4.976434420422480  11.496630745244701   5.002978606422314 
  8.712061242512902   5.030663561566057  11.673616748318732 
 -0.002336961643985  11.496630745244701   5.002978606422314 
  1.202560384520284   5.025494778743663   5.002978606422314 
 -0.005746701766239   7.188637049798658   5.002978606422314 
  6.317901531281214   4.975842843210465   5.002978606422314 
  4.978771382066598  11.509909985987225   5.002978606422314 
 11.214755761380946   5.029001415364259   5.002978606422314 
 -2.489385691033240   7.186297100749171  11.673616748318732 
  3.734256760044863   0.719001626136875  11.673616748318732 
  7.467605003944535   7.185918756898977  11.673616748318732 
  8.712511022086204   0.718769480939411  11.673616748318732 
 13.691783621597317   0.718530033393875  11.673616748318732 
  0.000091034894308   1.437632252876620   1.668839667295589 
  3.736185614716480   7.902903347750591   1.671067203210993 
  4.978771382066489   1.439960394374998   1.670199305312041 
  8.710500482160878   7.903504795821799   1.670199305312041 
  9.957451729238773   1.437632252876620   1.668839667295589 
 -4.979805359105638  10.060364228648377   8.337224597897460 
  0.001033977039055  10.060364228648377   8.337224597897460 
  1.245728313404652   3.593716574751089   8.336107075686714 
  4.978771382066538  10.059536836516342   8.336107075686714 
  6.222822179130000   3.595922478227829   8.334890009633636 
 11.201856885428219   3.593005208597434   8.337117545549040 
 -2.489385691033300  10.060732491844131   1.668535235295540 
 -1.244314121295135   3.593005208597433   1.668839667295589 
  3.734720585003070   3.595922478227828   1.671067203210993 
  2.490720286833819  10.059766124740367   1.669439528425464 
  7.466822477299255  10.059766124740367   1.669439528425464 
  8.711814450728419   3.593716574751088   1.669850137157914 
 -6.223952324407557  12.216885542929369   8.337223655578754 
 -1.244494782279916  12.217683322077079   8.337224597897460 
  0.001504196361516   5.748317385024319   8.336517684419164 
  4.978771382066590   5.748989995339477   8.317881324446816 
  3.734366225877102  12.216332524544452   8.337117545549040 
  9.956038567771571   5.748317385024319   8.336517684419164 
 -2.489385691033242   5.748426389673556   1.668733557265873 
 -3.734276599786667  12.217683322077079   1.668732614947155 
  1.245180942341080  12.216885542929369   1.668733557265873 
  2.492134817653014   5.748144160040100   1.671067203210993 
  6.223176538255990  12.216332524544452   1.668839667295589 
  7.465407946480056   5.748144160040100   1.671067203210993 
 -1.243856931714313   7.904149924806915   8.337224597897460 
  0.000091034894308   1.437632252876620   8.337117545549040 
  3.736185614716481   7.902903347750592   8.334890009633636 
  4.978771382066490   1.439960394374999   8.335757907532587 
  8.710500482160878   7.903504795821799   8.335757907532587 
 -3.734914450352258   7.904149924806914   1.668732614947155 
  9.957451729238773   1.437632252876620   8.337117545549040 
  2.489555291594231   1.438886476253834   1.669439528425464 
  1.247042281972105   7.903504795821799   1.670199305312041 
  6.221357149416593   7.902903347750591   1.671067203210993 
  7.467987472538851   1.438886476253834   1.669439528425464 
  1.247042281972105   7.903504795821799   8.335757907532587 
 12.446928455166319   1.437247498834911   1.668668870937713 
 -2.489385691033300  10.060732491844131   8.337421977549088 
 -1.244314121295135   3.593005208597434   8.337117545549040 
  3.734720585003070   3.595922478227829   8.334890009633636 
  2.490720286833819  10.059766124740367   8.336517684419164 
  7.466822477299256  10.059766124740367   8.336517684419164 
  8.711814450728419   3.593716574751089   8.336107075686714 
 -4.979805359105639  10.060364228648377   1.668732614947155 
  0.001033977039055  10.060364228648377   1.668732614947155 
  1.245728313404652   3.593716574751088   1.669850137157914 
  4.978771382066538  10.059536836516342   1.669850137157914 
  6.222822179129999   3.595922478227828   1.671067203210993 
 11.201856885428219   3.593005208597433   1.668839667295589 
 -2.489385691033241   5.748426389673557   8.337223655578754 
 -3.734276599786666  12.217683322077079   8.337224597897460 
  1.245180942341081  12.216885542929369   8.337223655578754 
  2.492134817653015   5.748144160040101   8.334890009633636 
  6.223176538255990  12.216332524544452   8.337117545549040 
 -6.223952324407558  12.216885542929369   1.668733557265873 
  7.465407946480057   5.748144160040101   8.334890009633636 
 -1.244494782279917  12.217683322077079   1.668732614947155 
  0.001504196361516   5.748317385024318   1.669439528425464 
 -1.243856931714314   7.904149924806914   1.668732614947155 
  4.978771382066589   5.748989995339476   1.688075888397812 
  3.734366225877102  12.216332524544452   1.668839667295589 
  9.956038567771571   5.748317385024318   1.669439528425464 
 -3.734914450352257   7.904149924806915   8.337224597897460 
  2.489555291594232   1.438886476253835   8.336517684419164 
  6.221357149416594   7.902903347750592   8.334890009633636 
  7.467987472538852   1.438886476253835   8.336517684419164 
 12.446928455166319   1.437247498834912   8.337288341906914 
  4.978771382066589   5.748989995339477   5.002978606422314 
  1.244426320918845   0.718643821228194   1.666348800179820 
  4.978771382066589   7.187281886061847   1.657078474960050 
  6.223557338497979   0.718826471976348   1.666290499217840 
  9.957413756704568   7.186055496477336   1.666290499217840 
 11.202369466375089   0.718701031633862   1.666320196961979 
 -3.734189029770630   9.342044949135916   8.339436743329257 
  1.244914963859953   9.342088017564835   8.339666713626773 
  2.488977643603494   2.874355672634838   8.340605119229926 
  6.223380862887922   9.342531784384276   8.340605119229926 
  7.468565120529679   2.874355672634838   8.340605119229926 
 12.446928455166372   2.874340433236920   8.339637015882648 
 -1.244582352295835   9.342044949135916   1.666520469515371 
 -0.000351230329960   2.874292214744151   1.666109871820906 
  4.978771382066535   2.874678403375737   1.665808358429553 
  3.734161901245259   9.342531784384276   1.665352093614689 
  8.712627800273122   9.342088017564835   1.666290499217840 
  9.957893994463149   2.874292214744151   1.666109871820906 
 -4.978938956679313  11.498076739926779   8.339466640344421 
  0.000167574612836  11.498076739926779   8.339466640344421 
  1.244368162782165   5.030082528999317   8.340605119229926 
  6.224368697489306   5.029844049978291   8.348878737884579 
  4.978771382066599  11.498385556530113   8.339847341023722 
 11.202351489250653   5.030125392944189   8.339608412664807 
 -1.244808725117478   5.030125392944188   1.666348800179820 
 -2.489385691033232  11.498107577260473   1.666520469515371 
  2.489536336030275  11.498200771846033   1.666348800179820 
  3.733174066643871   5.029844049978291   1.657078474960050 
  7.468006428102907  11.498200771846033   1.666348800179820 
  8.713174601351012   5.030082528999317   1.665352093614689 
  0.000129007428507   7.186055496477337   8.339666713626773 
  1.244426320918845   0.718643821228195   8.339608412664807 
  4.978771382066590   7.187281886061847   8.348878737884579 
  6.223557338497980   0.718826471976348   8.339666713626773 
  9.957413756704568   7.186055496477337   8.339666713626773 
 -2.489385691033241   7.186043995678733   1.666490572500206 
 11.202369466375089   0.718701031633862   8.339637015882648 
  3.733985425635087   0.718826471976348   1.666290499217840 
  2.489544525033836   7.186145791321391   1.665808358429553 
  7.467998239099236   7.186145791321391   1.665808358429553 
  8.713116443214343   0.718643821228194   1.666348800179820 
  2.489544525033837   7.186145791321392   8.340148854415075 
 13.691487443957651   0.718701031633862   1.666320196961979 
 -1.244582352295834   9.342044949135916   8.339436743329257 
 -0.000351230329959   2.874292214744152   8.339847341023722 
  4.978771382066536   2.874678403375738   8.340148854415075 
  3.734161901245260   9.342531784384276   8.340605119229926 
  8.712627800273122   9.342088017564835   8.339666713626773 
  9.957893994463149   2.874292214744152   8.339847341023722 
 -3.734189029770630   9.342044949135916   1.666520469515371 
  1.244914963859952   9.342088017564835   1.666290499217840 