Species order: X N B                    
   2.51242800000000     
     5.9449720136058266    0.0000000000000000    0.0000000000000000
    -2.9724860068029120    5.1484967885702053   -0.0000000000000001
     0.0000000000000000    0.0000000000000009    5.3101128803662583
   N    B 
   143   145
Direct
  0.1110940429020499  0.0555571072724291  0.1249017533805310
  0.6111514811737321  0.5556362956807926  0.1242068929322069
  0.4444585143707122  0.0555712276849458  0.1248973834116664
  0.9444287723150541  0.5555414856292876  0.1248973834116664
  0.7777897268859748  0.0555615301096552  0.1248996094163977
  0.1111012476138065  0.7222172904735676  0.6250853790847671
  0.4444585143707122  0.7222206200191023  0.6251026165883333
  0.2777450731378369  0.2222114512454435  0.6251729551064175
  0.7777885487545564  0.7222549268621630  0.6251729551064175
  0.6111330447742781  0.2222114512454435  0.6251729551064175
  0.9444384698903446  0.2222102731140252  0.6251003905836021
  0.2777827095264325  0.7222172904735676  0.1249146209152330
  0.1110797575186477  0.2222065454259882  0.1248838444223601
  0.4444515338329423  0.2222364009992202  0.1248612443813337
  0.6111330447742781  0.7222549268621630  0.1248270448935825
  0.9444287723150541  0.7222206200191023  0.1248973834116664
  0.7777934545740117  0.2222065454259882  0.1248838444223601
  0.1111036315945840  0.8888963684054163  0.6250876200259280
  0.4444594034775034  0.8888963684054163  0.6250876200259280
  0.2777450731378369  0.3888669552257221  0.6251729551064175
  0.6111514811737321  0.3888485188262680  0.6257931070677928
  0.7777934545740117  0.8889202424813523  0.6251161555776400
  0.9444428927275704  0.3888702689629494  0.6250982466194689
  0.1110940429020499  0.3888702689629494  0.1249017533805310
  0.2777827095264325  0.8888987523861935  0.1249146209152330
  0.6111297310370507  0.8889059570979497  0.1249017533805310
  0.4443637043192074  0.3888485188262680  0.1242068929322069
  0.9444428927275704  0.8889059570979497  0.1249017533805310
  0.7777885487545564  0.3888669552257221  0.1248270448935825
  0.2777793799808980  0.5555414856292876  0.6251026165883333
  0.1110940429020499  0.0555571072724291  0.6250982466194689
  0.6111514811737321  0.5556362956807926  0.6257931070677928
  0.4444585143707122  0.0555712276849458  0.6251026165883333
  0.9444287723150541  0.5555414856292876  0.6251026165883333
  0.1111036315945840  0.5555405965224969  0.1249123799740720
  0.7777897268859748  0.0555615301096552  0.6251003905836021
  0.2777793799808980  0.0555712276849458  0.1248973834116664
  0.4444515338329423  0.5555484661670578  0.1248612443813337
  0.7777635990007796  0.5555484661670578  0.1248612443813337
  0.6111297310370507  0.0555571072724291  0.1249017533805310
  0.4444515338329423  0.5555484661670578  0.6251387556186662
  0.9444384698903446  0.0555615301096552  0.1248996094163977
  0.2777827095264325  0.7222172904735676  0.6250853790847671
  0.1110797575186477  0.2222065454259882  0.6251161555776400
  0.4444515338329423  0.2222364009992202  0.6251387556186662
  0.6111330447742781  0.7222549268621630  0.6251729551064175
  0.9444287723150541  0.7222206200191023  0.6251026165883333
  0.7777934545740117  0.2222065454259882  0.6251161555776400
  0.1111012476138065  0.7222172904735676  0.1249146209152330
  0.4444585143707122  0.7222206200191023  0.1248973834116664
  0.2777450731378369  0.2222114512454435  0.1248270448935825
  0.7777885487545564  0.7222549268621630  0.1248270448935825
  0.6111330447742781  0.2222114512454435  0.1248270448935825
  0.9444384698903446  0.2222102731140252  0.1248996094163977
  0.1110940429020499  0.3888702689629494  0.6250982466194689
  0.2777827095264325  0.8888987523861935  0.6250853790847671
  0.6111297310370507  0.8889059570979497  0.6250982466194689
  0.4443637043192074  0.3888485188262680  0.6257931070677928
  0.9444428927275704  0.8889059570979497  0.6250982466194689
  0.1111036315945840  0.8888963684054163  0.1249123799740720
  0.7777885487545564  0.3888669552257221  0.6251729551064175
  0.4444594034775034  0.8888963684054163  0.1249123799740720
  0.2777450731378369  0.3888669552257221  0.1248270448935825
  0.2777793799808980  0.5555414856292876  0.1248973834116664
  0.6111514811737321  0.3888485188262680  0.1242068929322069
  0.7777934545740117  0.8889202424813523  0.1248838444223601
  0.9444428927275704  0.3888702689629494  0.1249017533805310
  0.1111036315945840  0.5555405965224969  0.6250876200259280
  0.2777793799808980  0.0555712276849458  0.6251026165883333
  0.7777635990007796  0.5555484661670578  0.6251387556186662
  0.6111297310370507  0.0555571072724291  0.6250982466194689
  0.9444384698903446  0.0555615301096552  0.6251003905836021
  0.0549345495968285  0.1106747264158977  0.3750000000000000
  0.5562228099568439  0.6163832043932428  0.3750000000000000
  0.3884350205166553  0.1102033743666532  0.3750000000000000
  0.8897966256333466  0.6115649794833449  0.3750000000000000
  0.7224068434857337  0.1106747264158977  0.3750000000000000
  0.0555607787129612  0.7777796644589262  0.8750000000000000
  0.3888855524126297  0.7777796644589262  0.8750000000000000
  0.2222241206408561  0.2777787269870960  0.8750000000000000
  0.7222212730129045  0.7777758793591436  0.8750000000000000
  0.5555499770803364  0.2777712127003860  0.8750000000000000
  0.8888910016368629  0.2777816410991220  0.8750000000000000
  0.2222222222222214  0.7777777777777786  0.3750000000000000
  0.0549345495968285  0.2775931565142666  0.3750000000000000
  0.3836167956067571  0.2731729388969367  0.3750000000000000
  0.5553786702148347  0.7798117727965792  0.3750000000000000
  0.8910997692484091  0.7798117727965792  0.3750000000000000
  0.7232649414545735  0.2767350585454265  0.3750000000000000
  0.0555582132246490  0.9444417867753512  0.8750000000000000
  0.3888855524126297  0.9444392212870386  0.8750000000000000
  0.2222210485730355  0.4444494798406312  0.8750000000000000
  0.5555555555555571  0.4444444444444429  0.8750000000000000
  0.7222183589008784  0.9444426938710769  0.8750000000000000
  0.8888950979342599  0.4444494798406312  0.8750000000000000
  0.0556843112331069  0.4447019557995423  0.3750000000000000
  0.2220831336162918  0.9439659106649511  0.3750000000000000
  0.5552980442004575  0.9443156887668933  0.3750000000000000
  0.3836167956067571  0.4437771900431561  0.3750000000000000
  0.8893252735841023  0.9450654504031714  0.3750000000000000
  0.7268270611030633  0.4437771900431561  0.3750000000000000
  0.2222203355410735  0.6111144475873702  0.8750000000000000
  0.0555573061289233  0.1111089983631371  0.8750000000000000
  0.5555499770803364  0.6111120977132859  0.8750000000000000
  0.3888839470840346  0.1111012275014118  0.8750000000000000
  0.8888987724985881  0.6111160529159657  0.8750000000000000
  0.0560340893350485  0.6114505562846764  0.3750000000000000
  0.7222183589008784  0.1111089983631371  0.8750000000000000
  0.2201882272034206  0.1089002307515908  0.3750000000000000
  0.3884350205166553  0.6115649794833449  0.3750000000000000
  0.7268270611030633  0.6163832043932428  0.3750000000000000
  0.5553786702148347  0.1089002307515908  0.3750000000000000
  0.3888839470840346  0.6111160529159657  0.8750000000000000
  0.8888888888888857  0.1111111111111143  0.3750000000000000
  0.2222222222222214  0.7777777777777786  0.8750000000000000
  0.0555573061289233  0.2777816410991220  0.8750000000000000
  0.3888879022867141  0.2777712127003860  0.8750000000000000
  0.5555505201593691  0.7777789514269648  0.8750000000000000
  0.8888950979342599  0.7777789514269648  0.8750000000000000
  0.7222212730129045  0.2777787269870960  0.8750000000000000
  0.0560340893350485  0.7779168663837082  0.3750000000000000
  0.3885494437153239  0.7779168663837082  0.3750000000000000
  0.2201367837575172  0.2767350585454265  0.3750000000000000
  0.7232649414545735  0.7798632162424828  0.3750000000000000
  0.5562228099568439  0.2731729388969366  0.3750000000000000
  0.8893252735841023  0.2775931565142666  0.3750000000000000
  0.0555582132246490  0.4444497597826265  0.8750000000000000
  0.2222203355410735  0.9444392212870386  0.8750000000000000
  0.5555502402173736  0.9444417867753512  0.8750000000000000
  0.3888879022867141  0.4444500229196637  0.8750000000000000
  0.8888910016368629  0.9444426938710769  0.8750000000000000
  0.0556843112331069  0.9443156887668933  0.3750000000000000
  0.7222287872996137  0.4444500229196637  0.8750000000000000
  0.3885494437153239  0.9439659106649511  0.3750000000000000
  0.2201882272034206  0.4446213297851656  0.3750000000000000
  0.2220831336162918  0.6114505562846764  0.3750000000000000
  0.7224068434857337  0.9450654504031714  0.3750000000000000
  0.8910997692484091  0.4446213297851656  0.3750000000000000
  0.0555607787129612  0.6111144475873702  0.8750000000000000
  0.2222210485730355  0.1111049020657401  0.8750000000000000
  0.7222287872996137  0.6111120977132859  0.8750000000000000
  0.5555505201593691  0.1111049020657401  0.8750000000000000
  0.8888888888888857  0.1111111111111143  0.8750000000000000
  0.1102201190704501  0.0547700761979030  0.3750000000000000
  0.6153262207994251  0.5639857749321786  0.3750000000000000
  0.4442589389613569  0.0550780558336012  0.3750000000000000
  0.9449219441663987  0.5557410610386426  0.3750000000000000
  0.7779486278153520  0.0556409805743438  0.3750000000000000
  0.1111014793890411  0.7222174063611848  0.8750000000000000
  0.4444471187140344  0.7221956834980929  0.8750000000000000
  0.2778420728482571  0.2222635323359777  0.8750000000000000
  0.7777364676640224  0.7221579271517427  0.8750000000000000
  0.6110881261543921  0.2222635323359777  0.8750000000000000
  0.9444516894676677  0.2222367122686713  0.8750000000000000
  0.2776769760537373  0.7223230239462626  0.3750000000000000
  0.1101888238673880  0.2217610786003583  0.3750000000000000
  0.4444360624853926  0.2222054583041208  0.3750000000000000
  0.6114877157887134  0.7252313316613527  0.3750000000000000
  0.9449219441663987  0.7225142164610916  0.3750000000000000
  0.7782389213996416  0.2217610786003583  0.3750000000000000
  0.1111134151515662  0.8888865848484341  0.8750000000000000
  0.4444398363635391  0.8888865848484341  0.8750000000000000
  0.2778420728482571  0.3889118738456080  0.8750000000000000
  0.6110843534197332  0.3889156465802667  0.8750000000000000
  0.7777550593614531  0.8888434520562351  0.8750000000000000
  0.9444331781932641  0.3889059451983861  0.8750000000000000
  0.1102201190704501  0.3887833762058756  0.3750000000000000
  0.2776769760537373  0.8886872854408032  0.3750000000000000
  0.6112166237941241  0.8897798809295497  0.3750000000000000
  0.4360142250678212  0.3846737792005750  0.3750000000000000
  0.9452299238020967  0.8897798809295497  0.3750000000000000
  0.7804102825393108  0.3885122842112866  0.3750000000000000
  0.2778043165019070  0.5555528812859654  0.8750000000000000
  0.1111394336717933  0.0555668218067358  0.8750000000000000
  0.6110843534197332  0.5555020401727953  0.8750000000000000
  0.4444471187140344  0.0555847685492772  0.8750000000000000
  0.9444152314507230  0.5555528812859654  0.8750000000000000
  0.1112154189352588  0.5557641712038459  0.3750000000000000
  0.7777632877313286  0.0555483105323322  0.8750000000000000
  0.2774857835389086  0.0550780558336012  0.3750000000000000
  0.4444360624853926  0.5555639375146075  0.3750000000000000
  0.7777945416958790  0.5555639375146075  0.3750000000000000
  0.6112166237941241  0.0547700761979030  0.3750000000000000
  0.4444690854703295  0.5555309145296705  0.8750000000000000
  0.9443590194256565  0.0556409805743438  0.3750000000000000
  0.2777825936388152  0.7222174063611848  0.8750000000000000
  0.1111565479437649  0.2222449406385468  0.8750000000000000
  0.4444690854703295  0.2222715042739947  0.8750000000000000
  0.6110881261543921  0.7221579271517427  0.8750000000000000
  0.9444152314507230  0.7221956834980929  0.8750000000000000
  0.7777550593614531  0.2222449406385468  0.8750000000000000
  0.1113127145591965  0.7223230239462626  0.3750000000000000
  0.4442589389613569  0.7225142164610916  0.3750000000000000
  0.2747686683386472  0.2195897174606892  0.3750000000000000
  0.7804102825393108  0.7252313316613527  0.3750000000000000
  0.6114877157887134  0.2195897174606892  0.3750000000000000
  0.9443590194256565  0.2220513721846480  0.3750000000000000
  0.1111394336717933  0.3889059451983861  0.8750000000000000
  0.2777825936388152  0.8888985206109590  0.8750000000000000
  0.6110940548016136  0.8888605663282069  0.8750000000000000
  0.4444979598272046  0.3889156465802667  0.8750000000000000
  0.9444331781932641  0.8888605663282069  0.8750000000000000
  0.1112154189352588  0.8887845810647412  0.3750000000000000
  0.7777364676640224  0.3889118738456080  0.8750000000000000
  0.4442358287961540  0.8887845810647412  0.3750000000000000
  0.2747686683386472  0.3885122842112866  0.3750000000000000
  0.2774857835389086  0.5557410610386426  0.3750000000000000
  0.6153262207994251  0.3846737792005750  0.3750000000000000
  0.7782389213996416  0.8898111761326120  0.3750000000000000
  0.9452299238020967  0.3887833762058756  0.3750000000000000
  0.1111134151515662  0.5555601636364611  0.8750000000000000
  0.2778043165019070  0.0555847685492772  0.8750000000000000
  0.7777284957260052  0.5555309145296705  0.8750000000000000
  0.6110940548016136  0.0555668218067358  0.8750000000000000
  0.9444516894676677  0.0555483105323322  0.8750000000000000
  0.0555765227594328  0.1111408557786913  0.1250884571907802
  0.5556209456153809  0.6109597495797581  0.1252554229193970
  0.3889937535131178  0.1113208403595783  0.1251903693307825
  0.8886791596404215  0.6110062464868822  0.1251903693307825
  0.7222309996859229  0.1111408557786913  0.1250884571907802
  0.0554720949452547  0.7777493079888976  0.6249195669551975
  0.3889438797103072  0.7777493079888976  0.6249195669551975
  0.2223146562616503  0.2778239947974930  0.6248358026895467
  0.7221760052025069  0.7776853437383497  0.6248358026895467
  0.5556209456153809  0.2779945293689586  0.6247445770806033
  0.8888591442213092  0.2777690003140771  0.6249115428092199
  0.2222222222222214  0.7777777777777786  0.1250656383844252
  0.0555765227594328  0.2777690003140771  0.1250884571907802
  0.3890402504202423  0.2779945293689586  0.1252554229193970
  0.5556075538923236  0.7777030696132298  0.1251334199902243
  0.8887621823875703  0.7777030696132298  0.1251334199902243
  0.7221760052025069  0.2778239947974930  0.1251641973104534
  0.0555337698673512  0.9444662301326487  0.6249194963233713
  0.3889438797103072  0.9445279050547455  0.6249195669551975
  0.2222969303867707  0.4443924461076763  0.6248665800097758
  0.5555555555555571  0.4444444444444429  0.6234696851718373
  0.7222309996859229  0.9444234772405671  0.6249115428092199
  0.8887621823875703  0.4443924461076763  0.6248665800097758
  0.0555337698673512  0.4444008730680309  0.1250805036766289
  0.2222506920111024  0.9445279050547455  0.1250804330448023
  0.5555991269319692  0.9444662301326487  0.1250805036766289
  0.3890402504202423  0.4443790543846193  0.1252554229193970
  0.8888591442213092  0.9444234772405671  0.1250884571907802
  0.7220054706310413  0.4443790543846193  0.1252554229193970
  0.2222506920111024  0.6110561202896925  0.6249195669551975
  0.0555765227594328  0.1111408557786913  0.6249115428092199
  0.5556209456153809  0.6109597495797581  0.6247445770806033
  0.3889937535131178  0.1113208403595783  0.6248096306692175
  0.8886791596404215  0.6110062464868822  0.6248096306692175
  0.0554720949452547  0.6110561202896925  0.1250804330448023
  0.7222309996859229  0.1111408557786913  0.6249115428092199
  0.2222969303867707  0.1112378176124298  0.1251334199902243
  0.3889937535131178  0.6110062464868822  0.1251903693307825
  0.7220054706310413  0.6109597495797581  0.1252554229193970
  0.5556075538923236  0.1112378176124298  0.1251334199902243
  0.3889937535131178  0.6110062464868822  0.6248096306692175
  0.8888888888888857  0.1111111111111143  0.1250756550904227
  0.2222222222222214  0.7777777777777786  0.6249343616155750
  0.0555765227594328  0.2777690003140771  0.6249115428092199
  0.3890402504202423  0.2779945293689586  0.6247445770806033
  0.5556075538923236  0.7777030696132298  0.6248665800097758
  0.8887621823875703  0.7777030696132298  0.6248665800097758
  0.7221760052025069  0.2778239947974930  0.6248358026895467
  0.0554720949452547  0.7777493079888976  0.1250804330448023
  0.3889438797103072  0.7777493079888976  0.1250804330448023
  0.2223146562616503  0.2778239947974930  0.1251641973104534
  0.7221760052025069  0.7776853437383497  0.1251641973104534
  0.5556209456153809  0.2779945293689586  0.1252554229193970
  0.8888591442213092  0.2777690003140771  0.1250884571907802
  0.0555337698673512  0.4444008730680309  0.6249194963233713
  0.2222506920111024  0.9445279050547455  0.6249195669551975
  0.5555991269319692  0.9444662301326487  0.6249194963233713
  0.3890402504202423  0.4443790543846193  0.6247445770806033
  0.8888591442213092  0.9444234772405671  0.6249115428092199
  0.0555337698673512  0.9444662301326487  0.1250805036766289
  0.7220054706310413  0.4443790543846193  0.6247445770806033
  0.3889438797103072  0.9445279050547455  0.1250804330448023
  0.2222969303867707  0.4443924461076763  0.1251334199902243
  0.2222506920111024  0.6110561202896925  0.1250804330448023
  0.5555555555555571  0.4444444444444429  0.1265303148281629
  0.7222309996859229  0.9444234772405671  0.1250884571907802
  0.8887621823875703  0.4443924461076763  0.1251334199902243
  0.0554720949452547  0.6110561202896925  0.6249195669551975
  0.2222969303867707  0.1112378176124298  0.6248665800097758
  0.7220054706310413  0.6109597495797581  0.6247445770806033
  0.5556075538923236  0.1112378176124298  0.6248665800097758
  0.8888888888888857  0.1111111111111143  0.6249243449095770
  0.5555555555555571  0.4444444444444429  0.3750000000000000
 
  0.00000000E+00  0.00000000E+00  0.00000000E+00
  0.00000000E+00  0.00000000E+00  0.00000000E+00
  0.00000000E+00  0.00000000E+00  0.00000000E+00
  0.00000000E+00  0.00000000E+00  0.00000000E+00
  0.00000000E+00  0.00000000E+00  0.00000000E+00
  0.00000000E+00  0.00000000E+00  0.00000000E+00
  0.00000000E+00  0.00000000E+00  0.00000000E+00
  0.00000000E+00  0.00000000E+00  0.00000000E+00
  0.00000000E+00  0.00000000E+00  0.00000000E+00
  0.00000000E+00  0.00000000E+00  0.00000000E+00
  0.00000000E+00  0.00000000E+00  0.00000000E+00
  0.00000000E+00  0.00000000E+00  0.00000000E+00
  0.00000000E+00  0.00000000E+00  0.00000000E+00
  0.00000000E+00  0.00000000E+00  0.00000000E+00
  0.00000000E+00  0.00000000E+00  0.00000000E+00
  0.00000000E+00  0.00000000E+00  0.00000000E+00
  0.00000000E+00  0.00000000E+00  0.00000000E+00
  0.00000000E+00  0.00000000E+00  0.00000000E+00
  0.00000000E+00  0.00000000E+00  0.00000000E+00
  0.00000000E+00  0.00000000E+00  0.00000000E+00
  0.00000000E+00  0.00000000E+00  0.00000000E+00
  0.00000000E+00  0.00000000E+00  0.00000000E+00
  0.00000000E+00  0.00000000E+00  0.00000000E+00
  0.00000000E+00  0.00000000E+00  0.00000000E+00
  0.00000000E+00  0.00000000E+00  0.00000000E+00
  0.00000000E+00  0.00000000E+00  0.00000000E+00
  0.00000000E+00  0.00000000E+00  0.00000000E+00
  0.00000000E+00  0.00000000E+00  0.00000000E+00
  0.00000000E+00  0.00000000E+00  0.00000000E+00
  0.00000000E+00  0.00000000E+00  0.00000000E+00
  0.00000000E+00  0.00000000E+00  0.00000000E+00
  0.00000000E+00  0.00000000E+00  0.00000000E+00
  0.00000000E+00  0.00000000E+00  0.00000000E+00
  0.00000000E+00  0.00000000E+00  0.00000000E+00
  0.00000000E+00  0.00000000E+00  0.00000000E+00
  0.00000000E+00  0.00000000E+00  0.00000000E+00
  0.00000000E+00  0.00000000E+00  0.00000000E+00
  0.00000000E+00  0.00000000E+00  0.00000000E+00
  0.00000000E+00  0.00000000E+00  0.00000000E+00
  0.00000000E+00  0.00000000E+00  0.00000000E+00
  0.00000000E+00  0.00000000E+00  0.00000000E+00
  0.00000000E+00  0.00000000E+00  0.00000000E+00
  0.00000000E+00  0.00000000E+00  0.00000000E+00
  0.00000000E+00  0.00000000E+00  0.00000000E+00
  0.00000000E+00  0.00000000E+00  0.00000000E+00
  0.00000000E+00  0.00000000E+00  0.00000000E+00
  0.00000000E+00  0.00000000E+00  0.00000000E+00
  0.00000000E+00  0.00000000E+00  0.00000000E+00
  0.00000000E+00  0.00000000E+00  0.00000000E+00
  0.00000000E+00  0.00000000E+00  0.00000000E+00
  0.00000000E+00  0.00000000E+00  0.00000000E+00
  0.00000000E+00  0.00000000E+00  0.00000000E+00
  0.00000000E+00  0.00000000E+00  0.00000000E+00
  0.00000000E+00  0.00000000E+00  0.00000000E+00
  0.00000000E+00  0.00000000E+00  0.00000000E+00
  0.00000000E+00  0.00000000E+00  0.00000000E+00
  0.00000000E+00  0.00000000E+00  0.00000000E+00
  0.00000000E+00  0.00000000E+00  0.00000000E+00
  0.00000000E+00  0.00000000E+00  0.00000000E+00
  0.00000000E+00  0.00000000E+00  0.00000000E+00
  0.00000000E+00  0.00000000E+00  0.00000000E+00
  0.00000000E+00  0.00000000E+00  0.00000000E+00
  0.00000000E+00  0.00000000E+00  0.00000000E+00
  0.00000000E+00  0.00000000E+00  0.00000000E+00
  0.00000000E+00  0.00000000E+00  0.00000000E+00
  0.00000000E+00  0.00000000E+00  0.00000000E+00
  0.00000000E+00  0.00000000E+00  0.00000000E+00
  0.00000000E+00  0.00000000E+00  0.00000000E+00
  0.00000000E+00  0.00000000E+00  0.00000000E+00
  0.00000000E+00  0.00000000E+00  0.00000000E+00
  0.00000000E+00  0.00000000E+00  0.00000000E+00
  0.00000000E+00  0.00000000E+00  0.00000000E+00
  0.00000000E+00  0.00000000E+00  0.00000000E+00
  0.00000000E+00  0.00000000E+00  0.00000000E+00
  0.00000000E+00  0.00000000E+00  0.00000000E+00
  0.00000000E+00  0.00000000E+00  0.00000000E+00
  0.00000000E+00  0.00000000E+00  0.00000000E+00
  0.00000000E+00  0.00000000E+00  0.00000000E+00
  0.00000000E+00  0.00000000E+00  0.00000000E+00
  0.00000000E+00  0.00000000E+00  0.00000000E+00
  0.00000000E+00  0.00000000E+00  0.00000000E+00
  0.00000000E+00  0.00000000E+00  0.00000000E+00
  0.00000000E+00  0.00000000E+00  0.00000000E+00
  0.00000000E+00  0.00000000E+00  0.00000000E+00
  0.00000000E+00  0.00000000E+00  0.00000000E+00
  0.00000000E+00  0.00000000E+00  0.00000000E+00
  0.00000000E+00  0.00000000E+00  0.00000000E+00
  0.00000000E+00  0.00000000E+00  0.00000000E+00
  0.00000000E+00  0.00000000E+00  0.00000000E+00
  0.00000000E+00  0.00000000E+00  0.00000000E+00
  0.00000000E+00  0.00000000E+00  0.00000000E+00
  0.00000000E+00  0.00000000E+00  0.00000000E+00
  0.00000000E+00  0.00000000E+00  0.00000000E+00
  0.00000000E+00  0.00000000E+00  0.00000000E+00
  0.00000000E+00  0.00000000E+00  0.00000000E+00
  0.00000000E+00  0.00000000E+00  0.00000000E+00
  0.00000000E+00  0.00000000E+00  0.00000000E+00
  0.00000000E+00  0.00000000E+00  0.00000000E+00
  0.00000000E+00  0.00000000E+00  0.00000000E+00
  0.00000000E+00  0.00000000E+00  0.00000000E+00
  0.00000000E+00  0.00000000E+00  0.00000000E+00
  0.00000000E+00  0.00000000E+00  0.00000000E+00
  0.00000000E+00  0.00000000E+00  0.00000000E+00
  0.00000000E+00  0.00000000E+00  0.00000000E+00
  0.00000000E+00  0.00000000E+00  0.00000000E+00
  0.00000000E+00  0.00000000E+00  0.00000000E+00
  0.00000000E+00  0.00000000E+00  0.00000000E+00
  0.00000000E+00  0.00000000E+00  0.00000000E+00
  0.00000000E+00  0.00000000E+00  0.00000000E+00
  0.00000000E+00  0.00000000E+00  0.00000000E+00
  0.00000000E+00  0.00000000E+00  0.00000000E+00
  0.00000000E+00  0.00000000E+00  0.00000000E+00
  0.00000000E+00  0.00000000E+00  0.00000000E+00
  0.00000000E+00  0.00000000E+00  0.00000000E+00
  0.00000000E+00  0.00000000E+00  0.00000000E+00
  0.00000000E+00  0.00000000E+00  0.00000000E+00
  0.00000000E+00  0.00000000E+00  0.00000000E+00
  0.00000000E+00  0.00000000E+00  0.00000000E+00
  0.00000000E+00  0.00000000E+00  0.00000000E+00
  0.00000000E+00  0.00000000E+00  0.00000000E+00
  0.00000000E+00  0.00000000E+00  0.00000000E+00
  0.00000000E+00  0.00000000E+00  0.00000000E+00
  0.00000000E+00  0.00000000E+00  0.00000000E+00
  0.00000000E+00  0.00000000E+00  0.00000000E+00
  0.00000000E+00  0.00000000E+00  0.00000000E+00
  0.00000000E+00  0.00000000E+00  0.00000000E+00
  0.00000000E+00  0.00000000E+00  0.00000000E+00
  0.00000000E+00  0.00000000E+00  0.00000000E+00
  0.00000000E+00  0.00000000E+00  0.00000000E+00
  0.00000000E+00  0.00000000E+00  0.00000000E+00
  0.00000000E+00  0.00000000E+00  0.00000000E+00
  0.00000000E+00  0.00000000E+00  0.00000000E+00
  0.00000000E+00  0.00000000E+00  0.00000000E+00
  0.00000000E+00  0.00000000E+00  0.00000000E+00
  0.00000000E+00  0.00000000E+00  0.00000000E+00
  0.00000000E+00  0.00000000E+00  0.00000000E+00
  0.00000000E+00  0.00000000E+00  0.00000000E+00
  0.00000000E+00  0.00000000E+00  0.00000000E+00
  0.00000000E+00  0.00000000E+00  0.00000000E+00
  0.00000000E+00  0.00000000E+00  0.00000000E+00
  0.00000000E+00  0.00000000E+00  0.00000000E+00
  0.00000000E+00  0.00000000E+00  0.00000000E+00
  0.00000000E+00  0.00000000E+00  0.00000000E+00
  0.00000000E+00  0.00000000E+00  0.00000000E+00
  0.00000000E+00  0.00000000E+00  0.00000000E+00
  0.00000000E+00  0.00000000E+00  0.00000000E+00
  0.00000000E+00  0.00000000E+00  0.00000000E+00
  0.00000000E+00  0.00000000E+00  0.00000000E+00
  0.00000000E+00  0.00000000E+00  0.00000000E+00
  0.00000000E+00  0.00000000E+00  0.00000000E+00
  0.00000000E+00  0.00000000E+00  0.00000000E+00
  0.00000000E+00  0.00000000E+00  0.00000000E+00
  0.00000000E+00  0.00000000E+00  0.00000000E+00
  0.00000000E+00  0.00000000E+00  0.00000000E+00
  0.00000000E+00  0.00000000E+00  0.00000000E+00
  0.00000000E+00  0.00000000E+00  0.00000000E+00
  0.00000000E+00  0.00000000E+00  0.00000000E+00
  0.00000000E+00  0.00000000E+00  0.00000000E+00
  0.00000000E+00  0.00000000E+00  0.00000000E+00
  0.00000000E+00  0.00000000E+00  0.00000000E+00
  0.00000000E+00  0.00000000E+00  0.00000000E+00
  0.00000000E+00  0.00000000E+00  0.00000000E+00
  0.00000000E+00  0.00000000E+00  0.00000000E+00
  0.00000000E+00  0.00000000E+00  0.00000000E+00
  0.00000000E+00  0.00000000E+00  0.00000000E+00
  0.00000000E+00  0.00000000E+00  0.00000000E+00
  0.00000000E+00  0.00000000E+00  0.00000000E+00
  0.00000000E+00  0.00000000E+00  0.00000000E+00
  0.00000000E+00  0.00000000E+00  0.00000000E+00
  0.00000000E+00  0.00000000E+00  0.00000000E+00
  0.00000000E+00  0.00000000E+00  0.00000000E+00
  0.00000000E+00  0.00000000E+00  0.00000000E+00
  0.00000000E+00  0.00000000E+00  0.00000000E+00
  0.00000000E+00  0.00000000E+00  0.00000000E+00
  0.00000000E+00  0.00000000E+00  0.00000000E+00
  0.00000000E+00  0.00000000E+00  0.00000000E+00
  0.00000000E+00  0.00000000E+00  0.00000000E+00
  0.00000000E+00  0.00000000E+00  0.00000000E+00
  0.00000000E+00  0.00000000E+00  0.00000000E+00
  0.00000000E+00  0.00000000E+00  0.00000000E+00
  0.00000000E+00  0.00000000E+00  0.00000000E+00
  0.00000000E+00  0.00000000E+00  0.00000000E+00
  0.00000000E+00  0.00000000E+00  0.00000000E+00
  0.00000000E+00  0.00000000E+00  0.00000000E+00
  0.00000000E+00  0.00000000E+00  0.00000000E+00
  0.00000000E+00  0.00000000E+00  0.00000000E+00
  0.00000000E+00  0.00000000E+00  0.00000000E+00
  0.00000000E+00  0.00000000E+00  0.00000000E+00
  0.00000000E+00  0.00000000E+00  0.00000000E+00
  0.00000000E+00  0.00000000E+00  0.00000000E+00
  0.00000000E+00  0.00000000E+00  0.00000000E+00
  0.00000000E+00  0.00000000E+00  0.00000000E+00
  0.00000000E+00  0.00000000E+00  0.00000000E+00
  0.00000000E+00  0.00000000E+00  0.00000000E+00
  0.00000000E+00  0.00000000E+00  0.00000000E+00
  0.00000000E+00  0.00000000E+00  0.00000000E+00
  0.00000000E+00  0.00000000E+00  0.00000000E+00
  0.00000000E+00  0.00000000E+00  0.00000000E+00
  0.00000000E+00  0.00000000E+00  0.00000000E+00
  0.00000000E+00  0.00000000E+00  0.00000000E+00
  0.00000000E+00  0.00000000E+00  0.00000000E+00
  0.00000000E+00  0.00000000E+00  0.00000000E+00
  0.00000000E+00  0.00000000E+00  0.00000000E+00
  0.00000000E+00  0.00000000E+00  0.00000000E+00
  0.00000000E+00  0.00000000E+00  0.00000000E+00
  0.00000000E+00  0.00000000E+00  0.00000000E+00
  0.00000000E+00  0.00000000E+00  0.00000000E+00
  0.00000000E+00  0.00000000E+00  0.00000000E+00
  0.00000000E+00  0.00000000E+00  0.00000000E+00
  0.00000000E+00  0.00000000E+00  0.00000000E+00
  0.00000000E+00  0.00000000E+00  0.00000000E+00
  0.00000000E+00  0.00000000E+00  0.00000000E+00
  0.00000000E+00  0.00000000E+00  0.00000000E+00
  0.00000000E+00  0.00000000E+00  0.00000000E+00
  0.00000000E+00  0.00000000E+00  0.00000000E+00
  0.00000000E+00  0.00000000E+00  0.00000000E+00
  0.00000000E+00  0.00000000E+00  0.00000000E+00
  0.00000000E+00  0.00000000E+00  0.00000000E+00
  0.00000000E+00  0.00000000E+00  0.00000000E+00
  0.00000000E+00  0.00000000E+00  0.00000000E+00
  0.00000000E+00  0.00000000E+00  0.00000000E+00
  0.00000000E+00  0.00000000E+00  0.00000000E+00
  0.00000000E+00  0.00000000E+00  0.00000000E+00
  0.00000000E+00  0.00000000E+00  0.00000000E+00
  0.00000000E+00  0.00000000E+00  0.00000000E+00
  0.00000000E+00  0.00000000E+00  0.00000000E+00
  0.00000000E+00  0.00000000E+00  0.00000000E+00
  0.00000000E+00  0.00000000E+00  0.00000000E+00
  0.00000000E+00  0.00000000E+00  0.00000000E+00
  0.00000000E+00  0.00000000E+00  0.00000000E+00
  0.00000000E+00  0.00000000E+00  0.00000000E+00
  0.00000000E+00  0.00000000E+00  0.00000000E+00
  0.00000000E+00  0.00000000E+00  0.00000000E+00
  0.00000000E+00  0.00000000E+00  0.00000000E+00
  0.00000000E+00  0.00000000E+00  0.00000000E+00
  0.00000000E+00  0.00000000E+00  0.00000000E+00
  0.00000000E+00  0.00000000E+00  0.00000000E+00
  0.00000000E+00  0.00000000E+00  0.00000000E+00
  0.00000000E+00  0.00000000E+00  0.00000000E+00
  0.00000000E+00  0.00000000E+00  0.00000000E+00
  0.00000000E+00  0.00000000E+00  0.00000000E+00
  0.00000000E+00  0.00000000E+00  0.00000000E+00
  0.00000000E+00  0.00000000E+00  0.00000000E+00
  0.00000000E+00  0.00000000E+00  0.00000000E+00
  0.00000000E+00  0.00000000E+00  0.00000000E+00
  0.00000000E+00  0.00000000E+00  0.00000000E+00
  0.00000000E+00  0.00000000E+00  0.00000000E+00