 N C B 
 1.0
 17.527899999999772   0.000000000000000   0.000000000000000
 -8.763949999999658  15.179606674993195   0.000000000000000
  0.000000000000001   0.000000000000002  15.000000000000000
 N C B 
  47   4  46
Cartesian
  8.771160724782575  13.745693229496297   1.665042519887265 
 16.281032507730743   0.731244428743173   1.665093342036420 
 15.027750560500325   2.895357946374177   1.665290269688535 
 13.773286617756430   5.059868891664398   1.665136970168010 
 12.518710252055516   7.225911271408933   1.664622764572110 
 11.277092744285120   9.395973345640767   1.665288905355390 
 10.026012943066721  11.571799800656926   1.665654690462435 
 -6.257573591269708  13.737438509056052   1.664827168435950 
  1.257232142249846   0.731236155565965   1.665102771308325 
  0.010058682925248   2.900208530980604   1.664801543154990 
 -1.240484784110992   5.063275894544192   1.664742301104255 
 -2.500596919539989   7.226578112431864   1.665072183537105 
 -3.758017937524334   9.394757586742154   1.665212251260135 
 -5.005712468218464  11.566635558298591   1.664963140019055 
 -3.757468177115683  13.734660656499722   1.664691949747575 
  3.754023902081336   0.720484161607094   1.665584302819995 
  2.513850319229911   2.900553309149050   1.665391345361085 
  1.280005344518169   5.068098722967461   1.664863211067345 
  0.014002948261809   7.227387973247970   1.665365348849865 
 -1.266400520452175   9.394668472741200   1.665624323391000 
 -2.508838883699833  11.566259815620658   1.665179326678800 
 -1.256657233687395  13.736098799480478   1.665173514880890 
  6.256968684032614   0.719572794427976   1.665416473372605 
  5.002775329247225   2.874861704439106   1.665792087936975 
  3.808926492719324   5.063315500041180   1.665869999770200 
  2.532410481553111   7.227050633668248   1.666426190386845 
  1.216687676975439   9.398569167280218   1.665361051887750 
 -0.012257346945027  11.567986961641168   1.665479683314675 
  1.243944080693732  13.737875430077144   1.665094975855860 
  8.756690088691181   0.727483408494307   1.664753835215235 
  7.494927249681320   2.896106571315974   1.664737020836085 
  6.188375685540263   5.055372660241391   1.665472681236915 
  2.486147808174985  11.562589993851104   1.664685886144530 
  3.750999575321518  13.733115704278809   1.664706471611250 
 11.267002946254491   0.724454014716434   1.665147490142700 
 10.007582970386750   2.892480419669277   1.665255369169440 
  8.741901398571864   5.049452162651679   1.664953759871340 
  7.593369430452234   7.153725541542052   1.663550289689595 
  6.291577621359798   9.561436287634011   1.663796476111695 
  5.009682943035884  11.584726963171315   1.664639438389860 
  6.263911874734210  13.745340755779941   1.664781238806510 
 13.771492182556035   0.725684862782414   1.665339840066885 
 12.517357317171628   2.893364711374707   1.665691039886475 
 11.258927017172811   5.059868891664398   1.665212466128070 
 10.010685668535109   7.223694189169328   1.664966801135820 
  8.792460833901266   9.404914401799831   1.665615122062095 
  7.525896699009524  11.588597649576634   1.665284037870840 
  5.009170985845239   5.729707724062322   1.667471610671265 
  3.755847787612248   7.909007751927368   1.667315385938415 
  4.921645406894002   7.136530358253927   1.669824507902625 
  3.750810793385360   9.314807062415628   1.662672474703755 
  7.516785850657444  14.465333452672915   1.665145244840475 
 15.024923126219630   1.448296079462305   1.665665674635555 
 13.771711193107823   3.615015267720116   1.665739275697995 
 12.517191651484321   5.781572215114453   1.665105917788230 
 11.270506663836592   7.952026400902698   1.665080389434045 
 10.038996977539984  10.128393952928503   1.666119890257425 
  8.780174379852257  12.303460895240656   1.665721177694745 
 -7.506568183634248  14.462188415574404   1.665218149406865 
  0.002881191328933   1.449834234752634   1.665225180085890 
 -1.249921242346939   3.616375878803656   1.665007702152555 
 -2.502896399211869   5.782164238783410   1.665203621640615 
 -3.757129925659156   7.950509290162429   1.665116407191375 
 -5.003001698648577  10.119737783328796   1.665455566067880 
 -6.253441314077202  12.291839337753732   1.665338910073065 
 -5.008928480371702  14.450346308840460   1.665093799420545 
  2.505477450169439   1.441343780022178   1.665765759488970 
  1.255327257662116   3.615913167301031   1.665112340703000 
  0.006503024762412   5.783370926684847   1.665073683189855 
 -1.256194087300300   7.952026820465038   1.665720048841305 
 -2.514847716865046  10.119737783328796   1.665704967133065 
 -3.758461229210777  12.288522569335347   1.664961674020935 
 -2.506772522120300  14.450532149151568   1.665375492771885 
  5.005392806021961   1.418965539811643   1.666273952036655 
  3.766465187679141   3.580779556606408   1.665939439517640 
  2.517504232500461   5.787142970824099   1.666053384836280 
  1.243445636889950   7.966026763785750   1.665942537615090 
 -0.034504372851683  10.128421997676543   1.665916852387530 
 -1.262763231769729  12.292413979065598   1.665621956943795 
 -0.006277020937068  14.459662723228643   1.665224801288970 
  7.506650428980166   1.440518180151958   1.665099443541840 
  6.241204358968142   3.581000970018250   1.665293360382435 
  2.443767295783626  10.127205073437963   1.664376567270375 
  1.237071744632961  12.295700551372866   1.665461348888340 
  2.498776168384852  14.458854495229518   1.665233590357215 
 10.013017718254993   1.445081059475271   1.665148735082775 
  8.759467634622659   3.606908720227309   1.665167466315930 
  7.488147986594896   5.770264699922210   1.665122521953405 
  5.040764025242358  10.137953539824737   1.663945412494770 
  3.748021602272298  12.291261694786368   1.664740722603675 
  5.007747844919567  14.459975385376060   1.665023068441980 
 12.518766956712490   1.447118585018648   1.665742259149470 
 11.265382608803186   3.614773015054940   1.665895194456795 
 10.006879447248455   5.780671134012164   1.665166481487210 
  8.767858697286112   7.975557784656170   1.665212511352890 
  7.572581283807675  10.140380419876580   1.665333925906020 
  6.267539295696647  12.304295250574731   1.665163739859855 
