 As B N 
 1.0
 17.527899999999772   0.000000000000000   0.000000000000000
 -8.763949999999658  15.179606674993195   0.000000000000000
  0.000000000000001   0.000000000000002  15.000000000000000
 As B N 
   1  48  48
Cartesian
  4.485418861216914   7.530094183409433   2.677299115195845 
  7.524693175224570  14.467389630243790   1.544441415949650 
 15.019156848464396   1.448443987840021   1.579233999126615 
 13.759117541125399   3.615521875882330   1.605264878442150 
 12.505876380998378   5.782658398390104   1.618185928506615 
 11.267956432602951   7.950430465399109   1.615780213980885 
 10.040485025835153  10.123825059466171   1.591751170438440 
  8.794349053434543  12.306420862013015   1.535249124476265 
 -7.495595779956751  14.447342478597465   1.554908017739085 
 -0.002812644965338   1.429367095404024   1.544441415949650 
 -1.264115669647887   3.602376034831193   1.563684624192300 
 -2.512400389704219   5.773584127635456   1.597818888088575 
 -3.746979985720729   7.941094841954615   1.615475178682320 
 -4.982109323493047  10.109496572350890   1.608896890545180 
 -6.233270869780887  12.280325800674909   1.581826408781025 
 -4.987741831364754  14.437645377516604   1.581826408781025 
  2.503469144212450   1.410297234924523   1.535249124476265 
  1.231581035427193   3.570922581201887   1.540358767220910 
 -0.011323780667900   5.758982479622085   1.612232329954110 
 -1.233698444518157   7.930071525529674   1.654748178444435 
 -2.467794871026832  10.100618310913134   1.647002623953105 
 -3.725990059962023  12.270959601419790   1.619942765886405 
 -2.482167799195235  14.439522308354752   1.608896890545180 
  5.016720541628916   1.422409727529584   1.591751170438440 
  3.728158718928128   3.545222547555060   1.649611039130085 
  2.445837561848073   5.710541203188454   1.825203939652305 
  1.295011230044064   7.893254159292142   1.846283195866755 
  0.057275056023716  10.086690468299581   1.725723431414535 
 -1.217321773016185  12.266501250135841   1.647002623953105 
  0.013287853823364  14.454069790082590   1.615475178682320 
  7.512671175922677   1.446085603883564   1.615780213980885 
  6.241971223793046   3.611504489698197   1.715512468253550 
  4.903370704739183   5.625679383067744   2.184814554145860 
  2.575714708218015  10.111497652918473   1.846283195866755 
  1.279475096482948  12.283015786751093   1.654748178444435 
  2.507696993390288  14.468647854097890   1.597818888088575 
 10.008976829747288   1.457901514225871   1.618185928506615 
  8.741574713647511   3.632916830342722   1.674423373429800 
  7.460779587442403   5.812275134127326   1.862798342616330 
  6.343671806738430   8.120354069958264   2.184814554145860 
  5.041412743257111  10.206209292283630   1.825203939652305 
  3.770880696024546  12.309952797867531   1.612232329954110 
  5.012160718689126  14.473205621774934   1.563684624192300 
 12.512392691771026   1.456131093741760   1.605264878442150 
 11.251051129384079   3.623960839085837   1.634295514529955 
  9.988556805571864   5.792753169683518   1.674423373429800 
  8.757298691588463   7.968179461623320   1.715512468253550 
  7.557794284865138  10.178345922258053   1.649611039130085 
  6.287248561105677  12.327595601853536   1.540358767220910 
  8.781711077387232  13.744850846805555   1.542344157004575 
 16.272854722925675   0.724614915606807   1.562043355319595 
 15.008971785924587   2.889183222619488   1.586620511139645 
 13.755309082004633   5.059868891664398   1.606333890876570 
 12.519289049019697   7.225982981098698   1.611913244135865 
 11.289491409094826   9.395364330675207   1.599808781351760 
 10.043543844379794  11.570438320605462   1.562030893723050 
 -6.240356585647069  13.722623524933786   1.576888266166320 
  1.251427820470974   0.702017650442002   1.542344157004575 
 -0.021191044390531   2.862924122900875   1.535377848963435 
 -1.271380915928904   5.042480350588111   1.575260418326010 
 -2.501842768305000   7.216645552153154   1.613871085201665 
 -3.732151800340379   9.386203098350689   1.624491118875675 
 -4.981251787088179  11.554958219195925   1.607214849470745 
 -3.733550964696350  13.716039436224884   1.607214849470745 
  3.765440689963619   0.696444681998617   1.562030893723050 
  2.481944123769345   2.836177800215581   1.524560562676455 
  1.210804610178657   4.995385411796939   1.594015494850140 
 -0.001657571567654   7.201043240646168   1.681228303138800 
 -1.220025310902119   9.378837235172556   1.677734987470710 
 -2.475028338647700  11.548710247942221   1.642340909802615 
 -1.230803942083325  13.718664676256518   1.624491118875675 
  6.272083802711657   0.704959434137131   1.599808781351760 
  5.004807479857174   2.856964519080289   1.636393361929110 
  3.694410324015063   4.938950819873154   1.864402589052930 
  2.433381455373020   7.089453622659854   1.997249818413000 
  1.303347759513499   9.367263790567801   1.827593987963460 
  0.031638327270089  11.546782250471772   1.677734987470710 
  1.263242523895975  13.737964573107169   1.613871085201665 
  8.765721981885132   0.724614111236596   1.611913244135865 
  7.501086475588683   2.892974053824352   1.649899603397385 
  6.218368810695549   5.049455557458520   1.904221106735910 
  3.841006077833304   9.527530986775945   1.997249818413000 
  2.526847120387791  11.580541834320305   1.681228303138800 
  3.761355746664352  13.759435951343853   1.575260418326010 
 11.259617254663056   0.737246407801836   1.606333890876570 
  9.998967757446113   2.905428871927015   1.637976873778650 
  8.727350774045075   5.081013651654343   1.729070969009280 
  7.500189903638097   7.269634816649479   1.904221106735910 
  6.333910570277988   9.510699353019927   1.864402589052930 
  5.043233923100674  11.633347698224885   1.594015494850140 
  6.274001744604186  13.766517876881428   1.535377848963435 
 13.766342112325356   0.736885492953135   1.586620511139645 
 12.505073410444238   2.899944470615574   1.618869634766745 
 11.247270953093349   5.067553430008190   1.637976873778650 
 10.009116501041156   7.237009484785592   1.649899603397385 
  8.792162175033230   9.416855277410709   1.636393361929110 
  7.548732323587434  11.612112393491477   1.524560562676455 
