B C N                                   
   1.0000000000000000     
     8.7639499999999995  -15.1796066749929999    0.0000000000000000
     8.7639499999999995   15.1796066749929999    0.0000000000000000
     0.0000000000000000    0.0000000000000000   15.0000000000000000
   B    C    N 
    48     1    48
Selective dynamics
Direct
  0.9040559741632258  0.9512726957590343  0.1109694080737474   T   T   T
  0.9053199688142031  0.0946820523817932  0.1110374188424110   T   T   T
  0.9056993470476596  0.2376403505190665  0.1110575827477892   T   T   T
  0.9055843837109302  0.3805426823383821  0.1110011944715377   T   T   T
  0.9043272507815008  0.5232318156602296  0.1109836017577140   T   T   T
  0.9026430189678895  0.6655049155942627  0.1110164609684784   T   T   T
  0.9018613780041395  0.8071978499361313  0.1109803434182976   T   T   T
  0.0473373628055577  0.9526646583904456  0.1109519132973034   T   T   T
  0.0487293254369692  0.0959460470327709  0.1109694080737474   T   T   T
  0.0489951310888230  0.2384723335602829  0.1110211626557764   T   T   T
  0.0484924725503163  0.3810755482837436  0.1110159391205759   T   T   T
  0.0473571911337376  0.5239433695156226  0.1110010251754645   T   T   T
  0.0464768124326552  0.6667345904137616  0.1110099071389099   T   T   T
  0.0464142598405633  0.8095101031570339  0.1109689863379229   T   T   T
  0.1904919180389692  0.9535877613554399  0.1109689863379229   T   T   T
  0.1928041712598719  0.0981406431918570  0.1109803434182976   T   T   T
  0.1933796809007865  0.2406519747456948  0.1109861566593700   T   T   T
  0.1920437603187794  0.3819717705467041  0.1110003884832645   T   T   T
  0.1901191133885028  0.5245097482126660  0.1110440937323700   T   T   T
  0.1895017956224790  0.6673486817762646  0.1110675294814235   T   T   T
  0.1897117400992423  0.8102902810967537  0.1110004780430581   T   T   T
  0.3332674307832367  0.9535252087633483  0.1110099071389099   T   T   T
  0.3344971056027357  0.0973590022281068  0.1110164609684784   T   T   T
  0.3393314699704661  0.2445538348668964  0.1110363815812860   T   T   T
  0.3378608884863090  0.3850358571510318  0.1110935898310851   T   T   T
  0.3326162053815377  0.5260043749669129  0.1111072718725058   T   T   T
  0.3320653246360755  0.6679366965609154  0.1111000023300694   T   T   T
  0.3326533394207334  0.8105002255735244  0.1110675294814235   T   T   T
  0.4760586516813760  0.9526448300622659  0.1110010251754645   T   T   T
  0.4767702055367686  0.0956747704144955  0.1109836017577140   T   T   T
  0.4780632881267489  0.2393541146323692  0.1110621506068897   T   T   T
  0.4896729921018237  0.3919749851038630  0.1111409717035106   T   T   T
  0.4739976462300851  0.6673858158154611  0.1111072718725058   T   T   T
  0.4754922729843323  0.8098829078075006  0.1110440937323700   T   T   T
  0.6189264729122601  0.9515095486456875  0.1110159391205759   T   T   T
  0.6194593388576215  0.0944176374850659  0.1110011944715377   T   T   T
  0.6200389846404130  0.2369427537185807  0.1109850899250022   T   T   T
  0.6211804774023050  0.3788215437936985  0.1110172342090349   T   T   T
  0.6080270360921406  0.5103290290951817  0.1111409717035106   T   T   T
  0.6149661640449715  0.6621411327106895  0.1110935898310851   T   T   T
  0.6180302506492995  0.8079582608772241  0.1110003884832645   T   T   T
  0.7615296876357205  0.9510068901071806  0.1110211626557764   T   T   T
  0.7623616706769373  0.0943026741483367  0.1110575827477892   T   T   T
  0.7627762931386474  0.2372257280573560  0.1110273858249176   T   T   T
  0.7630592674774228  0.3799630365555903  0.1109850899250022   T   T   T
  0.7606479065636345  0.5219387330702491  0.1110621506068897   T   T   T
  0.7554481863291070  0.6606705512265327  0.1110363815812860   T   T   T
  0.7593500464503088  0.8066223402952173  0.1109861566593700   T   T   T
  0.4727191277870780  0.5272828934099203  0.1112638931119504   T   T   T
  0.9512072075411293  0.9033941590205371  0.1109461391669645   T   T   T
  0.9528889134853615  0.0471124884326444  0.1109726742726325   T   T   T
  0.9534612966022210  0.1901850395891858  0.1110324441946023   T   T   T
  0.9532971402263940  0.3330255438896446  0.1110074540845274   T   T   T
  0.9523205516105814  0.4758829752578782  0.1109593427070207   T   T   T
  0.9511037825879816  0.6185690429941774  0.1109860226403701   T   T   T
  0.9506301372852218  0.7608662634460952  0.1109766548196029   T   T   T
  0.0948718580559737  0.9051295438620247  0.1109416822756736   T   T   T
  0.0966072428974617  0.0487941943768763  0.1109461391669645   T   T   T
  0.0973779106470580  0.1916578628874586  0.1109673570280021   T   T   T
  0.0966174148826239  0.3338312340236375  0.1109915595227923   T   T   T
  0.0951847742280089  0.4764355550115060  0.1109997163752504   T   T   T
  0.0943548711959997  0.6193054350314476  0.1110081532923606   T   T   T
  0.0942591197969198  0.7621555642351515  0.1109714054837575   T   T   T
  0.2378458376828471  0.9057422821210789  0.1109714054837575   T   T   T
  0.2391351384719104  0.0493712646327837  0.1109766548196029   T   T   T
  0.2425079545049373  0.1946634272689178  0.1109781909633413   T   T   T
  0.2416391672351568  0.3361721572848345  0.1109929401049626   T   T   T
  0.2381107297670376  0.4771617015146697  0.1110177291336736   T   T   T
  0.2371100297682909  0.6197886878432887  0.1110706837639511   T   T   T
  0.2373248834590943  0.7626765184589113  0.1110432512326628   T   T   T
  0.3806959668865504  0.9056465307219985  0.1110081532923606   T   T   T
  0.3814323589238210  0.0488976193300245  0.1109860226403701   T   T   T
  0.3831721719448744  0.1932133682409218  0.1110332656250215   T   T   T
  0.3909135115702229  0.3428062511143895  0.1110716264664963   T   T   T
  0.3824449906952195  0.4804447614765829  0.1111605211368927   T   T   T
  0.3794693131619306  0.6205320887560684  0.1111007693714982   T   T   T
  0.3802127140747095  0.7628913721497149  0.1110706837639511   T   T   T
  0.5235658469054908  0.9048166276899898  0.1109997163752504   T   T   T
  0.5241184266591188  0.0476808503074244  0.1109593427070207   T   T   T
  0.5248878016300714  0.1907189728693067  0.1109886979472928   T   T   T
  0.5267968428935188  0.3343586371351471  0.1110432277014879   T   T   T
  0.5195566404404139  0.6175564112227787  0.1111605211368927   T   T   T
  0.5228397004023269  0.7618906721509677  0.1110177291336736   T   T   T
  0.6661701678933593  0.9033839870353746  0.1109915595227923   T   T   T
  0.6669758580273524  0.0467042616916116  0.1110074540845274   T   T   T
  0.6675146008376230  0.1894393783031247  0.1109902750311101   T   T   T
  0.6682882768776019  0.3317131250393952  0.1109537020446306   T   T   T
  0.6656427647818428  0.4732045590234779  0.1110432277014879   T   T   T
  0.6571951508026074  0.6090878903477756  0.1110716264664963   T   T   T
  0.6638292446321623  0.7583622346828491  0.1109929401049626   T   T   T
  0.8083435390305397  0.9026234912709409  0.1109673570280021   T   T   T
  0.8098163623288132  0.0465401053157848  0.1110324441946023   T   T   T
  0.8103509047890255  0.1896504971289730  0.1110484629573528   T   T   T
  0.8105620236148736  0.3324868010793736  0.1109902750311101   T   T   T
  0.8092824290486923  0.4751136002869255  0.1109886979472928   T   T   T
  0.8067880336770767  0.6168292299731241  0.1110332656250215   T   T   T
  0.8053379746490806  0.7574934474130686  0.1109781909633413   T   T   T

  0.00000000E+00  0.00000000E+00  0.00000000E+00
  0.00000000E+00  0.00000000E+00  0.00000000E+00
  0.00000000E+00  0.00000000E+00  0.00000000E+00
  0.00000000E+00  0.00000000E+00  0.00000000E+00
  0.00000000E+00  0.00000000E+00  0.00000000E+00
  0.00000000E+00  0.00000000E+00  0.00000000E+00
  0.00000000E+00  0.00000000E+00  0.00000000E+00
  0.00000000E+00  0.00000000E+00  0.00000000E+00
  0.00000000E+00  0.00000000E+00  0.00000000E+00
  0.00000000E+00  0.00000000E+00  0.00000000E+00
  0.00000000E+00  0.00000000E+00  0.00000000E+00
  0.00000000E+00  0.00000000E+00  0.00000000E+00
  0.00000000E+00  0.00000000E+00  0.00000000E+00
  0.00000000E+00  0.00000000E+00  0.00000000E+00
  0.00000000E+00  0.00000000E+00  0.00000000E+00
  0.00000000E+00  0.00000000E+00  0.00000000E+00
  0.00000000E+00  0.00000000E+00  0.00000000E+00
  0.00000000E+00  0.00000000E+00  0.00000000E+00
  0.00000000E+00  0.00000000E+00  0.00000000E+00
  0.00000000E+00  0.00000000E+00  0.00000000E+00
  0.00000000E+00  0.00000000E+00  0.00000000E+00
  0.00000000E+00  0.00000000E+00  0.00000000E+00
  0.00000000E+00  0.00000000E+00  0.00000000E+00
  0.00000000E+00  0.00000000E+00  0.00000000E+00
  0.00000000E+00  0.00000000E+00  0.00000000E+00
  0.00000000E+00  0.00000000E+00  0.00000000E+00
  0.00000000E+00  0.00000000E+00  0.00000000E+00
  0.00000000E+00  0.00000000E+00  0.00000000E+00
  0.00000000E+00  0.00000000E+00  0.00000000E+00
  0.00000000E+00  0.00000000E+00  0.00000000E+00
  0.00000000E+00  0.00000000E+00  0.00000000E+00
  0.00000000E+00  0.00000000E+00  0.00000000E+00
  0.00000000E+00  0.00000000E+00  0.00000000E+00
  0.00000000E+00  0.00000000E+00  0.00000000E+00
  0.00000000E+00  0.00000000E+00  0.00000000E+00
  0.00000000E+00  0.00000000E+00  0.00000000E+00
  0.00000000E+00  0.00000000E+00  0.00000000E+00
  0.00000000E+00  0.00000000E+00  0.00000000E+00
  0.00000000E+00  0.00000000E+00  0.00000000E+00
  0.00000000E+00  0.00000000E+00  0.00000000E+00
  0.00000000E+00  0.00000000E+00  0.00000000E+00
  0.00000000E+00  0.00000000E+00  0.00000000E+00
  0.00000000E+00  0.00000000E+00  0.00000000E+00
  0.00000000E+00  0.00000000E+00  0.00000000E+00
  0.00000000E+00  0.00000000E+00  0.00000000E+00
  0.00000000E+00  0.00000000E+00  0.00000000E+00
  0.00000000E+00  0.00000000E+00  0.00000000E+00
  0.00000000E+00  0.00000000E+00  0.00000000E+00
  0.00000000E+00  0.00000000E+00  0.00000000E+00
  0.00000000E+00  0.00000000E+00  0.00000000E+00
  0.00000000E+00  0.00000000E+00  0.00000000E+00
  0.00000000E+00  0.00000000E+00  0.00000000E+00
  0.00000000E+00  0.00000000E+00  0.00000000E+00
  0.00000000E+00  0.00000000E+00  0.00000000E+00
  0.00000000E+00  0.00000000E+00  0.00000000E+00
  0.00000000E+00  0.00000000E+00  0.00000000E+00
  0.00000000E+00  0.00000000E+00  0.00000000E+00
  0.00000000E+00  0.00000000E+00  0.00000000E+00
  0.00000000E+00  0.00000000E+00  0.00000000E+00
  0.00000000E+00  0.00000000E+00  0.00000000E+00
  0.00000000E+00  0.00000000E+00  0.00000000E+00
  0.00000000E+00  0.00000000E+00  0.00000000E+00
  0.00000000E+00  0.00000000E+00  0.00000000E+00
  0.00000000E+00  0.00000000E+00  0.00000000E+00
  0.00000000E+00  0.00000000E+00  0.00000000E+00
  0.00000000E+00  0.00000000E+00  0.00000000E+00
  0.00000000E+00  0.00000000E+00  0.00000000E+00
  0.00000000E+00  0.00000000E+00  0.00000000E+00
  0.00000000E+00  0.00000000E+00  0.00000000E+00
  0.00000000E+00  0.00000000E+00  0.00000000E+00
  0.00000000E+00  0.00000000E+00  0.00000000E+00
  0.00000000E+00  0.00000000E+00  0.00000000E+00
  0.00000000E+00  0.00000000E+00  0.00000000E+00
  0.00000000E+00  0.00000000E+00  0.00000000E+00
  0.00000000E+00  0.00000000E+00  0.00000000E+00
  0.00000000E+00  0.00000000E+00  0.00000000E+00
  0.00000000E+00  0.00000000E+00  0.00000000E+00
  0.00000000E+00  0.00000000E+00  0.00000000E+00
  0.00000000E+00  0.00000000E+00  0.00000000E+00
  0.00000000E+00  0.00000000E+00  0.00000000E+00
  0.00000000E+00  0.00000000E+00  0.00000000E+00
  0.00000000E+00  0.00000000E+00  0.00000000E+00
  0.00000000E+00  0.00000000E+00  0.00000000E+00
  0.00000000E+00  0.00000000E+00  0.00000000E+00
  0.00000000E+00  0.00000000E+00  0.00000000E+00
  0.00000000E+00  0.00000000E+00  0.00000000E+00
  0.00000000E+00  0.00000000E+00  0.00000000E+00
  0.00000000E+00  0.00000000E+00  0.00000000E+00
  0.00000000E+00  0.00000000E+00  0.00000000E+00
  0.00000000E+00  0.00000000E+00  0.00000000E+00
  0.00000000E+00  0.00000000E+00  0.00000000E+00
  0.00000000E+00  0.00000000E+00  0.00000000E+00
  0.00000000E+00  0.00000000E+00  0.00000000E+00
  0.00000000E+00  0.00000000E+00  0.00000000E+00
  0.00000000E+00  0.00000000E+00  0.00000000E+00
  0.00000000E+00  0.00000000E+00  0.00000000E+00
  0.00000000E+00  0.00000000E+00  0.00000000E+00
