 N B P 
 1.0
 14.936314146199660   0.000000000000000   0.000000000000000
 -7.468157073099825  12.935227489513863   0.000000000000000
  0.000000000000001   0.000000000000001  13.341276283792837
 N B P 
 143 144   1
Cartesian
  1.244597447554773   0.718598441235382   1.676579005053328 
  4.978771382068588   7.187226733717102   1.650298498241055 
  6.223463434081904   0.718700643839583   1.677440398380408 
  9.957475774856498   7.186199734159126   1.677440398380408 
 11.202292489278779   0.718656588886706   1.672476130973048 
 -3.734090350418891   9.342101921685309   8.333147146954346 
  1.244759041288541   9.342069608024104   8.328516814464125 
  2.489134967020117   2.874424446574523   8.331900547718982 
  6.223399964616166   9.342361151339754   8.331900547718982 
  7.468407797110744   2.874424446574523   8.331900547718982 
 12.446928455165168   2.874429318730830   8.333481081870140 
 -1.244681031646796   9.342101921685309   1.672810065890188 
 -0.000268780670318   2.874339817076555   1.675215121618308 
  4.978771382066296   2.874763763644090   1.671466765472543 
  3.734142799513101   9.342361151339754   1.674056665122656 
  8.712783722842754   9.342069608024104   1.677440398380408 
  9.957811544802311   2.874339817076555   1.675215121618308 
 -4.978832629567478  11.498015351938724   8.330715013556340 
  0.000061247503121  11.498015351938724   8.330715013556340 
  1.244506384468339   5.030184388106651   8.331900547718982 
  6.224320934159677   5.029871626150665   8.355658714604040 
  4.978771382063418  11.498290351866391   8.330742091225305 
 11.202305226161357   5.030296282953886   8.329378207793368 
 -1.244762462025716   5.030296282953885   1.676579005053328 
 -2.489385691033239  11.497993632160355   1.672810065890188 
  2.489411472484038  11.498075261827349   1.676579005053328 
  3.733221829974259   5.029871626150664   1.650298498241055 
  7.468131291649787  11.498075261827349   1.676579005053328 
  8.713036379662043   5.030184388106650   1.674056665122656 
  0.000066989272035   7.186199734159127   8.328516814464125 
  1.244597447554773   0.718598441235383   8.329378207793368 
  4.978771382068589   7.187226733717103   8.355658714604040 
  6.223463434081905   0.718700643839584   8.328516814464125 
  9.957475774856498   7.186199734159127   8.328516814464125 
 -2.489385691033630   7.186166771651272   1.675242199290450 
 11.202292489278779   0.718656588886707   8.333481081870140 
  3.734079330051657   0.718700643839583   1.677440398380475 
  2.489618449195458   7.186103111185495   1.671466765472556 
  7.467924314939856   7.186103111185495   1.671466765472543 
  8.712945316576098   0.718598441235382   1.676579005053328 
  2.489618449195458   7.186103111185496   8.334490447372499 
 13.691564421052320   0.718656588886706   1.672476130973048 
 -1.244681031646796   9.342101921685309   8.333147146954346 
 -0.000268780670318   2.874339817076556   8.330742091225293 
  4.978771382066297   2.874763763644091   8.334490447372499 
  3.734142799513102   9.342361151339754   8.331900547718982 
  8.712783722842754   9.342069608024104   8.328516814464125 
  9.957811544802311   2.874339817076556   8.330742091225305 
 -3.734090350418891   9.342101921685309   1.672810065890188 
  1.244759041288541   9.342069608024104   1.677440398380408 
  2.489134967020116   2.874424446574522   1.674056665122683 
  6.223399964616180   9.342361151339754   1.674056665122656 
  7.468407797110743   2.874424446574522   1.674056665122656 
 12.446928455165168   2.874429318730829   1.672476130973048 
 -1.244762462025716   5.030296282953886   8.329378207793368 
 -2.489385691033239  11.497993632160355   8.333147146954346 
  2.489411472484039  11.498075261827349   8.329378207793368 
  3.733221829974259   5.029871626150665   8.355658714604040 
  7.468131291649788  11.498075261827349   8.329378207793368 
 -4.978832629567479  11.498015351938724   1.675242199290450 
  8.713036379662029   5.030184388106651   8.331900547718982 
  0.000061247503121  11.498015351938724   1.675242199290450 
  1.244506384468339   5.030184388106650   1.674056665122656 
  0.000066989272035   7.186199734159126   1.677440398380408 
  6.224320934159676   5.029871626150664   1.650298498241055 
  4.978771382063417  11.498290351866391   1.675215121618308 
 11.202305226161357   5.030296282953885   1.676579005053328 
 -2.489385691033629   7.186166771651273   8.330715013556340 
  3.734079330051657   0.718700643839584   8.328516814464125 
  7.467924314939856   7.186103111185496   8.334490447372499 
  8.712945316576098   0.718598441235383   8.329378207793368 
 13.691564421052320   0.718656588886707   8.333481081870140 
 -0.008859826975337   1.429677366572603   5.002978606422314 
  3.676954843673778   8.005103178766625   5.002978606422314 
  4.978771382065832   1.411325151037667   5.002978606422314 
  8.735299330334772   7.917822417492341   5.002978606422314 
  9.966402591110018   1.429677366572603   5.002978606422314 
 -4.978771790611717  10.060757814623818  11.673616748318732 
  0.000000408545777  10.060757814623818  11.673616748318732 
  1.244686727742277   3.593115214987153  11.673616748318732 
  4.978771382067174  10.060739556044203  11.673616748318732 
  6.223454709997413   3.593035686325338  11.673616748318732 
 11.202240220453643   3.593147218374807  11.673616748318732 
 -2.489385691033300  10.060732491844131   5.002978606422314 
 -1.255678685853161   3.589230977984061   5.002978606422314 
  3.675828320602442   3.493527210308440   5.002978606422314 
  2.462126538914487  10.099959176248380   5.002978606422314 
  7.495416225213240  10.099959176248380   5.002978606422314 
  8.744563338739322   3.574808995443211   5.002978606422314 
 -6.223456551287818  12.216599308185240  11.673616748318732 
 -1.244670711074372  12.216591432519570  11.673616748318732 
 -0.000040279274703   5.749019771321884  11.673616748318732 
  4.978771382066590   5.748989995339477  11.673616748318732 
  3.734051574294068  12.216593497525015  11.673616748318732 
  9.957583043406984   5.749019771321884  11.673616748318732 
 -2.489385691033241   5.752931964516262   5.002978606422314 
 -3.732630476354036  12.206095665462849   5.002978606422314 
  1.241279000071634  12.214632755506541   5.002978606422314 
  2.374011782207742   5.748339596941515   5.002978606422314 
  6.225590240943662  12.228061641461494   5.002978606422314 
  7.583530981925417   5.748339596941515   5.002978606422314 
 -1.244714571416541   7.904848228393668  11.673616748318732 
  0.000022351456192   1.437229270118974  11.673616748318732 
  3.734001845026257   7.904894531503312  11.673616748318732 
  4.978771382066093   1.437171255436860  11.673616748318732 
  8.712915947337011   7.904899365290449  11.673616748318732 
 -3.725702307070888   7.911369337825228   5.002978606422314 
  9.957520412679923   1.437229270118974  11.673616748318732 
  2.469043961892029   1.394027038416080   5.002978606422314 
  1.222243433796688   7.917822417492341   5.002978606422314 
  6.280587920461355   8.005103178766625   5.002978606422314 
  7.488498802238545   1.394027038416080   5.002978606422314 
  1.244626816796840   7.904899365290449  11.673616748318732 
 12.446928455166319   1.437247498834912   5.002978606422314 
 -2.489385691033299  10.060732491844133  11.673616748318732 
 -1.244697456320050   3.593147218374807  11.673616748318732 
  3.734088054135644   3.593035686325338  11.673616748318732 
  2.489339764638998  10.060752486729772  11.673616748318732 
  7.468202999492543  10.060752486729772  11.673616748318732 
  8.712856036393811   3.593115214987153  11.673616748318732 
 -4.968947092392581  10.064732472247474   5.002978606422314 
 -0.009824289675930  10.064732472247474   5.002978606422314 
  1.212979425394792   3.574808995443211   5.002978606422314 
  4.978771382068062  10.097351995132097   5.002978606422314 
  6.281714443532540   3.493527210308440   5.002978606422314 
 11.213221449985918   3.589230977984061   5.002978606422314 
 -2.489385691033667   5.748998859162580  11.673616748318732 
 -3.734100670995153  12.216591432519570  11.673616748318732 
  1.244685169219519  12.216599308185240  11.673616748318732 
  2.489318517096305   5.749039768191476  11.673616748318732 
  6.223491189844030  12.216593497525015  11.673616748318732 
 -6.220050382134271  12.214632755506541   5.002978606422314 
  7.468224247035500   5.749039768191476  11.673616748318732 
 -1.246140905711574  12.206095665462849   5.002978606422314 
 -0.047600881255942   5.752983771354604   5.002978606422314 
 -1.253069074996699   7.911369337825228   5.002978606422314 
  3.731952523189938  12.228061641461494   5.002978606422314 
 10.005143645389328   5.752983771354604   5.002978606422314 
 -3.734056810653255   7.904848228393668  11.673616748318732 
  2.489391338152486   1.437197727969596  11.673616748318732 
  6.223540919103683   7.904894531503312  11.673616748318732 
  7.468151425980629   1.437197727969596  11.673616748318732 
 12.446928455166319   1.437247498834912  11.673616748318732 
  1.228610626262622   0.701251159134576   5.002978606422314 
  4.978771382066184   7.455684444318638   5.002978606422314 
  6.228720037030933   0.699777891824187   5.002978606422314 
  9.976491660290012   7.191108758471167   5.002978606422314 
 11.206789952972917   0.721253200761594   5.002978606422314 
 -3.734107684035775   9.342091914119550  11.673616748318732 
  1.244751676949262   9.342032083354288  11.673616748318732 
  2.489547807795186   2.874635903490412  11.673616748318732 
  6.223423257941867   9.341897892282132  11.673616748318732 
  7.467994956338049   2.874635903490412  11.673616748318732 
 12.446928455164221   2.874520008965505  11.673616748318732 
 -1.249771387474697   9.345040839994663   5.002978606422314 
 -0.021203629678753   2.862253076367342   5.002978606422314 
  4.978771382065765   2.840255378968990   5.002978606422314 
  3.703564319737018   9.418610628796761   5.002978606422314 
  8.726543005324665   9.356083335723541   5.002978606422314 
  9.978746393809866   2.862253076367342   5.002978606422314 
 -4.978789669935298  11.497990549184834  11.673616748318732 
  0.000018287868403  11.497990549184834  11.673616748318732 
  1.244895931917676   5.030436190246186  11.673616748318732 
  6.223190296848501   5.030524399906009  11.673616748318732 
  4.978771382069645  11.497888669720661  11.673616748318732 
 11.202170673902398   5.030385899552145  11.673616748318732 
 -1.267779059657728   5.025124930639564   5.002978606422314 
 -2.489385691033239  11.492115795547184   5.002978606422314 
  2.482381696145657  11.520593896244625   5.002978606422314 
  3.500730632751206   4.895642770849897   5.002978606422314 
  7.475161067988452  11.520593896244625   5.002978606422314 
  8.794359604062343   5.018541389676087   5.002978606422314 
  0.000095804419831   7.186224874196528  11.673616748318732 
  1.244742333934436   0.718670158609768  11.673616748318732 
  4.978771382067517   7.185921186206413  11.673616748318732 
  6.223427254596316   0.718713028467203  11.673616748318732 
  9.957446959712779   7.186224874196528  11.673616748318732 
 -2.489385691032292   7.189039911520061   5.002978606422314 
 11.202213949230135   0.718611243770023  11.673616748318732 
  3.728822727104121   0.699777891824187   5.002978606422314 
  2.459733311422206   7.203357303523944   5.002978606422314 
  7.497809452712599   7.203357303523944   5.002978606422314 
  8.728932137870924   0.701251159134576   5.002978606422314 
  2.489549688830038   7.186142810002282  11.673616748318732 
 13.687066957357388   0.721253200761594   5.002978606422314 
 -1.244663698031288   9.342091914119550  11.673616748318732 
  0.000079086267968   2.874540658148518  11.673616748318732 
  4.978771382065550   2.874684366015716  11.673616748318732 
  3.734119506189341   9.341897892282132  11.673616748318732 
  8.712791087184620   9.342032083354288  11.673616748318732 
  9.957463677866611   2.874540658148518  11.673616748318732 
 -3.728999994591919   9.345040839994663   5.002978606422314 
  1.230999758808052   9.356083335723541   5.002978606422314 
  2.438390222409874   2.809817967547394   5.002978606422314 
  6.253978444403048   9.418610628796761   5.002978606422314 
  7.519152541727737   2.809817967547394   5.002978606422314 
 12.446928455164354   2.869236094982310   5.002978606422314 
 -1.244627909767775   5.030385899552145  11.673616748318732 
 -2.489385691033231  11.498013647297324  11.673616748318732 
  2.489401138364340  11.497913927854464  11.673616748318732 
  3.734352467284947   5.030524399906009  11.673616748318732 
  7.468141625770632  11.497913927854464  11.673616748318732 
 -4.976344417452658  11.496578782006949   5.002978606422314 
  8.712646832213050   5.030436190246212  11.673616748318732 
 -0.002426964616345  11.496578782006949   5.002978606422314 
  1.163183160078450   5.018541389676087   5.002978606422314 
 -0.018948896153413   7.191108758471167   5.002978606422314 
  6.456812131380011   4.895642770849897   5.002978606422314 
  4.978771382066568  11.522463833281586   5.002978606422314 
 11.225321823793369   5.025124930639564   5.002978606422314 
 -2.489385691031486   7.186216377159278  11.673616748318732 
  3.734115509538725   0.718713028467203  11.673616748318732 
  7.467993075303008   7.186142810002282  11.673616748318732 
  8.712800430198318   0.718670158609768  11.673616748318732 
 13.691642961098125   0.718611243769972  11.673616748318732 
 -0.000195621799101   1.437280258950124   1.674472029106904 
  3.735127059212124   7.904284274229810   1.664428492518300 
  4.978771382064249   1.438001558194863   1.675752838358035 
  8.712196884059821   7.904484213910754   1.675752838358035 
  9.957738385930705   1.437280258950124   1.674472029106904 
 -4.978978534935890  10.060668837429530   8.331298761970549 
  0.000207152867709  10.060668837429530   8.331298761970549 
  1.244571926961588   3.593048934724528   8.331862445878514 
  4.978771382065964  10.060872116569453   8.331862445878514 
  6.223488818789741   3.594315279029860   8.341528720325220 
 11.202305049457919   3.592932953580939   8.331485183735737 
 -2.489385691033300  10.060732491844131   1.671640753208498 
 -1.244762285323475   3.592932953580938   1.674472029106904 
  3.734053945343465   3.594315279029859   1.664428492518314 
  2.489647177014658  10.060668626863301   1.676084082834430 
  7.467895587113234  10.060668626863301   1.676084082834430 
  8.712970837175007   3.593048934724527   1.674094766968877 
 -6.223615538425141  12.216691099451433   8.330110203201182 
 -1.244644395424792  12.216814966952938   8.331298761970549 
  0.000186051690209   5.748795474323753   8.329873130011839 
  4.978771382066590   5.748989995339477   8.343848134162512 
  3.734204718539431  12.216756773487353   8.331485183735737 
  9.957356712443445   5.748795474323753   8.329873130011839 
 -2.489385691032808   5.748815276627693   1.675847009648037 
 -3.734126986644614  12.216814966952938   1.674658450871919 
  1.244844156356319  12.216691099451433   1.675847009648037 
  2.490409622489149   5.748370432758449   1.664428492518314 
  6.223338045591079  12.216756773487353   1.674472029106904 
  7.467133141644565   5.748370432758449   1.664428492518314 
 -1.244534142741919   7.904713671153549   8.331298761970549 
 -0.000195621799040   1.437280258950125   8.331485183735737 
  3.735127059212125   7.904284274229811   8.341528720325220 
  4.978771382064250   1.438001558194864   8.330204374487421 
  8.712196884059821   7.904484213910755   8.330204374487421 
 -3.734237239325697   7.904713671153548   1.674658450871919 
  9.957738385930705   1.437280258950125   8.331485183735737 
  2.489310256737851   1.437505884831713   1.676084082834430 
  1.245345880076658   7.904484213910754   1.675752838358035 
  6.222415704921443   7.904284274229810   1.664428492518314 
  7.468232507392512   1.437505884831713   1.676084082834430 
  1.245345880076659   7.904484213910755   8.330204374487421 
 12.446928455166319   1.437247498834911   1.671871674095858 
 -2.489385691033300  10.060732491844131   8.334316459637263 
 -1.244762285323535   3.592932953580939   8.331485183735737 
  3.734053945343644   3.594315279029860   8.341528720325220 
  2.489647177014658  10.060668626863301   8.329873130011839 
  7.467895587113235  10.060668626863301   8.329873130011839 
  8.712970837175014   3.593048934724515   8.331862445878514 
 -4.978978534935891  10.060668837429530   1.674658450871919 
  0.000207152867708  10.060668837429530   1.674658450871919 
  1.244571926961588   3.593048934724527   1.674094766968877 
  4.978771382065963  10.060872116569453   1.674094766968877 
  6.223488818789740   3.594315279029859   1.664428492518314 
 11.202305049457919   3.592932953580938   1.674472029106904 
 -2.489385691032793   5.748815276627694   8.330110203201182 
 -3.734126986644614  12.216814966952938   8.331298761970549 
  1.244844156356319  12.216691099451433   8.330110203201182 
  2.490409622488971   5.748370432758450   8.341528720325220 
  6.223338045591080  12.216756773487353   8.331485183735737 
 -6.223615538425142  12.216691099451433   1.675847009648037 
  7.467133141644566   5.748370432758450   8.341528720325220 
 -1.244644395424793  12.216814966952938   1.674658450871919 
  0.000186051690208   5.748795474323752   1.676084082834430 
 -1.244534142741920   7.904713671153548   1.674658450871919 
  4.978771382066589   5.748989995339476   1.662109078681490 
  3.734204718539431  12.216756773487353   1.674472029106904 
  9.957356712443445   5.748795474323752   1.676084082834430 
 -3.734237239325697   7.904713671153549   8.331298761970549 
  2.489310256737859   1.437505884831701   8.329873130011839 
  6.222415704921444   7.904284274229811   8.341528720325220 
  7.468232507392520   1.437505884831701   8.329873130011839 
 12.446928455166319   1.437247498834912   8.334085538746969 
  4.978771382066589   5.748989995339477   5.002978606422314 
Generated by cif2cell 2.0.0.  :  Failed to get author information, No journal information. Species order: N B P 
 1.0
 14.936314146199660   0.000000000000000   0.000000000000000
 -7.468157073099825  12.935227489513863   0.000000000000000
  0.000000000000001   0.000000000000001  13.341276283792837
 N B P 
 143 144   1
Cartesian
  1.244597447554773   0.718598441235382   1.676579005053328 
  4.978771382068588   7.187226733717102   1.650298498241055 
  6.223463434081904   0.718700643839583   1.677440398380408 
  9.957475774856498   7.186199734159126   1.677440398380408 
 11.202292489278779   0.718656588886706   1.672476130973048 
 -3.734090350418891   9.342101921685309   8.333147146954346 
  1.244759041288541   9.342069608024104   8.328516814464125 
  2.489134967020117   2.874424446574523   8.331900547718982 
  6.223399964616166   9.342361151339754   8.331900547718982 
  7.468407797110744   2.874424446574523   8.331900547718982 
 12.446928455165168   2.874429318730830   8.333481081870140 
 -1.244681031646796   9.342101921685309   1.672810065890188 
 -0.000268780670318   2.874339817076555   1.675215121618308 
  4.978771382066296   2.874763763644090   1.671466765472543 
  3.734142799513101   9.342361151339754   1.674056665122656 
  8.712783722842754   9.342069608024104   1.677440398380408 
  9.957811544802311   2.874339817076555   1.675215121618308 
 -4.978832629567478  11.498015351938724   8.330715013556340 
  0.000061247503121  11.498015351938724   8.330715013556340 
  1.244506384468339   5.030184388106651   8.331900547718982 
  6.224320934159677   5.029871626150665   8.355658714604040 
  4.978771382063418  11.498290351866391   8.330742091225305 
 11.202305226161357   5.030296282953886   8.329378207793368 
 -1.244762462025716   5.030296282953885   1.676579005053328 
 -2.489385691033239  11.497993632160355   1.672810065890188 
  2.489411472484038  11.498075261827349   1.676579005053328 
  3.733221829974259   5.029871626150664   1.650298498241055 
  7.468131291649787  11.498075261827349   1.676579005053328 
  8.713036379662043   5.030184388106650   1.674056665122656 
  0.000066989272035   7.186199734159127   8.328516814464125 
  1.244597447554773   0.718598441235383   8.329378207793368 
  4.978771382068589   7.187226733717103   8.355658714604040 
  6.223463434081905   0.718700643839584   8.328516814464125 
  9.957475774856498   7.186199734159127   8.328516814464125 
 -2.489385691033630   7.186166771651272   1.675242199290450 
 11.202292489278779   0.718656588886707   8.333481081870140 
  3.734079330051657   0.718700643839583   1.677440398380475 
  2.489618449195458   7.186103111185495   1.671466765472556 
  7.467924314939856   7.186103111185495   1.671466765472543 
  8.712945316576098   0.718598441235382   1.676579005053328 
  2.489618449195458   7.186103111185496   8.334490447372499 
 13.691564421052320   0.718656588886706   1.672476130973048 
 -1.244681031646796   9.342101921685309   8.333147146954346 
 -0.000268780670318   2.874339817076556   8.330742091225293 
  4.978771382066297   2.874763763644091   8.334490447372499 
  3.734142799513102   9.342361151339754   8.331900547718982 
  8.712783722842754   9.342069608024104   8.328516814464125 
  9.957811544802311   2.874339817076556   8.330742091225305 
 -3.734090350418891   9.342101921685309   1.672810065890188 
  1.244759041288541   9.342069608024104   1.677440398380408 
  2.489134967020116   2.874424446574522   1.674056665122683 
  6.223399964616180   9.342361151339754   1.674056665122656 
  7.468407797110743   2.874424446574522   1.674056665122656 
 12.446928455165168   2.874429318730829   1.672476130973048 
 -1.244762462025716   5.030296282953886   8.329378207793368 
 -2.489385691033239  11.497993632160355   8.333147146954346 
  2.489411472484039  11.498075261827349   8.329378207793368 
  3.733221829974259   5.029871626150665   8.355658714604040 
  7.468131291649788  11.498075261827349   8.329378207793368 
 -4.978832629567479  11.498015351938724   1.675242199290450 
  8.713036379662029   5.030184388106651   8.331900547718982 
  0.000061247503121  11.498015351938724   1.675242199290450 
  1.244506384468339   5.030184388106650   1.674056665122656 
  0.000066989272035   7.186199734159126   1.677440398380408 
  6.224320934159676   5.029871626150664   1.650298498241055 
  4.978771382063417  11.498290351866391   1.675215121618308 
 11.202305226161357   5.030296282953885   1.676579005053328 
 -2.489385691033629   7.186166771651273   8.330715013556340 
  3.734079330051657   0.718700643839584   8.328516814464125 
  7.467924314939856   7.186103111185496   8.334490447372499 
  8.712945316576098   0.718598441235383   8.329378207793368 
 13.691564421052320   0.718656588886707   8.333481081870140 
 -0.008859826975337   1.429677366572603   5.002978606422314 
  3.676954843673778   8.005103178766625   5.002978606422314 
  4.978771382065832   1.411325151037667   5.002978606422314 
  8.735299330334772   7.917822417492341   5.002978606422314 
  9.966402591110018   1.429677366572603   5.002978606422314 
 -4.978771790611717  10.060757814623818  11.673616748318732 
  0.000000408545777  10.060757814623818  11.673616748318732 
  1.244686727742277   3.593115214987153  11.673616748318732 
  4.978771382067174  10.060739556044203  11.673616748318732 
  6.223454709997413   3.593035686325338  11.673616748318732 
 11.202240220453643   3.593147218374807  11.673616748318732 
 -2.489385691033300  10.060732491844131   5.002978606422314 
 -1.255678685853161   3.589230977984061   5.002978606422314 
  3.675828320602442   3.493527210308440   5.002978606422314 
  2.462126538914487  10.099959176248380   5.002978606422314 
  7.495416225213240  10.099959176248380   5.002978606422314 
  8.744563338739322   3.574808995443211   5.002978606422314 
 -6.223456551287818  12.216599308185240  11.673616748318732 
 -1.244670711074372  12.216591432519570  11.673616748318732 
 -0.000040279274703   5.749019771321884  11.673616748318732 
  4.978771382066590   5.748989995339477  11.673616748318732 
  3.734051574294068  12.216593497525015  11.673616748318732 
  9.957583043406984   5.749019771321884  11.673616748318732 
 -2.489385691033241   5.752931964516262   5.002978606422314 
 -3.732630476354036  12.206095665462849   5.002978606422314 
  1.241279000071634  12.214632755506541   5.002978606422314 
  2.374011782207742   5.748339596941515   5.002978606422314 
  6.225590240943662  12.228061641461494   5.002978606422314 
  7.583530981925417   5.748339596941515   5.002978606422314 
 -1.244714571416541   7.904848228393668  11.673616748318732 
  0.000022351456192   1.437229270118974  11.673616748318732 
  3.734001845026257   7.904894531503312  11.673616748318732 
  4.978771382066093   1.437171255436860  11.673616748318732 
  8.712915947337011   7.904899365290449  11.673616748318732 
 -3.725702307070888   7.911369337825228   5.002978606422314 
  9.957520412679923   1.437229270118974  11.673616748318732 
  2.469043961892029   1.394027038416080   5.002978606422314 
  1.222243433796688   7.917822417492341   5.002978606422314 
  6.280587920461355   8.005103178766625   5.002978606422314 
  7.488498802238545   1.394027038416080   5.002978606422314 
  1.244626816796840   7.904899365290449  11.673616748318732 
 12.446928455166319   1.437247498834912   5.002978606422314 
 -2.489385691033299  10.060732491844133  11.673616748318732 
 -1.244697456320050   3.593147218374807  11.673616748318732 
  3.734088054135644   3.593035686325338  11.673616748318732 
  2.489339764638998  10.060752486729772  11.673616748318732 
  7.468202999492543  10.060752486729772  11.673616748318732 
  8.712856036393811   3.593115214987153  11.673616748318732 
 -4.968947092392581  10.064732472247474   5.002978606422314 
 -0.009824289675930  10.064732472247474   5.002978606422314 
  1.212979425394792   3.574808995443211   5.002978606422314 
  4.978771382068062  10.097351995132097   5.002978606422314 
  6.281714443532540   3.493527210308440   5.002978606422314 
 11.213221449985918   3.589230977984061   5.002978606422314 
 -2.489385691033667   5.748998859162580  11.673616748318732 
 -3.734100670995153  12.216591432519570  11.673616748318732 
  1.244685169219519  12.216599308185240  11.673616748318732 
  2.489318517096305   5.749039768191476  11.673616748318732 
  6.223491189844030  12.216593497525015  11.673616748318732 
 -6.220050382134271  12.214632755506541   5.002978606422314 
  7.468224247035500   5.749039768191476  11.673616748318732 
 -1.246140905711574  12.206095665462849   5.002978606422314 
 -0.047600881255942   5.752983771354604   5.002978606422314 
 -1.253069074996699   7.911369337825228   5.002978606422314 
  3.731952523189938  12.228061641461494   5.002978606422314 
 10.005143645389328   5.752983771354604   5.002978606422314 
 -3.734056810653255   7.904848228393668  11.673616748318732 
  2.489391338152486   1.437197727969596  11.673616748318732 
  6.223540919103683   7.904894531503312  11.673616748318732 
  7.468151425980629   1.437197727969596  11.673616748318732 
 12.446928455166319   1.437247498834912  11.673616748318732 
  1.228610626262622   0.701251159134576   5.002978606422314 
  4.978771382066184   7.455684444318638   5.002978606422314 
  6.228720037030933   0.699777891824187   5.002978606422314 
  9.976491660290012   7.191108758471167   5.002978606422314 
 11.206789952972917   0.721253200761594   5.002978606422314 
 -3.734107684035775   9.342091914119550  11.673616748318732 
  1.244751676949262   9.342032083354288  11.673616748318732 
  2.489547807795186   2.874635903490412  11.673616748318732 
  6.223423257941867   9.341897892282132  11.673616748318732 
  7.467994956338049   2.874635903490412  11.673616748318732 
 12.446928455164221   2.874520008965505  11.673616748318732 
 -1.249771387474697   9.345040839994663   5.002978606422314 
 -0.021203629678753   2.862253076367342   5.002978606422314 
  4.978771382065765   2.840255378968990   5.002978606422314 
  3.703564319737018   9.418610628796761   5.002978606422314 
  8.726543005324665   9.356083335723541   5.002978606422314 
  9.978746393809866   2.862253076367342   5.002978606422314 
 -4.978789669935298  11.497990549184834  11.673616748318732 
  0.000018287868403  11.497990549184834  11.673616748318732 
  1.244895931917676   5.030436190246186  11.673616748318732 
  6.223190296848501   5.030524399906009  11.673616748318732 
  4.978771382069645  11.497888669720661  11.673616748318732 
 11.202170673902398   5.030385899552145  11.673616748318732 
 -1.267779059657728   5.025124930639564   5.002978606422314 
 -2.489385691033239  11.492115795547184   5.002978606422314 
  2.482381696145657  11.520593896244625   5.002978606422314 
  3.500730632751206   4.895642770849897   5.002978606422314 
  7.475161067988452  11.520593896244625   5.002978606422314 
  8.794359604062343   5.018541389676087   5.002978606422314 
  0.000095804419831   7.186224874196528  11.673616748318732 
  1.244742333934436   0.718670158609768  11.673616748318732 
  4.978771382067517   7.185921186206413  11.673616748318732 
  6.223427254596316   0.718713028467203  11.673616748318732 
  9.957446959712779   7.186224874196528  11.673616748318732 
 -2.489385691032292   7.189039911520061   5.002978606422314 
 11.202213949230135   0.718611243770023  11.673616748318732 
  3.728822727104121   0.699777891824187   5.002978606422314 
  2.459733311422206   7.203357303523944   5.002978606422314 
  7.497809452712599   7.203357303523944   5.002978606422314 
  8.728932137870924   0.701251159134576   5.002978606422314 
  2.489549688830038   7.186142810002282  11.673616748318732 
 13.687066957357388   0.721253200761594   5.002978606422314 
 -1.244663698031288   9.342091914119550  11.673616748318732 
  0.000079086267968   2.874540658148518  11.673616748318732 
  4.978771382065550   2.874684366015716  11.673616748318732 
  3.734119506189341   9.341897892282132  11.673616748318732 
  8.712791087184620   9.342032083354288  11.673616748318732 
  9.957463677866611   2.874540658148518  11.673616748318732 
 -3.728999994591919   9.345040839994663   5.002978606422314 
  1.230999758808052   9.356083335723541   5.002978606422314 
  2.438390222409874   2.809817967547394   5.002978606422314 