Species order:  N B                     
   2.51242800000000     
     5.9449720136058266    0.0000000000000000    0.0000000000000000
    -2.9724860068029120    5.1484967885702053   -0.0000000000000001
     0.0000000000000000    0.0000000000000009    5.3101128803662583
   N    B 
   144   143
Direct
  0.4416004245550310  0.3874668789441800  0.3750000000000000
  0.1110354310442630  0.0555432763923498  0.1249347798908495
  0.6111062056705505  0.5555349098959785  0.1243746368490884
  0.4444197807235704  0.0555703654417285  0.1249049905302450
  0.9444322644422870  0.5555399517282281  0.1248957657786303
  0.7776857758525396  0.0555095545929374  0.1249232527118700
  0.1110992490635838  0.7222162911984564  0.6251092997573818
  0.4444197807235704  0.7221827486151774  0.6250950094697554
  0.2776649503023700  0.2222019563743968  0.6250352392427710
  0.7777535122908353  0.7222082231565309  0.6251757387985285
  0.6110688311753121  0.2222401502392004  0.6250267231021488
  0.9443354657646651  0.2221633963196279  0.6251514900388428
  0.2777639903360073  0.7221982288606263  0.1248812347420773
  0.1109606891617509  0.2221470112475397  0.1248096166341278
  0.4444233625617889  0.2222373477903612  0.1247399974245226
  0.6110688311753121  0.7221620142694393  0.1249732768978515
  0.9444322644422870  0.7222256460473927  0.1248957657786303
  0.7777091210791529  0.2221966675940344  0.1249389852578796
  0.1110885535730361  0.8889029862031389  0.6251167410786458
  0.4444187950505805  0.8888760641919546  0.6250995956655802
  0.2776649503023700  0.3887963272613012  0.6250352392427710
  0.6111062056705505  0.3889046291079003  0.6256253631509114
  0.7777091210791529  0.8888457868184484  0.6250610147421203
  0.9443981409512496  0.3888517704639580  0.6251128450507114
  0.1110354310442630  0.3888254879852416  0.1249347798908495
  0.2777639903360073  0.8888990948087093  0.1248812347420773
  0.6110540708680118  0.8888460948882304  0.1249542796210792
  0.4443073893825392  0.3888203613579340  0.1238233989905970
  0.9443981409512496  0.8888797038206204  0.1248871549492893
  0.7777535122908353  0.3888786224676331  0.1248242612014712
  0.2777452935426519  0.5554966990068351  0.6250809229707529
  0.1110354310442630  0.0555432763923498  0.6250652201091507
  0.6111062056705505  0.5555349098959785  0.6256253631509114
  0.4444197807235704  0.0555703654417286  0.6250950094697554
  0.9444322644422870  0.5555399517282281  0.6251042342213688
  0.1110885535730361  0.5555189007032265  0.1248832589213540
  0.7776857758525396  0.0555095545929374  0.6250767472881300
  0.2777452935426519  0.0555819278691526  0.1249190770292465
  0.4444233625617889  0.5555193481047642  0.1247399974245226
  0.7777800936328232  0.5555567134830804  0.1248175205718428
  0.6110540708680118  0.0555413093131101  0.1249542796210792
  0.4444233625617887  0.5555193481047642  0.6252600025754774
  0.9443354657646651  0.0555054027783727  0.1248485099611569
  0.2777639903360073  0.7221982288606263  0.6251187652579228
  0.1109606891617509  0.2221470112475397  0.6251903833658726
  0.4444233625617889  0.2222373477903612  0.6252600025754774
  0.6110688311753117  0.7221620142694393  0.6250267231021488
  0.9444322644422870  0.7222256460473927  0.6251042342213688
  0.7777091210791529  0.2221966675940344  0.6250610147421203
  0.1110992490635838  0.7222162911984564  0.1248907002426190
  0.4444197807235704  0.7221827486151774  0.1249049905302450
  0.2776649503023700  0.2222019563743968  0.1249647607572291
  0.7777535122908353  0.7222082231565309  0.1248242612014712
  0.6110688311753121  0.2222401502392004  0.1249732768978515
  0.9443354657646651  0.2221633963196279  0.1248485099611569
  0.1110354310442630  0.3888254879852416  0.6250652201091507
  0.2777639903360073  0.8888990948087093  0.6251187652579228
  0.6110540708680118  0.8888460948882304  0.6250457203789209
  0.4443073893825392  0.3888203613579340  0.6261766010094028
  0.9443981409512496  0.8888797038206204  0.6251128450507114
  0.1110885535730361  0.8889029862031389  0.1248832589213540
  0.7777535122908353  0.3888786224676331  0.6251757387985285
  0.4444187950505805  0.8888760641919546  0.1249004043344195
  0.2776649503023700  0.3887963272613012  0.1249647607572291
  0.2777452935426519  0.5554966990068351  0.1249190770292465
  0.6111062056705505  0.3889046291079003  0.1243746368490884
  0.7777091210791529  0.8888457868184484  0.1249389852578796
  0.9443981409512496  0.3888517704639580  0.1248871549492893
  0.1110885535730361  0.5555189007032265  0.6251167410786458
  0.2777452935426519  0.0555819278691526  0.6250809229707529
  0.7777800936328232  0.5555567134830804  0.6251824794281574
  0.6110540708680118  0.0555413093131101  0.6250457203789209
  0.9443354657646651  0.0555054027783727  0.6251514900388428
  0.0522558114437982  0.1090539953823143  0.3750000000000000
  0.5562335431160461  0.5968503777566994  0.3750000000000000
  0.3899488405816264  0.1163784205592288  0.3750000000000000
  0.8948516314926006  0.6140924824129701  0.3750000000000000
  0.7204864636408096  0.1115520856804441  0.3750000000000000
  0.0555627956310589  0.7777802393037208  0.8750000000000000
  0.3888886304394724  0.7777806817679843  0.8750000000000000
  0.2222256086472326  0.2777794709902843  0.8750000000000000
  0.7222260716244396  0.7777767149124448  0.8750000000000000
  0.5555578155640183  0.2777777489858655  0.8750000000000000
  0.8888955196044752  0.2777853299018136  0.8750000000000000
  0.2250672209754825  0.7792002771544099  0.3750000000000000
  0.0522558114437982  0.2765351493948195  0.3750000000000000
  0.3833348173797573  0.2800213052893907  0.3750000000000000
  0.5557127805190542  0.7721304785412095  0.3750000000000000
  0.8907447417099846  0.7780623117734020  0.3750000000000000
  0.7211754834265905  0.2806532361489840  0.3750000000000000
  0.0555606263647219  0.9444429120998210  0.8750000000000000
  0.3888886304394724  0.9444412820048245  0.8750000000000000
  0.2222236769100240  0.4444500467540698  0.8750000000000000
  0.5555604123525136  0.4444468728429211  0.8750000000000000
  0.7222229178287193  0.9444432770730886  0.8750000000000000
  0.8889001953462748  0.4444531618908335  0.8750000000000000
  0.0556701698202688  0.4445433830259490  0.3750000000000000
  0.2242396832238703  0.9465286570103740  0.3750000000000000
  0.5556779571237043  0.9445056452285149  0.3750000000000000
  0.3833348173797572  0.4366468454237022  0.3750000000000000
  0.8868657574711186  0.9423613706963102  0.3750000000000000
  0.7268762403768618  0.4490788097893405  0.3750000000000000
  0.2222221845177461  0.6111159855157332  0.8750000000000000
  0.0555598172802999  0.1111097531882002  0.8750000000000000
  0.5555578155640183  0.6111133999114895  0.8750000000000000
  0.3888866580770367  0.1111029701882875  0.8750000000000000
  0.8889044641646140  0.6111188987489781  0.8750000000000000
  0.0590097564951685  0.6125166267864173  0.3750000000000000
  0.7222229178287193  0.1111129740889675  0.8750000000000000
  0.2206694301640110  0.1109141945685229  0.3750000000000000
  0.3899488405816264  0.6069037533557405  0.3750000000000000
  0.7268762403768618  0.6111307639208564  0.3750000000000000
  0.5557127805190542  0.1169156353111806  0.3750000000000000
  0.3888866580770367  0.6111170212220920  0.8750000000000000
  0.8860216586540656  0.1096774959937040  0.3750000000000000
  0.2222234485092515  0.7777783909212951  0.8750000000000000
  0.0555598172802999  0.2777833974254352  0.8750000000000000
  0.3888890618888942  0.2777717000516505  0.8750000000000000
  0.5555547001139334  0.7777780514154313  0.8750000000000000
  0.8889001953462748  0.7777803667887778  0.8750000000000000
  0.7222260716244396  0.2777826900453308  0.8750000000000000
  0.0590097564951685  0.7798264630420864  0.3750000000000000
  0.3906813072944115  0.7770331887611523  0.3750000000000000
  0.2164266634098268  0.2748799983715812  0.3750000000000000
  0.7211754834265905  0.7738555806109421  0.3750000000000000
  0.5562335431160448  0.2927164986926810  0.3750000000000000
  0.8868657574711186  0.2778377201081454  0.3750000000000000
  0.0555606263647219  0.4444510475982292  0.8750000000000000
  0.2222221845177461  0.9444395323353485  0.8750000000000000
  0.5555532069534147  0.9444432701433708  0.8750000000000000
  0.3888890618888942  0.4444506951705797  0.8750000000000000
  0.8888955196044752  0.9444435230359974  0.8750000000000000
  0.0556701698202688  0.9444601201276490  0.3750000000000000
  0.7222345822275524  0.4444528927380756  0.8750000000000000
  0.3906813072944115  0.9469814518665952  0.3750000000000000
  0.2206694301640110  0.4430885689288239  0.3750000000000000
  0.2242396832238703  0.6110443595468319  0.3750000000000000
  0.7204864636408096  0.9422677112937026  0.3750000000000000
  0.8907447417099846  0.4460157632699186  0.3750000000000000
  0.0555627956310589  0.6111158896606746  0.8750000000000000
  0.2222236769100240  0.1111069634892898  0.8750000000000000
  0.7222345822275524  0.6111150228228118  0.8750000000000000
  0.5555547001139334  0.1111099820318376  0.8750000000000000
  0.8888933706719947  0.1111133520026686  0.8750000000000000
  0.1099252441728314  0.0552984219266199  0.3750000000000000
  0.6157504857783406  0.5373389069123934  0.3750000000000000
  0.4447606628948648  0.0598070321267587  0.3750000000000000
  0.9481825193907690  0.5571184618676266  0.3750000000000000
  0.7750119574732189  0.0541726454032772  0.3750000000000000
  0.1111133220296098  0.7222233276814691  0.8750000000000000
  0.4444393119394682  0.7221888695433760  0.8750000000000000
  0.2778423020015940  0.2222674994924482  0.8750000000000000
  0.7777477592696800  0.7221693424804855  0.8750000000000000
  0.6110840779008854  0.2222602075810866  0.8750000000000000
  0.9444661717983542  0.2222410609385481  0.8750000000000000
  0.2798241512232466  0.7223366586754172  0.3750000000000000
  0.1070072275469742  0.2201702804401513  0.3750000000000000
  0.4443492410406598  0.2304916430318232  0.3750000000000000
  0.6095678440214496  0.7115586006741507  0.3750000000000000
  0.9481825193907690  0.7243973908564785  0.3750000000000000
  0.7754073057841540  0.2232554157520848  0.3750000000000000
  0.1111220609988939  0.8888951346649430  0.8750000000000000
  0.4444357137722486  0.8888845235527881  0.8750000000000000
  0.2778423020015940  0.3889081358424746  0.8750000000000000
  0.6110769989387318  0.3889102990341262  0.8750000000000000
  0.7777654291023917  0.8888533482009033  0.8750000000000000
  0.9444498858115856  0.3889085027475944  0.8750000000000000
  0.1099252441728314  0.3879601555795401  0.3750000000000000
  0.2798241512232468  0.8908208258811577  0.3750000000000000
  0.6095564153335279  0.8852281463799463  0.3750000000000000
  0.9444936609950060  0.8885220500708896  0.3750000000000000
  0.7791110841017332  0.3917124068177477  0.3750000000000000
  0.2778052056442165  0.5555493479126785  0.8750000000000000
  0.1111512222954252  0.0555779792205312  0.8750000000000000
  0.6110769989387318  0.5555000332379335  0.8750000000000000
  0.4444393119394682  0.0555837757294269  0.8750000000000000
  0.9444324960317998  0.5555578105272758  0.8750000000000000
  0.1132798519799264  0.5558987408599562  0.3750000000000000
  0.7777736210027314  0.0555534771680334  0.8750000000000000
  0.2789598607682526  0.0583080947744630  0.3750000000000000
  0.4443492410406598  0.5471909313421729  0.3750000000000000
  0.7847264851828629  0.5590299092580986  0.3750000000000000
  0.6095564153335279  0.0576616022869102  0.3750000000000000
  0.4444535413419125  0.5555182661777786  0.8750000000000000
  0.9414853446849856  0.0535624017002023  0.3750000000000000
  0.2777846943761985  0.7222166470844638  0.8750000000000000
  0.1111697657360248  0.2222515495346767  0.8750000000000000
  0.4444535413419125  0.2222686084974695  0.8750000000000000
  0.6110840779008854  0.7221572036531263  0.8750000000000000
  0.9444324960317998  0.7222080188378623  0.8750000000000000
  0.7777654291023917  0.2222454142348176  0.8750000000000000
  0.1141949268261230  0.7237641300797265  0.3750000000000000
  0.4447606628948648  0.7182869641014422  0.3750000000000000
  0.2742515849331290  0.2220391715629763  0.3750000000000000
  0.7791110841017332  0.7207320106173134  0.3750000000000000
  0.6095678440214496  0.2313425766806279  0.3750000000000000
  0.9414853446849856  0.2212562763181186  0.3750000000000000
  0.1111512222954252  0.3889065764082229  0.8750000000000000
  0.2777846943761985  0.8889013806250637  0.8750000000000000
  0.6110924268098218  0.8888605506000704  0.8750000000000000
  0.4444725747012126  0.3889029540172703  0.8750000000000000
  0.9444498858115856  0.8888747163973211  0.8750000000000000
  0.1132798519799264  0.8907144444533011  0.3750000000000000
  0.7777477592696800  0.3889117501225235  0.8750000000000000
  0.4449360455495345  0.8891346894414314  0.3750000000000000
  0.2742515849331290  0.3855457467034812  0.3750000000000000
  0.2789598607682526  0.5539850993271257  0.3750000000000000
  0.6157504857783406  0.4117449121992759  0.3750000000000000
  0.7754073057841540  0.8854852233653979  0.3750000000000000
  0.9444936609950060  0.3893049442574448  0.3750000000000000
  0.1111220609988939  0.5555602596672795  0.8750000000000000
  0.2778052056442165  0.0555891910648739  0.8750000000000000
  0.7777399137735075  0.5555366235534214  0.8750000000000000
  0.6110924268098218  0.0555652095430800  0.8750000000000000
  0.9444661717983542  0.0555584441931413  0.8750000000000000
  0.0555127511221684  0.1111221021919988  0.1250594433564662
  0.5554888343869391  0.6108598237074661  0.1252864231646322
  0.3889521474471700  0.1113435203396281  0.1252426487778601
  0.8887257815237338  0.6110295574285376  0.1251117952135603
  0.7221389172366913  0.1111063430723313  0.1250978652662329
  0.0555086765581041  0.7777792698711604  0.6249442377303345
  0.3889150329319594  0.7777197219394915  0.6248987949572994
  0.2222447463233646  0.2777890398283500  0.6247224040589379
  0.7221055264956493  0.7776202175582040  0.6248369691057758
  0.5554888343869391  0.2779623440128082  0.6247135768353677
  0.8888033781311733  0.2777468572656290  0.6249457672366846
  0.2222393908674938  0.7777863621004145  0.1250486064127224
  0.0555127511221684  0.2777239822635051  0.1250594433564662
  0.3889759880785231  0.2780230741789375  0.1254756342782618
  0.5555189596686313  0.7776325192297904  0.1252030082304532
  0.8887597354152716  0.7776990507919105  0.1250858636130497
  0.7221055264956493  0.2778186422707812  0.1251630308942247
  0.0555280447667022  0.9444827196576981  0.6249207874805112
  0.3889150329319594  0.9445286443258052  0.6248987949572994
  0.2222731590349883  0.4443364452708451  0.6247328908046114
  0.5552953111713899  0.4443143222523592  0.6240553522227347
  0.7221389172366913  0.9443659074976956  0.6249021347337671
  0.8887597354152716  0.4443940179566963  0.6249141363869500
  0.0555280447667021  0.4443786584423317  0.1250792125194902
  0.2222588271734830  0.9445660561862850  0.1250964740608251
  0.5555232002170789  0.9444282667752034  0.1251194907359647
  0.3889759880785231  0.4442862472329215  0.1254756342782618
  0.8888033781311733  0.9443898541988810  0.1250542327633153
  0.7219761490863742  0.4443850982621293  0.1251689400080818
  0.2222588271734830  0.6110261043205345  0.6249035259391749
  0.0555127511221684  0.1111221021919988  0.6249405566435344
  0.5554888343869391  0.6108598237074661  0.6247135768353677
  0.3889521474471700  0.1113435203396281  0.6247573512221404
  0.8887257815237338  0.6110295574285376  0.6248882047864395
  0.0555086765581041  0.6110627400202794  0.1250557622696651
  0.7221389172366913  0.1111063430723313  0.6249021347337671
  0.2222731590349883  0.1112700470974788  0.1252671091953889
  0.3889521474471700  0.6109419604408844  0.1252426487778601
  0.7219761490863742  0.6109243841575800  0.1251689400080818
  0.5555189596686313  0.1112197737721768  0.1252030082304532
  0.3889521474471700  0.6109419604408844  0.6247573512221404
  0.8888088642584143  0.1110710987958786  0.1250289062585327
  0.2222393908674938  0.7777863621004145  0.6249513935872777
  0.0555127511221684  0.2777239822635051  0.6249405566435344
  0.3889759880785231  0.2780230741789375  0.6245243657217382
  0.5555189596686313  0.7776325192297904  0.6247969917695467
  0.8887597354152716  0.7776990507919105  0.6249141363869500
  0.7221055264956493  0.2778186422707812  0.6248369691057758
  0.0555086765581041  0.7777792698711604  0.1250557622696651
  0.3889150329319594  0.7777197219394915  0.1251012050427013
  0.2222447463233646  0.2777890398283500  0.1252775959410628
  0.7221055264956493  0.7776202175582040  0.1251630308942247
  0.5554888343869391  0.2779623440128082  0.1252864231646322
  0.8888033781311733  0.2777468572656290  0.1250542327633153
  0.0555280447667022  0.4443786584423317  0.6249207874805112
  0.2222588271734830  0.9445660561862850  0.6249035259391749
  0.5555232002170789  0.9444282667752034  0.6248805092640357
  0.3889759880785231  0.4442862472329215  0.6245243657217382
  0.8888033781311733  0.9443898541988810  0.6249457672366846
  0.0555280447667022  0.9444827196576981  0.1250792125194902
  0.7219761490863742  0.4443850982621293  0.6248310599919190
  0.3889150329319594  0.9445286443258052  0.1251012050427013
  0.2222731590349883  0.4443364452708451  0.1252671091953889
  0.2222588271734830  0.6110261043205345  0.1250964740608251
  0.5552953111713899  0.4443143222523592  0.1259446477772646
  0.7221389172366913  0.9443659074976956  0.1250978652662329
  0.8887597354152716  0.4443940179566963  0.1250858636130497
  0.0555086765581041  0.6110627400202794  0.6249442377303345
  0.2222731590349883  0.1112700470974788  0.6247328908046114
  0.7219761490863742  0.6109243841575800  0.6248310599919190
  0.5555189596686313  0.1112197737721768  0.6247969917695467
  0.8888088642584143  0.1110710987958786  0.6249710937414680
 
  0.00000000E+00  0.00000000E+00  0.00000000E+00
  0.00000000E+00  0.00000000E+00  0.00000000E+00
  0.00000000E+00  0.00000000E+00  0.00000000E+00
  0.00000000E+00  0.00000000E+00  0.00000000E+00
  0.00000000E+00  0.00000000E+00  0.00000000E+00
  0.00000000E+00  0.00000000E+00  0.00000000E+00
  0.00000000E+00  0.00000000E+00  0.00000000E+00
  0.00000000E+00  0.00000000E+00  0.00000000E+00
  0.00000000E+00  0.00000000E+00  0.00000000E+00
  0.00000000E+00  0.00000000E+00  0.00000000E+00
  0.00000000E+00  0.00000000E+00  0.00000000E+00
  0.00000000E+00  0.00000000E+00  0.00000000E+00
  0.00000000E+00  0.00000000E+00  0.00000000E+00
  0.00000000E+00  0.00000000E+00  0.00000000E+00
  0.00000000E+00  0.00000000E+00  0.00000000E+00
  0.00000000E+00  0.00000000E+00  0.00000000E+00
  0.00000000E+00  0.00000000E+00  0.00000000E+00
  0.00000000E+00  0.00000000E+00  0.00000000E+00
  0.00000000E+00  0.00000000E+00  0.00000000E+00
  0.00000000E+00  0.00000000E+00  0.00000000E+00
  0.00000000E+00  0.00000000E+00  0.00000000E+00
  0.00000000E+00  0.00000000E+00  0.00000000E+00
  0.00000000E+00  0.00000000E+00  0.00000000E+00
  0.00000000E+00  0.00000000E+00  0.00000000E+00
  0.00000000E+00  0.00000000E+00  0.00000000E+00
  0.00000000E+00  0.00000000E+00  0.00000000E+00
  0.00000000E+00  0.00000000E+00  0.00000000E+00
  0.00000000E+00  0.00000000E+00  0.00000000E+00
  0.00000000E+00  0.00000000E+00  0.00000000E+00
  0.00000000E+00  0.00000000E+00  0.00000000E+00
  0.00000000E+00  0.00000000E+00  0.00000000E+00
  0.00000000E+00  0.00000000E+00  0.00000000E+00
  0.00000000E+00  0.00000000E+00  0.00000000E+00
  0.00000000E+00  0.00000000E+00  0.00000000E+00
  0.00000000E+00  0.00000000E+00  0.00000000E+00
  0.00000000E+00  0.00000000E+00  0.00000000E+00
  0.00000000E+00  0.00000000E+00  0.00000000E+00
  0.00000000E+00  0.00000000E+00  0.00000000E+00
  0.00000000E+00  0.00000000E+00  0.00000000E+00
  0.00000000E+00  0.00000000E+00  0.00000000E+00
  0.00000000E+00  0.00000000E+00  0.00000000E+00
  0.00000000E+00  0.00000000E+00  0.00000000E+00
  0.00000000E+00  0.00000000E+00  0.00000000E+00
  0.00000000E+00  0.00000000E+00  0.00000000E+00
  0.00000000E+00  0.00000000E+00  0.00000000E+00
  0.00000000E+00  0.00000000E+00  0.00000000E+00
  0.00000000E+00  0.00000000E+00  0.00000000E+00
  0.00000000E+00  0.00000000E+00  0.00000000E+00
  0.00000000E+00  0.00000000E+00  0.00000000E+00
  0.00000000E+00  0.00000000E+00  0.00000000E+00
  0.00000000E+00  0.00000000E+00  0.00000000E+00
  0.00000000E+00  0.00000000E+00  0.00000000E+00
  0.00000000E+00  0.00000000E+00  0.00000000E+00
  0.00000000E+00  0.00000000E+00  0.00000000E+00
  0.00000000E+00  0.00000000E+00  0.00000000E+00
  0.00000000E+00  0.00000000E+00  0.00000000E+00
  0.00000000E+00  0.00000000E+00  0.00000000E+00
  0.00000000E+00  0.00000000E+00  0.00000000E+00
  0.00000000E+00  0.00000000E+00  0.00000000E+00
  0.00000000E+00  0.00000000E+00  0.00000000E+00
  0.00000000E+00  0.00000000E+00  0.00000000E+00
  0.00000000E+00  0.00000000E+00  0.00000000E+00
  0.00000000E+00  0.00000000E+00  0.00000000E+00
  0.00000000E+00  0.00000000E+00  0.00000000E+00
  0.00000000E+00  0.00000000E+00  0.00000000E+00
  0.00000000E+00  0.00000000E+00  0.00000000E+00
  0.00000000E+00  0.00000000E+00  0.00000000E+00
  0.00000000E+00  0.00000000E+00  0.00000000E+00
  0.00000000E+00  0.00000000E+00  0.00000000E+00
  0.00000000E+00  0.00000000E+00  0.00000000E+00
  0.00000000E+00  0.00000000E+00  0.00000000E+00
  0.00000000E+00  0.00000000E+00  0.00000000E+00
  0.00000000E+00  0.00000000E+00  0.00000000E+00
  0.00000000E+00  0.00000000E+00  0.00000000E+00
  0.00000000E+00  0.00000000E+00  0.00000000E+00
  0.00000000E+00  0.00000000E+00  0.00000000E+00
  0.00000000E+00  0.00000000E+00  0.00000000E+00
  0.00000000E+00  0.00000000E+00  0.00000000E+00
  0.00000000E+00  0.00000000E+00  0.00000000E+00
  0.00000000E+00  0.00000000E+00  0.00000000E+00
  0.00000000E+00  0.00000000E+00  0.00000000E+00
  0.00000000E+00  0.00000000E+00  0.00000000E+00
  0.00000000E+00  0.00000000E+00  0.00000000E+00
  0.00000000E+00  0.00000000E+00  0.00000000E+00
  0.00000000E+00  0.00000000E+00  0.00000000E+00
  0.00000000E+00  0.00000000E+00  0.00000000E+00
  0.00000000E+00  0.00000000E+00  0.00000000E+00
  0.00000000E+00  0.00000000E+00  0.00000000E+00
  0.00000000E+00  0.00000000E+00  0.00000000E+00
  0.00000000E+00  0.00000000E+00  0.00000000E+00
  0.00000000E+00  0.00000000E+00  0.00000000E+00
  0.00000000E+00  0.00000000E+00  0.00000000E+00
  0.00000000E+00  0.00000000E+00  0.00000000E+00
  0.00000000E+00  0.00000000E+00  0.00000000E+00
  0.00000000E+00  0.00000000E+00  0.00000000E+00
  0.00000000E+00  0.00000000E+00  0.00000000E+00
  0.00000000E+00  0.00000000E+00  0.00000000E+00
  0.00000000E+00  0.00000000E+00  0.00000000E+00
  0.00000000E+00  0.00000000E+00  0.00000000E+00
  0.00000000E+00  0.00000000E+00  0.00000000E+00
  0.00000000E+00  0.00000000E+00  0.00000000E+00
  0.00000000E+00  0.00000000E+00  0.00000000E+00
  0.00000000E+00  0.00000000E+00  0.00000000E+00
  0.00000000E+00  0.00000000E+00  0.00000000E+00
  0.00000000E+00  0.00000000E+00  0.00000000E+00
  0.00000000E+00  0.00000000E+00  0.00000000E+00
  0.00000000E+00  0.00000000E+00  0.00000000E+00
  0.00000000E+00  0.00000000E+00  0.00000000E+00
  0.00000000E+00  0.00000000E+00  0.00000000E+00
  0.00000000E+00  0.00000000E+00  0.00000000E+00
  0.00000000E+00  0.00000000E+00  0.00000000E+00
  0.00000000E+00  0.00000000E+00  0.00000000E+00
  0.00000000E+00  0.00000000E+00  0.00000000E+00
  0.00000000E+00  0.00000000E+00  0.00000000E+00
  0.00000000E+00  0.00000000E+00  0.00000000E+00
  0.00000000E+00  0.00000000E+00  0.00000000E+00
  0.00000000E+00  0.00000000E+00  0.00000000E+00
  0.00000000E+00  0.00000000E+00  0.00000000E+00
  0.00000000E+00  0.00000000E+00  0.00000000E+00
  0.00000000E+00  0.00000000E+00  0.00000000E+00
  0.00000000E+00  0.00000000E+00  0.00000000E+00
  0.00000000E+00  0.00000000E+00  0.00000000E+00
  0.00000000E+00  0.00000000E+00  0.00000000E+00
  0.00000000E+00  0.00000000E+00  0.00000000E+00
  0.00000000E+00  0.00000000E+00  0.00000000E+00
  0.00000000E+00  0.00000000E+00  0.00000000E+00
  0.00000000E+00  0.00000000E+00  0.00000000E+00
  0.00000000E+00  0.00000000E+00  0.00000000E+00
  0.00000000E+00  0.00000000E+00  0.00000000E+00
  0.00000000E+00  0.00000000E+00  0.00000000E+00
  0.00000000E+00  0.00000000E+00  0.00000000E+00
  0.00000000E+00  0.00000000E+00  0.00000000E+00
  0.00000000E+00  0.00000000E+00  0.00000000E+00
  0.00000000E+00  0.00000000E+00  0.00000000E+00
  0.00000000E+00  0.00000000E+00  0.00000000E+00
  0.00000000E+00  0.00000000E+00  0.00000000E+00
  0.00000000E+00  0.00000000E+00  0.00000000E+00
  0.00000000E+00  0.00000000E+00  0.00000000E+00
  0.00000000E+00  0.00000000E+00  0.00000000E+00
  0.00000000E+00  0.00000000E+00  0.00000000E+00
  0.00000000E+00  0.00000000E+00  0.00000000E+00
  0.00000000E+00  0.00000000E+00  0.00000000E+00
  0.00000000E+00  0.00000000E+00  0.00000000E+00
  0.00000000E+00  0.00000000E+00  0.00000000E+00
  0.00000000E+00  0.00000000E+00  0.00000000E+00
  0.00000000E+00  0.00000000E+00  0.00000000E+00
  0.00000000E+00  0.00000000E+00  0.00000000E+00
  0.00000000E+00  0.00000000E+00  0.00000000E+00
  0.00000000E+00  0.00000000E+00  0.00000000E+00
  0.00000000E+00  0.00000000E+00  0.00000000E+00
  0.00000000E+00  0.00000000E+00  0.00000000E+00
  0.00000000E+00  0.00000000E+00  0.00000000E+00
  0.00000000E+00  0.00000000E+00  0.00000000E+00
  0.00000000E+00  0.00000000E+00  0.00000000E+00
  0.00000000E+00  0.00000000E+00  0.00000000E+00
  0.00000000E+00  0.00000000E+00  0.00000000E+00
  0.00000000E+00  0.00000000E+00  0.00000000E+00
  0.00000000E+00  0.00000000E+00  0.00000000E+00
  0.00000000E+00  0.00000000E+00  0.00000000E+00
  0.00000000E+00  0.00000000E+00  0.00000000E+00
  0.00000000E+00  0.00000000E+00  0.00000000E+00
  0.00000000E+00  0.00000000E+00  0.00000000E+00
  0.00000000E+00  0.00000000E+00  0.00000000E+00
  0.00000000E+00  0.00000000E+00  0.00000000E+00
  0.00000000E+00  0.00000000E+00  0.00000000E+00
  0.00000000E+00  0.00000000E+00  0.00000000E+00
  0.00000000E+00  0.00000000E+00  0.00000000E+00
  0.00000000E+00  0.00000000E+00  0.00000000E+00
  0.00000000E+00  0.00000000E+00  0.00000000E+00
  0.00000000E+00  0.00000000E+00  0.00000000E+00
  0.00000000E+00  0.00000000E+00  0.00000000E+00
  0.00000000E+00  0.00000000E+00  0.00000000E+00
  0.00000000E+00  0.00000000E+00  0.00000000E+00
  0.00000000E+00  0.00000000E+00  0.00000000E+00
  0.00000000E+00  0.00000000E+00  0.00000000E+00
  0.00000000E+00  0.00000000E+00  0.00000000E+00
  0.00000000E+00  0.00000000E+00  0.00000000E+00
  0.00000000E+00  0.00000000E+00  0.00000000E+00
  0.00000000E+00  0.00000000E+00  0.00000000E+00
  0.00000000E+00  0.00000000E+00  0.00000000E+00
  0.00000000E+00  0.00000000E+00  0.00000000E+00
  0.00000000E+00  0.00000000E+00  0.00000000E+00
  0.00000000E+00  0.00000000E+00  0.00000000E+00
  0.00000000E+00  0.00000000E+00  0.00000000E+00
  0.00000000E+00  0.00000000E+00  0.00000000E+00
  0.00000000E+00  0.00000000E+00  0.00000000E+00
  0.00000000E+00  0.00000000E+00  0.00000000E+00
  0.00000000E+00  0.00000000E+00  0.00000000E+00
  0.00000000E+00  0.00000000E+00  0.00000000E+00
  0.00000000E+00  0.00000000E+00  0.00000000E+00
  0.00000000E+00  0.00000000E+00  0.00000000E+00
  0.00000000E+00  0.00000000E+00  0.00000000E+00
  0.00000000E+00  0.00000000E+00  0.00000000E+00
  0.00000000E+00  0.00000000E+00  0.00000000E+00
  0.00000000E+00  0.00000000E+00  0.00000000E+00
  0.00000000E+00  0.00000000E+00  0.00000000E+00
  0.00000000E+00  0.00000000E+00  0.00000000E+00
  0.00000000E+00  0.00000000E+00  0.00000000E+00
  0.00000000E+00  0.00000000E+00  0.00000000E+00
  0.00000000E+00  0.00000000E+00  0.00000000E+00
  0.00000000E+00  0.00000000E+00  0.00000000E+00
  0.00000000E+00  0.00000000E+00  0.00000000E+00
  0.00000000E+00  0.00000000E+00  0.00000000E+00
  0.00000000E+00  0.00000000E+00  0.00000000E+00
  0.00000000E+00  0.00000000E+00  0.00000000E+00
  0.00000000E+00  0.00000000E+00  0.00000000E+00
  0.00000000E+00  0.00000000E+00  0.00000000E+00
  0.00000000E+00  0.00000000E+00  0.00000000E+00
  0.00000000E+00  0.00000000E+00  0.00000000E+00
  0.00000000E+00  0.00000000E+00  0.00000000E+00
  0.00000000E+00  0.00000000E+00  0.00000000E+00
  0.00000000E+00  0.00000000E+00  0.00000000E+00
  0.00000000E+00  0.00000000E+00  0.00000000E+00
  0.00000000E+00  0.00000000E+00  0.00000000E+00
  0.00000000E+00  0.00000000E+00  0.00000000E+00
  0.00000000E+00  0.00000000E+00  0.00000000E+00
  0.00000000E+00  0.00000000E+00  0.00000000E+00
  0.00000000E+00  0.00000000E+00  0.00000000E+00
  0.00000000E+00  0.00000000E+00  0.00000000E+00
  0.00000000E+00  0.00000000E+00  0.00000000E+00
  0.00000000E+00  0.00000000E+00  0.00000000E+00
  0.00000000E+00  0.00000000E+00  0.00000000E+00
  0.00000000E+00  0.00000000E+00  0.00000000E+00
  0.00000000E+00  0.00000000E+00  0.00000000E+00
  0.00000000E+00  0.00000000E+00  0.00000000E+00
  0.00000000E+00  0.00000000E+00  0.00000000E+00
  0.00000000E+00  0.00000000E+00  0.00000000E+00
  0.00000000E+00  0.00000000E+00  0.00000000E+00
  0.00000000E+00  0.00000000E+00  0.00000000E+00
  0.00000000E+00  0.00000000E+00  0.00000000E+00
  0.00000000E+00  0.00000000E+00  0.00000000E+00
  0.00000000E+00  0.00000000E+00  0.00000000E+00
  0.00000000E+00  0.00000000E+00  0.00000000E+00
  0.00000000E+00  0.00000000E+00  0.00000000E+00
  0.00000000E+00  0.00000000E+00  0.00000000E+00
  0.00000000E+00  0.00000000E+00  0.00000000E+00
  0.00000000E+00  0.00000000E+00  0.00000000E+00
  0.00000000E+00  0.00000000E+00  0.00000000E+00
  0.00000000E+00  0.00000000E+00  0.00000000E+00
  0.00000000E+00  0.00000000E+00  0.00000000E+00
  0.00000000E+00  0.00000000E+00  0.00000000E+00
  0.00000000E+00  0.00000000E+00  0.00000000E+00
  0.00000000E+00  0.00000000E+00  0.00000000E+00
  0.00000000E+00  0.00000000E+00  0.00000000E+00
  0.00000000E+00  0.00000000E+00  0.00000000E+00
  0.00000000E+00  0.00000000E+00  0.00000000E+00
  0.00000000E+00  0.00000000E+00  0.00000000E+00
  0.00000000E+00  0.00000000E+00  0.00000000E+00