Species order:X N B                     
   2.51242800000000     
     5.9449720136058266    0.0000000000000000    0.0000000000000000
    -2.9724860068029120    5.1484967885702053   -0.0000000000000001
     0.0000000000000000    0.0000000000000009    5.3101128803662583
   C    N    B 
     3   142   142
Direct
  0.3896320825959328  0.4412646892989273  0.3750000000000000
  0.4450201140278916  0.3868966691108542  0.3750000000000000
  0.5495195589456147  0.4409601055799623  0.3750000000000000
  0.1109945725052380  0.0556080851070272  0.1216390707701742
  0.6110559925479143  0.5556697233103526  0.1219841937847295
  0.4443613695074202  0.0556124932789206  0.1204179046916104
  0.9443249234962465  0.5555776110500860  0.1241918795829020
  0.7776847625307602  0.0556054398218315  0.1218903483955739
  0.1110021976974908  0.7222627571393988  0.6261389921842773
  0.4443690631024722  0.7222872114362348  0.6274841069883245
  0.2776332392962899  0.2222552245870505  0.6290227917032858
  0.7776936769030315  0.7223166219430970  0.6276324500484742
  0.6110340064722001  0.2222568434545455  0.6290564533820298
  0.9443097508926620  0.2222364432707791  0.6269776554408167
  0.2776888187532300  0.7222639363619189  0.1235935117094541
  0.1109468264246278  0.2222307929941699  0.1222908910042013
  0.4443306468809096  0.2222700389685641  0.1206308535531427
  0.6110342700136910  0.7223001707435237  0.1219216583185384
  0.9443302785315706  0.7222730189170039  0.1233881178326579
  0.7776849462942895  0.2222493490509818  0.1220497147338248
  0.1110092179287371  0.8889445296599874  0.6277447220434986
  0.4443663907966686  0.8889566608865136  0.6283280548128070
  0.2775558774845970  0.3888575894949774  0.6279714777086913
  0.6110217174781796  0.3889269084432700  0.6289144483912424
  0.7776984425237466  0.8889766644377375  0.6279386910764037
  0.9443169705204852  0.3889013177873377  0.6261008390860607
  0.1109630706576441  0.3888920437968779  0.1239336177526592
  0.2776873508951237  0.8889425206153816  0.1219562748972459
  0.6110371413692544  0.8889673948961432  0.1217083746988228
  0.4442887740848384  0.3888853129552249  0.1216141083795050
  0.9443522224258869  0.8889687392984388  0.1223494624001379
  0.7776689057154638  0.3888993885269896  0.1227634316361958
  0.2776787057525043  0.5555768410241571  0.6263064159175109
  0.1109945725052380  0.0556080851070272  0.6283609292297319
  0.6110559925479143  0.5556697233103526  0.6280158062147178
  0.4443613695074202  0.0556124932789206  0.6295820953081783
  0.9443249234962465  0.5555776110500860  0.6258081204171715
  0.1109914970572611  0.5555692532751743  0.1246516499817325
  0.7776847625307602  0.0556054398218315  0.6281096516045597
  0.2776763851463032  0.0556164661706716  0.1207950673312805
  0.4443809487364722  0.5556562880433654  0.1219287339925889
  0.7776600806636430  0.5556068625831028  0.1232446619688914
  0.6110364479937754  0.0556126464298736  0.1209387520788703
  0.4443809487364722  0.5556562880433654  0.6280712660072616
  0.9443279543282527  0.0556024218037862  0.1223447792618273
  0.2776888187532300  0.7222639363619189  0.6264064882905644
  0.1109468264246278  0.2222307929939862  0.6277091089958082
  0.4443306468809090  0.2222700389685641  0.6293691464468015
  0.6110342700136910  0.7223001707435237  0.6280783416821469
  0.9443302785315706  0.7222730189170039  0.6266118821670904
  0.7776849462942895  0.2222493490509818  0.6279502852664247
  0.1110021976974908  0.7222627571393988  0.1238610078150102
  0.4443690631024722  0.7222872114362348  0.1225158930118219
  0.2776332392962899  0.2222552245870505  0.1209772082961459
  0.7776936769030540  0.7223166219430971  0.1223675499517209
  0.6110340064722001  0.2222568434545512  0.1209435466182436
  0.9443097508926620  0.2222364432707791  0.1230223445593700
  0.1109630706576441  0.3888920437968779  0.6260663822470618
  0.2776873508951237  0.8889425206153816  0.6280437251026317
  0.6110371413692544  0.8889673948961432  0.6282916253012176
  0.4442887740848384  0.3888853129552249  0.6283858916204427
  0.9443522224258869  0.8889687392984388  0.6276505375996452
  0.1110092179287371  0.8889445296599874  0.1222552779567163
  0.7776689057154638  0.3888993885269896  0.6272365683643417
  0.4443663907966686  0.8889566608865136  0.1216719451872736
  0.2775558774845970  0.3888575894949774  0.1220285222909067
  0.2776787057525043  0.5555768410241571  0.1236935840824594
  0.6110217174781796  0.3889269084432700  0.1210855516085869
  0.7776984425237466  0.8889766644377375  0.1220613089235880
  0.9443169705204632  0.3889013177873377  0.1238991609142660
  0.1109914970572612  0.5555692532751609  0.6253483500181044
  0.2776763851463032  0.0556164661706716  0.6292049326684939
  0.7776600806636430  0.5556068625831028  0.6267553380311902
  0.6110364479937754  0.0556126464298738  0.6290612479210954
  0.9443279543282527  0.0556024218037862  0.6276552207382514
  0.0547915410143758  0.1095191547533981  0.3750000000000000
  0.5575397851037754  0.6137647537227932  0.3750000000000000
  0.3892254456982920  0.1111619792184863  0.3750000000000000
  0.8891515297940126  0.6106389405118483  0.3750000000000000
  0.7223276468543114  0.1102193162704057  0.3750000000000000
  0.0556560974367870  0.7781722030078765  0.8750000000000000
  0.3889624438919889  0.7781737843756955  0.8750000000000000
  0.2223270281662673  0.2781815253460814  0.8750000000000000
  0.7223127600308704  0.7781704955674097  0.8750000000000000
  0.5556633273222041  0.2781807459892986  0.8750000000000000
  0.8890081943263998  0.2781932965991941  0.8750000000000000
  0.2222958295429605  0.7774756929109033  0.3750000000000000
  0.0549702040204845  0.2768767833669595  0.3750000000000000
  0.3887984238777948  0.2777962887562206  0.3750000000000000
  0.5557286398645062  0.7782635263575621  0.3750000000000000
  0.8897024620930818  0.7777698967264077  0.3750000000000000
  0.7230058696316298  0.2764026476666266  0.3750000000000000
  0.0556585289515468  0.9448364258517553  0.8750000000000000
  0.3889770435484105  0.9448335631792719  0.8750000000000000
  0.2223245301611699  0.4448665817728924  0.8750000000000000
  0.5556562057370574  0.4448539485952899  0.8750000000000000
  0.7223166477937195  0.9448351648206487  0.8750000000000000
  0.8890106558885154  0.4448593631828593  0.8750000000000000
  0.0554653348793416  0.4441028655403086  0.3750000000000000
  0.2225094197639539  0.9441173651079577  0.3750000000000000
  0.5554818366604688  0.9440233684514096  0.3750000000000000
  0.8891367971271564  0.9438969216278297  0.3750000000000000
  0.7267751120247457  0.4449397586607388  0.3750000000000000
  0.2223058314946868  0.6115191604807534  0.8750000000000000
  0.0556627699818100  0.1115083594036101  0.8750000000000000
  0.5556449181102342  0.6115159446517936  0.8750000000000000
  0.3889876347668111  0.1115082914494821  0.8750000000000000
  0.8890032674092526  0.6115142206508010  0.8750000000000000
  0.0557913781387514  0.6108319302741094  0.3750000000000000
  0.7223266759622309  0.1115113499306839  0.8750000000000000
  0.2225229963364520  0.1106483448943213  0.3750000000000000
  0.3889864534708363  0.6117442450949274  0.3750000000000000
  0.7233137924989163  0.6120159823053239  0.3750000000000000
  0.5556850859269048  0.1100581775720221  0.3750000000000000
  0.3889684063532963  0.6115236997515803  0.8750000000000000
  0.8888307544212796  0.1103324492763948  0.3750000000000000
  0.2223079507849366  0.7781702356837860  0.8750000000000000
  0.0556694328495715  0.2781923951541476  0.8750000000000000
  0.3889950483399504  0.2781859873983233  0.8750000000000000
  0.5556351045311052  0.7781734712764635  0.8750000000000000
  0.8889965282549733  0.7781759987146382  0.8750000000000000
  0.7223362676280376  0.2781855942341287  0.8750000000000000
  0.0558724837056717  0.7773794881869648  0.3750000000000000
  0.3887677010819400  0.7778161447484893  0.3750000000000000
  0.2193937536106343  0.2747564333315647  0.3750000000000000
  0.7232636710208672  0.7784074683732483  0.3750000000000000
  0.5558983846313883  0.2749432607885228  0.3750000000000000
  0.8891426957882760  0.2770994580803011  0.3750000000000000
  0.0556668053561497  0.4448647040326125  0.8750000000000000
  0.2223164100502958  0.9448330312706210  0.8750000000000000
  0.5556386359823581  0.9448348873563034  0.8750000000000000
  0.3889910145952862  0.4448584791340264  0.8750000000000000
  0.8889948885084360  0.9448417684087388  0.8750000000000000
  0.0559879312403746  0.9439990252480273  0.3750000000000000
  0.7223429075903804  0.4448557943957439  0.8750000000000000
  0.3888740658935137  0.9441778321802612  0.3750000000000000
  0.2209430428959045  0.4437573091893543  0.3750000000000000
  0.2222145215921981  0.6108664650969722  0.3750000000000000
  0.7223787074635210  0.9440853938928009  0.3750000000000000
  0.8896682159633968  0.4439229945903715  0.3750000000000000
  0.0556583726904199  0.6115130960217802  0.8750000000000000
  0.2223252191960714  0.1115057197235977  0.8750000000000000
  0.7223300683430584  0.6115162575917940  0.8750000000000000
  0.5556527616731708  0.1115005143033250  0.8750000000000000
  0.8889985984518196  0.1115143167073042  0.8750000000000000
  0.1117201583599228  0.0552585715347670  0.3750000000000000
  0.6110077351224373  0.5549382445022542  0.3750000000000000
  0.4449204488926909  0.0560253714027835  0.3750000000000000
  0.9440769291578166  0.5547587476189683  0.3750000000000000
  0.7777299887896515  0.0550099110134923  0.3750000000000000
  0.1111932860382313  0.7225949883930738  0.8750000000000000
  0.4445162196338800  0.7225472917425034  0.8750000000000000
  0.2779872343070997  0.2227148884097159  0.8750000000000000
  0.7778055178481492  0.7225119304773550  0.8750000000000000
  0.6111955048403375  0.2227035255923007  0.8750000000000000
  0.9445794131981132  0.2226718407703870  0.8750000000000000
  0.2777829391776376  0.7217242027286975  0.3750000000000000
  0.1102173831697627  0.2206822508484332  0.3750000000000000
  0.4482732373144549  0.2251155746490018  0.3750000000000000
  0.6118462386542174  0.7227492946376453  0.3750000000000000
  0.9442760973679863  0.7211550310970620  0.3750000000000000
  0.7777405155311993  0.2217296320848640  0.3750000000000000
  0.1112204138387632  0.8892805792302354  0.8750000000000000
  0.4445241991768925  0.8892795574602701  0.8750000000000000
  0.2779841103379673  0.3893427043215145  0.8750000000000000
  0.6111857235084871  0.3893196740594614  0.8750000000000000
  0.7778410040673350  0.8892268544459266  0.8750000000000000
  0.9445367205059405  0.3893237225186858  0.8750000000000000
  0.1111171301372323  0.3885819482989497  0.3750000000000000
  0.2780388545885367  0.8886554186601403  0.3750000000000000
  0.6110234047488781  0.8885750834697630  0.3750000000000000
  0.9448163074325358  0.8883024552001644  0.3750000000000000
  0.7765969527050770  0.3877759104601676  0.3750000000000000
  0.2779117118520210  0.5559262133074451  0.8750000000000000
  0.1112731340413409  0.0559921313138902  0.8750000000000000
  0.6111560737057824  0.5558686771773724  0.8750000000000000
  0.4445612658355871  0.0560150842896088  0.8750000000000000
  0.9444966485195443  0.5559326257767931  0.8750000000000000
  0.1112614352718676  0.5551834709111245  0.3750000000000000
  0.7778651704699084  0.0559663835241062  0.8750000000000000
  0.2788096007728064  0.0558827002301628  0.3750000000000000
  0.4461488988419059  0.5556430011400963  0.3750000000000000
  0.7753732436832635  0.5529095030014882  0.3750000000000000
  0.6109959574559645  0.0552592186708506  0.3750000000000000
  0.4445415554152506  0.5558952036053741  0.8750000000000000
  0.9442662090873277  0.0546450973643776  0.3750000000000000
  0.2778703706714780  0.7226009112337772  0.8750000000000000
  0.1113058071608820  0.2226869303674567  0.8750000000000000
  0.4446037874281826  0.2227179517383440  0.8750000000000000
  0.6111482393628789  0.7225120899137760  0.8750000000000000
  0.9444940849930413  0.7225580089803670  0.8750000000000000
  0.7778582772475466  0.2226754612444263  0.8750000000000000
  0.1111964594478071  0.7216804882786299  0.3750000000000000
  0.4441845254445883  0.7216851181395794  0.3750000000000000
  0.2781755575029600  0.2227197227525631  0.3750000000000000
  0.7780025861092807  0.7214429592646388  0.3750000000000000
  0.6111547877651212  0.2233285070377521  0.3750000000000000
  0.9444225652182190  0.2217063202024216  0.3750000000000000
  0.1112784172977759  0.3893322685196139  0.8750000000000000
  0.2778863900555866  0.8892966318124845  0.8750000000000000
  0.6111678458914501  0.8892392970024665  0.8750000000000000
  0.4446106118030391  0.3893465095863542  0.8750000000000000
  0.9445317896176646  0.8892463462073389  0.8750000000000000
  0.1115033481605293  0.8884558023217402  0.3750000000000000
  0.7778240351848104  0.3893194886377994  0.8750000000000000
  0.4443635255072093  0.8887003825232396  0.3750000000000000
  0.2765874398800854  0.3867493566069360  0.3750000000000000
  0.2782108205331313  0.5548112168092300  0.3750000000000000
  0.7780381686324646  0.8884823231846598  0.3750000000000000
  0.9444360022853177  0.3884823769596904  0.3750000000000000
  0.1112091440554631  0.5559500191348966  0.8750000000000000
  0.2779394591132036  0.0560190138162392  0.8750000000000000
  0.7777971878770130  0.5558849659205700  0.8750000000000000
  0.6111811648090130  0.0559905222213202  0.8750000000000000
  0.9445720206813065  0.0559663139354881  0.8750000000000000
  0.0555194550985579  0.1112635173872681  0.1224540319525000
  0.5553889322047005  0.6108624676159948  0.1228604051141517
  0.3889969757301049  0.1115120102749436  0.1210893734179157
  0.8884570732135499  0.6109464018897754  0.1242932932936511
  0.7221168005755783  0.1112541442232870  0.1219559787511907
  0.0553477026914340  0.7777650538270263  0.6264421088152248
  0.3888713100890590  0.7777765933645713  0.6269741308168391
  0.2222977370929672  0.2780004955181025  0.6275703406932871
  0.7220278398568365  0.7776728695348138  0.6274827145727678
  0.5555940305575691  0.2781801213865108  0.6275056031097778
  0.8886991190840613  0.2778113337470461  0.6265306365369718
  0.2221419815970928  0.7778071619041933  0.1235425290183368
  0.0554922944660748  0.2778389243237943  0.1235990372957146
  0.3890522014685512  0.2781558606866560  0.1219607526431676
  0.5554715140481887  0.7777016061375791  0.1224585890552101
  0.8886278973877509  0.7777116296707429  0.1231152797974774
  0.7219950259139205  0.2779194892337868  0.1226391925394711
  0.0554582164766093  0.9445517442138902  0.6276032301417077
  0.3889059559076136  0.9446573354340128  0.6283728045355533
  0.2222656766016538  0.4443709193516769  0.6259691532437088
  0.5553993851215745  0.4443285914958598  0.6258213941732130
  0.7221160458985099  0.9444873820324636  0.6278191384022090
  0.8885135228854391  0.4443595835279100  0.6257010922818557
  0.0554007712487983  0.4443906168035007  0.1247537032005912
  0.2221970153221659  0.9446308717390165  0.1219554154133093
  0.5555194737453408  0.9445712370828312  0.1217187554590525
  0.3889220249062473  0.4443905929618274  0.1241487132298248
  0.8887574913659247  0.9444865127460798  0.1225546907431582
  0.7217088036472824  0.4443000809234812  0.1240021591078808
  0.2221856650023532  0.6110191482676121  0.6254280465236776
  0.0555194550985579  0.1112635173872681  0.6275459680474403
  0.5553889322047005  0.6108624676159948  0.6271395948864003
  0.3889969757301049  0.1115120102749444  0.6289106265818614
  0.8884570732135499  0.6109464018897754  0.6257067067062915
  0.0553114396709325  0.6110236579750760  0.1247767322696754
  0.7221168005755407  0.1112541442232870  0.6280440212492286
  0.2222806678559818  0.1113908263350786  0.1214866885642990
  0.3889317041990978  0.6109441218601119  0.1234726277805923
  0.7218244932902179  0.6108743400110175  0.1234044471129098
  0.5555586625794331  0.1114274498528574  0.1212371340866512
  0.3889317041990978  0.6109441218601119  0.6265273722197954
  0.8887864719857642  0.1111975891149002  0.1227487741124102
  0.2221419815970928  0.7778071619041933  0.6264574709814709
  0.0554922944660748  0.2778389243237943  0.6264009627042648
  0.3890522014685512  0.2781558606866560  0.6280392473572380
  0.5554715140481887  0.7777016061375791  0.6275414109445339
  0.8886278973877509  0.7777116296707429  0.6268847202028366
  0.7219950259139205  0.2779194892337868  0.6273608074606195
  0.0553477026914341  0.7777650538270263  0.1235578911846722
  0.3888713100890590  0.7777765933645713  0.1230258691833263
  0.2222977370929672  0.2780004955181025  0.1224296593071857
  0.7220278398568365  0.7776728695348138  0.1225172854266842
  0.5555940305575691  0.2781801213865108  0.1224943968901011
  0.8886991190840613  0.2778113337470461  0.1234693634628288
  0.0554007712487983  0.4443906168035007  0.6252462967995852
  0.2221970153221659  0.9446308717390165  0.6280445845866941
  0.5555194737453396  0.9445712370828312  0.6282812445406382
  0.3889220249062473  0.4443905929618274  0.6258512867703603
  0.8887574913659247  0.9444865127460798  0.6274453092565913
  0.0554582164766097  0.9445517442138902  0.1223967698580647
  0.7217088036472824  0.4443000809234812  0.6259978408921458
  0.3889059559076136  0.9446573354340128  0.1216271954647677
  0.2222656766016538  0.4443709193516769  0.1240308467561748
  0.2221856650023532  0.6110191482676121  0.1245719534768405
  0.5553993851215745  0.4443285914958598  0.1241786058269778
  0.7221160458985099  0.9444873820324636  0.1221808615975736
  0.8885135228854391  0.4443595835279100  0.1242989077182761
  0.0553114396709314  0.6110236579750760  0.6252232677306937
  0.2222806678559818  0.1113908263350786  0.6285133114357819
  0.7218244932902179  0.6108743400110823  0.6265955528868575
  0.5555586625794331  0.1114274498528574  0.6287628659131209
  0.8887864719857642  0.1111975891149002  0.6272512258877995
 
  0.00000000E+00  0.00000000E+00  0.00000000E+00
  0.00000000E+00  0.00000000E+00  0.00000000E+00
  0.00000000E+00  0.00000000E+00  0.00000000E+00
  0.00000000E+00  0.00000000E+00  0.00000000E+00
  0.00000000E+00  0.00000000E+00  0.00000000E+00
  0.00000000E+00  0.00000000E+00  0.00000000E+00
  0.00000000E+00  0.00000000E+00  0.00000000E+00
  0.00000000E+00  0.00000000E+00  0.00000000E+00
  0.00000000E+00  0.00000000E+00  0.00000000E+00
  0.00000000E+00  0.00000000E+00  0.00000000E+00
  0.00000000E+00  0.00000000E+00  0.00000000E+00
  0.00000000E+00  0.00000000E+00  0.00000000E+00
  0.00000000E+00  0.00000000E+00  0.00000000E+00
  0.00000000E+00  0.00000000E+00  0.00000000E+00
  0.00000000E+00  0.00000000E+00  0.00000000E+00
  0.00000000E+00  0.00000000E+00  0.00000000E+00
  0.00000000E+00  0.00000000E+00  0.00000000E+00
  0.00000000E+00  0.00000000E+00  0.00000000E+00
  0.00000000E+00  0.00000000E+00  0.00000000E+00
  0.00000000E+00  0.00000000E+00  0.00000000E+00
  0.00000000E+00  0.00000000E+00  0.00000000E+00
  0.00000000E+00  0.00000000E+00  0.00000000E+00
  0.00000000E+00  0.00000000E+00  0.00000000E+00
  0.00000000E+00  0.00000000E+00  0.00000000E+00
  0.00000000E+00  0.00000000E+00  0.00000000E+00
  0.00000000E+00  0.00000000E+00  0.00000000E+00
  0.00000000E+00  0.00000000E+00  0.00000000E+00
  0.00000000E+00  0.00000000E+00  0.00000000E+00
  0.00000000E+00  0.00000000E+00  0.00000000E+00
  0.00000000E+00  0.00000000E+00  0.00000000E+00
  0.00000000E+00  0.00000000E+00  0.00000000E+00
  0.00000000E+00  0.00000000E+00  0.00000000E+00
  0.00000000E+00  0.00000000E+00  0.00000000E+00
  0.00000000E+00  0.00000000E+00  0.00000000E+00
  0.00000000E+00  0.00000000E+00  0.00000000E+00
  0.00000000E+00  0.00000000E+00  0.00000000E+00
  0.00000000E+00  0.00000000E+00  0.00000000E+00
  0.00000000E+00  0.00000000E+00  0.00000000E+00
  0.00000000E+00  0.00000000E+00  0.00000000E+00
  0.00000000E+00  0.00000000E+00  0.00000000E+00
  0.00000000E+00  0.00000000E+00  0.00000000E+00
  0.00000000E+00  0.00000000E+00  0.00000000E+00
  0.00000000E+00  0.00000000E+00  0.00000000E+00
  0.00000000E+00  0.00000000E+00  0.00000000E+00
  0.00000000E+00  0.00000000E+00  0.00000000E+00
  0.00000000E+00  0.00000000E+00  0.00000000E+00
  0.00000000E+00  0.00000000E+00  0.00000000E+00
  0.00000000E+00  0.00000000E+00  0.00000000E+00
  0.00000000E+00  0.00000000E+00  0.00000000E+00
  0.00000000E+00  0.00000000E+00  0.00000000E+00
  0.00000000E+00  0.00000000E+00  0.00000000E+00
  0.00000000E+00  0.00000000E+00  0.00000000E+00
  0.00000000E+00  0.00000000E+00  0.00000000E+00
  0.00000000E+00  0.00000000E+00  0.00000000E+00
  0.00000000E+00  0.00000000E+00  0.00000000E+00
  0.00000000E+00  0.00000000E+00  0.00000000E+00
  0.00000000E+00  0.00000000E+00  0.00000000E+00
  0.00000000E+00  0.00000000E+00  0.00000000E+00
  0.00000000E+00  0.00000000E+00  0.00000000E+00
  0.00000000E+00  0.00000000E+00  0.00000000E+00
  0.00000000E+00  0.00000000E+00  0.00000000E+00
  0.00000000E+00  0.00000000E+00  0.00000000E+00
  0.00000000E+00  0.00000000E+00  0.00000000E+00
  0.00000000E+00  0.00000000E+00  0.00000000E+00
  0.00000000E+00  0.00000000E+00  0.00000000E+00
  0.00000000E+00  0.00000000E+00  0.00000000E+00
  0.00000000E+00  0.00000000E+00  0.00000000E+00
  0.00000000E+00  0.00000000E+00  0.00000000E+00
  0.00000000E+00  0.00000000E+00  0.00000000E+00
  0.00000000E+00  0.00000000E+00  0.00000000E+00
  0.00000000E+00  0.00000000E+00  0.00000000E+00
  0.00000000E+00  0.00000000E+00  0.00000000E+00
  0.00000000E+00  0.00000000E+00  0.00000000E+00
  0.00000000E+00  0.00000000E+00  0.00000000E+00
  0.00000000E+00  0.00000000E+00  0.00000000E+00
  0.00000000E+00  0.00000000E+00  0.00000000E+00
  0.00000000E+00  0.00000000E+00  0.00000000E+00
  0.00000000E+00  0.00000000E+00  0.00000000E+00
  0.00000000E+00  0.00000000E+00  0.00000000E+00
  0.00000000E+00  0.00000000E+00  0.00000000E+00
  0.00000000E+00  0.00000000E+00  0.00000000E+00
  0.00000000E+00  0.00000000E+00  0.00000000E+00
  0.00000000E+00  0.00000000E+00  0.00000000E+00
  0.00000000E+00  0.00000000E+00  0.00000000E+00
  0.00000000E+00  0.00000000E+00  0.00000000E+00
  0.00000000E+00  0.00000000E+00  0.00000000E+00
  0.00000000E+00  0.00000000E+00  0.00000000E+00
  0.00000000E+00  0.00000000E+00  0.00000000E+00
  0.00000000E+00  0.00000000E+00  0.00000000E+00
  0.00000000E+00  0.00000000E+00  0.00000000E+00
  0.00000000E+00  0.00000000E+00  0.00000000E+00
  0.00000000E+00  0.00000000E+00  0.00000000E+00
  0.00000000E+00  0.00000000E+00  0.00000000E+00
  0.00000000E+00  0.00000000E+00  0.00000000E+00
  0.00000000E+00  0.00000000E+00  0.00000000E+00
  0.00000000E+00  0.00000000E+00  0.00000000E+00
  0.00000000E+00  0.00000000E+00  0.00000000E+00
  0.00000000E+00  0.00000000E+00  0.00000000E+00
  0.00000000E+00  0.00000000E+00  0.00000000E+00
  0.00000000E+00  0.00000000E+00  0.00000000E+00
  0.00000000E+00  0.00000000E+00  0.00000000E+00
  0.00000000E+00  0.00000000E+00  0.00000000E+00
  0.00000000E+00  0.00000000E+00  0.00000000E+00
  0.00000000E+00  0.00000000E+00  0.00000000E+00
  0.00000000E+00  0.00000000E+00  0.00000000E+00
  0.00000000E+00  0.00000000E+00  0.00000000E+00
  0.00000000E+00  0.00000000E+00  0.00000000E+00
  0.00000000E+00  0.00000000E+00  0.00000000E+00
  0.00000000E+00  0.00000000E+00  0.00000000E+00
  0.00000000E+00  0.00000000E+00  0.00000000E+00
  0.00000000E+00  0.00000000E+00  0.00000000E+00
  0.00000000E+00  0.00000000E+00  0.00000000E+00
  0.00000000E+00  0.00000000E+00  0.00000000E+00
  0.00000000E+00  0.00000000E+00  0.00000000E+00
  0.00000000E+00  0.00000000E+00  0.00000000E+00
  0.00000000E+00  0.00000000E+00  0.00000000E+00
  0.00000000E+00  0.00000000E+00  0.00000000E+00
  0.00000000E+00  0.00000000E+00  0.00000000E+00
  0.00000000E+00  0.00000000E+00  0.00000000E+00
  0.00000000E+00  0.00000000E+00  0.00000000E+00
  0.00000000E+00  0.00000000E+00  0.00000000E+00
  0.00000000E+00  0.00000000E+00  0.00000000E+00
  0.00000000E+00  0.00000000E+00  0.00000000E+00
  0.00000000E+00  0.00000000E+00  0.00000000E+00
  0.00000000E+00  0.00000000E+00  0.00000000E+00
  0.00000000E+00  0.00000000E+00  0.00000000E+00
  0.00000000E+00  0.00000000E+00  0.00000000E+00
  0.00000000E+00  0.00000000E+00  0.00000000E+00
  0.00000000E+00  0.00000000E+00  0.00000000E+00
  0.00000000E+00  0.00000000E+00  0.00000000E+00
  0.00000000E+00  0.00000000E+00  0.00000000E+00
  0.00000000E+00  0.00000000E+00  0.00000000E+00
  0.00000000E+00  0.00000000E+00  0.00000000E+00
  0.00000000E+00  0.00000000E+00  0.00000000E+00
  0.00000000E+00  0.00000000E+00  0.00000000E+00
  0.00000000E+00  0.00000000E+00  0.00000000E+00
  0.00000000E+00  0.00000000E+00  0.00000000E+00
  0.00000000E+00  0.00000000E+00  0.00000000E+00
  0.00000000E+00  0.00000000E+00  0.00000000E+00
  0.00000000E+00  0.00000000E+00  0.00000000E+00
  0.00000000E+00  0.00000000E+00  0.00000000E+00
  0.00000000E+00  0.00000000E+00  0.00000000E+00
  0.00000000E+00  0.00000000E+00  0.00000000E+00
  0.00000000E+00  0.00000000E+00  0.00000000E+00
  0.00000000E+00  0.00000000E+00  0.00000000E+00
  0.00000000E+00  0.00000000E+00  0.00000000E+00
  0.00000000E+00  0.00000000E+00  0.00000000E+00
  0.00000000E+00  0.00000000E+00  0.00000000E+00
  0.00000000E+00  0.00000000E+00  0.00000000E+00
  0.00000000E+00  0.00000000E+00  0.00000000E+00
  0.00000000E+00  0.00000000E+00  0.00000000E+00
  0.00000000E+00  0.00000000E+00  0.00000000E+00
  0.00000000E+00  0.00000000E+00  0.00000000E+00
  0.00000000E+00  0.00000000E+00  0.00000000E+00
  0.00000000E+00  0.00000000E+00  0.00000000E+00
  0.00000000E+00  0.00000000E+00  0.00000000E+00
  0.00000000E+00  0.00000000E+00  0.00000000E+00
  0.00000000E+00  0.00000000E+00  0.00000000E+00
  0.00000000E+00  0.00000000E+00  0.00000000E+00
  0.00000000E+00  0.00000000E+00  0.00000000E+00
  0.00000000E+00  0.00000000E+00  0.00000000E+00
  0.00000000E+00  0.00000000E+00  0.00000000E+00
  0.00000000E+00  0.00000000E+00  0.00000000E+00
  0.00000000E+00  0.00000000E+00  0.00000000E+00
  0.00000000E+00  0.00000000E+00  0.00000000E+00
  0.00000000E+00  0.00000000E+00  0.00000000E+00
  0.00000000E+00  0.00000000E+00  0.00000000E+00
  0.00000000E+00  0.00000000E+00  0.00000000E+00
  0.00000000E+00  0.00000000E+00  0.00000000E+00
  0.00000000E+00  0.00000000E+00  0.00000000E+00
  0.00000000E+00  0.00000000E+00  0.00000000E+00
  0.00000000E+00  0.00000000E+00  0.00000000E+00
  0.00000000E+00  0.00000000E+00  0.00000000E+00
  0.00000000E+00  0.00000000E+00  0.00000000E+00
  0.00000000E+00  0.00000000E+00  0.00000000E+00
  0.00000000E+00  0.00000000E+00  0.00000000E+00
  0.00000000E+00  0.00000000E+00  0.00000000E+00
  0.00000000E+00  0.00000000E+00  0.00000000E+00
  0.00000000E+00  0.00000000E+00  0.00000000E+00
  0.00000000E+00  0.00000000E+00  0.00000000E+00
  0.00000000E+00  0.00000000E+00  0.00000000E+00
  0.00000000E+00  0.00000000E+00  0.00000000E+00
  0.00000000E+00  0.00000000E+00  0.00000000E+00
  0.00000000E+00  0.00000000E+00  0.00000000E+00
  0.00000000E+00  0.00000000E+00  0.00000000E+00
  0.00000000E+00  0.00000000E+00  0.00000000E+00
  0.00000000E+00  0.00000000E+00  0.00000000E+00
  0.00000000E+00  0.00000000E+00  0.00000000E+00
  0.00000000E+00  0.00000000E+00  0.00000000E+00
  0.00000000E+00  0.00000000E+00  0.00000000E+00
  0.00000000E+00  0.00000000E+00  0.00000000E+00
  0.00000000E+00  0.00000000E+00  0.00000000E+00
  0.00000000E+00  0.00000000E+00  0.00000000E+00
  0.00000000E+00  0.00000000E+00  0.00000000E+00
  0.00000000E+00  0.00000000E+00  0.00000000E+00
  0.00000000E+00  0.00000000E+00  0.00000000E+00
  0.00000000E+00  0.00000000E+00  0.00000000E+00
  0.00000000E+00  0.00000000E+00  0.00000000E+00
  0.00000000E+00  0.00000000E+00  0.00000000E+00
  0.00000000E+00  0.00000000E+00  0.00000000E+00
  0.00000000E+00  0.00000000E+00  0.00000000E+00
  0.00000000E+00  0.00000000E+00  0.00000000E+00
  0.00000000E+00  0.00000000E+00  0.00000000E+00
  0.00000000E+00  0.00000000E+00  0.00000000E+00
  0.00000000E+00  0.00000000E+00  0.00000000E+00
  0.00000000E+00  0.00000000E+00  0.00000000E+00
  0.00000000E+00  0.00000000E+00  0.00000000E+00
  0.00000000E+00  0.00000000E+00  0.00000000E+00
  0.00000000E+00  0.00000000E+00  0.00000000E+00
  0.00000000E+00  0.00000000E+00  0.00000000E+00
  0.00000000E+00  0.00000000E+00  0.00000000E+00
  0.00000000E+00  0.00000000E+00  0.00000000E+00
  0.00000000E+00  0.00000000E+00  0.00000000E+00
  0.00000000E+00  0.00000000E+00  0.00000000E+00
  0.00000000E+00  0.00000000E+00  0.00000000E+00
  0.00000000E+00  0.00000000E+00  0.00000000E+00
  0.00000000E+00  0.00000000E+00  0.00000000E+00
  0.00000000E+00  0.00000000E+00  0.00000000E+00
  0.00000000E+00  0.00000000E+00  0.00000000E+00
  0.00000000E+00  0.00000000E+00  0.00000000E+00
  0.00000000E+00  0.00000000E+00  0.00000000E+00
  0.00000000E+00  0.00000000E+00  0.00000000E+00
  0.00000000E+00  0.00000000E+00  0.00000000E+00
  0.00000000E+00  0.00000000E+00  0.00000000E+00
  0.00000000E+00  0.00000000E+00  0.00000000E+00
  0.00000000E+00  0.00000000E+00  0.00000000E+00
  0.00000000E+00  0.00000000E+00  0.00000000E+00
  0.00000000E+00  0.00000000E+00  0.00000000E+00
  0.00000000E+00  0.00000000E+00  0.00000000E+00
  0.00000000E+00  0.00000000E+00  0.00000000E+00
  0.00000000E+00  0.00000000E+00  0.00000000E+00
  0.00000000E+00  0.00000000E+00  0.00000000E+00
  0.00000000E+00  0.00000000E+00  0.00000000E+00
  0.00000000E+00  0.00000000E+00  0.00000000E+00
  0.00000000E+00  0.00000000E+00  0.00000000E+00
  0.00000000E+00  0.00000000E+00  0.00000000E+00
  0.00000000E+00  0.00000000E+00  0.00000000E+00
  0.00000000E+00  0.00000000E+00  0.00000000E+00
  0.00000000E+00  0.00000000E+00  0.00000000E+00
  0.00000000E+00  0.00000000E+00  0.00000000E+00
  0.00000000E+00  0.00000000E+00  0.00000000E+00
  0.00000000E+00  0.00000000E+00  0.00000000E+00
  0.00000000E+00  0.00000000E+00  0.00000000E+00
  0.00000000E+00  0.00000000E+00  0.00000000E+00
  0.00000000E+00  0.00000000E+00  0.00000000E+00
  0.00000000E+00  0.00000000E+00  0.00000000E+00
  0.00000000E+00  0.00000000E+00  0.00000000E+00
  0.00000000E+00  0.00000000E+00  0.00000000E+00