 C B N O 
 1.0
 17.527899999999772   0.000000000000000   0.000000000000000
 -8.763949999999658  15.179606674993195   0.000000000000000
  0.000000000000001   0.000000000000002  15.000000000000000
 C B N O 
   1  47  49   1
Cartesian
  3.672359992586688   7.875117190957988   1.662059701363515 
  7.541592066911113  14.477011402870875   1.665331350746235 
 15.025797362236384   1.443723886385174   1.665747117934590 
 13.761209301989595   3.609496370669095   1.666415065034235 
 12.503792555569008   5.782141256867283   1.665572510225295 
 11.256203593318936   7.956448365231709   1.665047380144920 
 10.040898717188078  10.136032681947084   1.667242511698065 
  8.816646188287056  12.319600471254216   1.666110954664035 
 -7.484141150852556  14.472107974888376   1.665230197160985 
  0.010402115268996   1.449147823527841   1.665201044894160 
 -1.260181767439128   3.605460346124120   1.665297900866040 
 -2.520673537520220   5.773856302234036   1.665586878497775 
 -3.770021865143649   7.947665259531757   1.665568626477540 
 -5.002250906470804  10.124393382320129   1.665882648459045 
 -6.230591594409709  12.300884948211026   1.666150817154225 
 -4.986787775916657  14.463231429626850   1.665798711704550 
  2.516883266520902   1.446428801586566   1.665809651834355 
  1.247953069154690   3.599946030405992   1.664830367619030 
 -0.019462667802245   5.762355716574885   1.664112461044020 
 -1.273345061681482   7.939002288627346   1.665792468600180 
 -2.518117243373064  10.119737783328796   1.666453655927280 
 -3.739956252854537  12.292196109064802   1.665658221034605 
 -2.487691174079122  14.457787789726209   1.665986581995480 
  5.020819888570001   1.446820829918900   1.666590036884010 
  3.758018731602209   3.599198519049188   1.665192972058290 
  2.490443070715968   5.727370722094165   1.662821321245065 
  1.211111893225789   7.930312410578851   1.662301963666185 
 -0.042847964524077  10.112277744609388   1.665576077975475 
 -1.242602368069352  12.285643994458127   1.666255504147905 
  0.015801417709103  14.447266502944217   1.665062057478975 
  7.519030620722148   1.450085100010416   1.665286734403950 
  6.253655366467689   3.629143994907165   1.665333428901915 
  4.975156885475135   5.785801603771289   1.664218405666365 
  2.423162433806826  10.078764138439256   1.664362719305910 
  1.270994889878231  12.263608165594128   1.665014548395495 
  2.522573553608483  14.434563958796625   1.665169922923530 
 10.019540490620601   1.441514627187146   1.665258259497090 
  8.753232370284898   3.628503334358156   1.665492017355630 
  7.484883050672931   5.817315498687205   1.664936228690190 
  6.211614621682052   8.023859817590603   1.665176363484795 
  3.791273548233915  12.247378734862790   1.666215062456265 
  5.023435248870108  14.453633595931590   1.665858845774835 
 12.519368809749219   1.439668099680068   1.665936280527270 
 11.256982875933282   3.615818833341836   1.666475637666180 
  9.997604398581366   5.793995346130225   1.665183107154660 
  8.747363078838173   7.972291934242580   1.666392789519795 
  7.580704707203508  10.176578943148021   1.667990598896535 
  6.344088502005151  12.331572217698557   1.667208002094750 
  8.794560662058352  13.756474517061541   1.664682464524350 
 16.286776722918813   0.733180314641461   1.664948912578650 
 15.016593429201031   2.887211910695796   1.665767779619550 
 13.756225439573427   5.055574984892937   1.665640732027530 
 12.504362527530398   7.228261597482031   1.664790023546475 
 11.274456081893586   9.402050887968452   1.665554056607340 
 10.049163857146890  11.579827451298627   1.666192474732695 
 -6.236253055875534  13.744513465931110   1.665471210069600 
  1.266581524063318   0.732706361441708   1.665098945049105 
 -0.001681320002921   2.890190577929359   1.664814808556865 
 -1.265711386140591   5.050040056323533   1.664872995874620 
 -2.518985137982019   7.219422487048843   1.665634528409115 
 -3.761403794607554   9.393602092762400   1.665695377655010 
 -4.989284783576990  11.569687596897321   1.665669958069905 
 -3.737600371230607  13.737139729664527   1.665424380953400 
  3.770784145454644   0.728640839852756   1.665896644693665 
  2.506937538908665   2.891069521513673   1.665415761184425 
  1.239639377316655   5.046747167315217   1.663170710358135 
 -0.015753940946072   7.206839771452005   1.663429992035760 
 -1.274104021265756   9.384054809369735   1.666143049766145 
 -2.493366573802691  11.562477182476597   1.666013526496005 
 -1.236495299063177  13.729174171133238   1.665772072779150 
  6.271831675413016   0.725292618362686   1.665836750750865 
  5.012134982897364   2.896436404638028   1.665921004742460 
  3.747219744436170   5.051217180837535   1.662834773588055 
  2.495955551974155   7.184153423666742   1.661558225131080 
  1.193847775719259   9.364724904634986   1.663304377312650 
  0.009698618155771  11.551729067706376   1.665313245231090 
  1.271686178104026  13.708910325344792   1.664408378919555 
  8.771256332271415   0.717541520377594   1.664746238431140 
  7.505010216517960   2.904546500182348   1.664986782608550 
  6.232709555719033   5.093079436775153   1.664100510792780 
  4.912195962708969   7.274101057765197   1.663459381768290 
  3.514183364117400   9.160295757080375   1.660847265972450 
  2.535894479024677  11.509990509067494   1.665205817088660 
  3.782826743792235  13.699296186720900   1.665802109685600 
 11.273757834121904   0.705877099872812   1.664952662696130 
 10.005444861500459   2.894452010181769   1.665823168712265 
  8.735518556862353   5.084965253203932   1.664826303455685 
  7.457221133839986   7.278785247000293   1.665384057314940 
  6.340873315245640   9.462659771033865   1.666134788331465 
  5.108000678715958  11.627936033349451   1.666573331370510 
  6.290052386547911  13.757963302452149   1.666172130344205 
 13.774280557178999   0.716972845983101   1.665238625071230 
 12.509737092812145   2.887055495821786   1.666491820917135 
 11.248339117692595   5.064366439030860   1.665544362951300 
  9.992914802992502   7.240672494526089   1.664767122232170 
  8.785533062896487   9.414024752558928   1.667922791627130 
  7.573289166156157  11.603056733788451   1.667053932650190 
  5.140208899343093  10.208488181865592   1.665893923463655 
