 B N Ga 
 1.0
 14.936314146199660   0.000000000000000   0.000000000000000
 -7.468157073099825  12.935227489513863   0.000000000000000
  0.000000000000001   0.000000000000001  13.341276283792837
 B N Ga 
 143 144   1
Cartesian
  1.216893660555632   0.677072083534677   5.002978606422314 
  5.048339300202046   7.275714580630646   5.002978606422314 
  6.251263412544184   0.677072083534677   5.002978606422314 
  9.969512380823030   7.189957923530995   5.002978606422314 
 11.202235609649751   0.718623749417456   5.002978606422314 
 -3.734078536549858   9.342108742426666  11.673616748318732 
  1.244679945274638   9.342196837690143  11.673616748318732 
  2.489065587888644   2.874477831920006  11.673616748318732 
  6.223477127825217   9.342196837690143  11.673616748318732 
  7.468103400111056   2.874525985784290  11.673616748318732 
 12.446715690558678   2.874563168242330  11.673616748318732 
 -1.253899640197398   9.350614519875435   5.002978606422314 
 -0.011049608175975   2.868115503414802   5.002978606422314 
  5.021476852926437   2.769508870047913   5.002978606422314 
  3.734078536550040   9.354867730936434   5.002978606422314 
  8.722056713297235   9.350614519875435   5.002978606422314 
  9.963780721630290   2.868750085057642   5.002978606422314 
 -4.978587265044763  11.498052121518533  11.673616748318732 
  0.000198795557262  11.498094765347382  11.673616748318732 
  1.244517927969011   5.030097611341777  11.673616748318732 
  6.223639145130929   5.030097611341777  11.673616748318732 
  4.978936801818090  11.498130164947943  11.673616748318732 
 11.202235609649806   5.030136696585064  11.673616748318732 
 -1.294577236221141   5.027067278482648   5.002978606422314 
 -2.486622869024063  11.485753783873589   5.002978606422314 
  2.491241952549369  11.506254676645273   5.002978606422314 
  7.463840419424028  11.500472211840668   5.002978606422314 
  8.762734309321079   5.027067278482648   5.002978606422314 
 -0.000246578205978   7.186379856167993  11.673616748318732 
  1.244623002901543   0.718568529848438  11.673616748318732 
  4.978626196469598   7.186523294504360  11.673616748318732 
  6.223534070198289   0.718568529848438  11.673616748318732 
  9.957388238482752   7.186360878772664  11.673616748318732 
 -2.501355307723194   7.189957923530995   5.002978606422314 
 11.202235609649751   0.718623749417457  11.673616748318732 
  3.734078536549923   0.675114605966903   5.002978606422314 
  2.419817772897686   7.275714580630646   5.002978606422314 
  7.505837096624921   7.207992065899664   5.002978606422314 
  8.720944137629685   0.716093976063238   5.002978606422314 
  2.489530876630241   7.186523294504360  11.673616748318732 
 13.683527081669805   0.716093976063238   5.002978606422314 
 -1.244722436887987   9.341913226988810  11.673616748318732 
  0.000053672989003   2.874525985784290  11.673616748318732 
  4.979091485211204   2.874477831920006  11.673616748318732 
  3.734078536550033   9.342046766197472  11.673616748318732 
  8.712879509987840   9.341913226988810  11.673616748318732 
  9.957755528740813   2.874563168242330  11.673616748318732 
 -3.734078536549858   9.342108742426664   5.002978606422314 
  1.222607639773085   9.386959375748816   5.002978606422314 
  2.446680220173396   2.769508870047913   5.002978606422314 
  6.245549433326753   9.386959375748816   5.002978606422314 
  7.479206681276032   2.868115503414802   5.002978606422314 
 12.440690497669202   2.868750085057642   5.002978606422314 
 -1.244775588373692   5.030333370227563  11.673616748318732 
 -2.489569808054936  11.498052121518533  11.673616748318732 
  2.489220271281855  11.498130164947943  11.673616748318732 
  3.734078536549918   5.030366245922021  11.673616748318732 
  7.467958277542698  11.498094765347382  11.673616748318732 
 -4.981534204075654  11.485753783873589   5.002978606422314 
  8.712932661473632   5.030333370227563  11.673616748318732 
  0.004316653675811  11.500472211840668   5.002978606422314 
  1.132419456521269   5.045875287087686   5.002978606422314 
 -0.037680023525070   7.207992065899664   5.002978606422314 
  6.335737616578671   5.045875287087686   5.002978606422314 
  4.976915120550577  11.506254676645273   5.002978606422314 
 11.202235609649737   5.025381803598577   5.002978606422314 
 -2.489231165382901   7.186360878772664  11.673616748318732 
  3.734078536549864   0.718339025430351  11.673616748318732 
  7.468403651305697   7.186379856167993  11.673616748318732 
  8.712897263472701   0.718405404575870  11.673616748318732 
 13.691573955826801   0.718405404575870  11.673616748318732 
  0.000080742191919   1.436793944740036   1.665837553984051 
  3.734078536549969   7.905826229280886   1.666608939577065 
  4.979310652151114   1.436139913073581   1.665489653027131 
  8.713110285063514   7.905011566230246   1.666868542706407 
  9.957916400862585   1.437031779568545   1.666682676281824 
 -4.978402080270358  10.060519275352688   8.338946556991985 
  0.000147567693356  10.060712831902615   8.339471350377204 
  1.243857143395534   3.592636254242634   8.339348273267563 
  4.979204542530657  10.060889344102211   8.340119658860576 
  6.224299929704284   3.592636254242634   8.339348273267563 
 11.202235609649746   3.593116295648924   8.339173762750693 
 -2.489754992829462  10.060519275352688   1.667010655852643 
 -1.245045263788870   3.593415448924087   1.665837553984051 
  3.734078536549812   3.590204845774820   1.679302284984327 
  2.488952530569078  10.060889344102211   1.665837553984051 
  7.468009505406378  10.060712831902615   1.666485862467410 
  8.713202336888598   3.593415448924087   1.665837553984051 
 -6.223520985421064  12.216741367438432   8.339471350377204 
 -1.244636087678755  12.216741367438432   8.339471350377204 
 -0.001228832448499   5.749076766627356   8.340467559817496 
  4.981294894627189   5.750446945995713   8.326654927860300 
  3.734078536549913  12.217035178629141   8.339274536562804 
  9.957451954277591   5.748872027938957   8.339471350377204 
 -2.489294881177741   5.748872027938956   1.666485862467410 
 -3.734078536549962  12.216303094819706   1.666868542706407 
  1.244694968524525  12.216604965815502   1.666783450093933 
  2.486862178472526   5.750446945995712   1.679302284984327 
  6.223462104575418  12.216604965815502   1.666783450093933 
  7.469385905548336   5.749076766627355   1.665489653027131 
 -1.244953211963902   7.905011566230247   8.339088670138221 
  0.000080742191919   1.436793944740037   8.340119658860576 
  3.734078536549970   7.905826229280887   8.339348273267563 
  4.979310652151115   1.436139913073581   8.340467559817496 
  8.713110285063514   7.905011566230247   8.339088670138221 
 -3.734078536549919   7.905287676574717   1.667010655852643 
  9.957916400862585   1.437031779568546   8.339274536562804 
  2.488846420948613   1.436139913073581   1.665489653027131 
  1.244003283152700   7.905882058065307   1.665489653027131 
  6.224153789947033   7.905882058065307   1.665489653027131 
  7.468076330907809   1.436793944740036   1.665837553984051 
  1.244003283152700   7.905882058065308   8.340467559817496 
 12.446554818436800   1.437031779568545   1.666682676281824 
 -2.489754992829461  10.060519275352688   8.338946556991985 
 -1.245045263788870   3.593415448924088   8.340119658860576 
  3.734078536549813   3.590204845774821   8.326654927860300 
  2.488952530569078  10.060889344102211   8.340119658860576 
  7.468009505406378  10.060712831902615   8.339471350377204 
  8.713202336888598   3.593415448924088   8.340119658860576 
 -4.978402080270359  10.060519275352688   1.667010655852643 
  0.000147567693356  10.060712831902615   1.666485862467410 
  1.243857143395534   3.592636254242633   1.666608939577065 
  4.979204542530656  10.060889344102211   1.665837553984051 
  6.224299929704283   3.592636254242633   1.666608939577065 
 11.202235609649746   3.593116295648923   1.666783450093933 
 -2.489294881177740   5.748872027938957   8.339471350377204 
 -3.734078536549962  12.216303094819706   8.339088670138221 
  1.244694968524526  12.216604965815502   8.339173762750693 
  2.486862178472527   5.750446945995713   8.326654927860300 
  6.223462104575419  12.216604965815502   8.339173762750693 
 -6.223520985421064  12.216741367438432   1.666485862467410 
  7.469385905548337   5.749076766627356   8.340467559817496 
 -1.244636087678756  12.216741367438432   1.666485862467410 
 -0.001228832448500   5.749076766627355   1.665489653027131 
 -1.244953211963902   7.905011566230246   1.666868542706407 
  4.981294894627188   5.750446945995712   1.679302284984327 
  3.734078536549912  12.217035178629141   1.666682676281824 
  9.957451954277591   5.748872027938956   1.666485862467410 
 -3.734078536549919   7.905287676574718   8.338946556991985 
  2.488846420948613   1.436139913073581   8.340467559817496 
  6.224153789947033   7.905882058065308   8.340467559817496 
  7.468076330907810   1.436793944740037   8.340119658860576 
 12.446554818436800   1.437031779568546   8.339274536562804 
  1.244519483599271   0.718377715635166   1.666795189382247 
  4.978871127310851   7.186655879610345   1.668660337935782 
  6.223637589500559   0.718377715635166   1.666795189382247 
  9.957592095046355   7.186294868043404   1.668766867600934 
 11.202235609649751   0.718623749417456   1.668271216173490 
 -3.734078536549858   9.342108742426664   8.337330070600425 
  1.244566454969677   9.342381895142326   8.339162023462380 
  2.489073231239309   2.874199423036315   8.337296874908846 
  6.223590618130278   9.342381895142326   8.339162023462380 
  7.468383807864369   2.874364092292431   8.339164213327406 
 12.446811952705238   2.874451198708008   8.337709538343690 
 -1.244767198201336   9.342122777316259   1.668766867600934 
 -0.000226734764326   2.874364092292431   1.666792999517208 
  4.979083841860524   2.874199423036314   1.668660337935782 
  3.734078536550031   9.342370553181187   1.666792999517208 
  8.712924271301173   9.342122777316259   1.668766867600934 
  9.957659266594256   2.874451198708007   1.668247674500938 
 -4.978746360295040  11.497908581920353   8.337190345243785 
  0.000065812431317  11.498017987503886   8.337460792531166 
  1.244280640478422   5.030243435119481   8.337296874908846 
  6.223876432621503   5.030243435119481   8.337296874908846 
  4.978791702283646  11.498102784250749   8.337709538343690 
 11.202235609649755   5.030290252272142   8.337460792531166 
 -1.244992597980924   5.030339126988649   1.666795189382247 
 -2.489410712804674  11.497908581920353   1.668766867600934 
  2.489365370816313  11.498102784250749   1.668247674500938 
  3.734078536549917   5.030366245922020   1.713097314782250 
  7.468091260668523  11.498017987503886   1.668496420313463 
  8.713149671080965   5.030339126988649   1.666795189382247 
 -0.000136650463658   7.186316389356373   8.338209211910195 
  1.244519483599271   0.718377715635167   8.339162023462380 
  4.978871127310852   7.186655879610345   8.337296874908846 
  6.223637589500560   0.718377715635167   8.339162023462380 
  9.957592095046355   7.186294868043404   8.337190345243785 
 -2.489435021946520   7.186294868043404   1.668766867600934 
 11.202235609649751   0.718623749417456   8.337685996671139 
  3.734078536549863   0.718465959053591   1.667748000934433 
  2.489285945788986   7.186655879610345   1.668660337935782 
  7.468293723563389   7.186316389356372   1.667748000934433 
  8.712946100860536   0.718544754807475   1.668247674500938 
  2.489285945788986   7.186655879610345   8.337296874908846 
 13.691525118438850   0.718544754807475   1.668247674500938 
 -1.244767198201335   9.342122777316259   8.337190345243785 
 -0.000226734764326   2.874364092292431   8.339164213327406 
  4.979083841860525   2.874199423036315   8.337296874908846 
  3.734078536550032   9.342370553181187   8.339164213327406 
  8.712924271301173   9.342122777316259   8.337190345243785 
  9.957659266594256   2.874451198708008   8.337709538343690 
 -3.734078536549859   9.342108742426664   1.668627142244215 
  1.244566454969677   9.342381895142326   1.666795189382247 
  2.489073231239309   2.874199423036314   1.668660337935782 
  6.223590618130277   9.342381895142326   1.666795189382247 
  7.468383807864368   2.874364092292431   1.666792999517208 
 12.446811952705238   2.874451198708007   1.668247674500938 
 -1.244992597980923   5.030339126988649   8.339162023462380 
 -2.489410712804674  11.497908581920353   8.337190345243785 
  2.489365370816313  11.498102784250749   8.337709538343690 
  3.734078536549917   5.030366245922021   8.292859898062378 
  7.468091260668524  11.498017987503886   8.337460792531166 
 -4.978746360295041  11.497908581920353   1.668766867600934 
  8.713149671080965   5.030339126988649   8.339162023462380 
  0.000065812431316  11.498017987503886   1.668496420313463 
  1.244280640478421   5.030243435119480   1.668660337935782 
 -0.000136650463658   7.186316389356372   1.667748000934433 
  6.223876432621502   5.030243435119480   1.668660337935782 
  4.978791702283645  11.498102784250749   1.668247674500938 
 11.202235609649755   5.030290252272141   1.668496420313463 
 -2.489435021946519   7.186294868043404   8.337190345243785 
  3.734078536549863   0.718465959053592   8.338209211910195 
  7.468293723563390   7.186316389356373   8.338209211910195 
  8.712946100860536   0.718544754807475   8.337709538343690 
 13.691525118438850   0.718544754807475   8.337709538343690 
 -0.010948925016291   1.427621975795290   5.002978606422314 
  3.734078536549918   7.919365081468183   5.002978606422314 
  5.010158607843890   1.353298165513575   5.002978606422314 
  8.737605860137521   7.919154093093050   5.002978606422314 
  9.962078707917671   1.434628670469851   5.002978606422314 
 -4.978777749707864  10.060736168203569  11.673616748318732 
  0.000009460020341  10.060749807190595  11.673616748318732 
  1.244741815167279   3.593147019728247  11.673616748318732 
  4.978772619168423  10.060731078102389  11.673616748318732 
  6.223415257932452   3.593147019728247  11.673616748318732 
 11.202235609649740   3.593108688012356  11.673616748318732 
 -2.494273136599055  10.057910723831077   5.002978606422314 
 -1.258503255501743   3.588449461398680   5.002978606422314 
  3.734078536549909   3.306876613832664   5.002978606422314 
  2.486524206064521  10.075027300572183   5.002978606422314 
  7.484365180979053  10.079781850884638   5.002978606422314 
  8.726660328601680   3.588449461398680   5.002978606422314 
 -6.223483953123258  12.216603275041155  11.673616748318732 
 -1.244673119976560  12.216603275041155  11.673616748318732 
  0.000035850029583   5.748971329144043  11.673616748318732 
  4.978607591362908   5.748895430732608  11.673616748318732 
  3.734078536549927  12.216608273626221  11.673616748318732 
  9.957553029652793   5.748973145048270  11.673616748318732 
 -2.513986973827759   5.753501948989938   5.002978606422314 
 -3.734078536549858  12.188018041093921   5.002978606422314 
  1.248015668644976  12.218522172924002   5.002978606422314 
  2.241492732001444   5.892111061966693   5.002978606422314 
  6.220141404454849  12.218522172924002   5.002978606422314 
  7.556552941275592   5.763782527122586   5.002978606422314 
 -1.244698966150142   7.904864777341224  11.673616748318732 
  0.000001842887212   1.437247134344119  11.673616748318732 
  3.734078536549868   7.904804698309843  11.673616748318732 
  4.978769622451134   1.437287878968979  11.673616748318732 
  8.712856039249768   7.904864777341224  11.673616748318732 
 -3.734078536549903   7.910504779617942   5.002978606422314 
  9.957546690285067   1.437245232070006  11.673616748318732 
  2.457998465255823   1.353298165513575   5.002978606422314 
  1.187684203118225   7.974018045130072   5.002978606422314 
  6.280472869981506   7.974018045130072   5.002978606422314 
  7.479105998116228   1.427621975795290   5.002978606422314 
  1.244726935930801   7.904839529653225  11.673616748318732 
 12.442392511381716   1.434628670469851   5.002978606422314 
 -2.489379323391850  10.060736168203569  11.673616748318732 
 -1.244692239731297   3.593120525319726  11.673616748318732 
  3.734078536549873   3.593307876300927  11.673616748318732 
  2.489384453931417  10.060731078102389  11.673616748318732 
  7.468147613079394  10.060749807190595  11.673616748318732 
  8.712849312831132   3.593120525319726  11.673616748318732 
 -4.973883936500751  10.057910723831077   5.002978606422314 
 -0.016208107879318  10.079781850884638   5.002978606422314 
  1.232132153463354   3.585866828149018   5.002978606422314 
  4.981632867035423  10.075027300572183   5.002978606422314 
  6.236024919636494   3.585866828149018   5.002978606422314 
 11.202235609649687   3.589281881432000   5.002978606422314 
 -2.489395956552957   5.748973145048270  11.673616748318732 
 -3.734078536549969  12.216596672597740  11.673616748318732 
  1.244701556931061  12.216608769633780  11.673616748318732 
  2.489549481736943   5.748895430732608  11.673616748318732 
  6.223455516168886  12.216608769633780  11.673616748318732 
 -6.231857402498408  12.193042427405427   5.002978606422314 
  7.468121223070150   5.748971329144043  11.673616748318732 
 -1.236299670601411  12.193042427405427   5.002978606422314 
 -0.088395868175757   5.763782527122586   5.002978606422314 
 -1.269448787037682   7.919154093093050   5.002978606422314 
  5.226664341098391   5.892111061966693   5.002978606422314 
  3.734078536549929  12.221841396826528   5.002978606422314 
  9.982144046927608   5.753501948989938   5.002978606422314 
 -3.734078536549859   7.904853890872882  11.673616748318732 
  2.489387450648594   1.437287878968979  11.673616748318732 
  6.223430137168827   7.904839529653225  11.673616748318732 
  7.468155230212635   1.437247134344119  11.673616748318732 
 12.446924529014332   1.437245232070006  11.673616748318732 
  3.734078536549917   5.030366245922021   5.002978606422314 
Generated by cif2cell 2.0.0.  :  Failed to get author information, No journal information. Species order: B N Ga 
 1.0
 14.936314146199660   0.000000000000000   0.000000000000000
 -7.468157073099825  12.935227489513863   0.000000000000000
  0.000000000000001   0.000000000000001  13.341276283792837
 B N Ga 
 143 144   1
Cartesian
  1.216893660555632   0.677072083534677   5.002978606422314 
  5.048339300202046   7.275714580630646   5.002978606422314 
  6.251263412544184   0.677072083534677   5.002978606422314 
  9.969512380823030   7.189957923530995   5.002978606422314 
 11.202235609649751   0.718623749417456   5.002978606422314 
 -3.734078536549858   9.342108742426666  11.673616748318732 
  1.244679945274638   9.342196837690143  11.673616748318732 
  2.489065587888644   2.874477831920006  11.673616748318732 
  6.223477127825217   9.342196837690143  11.673616748318732 
  7.468103400111056   2.874525985784290  11.673616748318732 
 12.446715690558678   2.874563168242330  11.673616748318732 
 -1.253899640197398   9.350614519875435   5.002978606422314 
 -0.011049608175975   2.868115503414802   5.002978606422314 
  5.021476852926437   2.769508870047913   5.002978606422314 
  3.734078536550040   9.354867730936434   5.002978606422314 
  8.722056713297235   9.350614519875435   5.002978606422314 
  9.963780721630290   2.868750085057642   5.002978606422314 
 -4.978587265044763  11.498052121518533  11.673616748318732 
  0.000198795557262  11.498094765347382  11.673616748318732 
  1.244517927969011   5.030097611341777  11.673616748318732 
  6.223639145130929   5.030097611341777  11.673616748318732 
  4.978936801818090  11.498130164947943  11.673616748318732 
 11.202235609649806   5.030136696585064  11.673616748318732 
 -1.294577236221141   5.027067278482648   5.002978606422314 
 -2.486622869024063  11.485753783873589   5.002978606422314 
  2.491241952549369  11.506254676645273   5.002978606422314 
  7.463840419424028  11.500472211840668   5.002978606422314 
  8.762734309321079   5.027067278482648   5.002978606422314 
 -0.000246578205978   7.186379856167993  11.673616748318732 
  1.244623002901543   0.718568529848438  11.673616748318732 
  4.978626196469598   7.186523294504360  11.673616748318732 
  6.223534070198289   0.718568529848438  11.673616748318732 
  9.957388238482752   7.186360878772664  11.673616748318732 
 -2.501355307723194   7.189957923530995   5.002978606422314 
 11.202235609649751   0.718623749417457  11.673616748318732 
  3.734078536549923   0.675114605966903   5.002978606422314 
  2.419817772897686   7.275714580630646   5.002978606422314 
  7.505837096624921   7.207992065899664   5.002978606422314 
  8.720944137629685   0.716093976063238   5.002978606422314 
  2.489530876630241   7.186523294504360  11.673616748318732 
 13.683527081669805   0.716093976063238   5.002978606422314 
 -1.244722436887987   9.341913226988810  11.673616748318732 
  0.000053672989003   2.874525985784290  11.673616748318732 
  4.979091485211204   2.874477831920006  11.673616748318732 
  3.734078536550033   9.342046766197472  11.673616748318732 
  8.712879509987840   9.341913226988810  11.673616748318732 
  9.957755528740813   2.874563168242330  11.673616748318732 
 -3.734078536549858   9.342108742426664   5.002978606422314 
  1.222607639773085   9.386959375748816   5.002978606422314 
  2.446680220173396   2.769508870047913   5.002978606422314 
  6.245549433326753   9.386959375748816   5.002978606422314 
  7.479206681276032   2.868115503414802   5.002978606422314 
 12.440690497669202   2.868750085057642   5.002978606422314 
 -1.244775588373692   5.030333370227563  11.673616748318732 
 -2.489569808054936  11.498052121518533  11.673616748318732 
  2.489220271281855  11.498130164947943  11.673616748318732 
  3.734078536549918   5.030366245922021  11.673616748318732 
  7.467958277542698  11.498094765347382  11.673616748318732 
 -4.981534204075654  11.485753783873589   5.002978606422314 
  8.712932661473632   5.030333370227563  11.673616748318732 
  0.004316653675811  11.500472211840668   5.002978606422314 
  1.132419456521269   5.045875287087686   5.002978606422314 
 -0.037680023525070   7.207992065899664   5.002978606422314 
  6.335737616578671   5.045875287087686   5.002978606422314 
  4.976915120550577  11.506254676645273   5.002978606422314 
 11.202235609649737   5.025381803598577   5.002978606422314 
 -2.489231165382901   7.186360878772664  11.673616748318732 
  3.734078536549864   0.718339025430351  11.673616748318732 
  7.468403651305697   7.186379856167993  11.673616748318732 
  8.712897263472701   0.718405404575870  11.673616748318732 
 13.691573955826801   0.718405404575870  11.673616748318732 
  0.000080742191919   1.436793944740036   1.665837553984051 
  3.734078536549969   7.905826229280886   1.666608939577065 
  4.979310652151114   1.436139913073581   1.665489653027131 
  8.713110285063514   7.905011566230246   1.666868542706407 
  9.957916400862585   1.437031779568545   1.666682676281824 
 -4.978402080270358  10.060519275352688   8.338946556991985 
  0.000147567693356  10.060712831902615   8.339471350377204 
  1.243857143395534   3.592636254242634   8.339348273267563 
  4.979204542530657  10.060889344102211   8.340119658860576 
  6.224299929704284   3.592636254242634   8.339348273267563 
 11.202235609649746   3.593116295648924   8.339173762750693 
 -2.489754992829462  10.060519275352688   1.667010655852643 
 -1.245045263788870   3.593415448924087   1.665837553984051 
  3.734078536549812   3.590204845774820   1.679302284984327 
  2.488952530569078  10.060889344102211   1.665837553984051 
  7.468009505406378  10.060712831902615   1.666485862467410 
  8.713202336888598   3.593415448924087   1.665837553984051 
 -6.223520985421064  12.216741367438432   8.339471350377204 
 -1.244636087678755  12.216741367438432   8.339471350377204 
 -0.001228832448499   5.749076766627356   8.340467559817496 
  4.981294894627189   5.750446945995713   8.326654927860300 
  3.734078536549913  12.217035178629141   8.339274536562804 
  9.957451954277591   5.748872027938957   8.339471350377204 
 -2.489294881177741   5.748872027938956   1.666485862467410 
 -3.734078536549962  12.216303094819706   1.666868542706407 
  1.244694968524525  12.216604965815502   1.666783450093933 
  2.486862178472526   5.750446945995712   1.679302284984327 
  6.223462104575418  12.216604965815502   1.666783450093933 
  7.469385905548336   5.749076766627355   1.665489653027131 
 -1.244953211963902   7.905011566230247   8.339088670138221 
  0.000080742191919   1.436793944740037   8.340119658860576 
  3.734078536549970   7.905826229280887   8.339348273267563 
  4.979310652151115   1.436139913073581   8.340467559817496 
  8.713110285063514   7.905011566230247   8.339088670138221 
 -3.734078536549919   7.905287676574717   1.667010655852643 
  9.957916400862585   1.437031779568546   8.339274536562804 
  2.488846420948613   1.436139913073581   1.665489653027131 
  1.244003283152700   7.905882058065307   1.665489653027131 
  6.224153789947033   7.905882058065307   1.665489653027131 
  7.468076330907809   1.436793944740036   1.665837553984051 
  1.244003283152700   7.905882058065308   8.340467559817496 
 12.446554818436800   1.437031779568545   1.666682676281824 
 -2.489754992829461  10.060519275352688   8.338946556991985 
 -1.245045263788870   3.593415448924088   8.340119658860576 
  3.734078536549813   3.590204845774821   8.326654927860300 
  2.488952530569078  10.060889344102211   8.340119658860576 
  7.468009505406378  10.060712831902615   8.339471350377204 
  8.713202336888598   3.593415448924088   8.340119658860576 
 -4.978402080270359  10.060519275352688   1.667010655852643 
  0.000147567693356  10.060712831902615   1.666485862467410 
  1.243857143395534   3.592636254242633   1.666608939577065 
  4.979204542530656  10.060889344102211   1.665837553984051 
  6.224299929704283   3.592636254242633   1.666608939577065 
 11.202235609649746   3.593116295648923   1.666783450093933 
 -2.489294881177740   5.748872027938957   8.339471350377204 
 -3.734078536549962  12.216303094819706   8.339088670138221 
  1.244694968524526  12.216604965815502   8.339173762750693 
  2.486862178472527   5.750446945995713   8.326654927860300 
  6.223462104575419  12.216604965815502   8.339173762750693 
 -6.223520985421064  12.216741367438432   1.666485862467410 
  7.469385905548337   5.749076766627356   8.340467559817496 
 -1.244636087678756  12.216741367438432   1.666485862467410 
 -0.001228832448500   5.749076766627355   1.665489653027131 
 -1.244953211963902   7.905011566230246   1.666868542706407 
  4.981294894627188   5.750446945995712   1.679302284984327 
  3.734078536549912  12.217035178629141   1.666682676281824 
  9.957451954277591   5.748872027938956   1.666485862467410 
 -3.734078536549919   7.905287676574718   8.338946556991985 
  2.488846420948613   1.436139913073581   8.340467559817496 
  6.224153789947033   7.905882058065308   8.340467559817496 
  7.468076330907810   1.436793944740037   8.340119658860576 
 12.446554818436800   1.437031779568546   8.339274536562804 
  1.244519483599271   0.718377715635166   1.666795189382247 
  4.978871127310851   7.186655879610345   1.668660337935782 
  6.223637589500559   0.718377715635166   1.666795189382247 
  9.957592095046355   7.186294868043404   1.668766867600934 
 11.202235609649751   0.718623749417456   1.668271216173490 
 -3.734078536549858   9.342108742426664   8.337330070600425 
  1.244566454969677   9.342381895142326   8.339162023462380 
  2.489073231239309   2.874199423036315   8.337296874908846 
  6.223590618130278   9.342381895142326   8.339162023462380 
  7.468383807864369   2.874364092292431   8.339164213327406 
 12.446811952705238   2.874451198708008   8.337709538343690 
 -1.244767198201336   9.342122777316259   1.668766867600934 
 -0.000226734764326   2.874364092292431   1.666792999517208 
  4.979083841860524   2.874199423036314   1.668660337935782 
  3.734078536550031   9.342370553181187   1.666792999517208 
  8.712924271301173   9.342122777316259   1.668766867600934 
  9.957659266594256   2.874451198708007   1.668247674500938 
 -4.978746360295040  11.497908581920353   8.337190345243785 
  0.000065812431317  11.498017987503886   8.337460792531166 
  1.244280640478422   5.030243435119481   8.337296874908846 
  6.223876432621503   5.030243435119481   8.337296874908846 
  4.978791702283646  11.498102784250749   8.337709538343690 
 11.202235609649755   5.030290252272142   8.337460792531166 
 -1.244992597980924   5.030339126988649   1.666795189382247 
 -2.489410712804674  11.497908581920353   1.668766867600934 
  2.489365370816313  11.498102784250749   1.668247674500938 
  3.734078536549917   5.030366245922020   1.713097314782250 
  7.468091260668523  11.498017987503886   1.668496420313463 
  8.713149671080965   5.030339126988649   1.666795189382247 
 -0.000136650463658   7.186316389356373   8.338209211910195 
  1.244519483599271   0.718377715635167   8.339162023462380 
  4.978871127310852   7.186655879610345   8.337296874908846 
  6.223637589500560   0.718377715635167   8.339162023462380 
  9.957592095046355   7.186294868043404   8.337190345243785 
 -2.489435021946520   7.186294868043404   1.668766867600934 
 11.202235609649751   0.718623749417456   8.337685996671139 
  3.734078536549863   0.718465959053591   1.667748000934433 
  2.489285945788986   7.186655879610345   1.668660337935782 
  7.468293723563389   7.186316389356372   1.667748000934433 
  8.712946100860536   0.718544754807475   1.668247674500938 
  2.489285945788986   7.186655879610345   8.337296874908846 
 13.691525118438850   0.718544754807475   1.668247674500938 
 -1.244767198201335   9.342122777316259   8.337190345243785 
 -0.000226734764326   2.874364092292431   8.339164213327406 
  4.979083841860525   2.874199423036315   8.337296874908846 
  3.734078536550032   9.342370553181187   8.339164213327406 
  8.712924271301173   9.342122777316259   8.337190345243785 
  9.957659266594256   2.874451198708008   8.337709538343690 
 -3.734078536549859   9.342108742426664   1.668627142244215 
  1.244566454969677   9.342381895142326   1.666795189382247 
  2.489073231239309   2.874199423036314   1.668660337935782 