 B Ge N 
 1.0
 17.527899999999772   0.000000000000000   0.000000000000000
 -8.763949999999658  15.179606674993195   0.000000000000000
  0.000000000000001   0.000000000000002  15.000000000000000
 B Ge N 
  49   1  47
Cartesian
  7.506317048086110  14.427805063994326   1.602782635377900 
 15.022969627698270   1.413400501219771   1.634329980784995 
 13.777077994745914   3.584093655297989   1.634065895086515 
 12.528282094684535   5.758020712339211   1.615085277084060 
 11.292903988470533   7.937853368047723   1.571482693999770 
 10.051197035174596  10.119737783328796   1.535344102809255 
  8.781073310947672  12.292253734757452   1.531164396148155 
 -7.509067797055171  14.467626181787614   1.588653880382250 
  0.002412935026122   1.451059769977590   1.600883095535925 
 -1.249200234880516   3.603993611324499   1.611119998128825 
 -2.504578833630452   5.765667466517805   1.609476129983805 
 -3.760411825338622   7.940889883440545   1.611299508679140 
 -5.005321971770464  10.119737783328796   1.605065839711245 
 -6.254802201812641  12.299349320319457   1.584031598988480 
 -5.010084644447776  14.475248247215534   1.616083194168465 
  2.504074294335853   1.468347638032686   1.596170329511295 
  1.266932484631628   3.660029769547008   1.595529120025575 
 -0.001829177568904   5.788737966662263   1.589171702615865 
 -1.282787376773170   7.949190524612614   1.584909638553120 
 -2.536675051039175  10.124285429799434   1.621054161789075 
 -3.767043946390074  12.300692432344650   1.637990083364670 
 -2.510930375048313  14.468796767180862   1.644260468133525 
  5.007492073028997   1.467336706043414   1.642819317326565 
  3.754024867547269   3.645609783330703   1.647392950973460 
  2.541858650911680   5.902074751410312   1.678253964092565 
  1.189562694604630   7.969418485099944   1.595989323730290 
 -0.077029621015231  10.132527897083552   1.607746590776490 
 -1.276949584405423  12.296855625099090   1.646009147662920 
 -0.000129578793082  14.436564189219375   1.653300054501900 
  7.516099681130824   1.442059757206014   1.660124807479590 
  6.267408525006451   3.625936902675324   1.767112567899555 
  4.976286769918872   5.736704296241785   2.144536691052660 
  3.480692656114236   8.581299530607293   1.964550842937195 
  2.414830203434491  10.018457406217838   1.746249528743610 
  1.237849202924188  12.241776301213301   1.679875189677075 
  2.506939279476336  14.400617574383109   1.675506838214115 
 10.024413165875005   1.413733665496425   1.656550166958180 
  8.775673603845760   3.596611398739378   1.699473444277650 
  7.534071840211289   5.776687571866177   1.867019616579990 
  6.474177933360492   8.044182072567205   2.120281889632260 
  5.097704050948578   9.968008032124105   1.728647050883520 
  3.741008950439197  12.188534761070891   1.705264248493560 
  5.002816275117516  14.395685640554118   1.654945867485225 
 12.524636490840390   1.401988264178877   1.660043968640745 
 11.278380722922350   3.582209032467240   1.647724308685530 
 10.033197190133802   5.759435584813240   1.638350698091775 
  8.825248627011987   7.938007962179614   1.606496866179300 
  7.590369108204022  10.126792470863576   1.503686395762575 
  6.253196525095990  12.213521941538740   1.597765694936715 
  4.863638676567623   7.545820772481064   3.162035977485300 
  8.769609925788215  13.732229373175583   1.577234759966340 
 16.278028555171211   0.701183271022811   1.615433070315705 
 15.029106514226370   2.863576810281109   1.629200822827470 
 13.776773836042477   5.032418322336339   1.619867849307045 
 12.530838639845090   7.206518934185392   1.604182875592785 
 11.287926855919439   9.388574665484816   1.566999576836520 
 10.029861138440172  11.568793746246774   1.536297751912380 
 -6.258806213874801  13.746498644745317   1.593872504716695 
  1.254894258460322   0.734242080216058   1.594016059773495 
  0.012952561594310   2.905568902559359   1.597963001476005 
 -1.249291133062520   5.049697317724822   1.604357452209660 
 -2.517196715961403   7.213469962491313   1.605041122296180 
 -3.770335553371844   9.389991606382251   1.620273558874500 
 -5.010378923644359  11.571070926200488   1.619213198976165 
 -3.763006252317171  13.747041492037734   1.638218256856560 
  3.754929533164537   0.742947376059081   1.613970321086790 
  2.506751023731286   2.918019306056159   1.588546715305230 
  1.281342619375847   5.124605134249481   1.603258495442340 
 -0.034224188931144   7.228632682055268   1.568780541915615 
 -1.303709373231832   9.395254035705719   1.591899212269335 
 -2.524234399209300  11.571749477074613   1.642508622229635 
 -1.263300927272732  13.737360170142258   1.649098816431255 
  6.257036756511265   0.733517189695056   1.647115978249395 
  5.008080243964504   2.914325667917094   1.679471281687665 
  3.753548386808605   5.096473347441621   1.745594550575835 
  2.514322087764811   7.397704778356881   1.660381484123640 
  1.143564735670434   9.406415711990695   1.612243043580930 
 -0.034937111779802  11.566723306261405   1.644368557617750 
  1.249947666505378  13.691315761207347   1.671815832170115 
  8.767243105602647   0.703409993738763   1.646144429145900 
  7.517818014315280   2.887531746795032   1.703011572991080 
  6.264769277626247   5.064374876923377   1.954157636092425 
  2.484510479987588  11.470767584045854   1.727519281156080 
  3.755326140255090  13.647507592869696   1.679255678310225 
 11.274619654865116   0.673504741458602   1.666296313879515 
 10.025637412339581   2.862131543925115   1.659026304866055 
  8.777258568495640   5.043231026008011   1.725445628384640 
  7.600423317500161   7.224501824586559   1.825200191804430 
  6.373796687629233   9.389332814566151   1.603791956993910 
  4.986773583373495  11.419844666371473   1.680817053819705 
  6.251543158704395  13.670705984634944   1.621331317698120 
 13.773552458737417   0.670315182823176   1.653967124236275 
 12.527852644059326   2.851935297260147   1.649967543881250 
 11.280348586824172   5.029885715806987   1.627324429442685 
 10.055743744845817   7.205380187638353   1.567386353323950 
  8.820473668192918   9.388503619537410   1.525205202760170 
  7.534079612355240  11.558850459578251   1.499381231737770 
