 N Ga B 
 1.0
 17.527899999999772   0.000000000000000   0.000000000000000
 -8.763949999999658  15.179606674993195   0.000000000000000
  0.000000000000001   0.000000000000002  15.000000000000000
 N Ga B 
  48   1  48
Cartesian
  8.800967890078104  13.754918940913736   1.656675877983450 
 16.300081422619321   0.751453560579735   1.657353617765160 
 15.048031810620177   2.930690377860965   1.657565024705805 
 13.788790941913353   5.092557574543950   1.657891209442155 
 12.507430450803747   7.244179455350717   1.659084747387015 
 11.280188224298573   9.395090487355310   1.659925194608175 
 10.049188679754050  11.565135573639708   1.659145227763530 
 -6.224081747113676  13.695626997124176   1.656392091305820 
  1.270106123609079   0.672282947156497   1.659987652229700 
  0.011682313087629   2.853319517077095   1.658476568509890 
 -1.200789616665451   5.078683374817157   1.653776664269010 
 -2.480555043724511   7.241280518275234   1.656849909449100 
 -3.726125430875342   9.390869203788466   1.661362875311655 
 -4.971026818349475  11.540465638559306   1.658129304024150 
 -3.707444970806514  13.685520962242258   1.658551674352500 
  3.796521778587219   0.634641081197158   1.663947251427390 
  2.513763730122908   2.747534353526619   1.665577744541175 
  1.283870579215280   4.941469023297345   1.654819107805590 
  0.050406645300767   7.255083804759948   1.654520620498755 
 -1.202681430432846   9.409079927155151   1.660456266360285 
 -2.455518447681177  11.549500625940512   1.662396820248630 
 -1.196392540317518  13.717436828956178   1.661128859227230 
  6.323664800840190   0.649223417964304   1.660980145232925 
  5.078328861189429   2.730620432263563   1.672411457863905 
  3.813954050191255   4.724791635557405   1.689031029503880 
  1.298153703195021   9.504746159975609   1.653484264300200 
  0.051349803129615  11.603479779621551   1.664286605263995 
  1.308816897060955  13.752913396410380   1.662720910446780 
  8.811202838181162   0.715389125409425   1.658452005628485 
  7.549502732980312   2.848751549269531   1.661788998359670 
  6.262205718011193   4.965294768478250   1.670959741470735 
  4.553641129330029   8.194653070247833   1.642424871482745 
  3.990147385963704   9.555327277344750   1.648794809103420 
  2.592958889698667  11.604402888111416   1.662575320775175 
  3.792069424770496  13.821953783305259   1.662739471822740 
 11.292736678834540   0.775757574645040   1.657587980381535 
 10.020848617588401   2.928560715086831   1.657445328234885 
  8.716781029393054   5.099823666921417   1.659128865194910 
  7.321800613810508   7.291170447002770   1.657509758510265 
  6.333433308609258   9.590451203884195   1.671384259351650 
  5.080470707670163  11.750545160501108   1.673722352520675 
  6.306628146949646  13.828812547325171   1.660987859940930 
 13.797193190555559   0.788734776789969   1.657526319894660 
 12.531317804885571   2.941778337401977   1.658156743497150 
 11.250996038023755   5.098255361137330   1.658277221033985 
  9.944622314252227   7.255926864581324   1.658322947229165 
  8.772545032512836   9.425567656508798   1.662850726457610 
  7.568796089002770  11.655506356447615   1.668107233324965 
  3.009086171467148   7.270915911567196   1.656063706175445 
  7.559359236431828  14.502991945534655   1.658211174815040 
 15.053416732909206   1.489426440978726   1.657922925222975 
 13.790034886448836   3.651924599710324   1.658784445534245 
 12.518262180823868   5.805745269914350   1.658939062584360 
 11.233573401977857   7.956385371358334   1.659525067089435 
 10.037044806071020  10.119737783328796   1.661442147261345 
  8.818711597284501  12.325293327200106   1.661337541963335 
 -7.472633166143916  14.426853638459564   1.657588152443625 
  0.028028117877136   1.422280660315624   1.659520671290025 
 -1.217503059634147   3.626282643661221   1.656769064718690 
 -2.471130975220117   5.799298240212719   1.656345378157590 
 -3.747840815520943   7.951761280652007   1.659702139836195 
 -4.982966741648360  10.102735236430064   1.660331352824355 
 -6.221922924248528  12.261266356734762   1.657533985100700 
 -4.965480847935654  14.388078426222853   1.659775178611185 
  2.529692253661868   1.332832590523988   1.663706854869960 
  1.271460965718608   3.507668068876979   1.660608035385090 
  0.071970250474872   5.781738168227822   1.653675397460190 
 -1.220145390217884   7.960140906798659   1.657291271278815 
 -2.465600788922022  10.110531917460449   1.662374541595710 
 -3.713406858612719  12.251795624266189   1.659925286167755 
 -2.452228575534677  14.401984581080796   1.660502548957095 
  5.067125955488160   1.317399185917979   1.665988063666710 
  3.805034728165906   3.340978203923092   1.677389307544380 
  2.609705783536363   5.426674178994197   1.665319243469055 
  1.236437590917747   8.097269095059019   1.656238210472880 
  0.033862732002066  10.180069311869598   1.660065773339265 
 -1.207244091555649  12.287704582943352   1.663425266292930 
  0.050798815311918  14.451727266918901   1.661307398857635 
  7.556845930186892   1.405391006962036   1.660938673122555 
  6.292129644927209   3.516336014024924   1.668766796932155 
  4.976376926996394   5.519857407801780   1.688221520751720 
  2.630143015173902  10.145064490677667   1.654751864456415 
  1.321261590514319  12.307751067913284   1.664069330675730 
  2.537372308837416  14.514843002884437   1.661234984912985 
 10.037535805806133   1.479914824160840   1.657944172106415 
  8.760263258308200   3.639362946776766   1.659931899948780 
  7.436240882534063   5.820522794540643   1.662269633946585 
  6.050842371516401   8.192279515087751   1.657856219223555 
  5.135917444017807  10.355831860913154   1.667075395163580 
  3.807354717801086  12.390855007307318   1.667076006937410 
  5.045421905437511  14.533177281429685   1.660845539380155 
 12.540782410303335   1.501010802426052   1.658071636498230 
 11.269842140532139   3.655374272564140   1.658306289922005 
  9.978630733371427   5.813773321972477   1.658661744785460 
  8.654501810201316   7.979060923803988   1.659604249587540 
  7.582349128308559  10.224035561061401   1.669289061697665 
  6.334760284764965  12.408652587909891   1.669026204043920 
