 N S B 
 1.0
 17.527899999999772   0.000000000000000   0.000000000000000
 -8.763949999999658  15.179606674993195   0.000000000000000
  0.000000000000001   0.000000000000002  15.000000000000000
 N S B 
  48   1  49
Cartesian
  8.769321016958120  13.745611782943385   1.658959970836890 
 16.273205976180858   0.724412119445073   1.664856771270300 
 15.020766894517768   2.889517947463460   1.655956062825510 
 13.771949786403599   5.056714922885575   1.664856771270300 
 12.532732003140040   7.227192745113182   1.658959970836890 
 11.283549355004116   9.401962947208999   1.668857167721535 
 10.028135935289741  11.576402774658161   1.668857167721535 
 -6.257960163478865  13.732786955333905   1.650030018550230 
  1.244573800230389   0.712367289459109   1.658959970836890 
 -0.009714504089691   2.884151742201078   1.663347997347525 
 -1.263086074856253   5.055054983531249   1.663347997347525 
 -2.516762430314787   7.227192745113182   1.658959970836890 
 -3.755980213587259   9.399230562602861   1.650030018550230 
 -5.003800063352395  11.567839031594927   1.663813418876700 
 -3.755980213587158  13.729126410081031   1.663813418876700 
  3.752571366689332   0.706806095663651   1.668857167721535 
  2.480127983439246   2.853648844611802   1.665201689163810 
  1.232005170775308   5.048327758295844   1.668753525294810 
 -0.044581115293011   7.226573277947653   1.665201689163810 
 -1.267579782196238   9.401962947208999   1.668857167721535 
 -2.508160363822117  11.567839031594943   1.663813418876685 
 -1.254000263695513  13.732786955333921   1.650030018550215 
  6.263398206118023   0.706806095663651   1.668857167721535 
  5.007984786403753   2.855879905111571   1.669328110657680 
  3.709262566299558   4.976688514550917   1.676622136742670 
  2.408592463546482   7.229515216405126   1.676622136742670 
  1.221279441250647   9.414645956209618   1.669328110657680 
 -0.012166362481886  11.576402774658161   1.668857167721535 
  1.246648555849695  13.745611782943385   1.658959970836890 
  8.771395772576788   0.712367289459109   1.658959970836890 
  7.535841589368120   2.853648844611802   1.665201689163810 
  6.306707006507819   4.976688514550917   1.676622136742655 
  3.707314683641890   9.478968086559345   1.676622136742670 
  2.483275687662500  11.604949694956296   1.665201689163810 
  3.754613215628366  13.745965091783335   1.663347997347525 
 11.270693596608666   0.724412119445073   1.664856771270300 
 10.025684076896944   2.884151742201063   1.663347997347525 
  8.783964402032238   5.048327758295859   1.668753525294810 
  7.607377109261042   7.229515216405111   1.676622136742670 
  6.308654889148164   9.478968086559345   1.676622136742655 
  5.007984786395094  11.588516300924018   1.668753525294810 
  6.261356357179116  13.745965091783335   1.663347997347525 
 13.771949786403454   0.726503266848723   1.655956062825510 
 12.523132678289432   2.889517947463460   1.655956062825510 
 11.279055647681098   5.055054983531295   1.663347997347525 
 10.060550688118298   7.226573277947653   1.665201689163810 
  8.794690131556933   9.414645956209618   1.669328110657680 
  7.532693885144935  11.604949694956296   1.665201689163810 
  5.007984786403784   7.228390605833453   1.675644782773395 
  7.515758848712172  14.464573682525893   1.662585290802315 
 15.022430022467766   1.446554219948122   1.658994216592530 
 13.771940213584740   3.612466103280692   1.658994216592530 
 12.528575188268311   5.782121093402919   1.662585290802315 
 11.301424882519303   7.958396608513173   1.664073475649115 
 10.046070182993727  10.137147886434967   1.670114671240680 
  8.786893577548227  12.313692585945700   1.664073475649115 
 -7.507902309936082  14.454447656993558   1.655456838581490 
 -0.004841125962477   1.438512422988201   1.662585290802315 
 -1.261205751048889   3.608889082104126   1.661122984019490 
 -2.512624761080720   5.782121093402919   1.662585290802315 
 -3.755989786406072   7.955944540685397   1.655456838581490 
 -4.998204009070690  10.126676600093202   1.661037748200750 
 -6.249100313011837  12.293292553519462   1.661037748200750 
 -5.006886090346995  14.444870701059546   1.661037748200750 
  2.493443908613850   1.413118004473473   1.664073475649115 
  1.234764061572565   3.593548760145623   1.665749458512645 
 -0.026505953256425   5.778132507892662   1.665749458512645 
 -1.285474455349430   7.958396608513158   1.664073475649115 
 -2.513775563741107  10.126676600093202   1.661037748200750 
 -3.755989786406033  12.288279951557490   1.662873784866690 
 -2.505093482447392  14.444870701059546   1.661037748200750 
  5.007975213602494   1.410911426062033   1.670114671240680 
  3.727748396178747   3.531095373451177   1.670755344524745 
  2.464718617717174   5.760052519381239   1.674943512006300 
  1.165899994616937   7.968346966245501   1.670755344524745 
 -0.030119755805972  10.137147886434967   1.670114671240680 
 -1.262879259782667  12.293292553519462   1.661037748200750 
 -0.004077262858358  14.454447656993558   1.655456838581490 
  7.522506518573593   1.413118004473473   1.664073475649115 
  6.288202031026147   3.531095373451177   1.670755344524745 
  5.007975213602494   5.502969474018900   1.679209788533640 
  3.513706467485066   8.091118862456616   1.679209788533640 
  2.446126812040679  10.185764859235558   1.670755344524745 
  1.229056849639210  12.313692585945700   1.664073475649115 
  2.500191578475626  14.464573682525893   1.662585290802315 
 10.020791553150008   1.438512422988201   1.662585290802315 
  8.781186365614872   3.593548760145623   1.665749458512645 
  7.551231809487872   5.760052519381239   1.674943512006300 
  6.502243959702578   8.091118862456616   1.679209788533640 
  5.007975213593808  10.165102160154580   1.674943512006300 
  3.746705198764834  12.313525930878836   1.665749458512645 
  5.007975213593953  14.467429034708854   1.661122984019490 
 12.521450404701843   1.446554219948122   1.658994216592530 
 11.277156178236382   3.608889082104126   1.661122984019490 
 10.042456380443927   5.778132507892662   1.665749458512645 
  8.850050432570686   7.968346966245501   1.670755344524745 
  7.569823615147027  10.185764859235558   1.670755344524745 
  6.269245228422969  12.313525930878836   1.665749458512645 
