 N B Ga 
 1.0
 14.936314146199660   0.000000000000000   0.000000000000000
 -7.468157073099825  12.935227489513863   0.000000000000000
  0.000000000000001   0.000000000000001  13.341276283792837
 N B Ga 
 143 143   1
Cartesian
  1.244482182899276   0.718488195861942   1.671169274402972 
  4.978184924368899   7.186488910467884   1.687044500340639 
  6.223045155829509   0.717968984377270   1.670986944771811 
  9.956891349734668   7.185840725891834   1.671761345811401 
 11.201857865498400   0.718405658729625   1.668395676549763 
 -3.734841478419601   9.341668257731076   8.337545228095721 
  1.243916266482607   9.342073198160159   8.334970268071389 
  2.489520370785249   2.874460081579099   8.317300393270603 
  6.222871739082442   9.341937276102380   8.331017863788416 
  7.467817919178031   2.873758448644150   8.331048872445320 
 12.446747665903077   2.874371445999657   8.337045227267016 
 -1.245450237783101   9.341700921629746   1.668275635310430 
  0.000034915785453   2.874515156308392   1.674657686626806 
  4.978767513607384   2.873951775197154   1.688668489889795 
  3.733271089423714   9.342183301023947   1.674908340397412 
  8.712180600005777   9.341742985149441   1.671761345811401 
  9.957174483751880   2.874131013874378   1.669911819210255 
 -4.979357740261091  11.497639417743242   8.337211382097147 
 -0.000690997249509  11.497581043227884   8.338139956087458 
  1.244729947170573   5.030500340054919   8.317300393270603 
  6.223388731632308   5.029732650509446   8.318912712504844 
  4.978272022662510  11.497843042410954   8.336045393633892 
 11.201847375602821   5.030065145333409   8.336708518310211 
 -1.244915569647544   5.030251583520839   1.671169274402972 
 -2.490117570336809  11.497527980134011   1.668275635310523 
  2.488716622288932  11.497830955858138   1.668758240349784 
  3.735245816858324   5.031040175521688   1.732991899124418 
  7.467702195317068  11.497794320426822   1.669248694534510 
  8.712405180174240   5.029938868989575   1.674939349058107 
 -0.000470128953532   7.186053639208348   8.330919215546812 
  1.244482182899276   0.718488195861943   8.334787938440041 
  4.978184924368900   7.186488910467885   8.318912712504844 
  6.223045155829510   0.717968984377271   8.334970268071389 
  9.956891349734668   7.185840725891835   8.334195867033694 
 -2.489973814944070   7.185899979548882   1.668745830746253 
 11.201857865498400   0.718405658729625   8.337561536293158 
  3.733684249001516   0.718308533284403   1.675037997298469 
  2.488913312343093   7.186505755225762   1.688668489889888 
  7.467403634067754   7.185802495949964   1.679368482497396 
  8.712386316303899   0.718118836297494   1.668758240349784 
  2.488913312343093   7.186505755225763   8.317288722954739 
 13.691423907166325   0.718528957157839   1.668911985578373 
 -1.245450237783100   9.341700921629746   8.337681577534276 
  0.000034915785454   2.874515156308393   8.331299526217542 
  4.978767513607385   2.873951775197155   8.317288722954739 
  3.733271089423714   9.342183301023947   8.331048872445320 
  8.712180600005777   9.341742985149441   8.334195867033694 
  9.957174483751880   2.874131013874379   8.336045393633892 
 -3.734841478419601   9.341668257731076   1.668411984749280 
  1.243916266482606   9.342073198160159   1.670986944771811 
  2.489520370785248   2.874460081579099   1.688656819572317 
  6.222871739082441   9.341937276102380   1.674939349058200 
  7.467817919178030   2.873758448644149   1.674908340397506 
 12.446747665903077   2.874371445999656   1.668911985578373 
 -1.244915569647543   5.030251583520840   8.334787938440041 
 -2.490117570336808  11.497527980134011   8.337681577534276 
  2.488716622288932  11.497830955858138   8.337198972492470 
  3.735245816858325   5.031040175521689   8.272965313718501 
  7.467702195317069  11.497794320426822   8.336708518310211 
 -4.979357740261092  11.497639417743242   1.668745830746253 
  8.712405180174240   5.029938868989576   8.331017863788416 
 -0.000690997249509  11.497581043227884   1.667817256758211 
  1.244729947170573   5.030500340054918   1.688656819572317 
 -0.000470128953532   7.186053639208347   1.675037997298469 
  6.223388731632307   5.029732650509445   1.687044500340639 
  4.978272022662509  11.497843042410954   1.669911819210255 
 11.201847375602821   5.030065145333408   1.669248694534510 
 -2.489973814944069   7.185899979548883   8.337211382097147 
  3.733684249001516   0.718308533284404   8.330919215546812 
  7.467403634067755   7.185802495949965   8.326588730346952 
  8.712386316303899   0.718118836297494   8.337198972492470 
 13.691423907166273   0.718528957157930   8.337045227267016 
  0.031027895127174   1.458116097481310   5.002978606422314 
  3.681659805289288   8.011054345833562   5.002978606422314 
  5.012580441746459   1.365549494365560   5.002978606422314 
  8.681832206121115   7.886953158937395   5.002978606422314 
  9.986933167032763   1.439873382380373   5.002978606422314 
 -4.975128956255055  10.062864158971914  11.673616748318732 
  0.003769032981894  10.062821391599899  11.673616748318732 
  1.248532307341331   3.595335461405117  11.673616748318732 
  4.982505013423555  10.062801699619580  11.673616748318732 
  6.227233169419418   3.595334204747326  11.673616748318732 
 11.205908879038969   3.595298116400512  11.673616748318732 
 -2.504116531473449  10.052227637152271   5.002978606422314 
 -1.211106161384570   3.609555393171477   5.002978606422314 
  3.814990784061276   3.493241447458200   5.002978606422314 
  2.471727069477053  10.112892268576781   5.002978606422314 
  7.463394872989431  10.067298291023382   5.002978606422314 
  8.747476059792591   3.575696341468856   5.002978606422314 
 -6.219764981690056  12.218828929708156  11.673616748318732 
 -1.240999288771288  12.218823368528668  11.673616748318732 
  0.003817935420442   5.751051359967083  11.673616748318732 
  4.982398756173235   5.751084260756452  11.673616748318732 
  3.737801466212165  12.218745859495867  11.673616748318732 
  9.961231416977755   5.751122185594542  11.673616748318732 
 -2.485155130245842   5.754776220108925   5.002978606422314 
 -3.735844173112582  12.195076498812488   5.002978606422314 
  1.254263039343747  12.222129094078301   5.002978606422314 
  2.443345536048639   5.869000706976517   5.002978606422314 
  6.242418387387374  12.240177506952447   5.002978606422314 
  7.463566824333339   5.716051899034174   5.002978606422314 
 -1.240926417515493   7.906914831694873  11.673616748318732 
  0.003685017497742   1.439413659930855  11.673616748318732 
  3.737881650082335   7.907017514137961  11.673616748318732 
  4.982458833345703   1.439641069188131  11.673616748318732 
  8.716466400826238   7.906949220567262  11.673616748318732 
 -3.753166352679430   7.898552179585187   5.002978606422314 
  9.961259358782749   1.439400590798007  11.673616748318732 
  2.509688941579728   1.428459357491685   5.002978606422314 
  1.199505082086245   7.969989750386066   5.002978606422314 
  6.192643875047431   7.917355019702846   5.002978606422314 
  7.504499454029028   1.395874795603127   5.002978606422314 
  1.248609463887660   7.906857884898523  11.673616748318732 
 12.476937724834938   1.454573358757455   5.002978606422314 
 -2.485668231670840  10.062878768008657  11.673616748318732 
 -1.240974386229925   3.595226985305573  11.673616748318732 
  3.737872377472047   3.595487647607515  11.673616748318732 
  2.493121671770377  10.062886783954992  11.673616748318732 
  7.471847930448344  10.062860863786469  11.673616748318732 
  8.716508720793946   3.595317562803466  11.673616748318732 
 -4.993779099834633  10.047356490175430   5.002978606422314 
 -0.018328902168821  10.078713905752929   5.002978606422314 
  1.292843664644250   3.620918635473520   5.002978606422314 
  4.980996206795529  10.099430812544368   5.002978606422314 
  6.289220786201263   3.494626243059851   5.002978606422314 
 11.232128170511015   3.597746647558762   5.002978606422314 
 -2.485608997355475   5.751081041453243  11.673616748318732 
 -3.730416863082558  12.218838768374344  11.673616748318732 
  1.248377560239222  12.218731111132623  11.673616748318732 
  2.493334139523654   5.751091107696209  11.673616748318732 
  6.227188251468852  12.218695200043221  11.673616748318732 
 -6.216337929546897  12.217374400825644   5.002978606422314 
  7.471781758282037   5.751131977209396  11.673616748318732 
 -1.238284935360168  12.191739738240541   5.002978606422314 
  0.002540871618383   5.770967196763014   5.002978606422314 
 -1.264218801624966   7.914095778119608   5.002978606422314 
  3.751047819857404  12.240743633862456   5.002978606422314 
  9.960847812962061   5.741582909478493   5.002978606422314 
 -3.730411245759623   7.906949843313002  11.673616748318732 
  2.493079852877655   1.439523245584836  11.673616748318732 
  6.227131580890447   7.906929322101261  11.673616748318732 
  7.471890735165096   1.439405807003167  11.673616748318732 
 12.450681682614782   1.439414425712439  11.673616748318732 
  1.261977453088700   0.719260414367885   5.002978606422314 
  4.907089868862480   7.327831106130236   5.002978606422314 
  6.255540507889054   0.676448743247949   5.002978606422314 
  9.939050815236467   7.177600908799242   5.002978606422314 
 11.233965080089947   0.736942767716364   5.002978606422314 
 -3.729793410543994   9.344582761078255  11.673616748318732 
  1.248491464850394   9.343543432584999  11.673616748318732 
  2.492622912724119   2.876985524046560  11.673616748318732 
  6.226662776402156   9.344832855050065  11.673616748318732 
  7.472478049263660   2.876854348354243  11.673616748318732 
 12.450881796538392   2.876020360688003  11.673616748318732 
 -1.258364120994080   9.350075720025471   5.002978606422314 
  0.046315399508547   2.901235206043647   5.002978606422314 
  5.025031716717379   2.776008074972097   5.002978606422314 
  3.715720148192739   9.430957262740474   5.002978606422314 
  8.696124441830900   9.330412537605026   5.002978606422314 
  9.995131546429183   2.872236750398275   5.002978606422314 
 -4.975579173740679  11.500678439689024  11.673616748318732 
  0.004271404944192  11.500446087470047  11.673616748318732 
  1.248468315473260   5.031924498955457  11.673616748318732 
  6.226827541240102   5.032553230737682  11.673616748318732 
  4.982582452777318  11.499652845927599  11.673616748318732 
 11.206764817268498   5.032710527748970  11.673616748318732 
 -1.235499173709510   5.045016822698150   5.002978606422314 
 -2.489321723778435  11.482156830011178   5.002978606422314 
  2.497779813670406  11.534614287275755   5.002978606422314 
  7.475889964206315  11.507700978383019   5.002978606422314 
  8.731207336670799   5.010364195044970   5.002978606422314 
  0.004248439608758   7.188299741602231  11.673616748318732 
  1.248475560573552   0.720410430728794  11.673616748318732 
  4.982347023302489   7.188056716835274  11.673616748318732 
  6.226606015373504   0.721196105181010  11.673616748318732 
  9.960861836077466   7.188746280842626  11.673616748318732 
 -2.504008609943275   7.187960908417300   5.002978606422314 
 11.206670730529883   0.721184367650824  11.673616748318732 
  3.747934085963072   0.688889666102836   5.002978606422314 
  2.427223681362110   7.275543580518141   5.002978606422314 
  7.436395679444185   7.167900044996423   5.002978606422314 
  8.748773211437269   0.707576124565865   5.002978606422314 
  2.492539440717659   7.188395838798550  11.673616748318732 
 13.719891242678505   0.741844237327819   5.002978606422314 
 -1.241526431630829   9.344442551467299  11.673616748318732 
  0.004212066417038   2.876926835350164  11.673616748318732 
  4.982217438183924   2.876147052700610  11.673616748318732 
  3.738282282260761   9.344671142211944  11.673616748318732 
  8.716682127575067   9.343728749715034  11.673616748318732 
  9.960897034631259   2.876959054095502  11.673616748318732 
 -3.747697758022813   9.334245681244262   5.002978606422314 
  1.224206358921265   9.390975119116538   5.002978606422314 
  2.534797468806577   2.874462661636354   5.002978606422314 
  6.215320652422522   9.368007758249012   5.002978606422314 
  7.535922954602737   2.814171906821100   5.002978606422314 
 12.481172958583512   2.887367241644900   5.002978606422314 
 -1.241254176584576   5.032748832601808  11.673616748318732 
 -2.485781346173101  11.499555281021800  11.673616748318732 
  2.492529810411476  11.500520404033379  11.673616748318732 
  3.737703674202814   5.032459220120840  11.673616748318732 
  7.472451884524179  11.500730258623717  11.673616748318732 
 -4.984590321007270  11.484454464306308   5.002978606422314 
  8.716808343761558   5.031774214141120  11.673616748318732 
  0.007144645745458  11.502104953823361   5.002978606422314 
  1.267370730577057   5.069710167121197   5.002978606422314 
 -0.018822696802761   7.213103793607988   5.002978606422314 
  6.310247135950534   4.897491428524216   5.002978606422314 
  4.995610073710463  11.531661954678739   5.002978606422314 
 11.214520677505174   5.032202632211878   5.002978606422314 
 -2.485452661477601   7.187652803175056  11.673616748318732 
  3.737988715013890   0.721271882334285  11.673616748318732 
  7.472539976468644   7.188767964615673  11.673616748318732 
  8.716622040806886   0.720076429993757  11.673616748318732 
 13.694918974494353   0.721284761963658  11.673616748318732 
 -0.000360674020237   1.437140450752132   1.669866094116154 
  3.732396498922819   7.906295848125258   1.680466189719919 
  4.978494114475237   1.435505439142755   1.676036856411208 
  8.713163166421824   7.905042097297064   1.672019410787151 
  9.957313375382428   1.436683971836983   1.667199516784269 
 -4.979167635952313  10.060510659401297   8.338536489669780 
 -0.001097510627445  10.060660118416598   8.338940562292100 
  1.244136411094843   3.592797489523256   8.321067079848282 
  4.978122108986739  10.061420072307303   8.334926689936248 
  6.223865612740987   3.590944757503558   8.325491023123949 
 11.202180255247526   3.592726691961411   8.338448086207030 
 -2.490253731664882  10.060231328349794   1.666486914927703 
 -1.244965888885058   3.592859918263195   1.669866094116154 
  3.733563790233030   3.590065911108741   1.704465086604007 
  2.488086562134134  10.061279482113884   1.669218863428866 
  7.468038897525462  10.061158596099375   1.669672550594203 
  8.713120744224851   3.592212669874429   1.671030522909513 
 -6.223924271384198  12.216466441456042   8.338178942501880 
 -1.245304278057525  12.215689454726546   8.338940562292100 
 -0.000786015611744   5.748795293840994   8.329955676066524 
  4.980592177335812   5.750041231978363   8.313381947878005 
  3.733475813476609  12.216686847113545   8.338757696060265 
  9.957852693455678   5.748674600162284   8.336284662250238 
 -2.489734617045018   5.748660235042473   1.667778270343135 
 -3.734758454218391  12.215783357183208   1.668121769804325 
  1.243940014438353  12.216169092870445   1.666918997801032 
  2.486484484364381   5.750070629940983   1.704465086604007 
  6.223097020682306  12.216751829342819   1.667509126638079 
  7.469442963907214   5.748950314688444   1.676454177909267 
 -1.245743276794514   7.904682609074960   8.337835443040023 
 -0.000360674020185   1.437140450752042   8.336091118729048 
  3.732396498922820   7.906295848125259   8.325491023123949 
  4.978494114475238   1.435505439142756   8.329920356433327 
  8.713163166421824   7.905042097297065   8.333937802056155 
 -3.734468776023837   7.904628993882101   1.667420723174275 
  9.957313375382428   1.436683971836983   8.338757696060265 
  2.488824066783526   1.436664140096616   1.676001536778771 
  1.243045543772314   7.905492152660806   1.676036856411208 
  6.224072808534106   7.905994698024630   1.676454177909267 
  7.467981216119748   1.435848925070107   1.669218863428866 
  1.243045543772314   7.905492152660807   8.329920356433327 
 12.446658061007930   1.437091386694848   1.667458301107962 
 -2.490253731664881  10.060231328349794   8.339470297916739 
 -1.244965888885057   3.592859918263196   8.336091118729048 
  3.733563790233030   3.590065911108741   8.301492126241849 
  2.488086562134134  10.061279482113884   8.336738349414720 
  7.468038897525463  10.061158596099375   8.336284662250238 
  8.713120744224851   3.592212669874430   8.334926689936248 
 -4.979167635952314  10.060510659401297   1.667420723174275 
 -0.001097510627446  10.060660118416598   1.667016650551099 
  1.244136411094842   3.592797489523255   1.684890132996346 
  4.978122108986738  10.061420072307303   1.671030522909513 
  6.223865612740986   3.590944757503557   1.680466189719919 
 11.202180255247526   3.592726691961410   1.667509126638079 
 -2.489734617045018   5.748660235042474   8.338178942501880 
 -3.734758454218391  12.215783357183208   8.337835443040023 
  1.243940014438353  12.216169092870445   8.339038215044729 
  2.486484484364382   5.750070629940984   8.301492126241849 
  6.223097020682307  12.216751829342819   8.338448086207030 
 -6.223924271384199  12.216466441456042   1.667778270343135 
  7.469442963907215   5.748950314688445   8.329503034932145 
 -1.245304278057525  12.215689454726546   1.667016650551099 
 -0.000786015611744   5.748795293840993   1.676001536778771 
 -1.245743276794514   7.904682609074960   1.668121769804325 
  4.980592177335916   5.750041231978362   1.692575264965381 
  3.733475813476608  12.216686847113545   1.667199516784269 
  9.957852693455678   5.748674600162283   1.669672550594203 
 -3.734468776023836   7.904628993882102   8.338536489669780 
  2.488824066783527   1.436664140096616   8.329955676066524 
  6.224072808534107   7.905994698024631   8.329503034932145 
  7.467981216119801   1.435848925070017   8.336738349414720 
 12.446658061007930   1.437091386694848   8.338498911734478 
  4.232068749057502   5.317881029168784   5.002978606422314 
Generated by cif2cell 2.0.0.  :  Failed to get author information, No journal information. Species order: N B Ga 
 1.0
 14.936314146199660   0.000000000000000   0.000000000000000
 -7.468157073099825  12.935227489513863   0.000000000000000
  0.000000000000001   0.000000000000001  13.341276283792837
 N B Ga 
 143 143   1
Cartesian
  1.244482182899276   0.718488195861942   1.671169274402972 
  4.978184924368899   7.186488910467884   1.687044500340639 
  6.223045155829509   0.717968984377270   1.670986944771811 
  9.956891349734668   7.185840725891834   1.671761345811401 
 11.201857865498400   0.718405658729625   1.668395676549763 
 -3.734841478419601   9.341668257731076   8.337545228095721 
  1.243916266482607   9.342073198160159   8.334970268071389 
  2.489520370785249   2.874460081579099   8.317300393270603 
  6.222871739082442   9.341937276102380   8.331017863788416 
  7.467817919178031   2.873758448644150   8.331048872445320 
 12.446747665903077   2.874371445999657   8.337045227267016 
 -1.245450237783101   9.341700921629746   1.668275635310430 
  0.000034915785453   2.874515156308392   1.674657686626806 
  4.978767513607384   2.873951775197154   1.688668489889795 
  3.733271089423714   9.342183301023947   1.674908340397412 
  8.712180600005777   9.341742985149441   1.671761345811401 
  9.957174483751880   2.874131013874378   1.669911819210255 
 -4.979357740261091  11.497639417743242   8.337211382097147 
 -0.000690997249509  11.497581043227884   8.338139956087458 
  1.244729947170573   5.030500340054919   8.317300393270603 
  6.223388731632308   5.029732650509446   8.318912712504844 
  4.978272022662510  11.497843042410954   8.336045393633892 
 11.201847375602821   5.030065145333409   8.336708518310211 
 -1.244915569647544   5.030251583520839   1.671169274402972 
 -2.490117570336809  11.497527980134011   1.668275635310523 
  2.488716622288932  11.497830955858138   1.668758240349784 
  3.735245816858324   5.031040175521688   1.732991899124418 
  7.467702195317068  11.497794320426822   1.669248694534510 
  8.712405180174240   5.029938868989575   1.674939349058107 
 -0.000470128953532   7.186053639208348   8.330919215546812 
  1.244482182899276   0.718488195861943   8.334787938440041 
  4.978184924368900   7.186488910467885   8.318912712504844 
  6.223045155829510   0.717968984377271   8.334970268071389 
  9.956891349734668   7.185840725891835   8.334195867033694 
 -2.489973814944070   7.185899979548882   1.668745830746253 
 11.201857865498400   0.718405658729625   8.337561536293158 
  3.733684249001516   0.718308533284403   1.675037997298469 
  2.488913312343093   7.186505755225762   1.688668489889888 
  7.467403634067754   7.185802495949964   1.679368482497396 
  8.712386316303899   0.718118836297494   1.668758240349784 
  2.488913312343093   7.186505755225763   8.317288722954739 
 13.691423907166325   0.718528957157839   1.668911985578373 
 -1.245450237783100   9.341700921629746   8.337681577534276 
  0.000034915785454   2.874515156308393   8.331299526217542 
  4.978767513607385   2.873951775197155   8.317288722954739 
  3.733271089423714   9.342183301023947   8.331048872445320 
  8.712180600005777   9.341742985149441   8.334195867033694 
  9.957174483751880   2.874131013874379   8.336045393633892 
 -3.734841478419601   9.341668257731076   1.668411984749280 
  1.243916266482606   9.342073198160159   1.670986944771811 
  2.489520370785248   2.874460081579099   1.688656819572317 
  6.222871739082441   9.341937276102380   1.674939349058200 
  7.467817919178030   2.873758448644149   1.674908340397506 
 12.446747665903077   2.874371445999656   1.668911985578373 
 -1.244915569647543   5.030251583520840   8.334787938440041 
 -2.490117570336808  11.497527980134011   8.337681577534276 
  2.488716622288932  11.497830955858138   8.337198972492470 
  3.735245816858325   5.031040175521689   8.272965313718501 
  7.467702195317069  11.497794320426822   8.336708518310211 
 -4.979357740261092  11.497639417743242   1.668745830746253 
  8.712405180174240   5.029938868989576   8.331017863788416 
 -0.000690997249509  11.497581043227884   1.667817256758211 
  1.244729947170573   5.030500340054918   1.688656819572317 
 -0.000470128953532   7.186053639208347   1.675037997298469 
  6.223388731632307   5.029732650509445   1.687044500340639 
  4.978272022662509  11.497843042410954   1.669911819210255 
 11.201847375602821   5.030065145333408   1.669248694534510 
 -2.489973814944069   7.185899979548883   8.337211382097147 
  3.733684249001516   0.718308533284404   8.330919215546812 
  7.467403634067755   7.185802495949965   8.326588730346952 
  8.712386316303899   0.718118836297494   8.337198972492470 
 13.691423907166273   0.718528957157930   8.337045227267016 
  0.031027895127174   1.458116097481310   5.002978606422314 
  3.681659805289288   8.011054345833562   5.002978606422314 
  5.012580441746459   1.365549494365560   5.002978606422314 
  8.681832206121115   7.886953158937395   5.002978606422314 
  9.986933167032763   1.439873382380373   5.002978606422314 
 -4.975128956255055  10.062864158971914  11.673616748318732 
  0.003769032981894  10.062821391599899  11.673616748318732 
  1.248532307341331   3.595335461405117  11.673616748318732 
  4.982505013423555  10.062801699619580  11.673616748318732 
  6.227233169419418   3.595334204747326  11.673616748318732 
 11.205908879038969   3.595298116400512  11.673616748318732 
 -2.504116531473449  10.052227637152271   5.002978606422314 
 -1.211106161384570   3.609555393171477   5.002978606422314 
  3.814990784061276   3.493241447458200   5.002978606422314 
  2.471727069477053  10.112892268576781   5.002978606422314 
  7.463394872989431  10.067298291023382   5.002978606422314 
  8.747476059792591   3.575696341468856   5.002978606422314 
 -6.219764981690056  12.218828929708156  11.673616748318732 
 -1.240999288771288  12.218823368528668  11.673616748318732 
  0.003817935420442   5.751051359967083  11.673616748318732 
  4.982398756173235   5.751084260756452  11.673616748318732 
  3.737801466212165  12.218745859495867  11.673616748318732 
  9.961231416977755   5.751122185594542  11.673616748318732 
 -2.485155130245842   5.754776220108925   5.002978606422314 
 -3.735844173112582  12.195076498812488   5.002978606422314 
  1.254263039343747  12.222129094078301   5.002978606422314 
  2.443345536048639   5.869000706976517   5.002978606422314 
  6.242418387387374  12.240177506952447   5.002978606422314 
  7.463566824333339   5.716051899034174   5.002978606422314 
 -1.240926417515493   7.906914831694873  11.673616748318732 
  0.003685017497742   1.439413659930855  11.673616748318732 
  3.737881650082335   7.907017514137961  11.673616748318732 
  4.982458833345703   1.439641069188131  11.673616748318732 
  8.716466400826238   7.906949220567262  11.673616748318732 
 -3.753166352679430   7.898552179585187   5.002978606422314 
  9.961259358782749   1.439400590798007  11.673616748318732 
  2.509688941579728   1.428459357491685   5.002978606422314 
  1.199505082086245   7.969989750386066   5.002978606422314 
  6.192643875047431   7.917355019702846   5.002978606422314 
  7.504499454029028   1.395874795603127   5.002978606422314 
  1.248609463887660   7.906857884898523  11.673616748318732 
 12.476937724834938   1.454573358757455   5.002978606422314 
 -2.485668231670840  10.062878768008657  11.673616748318732 
 -1.240974386229925   3.595226985305573  11.673616748318732 
  3.737872377472047   3.595487647607515  11.673616748318732 
  2.493121671770377  10.062886783954992  11.673616748318732 
  7.471847930448344  10.062860863786469  11.673616748318732 
  8.716508720793946   3.595317562803466  11.673616748318732 
 -4.993779099834633  10.047356490175430   5.002978606422314 
 -0.018328902168821  10.078713905752929   5.002978606422314 
  1.292843664644250   3.620918635473520   5.002978606422314 
  4.980996206795529  10.099430812544368   5.002978606422314 
  6.289220786201263   3.494626243059851   5.002978606422314 
 11.232128170511015   3.597746647558762   5.002978606422314 
 -2.485608997355475   5.751081041453243  11.673616748318732 
 -3.730416863082558  12.218838768374344  11.673616748318732 
  1.248377560239222  12.218731111132623  11.673616748318732 
  2.493334139523654   5.751091107696209  11.673616748318732 
  6.227188251468852  12.218695200043221  11.673616748318732 
 -6.216337929546897  12.217374400825644   5.002978606422314 
  7.471781758282037   5.751131977209396  11.673616748318732 
 -1.238284935360168  12.191739738240541   5.002978606422314 
  0.002540871618383   5.770967196763014   5.002978606422314 
 -1.264218801624966   7.914095778119608   5.002978606422314 
  3.751047819857404  12.240743633862456   5.002978606422314 
  9.960847812962061   5.741582909478493   5.002978606422314 
 -3.730411245759623   7.906949843313002  11.673616748318732 
  2.493079852877655   1.439523245584836  11.673616748318732 
  6.227131580890447   7.906929322101261  11.673616748318732 
  7.471890735165096   1.439405807003167  11.673616748318732 
 12.450681682614782   1.439414425712439  11.673616748318732 
  1.261977453088700   0.719260414367885   5.002978606422314 
  4.907089868862480   7.327831106130236   5.002978606422314 
  6.255540507889054   0.676448743247949   5.002978606422314 
  9.939050815236467   7.177600908799242   5.002978606422314 
 11.233965080089947   0.736942767716364   5.002978606422314 
 -3.729793410543994   9.344582761078255  11.673616748318732 
  1.248491464850394   9.343543432584999  11.673616748318732 
  2.492622912724119   2.876985524046560  11.673616748318732 
  6.226662776402156   9.344832855050065  11.673616748318732 
  7.472478049263660   2.876854348354243  11.673616748318732 
 12.450881796538392   2.876020360688003  11.673616748318732 
 -1.258364120994080   9.350075720025471   5.002978606422314 
  0.046315399508547   2.901235206043647   5.002978606422314 
  5.025031716717379   2.776008074972097   5.002978606422314 
  3.715720148192739   9.430957262740474   5.002978606422314 
  8.696124441830900   9.330412537605026   5.002978606422314 
  9.995131546429183   2.872236750398275   5.002978606422314 
 -4.975579173740679  11.500678439689024  11.673616748318732 
  0.004271404944192  11.500446087470047  11.673616748318732 
  1.248468315473260   5.031924498955457  11.673616748318732 
  6.226827541240102   5.032553230737682  11.673616748318732 
  4.982582452777318  11.499652845927599  11.673616748318732 
 11.206764817268498   5.032710527748970  11.673616748318732 
 -1.235499173709510   5.045016822698150   5.002978606422314 
 -2.489321723778435  11.482156830011178   5.002978606422314 
  2.497779813670406  11.534614287275755   5.002978606422314 
  7.475889964206315  11.507700978383019   5.002978606422314 
  8.731207336670799   5.010364195044970   5.002978606422314 
  0.004248439608758   7.188299741602231  11.673616748318732 
  1.248475560573552   0.720410430728794  11.673616748318732 
  4.982347023302489   7.188056716835274  11.673616748318732 
  6.226606015373504   0.721196105181010  11.673616748318732 
  9.960861836077466   7.188746280842626  11.673616748318732 
 -2.504008609943275   7.187960908417300   5.002978606422314 
 11.206670730529883   0.721184367650824  11.673616748318732 
  3.747934085963072   0.688889666102836   5.002978606422314 
  2.427223681362110   7.275543580518141   5.002978606422314 
  7.436395679444185   7.167900044996423   5.002978606422314 
  8.748773211437269   0.707576124565865   5.002978606422314 
  2.492539440717659   7.188395838798550  11.673616748318732 
 13.719891242678505   0.741844237327819   5.002978606422314 
 -1.241526431630829   9.344442551467299  11.673616748318732 
  0.004212066417038   2.876926835350164  11.673616748318732 
  4.982217438183924   2.876147052700610  11.673616748318732 
  3.738282282260761   9.344671142211944  11.673616748318732 
  8.716682127575067   9.343728749715034  11.673616748318732 
  9.960897034631259   2.876959054095502  11.673616748318732 
 -3.747697758022813   9.334245681244262   5.002978606422314 
  1.224206358921265   9.390975119116538   5.002978606422314 
  2.534797468806577   2.874462661636354   5.002978606422314 
  6.215320652422522   9.368007758249012   5.002978606422314 
  7.535922954602737   2.814171906821100   5.002978606422314 