 B N 
 1.0
 14.936314146199660   0.000000000000000   0.000000000000000
 -7.468157073099825  12.935227489513863   0.000000000000000
  0.000000000000001   0.000000000000001  13.341276283792837
 B N 
 143 144
Cartesian
  1.243011524568316   0.713719152449015   5.002978606422314 
  4.979234463403571   7.179283950522655   5.002978606422314 
  6.225145548531515   0.713719152449015   5.002978606422314 
  9.958491851493772   7.187208924568539   5.002978606422314 
 11.202235609649751   0.718623749417456   5.002978606422314 
 -3.734078536549858   9.342108742426666  11.673616748318732 
  1.244816733646004   9.341546354352920  11.673616748318732 
  2.489869359375306   2.875090551450472  11.673616748318732 
  6.223340339453820   9.341546354352920  11.673616748318732 
  7.467442190075626   2.874907735576237  11.673616748318732 
 12.447210384409738   2.874754740011829  11.673616748318732 
 -1.246008672596282   9.342444960994362   5.002978606422314 
  0.001787860665204   2.875527219505970   5.002978606422314 
  4.972517895949430   2.877570729293753   5.002978606422314 
  3.734078536550038   9.340044298754123   5.002978606422314 
  8.714165745696150   9.342444960994362   5.002978606422314 
  9.957586159319378   2.874650930944626   5.002978606422314 
 -4.978689196073121  11.498143731332926  11.673616748318732 
 -0.000172305888289  11.497880509827930  11.673616748318732 
  1.245450444391121   5.030487338102830  11.673616748318732 
  6.222706628708805   5.030487338102830  11.673616748318732 
  4.978855360911573  11.497605961621069  11.673616748318732 
 11.202235609649783   5.030565207624006  11.673616748318732 
 -1.249781011560736   5.031362477753039   5.002978606422314 
 -2.489752430752211  11.496672341717103   5.002978606422314 
  2.489228951262893  11.497939605375207   5.002978606422314 
  7.468722169768257  11.497653731965311   5.002978606422314 
  8.717938084660673   5.031362477753039   5.002978606422314 
  0.000443015540558   7.185981719032790  11.673616748318732 
  1.245117943810656   0.719012233721608  11.673616748318732 
  4.978497451534120   7.185520848212866  11.673616748318732 
  6.223039129289191   0.719012233721608  11.673616748318732 
  9.957359867570357   7.186226799005579  11.673616748318732 
 -2.490334778393936   7.187208924568539   5.002978606422314 
 11.202235609649751   0.718623749417457  11.673616748318732 
  3.734078536549901   0.717747848084151   5.002978606422314 
  2.488922609696369   7.179283950522655   5.002978606422314 
  7.468915625905709   7.186675444841033   5.002978606422314 
  8.712736574032297   0.718508201446321   5.002978606422314 
  2.489659621565673   7.185520848212866  11.673616748318732 
 13.691734645267205   0.718508201446321   5.002978606422314 
 -1.244592134947427   9.341955696941605  11.673616748318732 
  0.000714883024328   2.874907735576237  11.673616748318732 
  4.978287713724542   2.875090551450472  11.673616748318732 
  3.734078536549980   9.341283266613670  11.673616748318732 
  8.712749208047146   9.341955696941605  11.673616748318732 
  9.957260834889725   2.874754740011829  11.673616748318732 
 -3.734078536549858   9.342108742426664   5.002978606422314 
  1.241286000420813   9.346017107564075   5.002978606422314 
  2.495639177150537   2.877570729293753   5.002978606422314 
  6.226871072679023   9.346017107564075   5.002978606422314 
  7.466369212434866   2.875527219505970   5.002978606422314 
 12.446885059980113   2.874650930944626   5.002978606422314 
 -1.244143859093205   5.030540149691629  11.673616748318732 
 -2.489467877026697  11.498143731332926  11.673616748318732 
  2.489301712188344  11.497605961621069  11.673616748318732 
  3.734078536549918   5.030366245922021  11.673616748318732 
  7.468329378988189  11.497880509827930  11.673616748318732 
 -4.978404642347488  11.496672341717103   5.002978606422314 
  8.712300932193145   5.030540149691629  11.673616748318732 
 -0.000565096668357  11.497653731965311   5.002978606422314 
  1.250483250296982   5.034244057949643   5.002978606422314 
 -0.000758552805858   7.186675444841033   5.002978606422314 
  6.217673822803077   5.034244057949643   5.002978606422314 
  4.978928121837066  11.497939605375207   5.002978606422314 
 11.202235609649776   5.031018763349224   5.002978606422314 
 -2.489202794470639   7.186226799005579  11.673616748318732 
  3.734078536549908   0.719135299700654  11.673616748318732 
  7.467714057559293   7.185981719032790  11.673616748318732 
  8.712484010528110   0.718738036133259  11.673616748318732 
 13.691987208771351   0.718738036133259  11.673616748318732 
  0.000522478725602   1.438209799238224   1.669447915794570 
  3.734078536549903   7.902761248802897   1.678622549840758 
  4.978402758500578   1.439995031033168   1.674839440324996 
  8.711333609441052   7.903985802081207   1.669401588081664 
  9.957338849128313   1.437365229217799   1.667633530486136 
 -4.979209017136412  10.060985160569532   8.338010314326267 
  0.001023866807343  10.060309614648048   8.337575837403721 
  1.246511494351602   3.594168744481713   8.327334663003830 
  4.978199244834051  10.059798861793142   8.336509297050059 
  6.221645578748126   3.594168744481713   8.327334663003830 
 11.202235609649760   3.592898084643013   8.338312632882163 
 -2.488948055963424  10.060985160569532   1.667946898518347 
 -1.243598229558483   3.593090076734851   1.669447915794570 
  3.734078536549812   3.596581957620121   1.690957641443146 
  2.489957828265833  10.059798861793142   1.669447915794570 
  7.467133206292391  10.060309614648048   1.668381375440920 
  8.711755302658347   3.593090076734851   1.669447915794570 
 -6.223609938592374  12.217701873359742   8.337575837403721 
 -1.244547134507460  12.217701873359742   8.337575837403721 
  0.002563744464357   5.747935466612861   8.331117772519658 
  4.975772153766392   5.747258390073049   8.314999571401469 
  3.734078536549891  12.216368279330672   8.338323682358478 
  9.956664608334899   5.748314739272214   8.337575837403721 
 -2.488507535235065   5.748314739272213   1.668381375440920 
 -3.734078536549858  12.218354623117575   1.669401588081664 
  1.244883944799023  12.216714071318442   1.667644579962492 
  2.492384919333338   5.747258390073048   1.690957641443146 
  6.223273128300937  12.216714071318442   1.667644579962492 
  7.465593328635480   5.747935466612860   1.674839440324996 
 -1.243176536341199   7.903985802081208   8.336555624763058 
  0.000522478725602   1.438209799238224   8.336509297050059 
  3.734078536549903   7.902761248802898   8.327334663003830 
  4.978402758500579   1.439995031033169   8.331117772519658 
  8.711333609441052   7.903985802081208   8.336555624763058 
 -3.734078536549927   7.904355906141070   1.667946898518347 
  9.957338849128313   1.437365229217799   8.338323682358478 
  2.489754314599148   1.439995031033168   1.674839440324996 
  1.246887966415019   7.903168240120215   1.674839440324996 
  6.221269106684713   7.903168240120215   1.674839440324996 
  7.467634594374214   1.438209799238224   1.669447915794570 
  1.246887966415020   7.903168240120216   8.331117772519658 
 12.447132370171031   1.437365229217799   1.667633530486136 
 -2.488948055963424  10.060985160569532   8.338010314326267 
 -1.243598229558483   3.593090076734852   8.336509297050059 
  3.734078536549812   3.596581957620121   8.314999571401469 
  2.489957828265834  10.059798861793142   8.336509297050059 
  7.467133206292392  10.060309614648048   8.337575837403721 
  8.711755302658347   3.593090076734852   8.336509297050059 
 -4.979209017136413  10.060985160569532   1.667946898518347 
  0.001023866807342  10.060309614648048   1.668381375440920 
  1.246511494351602   3.594168744481712   1.678622549840758 
  4.978199244834050  10.059798861793142   1.669447915794570 
  6.221645578748126   3.594168744481712   1.678622549840758 
 11.202235609649760   3.592898084643013   1.667644579962492 
 -2.488507535235065   5.748314739272214   8.337575837403721 
 -3.734078536549857  12.218354623117575   8.336555624763058 
  1.244883944799023  12.216714071318442   8.338312632882163 
  2.492384919333339   5.747258390073049   8.314999571401469 
  6.223273128300938  12.216714071318442   8.338312632882163 
 -6.223609938592375  12.217701873359742   1.668381375440920 
  7.465593328635481   5.747935466612861   8.331117772519658 
 -1.244547134507460  12.217701873359742   1.668381375440920 
  0.002563744464356   5.747935466612860   1.674839440324996 
 -1.243176536341200   7.903985802081207   1.669401588081664 
  4.975772153766391   5.747258390073048   1.690957641443146 
  3.734078536549890  12.216368279330672   1.667633530486136 
  9.956664608334899   5.748314739272213   1.668381375440920 
 -3.734078536549927   7.904355906141070   8.338010314326267 
  2.489754314599149   1.439995031033169   8.331117772519658 
  6.221269106684714   7.903168240120216   8.331117772519658 
  7.467634594374215   1.438209799238224   8.336509297050059 
 12.447132370171031   1.437365229217799   8.338323682358478 
  1.244455724001593   0.718730440659271   1.666580355737094 
  4.978600523716593   7.186450953313599   1.673868845273429 
  6.223701349098357   0.718730440659271   1.666580355737094 
  9.957447463603760   7.186065310453372   1.665948335901186 
 11.202235609649751   0.718623749417456   1.665436342458745 
 -3.734078536549858   9.342108742426664   8.340103697352827 
  1.244903803600038   9.342260750061635   8.339376857107547 
  2.489115400821059   2.874536235771684   8.332088367571185 
  6.223253269499888   9.342260750061635   8.339376857107547 
  7.468476725535772   2.874310446249844   8.338633401401376 
 12.446780674175884   2.874314425339070   8.340576304157420 
 -1.244496079775429   9.342112301607788   1.665948335901186 
 -0.000319652435803   2.874310446249843   1.667323811443239 
  4.979041672278758   2.874536235771683   1.673868845273429 
  3.734078536550002   9.342477845266441   1.667323811443239 
  8.712653152875284   9.342112301607788   1.665948335901186 
  9.957690545123608   2.874314425339069   1.665380908687208 
 -4.978872847278342  11.498148615218845   8.340008876943442 
  0.000196046197908  11.498093178004043   8.340544015329263 
  1.244593413654437   5.030111548680872   8.332088367571185 
  6.223563659445488   5.030111548680872   8.332088367571185 
  4.978688892336260  11.498198258936231   8.340576304157420 
 11.202235609649783   5.030139871271777   8.340544015329263 
 -1.244719008948278   5.030107547045168   1.666580355737094 
 -2.489284225821373  11.498148615218845   1.665948335901186 
  2.489468180763697  11.498198258936231   1.665380908687208 
  3.734078536549917   5.030366245922020   1.670119441787192 
  7.467961026902005  11.498093178004043   1.665413197515378 
  8.712876082048336   5.030107547045168   1.666580355737094 
  0.000219581578725   7.186110718690809   8.337271893953673 
  1.244455724001594   0.718730440659271   8.339376857107547 
  4.978600523716594   7.186450953313599   8.332088367571185 
  6.223701349098357   0.718730440659271   8.339376857107547 
  9.957447463603760   7.186065310453372   8.340008876943442 
 -2.489290390503922   7.186065310453372   1.665948335901186 
 11.202235609649751   0.718623749417456   8.340520870385870 
  3.734078536549863   0.718877300384717   1.668685318890955 
  2.489556549383241   7.186450953313599   1.673868845273429 
  7.467937491520994   7.186110718690808   1.668685318890955 
  8.713080189337335   0.718586053490827   1.665380908687208 
  2.489556549383242   7.186450953313599   8.332088367571185 
 13.691391029962171   0.718586053490827   1.665380908687208 
 -1.244496079775428   9.342112301607788   8.340008876943442 
 -0.000319652435802   2.874310446249844   8.338633401401376 
  4.979041672278759   2.874536235771684   8.332088367571185 
  3.734078536550002   9.342477845266441   8.338633401401376 
  8.712653152875284   9.342112301607788   8.340008876943442 
  9.957690545123608   2.874314425339070   8.340576304157420 
 -3.734078536549859   9.342108742426664   1.665853515491800 
  1.244903803600038   9.342260750061635   1.666580355737094 
  2.489115400821059   2.874536235771683   1.673868845273429 
  6.223253269499887   9.342260750061635   1.666580355737094 
  7.468476725535771   2.874310446249843   1.667323811443239 
 12.446780674175884   2.874314425339069   1.665380908687208 
 -1.244719008948277   5.030107547045169   8.339376857107547 
 -2.489284225821372  11.498148615218845   8.340008876943442 
  2.489468180763697  11.498198258936231   8.340576304157420 
  3.734078536549917   5.030366245922021   8.335837771057436 
  7.467961026902006  11.498093178004043   8.340544015329263 
 -4.978872847278343  11.498148615218845   1.665948335901186 
  8.712876082048336   5.030107547045169   8.339376857107547 
  0.000196046197908  11.498093178004043   1.665413197515378 
  1.244593413654436   5.030111548680871   1.673868845273429 
  0.000219581578724   7.186110718690808   1.668685318890955 
  6.223563659445487   5.030111548680871   1.673868845273429 
  4.978688892336259  11.498198258936231   1.665380908687208 
 11.202235609649783   5.030139871271776   1.665413197515378 
 -2.489290390503922   7.186065310453372   8.340008876943442 
  3.734078536549864   0.718877300384718   8.337271893953673 
  7.467937491520995   7.186110718690809   8.337271893953673 
  8.713080189337335   0.718586053490827   8.340576304157420 
 13.691391029962171   0.718586053490827   8.340576304157420 
 -0.004017301849484   1.433155740215078   5.002978606422314 
  3.734078536549910   7.916471437800048   5.002978606422314 
  4.987336462607423   1.419871114767183   5.002978606422314 
  8.717747084157285   7.907688623435195   5.002978606422314 
  9.958894055299281   1.436467330516363   5.002978606422314 
 -4.978748892857864  10.060719507693452  11.673616748318732 
 -0.000059584179627  10.060732674263386  11.673616748318732 
  1.244714834508654   3.593131442437597  11.673616748318732 
  4.978809919386961  10.060713881736337  11.673616748318732 
  6.223442238591285   3.593131442437597  11.673616748318732 
 11.202235609649701   3.593195200093139  11.673616748318732 
 -2.490782264556986  10.059926179744203   5.002978606422314 
 -1.250245063352289   3.591685540940780   5.002978606422314 
  3.734078536549865   3.515235880378133   5.002978606422314 
  2.487850775047135  10.066257456610373   5.002978606422314 
  7.472486911735871  10.064817539383228   5.002978606422314 
  8.718402136452138   3.591685540940780   5.002978606422314 
 -6.223434593473137  12.216552047473694  11.673616748318732 
 -1.244722479626800  12.216552047473694  11.673616748318732 
 -0.000026842233687   5.749026983256636  11.673616748318732 
  4.978807764024639   5.749011000472683  11.673616748318732 
  3.734078536549868  12.216579889598794  11.673616748318732 
  9.957572714202470   5.749041505543031  11.673616748318732 
 -2.495088365295817   5.750697221823057   5.002978606422314 
 -3.734078536549955  12.210948980409796   5.002978606422314 
  1.244953387711948  12.216754164202939   5.002978606422314 
  2.421937149943638   5.787931428694010   5.002978606422314 
  6.223203685387968  12.216754164202939   5.002978606422314 
  7.487488003398891   5.750260610039432   5.002978606422314 
 -1.244760127934259   7.904900089113739  11.673616748318732 
  0.000035385486343   1.437223429590312  11.673616748318732 
  3.734078536549963   7.904835852890948  11.673616748318732 
  4.978752770707431   1.437205758820083  11.673616748318732 
  8.712917201033900   7.904900089113739  11.673616748318732 
 -3.734078536549851   7.906473867791573   5.002978606422314 
  9.957522108996171   1.437259424083759  11.673616748318732 
  2.480820610492423   1.419871114767183   5.002978606422314 
  1.233926995758536   7.920967012959514   5.002978606422314 
  6.234230077341346   7.920967012959514   5.002978606422314 
  7.472174374949344   1.433155740215078   5.002978606422314 
  1.244647391923844   7.904865995689527  11.673616748318732 
 12.445577164000122   1.436467330516363   5.002978606422314 
 -2.489408180242044  10.060719507693452  11.673616748318732 
 -1.244695997350719   3.593161426439586  11.673616748318732 
  3.734078536549932   3.593076736820674  11.673616748318732 
  2.489347153712863  10.060713881736337  11.673616748318732 
  7.468216657279259  10.060732674263386  11.673616748318732 
  8.712853070450539   3.593161426439586  11.673616748318732 
 -4.977374808542717  10.059926179744203   5.002978606422314 
 -0.004329838636120  10.064817539383228   5.002978606422314 
  1.234638122389440   3.587313649983092   5.002978606422314 
  4.980306298052732  10.066257456610373   5.002978606422314 
  6.233518950710376   3.587313649983092   5.002978606422314 
 11.202235609649737   3.592817898874060   5.002978606422314 
 -2.489415641102753   5.749041505543031  11.673616748318732 
 -3.734078536549962  12.216526049052671  11.673616748318732 
  1.244626635271343  12.216565513593434  11.673616748318732 
  2.489349309075315   5.749011000472683  11.673616748318732 
  6.223530437828513  12.216565513593434  11.673616748318732 
 -6.224837063209648  12.210811466073720   5.002978606422314 
  7.468183915333492   5.749026983256636  11.673616748318732 
 -1.243320009890171  12.210811466073720   5.002978606422314 
 -0.019330930298921   5.750260610039432   5.002978606422314 
 -1.249590011057641   7.907688623435195   5.002978606422314 
  5.046219923156197   5.787931428694010   5.002978606422314 
  3.734078536549936  12.218164076733519   5.002978606422314 
  9.963245438395653   5.750697221823057   5.002978606422314 
 -3.734078536549941   7.904887211893256  11.673616748318732 
  2.489404302392283   1.437205758820083  11.673616748318732 
  6.223509681175875   7.904865995689527  11.673616748318732 
  7.468121687613504   1.437223429590312  11.673616748318732 
 12.446949110303125   1.437259424083759  11.673616748318732 
Generated by cif2cell 2.0.0.  :  Failed to get author information, No journal information. Species order: B N 
 1.0
 14.936314146199660   0.000000000000000   0.000000000000000
 -7.468157073099825  12.935227489513863   0.000000000000000
  0.000000000000001   0.000000000000001  13.341276283792837
 B N 
 143 144
Cartesian
  1.243011524568316   0.713719152449015   5.002978606422314 
  4.979234463403571   7.179283950522655   5.002978606422314 
  6.225145548531515   0.713719152449015   5.002978606422314 
  9.958491851493772   7.187208924568539   5.002978606422314 
 11.202235609649751   0.718623749417456   5.002978606422314 
 -3.734078536549858   9.342108742426666  11.673616748318732 
  1.244816733646004   9.341546354352920  11.673616748318732 
  2.489869359375306   2.875090551450472  11.673616748318732 
  6.223340339453820   9.341546354352920  11.673616748318732 
  7.467442190075626   2.874907735576237  11.673616748318732 
 12.447210384409738   2.874754740011829  11.673616748318732 
 -1.246008672596282   9.342444960994362   5.002978606422314 
  0.001787860665204   2.875527219505970   5.002978606422314 
  4.972517895949430   2.877570729293753   5.002978606422314 
  3.734078536550038   9.340044298754123   5.002978606422314 
  8.714165745696150   9.342444960994362   5.002978606422314 
  9.957586159319378   2.874650930944626   5.002978606422314 
 -4.978689196073121  11.498143731332926  11.673616748318732 
 -0.000172305888289  11.497880509827930  11.673616748318732 
  1.245450444391121   5.030487338102830  11.673616748318732 
  6.222706628708805   5.030487338102830  11.673616748318732 
  4.978855360911573  11.497605961621069  11.673616748318732 
 11.202235609649783   5.030565207624006  11.673616748318732 
 -1.249781011560736   5.031362477753039   5.002978606422314 
 -2.489752430752211  11.496672341717103   5.002978606422314 
  2.489228951262893  11.497939605375207   5.002978606422314 
  7.468722169768257  11.497653731965311   5.002978606422314 
  8.717938084660673   5.031362477753039   5.002978606422314 
  0.000443015540558   7.185981719032790  11.673616748318732 
  1.245117943810656   0.719012233721608  11.673616748318732 
  4.978497451534120   7.185520848212866  11.673616748318732 
  6.223039129289191   0.719012233721608  11.673616748318732 
  9.957359867570357   7.186226799005579  11.673616748318732 
 -2.490334778393936   7.187208924568539   5.002978606422314 
 11.202235609649751   0.718623749417457  11.673616748318732 
  3.734078536549901   0.717747848084151   5.002978606422314 
  2.488922609696369   7.179283950522655   5.002978606422314 
  7.468915625905709   7.186675444841033   5.002978606422314 
  8.712736574032297   0.718508201446321   5.002978606422314 
  2.489659621565673   7.185520848212866  11.673616748318732 
 13.691734645267205   0.718508201446321   5.002978606422314 
 -1.244592134947427   9.341955696941605  11.673616748318732 
  0.000714883024328   2.874907735576237  11.673616748318732 
  4.978287713724542   2.875090551450472  11.673616748318732 
  3.734078536549980   9.341283266613670  11.673616748318732 
  8.712749208047146   9.341955696941605  11.673616748318732 
  9.957260834889725   2.874754740011829  11.673616748318732 
 -3.734078536549858   9.342108742426664   5.002978606422314 
  1.241286000420813   9.346017107564075   5.002978606422314 
  2.495639177150537   2.877570729293753   5.002978606422314 
  6.226871072679023   9.346017107564075   5.002978606422314 
  7.466369212434866   2.875527219505970   5.002978606422314 
 12.446885059980113   2.874650930944626   5.002978606422314 
 -1.244143859093205   5.030540149691629  11.673616748318732 
 -2.489467877026697  11.498143731332926  11.673616748318732 
  2.489301712188344  11.497605961621069  11.673616748318732 
  3.734078536549918   5.030366245922021  11.673616748318732 
  7.468329378988189  11.497880509827930  11.673616748318732 
 -4.978404642347488  11.496672341717103   5.002978606422314 
  8.712300932193145   5.030540149691629  11.673616748318732 
 -0.000565096668357  11.497653731965311   5.002978606422314 
  1.250483250296982   5.034244057949643   5.002978606422314 
 -0.000758552805858   7.186675444841033   5.002978606422314 
  6.217673822803077   5.034244057949643   5.002978606422314 
  4.978928121837066  11.497939605375207   5.002978606422314 
 11.202235609649776   5.031018763349224   5.002978606422314 
 -2.489202794470639   7.186226799005579  11.673616748318732 
  3.734078536549908   0.719135299700654  11.673616748318732 
  7.467714057559293   7.185981719032790  11.673616748318732 
  8.712484010528110   0.718738036133259  11.673616748318732 
 13.691987208771351   0.718738036133259  11.673616748318732 
  0.000522478725602   1.438209799238224   1.669447915794570 
  3.734078536549903   7.902761248802897   1.678622549840758 
  4.978402758500578   1.439995031033168   1.674839440324996 
  8.711333609441052   7.903985802081207   1.669401588081664 
  9.957338849128313   1.437365229217799   1.667633530486136 
 -4.979209017136412  10.060985160569532   8.338010314326267 
  0.001023866807343  10.060309614648048   8.337575837403721 
  1.246511494351602   3.594168744481713   8.327334663003830 
  4.978199244834051  10.059798861793142   8.336509297050059 
  6.221645578748126   3.594168744481713   8.327334663003830 
 11.202235609649760   3.592898084643013   8.338312632882163 
 -2.488948055963424  10.060985160569532   1.667946898518347 
 -1.243598229558483   3.593090076734851   1.669447915794570 
  3.734078536549812   3.596581957620121   1.690957641443146 
  2.489957828265833  10.059798861793142   1.669447915794570 
  7.467133206292391  10.060309614648048   1.668381375440920 
  8.711755302658347   3.593090076734851   1.669447915794570 
 -6.223609938592374  12.217701873359742   8.337575837403721 
 -1.244547134507460  12.217701873359742   8.337575837403721 
  0.002563744464357   5.747935466612861   8.331117772519658 
  4.975772153766392   5.747258390073049   8.314999571401469 
  3.734078536549891  12.216368279330672   8.338323682358478 
  9.956664608334899   5.748314739272214   8.337575837403721 
 -2.488507535235065   5.748314739272213   1.668381375440920 
 -3.734078536549858  12.218354623117575   1.669401588081664 
  1.244883944799023  12.216714071318442   1.667644579962492 
  2.492384919333338   5.747258390073048   1.690957641443146 
  6.223273128300937  12.216714071318442   1.667644579962492 
  7.465593328635480   5.747935466612860   1.674839440324996 
 -1.243176536341199   7.903985802081208   8.336555624763058 
  0.000522478725602   1.438209799238224   8.336509297050059 
  3.734078536549903   7.902761248802898   8.327334663003830 
  4.978402758500579   1.439995031033169   8.331117772519658 
  8.711333609441052   7.903985802081208   8.336555624763058 
 -3.734078536549927   7.904355906141070   1.667946898518347 
  9.957338849128313   1.437365229217799   8.338323682358478 
  2.489754314599148   1.439995031033168   1.674839440324996 
  1.246887966415019   7.903168240120215   1.674839440324996 
  6.221269106684713   7.903168240120215   1.674839440324996 
  7.467634594374214   1.438209799238224   1.669447915794570 
  1.246887966415020   7.903168240120216   8.331117772519658 
 12.447132370171031   1.437365229217799   1.667633530486136 
 -2.488948055963424  10.060985160569532   8.338010314326267 
 -1.243598229558483   3.593090076734852   8.336509297050059 
  3.734078536549812   3.596581957620121   8.314999571401469 
  2.489957828265834  10.059798861793142   8.336509297050059 
  7.467133206292392  10.060309614648048   8.337575837403721 
  8.711755302658347   3.593090076734852   8.336509297050059 
 -4.979209017136413  10.060985160569532   1.667946898518347 
  0.001023866807342  10.060309614648048   1.668381375440920 
  1.246511494351602   3.594168744481712   1.678622549840758 
  4.978199244834050  10.059798861793142   1.669447915794570 
  6.221645578748126   3.594168744481712   1.678622549840758 
 11.202235609649760   3.592898084643013   1.667644579962492 
 -2.488507535235065   5.748314739272214   8.337575837403721 
 -3.734078536549857  12.218354623117575   8.336555624763058 
  1.244883944799023  12.216714071318442   8.338312632882163 
  2.492384919333339   5.747258390073049   8.314999571401469 
  6.223273128300938  12.216714071318442   8.338312632882163 
 -6.223609938592375  12.217701873359742   1.668381375440920 
  7.465593328635481   5.747935466612861   8.331117772519658 
 -1.244547134507460  12.217701873359742   1.668381375440920 
  0.002563744464356   5.747935466612860   1.674839440324996 
 -1.243176536341200   7.903985802081207   1.669401588081664 
  4.975772153766391   5.747258390073048   1.690957641443146 
  3.734078536549890  12.216368279330672   1.667633530486136 
  9.956664608334899   5.748314739272213   1.668381375440920 
 -3.734078536549927   7.904355906141070   8.338010314326267 
  2.489754314599149   1.439995031033169   8.331117772519658 
  6.221269106684714   7.903168240120216   8.331117772519658 
  7.467634594374215   1.438209799238224   8.336509297050059 
 12.447132370171031   1.437365229217799   8.338323682358478 
  1.244455724001593   0.718730440659271   1.666580355737094 
  4.978600523716593   7.186450953313599   1.673868845273429 
  6.223701349098357   0.718730440659271   1.666580355737094 
  9.957447463603760   7.186065310453372   1.665948335901186 
 11.202235609649751   0.718623749417456   1.665436342458745 
 -3.734078536549858   9.342108742426664   8.340103697352827 
  1.244903803600038   9.342260750061635   8.339376857107547 
  2.489115400821059   2.874536235771684   8.332088367571185 
  6.223253269499888   9.342260750061635   8.339376857107547 
  7.468476725535772   2.874310446249844   8.338633401401376 
 12.446780674175884   2.874314425339070   8.340576304157420 
 -1.244496079775429   9.342112301607788   1.665948335901186 
 -0.000319652435803   2.874310446249843   1.667323811443239 
  4.979041672278758   2.874536235771683   1.673868845273429 
  3.734078536550002   9.342477845266441   1.667323811443239 
  8.712653152875284   9.342112301607788   1.665948335901186 
  9.957690545123608   2.874314425339069   1.665380908687208 
 -4.978872847278342  11.498148615218845   8.340008876943442 
  0.000196046197908  11.498093178004043   8.340544015329263 
  1.244593413654437   5.030111548680872   8.332088367571185 
  6.223563659445488   5.030111548680872   8.332088367571185 
  4.978688892336260  11.498198258936231   8.340576304157420 
 11.202235609649783   5.030139871271777   8.340544015329263 
 -1.244719008948278   5.030107547045168   1.666580355737094 
 -2.489284225821373  11.498148615218845   1.665948335901186 
  2.489468180763697  11.498198258936231   1.665380908687208 
  3.734078536549917   5.030366245922020   1.670119441787192 
  7.467961026902005  11.498093178004043   1.665413197515378 
  8.712876082048336   5.030107547045168   1.666580355737094 
  0.000219581578725   7.186110718690809   8.337271893953673 
  1.244455724001594   0.718730440659271   8.339376857107547 
  4.978600523716594   7.186450953313599   8.332088367571185 
  6.223701349098357   0.718730440659271   8.339376857107547 
  9.957447463603760   7.186065310453372   8.340008876943442 
 -2.489290390503922   7.186065310453372   1.665948335901186 
 11.202235609649751   0.718623749417456   8.340520870385870 
  3.734078536549863   0.718877300384717   1.668685318890955 
  2.489556549383241   7.186450953313599   1.673868845273429 
  7.467937491520994   7.186110718690808   1.668685318890955 
  8.713080189337335   0.718586053490827   1.665380908687208 
  2.489556549383242   7.186450953313599   8.332088367571185 
 13.691391029962171   0.718586053490827   1.665380908687208 
 -1.244496079775428   9.342112301607788   8.340008876943442 
 -0.000319652435802   2.874310446249844   8.338633401401376 
  4.979041672278759   2.874536235771684   8.332088367571185 
  3.734078536550002   9.342477845266441   8.338633401401376 
  8.712653152875284   9.342112301607788   8.340008876943442 
  9.957690545123608   2.874314425339070   8.340576304157420 
 -3.734078536549859   9.342108742426664   1.665853515491800 
  1.244903803600038   9.342260750061635   1.666580355737094 
  2.489115400821059   2.874536235771683   1.673868845273429 
  6.223253269499887   9.342260750061635   1.666580355737094 
  7.468476725535771   2.874310446249843   1.667323811443239 