 N B 
 1.0
 14.936314146199660   0.000000000000000   0.000000000000000
 -7.468157073099825  12.935227489513863   0.000000000000000
  0.000000000000001   0.000000000000001  13.341276283792837
 N B 
 144 143
Cartesian
  1.244469219739091   0.718718653439960   1.666745334002178 
  4.978638111396715   7.186441296160913   1.675260275242615 
  6.223687853360963   0.718718653439960   1.666745334002178 
  9.957454083953646   7.186075285970591   1.665836858501944 
 11.202235609649751   0.718623749417456   1.665277906667711 
 -3.734078536549858   9.342108742426664   8.340272815791646 
  1.244886847699994   9.342254956019840   8.339211878842450 
  2.489142558000682   2.874508512462159   8.330696937602012 
  6.223270225399949   9.342254956019840   8.339211878842450 
  7.468429697783747   2.874337597735117   8.338181135013187 
 12.446807125949496   2.874338532510301   8.340690178070853 
 -1.244508029001716   9.342113047240362   1.665836858501944 
 -0.000272624683808   2.874337597735116   1.667776077831440 
  4.979014515099151   2.874508512462158   1.675260275242615 
  3.734078536549965   9.342423542295906   1.667776077831440 
  8.712665102101555   9.342113047240362   1.665836858501944 
  9.957664093349996   2.874338532510300   1.665267034773775 
 -4.978867518401958  11.498137894069050   8.340120354342684 
  0.000177959447504  11.498082735613870   8.340764352237194 
  1.244582983153930   5.030148929143070   8.330696937602012 
  6.223574089945996   5.030148929143070   8.330696937602012 
  4.978696543872154  11.498163297442691   8.340690178070853 
 11.202235609649739   5.030160756052172   8.340764352237194 
 -1.244722469110839   5.030125128306249   1.666745334002178 
 -2.489289554697773  11.498137894069050   1.665836858501944 
  2.489460529227791  11.498163297442691   1.665267034773775 
  3.734078536549917   5.030366245922020   1.670866504734954 
  7.467979113652321  11.498082735613870   1.665192860607433 
  8.712879542210986   5.030125128306249   1.666745334002178 
  0.000194147477634   7.186125403075911   8.336832955572321 
  1.244469219739091   0.718718653439961   8.339211878842450 
  4.978638111396716   7.186441296160914   8.330696937602012 
  6.223687853360964   0.718718653439961   8.339211878842450 
  9.957454083953646   7.186075285970592   8.340120354342684 
 -2.489297010853811   7.186075285970591   1.665836858501944 
 11.202235609649751   0.718623749417456   8.340679306176822 
  3.734078536549855   0.718847931614499   1.669124257272319 
  2.489518961703120   7.186441296160913   1.675260275242615 
  7.467962925622098   7.186125403075910   1.669124257272319 
  8.713046086027806   0.718596907813149   1.665267034773775 
  2.489518961703121   7.186441296160914   8.330696937602012 
 13.691425133271668   0.718596907813149   1.665267034773775 
 -1.244508029001716   9.342113047240362   8.340120354342684 
 -0.000272624683808   2.874337597735117   8.338181135013187 
  4.979014515099152   2.874508512462159   8.330696937602012 
  3.734078536549965   9.342423542295906   8.338181135013187 
  8.712665102101555   9.342113047240362   8.340120354342684 
  9.957664093349996   2.874338532510301   8.340690178070853 
 -3.734078536549859   9.342108742426664   1.665684397052982 
  1.244886847699994   9.342254956019840   1.666745334002178 
  2.489142558000681   2.874508512462158   1.675260275242615 
  6.223270225399948   9.342254956019840   1.666745334002178 
  7.468429697783746   2.874337597735116   1.667776077831440 
 12.446807125949496   2.874338532510300   1.665267034773775 
 -1.244722469110839   5.030125128306250   8.339211878842450 
 -2.489289554697773  11.498137894069050   8.340120354342684 
  2.489460529227791  11.498163297442691   8.340690178070853 
  3.734078536549917   5.030366245922021   8.335090708109659 
  7.467979113652322  11.498082735613870   8.340764352237194 
 -4.978867518401959  11.498137894069050   1.665836858501944 
  8.712879542210986   5.030125128306250   8.339211878842450 
  0.000177959447504  11.498082735613870   1.665192860607433 
  1.244582983153930   5.030148929143069   1.675260275242615 
  0.000194147477633   7.186125403075910   1.669124257272319 
  6.223574089945995   5.030148929143069   1.675260275242615 
  4.978696543872153  11.498163297442691   1.665267034773775 
 11.202235609649739   5.030160756052172   1.665192860607433 
 -2.489297010853810   7.186075285970592   8.340120354342684 
  3.734078536549856   0.718847931614500   8.336832955572321 
  7.467962925622099   7.186125403075911   8.336832955572321 
  8.713046086027806   0.718596907813150   8.340690178070853 
 13.691425133271668   0.718596907813150   8.340690178070853 
 -0.004064173670347   1.433376533613581   5.002978606422314 
  3.734078536549911   7.915093745128245   5.002978606422314 
  4.987877222579564   1.420127300184640   5.002978606422314 
  8.717625744619625   7.907618568020541   5.002978606422314 
  9.958878631882722   1.436476235230047   5.002978606422314 
 -4.978749011700425  10.060719576307228  11.673616748318732 
 -0.000059237096430  10.060724278204951  11.673616748318732 
  1.244719839972568   3.593134332343597  11.673616748318732 
  4.978808181222512  10.060708236209774  11.673616748318732 
  6.223437233127265   3.593134332343597  11.673616748318732 
 11.202235609649701   3.593196526654554  11.673616748318732 
 -2.490834761240232  10.059895870770067   5.002978606422314 
 -1.250077286570628   3.591534552053940   5.002978606422314 
  3.734078536549872   3.526734503529124   5.002978606422314 
  2.488065423649749  10.066187652098710   5.002978606422314 
  7.472560356680475  10.065074196575711   5.002978606422314 
  8.718234359670475   3.591534552053940   5.002978606422314 
 -6.223427495814825  12.216556546085778  11.673616748318732 
 -1.244729577285099  12.216556546085778  11.673616748318732 
 -0.000025373710164   5.749028962677778  11.673616748318732 
  4.978794483386078   5.749003332892382  11.673616748318732 
  3.734078536549868  12.216575562040541  11.673616748318732 
  9.957565269460964   5.749045402989369  11.673616748318732 
 -2.495347359416972   5.750632498414635   5.002978606422314 
 -3.734078536550015  12.211089091239206   5.002978606422314 
  1.245017549939116  12.216791208282050   5.002978606422314 
  2.431895249700951   5.782182117118508   5.002978606422314 
  6.223139523160832  12.216791208282050   5.002978606422314 
  7.487536520305339   5.749664205457467   5.002978606422314 
 -1.244746872471900   7.904892436068987  11.673616748318732 
  0.000039405573578   1.437227757648097  11.673616748318732 
  3.734078536549911   7.904830073079041  11.673616748318732 
  4.978750322216675   1.437206040888163  11.673616748318732 
  8.712903945571526   7.904892436068987  11.673616748318732 
 -3.734078536549912   7.906534485739948   5.002978606422314 
  9.957518361220789   1.437261587862885  11.673616748318732 
  2.480279850520267   1.420127300184640   5.002978606422314 
  1.234419238824188   7.921307232124034   5.002978606422314 
  6.233737834275631   7.921307232124034   5.002978606422314 
  7.472221246770298   1.433376533613581   5.002978606422314 
  1.244646411956589   7.904863734200292  11.673616748318732 
 12.445592587416648   1.436476235230047   5.002978606422314 
 -2.489408061399498  10.060719576307228  11.673616748318732 
 -1.244690239099118   3.593162743908377  11.673616748318732 
  3.734078536549969   3.593092071981211  11.673616748318732 
  2.489348891877223  10.060708236209774  11.673616748318732 
  7.468216310196044  10.060724278204951  11.673616748318732 
  8.712847312198846   3.593162743908377  11.673616748318732 
 -4.977322311859588  10.059895870770067   5.002978606422314 
 -0.004403283580757  10.065074196575711   5.002978606422314 
  1.235831239241829   3.588002496318994   5.002978606422314 
  4.980091649450209  10.066187652098710   5.002978606422314 
  6.232325833857988   3.588002496318994   5.002978606422314 
 11.202235609649755   3.592743810715814   5.002978606422314 
 -2.489408196361235   5.749045402989369  11.673616748318732 
 -3.734078536549969  12.216541355142216  11.673616748318732 
  1.244625486435458  12.216564850312727  11.673616748318732 
  2.489362589713967   5.749003332892382  11.673616748318732 
  6.223531586664400  12.216564850312727  11.673616748318732 
 -6.225022612386184  12.210619532289657   5.002978606422314 
  7.468182446810015   5.749028962677778  11.673616748318732 
 -1.243134460713741  12.210619532289657   5.002978606422314 
 -0.019379447205401   5.749664205457467   5.002978606422314 
 -1.249468671520116   7.907618568020541   5.002978606422314 
  5.036261823398885   5.782182117118508   5.002978606422314 
  3.734078536549914  12.218146267306135   5.002978606422314 
  9.963504432516702   5.750632498414635   5.002978606422314 
 -3.734078536549971   7.904887074665729  11.673616748318732 
  2.489406750883052   1.437206040888163  11.673616748318732 
  6.223510661143146   7.904863734200292  11.673616748318732 
  7.468117667526255   1.437227757648097  11.673616748318732 
 12.446952858078493   1.437261587862885  11.673616748318732 
  1.242901137285883   0.713552433129802   5.002978606422314 
  4.980526526427825   7.177640219440550   5.002978606422314 
  6.225255935813947   0.713552433129802   5.002978606422314 
  9.958458967928220   7.187183466943570   5.002978606422314 
 11.202235609649751   0.718623749417456   5.002978606422314 
 -3.734078536549858   9.342108742426666  11.673616748318732 
  1.244826316154579   9.341551682517842  11.673616748318732 
  2.489873101395675   2.875100162664357  11.673616748318732 
  6.223330756945260   9.341551682517842  11.673616748318732 
  7.467443903708917   2.874906746209594  11.673616748318732 
 12.447209766914877   2.874747274584518  11.673616748318732 
 -1.245970183863593   9.342429211803710   5.002978606422314 
  0.002160829894838   2.875742553391047   5.002978606422314 
  4.970448351563194   2.877273635432510   5.002978606422314 
  3.734078536550077   9.339613630983878   5.002978606422314 
  8.714127256963430   9.342429211803710   5.002978606422314 
  9.957515445257622   2.874577262959280   5.002978606422314 
 -4.978690917453021  11.498154864582178  11.673616748318732 
 -0.000163217407296  11.497885757064843  11.673616748318732 
  1.245460638956683   5.030485773180602  11.673616748318732 
  6.222696434143258   5.030485773180602  11.673616748318732 
  4.978849204409323  11.497610229100971  11.673616748318732 
 11.202235609649790   5.030554713150141  11.673616748318732 
 -1.249980588367692   5.031350239221804   5.002978606422314 
 -2.489746825585076  11.496713548532725   5.002978606422314 
  2.489328106640625  11.497915199193981   5.002978606422314 
  7.468634274812056  11.497704478141943   5.002978606422314 
  8.718137661467646   5.031350239221804   5.002978606422314 
  0.000453678379203   7.185975562840028  11.673616748318732 
  1.245108538230161   0.719017868335005  11.673616748318732 
  4.978490998988913   7.185512801921287  11.673616748318732 
  6.223048534869656   0.719017868335005  11.673616748318732 
  9.957351086583628   7.186219741622232  11.673616748318732 
 -2.490301894828369   7.187183466943570   5.002978606422314 
 11.202235609649751   0.718623749417457  11.673616748318732 
  3.734078536549976   0.718031039940128   5.002978606422314 
  2.487630546672098   7.177640219440550   5.002978606422314 
  7.468670374564298   7.186533848913007   5.002978606422314 
  8.712765015348266   0.718606275612880   5.002978606422314 
  2.489666074110822   7.185512801921287  11.673616748318732 
 13.691706203951329   0.718606275612880   5.002978606422314 
 -1.244581632580799   9.341951621075703  11.673616748318732 
  0.000713169391021   2.874906746209594  11.673616748318732 
  4.978283971704159   2.875100162664357  11.673616748318732 
  3.734078536549979   9.341285245346956  11.673616748318732 
  8.712738705680518   9.341951621075703  11.673616748318732 
  9.957261452384614   2.874747274584518  11.673616748318732 
 -3.734078536549858   9.342108742426664   5.002978606422314 
  1.241196810896282   9.346196065414535   5.002978606422314 
  2.497708721536743   2.877273635432510   5.002978606422314 
  6.226960262203557   9.346196065414535   5.002978606422314 
  7.465996243205309   2.875742553391047   5.002978606422314 
 12.446955774041870   2.874577262959280   5.002978606422314 
 -1.244143682165118   5.030529186913297  11.673616748318732 
 -2.489466155646798  11.498154864582178  11.673616748318732 
  2.489307868690623  11.497610229100971  11.673616748318732 
  3.734078536549918   5.030366245922021  11.673616748318732 
  7.468320290507243  11.497885757064843  11.673616748318732 
 -4.978410247514641  11.496713548532725   5.002978606422314 
  8.712300755265058   5.030529186913297  11.673616748318732 
 -0.000477201712216  11.497704478141943   5.002978606422314 
  1.251260731658932   5.036184882892991   5.002978606422314 
 -0.000513301464341   7.186533848913007   5.002978606422314 
  6.216896341441110   5.036184882892991   5.002978606422314 
  4.978828966459440  11.497915199193981   5.002978606422314 
 11.202235609649748   5.030917270996039   5.002978606422314 
 -2.489194013483912   7.186219741622232  11.673616748318732 
  3.734078536549961   0.719147612086087  11.673616748318732 
  7.467703394720740   7.185975562840028  11.673616748318732 
  8.712490784525261   0.718741234080667  11.673616748318732 
 13.691980434774226   0.718741234080667  11.673616748318732 
  0.000542051547555   1.438217828854794   1.669654509867450 
  3.734078536549859   7.902757812082017   1.679902635030420 
  4.978400331148695   1.439939189472933   1.675517361700348 
  8.711356976914036   7.903999293298045   1.669516690861869 
  9.957331549621859   1.437369443589823   1.667632457088338 
 -4.979198365489824  10.060979010838498   8.338082499343191 
  0.001011646281824  10.060315258630560   8.337604092383073 
  1.246514470639235   3.594170462842153   8.326054577814102 
  4.978202077393086  10.059777896423759   8.336302702977177 
  6.221642602460494   3.594170462842153   8.326054577814102 
 11.202235609649755   3.592909116520425   8.338323060266758 
 -2.488958707609997  10.060979010838498   1.667874713501438 
 -1.243581489295567   3.593103012487589   1.669654509867450 
  3.734078536549811   3.596687816373978   1.692191432095199 
  2.489954995706855  10.059777896423759   1.669654509867450 
  7.467145426817909  10.060315258630560   1.668353120461555 
  8.711738562395400   3.593103012487589   1.669654509867450 
 -6.223608716161833  12.217688468082939   8.337604092383073 
 -1.244548356937985  12.217688468082939   8.337604092383073 
  0.002516597930555   5.747965489541360   8.330439851144279 
  4.975680477396241   5.747205460696134   8.313765780749428 
  3.734078536549868  12.216359850586688   8.338324755756277 
  9.956675606429892   5.748322500566505   8.337604092383073 
 -2.488518533330042   5.748322500566504   1.668353120461555 
 -3.734078536549850  12.218327640683913   1.669516690861869 
  1.244874390912944  12.216708555379745   1.667634152577869 
  2.492476595703384   5.747205460696133   1.692191432095199 
  6.223282682187017  12.216708555379745   1.667634152577869 
  7.465640475169295   5.747965489541359   1.675517361700348 
 -1.243199903814202   7.903999293298046   8.336440521982851 
  0.000542051547555   1.438217828854794   8.336302702977177 
  3.734078536549859   7.902757812082018   8.326054577814102 
  4.978400331148696   1.439939189472934   8.330439851144279 
  8.711356976914036   7.903999293298046   8.336440521982851 
 -3.734078536549912   7.904368205603086   1.667874713501438 
  9.957331549621859   1.437369443589823   8.338324755756277 
  2.489756741951031   1.439939189472933   1.675517361700348 
  1.246838392529328   7.903194058751939   1.675517361700348 
  6.221318680570403   7.903194058751939   1.675517361700348 
  7.467615021552291   1.438217828854794   1.669654509867450 
  1.246838392529328   7.903194058751940   8.330439851144279 
 12.447139669677421   1.437369443589823   1.667632457088338 
 -2.488958707609997  10.060979010838498   8.338082499343191 
 -1.243581489295567   3.593103012487590   8.336302702977177 
  3.734078536549811   3.596687816373979   8.313765780749428 
  2.489954995706855  10.059777896423759   8.336302702977177 
  7.467145426817910  10.060315258630560   8.337604092383073 
  8.711738562395400   3.593103012487590   8.336302702977177 
 -4.979198365489824  10.060979010838498   1.667874713501438 
  0.001011646281824  10.060315258630560   1.668353120461555 
  1.246514470639235   3.594170462842152   1.679902635030420 
  4.978202077393085  10.059777896423759   1.669654509867450 
  6.221642602460493   3.594170462842152   1.679902635030420 
 11.202235609649755   3.592909116520424   1.667634152577869 
 -2.488518533330041   5.748322500566505   8.337604092383073 
 -3.734078536549850  12.218327640683913   8.336440521982851 
  1.244874390912944  12.216708555379745   8.338323060266758 
  2.492476595703384   5.747205460696134   8.313765780749428 
  6.223282682187018  12.216708555379745   8.338323060266758 
 -6.223608716161834  12.217688468082939   1.668353120461555 
  7.465640475169296   5.747965489541360   8.330439851144279 
 -1.244548356937986  12.217688468082939   1.668353120461555 
  0.002516597930555   5.747965489541359   1.675517361700348 
 -1.243199903814203   7.903999293298045   1.669516690861869 
  4.975680477396240   5.747205460696133   1.692191432095199 
  3.734078536549868  12.216359850586688   1.667632457088338 
  9.956675606429892   5.748322500566504   1.668353120461555 
 -3.734078536549912   7.904368205603086   8.338082499343191 
  2.489756741951032   1.439939189472934   8.330439851144279 
  6.221318680570404   7.903194058751940   8.330439851144279 
  7.467615021552292   1.438217828854794   8.336302702977177 
 12.447139669677421   1.437369443589823   8.338324755756277 
Generated by cif2cell 2.0.0.  :  Failed to get author information, No journal information. Species order: N B 
 1.0
 14.936314146199660   0.000000000000000   0.000000000000000
 -7.468157073099825  12.935227489513863   0.000000000000000
  0.000000000000001   0.000000000000001  13.341276283792837
 N B 
 144 143
Cartesian
  1.244469219739091   0.718718653439960   1.666745334002178 
  4.978638111396715   7.186441296160913   1.675260275242615 
  6.223687853360963   0.718718653439960   1.666745334002178 
  9.957454083953646   7.186075285970591   1.665836858501944 
 11.202235609649751   0.718623749417456   1.665277906667711 
 -3.734078536549858   9.342108742426664   8.340272815791646 
  1.244886847699994   9.342254956019840   8.339211878842450 
  2.489142558000682   2.874508512462159   8.330696937602012 
  6.223270225399949   9.342254956019840   8.339211878842450 
  7.468429697783747   2.874337597735117   8.338181135013187 
 12.446807125949496   2.874338532510301   8.340690178070853 
 -1.244508029001716   9.342113047240362   1.665836858501944 
 -0.000272624683808   2.874337597735116   1.667776077831440 
  4.979014515099151   2.874508512462158   1.675260275242615 
  3.734078536549965   9.342423542295906   1.667776077831440 
  8.712665102101555   9.342113047240362   1.665836858501944 
  9.957664093349996   2.874338532510300   1.665267034773775 
 -4.978867518401958  11.498137894069050   8.340120354342684 
  0.000177959447504  11.498082735613870   8.340764352237194 
  1.244582983153930   5.030148929143070   8.330696937602012 
  6.223574089945996   5.030148929143070   8.330696937602012 
  4.978696543872154  11.498163297442691   8.340690178070853 
 11.202235609649739   5.030160756052172   8.340764352237194 
 -1.244722469110839   5.030125128306249   1.666745334002178 
 -2.489289554697773  11.498137894069050   1.665836858501944 
  2.489460529227791  11.498163297442691   1.665267034773775 
  3.734078536549917   5.030366245922020   1.670866504734954 
  7.467979113652321  11.498082735613870   1.665192860607433 
  8.712879542210986   5.030125128306249   1.666745334002178 
  0.000194147477634   7.186125403075911   8.336832955572321 
  1.244469219739091   0.718718653439961   8.339211878842450 
  4.978638111396716   7.186441296160914   8.330696937602012 
  6.223687853360964   0.718718653439961   8.339211878842450 
  9.957454083953646   7.186075285970592   8.340120354342684 
 -2.489297010853811   7.186075285970591   1.665836858501944 
 11.202235609649751   0.718623749417456   8.340679306176822 
  3.734078536549855   0.718847931614499   1.669124257272319 
  2.489518961703120   7.186441296160913   1.675260275242615 
  7.467962925622098   7.186125403075910   1.669124257272319 
  8.713046086027806   0.718596907813149   1.665267034773775 
  2.489518961703121   7.186441296160914   8.330696937602012 
 13.691425133271668   0.718596907813149   1.665267034773775 
 -1.244508029001716   9.342113047240362   8.340120354342684 
 -0.000272624683808   2.874337597735117   8.338181135013187 
  4.979014515099152   2.874508512462159   8.330696937602012 
  3.734078536549965   9.342423542295906   8.338181135013187 
  8.712665102101555   9.342113047240362   8.340120354342684 
  9.957664093349996   2.874338532510301   8.340690178070853 
 -3.734078536549859   9.342108742426664   1.665684397052982 
  1.244886847699994   9.342254956019840   1.666745334002178 
  2.489142558000681   2.874508512462158   1.675260275242615 
  6.223270225399948   9.342254956019840   1.666745334002178 
  7.468429697783746   2.874337597735116   1.667776077831440 
 12.446807125949496   2.874338532510300   1.665267034773775 
 -1.244722469110839   5.030125128306250   8.339211878842450 
 -2.489289554697773  11.498137894069050   8.340120354342684 
  2.489460529227791  11.498163297442691   8.340690178070853 
  3.734078536549917   5.030366245922021   8.335090708109659 
  7.467979113652322  11.498082735613870   8.340764352237194 
 -4.978867518401959  11.498137894069050   1.665836858501944 
  8.712879542210986   5.030125128306250   8.339211878842450 
  0.000177959447504  11.498082735613870   1.665192860607433 
  1.244582983153930   5.030148929143069   1.675260275242615 
  0.000194147477633   7.186125403075910   1.669124257272319 
  6.223574089945995   5.030148929143069   1.675260275242615 
  4.978696543872153  11.498163297442691   1.665267034773775 
 11.202235609649739   5.030160756052172   1.665192860607433 
 -2.489297010853810   7.186075285970592   8.340120354342684 
  3.734078536549856   0.718847931614500   8.336832955572321 
  7.467962925622099   7.186125403075911   8.336832955572321 
  8.713046086027806   0.718596907813150   8.340690178070853 
 13.691425133271668   0.718596907813150   8.340690178070853 
 -0.004064173670347   1.433376533613581   5.002978606422314 
  3.734078536549911   7.915093745128245   5.002978606422314 
  4.987877222579564   1.420127300184640   5.002978606422314 
  8.717625744619625   7.907618568020541   5.002978606422314 
  9.958878631882722   1.436476235230047   5.002978606422314 
 -4.978749011700425  10.060719576307228  11.673616748318732 
 -0.000059237096430  10.060724278204951  11.673616748318732 
  1.244719839972568   3.593134332343597  11.673616748318732 
  4.978808181222512  10.060708236209774  11.673616748318732 
  6.223437233127265   3.593134332343597  11.673616748318732 
 11.202235609649701   3.593196526654554  11.673616748318732 
 -2.490834761240232  10.059895870770067   5.002978606422314 
 -1.250077286570628   3.591534552053940   5.002978606422314 
  3.734078536549872   3.526734503529124   5.002978606422314 
  2.488065423649749  10.066187652098710   5.002978606422314 
  7.472560356680475  10.065074196575711   5.002978606422314 
  8.718234359670475   3.591534552053940   5.002978606422314 
 -6.223427495814825  12.216556546085778  11.673616748318732 
 -1.244729577285099  12.216556546085778  11.673616748318732 
 -0.000025373710164   5.749028962677778  11.673616748318732 
  4.978794483386078   5.749003332892382  11.673616748318732 
  3.734078536549868  12.216575562040541  11.673616748318732 
  9.957565269460964   5.749045402989369  11.673616748318732 
 -2.495347359416972   5.750632498414635   5.002978606422314 
 -3.734078536550015  12.211089091239206   5.002978606422314 
  1.245017549939116  12.216791208282050   5.002978606422314 
  2.431895249700951   5.782182117118508   5.002978606422314 
  6.223139523160832  12.216791208282050   5.002978606422314 
  7.487536520305339   5.749664205457467   5.002978606422314 
 -1.244746872471900   7.904892436068987  11.673616748318732 
  0.000039405573578   1.437227757648097  11.673616748318732 
  3.734078536549911   7.904830073079041  11.673616748318732 
  4.978750322216675   1.437206040888163  11.673616748318732 
  8.712903945571526   7.904892436068987  11.673616748318732 
 -3.734078536549912   7.906534485739948   5.002978606422314 
  9.957518361220789   1.437261587862885  11.673616748318732 
  2.480279850520267   1.420127300184640   5.002978606422314 
  1.234419238824188   7.921307232124034   5.002978606422314 
  6.233737834275631   7.921307232124034   5.002978606422314 
  7.472221246770298   1.433376533613581   5.002978606422314 
  1.244646411956589   7.904863734200292  11.673616748318732 
 12.445592587416648   1.436476235230047   5.002978606422314 
 -2.489408061399498  10.060719576307228  11.673616748318732 
 -1.244690239099118   3.593162743908377  11.673616748318732 
  3.734078536549969   3.593092071981211  11.673616748318732 
  2.489348891877223  10.060708236209774  11.673616748318732 
  7.468216310196044  10.060724278204951  11.673616748318732 
  8.712847312198846   3.593162743908377  11.673616748318732 
 -4.977322311859588  10.059895870770067   5.002978606422314 
 -0.004403283580757  10.065074196575711   5.002978606422314 
  1.235831239241829   3.588002496318994   5.002978606422314 
  4.980091649450209  10.066187652098710   5.002978606422314 
  6.232325833857988   3.588002496318994   5.002978606422314 
 11.202235609649755   3.592743810715814   5.002978606422314 
 -2.489408196361235   5.749045402989369  11.673616748318732 
 -3.734078536549969  12.216541355142216  11.673616748318732 
  1.244625486435458  12.216564850312727  11.673616748318732 
  2.489362589713967   5.749003332892382  11.673616748318732 
  6.223531586664400  12.216564850312727  11.673616748318732 
 -6.225022612386184  12.210619532289657   5.002978606422314 
  7.468182446810015   5.749028962677778  11.673616748318732 
 -1.243134460713741  12.210619532289657   5.002978606422314 
 -0.019379447205401   5.749664205457467   5.002978606422314 
 -1.249468671520116   7.907618568020541   5.002978606422314 
  5.036261823398885   5.782182117118508   5.002978606422314 
  3.734078536549914  12.218146267306135   5.002978606422314 
  9.963504432516702   5.750632498414635   5.002978606422314 
 -3.734078536549971   7.904887074665729  11.673616748318732 
  2.489406750883052   1.437206040888163  11.673616748318732 
  6.223510661143146   7.904863734200292  11.673616748318732 
  7.468117667526255   1.437227757648097  11.673616748318732 
 12.446952858078493   1.437261587862885  11.673616748318732 
  1.242901137285883   0.713552433129802   5.002978606422314 
  4.980526526427825   7.177640219440550   5.002978606422314 
  6.225255935813947   0.713552433129802   5.002978606422314 
  9.958458967928220   7.187183466943570   5.002978606422314 
 11.202235609649751   0.718623749417456   5.002978606422314 
 -3.734078536549858   9.342108742426666  11.673616748318732 
  1.244826316154579   9.341551682517842  11.673616748318732 
  2.489873101395675   2.875100162664357  11.673616748318732 
  6.223330756945260   9.341551682517842  11.673616748318732 
  7.467443903708917   2.874906746209594  11.673616748318732 
 12.447209766914877   2.874747274584518  11.673616748318732 
 -1.245970183863593   9.342429211803710   5.002978606422314 
  0.002160829894838   2.875742553391047   5.002978606422314 
  4.970448351563194   2.877273635432510   5.002978606422314 
  3.734078536550077   9.339613630983878   5.002978606422314 
  8.714127256963430   9.342429211803710   5.002978606422314 
  9.957515445257622   2.874577262959280   5.002978606422314 
 -4.978690917453021  11.498154864582178  11.673616748318732 
 -0.000163217407296  11.497885757064843  11.673616748318732 
  1.245460638956683   5.030485773180602  11.673616748318732 
  6.222696434143258   5.030485773180602  11.673616748318732 
  4.978849204409323  11.497610229100971  11.673616748318732 
 11.202235609649790   5.030554713150141  11.673616748318732 
 -1.249980588367692   5.031350239221804   5.002978606422314 
 -2.489746825585076  11.496713548532725   5.002978606422314 
  2.489328106640625  11.497915199193981   5.002978606422314 
  7.468634274812056  11.497704478141943   5.002978606422314 
  8.718137661467646   5.031350239221804   5.002978606422314 
  0.000453678379203   7.185975562840028  11.673616748318732 
  1.245108538230161   0.719017868335005  11.673616748318732 
  4.978490998988913   7.185512801921287  11.673616748318732 
  6.223048534869656   0.719017868335005  11.673616748318732 
  9.957351086583628   7.186219741622232  11.673616748318732 
 -2.490301894828369   7.187183466943570   5.002978606422314 
 11.202235609649751   0.718623749417457  11.673616748318732 
  3.734078536549976   0.718031039940128   5.002978606422314 
  2.487630546672098   7.177640219440550   5.002978606422314 
  7.468670374564298   7.186533848913007   5.002978606422314 
  8.712765015348266   0.718606275612880   5.002978606422314 
  2.489666074110822   7.185512801921287  11.673616748318732 
 13.691706203951329   0.718606275612880   5.002978606422314 
 -1.244581632580799   9.341951621075703  11.673616748318732 
  0.000713169391021   2.874906746209594  11.673616748318732 
  4.978283971704159   2.875100162664357  11.673616748318732 
  3.734078536549979   9.341285245346956  11.673616748318732 
  8.712738705680518   9.341951621075703  11.673616748318732 
  9.957261452384614   2.874747274584518  11.673616748318732 
 -3.734078536549858   9.342108742426664   5.002978606422314 
  1.241196810896282   9.346196065414535   5.002978606422314 
  2.497708721536743   2.877273635432510   5.002978606422314 
  6.226960262203557   9.346196065414535   5.002978606422314 
  7.465996243205309   2.875742553391047   5.002978606422314 