 N S B 
 1.0
 17.527899999999772   0.000000000000000   0.000000000000000
 -8.763949999999658  15.179606674993195   0.000000000000000
  0.000000000000001   0.000000000000002  15.000000000000000
 N S B 
  49   1  48
Cartesian
  8.768696565493636  13.737246649310306   1.665010458695205 
 16.274483073186563   0.723674787145137   1.664597741030325 
 15.015022167584366   2.886290134857026   1.664460923935260 
 13.763104163337736   5.054675725122495   1.664460923935260 
 12.519954786406284   7.226708538303335   1.664597741030325 
 11.273180359169221   9.399353471931192   1.665010458695205 
 10.021893457067828  11.568851427088955   1.664745162640830 
 -6.258174952618273  13.732910963901423   1.664657517037425 
  1.251505992730524   0.717090647107216   1.665010458695205 
 -0.018475861325151   2.868599610963535   1.664791615603095 
 -1.279919729290756   5.043746541603753   1.664671125172485 
 -2.532930294206066   7.223762442030217   1.664791615603095 
 -3.761200786356506   9.399353471931192   1.665010458695205 
 -5.007975213584719  11.567501496285882   1.664657517037425 
 -3.757775474550994  13.732910963901423   1.664657517037425 
  3.755989786406228   0.715987914170926   1.664745162640830 
  2.499657196593949   2.877391124566231   1.665453521525205 
  1.199989543532593   5.002981003137026   1.665819439328460 
 -0.075269084790187   7.211793740182751   1.665819439328460 
 -1.266250091137613   9.400133883511430   1.665453521525205 
 -2.509913884255047  11.568851427088955   1.664745162640830 
 -1.256716992680807  13.737246649310306   1.665010458695205 
  6.260473580081809   0.717090647107216   1.665010458695205 
  5.012322376218572   2.877391124566231   1.665453521525205 
  3.755989786406293   5.046266252620319   1.665694474301775 
  2.279596382101663   7.098834126700894   1.666687375828140 
  1.240217162299541   9.403712257864242   1.665694474301775 
 -0.009917501325391  11.576165760271174   1.665453521525205 
  1.241535353516583  13.761328715339767   1.664791615603095 
  8.765426499608004   0.723674787145137   1.664597741030325 
  7.530455434137654   2.868599610963535   1.664791615603095 
  6.311990029279974   5.002981003137026   1.665819439328460 
  5.232383190711108   7.098834126700894   1.666687375828140 
  3.755989786397642   9.656022514931486   1.666687375828140 
  2.480731158074842  11.638916025013742   1.665819439328460 
  3.755989786397449  13.766197685125995   1.664671125172485 
 11.268036782141779   0.733092252613980   1.664460923935260 
 10.024887405210267   2.886290134857026   1.664460923935260 
  8.791899302103200   5.043746541603753   1.664671125172485 
  7.587248657602837   7.211793740182751   1.665819439328460 
  6.271762410495507   9.403712257864242   1.665694474301775 
  5.031248414720362  11.638916025013742   1.665819439328460 
  6.270444219296123  13.761328715339767   1.664791615603095 
 13.771872790652651   0.733092252613980   1.664460923935260 
 12.519954786406029   2.891352704197829   1.665839209900815 
 11.276805409474509   5.054675725122495   1.664460923935260 
 10.044909867036280   7.223762442030217   1.664791615603095 
  8.778229663950331   9.400133883511430   1.665453521525205 
  7.521897074137929  11.576165760271174   1.665453521525205 
  3.755980213596274   7.951242049921758   1.665983160412665 
  7.521792887809564  14.467202820830023   1.665018734302140 
 15.022255578283144   1.446654935345093   1.664981512898070 
 13.766502642745747   3.611064765283253   1.665505019372235 
 12.519945213587359   5.780783623304548   1.664981512898070 
 11.281874108372214   7.954551106229690   1.665018734302140 
 10.025878942859340  10.125907602117360   1.665617973312975 
  8.774245191164143  12.293800852521562   1.665617973312975 
 -7.507116082340143  14.453993728279308   1.665153545197245 
 -0.004101006975231   1.431972222690351   1.665018734302140 
 -1.267112241484194   3.600169026740115   1.664894640836220 
 -2.523705785731546   5.776652889839654   1.664894640836220 
 -3.769913681197107   7.954551106229690   1.665018734302140 
 -5.007984786403515  10.125371348931468   1.665153545197245 
 -6.255942447056350  12.290610910514832   1.664806323545280 
 -5.007984786403458  14.452136984460616   1.664806323545280 
  2.504346461892289   1.434017695111144   1.665617973312975 
  1.228909105029080   3.572537165251059   1.665591771600030 
 -0.039651388285583   5.759833122820467   1.665742286030190 
 -1.299625006487084   7.952086715068237   1.665591771600030 
 -2.513918515684167  10.125907602117360   1.665617973312975 
 -3.760027125750510  12.290610910514832   1.664806323545280 
 -2.508853490449214  14.453993728279308   1.665153545197245 
  5.007613965300185   1.434017695111144   1.665617973312975 
  3.755980213604990   3.597724727331316   1.665879314894430 
  2.444000166471533   5.699510003814420   1.666376493501555 
  1.149933035598321   7.940900022891784   1.666376493501555 
 -0.014276383569425  10.128000711209376   1.665879314894430 
 -1.262284763971468  12.293800852521562   1.665617973312975 
 -0.009832460616803  14.467202820830023   1.665018734302140 
  7.516061434167724   1.431972222690351   1.665018734302140 
  6.283051322163354   3.572537165251059   1.665591771600030 
  5.067960260738650   5.699510003814420   1.666376493501555 
  2.461913082731843  10.213316123043860   1.666376493501555 
  1.227446102088829  12.329102269430875   1.665591771600030 
  2.499386669348985  14.476904233155087   1.664894640836220 
 10.017634848891566   1.446654935345093   1.664981512898070 
  8.779072668676733   3.600169026740115   1.664894640836220 
  7.551611815478205   5.759833122820467   1.665742286030190 
  6.362027391594369   7.940900022891784   1.666376493501555 
  5.050047344460773  10.213316123043860   1.666376493501555 
  3.755980213596401  12.334059904094026   1.665742286030190 
  5.012573757843896  14.476904233155087   1.664894640836220 
 12.519945213587365   1.451963963428317   1.665505019372235 
 11.273387784428923   3.611064765283253   1.665505019372235 
 10.035666212924291   5.776652889839654   1.664894640836220 
  8.811585433662209   7.952086715068237   1.665591771600030 
  7.526236810762284  10.128000711209376   1.665879314894430 
  6.284514325103849  12.329102269430875   1.665591771600030 
