 Si B N 
 1.0
 14.936314146199660   0.000000000000000   0.000000000000000
 -7.468157073099825  12.935227489513863   0.000000000000000
  0.000000000000001   0.000000000000001  13.341276283792837
 Si B N 
   1 143 144
Cartesian
  3.734078536549917   5.030366245922021   5.002978606422314 
  1.225551209354200   0.689052320255080   5.002978606422314 
  5.032955184807626   7.255587235843757   5.002978606422314 
  6.242605863745585   0.689052320255080   5.002978606422314 
  9.967331620354592   7.189025819411901   5.002978606422314 
 11.202235609649751   0.718623749417456   5.002978606422314 
 -3.734078536549858   9.342108742426666  11.673616748318732 
  1.244700002270896   9.342148203072554  11.673616748318732 
  2.489395881305940   2.874494057973316  11.673616748318732 
  6.223457070829047   9.342148203072554  11.673616748318732 
  7.468159256760955   2.874493736932469  11.673616748318732 
 12.446910802530459   2.874489015201500  11.673616748318732 
 -1.252002034117176   9.349191977969669   5.002978606422314 
 -0.009850586600051   2.868807758844460   5.002978606422314 
  5.011738118727585   2.792895577187663   5.002978606422314 
  3.734078536549978   9.353483220077168   5.002978606422314 
  8.720159107216954   9.349191977969669   5.002978606422314 
  9.961502899351967   2.870025632889442   5.002978606422314 
 -4.978788910133303  11.497982460519818  11.673616748318732 
  0.000025338074218  11.497994619622895  11.673616748318732 
  1.244697126851999   5.030375540805255  11.673616748318732 
  6.223459946247985   5.030375540805255  11.673616748318732 
  4.978775027415042  11.497998269544214  11.673616748318732 
 11.202235609649755   5.030336988034100  11.673616748318732 
 -1.279873272478658   5.028574817316549   5.002978606422314 
 -2.486906023412315  11.488108429898357   5.002978606422314 
  2.491276206862501  11.503644250771028   5.002978606422314 
  7.465256922903444  11.499654393175520   5.002978606422314 
  8.748030345578508   5.028574817316549   5.002978606422314 
 -0.000003951031386   7.186239775303411  11.673616748318732 
  1.244655093217734   0.718610217025541  11.673616748318732 
  4.978777291004017   7.186229138987559  11.673616748318732 
  6.223501979882069   0.718610217025541  11.673616748318732 
  9.957549389221615   7.186221079502682  11.673616748318732 
 -2.499174547254638   7.189025819411901   5.002978606422314 
 11.202235609649751   0.718623749417457  11.673616748318732 
  3.734078536549930   0.684858412320043   5.002978606422314 
  2.435201888292210   7.255587235843757   5.002978606422314 
  7.497398712793475   7.203120162723165   5.002978606422314 
  8.718700569664472   0.717428854105698   5.002978606422314 
  2.489379782095925   7.186229138987559  11.673616748318732 
 13.685770649635034   0.717428854105698   5.002978606422314 
 -1.244681942538236   9.342122687257380  11.673616748318732 
 -0.000002183660972   2.874493736932469  11.673616748318732 
  4.978761191793834   2.874494057973316  11.673616748318732 
  3.734078536550069   9.342111263901154  11.673616748318732 
  8.712839015638103   9.342122687257380  11.673616748318732 
  9.957560416769001   2.874489015201500  11.673616748318732 
 -3.734078536549858   9.342108742426664   5.002978606422314 
  1.228654054716961   9.373471600194602   5.002978606422314 
  2.456418954372204   2.792895577187663   5.002978606422314 
  6.239503018382742   9.373471600194602   5.002978606422314 
  7.478007659700017   2.868807758844460   5.002978606422314 
 12.442968319947525   2.870025632889442   5.002978606422314 
 -1.244723441061220   5.030340317668061  11.673616748318732 
 -2.489368162966382  11.497982460519818  11.673616748318732 
  2.489382045684812  11.497998269544214  11.673616748318732 
  3.734078536549918   5.030366245922021  11.673616748318732 
  7.468131735025653  11.497994619622895  11.673616748318732 
 -4.981251049687416  11.488108429898357   5.002978606422314 
  8.712880514161265   5.030340317668061  11.673616748318732 
  0.002900150196380  11.499654393175520   5.002978606422314 
  1.157542306114540   5.042615924734722   5.002978606422314 
 -0.029241639693727   7.203120162723165   5.002978606422314 
  6.310614766985339   5.042615924734722   5.002978606422314 
  4.976880866237503  11.503644250771028   5.002978606422314 
 11.202235609649739   5.027017440928874   5.002978606422314 
 -2.489392316121645   7.186221079502682  11.673616748318732 
  3.734078536549931   0.718619187159345  11.673616748318732 
  7.468161024131255   7.186239775303411  11.673616748318732 
  8.712863925903877   0.718611453020430  11.673616748318732 
 13.691607293395565   0.718611453020430  11.673616748318732 
 -0.000253634654452   1.437225301325580   1.667905108655511 
  3.734078536549919   7.905058083254508   1.665471545234702 
  4.978801218505504   1.437172261094813   1.667616531486326 
  8.712863855455897   7.904869290029796   1.668130433624381 
  9.957579143458533   1.437226495221569   1.667558855055852 
 -4.978792071001076  10.060744436606015   8.338060399123338 
  0.000007481676631  10.060805534148360   8.338011236293923 
  1.244522377368318   3.593020327255869   8.340485667609965 
  4.978663788346145  10.060963244652873   8.338052104189197 
  6.223634695731547   3.593020327255869   8.340485667609965 
 11.202235609649611   3.593017489676513   8.338355149356879 
 -2.489365002098700  10.060744436606015   1.667896813721291 
 -1.244838886450840   3.592910191787843   1.667905108655511 
  3.734078536549857   3.592692139993628   1.652831141764982 
  2.489493284753606  10.060963244652873   1.667905108655511 
  7.468149591423103  10.060805534148360   1.667945976550638 
  8.712995959550524   3.592910191787843   1.667905108655511 
 -6.223531224912504  12.216573698266359   8.338011236293923 
 -1.244625848187313  12.216573698266359   8.338011236293923 
 -0.000080076013761   5.749001775095381   8.338340681358247 
  4.979140834647068   5.749203298886269   8.353126071079618 
  3.734078536549920  12.216645747323106   8.338398357788749 
  9.957602279785757   5.748946994865284   8.338011236293923 
 -2.489445206685908   5.748946994865284   1.667945976550638 
 -3.734078536549896  12.216587647220384   1.668130433624381 
  1.244780537006575  12.216654368801809   1.667602063487750 
  2.489016238452768   5.749203298886268   1.652831141764982 
  6.223376536093070  12.216654368801809   1.667602063487750 
  7.468237149113564   5.749001775095381   1.667616531486326 
 -1.244706782356075   7.904869290029797   8.337826779220354 
 -0.000253634654451   1.437225301325581   8.338052104189197 
  3.734078536549919   7.905058083254509   8.340485667609965 
  4.978801218505505   1.437172261094813   8.338340681358247 
  8.712863855455897   7.904869290029797   8.337826779220354 
 -3.734078536549919   7.904837354067960   1.667896813721291 
  9.957579143458533   1.437226495221570   8.338398357788749 
  2.489355854594223   1.437172261094813   1.667616531486326 
  1.244642605941812   7.904924701576077   1.667616531486326 
  6.223514467157857   7.904924701576077   1.667616531486326 
  7.468410707754373   1.437225301325580   1.667905108655511 
  1.244642605941813   7.904924701576078   8.338340681358247 
 12.446892075840838   1.437226495221569   1.667558855055852 
 -2.489365002098699  10.060744436606015   8.338060399123338 
 -1.244838886450839   3.592910191787844   8.338052104189197 
  3.734078536549857   3.592692139993629   8.353126071079618 
  2.489493284753606  10.060963244652873   8.338052104189197 
  7.468149591423104  10.060805534148360   8.338011236293923 
  8.712995959550524   3.592910191787844   8.338052104189197 
 -4.978792071001076  10.060744436606015   1.667896813721291 
  0.000007481676630  10.060805534148360   1.667945976550638 
  1.244522377368318   3.593020327255868   1.665471545234702 
  4.978663788346144  10.060963244652873   1.667905108655511 
  6.223634695731546   3.593020327255868   1.665471545234702 
 11.202235609649611   3.593017489676512   1.667602063487750 
 -2.489445206685908   5.748946994865284   8.338011236293923 
 -3.734078536549895  12.216587647220384   8.337826779220354 
  1.244780537006575  12.216654368801809   8.338355149356879 
  2.489016238452769   5.749203298886269   8.353126071079618 
  6.223376536093071  12.216654368801809   8.338355149356879 
 -6.223531224912505  12.216573698266359   1.667945976550638 
  7.468237149113565   5.749001775095381   8.338340681358247 
 -1.244625848187313  12.216573698266359   1.667945976550638 
 -0.000080076013761   5.749001775095381   1.667616531486326 
 -1.244706782356075   7.904869290029796   1.668130433624381 
  4.979140834647067   5.749203298886268   1.652831141764982 
  3.734078536549919  12.216645747323106   1.667558855055852 
  9.957602279785757   5.748946994865284   1.667945976550638 
 -3.734078536549919   7.904837354067961   8.338060399123338 
  2.489355854594223   1.437172261094813   8.338340681358247 
  6.223514467157858   7.904924701576078   8.338340681358247 
  7.468410707754374   1.437225301325581   8.338052104189197 
 12.446892075840838   1.437226495221570   8.338398357788749 
  1.244631037205003   0.718633380024933   1.668620937790865 
  4.978682086438335   7.186308720963765   1.663999259618657 
  6.223526035894887   0.718633380024933   1.668620937790865 
  9.957523813248894   7.186208307928585   1.668188377050148 
 11.202235609649751   0.718623749417456   1.667289134646365 
 -3.734078536549858   9.342108742426664   8.337917909029626 
  1.244732090023231   9.342157454691032   8.337336275053856 
  2.489279359010141   2.874536716557623   8.341957953225943 
  6.223424983076505   9.342157454691032   8.337336275053856 
  7.468351072325373   2.874382992164691   8.337855970937486 
 12.446815724355570   2.874464542054796   8.338456383705390 
 -1.244658094044240   9.342106923602412   1.668188377050148 
 -0.000193999225405   2.874382992164690   1.668101241907114 
  4.978877714089691   2.874536716557623   1.663999259618657 
  3.734078536550008   9.342332753436734   1.668101241907114 
  8.712815167144079   9.342106923602412   1.668188377050148 
  9.957655494944101   2.874464542054795   1.667500829139185 
 -4.978787182654697  11.498010995748981   8.337768835794492 
  0.000010952570590  11.497986314148511   8.338287161724445 
  1.244675809121830   5.030253300244779   8.341957953225943 
  6.223481263978185   5.030253300244779   8.341957953225943 
  4.978801372135941  11.498092846232364   8.338456383705390 
 11.202235609649769   5.030353598982866   8.338287161724445 
 -1.244715409321639   5.030307903050147   1.668620937790865 
 -2.489369890445063  11.498010995748981   1.668188377050148 
  2.489355700964048  11.498092846232364   1.667500829139185 
  3.734078536549917   5.030366245922020   1.633963857700540 
  7.468146120529278  11.497986314148511   1.667670051120156 
  8.712872482421519   5.030307903050147   1.668620937790865 
  0.000066064939011   7.186199351564098   8.337461798087093 
  1.244631037205003   0.718633380024934   8.337336275053856 
  4.978682086438336   7.186308720963765   8.341957953225943 
  6.223526035894888   0.718633380024934   8.337336275053856 
  9.957523813248894   7.186208307928585   8.337768835794492 
 -2.489366740149058   7.186208307928585   1.668188377050148 
 11.202235609649751   0.718623749417456   8.338668078198289 
  3.734078536549878   0.718700034638190   1.668495414757548 
  2.489474986661531   7.186308720963765   1.663999259618657 
  7.468091008160782   7.186199351564097   1.668495414757548 
  8.712932659358071   0.718541349478865   1.667500829139185 
  2.489474986661531   7.186308720963765   8.341957953225943 
 13.691538559941431   0.718541349478865   1.667500829139185 
 -1.244658094044240   9.342106923602412   8.337768835794492 
 -0.000193999225405   2.874382992164691   8.337855970937486 
  4.978877714089692   2.874536716557623   8.341957953225943 
  3.734078536550009   9.342332753436734   8.337855970937486 
  8.712815167144079   9.342106923602412   8.337768835794492 
  9.957655494944101   2.874464542054796   8.338456383705390 
 -3.734078536549859   9.342108742426664   1.668039303815095 
  1.244732090023231   9.342157454691032   1.668620937790865 
  2.489279359010141   2.874536716557623   1.663999259618657 
  6.223424983076504   9.342157454691032   1.668620937790865 
  7.468351072325373   2.874382992164690   1.668101241907114 
 12.446815724355570   2.874464542054795   1.667500829139185 
 -1.244715409321638   5.030307903050148   8.337336275053856 
 -2.489369890445063  11.498010995748981   8.337768835794492 
  2.489355700964049  11.498092846232364   8.338456383705390 
  3.734078536549917   5.030366245922021   8.371993355144156 
  7.468146120529279  11.497986314148511   8.338287161724445 
 -4.978787182654698  11.498010995748981   1.668188377050148 
  8.712872482421519   5.030307903050148   8.337336275053856 
  0.000010952570589  11.497986314148511   1.667670051120156 
  1.244675809121829   5.030253300244778   1.663999259618657 
  0.000066064939011   7.186199351564097   1.668495414757548 
  6.223481263978184   5.030253300244778   1.663999259618657 
  4.978801372135940  11.498092846232364   1.667500829139185 
 11.202235609649769   5.030353598982865   1.667670051120156 
 -2.489366740149058   7.186208307928585   8.337768835794492 
  3.734078536549879   0.718700034638191   8.337461798087093 
  7.468091008160783   7.186199351564098   8.337461798087093 
  8.712932659358071   0.718541349478865   8.338456383705390 
 13.691538559941431   0.718541349478865   8.338456383705390 
 -0.007323390750506   1.430698644777013   5.002978606422314 
  3.734078536549732   7.914817261639081   5.002978606422314 
  4.998282817293891   1.377813571914605   5.002978606422314 
  8.731588303355455   7.915679855065172   5.002978606422314 
  9.960494698379357   1.435543198803203   5.002978606422314 
 -4.978790829107383  10.060743719598349  11.673616748318732 
  0.000013758411795  10.060739190565146  11.673616748318732 
  1.244686826023896   3.593115271731436  11.673616748318732 
  4.978797412984237  10.060711315910989  11.673616748318732 
  6.223470247075952   3.593115271731436  11.673616748318732 
 11.202235609649694   3.593156242543998  11.673616748318732 
 -2.493070440090613  10.058605100983918   5.002978606422314 
 -1.254026014871694   3.590050931684371   5.002978606422314 
  3.734078536549865   3.395294765368671   5.002978606422314 
  2.487375912428707  10.070349161304796   5.002978606422314 
  7.479597991949916  10.073677717294858   5.002978606422314 
  8.722183087971587   3.590050931684371   5.002978606422314 
 -6.223476908051667  12.216612305870244  11.673616748318732 
 -1.244680165048271  12.216612305870244  11.673616748318732 
 -0.000003738176983   5.748984534862066  11.673616748318732 
  4.978894948904419   5.749061336686553  11.673616748318732 
  3.734078536549958  12.216578054699625  11.673616748318732 
  9.957541686189538   5.748974730844786  11.673616748318732 
 -2.506317044556436   5.752425508980927   5.002978606422314 
 -3.734078536549924  12.194966517149842   5.002978606422314 
  1.246913048963088  12.217885575153893   5.002978606422314 
  2.318065097387213   5.847901986198742   5.002978606422314 
  6.221244024136662  12.217885575153893   5.002978606422314 
  7.529384081273253   5.761809560228405   5.002978606422314 
 -1.244674052909102   7.904850393674820  11.673616748318732 
  0.000031354354906   1.437235543365468  11.673616748318732 
  3.734078536549903   7.904868194303377  11.673616748318732 
  4.978777980067112   1.437246991717403  11.673616748318732 
  8.712831126008716   7.904850393674820  11.673616748318732 
 -3.734078536549919   7.909116025312155   5.002978606422314 
  9.957520519927019   1.437260341533253  11.673616748318732 
  2.469874255805850   1.377813571914605   5.002978606422314 
  1.202977272570647   7.951475605623184   5.002978606422314 
  6.265179800529204   7.951475605623184   5.002978606422314 
  7.475480463850277   1.430698644777013   5.002978606422314 
  1.244695705340257   7.904867211186726  11.673616748318732 
 12.443976520919984   1.435543198803203   5.002978606422314 
 -2.489366243992407  10.060743719598349  11.673616748318732 
 -1.244687522079410   3.593151878489764  11.673616748318732 
  3.734078536549805   3.592976064393127  11.673616748318732 
  2.489359660115680  10.060711315910989  11.673616748318732 
  7.468143314687745  10.060739190565146  11.673616748318732 
  8.712844595179259   3.593151878489764  11.673616748318732 
 -4.975086633009163  10.058605100983918   5.002978606422314 
 -0.011440918850136  10.073677717294858   5.002978606422314 
  1.236070680967277   3.588140738063576   5.002978606422314 
  4.980781160671206  10.070349161304796   5.002978606422314 
  6.232086392132466   3.588140738063576   5.002978606422314 
 11.202235609649650   3.590555076972282   5.002978606422314 
 -2.489384613089808   5.748974730844786  11.673616748318732 
 -3.734078536549954  12.216625439930572  11.673616748318732 
  1.244660373498631  12.216584992367999  11.673616748318732 
  2.489262124195417   5.749061336686553  11.673616748318732 
  6.223496699601286  12.216584992367999  11.673616748318732 
 -6.228954662256237  12.200223001004193   5.002978606422314 
  7.468160811276818   5.748984534862066  11.673616748318732 
 -1.239202410843642  12.200223001004193   5.002978606422314 
 -0.061227008173345   5.761809560228405   5.002978606422314 
 -1.263431230255782   7.915679855065172   5.002978606422314 
  5.150091975712622   5.847901986198742   5.002978606422314 
  3.734078536549914  12.220012340159876   5.002978606422314 
  9.974474117656211   5.752425508980927   5.002978606422314 
 -3.734078536549903   7.904838788083243  11.673616748318732 
  2.489379093032587   1.437246991717403  11.673616748318732 
  6.223461367759534   7.904867211186726  11.673616748318732 
  7.468125718745018   1.437235543365468  11.673616748318732 
 12.446950699372456   1.437260341533253  11.673616748318732 
Generated by cif2cell 2.0.0.  :  Failed to get author information, No journal information. Species order: Si B N 
 1.0
 14.936314146199660   0.000000000000000   0.000000000000000
 -7.468157073099825  12.935227489513863   0.000000000000000
  0.000000000000001   0.000000000000001  13.341276283792837
 Si B N 
   1 143 144
Cartesian
  3.734078536549917   5.030366245922021   5.002978606422314 
  1.225551209354200   0.689052320255080   5.002978606422314 
  5.032955184807626   7.255587235843757   5.002978606422314 
  6.242605863745585   0.689052320255080   5.002978606422314 
  9.967331620354592   7.189025819411901   5.002978606422314 
 11.202235609649751   0.718623749417456   5.002978606422314 
 -3.734078536549858   9.342108742426666  11.673616748318732 
  1.244700002270896   9.342148203072554  11.673616748318732 
  2.489395881305940   2.874494057973316  11.673616748318732 
  6.223457070829047   9.342148203072554  11.673616748318732 
  7.468159256760955   2.874493736932469  11.673616748318732 
 12.446910802530459   2.874489015201500  11.673616748318732 
 -1.252002034117176   9.349191977969669   5.002978606422314 
 -0.009850586600051   2.868807758844460   5.002978606422314 
  5.011738118727585   2.792895577187663   5.002978606422314 
  3.734078536549978   9.353483220077168   5.002978606422314 
  8.720159107216954   9.349191977969669   5.002978606422314 
  9.961502899351967   2.870025632889442   5.002978606422314 
 -4.978788910133303  11.497982460519818  11.673616748318732 
  0.000025338074218  11.497994619622895  11.673616748318732 
  1.244697126851999   5.030375540805255  11.673616748318732 
  6.223459946247985   5.030375540805255  11.673616748318732 
  4.978775027415042  11.497998269544214  11.673616748318732 
 11.202235609649755   5.030336988034100  11.673616748318732 
 -1.279873272478658   5.028574817316549   5.002978606422314 
 -2.486906023412315  11.488108429898357   5.002978606422314 
  2.491276206862501  11.503644250771028   5.002978606422314 
  7.465256922903444  11.499654393175520   5.002978606422314 
  8.748030345578508   5.028574817316549   5.002978606422314 
 -0.000003951031386   7.186239775303411  11.673616748318732 
  1.244655093217734   0.718610217025541  11.673616748318732 
  4.978777291004017   7.186229138987559  11.673616748318732 
  6.223501979882069   0.718610217025541  11.673616748318732 
  9.957549389221615   7.186221079502682  11.673616748318732 
 -2.499174547254638   7.189025819411901   5.002978606422314 
 11.202235609649751   0.718623749417457  11.673616748318732 
  3.734078536549930   0.684858412320043   5.002978606422314 
  2.435201888292210   7.255587235843757   5.002978606422314 
  7.497398712793475   7.203120162723165   5.002978606422314 
  8.718700569664472   0.717428854105698   5.002978606422314 
  2.489379782095925   7.186229138987559  11.673616748318732 
 13.685770649635034   0.717428854105698   5.002978606422314 
 -1.244681942538236   9.342122687257380  11.673616748318732 
 -0.000002183660972   2.874493736932469  11.673616748318732 
  4.978761191793834   2.874494057973316  11.673616748318732 
  3.734078536550069   9.342111263901154  11.673616748318732 
  8.712839015638103   9.342122687257380  11.673616748318732 
  9.957560416769001   2.874489015201500  11.673616748318732 
 -3.734078536549858   9.342108742426664   5.002978606422314 
  1.228654054716961   9.373471600194602   5.002978606422314 
  2.456418954372204   2.792895577187663   5.002978606422314 
  6.239503018382742   9.373471600194602   5.002978606422314 
  7.478007659700017   2.868807758844460   5.002978606422314 
 12.442968319947525   2.870025632889442   5.002978606422314 
 -1.244723441061220   5.030340317668061  11.673616748318732 
 -2.489368162966382  11.497982460519818  11.673616748318732 
  2.489382045684812  11.497998269544214  11.673616748318732 
  3.734078536549918   5.030366245922021  11.673616748318732 
  7.468131735025653  11.497994619622895  11.673616748318732 
 -4.981251049687416  11.488108429898357   5.002978606422314 
  8.712880514161265   5.030340317668061  11.673616748318732 
  0.002900150196380  11.499654393175520   5.002978606422314 
  1.157542306114540   5.042615924734722   5.002978606422314 
 -0.029241639693727   7.203120162723165   5.002978606422314 
  6.310614766985339   5.042615924734722   5.002978606422314 
  4.976880866237503  11.503644250771028   5.002978606422314 
 11.202235609649739   5.027017440928874   5.002978606422314 
 -2.489392316121645   7.186221079502682  11.673616748318732 
  3.734078536549931   0.718619187159345  11.673616748318732 
  7.468161024131255   7.186239775303411  11.673616748318732 
  8.712863925903877   0.718611453020430  11.673616748318732 
 13.691607293395565   0.718611453020430  11.673616748318732 
 -0.000253634654452   1.437225301325580   1.667905108655511 
  3.734078536549919   7.905058083254508   1.665471545234702 
  4.978801218505504   1.437172261094813   1.667616531486326 
  8.712863855455897   7.904869290029796   1.668130433624381 
  9.957579143458533   1.437226495221569   1.667558855055852 
 -4.978792071001076  10.060744436606015   8.338060399123338 
  0.000007481676631  10.060805534148360   8.338011236293923 
  1.244522377368318   3.593020327255869   8.340485667609965 
  4.978663788346145  10.060963244652873   8.338052104189197 
  6.223634695731547   3.593020327255869   8.340485667609965 
 11.202235609649611   3.593017489676513   8.338355149356879 
 -2.489365002098700  10.060744436606015   1.667896813721291 
 -1.244838886450840   3.592910191787843   1.667905108655511 
  3.734078536549857   3.592692139993628   1.652831141764982 
  2.489493284753606  10.060963244652873   1.667905108655511 
  7.468149591423103  10.060805534148360   1.667945976550638 
  8.712995959550524   3.592910191787843   1.667905108655511 
 -6.223531224912504  12.216573698266359   8.338011236293923 
 -1.244625848187313  12.216573698266359   8.338011236293923 
 -0.000080076013761   5.749001775095381   8.338340681358247 
  4.979140834647068   5.749203298886269   8.353126071079618 
  3.734078536549920  12.216645747323106   8.338398357788749 
  9.957602279785757   5.748946994865284   8.338011236293923 
 -2.489445206685908   5.748946994865284   1.667945976550638 
 -3.734078536549896  12.216587647220384   1.668130433624381 
  1.244780537006575  12.216654368801809   1.667602063487750 
  2.489016238452768   5.749203298886268   1.652831141764982 
  6.223376536093070  12.216654368801809   1.667602063487750 
  7.468237149113564   5.749001775095381   1.667616531486326 
 -1.244706782356075   7.904869290029797   8.337826779220354 
 -0.000253634654451   1.437225301325581   8.338052104189197 
  3.734078536549919   7.905058083254509   8.340485667609965 
  4.978801218505505   1.437172261094813   8.338340681358247 
  8.712863855455897   7.904869290029797   8.337826779220354 
 -3.734078536549919   7.904837354067960   1.667896813721291 
  9.957579143458533   1.437226495221570   8.338398357788749 
  2.489355854594223   1.437172261094813   1.667616531486326 
  1.244642605941812   7.904924701576077   1.667616531486326 
  6.223514467157857   7.904924701576077   1.667616531486326 
  7.468410707754373   1.437225301325580   1.667905108655511 
  1.244642605941813   7.904924701576078   8.338340681358247 
 12.446892075840838   1.437226495221569   1.667558855055852 
 -2.489365002098699  10.060744436606015   8.338060399123338 
 -1.244838886450839   3.592910191787844   8.338052104189197 
  3.734078536549857   3.592692139993629   8.353126071079618 
  2.489493284753606  10.060963244652873   8.338052104189197 
  7.468149591423104  10.060805534148360   8.338011236293923 
  8.712995959550524   3.592910191787844   8.338052104189197 
 -4.978792071001076  10.060744436606015   1.667896813721291 
  0.000007481676630  10.060805534148360   1.667945976550638 
  1.244522377368318   3.593020327255868   1.665471545234702 
  4.978663788346144  10.060963244652873   1.667905108655511 
  6.223634695731546   3.593020327255868   1.665471545234702 
 11.202235609649611   3.593017489676512   1.667602063487750 
 -2.489445206685908   5.748946994865284   8.338011236293923 
 -3.734078536549895  12.216587647220384   8.337826779220354 
  1.244780537006575  12.216654368801809   8.338355149356879 
  2.489016238452769   5.749203298886269   8.353126071079618 
  6.223376536093071  12.216654368801809   8.338355149356879 
 -6.223531224912505  12.216573698266359   1.667945976550638 
  7.468237149113565   5.749001775095381   8.338340681358247 
 -1.244625848187313  12.216573698266359   1.667945976550638 
 -0.000080076013761   5.749001775095381   1.667616531486326 
 -1.244706782356075   7.904869290029796   1.668130433624381 
  4.979140834647067   5.749203298886268   1.652831141764982 
  3.734078536549919  12.216645747323106   1.667558855055852 
  9.957602279785757   5.748946994865284   1.667945976550638 
 -3.734078536549919   7.904837354067961   8.338060399123338 
  2.489355854594223   1.437172261094813   8.338340681358247 
  6.223514467157858   7.904924701576078   8.338340681358247 
  7.468410707754374   1.437225301325581   8.338052104189197 
 12.446892075840838   1.437226495221570   8.338398357788749 
  1.244631037205003   0.718633380024933   1.668620937790865 
  4.978682086438335   7.186308720963765   1.663999259618657 
  6.223526035894887   0.718633380024933   1.668620937790865 
  9.957523813248894   7.186208307928585   1.668188377050148 
 11.202235609649751   0.718623749417456   1.667289134646365 
 -3.734078536549858   9.342108742426664   8.337917909029626 
  1.244732090023231   9.342157454691032   8.337336275053856 
  2.489279359010141   2.874536716557623   8.341957953225943 
  6.223424983076505   9.342157454691032   8.337336275053856 
  7.468351072325373   2.874382992164691   8.337855970937486 
 12.446815724355570   2.874464542054796   8.338456383705390 
 -1.244658094044240   9.342106923602412   1.668188377050148 
 -0.000193999225405   2.874382992164690   1.668101241907114 
  4.978877714089691   2.874536716557623   1.663999259618657 
  3.734078536550008   9.342332753436734   1.668101241907114 
  8.712815167144079   9.342106923602412   1.668188377050148 
  9.957655494944101   2.874464542054795   1.667500829139185 
 -4.978787182654697  11.498010995748981   8.337768835794492 
  0.000010952570590  11.497986314148511   8.338287161724445 
  1.244675809121830   5.030253300244779   8.341957953225943 
  6.223481263978185   5.030253300244779   8.341957953225943 
  4.978801372135941  11.498092846232364   8.338456383705390 
 11.202235609649769   5.030353598982866   8.338287161724445 
 -1.244715409321639   5.030307903050147   1.668620937790865 
 -2.489369890445063  11.498010995748981   1.668188377050148 
  2.489355700964048  11.498092846232364   1.667500829139185 
  3.734078536549917   5.030366245922020   1.633963857700540 
  7.468146120529278  11.497986314148511   1.667670051120156 
  8.712872482421519   5.030307903050147   1.668620937790865 
  0.000066064939011   7.186199351564098   8.337461798087093 
  1.244631037205003   0.718633380024934   8.337336275053856 
  4.978682086438336   7.186308720963765   8.341957953225943 
  6.223526035894888   0.718633380024934   8.337336275053856 
  9.957523813248894   7.186208307928585   8.337768835794492 
 -2.489366740149058   7.186208307928585   1.668188377050148 
 11.202235609649751   0.718623749417456   8.338668078198289 
  3.734078536549878   0.718700034638190   1.668495414757548 
  2.489474986661531   7.186308720963765   1.663999259618657 
  7.468091008160782   7.186199351564097   1.668495414757548 
  8.712932659358071   0.718541349478865   1.667500829139185 
  2.489474986661531   7.186308720963765   8.341957953225943 
 13.691538559941431   0.718541349478865   1.667500829139185 
 -1.244658094044240   9.342106923602412   8.337768835794492 
 -0.000193999225405   2.874382992164691   8.337855970937486 
  4.978877714089692   2.874536716557623   8.341957953225943 
  3.734078536550009   9.342332753436734   8.337855970937486 
  8.712815167144079   9.342106923602412   8.337768835794492 
  9.957655494944101   2.874464542054796   8.338456383705390 
 -3.734078536549859   9.342108742426664   1.668039303815095 
  1.244732090023231   9.342157454691032   1.668620937790865 