Species order: X N B                    
   2.51242800000000     
     5.9449720136058266    0.0000000000000000    0.0000000000000000
    -2.9724860068029120    5.1484967885702053   -0.0000000000000001
     0.0000000000000000    0.0000000000000009    5.3101128803662583
   Si   N    B 
     1   144   143
Direct
  0.4444444444444429  0.3888888888888857  0.3750000000000000
  0.1111073452504538  0.0555563000811156  0.1250720622447440
  0.6111078858962613  0.5555610619750946  0.1247256427512942
  0.4444489548306662  0.0555563000811156  0.1250720622447440
  0.9444420474962600  0.5555532992175197  0.1250396395041069
  0.7777777777777786  0.0555555555555571  0.1249722364772408
  0.1111111111111143  0.7222222222222214  0.6249715343320372
  0.4444489548306662  0.7222259880828837  0.6249279377552627
  0.2777722713582434  0.2222254474370793  0.6252743572487039
  0.7777770332522109  0.7222259880828837  0.6249279377552627
  0.6111197700624278  0.2222135632709095  0.6249668917408168
  0.9444357197773661  0.2222198677514579  0.6250118958884807
  0.2777800341158134  0.7222220816120726  0.1250396395041069
  0.1110937932084900  0.2222135632709095  0.1250331082591807
  0.4444531760788364  0.2222254474370793  0.1247256427512942
  0.6111197700624278  0.7222395401248443  0.1250331082591807
  0.9444420474962600  0.7222220816120726  0.1250396395041069
  0.7777841479741036  0.2222198677514579  0.1249881041115147
  0.1111112517212597  0.8888912858370686  0.6249603604958939
  0.4444454221573713  0.8888893777453486  0.6249992117960944
  0.2777722713582434  0.3888801572544922  0.6252743572487039
  0.6111078858962613  0.3888801572544922  0.6252743572487039
  0.7777841479741036  0.8888976135559625  0.6250118958884807
  0.9444439555879800  0.3888879111759573  0.6249992117960944
  0.1111073452504538  0.3888843785026624  0.1250720622447440
  0.2777800341158134  0.8888912858370686  0.1250396395041069
  0.6111134655818694  0.8888976135559625  0.1249881041115147
  0.4444444444444429  0.3888888888888857  0.1224743287630961
  0.9444439555879800  0.8888893777453486  0.1250007882039038
  0.7777770332522109  0.3888843785026624  0.1250720622447440
  0.2777807265168217  0.5555526068165165  0.6249373463778387
  0.1111073452504538  0.0555563000811156  0.6249279377552627
  0.6111078858962613  0.5555610619750946  0.6252743572487039
  0.4444489548306662  0.0555563000811156  0.6249279377552627
  0.9444420474962600  0.5555532992175197  0.6249603604958939
  0.1111112517212597  0.5555532992175197  0.1250396395041069
  0.7777777777777786  0.0555555555555571  0.6250277635227610
  0.2777807265168217  0.0555614530336486  0.1250626536221622
  0.4444531760788364  0.5555610619750946  0.1247256427512942
  0.7777718802996924  0.5555526068165165  0.1250626536221622
  0.6111134655818694  0.0555491853592338  0.1249881041115147
  0.4444531760788364  0.5555610619750946  0.6252743572487039
  0.9444357197773661  0.0555491853592338  0.1249881041115147
  0.2777800341158134  0.7222220816120726  0.6249603604958939
  0.1110937932084900  0.2222135632709095  0.6249668917408168
  0.4444531760788364  0.2222254474370793  0.6252743572487039
  0.6111197700624278  0.7222395401248443  0.6249668917408168
  0.9444420474962600  0.7222220816120726  0.6249603604958939
  0.7777841479741036  0.2222198677514579  0.6250118958884807
  0.1111111111111143  0.7222222222222214  0.1250284656679701
  0.4444489548306662  0.7222259880828837  0.1250720622447440
  0.2777722713582434  0.2222254474370793  0.1247256427512942
  0.7777770332522109  0.7222259880828837  0.1250720622447440
  0.6111197700624278  0.2222135632709095  0.1250331082591807
  0.9444357197773661  0.2222198677514579  0.1249881041115147
  0.1111073452504538  0.3888843785026624  0.6249279377552627
  0.2777800341158134  0.8888912858370686  0.6249603604958939
  0.6111134655818694  0.8888976135559625  0.6250118958884807
  0.4444444444444429  0.3888888888888857  0.6275256712369089
  0.9444439555879800  0.8888893777453486  0.6249992117960944
  0.1111112517212597  0.8888912858370686  0.1250396395041069
  0.7777770332522109  0.3888843785026624  0.6249279377552627
  0.4444454221573713  0.8888893777453486  0.1250007882039038
  0.2777722713582434  0.3888801572544922  0.1247256427512942
  0.2777807265168217  0.5555526068165165  0.1250626536221622
  0.6111078858962613  0.3888801572544922  0.1247256427512942
  0.7777841479741036  0.8888976135559625  0.1249881041115147
  0.9444439555879800  0.3888879111759573  0.1250007882039038
  0.1111112517212597  0.5555532992175197  0.6249603604958939
  0.2777807265168217  0.0555614530336486  0.6249373463778387
  0.7777718802996924  0.5555526068165165  0.6249373463778387
  0.6111134655818694  0.0555491853592338  0.6250118958884807
  0.9444357197773661  0.0555491853592338  0.6250118958884807
  0.0548121075204507  0.1106048305634226  0.3750000000000000
  0.5559403967983950  0.6118807935968150  0.3750000000000000
  0.3878978305639106  0.1065163773139323  0.3750000000000000
  0.8905616250633449  0.6119474791983472  0.3750000000000000
  0.7223539787014261  0.1109793546319114  0.3750000000000000
  0.0555546875573482  0.7777786457759822  0.8750000000000000
  0.3888900689604924  0.7777782956442814  0.8750000000000000
  0.2222216848747716  0.2777775091040529  0.8750000000000000
  0.7222231464788258  0.7777761407031193  0.8750000000000000
  0.5555558242292824  0.2777775091040529  0.8750000000000000
  0.8888903382432493  0.2777806764865053  0.8750000000000000
  0.2218932924276919  0.7776133128805101  0.3750000000000000
  0.0548121075204507  0.2775406102903644  0.3750000000000000
  0.3812421744465269  0.2624843488930609  0.3750000000000000
  0.5557927230429679  0.7785212258128799  0.3750000000000000
  0.8901552554143678  0.7787785507028180  0.3750000000000000
  0.7227285027699165  0.2775406102903644  0.3750000000000000
  0.0555550376890597  0.9444451066495599  0.8750000000000000
  0.3888900689604924  0.9444451066495599  0.8750000000000000
  0.2222217608778075  0.4444440223044062  0.8750000000000000
  0.5555665861071482  0.4444499597202384  0.8750000000000000
  0.7222212293754879  0.9444424587509714  0.8750000000000000
  0.8888882266837687  0.4444432643728362  0.8750000000000000
  0.0545547826305109  0.4447100380448828  0.3750000000000000
  0.2213858541349913  0.9427717082699837  0.3750000000000000
  0.5557537484452442  0.9445435408892892  0.3750000000000000
  0.3812421744465269  0.4520911588868017  0.3750000000000000
  0.8887897924440394  0.9445435408892892  0.3750000000000000
  0.7268169560194084  0.4454355027694180  0.3750000000000000
  0.2222230610104885  0.6111102723228485  0.8750000000000000
  0.0555571926302172  0.1111101868545089  0.8750000000000000
  0.5555558242292824  0.6111116484585656  0.8750000000000000
  0.3888893110289222  0.1111110719067391  0.8750000000000000
  0.8888872113123465  0.6111102723228485  0.8750000000000000
  0.0557200204528211  0.6114400409056431  0.3750000000000000
  0.7222212293754879  0.1111121039578464  0.8750000000000000
  0.2186185467500153  0.1065163773139323  0.3750000000000000
  0.3878978305639106  0.6147147865833180  0.3750000000000000
  0.7268169560194084  0.6147147865833180  0.3750000000000000
  0.5557927230429679  0.1106048305634226  0.3750000000000000
  0.3888893110289224  0.6111115724555233  0.8750000000000000
  0.8886253759304752  0.1109793546319114  0.3750000000000000
  0.2222239582186360  0.7777786457759822  0.8750000000000000
  0.0555571926302172  0.2777803391090421  0.8750000000000000
  0.3888833736130902  0.2777667472261948  0.8750000000000000
  0.5555529942242985  0.7777761407031193  0.8750000000000000
  0.8888882266837687  0.7777782956442814  0.8750000000000000
  0.7222231464788258  0.2777803391090421  0.8750000000000000
  0.0557200204528211  0.7776133128805101  0.3750000000000000
  0.3886232952884458  0.7787785507028180  0.3750000000000000
  0.2214525397365265  0.2773929365349282  0.3750000000000000
  0.7227285027699165  0.7785212258128799  0.3750000000000000
  0.5559403967983950  0.2773929365349282  0.3750000000000000
  0.8887897924440394  0.2775795848880906  0.3750000000000000
  0.0555550376890597  0.4444432643728362  0.8750000000000000
  0.2222230610104885  0.9444461220209821  0.8750000000000000
  0.5555526568468350  0.9444429950900793  0.8750000000000000
  0.3888833736130902  0.4444499597202384  0.8750000000000000
  0.8888903382432493  0.9444429950900793  0.8750000000000000
  0.0545547826305109  0.9431780779189608  0.3750000000000000
  0.7222222614265980  0.4444440223044062  0.8750000000000000
  0.3886232952884458  0.9431780779189608  0.3750000000000000
  0.2186185467500153  0.4454355027694180  0.3750000000000000
  0.2213858541349913  0.6119474791983472  0.3750000000000000
  0.5708489844402749  0.4520911588868017  0.3750000000000000
  0.7223539787014261  0.9447079574028534  0.3750000000000000
  0.8901552554143678  0.4447100380448828  0.3750000000000000
  0.0555546875573482  0.6111093751146945  0.8750000000000000
  0.2222217608778075  0.1111110719067391  0.8750000000000000
  0.7222222614265980  0.6111115724555233  0.8750000000000000
  0.5555529942242985  0.1111101868545089  0.8750000000000000
  0.8888908745823572  0.1111121039578464  0.8750000000000000
  0.1086865029785311  0.0532694396610860  0.3750000000000000
  0.6174194207676872  0.5609168637911935  0.3750000000000000
  0.4445829366825520  0.0532694396610860  0.3750000000000000
  0.9452075976853571  0.5557711161430897  0.3750000000000000
  0.7777777777777786  0.0555555555555571  0.3750000000000000
  0.1111111111111143  0.7222222222222214  0.8750000000000000
  0.4444464489127814  0.7222252728563068  0.8750000000000000
  0.2777784237027749  0.2222221495759212  0.8750000000000000
  0.7777788239435329  0.7222252728563068  0.8750000000000000
  0.6111112085765300  0.2222221247568097  0.8750000000000000
  0.9444430313370759  0.2222217597279786  0.8750000000000000
  0.2775622171902362  0.7227698148755970  0.3750000000000000
  0.1102317699739192  0.2217825516536224  0.3750000000000000
  0.4434974430235066  0.2159139125656479  0.3750000000000000
  0.6115507816797124  0.7231015633594159  0.3750000000000000
  0.9452075976853571  0.7227698148755970  0.3750000000000000
  0.7778701530616887  0.2218767033835370  0.3750000000000000
  0.1111100330604398  0.8888890798279993  0.8750000000000000
  0.4444467063210075  0.8888900198271674  0.8750000000000000
  0.2777784237027749  0.3888896074601864  0.8750000000000000
  0.6111111837574208  0.3888896074601864  0.8750000000000000
  0.7777787283909015  0.8888903019962527  0.8750000000000000
  0.9444433135061612  0.3888866270123211  0.8750000000000000
  0.1086865029785311  0.3887503966507766  0.3750000000000000
  0.2775622171902362  0.8881257356479715  0.3750000000000000
  0.6114566299498015  0.8893267830114802  0.3750000000000000
  0.9443149992918215  0.8890183340415071  0.3750000000000000
  0.7800638936722474  0.3887503966507766  0.3750000000000000
  0.2777776014276487  0.5555557319056851  0.8750000000000000
  0.1111080604770283  0.0555545093898106  0.8750000000000000
  0.6111111837574208  0.5555549096305563  0.8750000000000000
  0.4444464489127814  0.0555545093898106  0.8750000000000000
  0.9444442535053293  0.5555542865657601  0.8750000000000000
  0.1105635184577412  0.5557711161430897  0.3750000000000000
  0.7777777777777786  0.0555555555555571  0.8750000000000000
  0.2764726079566537  0.0529452159133064  0.3750000000000000
  0.4434974430235066  0.5609168637911935  0.3750000000000000
  0.7803881174200283  0.5568607253766877  0.3750000000000000
  0.6114566299498015  0.0554631802716488  0.3750000000000000
  0.4444437258731422  0.5555549096305563  0.8750000000000000
  0.9440065503218484  0.0554631802716488  0.3750000000000000
  0.2777790467675684  0.7222233002728952  0.8750000000000000
  0.1111109161802901  0.2222221247568097  0.8750000000000000
  0.4444437258731422  0.2222221495759212  0.8750000000000000
  0.6111112085765300  0.7222224171530404  0.8750000000000000
  0.9444442535053293  0.7222233002728952  0.8750000000000000
  0.7777787283909015  0.2222217597279786  0.8750000000000000
  0.1111111111111143  0.7222222222222214  0.3750000000000000
  0.4445829366825520  0.7246468303548078  0.3750000000000000
  0.2724164695421377  0.2159139125656479  0.3750000000000000
  0.7800638936722474  0.7246468303548078  0.3750000000000000
  0.6115507816797124  0.2217825516536224  0.3750000000000000
  0.9440065503218484  0.2218767033835370  0.3750000000000000
  0.1111080604770283  0.3888868844205472  0.8750000000000000
  0.2777790467675684  0.8888890798279993  0.8750000000000000
  0.6111115736053533  0.8888903019962527  0.8750000000000000
  0.4444444444444429  0.3888888888888857  0.8750000000000000
  0.9444433135061612  0.8888900198271674  0.8750000000000000
  0.1105635184577412  0.8881257356479715  0.3750000000000000
  0.7777788239435329  0.3888868844205472  0.8750000000000000
  0.4447033347496853  0.8890183340415071  0.3750000000000000
  0.2724164695421377  0.3898358903098220  0.3750000000000000
  0.2764726079566537  0.5568607253766877  0.3750000000000000
  0.6174194207676872  0.3898358903098220  0.3750000000000000
  0.7778701530616887  0.8893267830114802  0.3750000000000000
  0.9443149992918215  0.3886299985836433  0.3750000000000000
  0.1111100330604398  0.5555542865657601  0.8750000000000000
  0.2777776014276487  0.0555552028552961  0.8750000000000000
  0.7777781304780383  0.5555557319056851  0.8750000000000000
  0.6111115736053533  0.0555546049424318  0.8750000000000000
  0.9444430313370759  0.0555546049424318  0.8750000000000000
  0.0555377164561764  0.1111093950601712  0.1250184070231497
  0.5555631642219997  0.6111263284439999  0.1248359984312705
  0.3888879782163896  0.1111052946119332  0.1249967766211523
  0.8888901330012167  0.6111117331672754  0.1250352963344931
  0.7222238459751370  0.1111094873581986  0.1249924534642634
  0.0555546321267304  0.7777787012066008  0.6249822147265272
  0.3888922131809573  0.7777834245516211  0.6249785297095638
  0.2222070048893379  0.2777701691113357  0.6251640015687329
  0.7222239382731561  0.7777956168771630  0.6249815929768557
  0.5555631642219997  0.2777701691113357  0.6251640015687329
  0.8888849748714904  0.2777699497429980  0.6250043078327090
  0.2222240690798739  0.7777787012066008  0.1250177852734732
  0.0555377164561764  0.2777616547293417  0.1250184070231497
  0.3888723987616757  0.2777447975233597  0.1238885325966049
  0.5555716786040006  0.7777956168771630  0.1250184070231497
  0.8888912113706567  0.7777834245516211  0.1250214702904312
  0.7222239382731561  0.2777616547293417  0.1250184070231497
  0.0555499087817150  0.9444421219626719  0.6249785297095638
  0.3888922131809573  0.9444421219626719  0.6249785297095638
  0.2222173163955359  0.4444453551169390  0.6250032233788443
  0.5555885358099772  0.4444609345716529  0.6261114674033926
  0.7222238459751370  0.9444476919502743  0.6250075465357345
  0.8888912113706567  0.4444411201523712  0.6249785297095638
  0.0555499087817150  0.4444411201523712  0.1250214702904312
  0.2222216001660566  0.9444432003321119  0.1250352963344931
  0.5555633835903349  0.9444483584618382  0.1249956921672910
  0.3888723987616757  0.4444609345716529  0.1238885325966049
  0.8888849748714904  0.9444483584618382  0.1249956921672910
  0.7222280387214013  0.4444453551169390  0.1249967766211523
  0.2222216001660566  0.6111117331672754  0.6249647036655152
  0.0555377164561764  0.1111093950601712  0.6249815929768557
  0.5555631642219997  0.6111263284439999  0.6251640015687329
  0.3888879782163896  0.1111052946119332  0.6250032233788443
  0.8888901330012167  0.6111117331672754  0.6249647036655152
  0.0555546321267304  0.6111092642534615  0.1250177852734732
  0.7222238459751370  0.1111094873581986  0.6250075465357345
  0.2222173163955359  0.1111052946119332  0.1249967766211523
  0.3888879782163896  0.6111160169378017  0.1249967766211523
  0.7222280387214013  0.6111160169378017  0.1249967766211523
  0.5555716786040006  0.1111093950601712  0.1250184070231497
  0.3888879782163896  0.6111160169378017  0.6250032233788443
  0.8888856413830543  0.1111094873581986  0.1249924534642634
  0.2222240690798739  0.7777787012066008  0.6249822147265272
  0.0555377164561764  0.2777616547293417  0.6249815929768557
  0.3888723987616757  0.2777447975233597  0.6261114674033926
  0.5555716786040006  0.7777956168771630  0.6249815929768557
  0.8888912113706567  0.7777834245516211  0.6249785297095638
  0.7222239382731561  0.2777616547293417  0.6249815929768557
  0.0555546321267304  0.7777787012066008  0.1250177852734732
  0.3888922131809573  0.7777834245516211  0.1250214702904312
  0.2222070048893379  0.2777701691113357  0.1248359984312705
  0.7222239382731561  0.7777956168771630  0.1250184070231497
  0.5555631642219997  0.2777701691113357  0.1248359984312705
  0.8888849748714904  0.2777699497429980  0.1249956921672910
  0.0555499087817150  0.4444411201523712  0.6249785297095638
  0.2222216001660566  0.9444432003321119  0.6249647036655152
  0.5555633835903349  0.9444483584618382  0.6250043078327090
  0.3888723987616757  0.4444609345716529  0.6261114674033926
  0.8888849748714904  0.9444483584618382  0.6250043078327090
  0.0555499087817150  0.9444421219626719  0.1250214702904312
  0.7222280387214013  0.4444453551169390  0.6250032233788443
  0.3888922131809573  0.9444421219626719  0.1250214702904312
  0.2222173163955359  0.4444453551169390  0.1249967766211523
  0.2222216001660566  0.6111117331672754  0.1250352963344931
  0.5555885358099772  0.4444609345716529  0.1238885325966049
  0.7222238459751370  0.9444476919502743  0.1249924534642634
  0.8888912113706567  0.4444411201523712  0.1250214702904312
  0.0555546321267304  0.6111092642534615  0.6249822147265272
  0.2222173163955359  0.1111052946119332  0.6250032233788443
  0.7222280387214013  0.6111160169378017  0.6250032233788443
  0.5555716786040006  0.1111093950601712  0.6249815929768557
  0.8888856413830543  0.1111094873581986  0.6250075465357345
 
  0.00000000E+00  0.00000000E+00  0.00000000E+00
  0.00000000E+00  0.00000000E+00  0.00000000E+00
  0.00000000E+00  0.00000000E+00  0.00000000E+00
  0.00000000E+00  0.00000000E+00  0.00000000E+00
  0.00000000E+00  0.00000000E+00  0.00000000E+00
  0.00000000E+00  0.00000000E+00  0.00000000E+00
  0.00000000E+00  0.00000000E+00  0.00000000E+00
  0.00000000E+00  0.00000000E+00  0.00000000E+00
  0.00000000E+00  0.00000000E+00  0.00000000E+00
  0.00000000E+00  0.00000000E+00  0.00000000E+00
  0.00000000E+00  0.00000000E+00  0.00000000E+00
  0.00000000E+00  0.00000000E+00  0.00000000E+00
  0.00000000E+00  0.00000000E+00  0.00000000E+00
  0.00000000E+00  0.00000000E+00  0.00000000E+00
  0.00000000E+00  0.00000000E+00  0.00000000E+00
  0.00000000E+00  0.00000000E+00  0.00000000E+00
  0.00000000E+00  0.00000000E+00  0.00000000E+00
  0.00000000E+00  0.00000000E+00  0.00000000E+00
  0.00000000E+00  0.00000000E+00  0.00000000E+00
  0.00000000E+00  0.00000000E+00  0.00000000E+00
  0.00000000E+00  0.00000000E+00  0.00000000E+00
  0.00000000E+00  0.00000000E+00  0.00000000E+00
  0.00000000E+00  0.00000000E+00  0.00000000E+00
  0.00000000E+00  0.00000000E+00  0.00000000E+00
  0.00000000E+00  0.00000000E+00  0.00000000E+00
  0.00000000E+00  0.00000000E+00  0.00000000E+00
  0.00000000E+00  0.00000000E+00  0.00000000E+00
  0.00000000E+00  0.00000000E+00  0.00000000E+00
  0.00000000E+00  0.00000000E+00  0.00000000E+00
  0.00000000E+00  0.00000000E+00  0.00000000E+00
  0.00000000E+00  0.00000000E+00  0.00000000E+00
  0.00000000E+00  0.00000000E+00  0.00000000E+00
  0.00000000E+00  0.00000000E+00  0.00000000E+00
  0.00000000E+00  0.00000000E+00  0.00000000E+00
  0.00000000E+00  0.00000000E+00  0.00000000E+00
  0.00000000E+00  0.00000000E+00  0.00000000E+00
  0.00000000E+00  0.00000000E+00  0.00000000E+00
  0.00000000E+00  0.00000000E+00  0.00000000E+00
  0.00000000E+00  0.00000000E+00  0.00000000E+00
  0.00000000E+00  0.00000000E+00  0.00000000E+00
  0.00000000E+00  0.00000000E+00  0.00000000E+00
  0.00000000E+00  0.00000000E+00  0.00000000E+00
  0.00000000E+00  0.00000000E+00  0.00000000E+00
  0.00000000E+00  0.00000000E+00  0.00000000E+00
  0.00000000E+00  0.00000000E+00  0.00000000E+00
  0.00000000E+00  0.00000000E+00  0.00000000E+00
  0.00000000E+00  0.00000000E+00  0.00000000E+00
  0.00000000E+00  0.00000000E+00  0.00000000E+00
  0.00000000E+00  0.00000000E+00  0.00000000E+00
  0.00000000E+00  0.00000000E+00  0.00000000E+00
  0.00000000E+00  0.00000000E+00  0.00000000E+00
  0.00000000E+00  0.00000000E+00  0.00000000E+00
  0.00000000E+00  0.00000000E+00  0.00000000E+00
  0.00000000E+00  0.00000000E+00  0.00000000E+00
  0.00000000E+00  0.00000000E+00  0.00000000E+00
  0.00000000E+00  0.00000000E+00  0.00000000E+00
  0.00000000E+00  0.00000000E+00  0.00000000E+00
  0.00000000E+00  0.00000000E+00  0.00000000E+00
  0.00000000E+00  0.00000000E+00  0.00000000E+00
  0.00000000E+00  0.00000000E+00  0.00000000E+00
  0.00000000E+00  0.00000000E+00  0.00000000E+00
  0.00000000E+00  0.00000000E+00  0.00000000E+00
  0.00000000E+00  0.00000000E+00  0.00000000E+00
  0.00000000E+00  0.00000000E+00  0.00000000E+00
  0.00000000E+00  0.00000000E+00  0.00000000E+00
  0.00000000E+00  0.00000000E+00  0.00000000E+00
  0.00000000E+00  0.00000000E+00  0.00000000E+00
  0.00000000E+00  0.00000000E+00  0.00000000E+00
  0.00000000E+00  0.00000000E+00  0.00000000E+00
  0.00000000E+00  0.00000000E+00  0.00000000E+00
  0.00000000E+00  0.00000000E+00  0.00000000E+00
  0.00000000E+00  0.00000000E+00  0.00000000E+00
  0.00000000E+00  0.00000000E+00  0.00000000E+00
  0.00000000E+00  0.00000000E+00  0.00000000E+00
  0.00000000E+00  0.00000000E+00  0.00000000E+00
  0.00000000E+00  0.00000000E+00  0.00000000E+00
  0.00000000E+00  0.00000000E+00  0.00000000E+00
  0.00000000E+00  0.00000000E+00  0.00000000E+00
  0.00000000E+00  0.00000000E+00  0.00000000E+00
  0.00000000E+00  0.00000000E+00  0.00000000E+00
  0.00000000E+00  0.00000000E+00  0.00000000E+00
  0.00000000E+00  0.00000000E+00  0.00000000E+00
  0.00000000E+00  0.00000000E+00  0.00000000E+00
  0.00000000E+00  0.00000000E+00  0.00000000E+00
  0.00000000E+00  0.00000000E+00  0.00000000E+00
  0.00000000E+00  0.00000000E+00  0.00000000E+00
  0.00000000E+00  0.00000000E+00  0.00000000E+00
  0.00000000E+00  0.00000000E+00  0.00000000E+00
  0.00000000E+00  0.00000000E+00  0.00000000E+00
  0.00000000E+00  0.00000000E+00  0.00000000E+00
  0.00000000E+00  0.00000000E+00  0.00000000E+00
  0.00000000E+00  0.00000000E+00  0.00000000E+00
  0.00000000E+00  0.00000000E+00  0.00000000E+00
  0.00000000E+00  0.00000000E+00  0.00000000E+00
  0.00000000E+00  0.00000000E+00  0.00000000E+00
  0.00000000E+00  0.00000000E+00  0.00000000E+00
  0.00000000E+00  0.00000000E+00  0.00000000E+00
  0.00000000E+00  0.00000000E+00  0.00000000E+00
  0.00000000E+00  0.00000000E+00  0.00000000E+00
  0.00000000E+00  0.00000000E+00  0.00000000E+00
  0.00000000E+00  0.00000000E+00  0.00000000E+00
  0.00000000E+00  0.00000000E+00  0.00000000E+00
  0.00000000E+00  0.00000000E+00  0.00000000E+00
  0.00000000E+00  0.00000000E+00  0.00000000E+00
  0.00000000E+00  0.00000000E+00  0.00000000E+00
  0.00000000E+00  0.00000000E+00  0.00000000E+00
  0.00000000E+00  0.00000000E+00  0.00000000E+00
  0.00000000E+00  0.00000000E+00  0.00000000E+00
  0.00000000E+00  0.00000000E+00  0.00000000E+00
  0.00000000E+00  0.00000000E+00  0.00000000E+00
  0.00000000E+00  0.00000000E+00  0.00000000E+00
  0.00000000E+00  0.00000000E+00  0.00000000E+00
  0.00000000E+00  0.00000000E+00  0.00000000E+00
  0.00000000E+00  0.00000000E+00  0.00000000E+00
  0.00000000E+00  0.00000000E+00  0.00000000E+00
  0.00000000E+00  0.00000000E+00  0.00000000E+00
  0.00000000E+00  0.00000000E+00  0.00000000E+00
  0.00000000E+00  0.00000000E+00  0.00000000E+00
  0.00000000E+00  0.00000000E+00  0.00000000E+00
  0.00000000E+00  0.00000000E+00  0.00000000E+00
  0.00000000E+00  0.00000000E+00  0.00000000E+00
  0.00000000E+00  0.00000000E+00  0.00000000E+00
  0.00000000E+00  0.00000000E+00  0.00000000E+00
  0.00000000E+00  0.00000000E+00  0.00000000E+00
  0.00000000E+00  0.00000000E+00  0.00000000E+00
  0.00000000E+00  0.00000000E+00  0.00000000E+00
  0.00000000E+00  0.00000000E+00  0.00000000E+00
  0.00000000E+00  0.00000000E+00  0.00000000E+00
  0.00000000E+00  0.00000000E+00  0.00000000E+00
  0.00000000E+00  0.00000000E+00  0.00000000E+00
  0.00000000E+00  0.00000000E+00  0.00000000E+00
  0.00000000E+00  0.00000000E+00  0.00000000E+00
  0.00000000E+00  0.00000000E+00  0.00000000E+00
  0.00000000E+00  0.00000000E+00  0.00000000E+00
  0.00000000E+00  0.00000000E+00  0.00000000E+00
  0.00000000E+00  0.00000000E+00  0.00000000E+00
  0.00000000E+00  0.00000000E+00  0.00000000E+00
  0.00000000E+00  0.00000000E+00  0.00000000E+00
  0.00000000E+00  0.00000000E+00  0.00000000E+00
  0.00000000E+00  0.00000000E+00  0.00000000E+00
  0.00000000E+00  0.00000000E+00  0.00000000E+00
  0.00000000E+00  0.00000000E+00  0.00000000E+00
  0.00000000E+00  0.00000000E+00  0.00000000E+00
  0.00000000E+00  0.00000000E+00  0.00000000E+00
  0.00000000E+00  0.00000000E+00  0.00000000E+00
  0.00000000E+00  0.00000000E+00  0.00000000E+00
  0.00000000E+00  0.00000000E+00  0.00000000E+00
  0.00000000E+00  0.00000000E+00  0.00000000E+00
  0.00000000E+00  0.00000000E+00  0.00000000E+00
  0.00000000E+00  0.00000000E+00  0.00000000E+00
  0.00000000E+00  0.00000000E+00  0.00000000E+00
  0.00000000E+00  0.00000000E+00  0.00000000E+00
  0.00000000E+00  0.00000000E+00  0.00000000E+00
  0.00000000E+00  0.00000000E+00  0.00000000E+00
  0.00000000E+00  0.00000000E+00  0.00000000E+00
  0.00000000E+00  0.00000000E+00  0.00000000E+00
  0.00000000E+00  0.00000000E+00  0.00000000E+00
  0.00000000E+00  0.00000000E+00  0.00000000E+00
  0.00000000E+00  0.00000000E+00  0.00000000E+00
  0.00000000E+00  0.00000000E+00  0.00000000E+00
  0.00000000E+00  0.00000000E+00  0.00000000E+00
  0.00000000E+00  0.00000000E+00  0.00000000E+00
  0.00000000E+00  0.00000000E+00  0.00000000E+00
  0.00000000E+00  0.00000000E+00  0.00000000E+00
  0.00000000E+00  0.00000000E+00  0.00000000E+00
  0.00000000E+00  0.00000000E+00  0.00000000E+00
  0.00000000E+00  0.00000000E+00  0.00000000E+00
  0.00000000E+00  0.00000000E+00  0.00000000E+00
  0.00000000E+00  0.00000000E+00  0.00000000E+00
  0.00000000E+00  0.00000000E+00  0.00000000E+00
  0.00000000E+00  0.00000000E+00  0.00000000E+00
  0.00000000E+00  0.00000000E+00  0.00000000E+00
  0.00000000E+00  0.00000000E+00  0.00000000E+00
  0.00000000E+00  0.00000000E+00  0.00000000E+00
  0.00000000E+00  0.00000000E+00  0.00000000E+00
  0.00000000E+00  0.00000000E+00  0.00000000E+00
  0.00000000E+00  0.00000000E+00  0.00000000E+00
  0.00000000E+00  0.00000000E+00  0.00000000E+00
  0.00000000E+00  0.00000000E+00  0.00000000E+00
  0.00000000E+00  0.00000000E+00  0.00000000E+00
  0.00000000E+00  0.00000000E+00  0.00000000E+00
  0.00000000E+00  0.00000000E+00  0.00000000E+00
  0.00000000E+00  0.00000000E+00  0.00000000E+00
  0.00000000E+00  0.00000000E+00  0.00000000E+00
  0.00000000E+00  0.00000000E+00  0.00000000E+00
  0.00000000E+00  0.00000000E+00  0.00000000E+00
  0.00000000E+00  0.00000000E+00  0.00000000E+00
  0.00000000E+00  0.00000000E+00  0.00000000E+00
  0.00000000E+00  0.00000000E+00  0.00000000E+00
  0.00000000E+00  0.00000000E+00  0.00000000E+00
  0.00000000E+00  0.00000000E+00  0.00000000E+00
  0.00000000E+00  0.00000000E+00  0.00000000E+00
  0.00000000E+00  0.00000000E+00  0.00000000E+00
  0.00000000E+00  0.00000000E+00  0.00000000E+00
  0.00000000E+00  0.00000000E+00  0.00000000E+00
  0.00000000E+00  0.00000000E+00  0.00000000E+00
  0.00000000E+00  0.00000000E+00  0.00000000E+00
  0.00000000E+00  0.00000000E+00  0.00000000E+00
  0.00000000E+00  0.00000000E+00  0.00000000E+00
  0.00000000E+00  0.00000000E+00  0.00000000E+00
  0.00000000E+00  0.00000000E+00  0.00000000E+00
  0.00000000E+00  0.00000000E+00  0.00000000E+00
  0.00000000E+00  0.00000000E+00  0.00000000E+00
  0.00000000E+00  0.00000000E+00  0.00000000E+00
  0.00000000E+00  0.00000000E+00  0.00000000E+00
  0.00000000E+00  0.00000000E+00  0.00000000E+00
  0.00000000E+00  0.00000000E+00  0.00000000E+00
  0.00000000E+00  0.00000000E+00  0.00000000E+00
  0.00000000E+00  0.00000000E+00  0.00000000E+00
  0.00000000E+00  0.00000000E+00  0.00000000E+00
  0.00000000E+00  0.00000000E+00  0.00000000E+00
  0.00000000E+00  0.00000000E+00  0.00000000E+00
  0.00000000E+00  0.00000000E+00  0.00000000E+00
  0.00000000E+00  0.00000000E+00  0.00000000E+00
  0.00000000E+00  0.00000000E+00  0.00000000E+00
  0.00000000E+00  0.00000000E+00  0.00000000E+00
  0.00000000E+00  0.00000000E+00  0.00000000E+00
  0.00000000E+00  0.00000000E+00  0.00000000E+00
  0.00000000E+00  0.00000000E+00  0.00000000E+00
  0.00000000E+00  0.00000000E+00  0.00000000E+00
  0.00000000E+00  0.00000000E+00  0.00000000E+00
  0.00000000E+00  0.00000000E+00  0.00000000E+00
  0.00000000E+00  0.00000000E+00  0.00000000E+00
  0.00000000E+00  0.00000000E+00  0.00000000E+00
  0.00000000E+00  0.00000000E+00  0.00000000E+00
  0.00000000E+00  0.00000000E+00  0.00000000E+00
  0.00000000E+00  0.00000000E+00  0.00000000E+00
  0.00000000E+00  0.00000000E+00  0.00000000E+00
  0.00000000E+00  0.00000000E+00  0.00000000E+00
  0.00000000E+00  0.00000000E+00  0.00000000E+00
  0.00000000E+00  0.00000000E+00  0.00000000E+00
  0.00000000E+00  0.00000000E+00  0.00000000E+00
  0.00000000E+00  0.00000000E+00  0.00000000E+00
  0.00000000E+00  0.00000000E+00  0.00000000E+00
  0.00000000E+00  0.00000000E+00  0.00000000E+00
  0.00000000E+00  0.00000000E+00  0.00000000E+00
  0.00000000E+00  0.00000000E+00  0.00000000E+00
  0.00000000E+00  0.00000000E+00  0.00000000E+00
  0.00000000E+00  0.00000000E+00  0.00000000E+00
  0.00000000E+00  0.00000000E+00  0.00000000E+00
  0.00000000E+00  0.00000000E+00  0.00000000E+00
  0.00000000E+00  0.00000000E+00  0.00000000E+00
  0.00000000E+00  0.00000000E+00  0.00000000E+00
  0.00000000E+00  0.00000000E+00  0.00000000E+00
  0.00000000E+00  0.00000000E+00  0.00000000E+00
  0.00000000E+00  0.00000000E+00  0.00000000E+00
  0.00000000E+00  0.00000000E+00  0.00000000E+00