 N O B C 
 1.0
 14.936314146199660   0.000000000000000   0.000000000000000
 -7.468157073099825  12.935227489513863   0.000000000000000
  0.000000000000001   0.000000000000001  13.341276283792837
 N O B C 
 144   1 142   1
Cartesian
  5.054832526272852   5.726583377071356   5.002978606422314 
  1.244928795521000   0.718564579495737   1.671127044586257 
  4.978601737281574   7.185966926436915   1.680050921591101 
  6.223389743019731   0.718470419579761   1.672676732660461 
  9.957687288494116   7.186384269993036   1.671790714805333 
 11.202060795737406   0.718625397292005   1.670120292786822 
 -3.733949177425055   9.342080072197950   8.335853915302220 
  1.244476367284660   9.342055313299484   8.334908609790666 
  2.489414870195275   2.874666161553148   8.330109681684513 
  6.223541041827102   9.341767463684715   8.333616875704147 
  7.467998300930364   2.874555691389526   8.329955919125872 
 12.446799493563438   2.874734792300330   8.335552990893941 
 -1.244796595081749   9.342119211135223   1.670209974807836 
 -0.000036994973337   2.874583157313880   1.671096928480679 
  4.979022042482720   2.874683022146629   1.680631686512051 
  3.733926839319578   9.341998690185871   1.671927219186844 
  8.713095964405209   9.341928371612655   1.671156557325329 
  9.957316700179430   2.874731714126971   1.671573956418466 
 -4.978564142597835  11.497811528264362   8.335678934736967 
 -0.000206833802271  11.497838525624008   8.335536641986401 
  1.244720758330000   5.030467651394407   8.330437665435554 
  6.223254401624652   5.030304947557682   8.324085346771486 
  4.978782115820265  11.497807929243010   8.335595251436070 
 11.202164412120823   5.030772132074808   8.334812421821255 
 -1.244745162956118   5.030698646720798   1.671087362031762 
 -2.489341883587214  11.497825146768507   1.670398918118802 
  2.489124510018110  11.497885047638796   1.670267598648347 
  3.734080500583705   5.030441949331965   1.682972366329623 
  7.468375097763814  11.497759839785772   1.670438742841592 
  8.712603059230830   5.030649299168600   1.676097736663023 
 -0.000099869777488   7.186405352799489   8.334583515520206 
  1.244928795521000   0.718564579495737   8.334830168258371 
  4.978601737281575   7.185966926436916   8.325906291253526 
  6.223389743019732   0.718470419579762   8.333280480184166 
  9.957687288494116   7.186384269993037   8.334166498039281 
 -2.489402341827778   7.186468525975998   1.670375707856627 
 11.202060795737406   0.718625397292005   8.335836920057805 
  3.734280712910633   0.718533922153017   1.672375901891626 
  2.489408720824841   7.186325771009551   1.675881674845418 
  7.468161449483685   7.186003223154502   1.676810282405021 
  8.712571434229357   0.718518214926572   1.671010623648210 
  2.489408720824841   7.186325771009551   8.330075537999210 
 13.691682266510231   0.718548154833521   1.670275310138484 
 -1.244796595081749   9.342119211135223   8.335747238036792 
 -0.000036994973336   2.874583157313881   8.334860284363948 
  4.979022042482721   2.874683022146630   8.325325526332577 
  3.733926839319578   9.341998690185871   8.334029993657783 
  8.713095964405209   9.341928371612655   8.334800655519297 
  9.957316700179430   2.874731714126971   8.334383256426161 
 -3.733949177425055   9.342080072197950   1.670103297542407 
  1.244476367284659   9.342055313299484   1.671048603053960 
  2.489414870195275   2.874666161553147   1.675847531160101 
  6.223541041827101   9.341767463684715   1.672340337140481 
  7.467998300930363   2.874555691389525   1.676001293718755 
 12.446799493563438   2.874734792300329   1.670404221950686 
 -1.244745162956118   5.030698646720799   8.334869850812865 
 -2.489341883587213  11.497825146768507   8.335558294725827 
  2.489124510018110  11.497885047638796   8.335689614196280 
  3.734080500583706   5.030441949331966   8.322984846515004 
  7.468375097763815  11.497759839785772   8.335518470003036 
 -4.978564142597836  11.497811528264362   1.670278278107661 
  8.712603059230830   5.030649299168601   8.329859476181603 
 -0.000206833802271  11.497838525624008   1.670420570858226 
  1.244720758329999   5.030467651394406   1.675519547409073 
 -0.000099869777489   7.186405352799488   1.671373697324421 
  6.223254401624651   5.030304947557681   1.681871866073154 
  4.978782115820264  11.497807929243010   1.670361961408557 
 11.202164412120823   5.030772132074807   1.671144791023359 
 -2.489402341827777   7.186468525975999   8.335581504988001 
  3.734280712910633   0.718533922153018   8.333581310953001 
  7.468161449483686   7.186003223154503   8.329146930439606 
  8.712571434229357   0.718518214926573   8.334946589196404 
 13.691682266510231   0.718548154833521   8.335681902706144 
 -0.000243747137566   1.435762647960125   5.002978606422314 
  3.750941218266466   7.901369887725443   5.002978606422314 
  4.981974144793880   1.471622422412156   5.002978606422314 
  8.689185499071336   7.881366897310483   5.002978606422314 
  9.956463135317303   1.438446180132365   5.002978606422314 
 -4.978864682681150  10.060781121464741  11.673616748318732 
  0.000083293979844  10.060807743576463  11.673616748318732 
  1.244671964842763   3.593098115366669  11.673616748318732 
  4.978784471464597  10.060798388092438  11.673616748318732 
  6.223470208461564   3.593151556438210  11.673616748318732 
 11.202249283329992   3.593100207681768  11.673616748318732 
 -2.490675616828608  10.061205316234066   5.002978606422314 
 -1.246384788745744   3.592719167621124   5.002978606422314 
  3.741730044881248   3.565085000995159   5.002978606422314 
  2.493082094322593  10.059444773970617   5.002978606422314 
  7.465252749950120  10.057007180282655   5.002978606422314 
  8.713266977449898   3.591652127000602   5.002978606422314 
 -6.223557803650515  12.216699731267468  11.673616748318732 
 -1.244626766367869  12.216747644468729  11.673616748318732 
  0.000044899327261   5.748923558614048  11.673616748318732 
  4.978745680968570   5.749007356046030  11.673616748318732 
  3.734122393572410  12.216659433279794  11.673616748318732 
  9.957514296787453   5.748946843435421  11.673616748318732 
 -2.491828681838815   5.745623409244160   5.002978606422314 
 -3.732478883910497  12.227258202083696   5.002978606422314 
  1.242394221801656  12.223001986943265   5.002978606422314 
  2.481892249543635   5.764630960189354   5.002978606422314 
  6.224342942182035  12.216323505992191   5.002978606422314 
  7.379301142900226   5.705205905810570   5.002978606422314 
 -1.244675212777360   7.904816133668782  11.673616748318732 
 -0.000050386203005   1.437234724348114  11.673616748318732 
  3.734138983153794   7.904858306294677  11.673616748318732 
  4.978787482414445   1.437351250011706  11.673616748318732 
  8.712770333730219   7.904837778510003  11.673616748318732 
 -3.743539288317145   7.897808777945268   5.002978606422314 
  9.957580612364193   1.437258790633225  11.673616748318732 
  2.499466081082701   1.453637647044406   5.002978606422314 
  1.260872954601636   7.889244915282364   5.002978606422314 
  6.214917500631813   7.895397033106042   5.002978606422314 
  7.461596167154126   1.458379191765952   5.002978606422314 
  1.244819614951457   7.904826914369145  11.673616748318732 
 12.446367810420664   1.437569664343662   5.002978606422314 
 -2.489403204436243  10.060800111303408  11.673616748318732 
 -1.244701633264774   3.593073606984819  11.673616748318732 
  3.734076043881138   3.593171105750820  11.673616748318732 
  2.489463002484560  10.060790663769758  11.673616748318732 
  7.468088983797521  10.060820960721143  11.673616748318732 
  8.712875023238260   3.593118435504024  11.673616748318732 
 -4.985277083433580  10.055483760866769   5.002978606422314 
  0.004203677977052  10.058181724253330   5.002978606422314 
  1.236852569570251   3.585225753114710   5.002978606422314 
  4.980016285435223  10.062502076055555   5.002978606422314 
  6.229369154744272   3.661046711261487   5.002978606422314 
 11.199880457599447   3.593693094957975   5.002978606422314 
 -2.489418705813164   5.748927360416292  11.673616748318732 
 -3.734131560558263  12.216723810367032  11.673616748318732 
  1.244740052131786  12.216703197663508  11.673616748318732 
  2.489463769882731   5.748973123407725  11.673616748318732 
  6.223467762057782  12.216671327417698  11.673616748318732 
 -6.220764456172761  12.221513825921644   5.002978606422314 
  7.468100450307204   5.748974213339190  11.673616748318732 
 -1.245816115210044  12.228712904995346   5.002978606422314 
  0.022160553067256   5.745630993418100   5.002978606422314 
 -1.240399816887972   7.899539624491101   5.002978606422314 
  3.733697421834078  12.217334690087338   5.002978606422314 
  9.927145903555687   5.741840487726670   5.002978606422314 
 -3.734140214166216   7.904799715718889  11.673616748318732 
  2.489304455065721   1.437310917935063  11.673616748318732 
  6.223394689437015   7.904871904642154  11.673616748318732 
  7.468210879377139   1.437309102422268  11.673616748318732 
 12.446964356017924   1.437243239634176  11.673616748318732 
  3.777165132571397   5.015409768085609   5.002978606422314 
  1.241513507290877   0.719944766015603   5.002978606422314 
  4.978851809847182   7.223571130118760   5.002978606422314 
  6.227113995035830   0.723420041651032   5.002978606422314 
  9.951006031526404   7.181816526177893   5.002978606422314 
 11.204608385509133   0.717432800517836   5.002978606422314 
 -3.733968964574259   9.342281640179651  11.673616748318732 
  1.244521436012887   9.342594724981051  11.673616748318732 
  2.488620714423229   2.873905551238298  11.673616748318732 
  6.223543712908413   9.343113269122592  11.673616748318732 
  7.468890746386602   2.873851838197518  11.673616748318732 
 12.446992401659342   2.874165583610895  11.673616748318732 
 -1.244420799741967   9.341272511736808   5.002978606422314 
 -0.019453319388300   2.862309669798877   5.002978606422314 
  4.995796497749854   2.885522144790405   5.002978606422314 
  3.738011290852068   9.361853821889124   5.002978606422314 
  8.706836474479406   9.337876461253332   5.002978606422314 
  9.972532209087026   2.865367801917675   5.002978606422314 
 -4.978940011919490  11.497975895076326  11.673616748318732 
  0.000173080624989  11.497934453638807  11.673616748318732 
  1.243910657345463   5.030217197433173  11.673616748318732 
  6.223783683570983   5.030325267890295  11.673616748318732 
  4.978788683513192  11.498569334665689  11.673616748318732 
 11.202669887656381   5.030153631400274  11.673616748318732 
 -1.244778133441796   5.026010525305709   5.002978606422314 
 -2.489593668364073  11.499568870341172   5.002978606422314 
  2.489275466645109  11.503919983896013   5.002978606422314 
  7.468659560651340  11.502550109655354   5.002978606422314 
  8.709207014705793   5.005569729809572   5.002978606422314 
 -0.000419182208213   7.186428760215918  11.673616748318732 
  1.244138428181977   0.718307430743524  11.673616748318732 
  4.978679450614097   7.187056185587950  11.673616748318732 
  6.223735396260094   0.718003226985829  11.673616748318732 
  9.958037383441262   7.186472678587449  11.673616748318732 
 -2.491323900255211   7.183838878656699   5.002978606422314 
 11.202516528916464   0.718518873456275  11.673616748318732 
  3.735297017132698   0.723106751962639   5.002978606422314 
  2.515051546042158   7.213892930194332   5.002978606422314 
  7.446701815671258   7.192310404024858   5.002978606422314 
  8.715856841952833   0.721674692814078   5.002978606422314 
  2.488895335173920   7.186785120215952  11.673616748318732 
 13.688339389090482   0.716299782164849   5.002978606422314 
 -1.244764987798251   9.342254340172120  11.673616748318732 
 -0.000639380546695   2.874067125115586  11.673616748318732 
  4.978662308279731   2.873797508579019  11.673616748318732 
  3.733951688332674   9.343034978108840  11.673616748318732 
  8.713031329352855   9.342685672103562  11.673616748318732 
  9.958277875742947   2.874030375396812  11.673616748318732 
 -3.736765992528655   9.340185512175935   5.002978606422314 
  1.249101305602797   9.343611687029222   5.002978606422314 
  2.450508544159655   2.873550843350469   5.002978606422314 
  6.221436444674639   9.359679669278009   5.002978606422314 
  7.498355347579306   2.875432345944244   5.002978606422314 
 12.445301418588047   2.871232637715596   5.002978606422314 
 -1.245029778353261   5.030161727400237  11.673616748318732 
 -2.489387628061058  11.497794693018664  11.673616748318732 
  2.489513473542405  11.498327665547258  11.673616748318732 
  3.733550351083037   5.030309527489843  11.673616748318732 
  7.468024138595073  11.498403592133675  11.673616748318732 
 -4.979563163922507  11.498098284185716   5.002978606422314 
  8.713709810656077   5.030224223093807  11.673616748318732 
  0.001102390195001  11.499976804162136   5.002978606422314 
  1.235325282178637   4.993764391419805   5.002978606422314 
  0.002382009473538   7.184977165054658   5.002978606422314 
  4.979068085515753  11.506466209336565   5.002978606422314 
 11.196588998157328   5.026639391534905   5.002978606422314 
 -2.489352600346357   7.186286564939300  11.673616748318732 
  3.733735824202732   0.718034825707192  11.673616748318732 
  7.468617721546266   7.186899543038987  11.673616748318732 
  8.713390264381985   0.718241634746272  11.673616748318732 
 13.691410866624000   0.718555171717371  11.673616748318732 
 -0.000736529132110   1.436352085754372   1.664230315693529 
  3.732362185703649   7.907459044544334   1.663615725165249 
  4.978757958239398   1.433664961786616   1.664541292220077 
  8.715488788219895   7.906719626229345   1.664316293928353 
  9.958226337105822   1.436203395225967   1.664242888579299 
 -4.977536538313509  10.060927571832249   8.341310000318739 
 -0.001094827946166  10.060850491103004   8.341231927049813 
  1.242491430041010   3.592459146391799   8.342592601558746 
  4.978607822512573  10.062473207754669   8.342111157351779 
  6.224582865632649   3.591107382909859   8.344775105467543 
 11.203245116365306   3.593298356871768   8.341653984775652 
 -2.489290295998038  10.060360085009192   1.664875282695161 
 -1.245640781611535   3.593269443427495   1.664168877263432 
  3.732494680492672   3.591542552032463   1.664668232296640 
  2.488071401415468  10.061956705066928   1.664108733865528 
  7.469410541827229  10.061928788971199   1.664220770705775 
  8.715136012590005   3.592204473856104   1.663446197908340 
 -6.223154840994485  12.215742131400235   8.341383939756170 
 -1.244764916897008  12.214388490238512   8.341407745647496 
 -0.002229866315312   5.750136755696494   8.341786318832677 
  4.977996902423385   5.749935306876231   8.343950699829978 
  3.733855212316158  12.216759161273794   8.341349107197361 
  9.960092191307353   5.750235787425076   8.341654205400177 
 -2.489276233982476   5.750097380205690   1.664506613390313 
 -3.733922285827854  12.214556094067069   1.664451656851064 
  1.244412210539307  12.215621681274552   1.664594422524766 
  2.486748432664176   5.750127000065088   1.664611487025907 
  6.223600860615805  12.216775422917154   1.664719904617094 
  7.470604006447674   5.750110678851643   1.661325480321349 
 -1.245655258409363   7.905907296716059   8.341364797787280 
 -0.000736529132109   1.436352085754372   8.341726897151085 
  3.732362185703650   7.907459044544335   8.342341487679379 
  4.978757958239399   1.433664961786617   8.341415920624552 
  8.715488788219895   7.906719626229346   8.341640918916275 
 -3.732778599393329   7.905989442569023   1.664614311788957 
  9.958226337105822   1.436203395225968   8.341714324265329 
  2.488556281983955   1.434791215825888   1.664053028790746 
  1.242287199805594   7.906604645861232   1.664093758345564 
  6.224566421791139   7.907454591005528   1.663765121021713 
  7.468988590801716   1.434431205662078   1.664079901936120 
  1.242287199805594   7.906604645861233   8.341863454499064 
 12.446902133986208   1.436987879300667   1.664691243084481 
 -2.489290295998038  10.060360085009192   8.341081930149466 
 -1.245640781611535   3.593269443427496   8.341788335581182 
  3.732494680492672   3.591542552032464   8.341288980547986 
  2.488071401415468  10.061956705066928   8.341848478979099 
  7.469410541827230  10.061928788971199   8.341736442138853 
  8.715136012590005   3.592204473856105   8.342511014936301 
 -4.977536538313510  10.060927571832249   1.664647212525877 
 -0.001094827946167  10.060850491103004   1.664725285794814 
  1.242491430041010   3.592459146391798   1.663364611285882 
  4.978607822512572  10.062473207754669   1.663846055492835 
  6.224582865632648   3.591107382909858   1.661182107377085 
 11.203245116365306   3.593298356871768   1.664303228068976 
 -2.489276233982476   5.750097380205691   8.341450599454314 
 -3.733922285827854  12.214556094067069   8.341505555993550 
  1.244412210539308  12.215621681274552   8.341362790319861 
  2.486748432664176   5.750127000065089   8.341345725818707 
  6.223600860615806  12.216775422917154   8.341237308227520 
 -6.223154840994486  12.215742131400235   1.664573273088458 
  7.470604006447675   5.750110678851644   8.344631732523279 
 -1.244764916897008  12.214388490238512   1.664549467197132 
 -0.002229866315312   5.750136755696493   1.664170894011951 
 -1.245655258409363   7.905907296716058   1.664592415057347 
  4.977996902423384   5.749935306876230   1.662006513014636 
  3.733855212316158  12.216759161273794   1.664608105647267 
  9.960092191307353   5.750235787425075   1.664303007444464 
 -3.732778599393329   7.905989442569024   8.341342901055684 
  2.488556281983955   1.434791215825889   8.341904184053881 
  6.224566421791140   7.907454591005529   8.342192091822927 
  7.468988590801717   1.434431205662078   8.341877310908508 
 12.446902133986208   1.436987879300668   8.341265969760146 
  6.228631168436913   5.000772297975482   5.002978606422314 
Generated by cif2cell 2.0.0.  :  Failed to get author information, No journal information. Species order: N O B C 
 1.0
 14.936314146199660   0.000000000000000   0.000000000000000
 -7.468157073099825  12.935227489513863   0.000000000000000
  0.000000000000001   0.000000000000001  13.341276283792837
 N O B C 
 144   1 142   1
Cartesian
  5.054832526272852   5.726583377071356   5.002978606422314 
  1.244928795521000   0.718564579495737   1.671127044586257 
  4.978601737281574   7.185966926436915   1.680050921591101 
  6.223389743019731   0.718470419579761   1.672676732660461 
  9.957687288494116   7.186384269993036   1.671790714805333 
 11.202060795737406   0.718625397292005   1.670120292786822 
 -3.733949177425055   9.342080072197950   8.335853915302220 
  1.244476367284660   9.342055313299484   8.334908609790666 
  2.489414870195275   2.874666161553148   8.330109681684513 
  6.223541041827102   9.341767463684715   8.333616875704147 
  7.467998300930364   2.874555691389526   8.329955919125872 
 12.446799493563438   2.874734792300330   8.335552990893941 
 -1.244796595081749   9.342119211135223   1.670209974807836 
 -0.000036994973337   2.874583157313880   1.671096928480679 
  4.979022042482720   2.874683022146629   1.680631686512051 
  3.733926839319578   9.341998690185871   1.671927219186844 
  8.713095964405209   9.341928371612655   1.671156557325329 
  9.957316700179430   2.874731714126971   1.671573956418466 
 -4.978564142597835  11.497811528264362   8.335678934736967 
 -0.000206833802271  11.497838525624008   8.335536641986401 
  1.244720758330000   5.030467651394407   8.330437665435554 
  6.223254401624652   5.030304947557682   8.324085346771486 
  4.978782115820265  11.497807929243010   8.335595251436070 
 11.202164412120823   5.030772132074808   8.334812421821255 
 -1.244745162956118   5.030698646720798   1.671087362031762 
 -2.489341883587214  11.497825146768507   1.670398918118802 
  2.489124510018110  11.497885047638796   1.670267598648347 
  3.734080500583705   5.030441949331965   1.682972366329623 
  7.468375097763814  11.497759839785772   1.670438742841592 
  8.712603059230830   5.030649299168600   1.676097736663023 
 -0.000099869777488   7.186405352799489   8.334583515520206 
  1.244928795521000   0.718564579495737   8.334830168258371 
  4.978601737281575   7.185966926436916   8.325906291253526 
  6.223389743019732   0.718470419579762   8.333280480184166 
  9.957687288494116   7.186384269993037   8.334166498039281 
 -2.489402341827778   7.186468525975998   1.670375707856627 
 11.202060795737406   0.718625397292005   8.335836920057805 
  3.734280712910633   0.718533922153017   1.672375901891626 
  2.489408720824841   7.186325771009551   1.675881674845418 
  7.468161449483685   7.186003223154502   1.676810282405021 
  8.712571434229357   0.718518214926572   1.671010623648210 
  2.489408720824841   7.186325771009551   8.330075537999210 
 13.691682266510231   0.718548154833521   1.670275310138484 
 -1.244796595081749   9.342119211135223   8.335747238036792 
 -0.000036994973336   2.874583157313881   8.334860284363948 
  4.979022042482721   2.874683022146630   8.325325526332577 
  3.733926839319578   9.341998690185871   8.334029993657783 
  8.713095964405209   9.341928371612655   8.334800655519297 
  9.957316700179430   2.874731714126971   8.334383256426161 
 -3.733949177425055   9.342080072197950   1.670103297542407 
  1.244476367284659   9.342055313299484   1.671048603053960 
  2.489414870195275   2.874666161553147   1.675847531160101 
  6.223541041827101   9.341767463684715   1.672340337140481 
  7.467998300930363   2.874555691389525   1.676001293718755 
 12.446799493563438   2.874734792300329   1.670404221950686 
 -1.244745162956118   5.030698646720799   8.334869850812865 
 -2.489341883587213  11.497825146768507   8.335558294725827 
  2.489124510018110  11.497885047638796   8.335689614196280 
  3.734080500583706   5.030441949331966   8.322984846515004 
  7.468375097763815  11.497759839785772   8.335518470003036 
 -4.978564142597836  11.497811528264362   1.670278278107661 
  8.712603059230830   5.030649299168601   8.329859476181603 
 -0.000206833802271  11.497838525624008   1.670420570858226 
  1.244720758329999   5.030467651394406   1.675519547409073 
 -0.000099869777489   7.186405352799488   1.671373697324421 
  6.223254401624651   5.030304947557681   1.681871866073154 
  4.978782115820264  11.497807929243010   1.670361961408557 
 11.202164412120823   5.030772132074807   1.671144791023359 
 -2.489402341827777   7.186468525975999   8.335581504988001 
  3.734280712910633   0.718533922153018   8.333581310953001 
  7.468161449483686   7.186003223154503   8.329146930439606 
  8.712571434229357   0.718518214926573   8.334946589196404 
 13.691682266510231   0.718548154833521   8.335681902706144 
 -0.000243747137566   1.435762647960125   5.002978606422314 
  3.750941218266466   7.901369887725443   5.002978606422314 
  4.981974144793880   1.471622422412156   5.002978606422314 
  8.689185499071336   7.881366897310483   5.002978606422314 
  9.956463135317303   1.438446180132365   5.002978606422314 
 -4.978864682681150  10.060781121464741  11.673616748318732 
  0.000083293979844  10.060807743576463  11.673616748318732 
  1.244671964842763   3.593098115366669  11.673616748318732 
  4.978784471464597  10.060798388092438  11.673616748318732 
  6.223470208461564   3.593151556438210  11.673616748318732 
 11.202249283329992   3.593100207681768  11.673616748318732 
 -2.490675616828608  10.061205316234066   5.002978606422314 
 -1.246384788745744   3.592719167621124   5.002978606422314 
  3.741730044881248   3.565085000995159   5.002978606422314 
  2.493082094322593  10.059444773970617   5.002978606422314 
  7.465252749950120  10.057007180282655   5.002978606422314 
  8.713266977449898   3.591652127000602   5.002978606422314 
 -6.223557803650515  12.216699731267468  11.673616748318732 
 -1.244626766367869  12.216747644468729  11.673616748318732 
  0.000044899327261   5.748923558614048  11.673616748318732 
  4.978745680968570   5.749007356046030  11.673616748318732 
  3.734122393572410  12.216659433279794  11.673616748318732 
  9.957514296787453   5.748946843435421  11.673616748318732 
 -2.491828681838815   5.745623409244160   5.002978606422314 
 -3.732478883910497  12.227258202083696   5.002978606422314 
  1.242394221801656  12.223001986943265   5.002978606422314 
  2.481892249543635   5.764630960189354   5.002978606422314 
  6.224342942182035  12.216323505992191   5.002978606422314 
  7.379301142900226   5.705205905810570   5.002978606422314 
 -1.244675212777360   7.904816133668782  11.673616748318732 
 -0.000050386203005   1.437234724348114  11.673616748318732 
  3.734138983153794   7.904858306294677  11.673616748318732 
  4.978787482414445   1.437351250011706  11.673616748318732 
  8.712770333730219   7.904837778510003  11.673616748318732 
 -3.743539288317145   7.897808777945268   5.002978606422314 
  9.957580612364193   1.437258790633225  11.673616748318732 
  2.499466081082701   1.453637647044406   5.002978606422314 
  1.260872954601636   7.889244915282364   5.002978606422314 
  6.214917500631813   7.895397033106042   5.002978606422314 
  7.461596167154126   1.458379191765952   5.002978606422314 
  1.244819614951457   7.904826914369145  11.673616748318732 
 12.446367810420664   1.437569664343662   5.002978606422314 
 -2.489403204436243  10.060800111303408  11.673616748318732 
 -1.244701633264774   3.593073606984819  11.673616748318732 
  3.734076043881138   3.593171105750820  11.673616748318732 
  2.489463002484560  10.060790663769758  11.673616748318732 
  7.468088983797521  10.060820960721143  11.673616748318732 
  8.712875023238260   3.593118435504024  11.673616748318732 
 -4.985277083433580  10.055483760866769   5.002978606422314 
  0.004203677977052  10.058181724253330   5.002978606422314 
  1.236852569570251   3.585225753114710   5.002978606422314 
  4.980016285435223  10.062502076055555   5.002978606422314 
  6.229369154744272   3.661046711261487   5.002978606422314 
 11.199880457599447   3.593693094957975   5.002978606422314 
 -2.489418705813164   5.748927360416292  11.673616748318732 
 -3.734131560558263  12.216723810367032  11.673616748318732 
  1.244740052131786  12.216703197663508  11.673616748318732 
  2.489463769882731   5.748973123407725  11.673616748318732 
  6.223467762057782  12.216671327417698  11.673616748318732 
 -6.220764456172761  12.221513825921644   5.002978606422314 
  7.468100450307204   5.748974213339190  11.673616748318732 
 -1.245816115210044  12.228712904995346   5.002978606422314 
  0.022160553067256   5.745630993418100   5.002978606422314 
 -1.240399816887972   7.899539624491101   5.002978606422314 
  3.733697421834078  12.217334690087338   5.002978606422314 
  9.927145903555687   5.741840487726670   5.002978606422314 
 -3.734140214166216   7.904799715718889  11.673616748318732 
  2.489304455065721   1.437310917935063  11.673616748318732 
  6.223394689437015   7.904871904642154  11.673616748318732 
  7.468210879377139   1.437309102422268  11.673616748318732 
 12.446964356017924   1.437243239634176  11.673616748318732 
  3.777165132571397   5.015409768085609   5.002978606422314 
  1.241513507290877   0.719944766015603   5.002978606422314 
  4.978851809847182   7.223571130118760   5.002978606422314 
  6.227113995035830   0.723420041651032   5.002978606422314 
  9.951006031526404   7.181816526177893   5.002978606422314 
 11.204608385509133   0.717432800517836   5.002978606422314 
 -3.733968964574259   9.342281640179651  11.673616748318732 
  1.244521436012887   9.342594724981051  11.673616748318732 
  2.488620714423229   2.873905551238298  11.673616748318732 
  6.223543712908413   9.343113269122592  11.673616748318732 
  7.468890746386602   2.873851838197518  11.673616748318732 
 12.446992401659342   2.874165583610895  11.673616748318732 
 -1.244420799741967   9.341272511736808   5.002978606422314 
 -0.019453319388300   2.862309669798877   5.002978606422314 
  4.995796497749854   2.885522144790405   5.002978606422314 
  3.738011290852068   9.361853821889124   5.002978606422314 
  8.706836474479406   9.337876461253332   5.002978606422314 
  9.972532209087026   2.865367801917675   5.002978606422314 
 -4.978940011919490  11.497975895076326  11.673616748318732 
  0.000173080624989  11.497934453638807  11.673616748318732 
  1.243910657345463   5.030217197433173  11.673616748318732 
  6.223783683570983   5.030325267890295  11.673616748318732 
  4.978788683513192  11.498569334665689  11.673616748318732 
 11.202669887656381   5.030153631400274  11.673616748318732 
 -1.244778133441796   5.026010525305709   5.002978606422314 
 -2.489593668364073  11.499568870341172   5.002978606422314 
  2.489275466645109  11.503919983896013   5.002978606422314 
  7.468659560651340  11.502550109655354   5.002978606422314 
  8.709207014705793   5.005569729809572   5.002978606422314 
 -0.000419182208213   7.186428760215918  11.673616748318732 
  1.244138428181977   0.718307430743524  11.673616748318732 
  4.978679450614097   7.187056185587950  11.673616748318732 
  6.223735396260094   0.718003226985829  11.673616748318732 
  9.958037383441262   7.186472678587449  11.673616748318732 
 -2.491323900255211   7.183838878656699   5.002978606422314 
 11.202516528916464   0.718518873456275  11.673616748318732 
  3.735297017132698   0.723106751962639   5.002978606422314 
  2.515051546042158   7.213892930194332   5.002978606422314 
  7.446701815671258   7.192310404024858   5.002978606422314 
  8.715856841952833   0.721674692814078   5.002978606422314 
  2.488895335173920   7.186785120215952  11.673616748318732 
 13.688339389090482   0.716299782164849   5.002978606422314 
 -1.244764987798251   9.342254340172120  11.673616748318732 
 -0.000639380546695   2.874067125115586  11.673616748318732 
  4.978662308279731   2.873797508579019  11.673616748318732 
  3.733951688332674   9.343034978108840  11.673616748318732 
  8.713031329352855   9.342685672103562  11.673616748318732 
  9.958277875742947   2.874030375396812  11.673616748318732 
 -3.736765992528655   9.340185512175935   5.002978606422314 
  1.249101305602797   9.343611687029222   5.002978606422314 