 N C B 
 1.0
 14.936314146199660   0.000000000000000   0.000000000000000
 -7.468157073099825  12.935227489513863   0.000000000000000
  0.000000000000001   0.000000000000001  13.341276283792837
 N C B 
 141   3 143
Cartesian
  1.244754434578102   0.718925924986235   1.667044430764164 
  4.978703499774177   7.187133256295678   1.658315163586607 
  6.223402638521714   0.718925924986235   1.667044430764164 
  9.957428939770320   7.186088051565870   1.666319931066020 
 11.202235609649753   0.719200202426886   1.666189024976772 
 -3.734078536549866   9.341986004996691   8.339716003341637 
  1.244940224799821   9.342627125101872   8.340473754821929 
  2.489744947103178   2.874767044715056   8.340080499091878 
  6.223216848300018   9.342627125101872   8.340473754821929 
  7.468135042840204   2.874636257760617   8.339002385945532 
 12.446897469969080   2.874673388284183   8.339822995368770 
 -1.244437432958508   9.342101512440296   1.666517566642230 
  0.000022030259733   2.874636257760616   1.666954826899081 
  4.978412125996655   2.874767044715055   1.665876713752763 
  3.734078536549978   9.342801363225922   1.664842161195553 
  8.712594506058300   9.342101512440296   1.666517566642230 
  9.957573749330411   2.874673388284182   1.666134217475856 
 -4.978884420115287  11.498065609643655   8.339442428532450 
  0.000154567071178  11.498394689318932   8.339733321178153 
  1.244305157544453   5.029960784820060   8.343442649789374 
  6.223851915555472   5.029960784820060   8.343442649789374 
  4.978725317637644  11.498728470779083   8.339812432858754 
 11.202235609649739   5.030345677074300   8.339728209595581 
 -1.244719520417793   5.030276336040995   1.666272985977749 
 -2.489272652984414  11.498065609643655   1.666514784312164 
  2.489431755462315  11.498728470779083   1.666144779985875 
  3.734078536549910   5.030413365270894   1.652910317086432 
  7.468002506028660  11.498394689318932   1.666223891666488 
  8.712876593517731   5.030276336040995   1.666272985977749 
  0.000290724080892   7.186199967958371   8.339545941251322 
  1.244754434578102   0.718925924986236   8.338912782080463 
  4.978703499774178   7.187133256295679   8.347642049258020 
  6.223402638521715   0.718925924986236   8.338912782080463 
  9.957428939770320   7.186088051565870   8.339637281778593 
 -2.489271866670483   7.186088051565870   1.666319931066020 
 11.202235609649753   0.719200202426887   8.339768187867856 
  3.734078536549923   0.718752577004573   1.667987863412117 
  2.489453573325657   7.187133256295678   1.658315163586607 
  7.467866349018943   7.186199967958371   1.666411271593294 
  8.712804426698709   0.719106954721689   1.666552427902647 
  2.489453573325658   7.187133256295679   8.347642049258020 
 13.691666792600783   0.719106954721689   1.666552427902647 
 -1.244437432958507   9.342101512440296   8.339439646202397 
  0.000022030259734   2.874636257760617   8.339002385945532 
  4.978412125996656   2.874767044715056   8.340080499091878 
  3.734078536549978   9.342801363225922   8.341115051649076 
  8.712594506058300   9.342101512440296   8.339439646202397 
  9.957573749330411   2.874673388284183   8.339822995368770 
 -3.734078536549867   9.341986004996691   1.666241209502990 
  1.244940224799820   9.342627125101872   1.665483458022698 
  2.489744947103178   2.874767044715055   1.665876713752763 
  6.223216848300017   9.342627125101872   1.665483458022698 
  7.468135042840204   2.874636257760616   1.666954826899081 
 12.446897469969080   2.874673388284182   1.666134217475856 
 -1.244719520417792   5.030276336040996   8.339684226866865 
 -2.489272652984413  11.498065609643655   8.339442428532450 
  2.489431755462315  11.498728470779083   8.339812432858754 
  3.734078536549910   5.030413365270895   8.353046895758210 
  7.468002506028661  11.498394689318932   8.339733321178153 
 -4.978884420115288  11.498065609643655   1.666514784312164 
  8.712876593517731   5.030276336040996   8.339684226866865 
  0.000154567071178  11.498394689318932   1.666223891666488 
  1.244305157544452   5.029960784820060   1.662514563055254 
  0.000290724080892   7.186199967958371   1.666411271593294 
  6.223851915555471   5.029960784820060   1.662514563055254 
  4.978725317637643  11.498728470779083   1.666144779985875 
 11.202235609649739   5.030345677074299   1.666229003249034 
 -2.489271866670483   7.186088051565870   8.339637281778593 
  3.734078536549923   0.718752577004574   8.337969349432511 
  7.467866349018944   7.186199967958371   8.339545941251322 
  8.712804426698709   0.719106954721690   8.339404784941980 
 13.691666792600783   0.719106954721690   8.339404784941980 
  0.028383874085022   1.428204995655771   5.002978606422314 
  3.734078536549933   8.003009561486516   5.002978606422314 
  4.952357627802066   1.389161160721585   5.002978606422314 
  8.707571305627500   7.885842937400318   5.002978606422314 
  9.945982863902680   1.446014464028367   5.002978606422314 
 -4.978727320111886  10.060835150332293  11.673616748318732 
 -0.000089491301126  10.060840119644642  11.673616748318732 
  1.244721196581650   3.593139694878699  11.673616748318732 
  4.978811981195736  10.060760277830191  11.673616748318732 
  6.223435876518169   3.593139694878699  11.673616748318732 
 11.202235609649694   3.593257246412624  11.673616748318732 
 -2.489268344689795  10.029083034080214   5.002978606422314 
 -1.194241971838417   3.578665648607946   5.002978606422314 
  2.478109407989053  10.107535861894460   5.002978606422314 
  7.481510573124301  10.072358525439864   5.002978606422314 
  8.662399044938235   3.578665648607946   5.002978606422314 
 -6.223443635607824  12.216634976884999  11.673616748318732 
 -1.244713437492011  12.216634976884999  11.673616748318732 
 -0.000037133963714   5.749133542398165  11.673616748318732 
  4.978795014966420   5.749085440190918  11.673616748318732 
  3.734078536549914  12.216615434017456  11.673616748318732 
  9.957578537987164   5.749154257142822  11.673616748318732 
 -2.482992210124548   5.728737706500541   5.002978606422314 
 -3.734078536549902  12.159715430026257   5.002978606422314 
  1.231221463910479  12.234207472469301   5.002978606422314 
  6.236935609189376  12.234207472469301   5.002978606422314 
  7.455518850531079   5.726647570679494   5.002978606422314 
 -1.244814589261749   7.904997214901473  11.673616748318732 
  0.000033065530218   1.437241368531413  11.673616748318732 
  3.734078536549920   7.904919827116355  11.673616748318732 
  4.978777695144612   1.437184155042440  11.673616748318732 
  8.712971662361481   7.904997214901473  11.673616748318732 
 -3.734078536549904   7.878236383552092   5.002978606422314 
  9.957504284411074   1.437278649254017  11.673616748318732 
  2.515799445297661   1.389161160721585   5.002978606422314 
  1.228955898810409   7.952631647985846   5.002978606422314 
  6.239201174289340   7.952631647985846   5.002978606422314 
  7.439773199014810   1.428204995655771   5.002978606422314 
  1.244579429408931   7.904969878891428  11.673616748318732 
 12.458488355396693   1.446014464028367   5.002978606422314 
 -2.489429752987919  10.060835150332293  11.673616748318732 
 -1.244672998484249   3.593215008534458  11.673616748318732 
  3.734078536549873   3.593080984584768  11.673616748318732 
  2.489345091904089  10.060760277830191  11.673616748318732 
  7.468246564400861  10.060840119644642  11.673616748318732 
  8.712830071584097   3.593215008534458  11.673616748318732 
 -4.978888728410011  10.029083034080214   5.002978606422314 
 -0.013353500024553  10.072358525439864   5.002978606422314 
  1.376267205855285   3.540350017559950   5.002978606422314 
  4.990047665110788  10.107535861894460   5.002978606422314 
  6.091889867244547   3.540350017559950   5.002978606422314 
 11.202235609649687   3.584707464264154   5.002978606422314 
 -2.489421464887342   5.749154257142822  11.673616748318732 
 -3.734078536549902  12.216620272633845  11.673616748318732 
  1.244627558342777  12.216639341371385  11.673616748318732 
  2.489362058133415   5.749085440190918  11.673616748318732 
  6.223529514757063  12.216639341371385  11.673616748318732 
 -6.211859325593961  12.200057179913541   5.002978606422314 
  7.468194207063565   5.749133542398165  11.673616748318732 
 -1.256297747505874  12.200057179913541   5.002978606422314 
  0.012638222568771   5.726647570679494   5.002978606422314 
 -1.239414232527755   7.885842937400318   5.002978606422314 
  3.734078536549914  12.244467951541951   5.002978606422314 
  9.951149283224384   5.728737706500541   5.002978606422314 
 -3.734078536549911   7.904987724191236  11.673616748318732 
  2.489379377955116   1.437184155042440  11.673616748318732 
  6.223577643690788   7.904969878891428  11.673616748318732 
  7.468124007569615   1.437241368531413  11.673616748318732 
 12.446966934888296   1.437278649254017  11.673616748318732 
  2.510077959952655   5.790981624842979   5.002978606422314 
  3.734078536549910   5.224353072982669   5.002978606422314 
  4.958079113147165   5.790981624842979   5.002978606422314 
  1.261224674576287   0.699993560580819   5.002978606422314 
  4.969361233377083   7.270850636731589   5.002978606422314 
  6.206932398523530   0.699993560580819   5.002978606422314 
  9.950330954533687   7.165028817549783   5.002978606422314 
 11.202235609649744   0.739882694714900   5.002978606422314 
 -3.734078536549851   9.342070816553239  11.673616748318732 
  1.244916914286387   9.341465142848030  11.673616748318732 
  2.489717871799598   2.875265536408845  11.673616748318732 
  6.223240158813438   9.341465142848030  11.673616748318732 
  7.467532069916881   2.875061185436143  11.673616748318732 
 12.447192982450563   2.874841895315451  11.673616748318732 
 -1.240148389511337   9.321569870718275   5.002978606422314 
  0.088305187352337   2.863247543143881   5.002978606422314 
  4.785642886826584   2.815820846997392   5.002978606422314 
  3.734078536549971   9.408129889604046   5.002978606422314 
  8.708305462611175   9.321569870718275   5.002978606422314 
  9.931062102436375   2.880333338984884   5.002978606422314 
 -4.978783798344975  11.498066196417087  11.673616748318732 
 -0.000009643399501  11.497798427033176  11.673616748318732 
  1.245529962484605   5.030882300920867  11.673616748318732 
  6.222627110615352   5.030882300920867  11.673616748318732 
  4.978782771836393  11.497447385204593  11.673616748318732 
 11.202235609649746   5.030707757253615  11.673616748318732 
 -1.223352904628074   5.018622860031565   5.002978606422314 
 -2.486343693374308  11.459853856432545   5.002978606422314 
  2.482487289377186  11.530398986254662   5.002978606422314 
  7.476406059964879  11.501499218838378   5.002978606422314 
  8.691509977728012   5.018622860031565   5.002978606422314 
  0.000560899174956   7.186138704323126  11.673616748318732 
  1.244925300584676   0.718979477073941  11.673616748318732 
  4.978443990460849   7.185732439603781  11.673616748318732 
  6.223231772515156   0.718979477073941  11.673616748318732 
  9.957320166913956   7.186320416937489  11.673616748318732 
 -2.482173881433837   7.165028817549783   5.002978606422314 
 11.202235609649760   0.718557988829976  11.673616748318732 
  3.734078536549923   0.644627738623442   5.002978606422314 
  2.498795839722753   7.270850636731589   5.002978606422314 
  7.447103431744202   7.173972787096875   5.002978606422314 
  8.696042052224886   0.730833264558598   5.002978606422314 
  2.489713082638988   7.185732439603781  11.673616748318732 
 13.708429167074605   0.730833264558598   5.002978606422314 
 -1.244478835581885   9.341917760958136  11.673616748318732 
  0.000625003183043   2.875061185436143  11.673616748318732 
  4.978439201300236   2.875265536408845  11.673616748318732 
  3.734078536549980   9.341165036210253  11.673616748318732 
  8.712635908681722   9.341917760958136  11.673616748318732 
  9.957278236848916   2.874841895315451  11.673616748318732 
 -3.734078536549859   9.311590201058532   5.002978606422314 
  1.235688435555951   9.371567550960469   5.002978606422314 
  2.682514186273248   2.815820846997392   5.002978606422314 
  6.232468637543887   9.371567550960469   5.002978606422314 
  7.379851885747600   2.863247543143881   5.002978606422314 
 12.473409116863117   2.880333338984884   5.002978606422314 
 -1.244083256311444   5.030764284140777  11.673616748318732 
 -2.489373274754741  11.498066196417087  11.673616748318732 
  2.489374301263569  11.497447385204593  11.673616748318732 
  3.734078536549925   5.030952736414492  11.673616748318732 
  7.468166716499343  11.497798427033176  11.673616748318732 
 -4.981813379725422  11.459853856432545   5.002978606422314 
  8.712240329411369   5.030764284140777  11.673616748318732 
 -0.008248986865038  11.501499218838378   5.002978606422314 
  1.277076722584191   4.996415813707564   5.002978606422314 
  0.021053641355634   7.173972787096875   5.002978606422314 
  6.191080350515733   4.996415813707564   5.002978606422314 
  4.985669783722744  11.530398986254662   5.002978606422314 
 11.202235609649748   5.019342573274428   5.002978606422314 
 -2.489163093814120   7.186320416937489  11.673616748318732 
  3.734078536549916   0.719116825098498  11.673616748318732 
  7.467596173924883   7.186138704323126  11.673616748318732 
  8.712617317555793   0.718695396524555  11.673616748318732 
 13.691853901743681   0.718695396524555  11.673616748318732 
  0.000370081936057   1.438754549447886   1.669342108498279 
  3.734078536549933   7.902642821405458   1.669262675457885 
  4.978502743391131   1.439896206400864   1.670070651833616 
  8.710909850514543   7.903618872087000   1.669763822798439 
  9.957401656953081   1.437948564813213   1.668386399195936 
 -4.979426467529553  10.060239888216975   8.337754846311942 
  0.001418331692845  10.060026104001425   8.337070062009499 
  1.245992832785866   3.595565859162920   8.334447985838612 
  4.978036753715434  10.059732088666761   8.336783983580700 
  6.222164240313981   3.595565859162920   8.334447985838612 
 11.202235609649694   3.593360410355792   8.337282298132546 
 -2.488730605570268  10.060239888216975   1.668202366532700 
 -1.243691361421111   3.593754635157308   1.669801543016384 
  3.734078536549871   3.597761833334224   1.669383759997831 
  2.490120319384375  10.059732088666761   1.669173229263914 
  7.466738741406889  10.060026104001425   1.668887150835129 
  8.711848434520943   3.593754635157308   1.669801543016384 
 -6.223857318710639  12.217422111284858   8.337507753910028 
 -1.244299754389180  12.217422111284858   8.337507753910028 
  0.002658155146689   5.748351285367987   8.334717716146725 
  4.976746499883588   5.748821505067026   8.325769233326387 
  3.734078536549914  12.216688616616487   8.337522695164285 
  9.956636103045385   5.748453275909211   8.336781323391820 
 -2.488479029945549   5.748453275909210   1.669175889452809 
 -3.734078536549902  12.217480907325079   1.668390826095524 
  1.245063488632826  12.216890792967211   1.668410352102270 
  2.491410573216249   5.748821505067025   1.680187979518254 
  6.223093584467015  12.216890792967211   1.668410352102270 
  7.465498917953161   5.748351285367987   1.671239496697889 
 -1.242752777414809   7.903618872087001   8.336193390046189 
  0.000370081936057   1.438754549447886   8.336615104346349 
  3.734078536549933   7.902642821405458   8.336694537386743 
  4.978502743391132   1.439896206400864   8.335886561011012 
  8.710909850514543   7.903618872087001   8.336193390046189 
 -3.734078536549904   7.903905606261453   1.668531229918993 
  9.957401656953081   1.437948564813214   8.337570813648705 
  2.489654329708596   1.439896206400864   1.670070651833616 
  1.247516252232484   7.903063014812467   1.670128734804077 
  6.220640820867247   7.903063014812467   1.670128734804077 
  7.467786991163790   1.438754549447886   1.669342108498279 
  1.247516252232484   7.903063014812468   8.335828478040550 
 12.447069562346304   1.437948564813213   1.668386399195936 
 -2.488730605570268  10.060239888216975   8.337754846311942 
 -1.243691361421111   3.593754635157309   8.336155669828257 
  3.734078536549871   3.597761833334225   8.336573452846796 
  2.490120319384376  10.059732088666761   8.336783983580700 
  7.466738741406890  10.060026104001425   8.337070062009499 
  8.711848434520943   3.593754635157309   8.336155669828257 
 -4.979426467529554  10.060239888216975   1.668202366532700 
  0.001418331692844  10.060026104001425   1.668887150835129 
  1.245992832785866   3.595565859162920   1.671509227006029 
  4.978036753715434  10.059732088666761   1.669173229263914 
  6.222164240313981   3.595565859162920   1.671509227006029 
 11.202235609649694   3.593360410355791   1.668674914712068 
 -2.488479029945549   5.748453275909211   8.336781323391820 
 -3.734078536549902  12.217480907325079   8.337566386749105 
  1.245063488632826  12.216890792967211   8.337546860742357 
  2.491410573216249   5.748821505067026   8.325769233326387 
  6.223093584467016  12.216890792967211   8.337546860742357 
 -6.223857318710640  12.217422111284858   1.668449458934586 
  7.465498917953162   5.748351285367987   8.334717716146725 
 -1.244299754389180  12.217422111284858   1.668449458934586 
  0.002658155146689   5.748351285367987   1.671239496697889 
 -1.242752777414809   7.903618872087000   1.669763822798439 
  4.976746499883587   5.748821505067025   1.680187979518254 
  3.734078536549913  12.216688616616487   1.668434517680342 
  9.956636103045385   5.748453275909210   1.669175889452809 
 -3.734078536549904   7.903905606261454   8.337425982925621 
  2.489654329708596   1.439896206400864   8.335886561011012 
  6.220640820867248   7.903063014812468   8.335828478040550 
  7.467786991163790   1.438754549447886   8.336615104346349 
 12.447069562346304   1.437948564813214   8.337570813648705 
Generated by cif2cell 2.0.0.  :  Failed to get author information, No journal information. Species order: N C B 
 1.0
 14.936314146199660   0.000000000000000   0.000000000000000
 -7.468157073099825  12.935227489513863   0.000000000000000
  0.000000000000001   0.000000000000001  13.341276283792837
 N C B 
 141   3 143
Cartesian
  1.244754434578102   0.718925924986235   1.667044430764164 
  4.978703499774177   7.187133256295678   1.658315163586607 
  6.223402638521714   0.718925924986235   1.667044430764164 
  9.957428939770320   7.186088051565870   1.666319931066020 
 11.202235609649753   0.719200202426886   1.666189024976772 
 -3.734078536549866   9.341986004996691   8.339716003341637 
  1.244940224799821   9.342627125101872   8.340473754821929 
  2.489744947103178   2.874767044715056   8.340080499091878 
  6.223216848300018   9.342627125101872   8.340473754821929 
  7.468135042840204   2.874636257760617   8.339002385945532 
 12.446897469969080   2.874673388284183   8.339822995368770 
 -1.244437432958508   9.342101512440296   1.666517566642230 
  0.000022030259733   2.874636257760616   1.666954826899081 
  4.978412125996655   2.874767044715055   1.665876713752763 
  3.734078536549978   9.342801363225922   1.664842161195553 
  8.712594506058300   9.342101512440296   1.666517566642230 
  9.957573749330411   2.874673388284182   1.666134217475856 
 -4.978884420115287  11.498065609643655   8.339442428532450 
  0.000154567071178  11.498394689318932   8.339733321178153 
  1.244305157544453   5.029960784820060   8.343442649789374 
  6.223851915555472   5.029960784820060   8.343442649789374 
  4.978725317637644  11.498728470779083   8.339812432858754 
 11.202235609649739   5.030345677074300   8.339728209595581 
 -1.244719520417793   5.030276336040995   1.666272985977749 
 -2.489272652984414  11.498065609643655   1.666514784312164 
  2.489431755462315  11.498728470779083   1.666144779985875 
  3.734078536549910   5.030413365270894   1.652910317086432 
  7.468002506028660  11.498394689318932   1.666223891666488 
  8.712876593517731   5.030276336040995   1.666272985977749 
  0.000290724080892   7.186199967958371   8.339545941251322 
  1.244754434578102   0.718925924986236   8.338912782080463 
  4.978703499774178   7.187133256295679   8.347642049258020 
  6.223402638521715   0.718925924986236   8.338912782080463 
  9.957428939770320   7.186088051565870   8.339637281778593 
 -2.489271866670483   7.186088051565870   1.666319931066020 
 11.202235609649753   0.719200202426887   8.339768187867856 
  3.734078536549923   0.718752577004573   1.667987863412117 
  2.489453573325657   7.187133256295678   1.658315163586607 
  7.467866349018943   7.186199967958371   1.666411271593294 
  8.712804426698709   0.719106954721689   1.666552427902647 
  2.489453573325658   7.187133256295679   8.347642049258020 
 13.691666792600783   0.719106954721689   1.666552427902647 
 -1.244437432958507   9.342101512440296   8.339439646202397 
  0.000022030259734   2.874636257760617   8.339002385945532 
  4.978412125996656   2.874767044715056   8.340080499091878 
  3.734078536549978   9.342801363225922   8.341115051649076 
  8.712594506058300   9.342101512440296   8.339439646202397 
  9.957573749330411   2.874673388284183   8.339822995368770 
 -3.734078536549867   9.341986004996691   1.666241209502990 
  1.244940224799820   9.342627125101872   1.665483458022698 
  2.489744947103178   2.874767044715055   1.665876713752763 
  6.223216848300017   9.342627125101872   1.665483458022698 
  7.468135042840204   2.874636257760616   1.666954826899081 
 12.446897469969080   2.874673388284182   1.666134217475856 
 -1.244719520417792   5.030276336040996   8.339684226866865 
 -2.489272652984413  11.498065609643655   8.339442428532450 
  2.489431755462315  11.498728470779083   8.339812432858754 
  3.734078536549910   5.030413365270895   8.353046895758210 
  7.468002506028661  11.498394689318932   8.339733321178153 
 -4.978884420115288  11.498065609643655   1.666514784312164 
  8.712876593517731   5.030276336040996   8.339684226866865 
  0.000154567071178  11.498394689318932   1.666223891666488 
  1.244305157544452   5.029960784820060   1.662514563055254 
  0.000290724080892   7.186199967958371   1.666411271593294 
  6.223851915555471   5.029960784820060   1.662514563055254 
  4.978725317637643  11.498728470779083   1.666144779985875 
 11.202235609649739   5.030345677074299   1.666229003249034 
 -2.489271866670483   7.186088051565870   8.339637281778593 
  3.734078536549923   0.718752577004574   8.337969349432511 
  7.467866349018944   7.186199967958371   8.339545941251322 
  8.712804426698709   0.719106954721690   8.339404784941980 
 13.691666792600783   0.719106954721690   8.339404784941980 
  0.028383874085022   1.428204995655771   5.002978606422314 
  3.734078536549933   8.003009561486516   5.002978606422314 
  4.952357627802066   1.389161160721585   5.002978606422314 
  8.707571305627500   7.885842937400318   5.002978606422314 
  9.945982863902680   1.446014464028367   5.002978606422314 
 -4.978727320111886  10.060835150332293  11.673616748318732 
 -0.000089491301126  10.060840119644642  11.673616748318732 
  1.244721196581650   3.593139694878699  11.673616748318732 
  4.978811981195736  10.060760277830191  11.673616748318732 
  6.223435876518169   3.593139694878699  11.673616748318732 
 11.202235609649694   3.593257246412624  11.673616748318732 
 -2.489268344689795  10.029083034080214   5.002978606422314 
 -1.194241971838417   3.578665648607946   5.002978606422314 
  2.478109407989053  10.107535861894460   5.002978606422314 
  7.481510573124301  10.072358525439864   5.002978606422314 
  8.662399044938235   3.578665648607946   5.002978606422314 
 -6.223443635607824  12.216634976884999  11.673616748318732 
 -1.244713437492011  12.216634976884999  11.673616748318732 
 -0.000037133963714   5.749133542398165  11.673616748318732 
  4.978795014966420   5.749085440190918  11.673616748318732 
  3.734078536549914  12.216615434017456  11.673616748318732 
  9.957578537987164   5.749154257142822  11.673616748318732 
 -2.482992210124548   5.728737706500541   5.002978606422314 
 -3.734078536549902  12.159715430026257   5.002978606422314 
  1.231221463910479  12.234207472469301   5.002978606422314 
  6.236935609189376  12.234207472469301   5.002978606422314 
  7.455518850531079   5.726647570679494   5.002978606422314 
 -1.244814589261749   7.904997214901473  11.673616748318732 
  0.000033065530218   1.437241368531413  11.673616748318732 
  3.734078536549920   7.904919827116355  11.673616748318732 
  4.978777695144612   1.437184155042440  11.673616748318732 
  8.712971662361481   7.904997214901473  11.673616748318732 
 -3.734078536549904   7.878236383552092   5.002978606422314 
  9.957504284411074   1.437278649254017  11.673616748318732 
  2.515799445297661   1.389161160721585   5.002978606422314 
  1.228955898810409   7.952631647985846   5.002978606422314 
  6.239201174289340   7.952631647985846   5.002978606422314 
  7.439773199014810   1.428204995655771   5.002978606422314 
  1.244579429408931   7.904969878891428  11.673616748318732 
 12.458488355396693   1.446014464028367   5.002978606422314 
 -2.489429752987919  10.060835150332293  11.673616748318732 
 -1.244672998484249   3.593215008534458  11.673616748318732 
  3.734078536549873   3.593080984584768  11.673616748318732 
  2.489345091904089  10.060760277830191  11.673616748318732 
  7.468246564400861  10.060840119644642  11.673616748318732 
  8.712830071584097   3.593215008534458  11.673616748318732 
 -4.978888728410011  10.029083034080214   5.002978606422314 
 -0.013353500024553  10.072358525439864   5.002978606422314 
  1.376267205855285   3.540350017559950   5.002978606422314 
  4.990047665110788  10.107535861894460   5.002978606422314 
  6.091889867244547   3.540350017559950   5.002978606422314 
 11.202235609649687   3.584707464264154   5.002978606422314 
 -2.489421464887342   5.749154257142822  11.673616748318732 
 -3.734078536549902  12.216620272633845  11.673616748318732 
  1.244627558342777  12.216639341371385  11.673616748318732 
  2.489362058133415   5.749085440190918  11.673616748318732 
  6.223529514757063  12.216639341371385  11.673616748318732 
 -6.211859325593961  12.200057179913541   5.002978606422314 
  7.468194207063565   5.749133542398165  11.673616748318732 
 -1.256297747505874  12.200057179913541   5.002978606422314 
  0.012638222568771   5.726647570679494   5.002978606422314 
 -1.239414232527755   7.885842937400318   5.002978606422314 
  3.734078536549914  12.244467951541951   5.002978606422314 
  9.951149283224384   5.728737706500541   5.002978606422314 
 -3.734078536549911   7.904987724191236  11.673616748318732 
  2.489379377955116   1.437184155042440  11.673616748318732 
  6.223577643690788   7.904969878891428  11.673616748318732 
  7.468124007569615   1.437241368531413  11.673616748318732 
 12.446966934888296   1.437278649254017  11.673616748318732 
  2.510077959952655   5.790981624842979   5.002978606422314 
  3.734078536549910   5.224353072982669   5.002978606422314 
  4.958079113147165   5.790981624842979   5.002978606422314 
  1.261224674576287   0.699993560580819   5.002978606422314 
  4.969361233377083   7.270850636731589   5.002978606422314 
  6.206932398523530   0.699993560580819   5.002978606422314 
  9.950330954533687   7.165028817549783   5.002978606422314 
 11.202235609649744   0.739882694714900   5.002978606422314 
 -3.734078536549851   9.342070816553239  11.673616748318732 
  1.244916914286387   9.341465142848030  11.673616748318732 
  2.489717871799598   2.875265536408845  11.673616748318732 
  6.223240158813438   9.341465142848030  11.673616748318732 
  7.467532069916881   2.875061185436143  11.673616748318732 
 12.447192982450563   2.874841895315451  11.673616748318732 
 -1.240148389511337   9.321569870718275   5.002978606422314 
  0.088305187352337   2.863247543143881   5.002978606422314 
  4.785642886826584   2.815820846997392   5.002978606422314 
  3.734078536549971   9.408129889604046   5.002978606422314 
  8.708305462611175   9.321569870718275   5.002978606422314 
  9.931062102436375   2.880333338984884   5.002978606422314 
 -4.978783798344975  11.498066196417087  11.673616748318732 
 -0.000009643399501  11.497798427033176  11.673616748318732 
  1.245529962484605   5.030882300920867  11.673616748318732 
  6.222627110615352   5.030882300920867  11.673616748318732 
  4.978782771836393  11.497447385204593  11.673616748318732 
 11.202235609649746   5.030707757253615  11.673616748318732 
 -1.223352904628074   5.018622860031565   5.002978606422314 
 -2.486343693374308  11.459853856432545   5.002978606422314 
  2.482487289377186  11.530398986254662   5.002978606422314 
  7.476406059964879  11.501499218838378   5.002978606422314 
  8.691509977728012   5.018622860031565   5.002978606422314 
  0.000560899174956   7.186138704323126  11.673616748318732 
  1.244925300584676   0.718979477073941  11.673616748318732 
  4.978443990460849   7.185732439603781  11.673616748318732 
  6.223231772515156   0.718979477073941  11.673616748318732 
  9.957320166913956   7.186320416937489  11.673616748318732 
 -2.482173881433837   7.165028817549783   5.002978606422314 
 11.202235609649760   0.718557988829976  11.673616748318732 
  3.734078536549923   0.644627738623442   5.002978606422314 
  2.498795839722753   7.270850636731589   5.002978606422314 
  7.447103431744202   7.173972787096875   5.002978606422314 
  8.696042052224886   0.730833264558598   5.002978606422314 
  2.489713082638988   7.185732439603781  11.673616748318732 
 13.708429167074605   0.730833264558598   5.002978606422314 
 -1.244478835581885   9.341917760958136  11.673616748318732 
  0.000625003183043   2.875061185436143  11.673616748318732 
  4.978439201300236   2.875265536408845  11.673616748318732 
  3.734078536549980   9.341165036210253  11.673616748318732 
  8.712635908681722   9.341917760958136  11.673616748318732 
  9.957278236848916   2.874841895315451  11.673616748318732 
 -3.734078536549859   9.311590201058532   5.002978606422314 
  1.235688435555951   9.371567550960469   5.002978606422314 
  2.682514186273248   2.815820846997392   5.002978606422314 
  6.232468637543887   9.371567550960469   5.002978606422314 