Species order:X N B                     
   2.51242800000000     
     5.9449720136058266    0.0000000000000000    0.0000000000000000
    -2.9724860068029120    5.1484967885702053   -0.0000000000000001
     0.0000000000000000    0.0000000000000009    5.3101128803662583
   C    N    B 
     3   141   143
Direct
  0.3918974053861372  0.4476907444834289  0.3750000000000000
  0.4519428370014310  0.4038856740028627  0.3750000000000000
  0.5557933390972910  0.4476907444834289  0.3750000000000000
  0.1111269148900854  0.0555789162246308  0.1249538946127146
  0.6111411912369766  0.5556248053713809  0.1242995893579650
  0.4444520013345451  0.0555789162246308  0.1249538946127146
  0.9444310472240136  0.5555440024067134  0.1248995894860742
  0.7778000600689060  0.0556001201378111  0.1248897773746642
  0.1111063668022073  0.7222127336044080  0.6251063111160386
  0.4444810443482020  0.7222622974876637  0.6251631086415658
  0.2778123460454029  0.2222432537074075  0.6251336320216615
  0.7777812531394622  0.7222622974876637  0.6251631086415658
  0.6111150964512210  0.2222331427948196  0.6250528216761294
  0.9444492654914084  0.2222360132911907  0.6251143307406132
  0.2777945984151243  0.7222216632845158  0.1249144033293684
  0.1111180463436058  0.2222331427948196  0.1249471783238704
  0.4444309076620043  0.2222432537074075  0.1248663679783392
  0.6111378837674059  0.7222757675348036  0.1247888227319017
  0.9444270648693892  0.7222216632845158  0.1249144033293684
  0.7777867477997825  0.2222360132911907  0.1248856692593868
  0.1111068526363751  0.8888955079425344  0.6250858052211479
  0.4444708226685982  0.8889209485214145  0.6251076091804926
  0.2777361489634341  0.3888575433943990  0.6253856431955540
  0.6111213944309709  0.3888575433943990  0.6253856431955540
  0.7778036255709200  0.8889467525871274  0.6251135390240038
  0.9444436493734735  0.3888872987469467  0.6251072260400454
  0.1111058498134160  0.3888819381119400  0.1248960707006692
  0.2777886553061666  0.8888955079425344  0.1249141947788513
  0.6111431270162148  0.8889467525871274  0.1248864609759962
  0.4444462658020072  0.3888925316040152  0.1238944672103376
  0.9444501258528163  0.8889209485214145  0.1248923908195077
  0.7777760882985306  0.3888819381119400  0.1248960707006692
  0.2777957914796422  0.5555526544688886  0.6250935640529621
  0.1111269148900854  0.0555789162246308  0.6250461053872853
  0.6111411912369766  0.5556248053713809  0.6257004106420352
  0.4444520013345451  0.0555789162246308  0.6250461053872853
  0.9444310472240136  0.5555440024067134  0.6251004105139250
  0.1111129551826991  0.5555440024067134  0.1248995894860742
  0.7778000600689060  0.0556001201378111  0.6251102226253363
  0.2777827574964276  0.0555655149928545  0.1250246099346891
  0.4444836141344042  0.5556248053713809  0.1242995893579650
  0.7777568629892466  0.5555526544688886  0.1249064359470371
  0.6111267432672405  0.0555929113194678  0.1249170163672573
  0.4444836141344042  0.5556248053713809  0.6257004106420352
  0.9444661680522279  0.0555929113194678  0.1249170163672573
  0.2777945984151243  0.7222216632845158  0.6250855966706318
  0.1111180463436058  0.2222331427948196  0.6250528216761294
  0.4444309076620043  0.2222432537074075  0.6251336320216615
  0.6111378837674059  0.7222757675348036  0.6252111772680981
  0.9444270648693892  0.7222216632845158  0.6250855966706318
  0.7777867477997825  0.2222360132911907  0.6251143307406132
  0.1111063668022073  0.7222127336044080  0.1248936888839607
  0.4444810443482020  0.7222622974876637  0.1248368913584343
  0.2778123460454029  0.2222432537074075  0.1248663679783392
  0.7777812531394622  0.7222622974876637  0.1248368913584343
  0.6111150964512210  0.2222331427948196  0.1249471783238704
  0.9444492654914084  0.2222360132911907  0.1248856692593868
  0.1111058498134160  0.3888819381119400  0.6251039292993303
  0.2777886553061666  0.8888955079425344  0.6250858052211479
  0.6111431270162148  0.8889467525871274  0.6251135390240038
  0.4444462658020072  0.3888925316040152  0.6261055327896630
  0.9444501258528163  0.8889209485214145  0.6251076091804926
  0.1111068526363751  0.8888955079425344  0.1249141947788513
  0.7777760882985306  0.3888819381119400  0.6251039292993303
  0.4444708226685982  0.8889209485214145  0.1248923908195077
  0.2777361489634341  0.3888575433943990  0.1246143568044463
  0.2777957914796422  0.5555526544688886  0.1249064359470371
  0.6111213944309709  0.3888575433943990  0.1246143568044463
  0.7778036255709200  0.8889467525871274  0.1248864609759962
  0.9444436493734735  0.3888872987469467  0.1248927739599541
  0.1111129551826991  0.5555440024067134  0.6251004105139250
  0.2777827574964276  0.0555655149928545  0.6249753900653113
  0.7777568629892466  0.5555526544688886  0.6250935640529621
  0.6111267432672405  0.0555929113194678  0.6250829836327431
  0.9444661680522279  0.0555929113194678  0.6250829836327431
  0.0571063519711701  0.1104120508752986  0.3750000000000000
  0.5593493936606182  0.6186987873212344  0.3750000000000000
  0.3852617279984408  0.1073936397212751  0.3750000000000000
  0.8878003447521615  0.6096408388482613  0.3750000000000000
  0.7217871556822187  0.1117888699831990  0.3750000000000000
  0.0555624737188611  0.7777857141274287  0.8750000000000000
  0.3888870576230715  0.7777860982963470  0.8750000000000000
  0.2222249300708709  0.2777793972152037  0.8750000000000000
  0.7222260144145368  0.7777799258641638  0.8750000000000000
  0.5555544671443322  0.2777793972152037  0.8750000000000000
  0.8888942424601906  0.2777884849203894  0.8750000000000000
  0.2210066963275128  0.7753310130966340  0.3750000000000000
  0.0583746160659638  0.2766604338044337  0.3750000000000000
  0.5566097416887066  0.7813960651320815  0.3750000000000000
  0.8902323122699297  0.7786765662687551  0.3750000000000000
  0.7182858177384693  0.2766604338044337  0.3750000000000000
  0.0555581416382581  0.9444468593063857  0.8750000000000000
  0.3888887176681272  0.9444468593063857  0.8750000000000000
  0.2222252847561784  0.4444555418185559  0.8750000000000000
  0.5555608271379389  0.4444518231203507  0.8750000000000000
  0.7222226742405975  0.9444453484811954  0.8750000000000000
  0.8888976333789382  0.4444571432395344  0.8750000000000000
  0.0552007703353010  0.4428787751235634  0.3750000000000000
  0.2200232539351827  0.9400465078703648  0.3750000000000000
  0.5553340911467618  0.9458053584590722  0.3750000000000000
  0.8904712673123109  0.9458053584590722  0.3750000000000000
  0.7205124545238066  0.4427171903487501  0.3750000000000000
  0.2222193272193151  0.6111216228172083  0.8750000000000000
  0.0555575323617188  0.1111106371879837  0.8750000000000000
  0.5555578200508877  0.6111156401017758  0.8750000000000000
  0.3888868630559248  0.1111062141123931  0.8750000000000000
  0.8889022955978857  0.6111216228172083  0.8750000000000000
  0.0545263946822241  0.6090527893644473  0.3750000000000000
  0.7222208500617985  0.1111135192959824  0.8750000000000000
  0.2221319117228270  0.1073936397212751  0.3750000000000000
  0.3896818093519988  0.6148041582131252  0.3750000000000000
  0.7251223488611205  0.6148041582131252  0.3750000000000000
  0.5533056989041287  0.1104120508752986  0.3750000000000000
  0.3888854947792219  0.6111195095176885  0.8750000000000000
  0.8900017143009721  0.1117888699831990  0.3750000000000000
  0.2222232404085685  0.7777857141274287  0.8750000000000000
  0.0555606052354260  0.2777852195832933  0.8750000000000000
  0.3888874292121056  0.2777748584242183  0.8750000000000000
  0.5555539114496255  0.7777799258641638  0.8750000000000000
  0.8888990406732680  0.7777860982963470  0.8750000000000000
  0.7222246143478679  0.2777852195832933  0.8750000000000000
  0.0543243167691215  0.7753310130966340  0.3750000000000000
  0.3884442539988190  0.7786765662687551  0.3750000000000000
  0.2289915174547427  0.2736983188297217  0.3750000000000000
  0.7247863234433745  0.7813960651320815  0.3750000000000000
  0.5447068013749790  0.2736983188297217  0.3750000000000000
  0.8885637580463912  0.2771275160927897  0.3750000000000000
  0.0555595098605955  0.4444571432395344  0.8750000000000000
  0.2222228612731180  0.9444457225462352  0.8750000000000000
  0.5555525606554917  0.9444471967172579  0.8750000000000000
  0.3888909959824116  0.4444518231203507  0.8750000000000000
  0.8888946360617659  0.9444471967172579  0.8750000000000000
  0.0556929215076505  0.9431652585780730  0.3750000000000000
  0.7222302570623788  0.4444555418185559  0.8750000000000000
  0.3874723370704216  0.9431652585780730  0.3750000000000000
  0.2222047358249437  0.4427171903487501  0.3750000000000000
  0.2218404940960927  0.6096408388482613  0.3750000000000000
  0.7232992891492672  0.9465985782985350  0.3750000000000000
  0.8876780047882623  0.4428787751235634  0.3750000000000000
  0.0555604445534311  0.6111208891068619  0.8750000000000000
  0.2222193510564613  0.1111062141123931  0.8750000000000000
  0.7222340147384584  0.6111195095176885  0.8750000000000000
  0.5555531048262646  0.1111106371879837  0.8750000000000000
  0.8888926692341763  0.1111135192959824  0.8750000000000000
  0.1114977985135884  0.0541152879721886  0.3750000000000000
  0.6137517406236440  0.5620968508382096  0.3750000000000000
  0.4426174894586004  0.0541152879721886  0.3750000000000000
  0.9431418041432740  0.5539159495539003  0.3750000000000000
  0.7785995238705582  0.0571990477411163  0.3750000000000000
  0.1111096451193701  0.7222192902387323  0.8750000000000000
  0.4444345682715954  0.7221724666551730  0.8750000000000000
  0.2778298020929567  0.2222817912355788  0.8750000000000000
  0.7777378983835773  0.7221724666551730  0.8750000000000000
  0.6110911520689606  0.2222659932163427  0.8750000000000000
  0.9444755638175882  0.2222490402774886  0.8750000000000000
  0.2772881210235867  0.7206343976768051  0.3750000000000000
  0.1165884642019299  0.2213527010224610  0.3750000000000000
  0.4292463152605525  0.2176862254088749  0.3750000000000000
  0.6136631012957054  0.7273262025914033  0.3750000000000000
  0.9433462766532185  0.7206343976768051  0.3750000000000000
  0.7762305490879809  0.2226735742622129  0.3750000000000000
  0.1111136120378658  0.8888955533049704  0.8750000000000000
  0.4444367806246981  0.8888748525183684  0.8750000000000000
  0.2778537711888250  0.3889287842057075  0.8750000000000000
  0.6110750130168904  0.3889287842057075  0.8750000000000000
  0.7777579529306776  0.8888477140835113  0.8750000000000000
  0.9444576452687758  0.3889152905375519  0.8750000000000000
  0.1120859094275477  0.3879810280955624  0.3750000000000000
  0.2765077096722403  0.8859414235832072  0.3750000000000000
  0.6119023849187381  0.8913951452034338  0.3750000000000000
  0.9451327544310698  0.8891609543135013  0.3750000000000000
  0.7758951186680214  0.3879810280955624  0.3750000000000000
  0.2778115118585426  0.5555479182835150  0.8750000000000000
  0.1111404245362303  0.0555830562436413  0.8750000000000000
  0.6110696694949309  0.5555165106627618  0.8750000000000000
  0.4444426317074107  0.0555830562436413  0.8750000000000000
  0.9444327466629281  0.5555619661705360  0.8750000000000000
  0.1107741454106270  0.5539159495539003  0.3750000000000000
  0.7777752358593036  0.0555504717186062  0.8750000000000000
  0.2749175261566146  0.0498350523132292  0.3750000000000000
  0.4483451102145656  0.5620968508382096  0.3750000000000000
  0.7758941354673009  0.5546073923255361  0.3750000000000000
  0.6104577571817125  0.0564994519927117  0.3750000000000000
  0.4444468411678306  0.5555165106627618  0.8750000000000000
  0.9460416948109996  0.0564994519927117  0.3750000000000000
  0.2777847237171483  0.7222074577761622  0.8750000000000000
  0.1111748411473884  0.2222659932163427  0.8750000000000000
  0.4444519891426222  0.2222817912355788  0.8750000000000000
  0.6110746329657868  0.7221492659315661  0.8750000000000000
  0.9444227340590144  0.7222074577761622  0.8750000000000000
  0.7777734764599002  0.2222490402774886  0.8750000000000000
  0.1099314433629868  0.7198628867259671  0.3750000000000000
  0.4449802955920543  0.7244996316112465  0.3750000000000000
  0.2884399101483220  0.2176862254088749  0.3750000000000000
  0.7795193360191927  0.7244996316112465  0.3750000000000000
  0.6047642368205385  0.2213527010224610  0.3750000000000000
  0.9464430251742317  0.2226735742622129  0.3750000000000000
  0.1111673094924317  0.3889196605331477  0.8750000000000000
  0.2777819412671113  0.8888955533049704  0.8750000000000000
  0.6110897611528405  0.8888477140835113  0.8750000000000000
  0.4444671147257717  0.3889342294515433  0.8750000000000000
  0.9444380718936704  0.8888748525183684  0.8750000000000000
  0.1094337139109733  0.8859414235832072  0.3750000000000000
  0.7777523510407224  0.3889196605331477  0.8750000000000000
  0.4440281998824315  0.8891609543135013  0.3750000000000000
  0.2786335836857339  0.3862642398641987  0.3750000000000000
  0.2787132568582348  0.5546073923255361  0.3750000000000000
  0.6076306561784715  0.3862642398641987  0.3750000000000000
  0.7794927602847022  0.8913951452034338  0.3750000000000000
  0.9440183339389835  0.3880366678779664  0.3750000000000000
  0.1111292195076077  0.5555619661705360  0.8750000000000000
  0.2777968371905890  0.0555936743811776  0.8750000000000000
  0.7777364064249723  0.5555479182835150  0.8750000000000000
  0.6110983077124804  0.0555610944691286  0.8750000000000000
  0.9444627867566479  0.0555610944691286  0.8750000000000000
  0.0556385866167008  0.1112276185799002  0.1251261178457276
  0.5554698043699612  0.6109396087399205  0.1251201639145819
  0.3889732867757084  0.1113158780986375  0.1251807260646002
  0.8887109767481395  0.6110150655250701  0.1251577275876435
  0.7222398740638151  0.1111653093058404  0.1250544823228577
  0.0554926558139896  0.7777396954458251  0.6249593119093677
  0.3889565426936912  0.7777231681589472  0.6249079836640127
  0.2224038485631206  0.2779669597676364  0.6247114450334418
  0.7221343684597731  0.7777004383434177  0.6248865405559695
  0.5555631112045160  0.2779669597676364  0.6247114450334418
  0.8888982301729406  0.2777964603458887  0.6249238918963691
  0.2222470396318350  0.7777396954458251  0.1250406880906328
  0.0556471855407436  0.2778269371814794  0.1251605549196877
  0.3890683633608578  0.2781367267217223  0.1251292398483511
  0.5555660698836433  0.7777004383434177  0.1251134594440299
  0.8887666254652490  0.7777231681589472  0.1250920163359874
  0.7221797516407354  0.2778269371814794  0.1251605549196877
  0.0555608711707538  0.9445077113014904  0.6249407910125172
  0.3889468401307363  0.9445077113014904  0.6249407910125172
  0.2223754993795105  0.4443950668844417  0.6247316627624193
  0.5554134749815688  0.4444314187537401  0.6240609261229857
  0.7222255030504918  0.9444510061009849  0.6249419109394221
  0.8888074406692426  0.4444029515962729  0.6248863411605875
  0.0555955109270300  0.4444029515962729  0.1251136588394128
  0.2222561283606869  0.9445122567213734  0.1250548141426547
  0.5555914662335950  0.9444666360039677  0.1250562777212764
  0.3890179437721713  0.4444314187537401  0.1259390738770146
  0.8888751697703727  0.9444666360039677  0.1250562777212764
  0.7220195675049316  0.4443950668844417  0.1252683372375801
  0.2223040887769237  0.6110150655250701  0.6248422724123563
  0.0556385866167008  0.1112276185799002  0.6248738821542719
  0.5554698043699612  0.6109396087399205  0.6248798360854180
  0.3889732867757084  0.1113158780986375  0.6248192739354005
  0.8887109767481395  0.6110150655250701  0.6248422724123563
  0.0555186162233667  0.6110372324467331  0.1250653381600343
  0.7222398740638151  0.1111653093058404  0.6249455176771431
  0.2223425913229219  0.1113158780986375  0.1251807260646002
  0.3890084095971807  0.6109720931633559  0.1251850796938350
  0.7219636835661684  0.6109720931633559  0.1251850796938350
  0.5555890319631995  0.1112276185799002  0.1251261178457276
  0.3890084095971807  0.6109720931633559  0.6248149203061646
  0.8889254352420181  0.1111653093058404  0.1250544823228577
  0.2222470396318350  0.7777396954458251  0.6249593119093677
  0.0556471855407436  0.2778269371814794  0.6248394450803134
  0.3890683633608578  0.2781367267217223  0.6248707601516491
  0.5555660698836433  0.7777004383434177  0.6248865405559695
  0.8887666254652490  0.7777231681589472  0.6249079836640127
  0.7221797516407354  0.2778269371814794  0.6248394450803134
  0.0554926558139896  0.7777396954458251  0.1250406880906328
  0.3889565426936912  0.7777231681589472  0.1250920163359874
  0.2224038485631206  0.2779669597676364  0.1252885549665586
  0.7221343684597731  0.7777004383434177  0.1251134594440299
  0.5555631112045160  0.2779669597676364  0.1252885549665586
  0.8888982301729406  0.2777964603458887  0.1250761081036303
  0.0555955109270300  0.4444029515962729  0.6248863411605875
  0.2222561283606869  0.9445122567213734  0.6249451858573455
  0.5555914662335950  0.9444666360039677  0.6249437222787240
  0.3890179437721713  0.4444314187537401  0.6240609261229857
  0.8888751697703727  0.9444666360039677  0.6249437222787240
  0.0555608711707538  0.9445077113014904  0.1250592089874824
  0.7220195675049316  0.4443950668844417  0.6247316627624193
  0.3889468401307363  0.9445077113014904  0.1250592089874824
  0.2223754993795105  0.4443950668844417  0.1252683372375801
  0.2223040887769237  0.6110150655250701  0.1251577275876435
  0.5554134749815688  0.4444314187537401  0.1259390738770146
  0.7222255030504918  0.9444510061009849  0.1250580890605781
  0.8888074406692426  0.4444029515962729  0.1251136588394128
  0.0555186162233667  0.6110372324467331  0.6249346618399655
  0.2223425913229219  0.1113158780986375  0.6248192739354005
  0.7219636835661684  0.6109720931633559  0.6248149203061646
  0.5555890319631995  0.1112276185799002  0.6248738821542719
  0.8889254352420181  0.1111653093058404  0.6249455176771431
 
  0.00000000E+00  0.00000000E+00  0.00000000E+00
  0.00000000E+00  0.00000000E+00  0.00000000E+00
  0.00000000E+00  0.00000000E+00  0.00000000E+00
  0.00000000E+00  0.00000000E+00  0.00000000E+00
  0.00000000E+00  0.00000000E+00  0.00000000E+00
  0.00000000E+00  0.00000000E+00  0.00000000E+00
  0.00000000E+00  0.00000000E+00  0.00000000E+00
  0.00000000E+00  0.00000000E+00  0.00000000E+00
  0.00000000E+00  0.00000000E+00  0.00000000E+00
  0.00000000E+00  0.00000000E+00  0.00000000E+00
  0.00000000E+00  0.00000000E+00  0.00000000E+00
  0.00000000E+00  0.00000000E+00  0.00000000E+00
  0.00000000E+00  0.00000000E+00  0.00000000E+00
  0.00000000E+00  0.00000000E+00  0.00000000E+00
  0.00000000E+00  0.00000000E+00  0.00000000E+00
  0.00000000E+00  0.00000000E+00  0.00000000E+00
  0.00000000E+00  0.00000000E+00  0.00000000E+00
  0.00000000E+00  0.00000000E+00  0.00000000E+00
  0.00000000E+00  0.00000000E+00  0.00000000E+00
  0.00000000E+00  0.00000000E+00  0.00000000E+00
  0.00000000E+00  0.00000000E+00  0.00000000E+00
  0.00000000E+00  0.00000000E+00  0.00000000E+00
  0.00000000E+00  0.00000000E+00  0.00000000E+00
  0.00000000E+00  0.00000000E+00  0.00000000E+00
  0.00000000E+00  0.00000000E+00  0.00000000E+00
  0.00000000E+00  0.00000000E+00  0.00000000E+00
  0.00000000E+00  0.00000000E+00  0.00000000E+00
  0.00000000E+00  0.00000000E+00  0.00000000E+00
  0.00000000E+00  0.00000000E+00  0.00000000E+00
  0.00000000E+00  0.00000000E+00  0.00000000E+00
  0.00000000E+00  0.00000000E+00  0.00000000E+00
  0.00000000E+00  0.00000000E+00  0.00000000E+00
  0.00000000E+00  0.00000000E+00  0.00000000E+00
  0.00000000E+00  0.00000000E+00  0.00000000E+00
  0.00000000E+00  0.00000000E+00  0.00000000E+00
  0.00000000E+00  0.00000000E+00  0.00000000E+00
  0.00000000E+00  0.00000000E+00  0.00000000E+00
  0.00000000E+00  0.00000000E+00  0.00000000E+00
  0.00000000E+00  0.00000000E+00  0.00000000E+00
  0.00000000E+00  0.00000000E+00  0.00000000E+00
  0.00000000E+00  0.00000000E+00  0.00000000E+00
  0.00000000E+00  0.00000000E+00  0.00000000E+00
  0.00000000E+00  0.00000000E+00  0.00000000E+00
  0.00000000E+00  0.00000000E+00  0.00000000E+00
  0.00000000E+00  0.00000000E+00  0.00000000E+00
  0.00000000E+00  0.00000000E+00  0.00000000E+00
  0.00000000E+00  0.00000000E+00  0.00000000E+00
  0.00000000E+00  0.00000000E+00  0.00000000E+00
  0.00000000E+00  0.00000000E+00  0.00000000E+00
  0.00000000E+00  0.00000000E+00  0.00000000E+00
  0.00000000E+00  0.00000000E+00  0.00000000E+00
  0.00000000E+00  0.00000000E+00  0.00000000E+00
  0.00000000E+00  0.00000000E+00  0.00000000E+00
  0.00000000E+00  0.00000000E+00  0.00000000E+00
  0.00000000E+00  0.00000000E+00  0.00000000E+00
  0.00000000E+00  0.00000000E+00  0.00000000E+00
  0.00000000E+00  0.00000000E+00  0.00000000E+00
  0.00000000E+00  0.00000000E+00  0.00000000E+00
  0.00000000E+00  0.00000000E+00  0.00000000E+00
  0.00000000E+00  0.00000000E+00  0.00000000E+00
  0.00000000E+00  0.00000000E+00  0.00000000E+00
  0.00000000E+00  0.00000000E+00  0.00000000E+00
  0.00000000E+00  0.00000000E+00  0.00000000E+00
  0.00000000E+00  0.00000000E+00  0.00000000E+00
  0.00000000E+00  0.00000000E+00  0.00000000E+00
  0.00000000E+00  0.00000000E+00  0.00000000E+00
  0.00000000E+00  0.00000000E+00  0.00000000E+00
  0.00000000E+00  0.00000000E+00  0.00000000E+00
  0.00000000E+00  0.00000000E+00  0.00000000E+00
  0.00000000E+00  0.00000000E+00  0.00000000E+00
  0.00000000E+00  0.00000000E+00  0.00000000E+00
  0.00000000E+00  0.00000000E+00  0.00000000E+00
  0.00000000E+00  0.00000000E+00  0.00000000E+00
  0.00000000E+00  0.00000000E+00  0.00000000E+00
  0.00000000E+00  0.00000000E+00  0.00000000E+00
  0.00000000E+00  0.00000000E+00  0.00000000E+00
  0.00000000E+00  0.00000000E+00  0.00000000E+00
  0.00000000E+00  0.00000000E+00  0.00000000E+00
  0.00000000E+00  0.00000000E+00  0.00000000E+00
  0.00000000E+00  0.00000000E+00  0.00000000E+00
  0.00000000E+00  0.00000000E+00  0.00000000E+00
  0.00000000E+00  0.00000000E+00  0.00000000E+00
  0.00000000E+00  0.00000000E+00  0.00000000E+00
  0.00000000E+00  0.00000000E+00  0.00000000E+00
  0.00000000E+00  0.00000000E+00  0.00000000E+00
  0.00000000E+00  0.00000000E+00  0.00000000E+00
  0.00000000E+00  0.00000000E+00  0.00000000E+00
  0.00000000E+00  0.00000000E+00  0.00000000E+00
  0.00000000E+00  0.00000000E+00  0.00000000E+00
  0.00000000E+00  0.00000000E+00  0.00000000E+00
  0.00000000E+00  0.00000000E+00  0.00000000E+00
  0.00000000E+00  0.00000000E+00  0.00000000E+00
  0.00000000E+00  0.00000000E+00  0.00000000E+00
  0.00000000E+00  0.00000000E+00  0.00000000E+00
  0.00000000E+00  0.00000000E+00  0.00000000E+00
  0.00000000E+00  0.00000000E+00  0.00000000E+00
  0.00000000E+00  0.00000000E+00  0.00000000E+00
  0.00000000E+00  0.00000000E+00  0.00000000E+00
  0.00000000E+00  0.00000000E+00  0.00000000E+00
  0.00000000E+00  0.00000000E+00  0.00000000E+00
  0.00000000E+00  0.00000000E+00  0.00000000E+00
  0.00000000E+00  0.00000000E+00  0.00000000E+00
  0.00000000E+00  0.00000000E+00  0.00000000E+00
  0.00000000E+00  0.00000000E+00  0.00000000E+00
  0.00000000E+00  0.00000000E+00  0.00000000E+00
  0.00000000E+00  0.00000000E+00  0.00000000E+00
  0.00000000E+00  0.00000000E+00  0.00000000E+00
  0.00000000E+00  0.00000000E+00  0.00000000E+00
  0.00000000E+00  0.00000000E+00  0.00000000E+00
  0.00000000E+00  0.00000000E+00  0.00000000E+00
  0.00000000E+00  0.00000000E+00  0.00000000E+00
  0.00000000E+00  0.00000000E+00  0.00000000E+00
  0.00000000E+00  0.00000000E+00  0.00000000E+00
  0.00000000E+00  0.00000000E+00  0.00000000E+00
  0.00000000E+00  0.00000000E+00  0.00000000E+00
  0.00000000E+00  0.00000000E+00  0.00000000E+00
  0.00000000E+00  0.00000000E+00  0.00000000E+00
  0.00000000E+00  0.00000000E+00  0.00000000E+00
  0.00000000E+00  0.00000000E+00  0.00000000E+00
  0.00000000E+00  0.00000000E+00  0.00000000E+00
  0.00000000E+00  0.00000000E+00  0.00000000E+00
  0.00000000E+00  0.00000000E+00  0.00000000E+00
  0.00000000E+00  0.00000000E+00  0.00000000E+00
  0.00000000E+00  0.00000000E+00  0.00000000E+00
  0.00000000E+00  0.00000000E+00  0.00000000E+00
  0.00000000E+00  0.00000000E+00  0.00000000E+00
  0.00000000E+00  0.00000000E+00  0.00000000E+00
  0.00000000E+00  0.00000000E+00  0.00000000E+00
  0.00000000E+00  0.00000000E+00  0.00000000E+00
  0.00000000E+00  0.00000000E+00  0.00000000E+00
  0.00000000E+00  0.00000000E+00  0.00000000E+00
  0.00000000E+00  0.00000000E+00  0.00000000E+00
  0.00000000E+00  0.00000000E+00  0.00000000E+00
  0.00000000E+00  0.00000000E+00  0.00000000E+00
  0.00000000E+00  0.00000000E+00  0.00000000E+00
  0.00000000E+00  0.00000000E+00  0.00000000E+00
  0.00000000E+00  0.00000000E+00  0.00000000E+00
  0.00000000E+00  0.00000000E+00  0.00000000E+00
  0.00000000E+00  0.00000000E+00  0.00000000E+00
  0.00000000E+00  0.00000000E+00  0.00000000E+00
  0.00000000E+00  0.00000000E+00  0.00000000E+00
  0.00000000E+00  0.00000000E+00  0.00000000E+00
  0.00000000E+00  0.00000000E+00  0.00000000E+00
  0.00000000E+00  0.00000000E+00  0.00000000E+00
  0.00000000E+00  0.00000000E+00  0.00000000E+00
  0.00000000E+00  0.00000000E+00  0.00000000E+00
  0.00000000E+00  0.00000000E+00  0.00000000E+00
  0.00000000E+00  0.00000000E+00  0.00000000E+00
  0.00000000E+00  0.00000000E+00  0.00000000E+00
  0.00000000E+00  0.00000000E+00  0.00000000E+00
  0.00000000E+00  0.00000000E+00  0.00000000E+00
  0.00000000E+00  0.00000000E+00  0.00000000E+00
  0.00000000E+00  0.00000000E+00  0.00000000E+00
  0.00000000E+00  0.00000000E+00  0.00000000E+00
  0.00000000E+00  0.00000000E+00  0.00000000E+00
  0.00000000E+00  0.00000000E+00  0.00000000E+00
  0.00000000E+00  0.00000000E+00  0.00000000E+00
  0.00000000E+00  0.00000000E+00  0.00000000E+00
  0.00000000E+00  0.00000000E+00  0.00000000E+00
  0.00000000E+00  0.00000000E+00  0.00000000E+00
  0.00000000E+00  0.00000000E+00  0.00000000E+00
  0.00000000E+00  0.00000000E+00  0.00000000E+00
  0.00000000E+00  0.00000000E+00  0.00000000E+00
  0.00000000E+00  0.00000000E+00  0.00000000E+00
  0.00000000E+00  0.00000000E+00  0.00000000E+00
  0.00000000E+00  0.00000000E+00  0.00000000E+00
  0.00000000E+00  0.00000000E+00  0.00000000E+00
  0.00000000E+00  0.00000000E+00  0.00000000E+00
  0.00000000E+00  0.00000000E+00  0.00000000E+00
  0.00000000E+00  0.00000000E+00  0.00000000E+00
  0.00000000E+00  0.00000000E+00  0.00000000E+00
  0.00000000E+00  0.00000000E+00  0.00000000E+00
  0.00000000E+00  0.00000000E+00  0.00000000E+00
  0.00000000E+00  0.00000000E+00  0.00000000E+00
  0.00000000E+00  0.00000000E+00  0.00000000E+00
  0.00000000E+00  0.00000000E+00  0.00000000E+00
  0.00000000E+00  0.00000000E+00  0.00000000E+00
  0.00000000E+00  0.00000000E+00  0.00000000E+00
  0.00000000E+00  0.00000000E+00  0.00000000E+00
  0.00000000E+00  0.00000000E+00  0.00000000E+00
  0.00000000E+00  0.00000000E+00  0.00000000E+00
  0.00000000E+00  0.00000000E+00  0.00000000E+00
  0.00000000E+00  0.00000000E+00  0.00000000E+00
  0.00000000E+00  0.00000000E+00  0.00000000E+00
  0.00000000E+00  0.00000000E+00  0.00000000E+00
  0.00000000E+00  0.00000000E+00  0.00000000E+00
  0.00000000E+00  0.00000000E+00  0.00000000E+00
  0.00000000E+00  0.00000000E+00  0.00000000E+00
  0.00000000E+00  0.00000000E+00  0.00000000E+00
  0.00000000E+00  0.00000000E+00  0.00000000E+00
  0.00000000E+00  0.00000000E+00  0.00000000E+00
  0.00000000E+00  0.00000000E+00  0.00000000E+00
  0.00000000E+00  0.00000000E+00  0.00000000E+00
  0.00000000E+00  0.00000000E+00  0.00000000E+00
  0.00000000E+00  0.00000000E+00  0.00000000E+00
  0.00000000E+00  0.00000000E+00  0.00000000E+00
  0.00000000E+00  0.00000000E+00  0.00000000E+00
  0.00000000E+00  0.00000000E+00  0.00000000E+00
  0.00000000E+00  0.00000000E+00  0.00000000E+00
  0.00000000E+00  0.00000000E+00  0.00000000E+00
  0.00000000E+00  0.00000000E+00  0.00000000E+00
  0.00000000E+00  0.00000000E+00  0.00000000E+00
  0.00000000E+00  0.00000000E+00  0.00000000E+00
  0.00000000E+00  0.00000000E+00  0.00000000E+00
  0.00000000E+00  0.00000000E+00  0.00000000E+00
  0.00000000E+00  0.00000000E+00  0.00000000E+00
  0.00000000E+00  0.00000000E+00  0.00000000E+00
  0.00000000E+00  0.00000000E+00  0.00000000E+00
  0.00000000E+00  0.00000000E+00  0.00000000E+00
  0.00000000E+00  0.00000000E+00  0.00000000E+00
  0.00000000E+00  0.00000000E+00  0.00000000E+00
  0.00000000E+00  0.00000000E+00  0.00000000E+00
  0.00000000E+00  0.00000000E+00  0.00000000E+00
  0.00000000E+00  0.00000000E+00  0.00000000E+00
  0.00000000E+00  0.00000000E+00  0.00000000E+00
  0.00000000E+00  0.00000000E+00  0.00000000E+00
  0.00000000E+00  0.00000000E+00  0.00000000E+00
  0.00000000E+00  0.00000000E+00  0.00000000E+00
  0.00000000E+00  0.00000000E+00  0.00000000E+00
  0.00000000E+00  0.00000000E+00  0.00000000E+00
  0.00000000E+00  0.00000000E+00  0.00000000E+00
  0.00000000E+00  0.00000000E+00  0.00000000E+00
  0.00000000E+00  0.00000000E+00  0.00000000E+00
  0.00000000E+00  0.00000000E+00  0.00000000E+00
  0.00000000E+00  0.00000000E+00  0.00000000E+00
  0.00000000E+00  0.00000000E+00  0.00000000E+00
  0.00000000E+00  0.00000000E+00  0.00000000E+00
  0.00000000E+00  0.00000000E+00  0.00000000E+00
  0.00000000E+00  0.00000000E+00  0.00000000E+00
  0.00000000E+00  0.00000000E+00  0.00000000E+00
  0.00000000E+00  0.00000000E+00  0.00000000E+00
  0.00000000E+00  0.00000000E+00  0.00000000E+00
  0.00000000E+00  0.00000000E+00  0.00000000E+00
  0.00000000E+00  0.00000000E+00  0.00000000E+00
  0.00000000E+00  0.00000000E+00  0.00000000E+00
  0.00000000E+00  0.00000000E+00  0.00000000E+00
  0.00000000E+00  0.00000000E+00  0.00000000E+00
  0.00000000E+00  0.00000000E+00  0.00000000E+00
  0.00000000E+00  0.00000000E+00  0.00000000E+00
  0.00000000E+00  0.00000000E+00  0.00000000E+00
  0.00000000E+00  0.00000000E+00  0.00000000E+00
  0.00000000E+00  0.00000000E+00  0.00000000E+00
  0.00000000E+00  0.00000000E+00  0.00000000E+00
  0.00000000E+00  0.00000000E+00  0.00000000E+00
  0.00000000E+00  0.00000000E+00  0.00000000E+00
  0.00000000E+00  0.00000000E+00  0.00000000E+00
  0.00000000E+00  0.00000000E+00  0.00000000E+00
  0.00000000E+00  0.00000000E+00  0.00000000E+00