Species order: X N B                    
   2.51242800000000     
     5.9449720136058266    0.0000000000000000    0.0000000000000000
    -2.9724860068029120    5.1484967885702053   -0.0000000000000001
     0.0000000000000000    0.0000000000000009    5.3101128803662583
   C    N    B 
     1   143   144
Direct
  0.5555555555555571  0.4444444444444429  0.3750000000000000
  0.1111144086896668  0.0555480794227710  0.1249332937349425
  0.6111138171788434  0.5555609676910059  0.1253258857150910
  0.4444377758933705  0.0555560304516423  0.1249890164872815
  0.9444439695483564  0.5555622241066334  0.1249890164872815
  0.7777676602862870  0.0555504968098075  0.1249363484243410
  0.1111123817622642  0.7222228575477820  0.6250621079070625
  0.4444377758933705  0.7222150787750513  0.6250109835127136
  0.2777775729327226  0.2222128077466331  0.6250156018017435
  0.7777871922533715  0.7222224270672905  0.6250156018017435
  0.6111019014805811  0.2222128077466331  0.6250156018017435
  0.9444495031901965  0.2222323397137229  0.6250636515756657
  0.2777771424522035  0.7222228575477820  0.1249378920929340
  0.1111241677271827  0.2222287505302573  0.1249673423471945
  0.4444572725609482  0.2222478784552358  0.1251516783395269
  0.6111019014805811  0.7222224270672905  0.1249843981982642
  0.9444439695483564  0.7222150787750513  0.1249890164872815
  0.7777712494697261  0.2222287505302573  0.1249673423471945
  0.1111184247593727  0.8888815752406376  0.6250517266221731
  0.4444298171479293  0.8888815752406376  0.6250517266221731
  0.2777775729327226  0.3888980985194168  0.6250156018017435
  0.6111138171788434  0.3888861828211613  0.6246741142848986
  0.7777712494697261  0.8888758322728172  0.6250326576528077
  0.9444519205772401  0.3888996626002200  0.6250667062650570
  0.1111144086896668  0.3888996626002200  0.1249332937349425
  0.2777771424522035  0.8888876182377357  0.1249378920929340
  0.6111003373997719  0.8888855913103354  0.1249332937349425
  0.4444390323089874  0.3888861828211613  0.1253258857150910
  0.9444519205772401  0.8888855913103354  0.1249332937349425
  0.7777871922533715  0.3888980985194168  0.1249843981982642
  0.2777849212249440  0.5555622241066334  0.6250109835127136
  0.1111144086896668  0.0555480794227710  0.6250667062650570
  0.6111138171788434  0.5555609676910059  0.6246741142848986
  0.4444377758933705  0.0555560304516423  0.6250109835127136
  0.9444439695483564  0.5555622241066334  0.6250109835127136
  0.1111184247593727  0.5555701828520663  0.1249482733778234
  0.7777676602862870  0.0555504968098075  0.6250636515756657
  0.2777849212249440  0.0555560304516423  0.1249890164872815
  0.4444572725609482  0.5555427274390584  0.1251516783395269
  0.7777521215447679  0.5555427274390584  0.1251516783395269
  0.6111003373997719  0.0555480794227710  0.1249332937349425
  0.4444572725609482  0.5555427274390584  0.6248483216604683
  0.9444495031901965  0.0555504968098075  0.1249363484243410
  0.2777771424522035  0.7222228575477820  0.6250621079070625
  0.1111241677271827  0.2222287505302573  0.6250326576528077
  0.4444572725609482  0.2222478784552358  0.6248483216604683
  0.6111019014805811  0.7222224270672905  0.6250156018017435
  0.9444439695483564  0.7222150787750513  0.6250109835127136
  0.7777712494697261  0.2222287505302573  0.6250326576528077
  0.1111123817622642  0.7222228575477820  0.1249378920929340
  0.4444377758933705  0.7222150787750513  0.1249890164872815
  0.2777775729327226  0.2222128077466331  0.1249843981982642
  0.7777871922533715  0.7222224270672905  0.1249843981982642
  0.6111019014805811  0.2222128077466331  0.1249843981982642
  0.9444495031901965  0.2222323397137229  0.1249363484243410
  0.1111144086896668  0.3888996626002200  0.6250667062650570
  0.2777771424522035  0.8888876182377357  0.6250621079070625
  0.6111003373997719  0.8888855913103354  0.6250667062650570
  0.4444390323089874  0.3888861828211613  0.6246741142848986
  0.9444519205772401  0.8888855913103354  0.6250667062650570
  0.1111184247593727  0.8888815752406376  0.1249482733778234
  0.7777871922533715  0.3888980985194168  0.6250156018017435
  0.4444298171479293  0.8888815752406376  0.1249482733778234
  0.2777775729327226  0.3888980985194168  0.1249843981982642
  0.2777849212249440  0.5555622241066334  0.1249890164872815
  0.6111138171788434  0.3888861828211613  0.1253258857150910
  0.7777712494697261  0.8888758322728172  0.1249673423471945
  0.9444519205772401  0.3888996626002200  0.1249332937349425
  0.1111184247593727  0.5555701828520663  0.6250517266221731
  0.2777849212249440  0.0555560304516423  0.6250109835127136
  0.7777521215447679  0.5555427274390584  0.6248483216604683
  0.6111003373997719  0.0555480794227710  0.6250667062650570
  0.9444495031901965  0.0555504968098075  0.6250636515756657
  0.0552438551740864  0.1109338636122074  0.3750000000000000
  0.5561529503284692  0.6135340289516159  0.3750000000000000
  0.3889329931622363  0.1111993196578089  0.3750000000000000
  0.8888006803421846  0.6110670068377746  0.3750000000000000
  0.7223566751047859  0.1109338636122074  0.3750000000000000
  0.0555534561819424  0.7777769820756053  0.8750000000000000
  0.3888901925603251  0.7777769820756053  0.8750000000000000
  0.2222234204208451  0.2777783768770903  0.8750000000000000
  0.7222216231229102  0.7777765795791550  0.8750000000000000
  0.5555570528947795  0.2777760227719691  0.8750000000000000
  0.8888884209650241  0.2777756815644979  0.8750000000000000
  0.2222222222222214  0.7777777777777786  0.3750000000000000
  0.0552438551740864  0.2776433248952119  0.3750000000000000
  0.3864659710483750  0.2759522547101853  0.3750000000000000
  0.5555953226993982  0.7787913537418737  0.3750000000000000
  0.8898626977091365  0.7787913537418737  0.3750000000000000
  0.7226761012643848  0.2773238987356131  0.3750000000000000
  0.0555557921397843  0.9444442078602135  0.8750000000000000
  0.3888901925603251  0.9444465438180537  0.8750000000000000
  0.2222152615688145  0.4444452855114827  0.8750000000000000
  0.5555555555555571  0.4444444444444429  0.8750000000000000
  0.7222243184354969  0.9444460727338602  0.8750000000000000
  0.8888966906093273  0.4444452855114827  0.8750000000000000
  0.0555798548747914  0.4444930430829148  0.3750000000000000
  0.2222220313126085  0.9443942740334048  0.3750000000000000
  0.5555069569170802  0.9444201451252050  0.3750000000000000
  0.3864659710483750  0.4438470496715229  0.3750000000000000
  0.8890661363877844  0.9447561448259112  0.3750000000000000
  0.7240477452898113  0.4438470496715229  0.3750000000000000
  0.2222230179243912  0.6111098074396722  0.8750000000000000
  0.0555539272661303  0.1111115790349693  0.8750000000000000
  0.5555570528947795  0.6111143634561479  0.8750000000000000
  0.3888927578283456  0.1111188489900251  0.8750000000000000
  0.8888811510099660  0.6111072421716623  0.8750000000000000
  0.0556057259665920  0.6111610906125287  0.3750000000000000
  0.7222243184354969  0.1111115790349693  0.8750000000000000
  0.2212086462581277  0.1101373022908552  0.3750000000000000
  0.3889329931622363  0.6110670068377746  0.3750000000000000
  0.7240477452898113  0.6135340289516159  0.3750000000000000
  0.5555953226993982  0.1101373022908552  0.3750000000000000
  0.3888927578283456  0.6111072421716623  0.8750000000000000
  0.8888888888888857  0.1111111111111143  0.3750000000000000
  0.2222222222222214  0.7777777777777786  0.8750000000000000
  0.0555539272661303  0.2777756815644979  0.8750000000000000
  0.3888856365438678  0.2777760227719691  0.8750000000000000
  0.5555547144885137  0.7777847384311828  0.8750000000000000
  0.8888966906093273  0.7777847384311828  0.8750000000000000
  0.7222216231229102  0.2777783768770903  0.8750000000000000
  0.0556057259665920  0.7777779686873927  0.3750000000000000
  0.3888389093874583  0.7777779686873927  0.3750000000000000
  0.2213144641379074  0.2773238987356131  0.3750000000000000
  0.7226761012643848  0.7786855358621094  0.3750000000000000
  0.5561529503284692  0.2759522547101853  0.3750000000000000
  0.8890661363877844  0.2776433248952119  0.3750000000000000
  0.0555557921397843  0.4444449176128941  0.8750000000000000
  0.2222230179243912  0.9444465438180537  0.8750000000000000
  0.5555550823871018  0.9444442078602135  0.8750000000000000
  0.3888856365438678  0.4444429471052334  0.8750000000000000
  0.8888884209650241  0.9444460727338602  0.8750000000000000
  0.0555798548747914  0.9444201451252050  0.3750000000000000
  0.7222239772280341  0.4444429471052334  0.8750000000000000
  0.3888389093874583  0.9443942740334048  0.3750000000000000
  0.2212086462581277  0.4444046773006146  0.3750000000000000
  0.2222220313126085  0.6111610906125287  0.3750000000000000
  0.7223566751047859  0.9447561448259112  0.3750000000000000
  0.8898626977091365  0.4444046773006146  0.3750000000000000
  0.0555534561819424  0.6111098074396722  0.8750000000000000
  0.2222152615688145  0.1111033093906621  0.8750000000000000
  0.7222239772280341  0.6111143634561479  0.8750000000000000
  0.5555547144885137  0.1111033093906621  0.8750000000000000
  0.8888888888888857  0.1111111111111143  0.8750000000000000
  0.1103646283057291  0.0550585210643894  0.3750000000000000
  0.6148602791956590  0.5630538917246538  0.3750000000000000
  0.4445599299963482  0.0550753010752113  0.3750000000000000
  0.9449246989247929  0.5554400700036510  0.3750000000000000
  0.7779913989141354  0.0556623661237325  0.3750000000000000
  0.1113101037021195  0.7223217185177253  0.8750000000000000
  0.4443513022677696  0.7220487259962676  0.8750000000000000
  0.2776496497983754  0.2222948865367552  0.8750000000000000
  0.7777051134632449  0.7223503502016316  0.8750000000000000
  0.6113119034050348  0.2222948865367552  0.8750000000000000
  0.9443433389354614  0.2220200112042792  0.8750000000000000
  0.2777312403453075  0.7222687596546893  0.3750000000000000
  0.1100100650195465  0.2216716991764366  0.3750000000000000
  0.4439642205540689  0.2212617744414716  0.3750000000000000
  0.6117806497202067  0.7248371267778594  0.3750000000000000
  0.9449246989247929  0.7228179622544743  0.3750000000000000
  0.7783283008235515  0.2216716991764366  0.3750000000000000
  0.1110127618760229  0.8889872381239785  0.8750000000000000
  0.4446411429146274  0.8889872381239785  0.8750000000000000
  0.2776496497983754  0.3886880965949520  0.8750000000000000
  0.6110444859080426  0.3889555140919579  0.8750000000000000
  0.7776943592902940  0.8887220519139113  0.8750000000000000
  0.9446479294294204  0.3889812461924762  0.8750000000000000
  0.1103646283057291  0.3886394405746687  0.3750000000000000
  0.2777312403453075  0.8887958140239436  0.3750000000000000
  0.6113605594253230  0.8896353716942680  0.3750000000000000
  0.4369461082753534  0.3851397208043374  0.3750000000000000
  0.9449414789356115  0.8896353716942680  0.3750000000000000
  0.7797231437243257  0.3882193502798031  0.3750000000000000
  0.2779512740037273  0.5556486977322356  0.8750000000000000
  0.1109999834297257  0.0553520705705762  0.8750000000000000
  0.6110444859080429  0.5554223051494128  0.8750000000000000
  0.4443513022677696  0.0556359096048412  0.8750000000000000
  0.9443640903951761  0.5556486977322356  0.8750000000000000
  0.1110896762245077  0.5555126857823398  0.3750000000000000
  0.7779799887957191  0.0556566610645298  0.8750000000000000
  0.2771820377455254  0.0550753010752113  0.3750000000000000
  0.4439642205540689  0.5560357794459295  0.3750000000000000
  0.7787382255585266  0.5560357794459295  0.3750000000000000
  0.6113605594253230  0.0550585210643894  0.3750000000000000
  0.4443372744737592  0.5556627255262484  0.8750000000000000
  0.9443376338762766  0.0556623661237325  0.3750000000000000
  0.2776782814822734  0.7223217185177253  0.8750000000000000
  0.1112779480860924  0.2223056407097107  0.8750000000000000
  0.4443372744737592  0.2220078822808420  0.8750000000000000
  0.6113119034050348  0.7223503502016316  0.8750000000000000
  0.9443640903951761  0.7220487259962676  0.8750000000000000
  0.7776943592902940  0.2223056407097107  0.8750000000000000
  0.1112041859760490  0.7222687596546893  0.3750000000000000
  0.4445599299963482  0.7228179622544743  0.3750000000000000
  0.2751628732221453  0.2202768562756661  0.3750000000000000
  0.7797231437243257  0.7248371267778594  0.3750000000000000
  0.6117806497202067  0.2202768562756661  0.3750000000000000
  0.9443376338762766  0.2220086010858706  0.3750000000000000
  0.1109999834297257  0.3889812461924762  0.8750000000000000
  0.2776782814822734  0.8886898962978753  0.8750000000000000
  0.6110187538075157  0.8890000165702689  0.8750000000000000
  0.4445776948505856  0.3889555140919579  0.8750000000000000
  0.9446479294294204  0.8890000165702689  0.8750000000000000
  0.1110896762245077  0.8889103237754866  0.3750000000000000
  0.7777051134632449  0.3886880965949520  0.8750000000000000
  0.4444873142176587  0.8889103237754866  0.3750000000000000
  0.2751628732221453  0.3882193502798031  0.3750000000000000
  0.2771820377455254  0.5554400700036510  0.3750000000000000
  0.6148602791956590  0.3851397208043374  0.3750000000000000
  0.7783283008235515  0.8899899349804511  0.3750000000000000
  0.9449414789356115  0.3886394405746687  0.3750000000000000
  0.1110127618760229  0.5553588570853752  0.8750000000000000
  0.2779512740037273  0.0556359096048412  0.8750000000000000
  0.7779921177191459  0.5556627255262484  0.8750000000000000
  0.6110187538075157  0.0553520705705762  0.8750000000000000
  0.9443433389354614  0.0556566610645298  0.8750000000000000
  0.0555269288867372  0.1110788765135279  0.1250868199952363
  0.5555444455021833  0.6112591465193737  0.1250181199215798
  0.3888084190453708  0.1109501714240907  0.1250013814612323
  0.8890498285759155  0.6111915809546322  0.1250013814612323
  0.7222186142934409  0.1110788765135279  0.1250868199952363
  0.0556247284210003  0.7778040795579111  0.6249118617594418
  0.3888460178035828  0.7778040795579111  0.6249118617594418
  0.2221265787804264  0.2777299560568831  0.6250342155933716
  0.7222700439431141  0.7778734212195696  0.6250342155933716
  0.5555444455021833  0.2776186323161439  0.6249818800784204
  0.8889211234864736  0.2777813857065379  0.6249131800047507
  0.2222222222222214  0.7777777777777786  0.1250181193573469
  0.0555269288867372  0.2777813857065379  0.1250868199952363
  0.3887408534806224  0.2776186323161439  0.1250181199215798
  0.5555393998093109  0.7778573836564497  0.1250543675276500
  0.8889846505137882  0.7778573836564497  0.1250543675276500
  0.7222700439431141  0.2777299560568831  0.1249657844066340
  0.0555664976920670  0.9444335023079401  0.6249743943619404
  0.3888460178035828  0.9443752715790035  0.6249118617594418
  0.2221426163435598  0.4444606001906859  0.6249456324723571
  0.5555555555555571  0.4444444444444429  0.6253047189762603
  0.7222186142934409  0.9444730711132621  0.6249131800047507
  0.8889846505137882  0.4444606001906859  0.6249456324723571
  0.0555664976920670  0.4444663287174594  0.1250256056380587
  0.2221959204420801  0.9443752715790035  0.1250881382405661
  0.5555336712825237  0.9444335023079401  0.1250256056380587
  0.3887408534806224  0.4444555544978121  0.1250181199215798
  0.8889211234864736  0.9444730711132621  0.1250868199952363
  0.7223813676838591  0.4444555544978121  0.1250181199215798
  0.2221959204420801  0.6111539821964099  0.6249118617594418
  0.0555269288867372  0.1110788765135279  0.6249131800047507
  0.5555444455021833  0.6112591465193737  0.6249818800784204
  0.3888084190453708  0.1109501714240907  0.6249986185387806
  0.8890498285759155  0.6111915809546322  0.6249986185387806
  0.0556247284210003  0.6111539821964099  0.1250881382405661
  0.7222186142934409  0.1110788765135279  0.6249131800047507
  0.2221426163435598  0.1110153494862133  0.1250543675276500
  0.3888084190453708  0.6111915809546322  0.1250013814612323
  0.7223813676838591  0.6112591465193737  0.1250181199215798
  0.5555393998093109  0.1110153494862133  0.1250543675276500
  0.3888084190453708  0.6111915809546322  0.6249986185387806
  0.8888888888888857  0.1111111111111143  0.1250273816427370
  0.2222222222222214  0.7777777777777786  0.6249818806426469
  0.0555269288867372  0.2777813857065379  0.6249131800047507
  0.3887408534806224  0.2776186323161439  0.6249818800784204
  0.5555393998093109  0.7778573836564497  0.6249456324723571
  0.8889846505137882  0.7778573836564497  0.6249456324723571
  0.7222700439431141  0.2777299560568831  0.6250342155933716
  0.0556247284210003  0.7778040795579111  0.1250881382405661
  0.3888460178035828  0.7778040795579111  0.1250881382405661
  0.2221265787804264  0.2777299560568831  0.1249657844066340
  0.7222700439431141  0.7778734212195696  0.1249657844066340
  0.5555444455021833  0.2776186323161439  0.1250181199215798
  0.8889211234864736  0.2777813857065379  0.1250868199952363
  0.0555664976920670  0.4444663287174594  0.6249743943619404
  0.2221959204420801  0.9443752715790035  0.6249118617594418
  0.5555336712825237  0.9444335023079401  0.6249743943619404
  0.3887408534806224  0.4444555544978121  0.6249818800784204
  0.8889211234864736  0.9444730711132621  0.6249131800047507
  0.0555664976920670  0.9444335023079401  0.1250256056380587
  0.7223813676838591  0.4444555544978121  0.6249818800784204
  0.3888460178035828  0.9443752715790035  0.1250881382405661
  0.2221426163435598  0.4444606001906859  0.1250543675276500
  0.2221959204420801  0.6111539821964099  0.1250881382405661
  0.5555555555555571  0.4444444444444429  0.1246952810237327
  0.7222186142934409  0.9444730711132621  0.1250868199952363
  0.8889846505137882  0.4444606001906859  0.1250543675276500
  0.0556247284210003  0.6111539821964099  0.6249118617594418
  0.2221426163435598  0.1110153494862133  0.6249456324723571
  0.7223813676838591  0.6112591465193737  0.6249818800784204
  0.5555393998093109  0.1110153494862133  0.6249456324723571
  0.8888888888888857  0.1111111111111143  0.6249726183572684
 
  0.00000000E+00  0.00000000E+00  0.00000000E+00
  0.00000000E+00  0.00000000E+00  0.00000000E+00
  0.00000000E+00  0.00000000E+00  0.00000000E+00
  0.00000000E+00  0.00000000E+00  0.00000000E+00
  0.00000000E+00  0.00000000E+00  0.00000000E+00
  0.00000000E+00  0.00000000E+00  0.00000000E+00
  0.00000000E+00  0.00000000E+00  0.00000000E+00
  0.00000000E+00  0.00000000E+00  0.00000000E+00
  0.00000000E+00  0.00000000E+00  0.00000000E+00
  0.00000000E+00  0.00000000E+00  0.00000000E+00
  0.00000000E+00  0.00000000E+00  0.00000000E+00
  0.00000000E+00  0.00000000E+00  0.00000000E+00
  0.00000000E+00  0.00000000E+00  0.00000000E+00
  0.00000000E+00  0.00000000E+00  0.00000000E+00
  0.00000000E+00  0.00000000E+00  0.00000000E+00
  0.00000000E+00  0.00000000E+00  0.00000000E+00
  0.00000000E+00  0.00000000E+00  0.00000000E+00
  0.00000000E+00  0.00000000E+00  0.00000000E+00
  0.00000000E+00  0.00000000E+00  0.00000000E+00
  0.00000000E+00  0.00000000E+00  0.00000000E+00
  0.00000000E+00  0.00000000E+00  0.00000000E+00
  0.00000000E+00  0.00000000E+00  0.00000000E+00
  0.00000000E+00  0.00000000E+00  0.00000000E+00
  0.00000000E+00  0.00000000E+00  0.00000000E+00
  0.00000000E+00  0.00000000E+00  0.00000000E+00
  0.00000000E+00  0.00000000E+00  0.00000000E+00
  0.00000000E+00  0.00000000E+00  0.00000000E+00
  0.00000000E+00  0.00000000E+00  0.00000000E+00
  0.00000000E+00  0.00000000E+00  0.00000000E+00
  0.00000000E+00  0.00000000E+00  0.00000000E+00
  0.00000000E+00  0.00000000E+00  0.00000000E+00
  0.00000000E+00  0.00000000E+00  0.00000000E+00
  0.00000000E+00  0.00000000E+00  0.00000000E+00
  0.00000000E+00  0.00000000E+00  0.00000000E+00
  0.00000000E+00  0.00000000E+00  0.00000000E+00
  0.00000000E+00  0.00000000E+00  0.00000000E+00
  0.00000000E+00  0.00000000E+00  0.00000000E+00
  0.00000000E+00  0.00000000E+00  0.00000000E+00
  0.00000000E+00  0.00000000E+00  0.00000000E+00
  0.00000000E+00  0.00000000E+00  0.00000000E+00
  0.00000000E+00  0.00000000E+00  0.00000000E+00
  0.00000000E+00  0.00000000E+00  0.00000000E+00
  0.00000000E+00  0.00000000E+00  0.00000000E+00
  0.00000000E+00  0.00000000E+00  0.00000000E+00
  0.00000000E+00  0.00000000E+00  0.00000000E+00
  0.00000000E+00  0.00000000E+00  0.00000000E+00
  0.00000000E+00  0.00000000E+00  0.00000000E+00
  0.00000000E+00  0.00000000E+00  0.00000000E+00
  0.00000000E+00  0.00000000E+00  0.00000000E+00
  0.00000000E+00  0.00000000E+00  0.00000000E+00
  0.00000000E+00  0.00000000E+00  0.00000000E+00
  0.00000000E+00  0.00000000E+00  0.00000000E+00
  0.00000000E+00  0.00000000E+00  0.00000000E+00
  0.00000000E+00  0.00000000E+00  0.00000000E+00
  0.00000000E+00  0.00000000E+00  0.00000000E+00
  0.00000000E+00  0.00000000E+00  0.00000000E+00
  0.00000000E+00  0.00000000E+00  0.00000000E+00
  0.00000000E+00  0.00000000E+00  0.00000000E+00
  0.00000000E+00  0.00000000E+00  0.00000000E+00
  0.00000000E+00  0.00000000E+00  0.00000000E+00
  0.00000000E+00  0.00000000E+00  0.00000000E+00
  0.00000000E+00  0.00000000E+00  0.00000000E+00
  0.00000000E+00  0.00000000E+00  0.00000000E+00
  0.00000000E+00  0.00000000E+00  0.00000000E+00
  0.00000000E+00  0.00000000E+00  0.00000000E+00
  0.00000000E+00  0.00000000E+00  0.00000000E+00
  0.00000000E+00  0.00000000E+00  0.00000000E+00
  0.00000000E+00  0.00000000E+00  0.00000000E+00
  0.00000000E+00  0.00000000E+00  0.00000000E+00
  0.00000000E+00  0.00000000E+00  0.00000000E+00
  0.00000000E+00  0.00000000E+00  0.00000000E+00
  0.00000000E+00  0.00000000E+00  0.00000000E+00
  0.00000000E+00  0.00000000E+00  0.00000000E+00
  0.00000000E+00  0.00000000E+00  0.00000000E+00
  0.00000000E+00  0.00000000E+00  0.00000000E+00
  0.00000000E+00  0.00000000E+00  0.00000000E+00
  0.00000000E+00  0.00000000E+00  0.00000000E+00
  0.00000000E+00  0.00000000E+00  0.00000000E+00
  0.00000000E+00  0.00000000E+00  0.00000000E+00
  0.00000000E+00  0.00000000E+00  0.00000000E+00
  0.00000000E+00  0.00000000E+00  0.00000000E+00
  0.00000000E+00  0.00000000E+00  0.00000000E+00
  0.00000000E+00  0.00000000E+00  0.00000000E+00
  0.00000000E+00  0.00000000E+00  0.00000000E+00
  0.00000000E+00  0.00000000E+00  0.00000000E+00
  0.00000000E+00  0.00000000E+00  0.00000000E+00
  0.00000000E+00  0.00000000E+00  0.00000000E+00
  0.00000000E+00  0.00000000E+00  0.00000000E+00
  0.00000000E+00  0.00000000E+00  0.00000000E+00
  0.00000000E+00  0.00000000E+00  0.00000000E+00
  0.00000000E+00  0.00000000E+00  0.00000000E+00
  0.00000000E+00  0.00000000E+00  0.00000000E+00
  0.00000000E+00  0.00000000E+00  0.00000000E+00
  0.00000000E+00  0.00000000E+00  0.00000000E+00
  0.00000000E+00  0.00000000E+00  0.00000000E+00
  0.00000000E+00  0.00000000E+00  0.00000000E+00
  0.00000000E+00  0.00000000E+00  0.00000000E+00
  0.00000000E+00  0.00000000E+00  0.00000000E+00
  0.00000000E+00  0.00000000E+00  0.00000000E+00
  0.00000000E+00  0.00000000E+00  0.00000000E+00
  0.00000000E+00  0.00000000E+00  0.00000000E+00
  0.00000000E+00  0.00000000E+00  0.00000000E+00
  0.00000000E+00  0.00000000E+00  0.00000000E+00
  0.00000000E+00  0.00000000E+00  0.00000000E+00
  0.00000000E+00  0.00000000E+00  0.00000000E+00
  0.00000000E+00  0.00000000E+00  0.00000000E+00
  0.00000000E+00  0.00000000E+00  0.00000000E+00
  0.00000000E+00  0.00000000E+00  0.00000000E+00
  0.00000000E+00  0.00000000E+00  0.00000000E+00
  0.00000000E+00  0.00000000E+00  0.00000000E+00
  0.00000000E+00  0.00000000E+00  0.00000000E+00
  0.00000000E+00  0.00000000E+00  0.00000000E+00
  0.00000000E+00  0.00000000E+00  0.00000000E+00
  0.00000000E+00  0.00000000E+00  0.00000000E+00
  0.00000000E+00  0.00000000E+00  0.00000000E+00
  0.00000000E+00  0.00000000E+00  0.00000000E+00
  0.00000000E+00  0.00000000E+00  0.00000000E+00
  0.00000000E+00  0.00000000E+00  0.00000000E+00
  0.00000000E+00  0.00000000E+00  0.00000000E+00
  0.00000000E+00  0.00000000E+00  0.00000000E+00
  0.00000000E+00  0.00000000E+00  0.00000000E+00
  0.00000000E+00  0.00000000E+00  0.00000000E+00
  0.00000000E+00  0.00000000E+00  0.00000000E+00
  0.00000000E+00  0.00000000E+00  0.00000000E+00
  0.00000000E+00  0.00000000E+00  0.00000000E+00
  0.00000000E+00  0.00000000E+00  0.00000000E+00
  0.00000000E+00  0.00000000E+00  0.00000000E+00
  0.00000000E+00  0.00000000E+00  0.00000000E+00
  0.00000000E+00  0.00000000E+00  0.00000000E+00
  0.00000000E+00  0.00000000E+00  0.00000000E+00
  0.00000000E+00  0.00000000E+00  0.00000000E+00
  0.00000000E+00  0.00000000E+00  0.00000000E+00
  0.00000000E+00  0.00000000E+00  0.00000000E+00
  0.00000000E+00  0.00000000E+00  0.00000000E+00
  0.00000000E+00  0.00000000E+00  0.00000000E+00
  0.00000000E+00  0.00000000E+00  0.00000000E+00
  0.00000000E+00  0.00000000E+00  0.00000000E+00
  0.00000000E+00  0.00000000E+00  0.00000000E+00
  0.00000000E+00  0.00000000E+00  0.00000000E+00
  0.00000000E+00  0.00000000E+00  0.00000000E+00
  0.00000000E+00  0.00000000E+00  0.00000000E+00
  0.00000000E+00  0.00000000E+00  0.00000000E+00
  0.00000000E+00  0.00000000E+00  0.00000000E+00
  0.00000000E+00  0.00000000E+00  0.00000000E+00
  0.00000000E+00  0.00000000E+00  0.00000000E+00
  0.00000000E+00  0.00000000E+00  0.00000000E+00
  0.00000000E+00  0.00000000E+00  0.00000000E+00
  0.00000000E+00  0.00000000E+00  0.00000000E+00
  0.00000000E+00  0.00000000E+00  0.00000000E+00
  0.00000000E+00  0.00000000E+00  0.00000000E+00
  0.00000000E+00  0.00000000E+00  0.00000000E+00
  0.00000000E+00  0.00000000E+00  0.00000000E+00
  0.00000000E+00  0.00000000E+00  0.00000000E+00
  0.00000000E+00  0.00000000E+00  0.00000000E+00
  0.00000000E+00  0.00000000E+00  0.00000000E+00
  0.00000000E+00  0.00000000E+00  0.00000000E+00
  0.00000000E+00  0.00000000E+00  0.00000000E+00
  0.00000000E+00  0.00000000E+00  0.00000000E+00
  0.00000000E+00  0.00000000E+00  0.00000000E+00
  0.00000000E+00  0.00000000E+00  0.00000000E+00
  0.00000000E+00  0.00000000E+00  0.00000000E+00
  0.00000000E+00  0.00000000E+00  0.00000000E+00
  0.00000000E+00  0.00000000E+00  0.00000000E+00
  0.00000000E+00  0.00000000E+00  0.00000000E+00
  0.00000000E+00  0.00000000E+00  0.00000000E+00
  0.00000000E+00  0.00000000E+00  0.00000000E+00
  0.00000000E+00  0.00000000E+00  0.00000000E+00
  0.00000000E+00  0.00000000E+00  0.00000000E+00
  0.00000000E+00  0.00000000E+00  0.00000000E+00
  0.00000000E+00  0.00000000E+00  0.00000000E+00
  0.00000000E+00  0.00000000E+00  0.00000000E+00
  0.00000000E+00  0.00000000E+00  0.00000000E+00
  0.00000000E+00  0.00000000E+00  0.00000000E+00
  0.00000000E+00  0.00000000E+00  0.00000000E+00
  0.00000000E+00  0.00000000E+00  0.00000000E+00
  0.00000000E+00  0.00000000E+00  0.00000000E+00
  0.00000000E+00  0.00000000E+00  0.00000000E+00
  0.00000000E+00  0.00000000E+00  0.00000000E+00
  0.00000000E+00  0.00000000E+00  0.00000000E+00
  0.00000000E+00  0.00000000E+00  0.00000000E+00
  0.00000000E+00  0.00000000E+00  0.00000000E+00
  0.00000000E+00  0.00000000E+00  0.00000000E+00
  0.00000000E+00  0.00000000E+00  0.00000000E+00
  0.00000000E+00  0.00000000E+00  0.00000000E+00
  0.00000000E+00  0.00000000E+00  0.00000000E+00
  0.00000000E+00  0.00000000E+00  0.00000000E+00
  0.00000000E+00  0.00000000E+00  0.00000000E+00
  0.00000000E+00  0.00000000E+00  0.00000000E+00
  0.00000000E+00  0.00000000E+00  0.00000000E+00
  0.00000000E+00  0.00000000E+00  0.00000000E+00
  0.00000000E+00  0.00000000E+00  0.00000000E+00
  0.00000000E+00  0.00000000E+00  0.00000000E+00
  0.00000000E+00  0.00000000E+00  0.00000000E+00
  0.00000000E+00  0.00000000E+00  0.00000000E+00
  0.00000000E+00  0.00000000E+00  0.00000000E+00
  0.00000000E+00  0.00000000E+00  0.00000000E+00
  0.00000000E+00  0.00000000E+00  0.00000000E+00
  0.00000000E+00  0.00000000E+00  0.00000000E+00
  0.00000000E+00  0.00000000E+00  0.00000000E+00
  0.00000000E+00  0.00000000E+00  0.00000000E+00
  0.00000000E+00  0.00000000E+00  0.00000000E+00
  0.00000000E+00  0.00000000E+00  0.00000000E+00
  0.00000000E+00  0.00000000E+00  0.00000000E+00
  0.00000000E+00  0.00000000E+00  0.00000000E+00
  0.00000000E+00  0.00000000E+00  0.00000000E+00
  0.00000000E+00  0.00000000E+00  0.00000000E+00
  0.00000000E+00  0.00000000E+00  0.00000000E+00
  0.00000000E+00  0.00000000E+00  0.00000000E+00
  0.00000000E+00  0.00000000E+00  0.00000000E+00
  0.00000000E+00  0.00000000E+00  0.00000000E+00
  0.00000000E+00  0.00000000E+00  0.00000000E+00
  0.00000000E+00  0.00000000E+00  0.00000000E+00
  0.00000000E+00  0.00000000E+00  0.00000000E+00
  0.00000000E+00  0.00000000E+00  0.00000000E+00
  0.00000000E+00  0.00000000E+00  0.00000000E+00
  0.00000000E+00  0.00000000E+00  0.00000000E+00
  0.00000000E+00  0.00000000E+00  0.00000000E+00
  0.00000000E+00  0.00000000E+00  0.00000000E+00
  0.00000000E+00  0.00000000E+00  0.00000000E+00
  0.00000000E+00  0.00000000E+00  0.00000000E+00
  0.00000000E+00  0.00000000E+00  0.00000000E+00
  0.00000000E+00  0.00000000E+00  0.00000000E+00
  0.00000000E+00  0.00000000E+00  0.00000000E+00
  0.00000000E+00  0.00000000E+00  0.00000000E+00
  0.00000000E+00  0.00000000E+00  0.00000000E+00
  0.00000000E+00  0.00000000E+00  0.00000000E+00
  0.00000000E+00  0.00000000E+00  0.00000000E+00
  0.00000000E+00  0.00000000E+00  0.00000000E+00
  0.00000000E+00  0.00000000E+00  0.00000000E+00
  0.00000000E+00  0.00000000E+00  0.00000000E+00
  0.00000000E+00  0.00000000E+00  0.00000000E+00
  0.00000000E+00  0.00000000E+00  0.00000000E+00
  0.00000000E+00  0.00000000E+00  0.00000000E+00
  0.00000000E+00  0.00000000E+00  0.00000000E+00
  0.00000000E+00  0.00000000E+00  0.00000000E+00
  0.00000000E+00  0.00000000E+00  0.00000000E+00
  0.00000000E+00  0.00000000E+00  0.00000000E+00
  0.00000000E+00  0.00000000E+00  0.00000000E+00
  0.00000000E+00  0.00000000E+00  0.00000000E+00
  0.00000000E+00  0.00000000E+00  0.00000000E+00
  0.00000000E+00  0.00000000E+00  0.00000000E+00
  0.00000000E+00  0.00000000E+00  0.00000000E+00
  0.00000000E+00  0.00000000E+00  0.00000000E+00
  0.00000000E+00  0.00000000E+00  0.00000000E+00
  0.00000000E+00  0.00000000E+00  0.00000000E+00
  0.00000000E+00  0.00000000E+00  0.00000000E+00
  0.00000000E+00  0.00000000E+00  0.00000000E+00