 C N B 
 1.0
 14.936314146199660   0.000000000000000   0.000000000000000
 -7.468157073099825  12.935227489513863   0.000000000000000
  0.000000000000001   0.000000000000001  13.341276283792837
 C N B 
   1 143 144
Cartesian
  4.978771382066589   5.748989995339477   5.002978606422314 
  1.244797932119805   0.718527043939127   1.666769588762106 
  4.978771382066656   7.186307501377625   1.672007266836075 
  6.223361077410893   0.718629892306349   1.667513001396367 
  9.957485869149050   7.186323753399581   1.667513001396367 
 11.202122271126310   0.718558313390368   1.666810342217339 
 -3.734064302416194   9.342116960507326   8.339126276118058 
  1.244646590328429   9.342016340312460   8.338444211448207 
  2.489452940185650   2.874373219286307   8.338505825318114 
  6.223603315333037   9.342111392144231   8.338505825318114 
  7.468089823947525   2.874373219286307   8.338505825318114 
 12.446928455166404   2.874625869723934   8.339146870627381 
 -1.244707079650079   9.342116960507326   1.666830936726529 
  0.000146263289512   2.874579442819299   1.667223840705253 
  4.978771382066505   2.874826866880305   1.669683118108001 
  3.733939448800009   9.342111392144231   1.667451387526620 
  8.712896173804827   9.342016340312460   1.667513001396367 
  9.957396500843378   2.874579442819299   1.667223840705253 
 -4.978607523644638  11.497885386975087   8.338987776528160 
 -0.000163858421944  11.497885386975087   8.338987776528160 
  1.244621006919182   5.030485374588034   8.338505825318114 
  6.223524855599782   5.030331242320397   8.333949946008421 
  4.978771382066324  11.497811100379856   8.338733372139416 
 11.202266815749299   5.030505606329034   8.339187624082509 
 -1.244724051615885   5.030505606329033   1.666769588762106 
 -2.489385691033248  11.497963554517268   1.666830936726529 
  2.489249398330802  11.497937335750230   1.666769588762106 
  3.734017908533365   5.030331242320396   1.672007266836075 
  7.468293365802470  11.497937335750230   1.666769588762106 
  8.712921757214083   5.030485374588033   1.667451387526620 
  0.000056894984069   7.186323753399582   8.338444211448207 
  1.244797932119806   0.718527043939128   8.339187624082509 
  4.978771382066657   7.186307501377626   8.333949946008421 
  6.223361077410893   0.718629892306350   8.338444211448207 
  9.957485869149050   7.186323753399582   8.338444211448207 
 -2.489385691033175   7.186426701582288   1.666969436316414 
 11.202122271126310   0.718558313390369   8.339146870627381 
  3.734181686722311   0.718629892306349   1.667513001396367 
  2.489673098200237   7.186071559569211   1.669683118108001 
  7.467869665932747   7.186071559569211   1.669683118108001 
  8.712744832013321   0.718527043939127   1.666769588762106 
  2.489673098200238   7.186071559569212   8.336274094736559 
 13.691734639206597   0.718558313390368   1.666810342217339 
 -1.244707079650078   9.342116960507326   8.339126276118058 
  0.000146263289512   2.874579442819300   8.338733372139416 
  4.978771382066506   2.874826866880305   8.336274094736559 
  3.733939448800009   9.342111392144231   8.338505825318114 
  8.712896173804827   9.342016340312460   8.338444211448207 
  9.957396500843378   2.874579442819300   8.338733372139416 
 -3.734064302416194   9.342116960507326   1.666830936726529 
  1.244646590328428   9.342016340312460   1.667513001396367 
  2.489452940185649   2.874373219286306   1.667451387526620 
  6.223603315333036   9.342111392144231   1.667451387526620 
  7.468089823947524   2.874373219286306   1.667451387526620 
 12.446928455166404   2.874625869723933   1.666810342217339 
 -1.244724051615884   5.030505606329034   8.339187624082509 
 -2.489385691033247  11.497963554517268   8.339126276118058 
  2.489249398330803  11.497937335750230   8.339187624082509 
  3.734017908533366   5.030331242320397   8.333949946008421 
  7.468293365802471  11.497937335750230   8.339187624082509 
 -4.978607523644639  11.497885386975087   1.666969436316414 
  8.712921757214083   5.030485374588034   8.338505825318114 
 -0.000163858421945  11.497885386975087   1.666969436316414 
  1.244621006919182   5.030485374588033   1.667451387526620 
  0.000056894984069   7.186323753399581   1.667513001396367 
  6.223524855599781   5.030331242320396   1.672007266836075 
  4.978771382066323  11.497811100379856   1.667223840705253 
 11.202266815749299   5.030505606329033   1.666769588762106 
 -2.489385691033174   7.186426701582289   8.338987776528160 
  3.734181686722311   0.718629892306350   8.338444211448207 
  7.467869665932748   7.186071559569212   8.336274094736559 
  8.712744832013321   0.718527043939128   8.339187624082509 
 13.691734639206597   0.718558313390369   8.339146870627381 
 -0.003331942654489   1.434954762114602   5.002978606422314 
  3.724906681539346   7.936202237047139   5.002978606422314 
  4.978771382066526   1.438388496452931   5.002978606422314 
  8.711861785693390   7.904290744782944   5.002978606422314 
  9.960874706787571   1.434954762114602   5.002978606422314 
 -4.978796796541540  10.060722199255499  11.673616748318732 
  0.000025414474928  10.060722199255499  11.673616748318732 
  1.244706268019914   3.593126496573078  11.673616748318732 
  4.978771382066546  10.060716992872354  11.673616748318732 
  6.223499698971277   3.593096045687804  11.673616748318732 
 11.202244275441934   3.593091632091545  11.673616748318732 
 -2.489385691033300  10.060732491844131   5.002978606422314 
 -1.248344385087824   3.591379568464575   5.002978606422314 
  3.711522367542920   3.569505190920517   5.002978606422314 
  2.482410121081020  10.073843327517604   5.002978606422314 
  7.475132643052011  10.073843327517604   5.002978606422314 
  8.723018838553664   3.587247718424060   5.002978606422314 
 -6.223458927038633  12.216600679825588  11.673616748318732 
 -1.244689051922391  12.216630895971655  11.673616748318732 
 -0.000110247726718   5.749000874732974  11.673616748318732 
  4.978771382066590   5.748989995339477  11.673616748318732 
  3.734097685928793  12.216624802390438  11.673616748318732 
  9.957653011859700   5.749000874732974  11.673616748318732 
 -2.489385691033271   5.749618629783793   5.002978606422314 
 -3.733706707525802  12.215954774416389   5.002978606422314 
  1.244148432118144  12.216289422874224   5.002978606422314 
  2.457657667015758   5.741262558050710   5.002978606422314 
  6.223783824499784  12.220635655439265   5.002978606422314 
  7.499885097117298   5.741262558050710   5.002978606422314 
 -1.244671224635996   7.904844380305170  11.673616748318732 
 -0.000027815171249   1.437253551536425  11.673616748318732 
  3.734076612255366   7.904903313414733  11.673616748318732 
  4.978771382066557   1.437347590058913  11.673616748318732 
  8.712763237073567   7.904811197979889  11.673616748318732 
 -3.733702430296851   7.905507739812459   5.002978606422314 
  9.957570579304226   1.437253551536425  11.673616748318732 
  2.481519159251372   1.424651060213566   5.002978606422314 
  1.245680978439413   7.904290744782944   5.002978606422314 
  6.232636082593728   7.936202237047139   5.002978606422314 
  7.476023604881801   1.424651060213566   5.002978606422314 
  1.244779527059299   7.904811197979889  11.673616748318732 
 12.446928455166319   1.437247498834912   5.002978606422314 
 -2.489385691033299  10.060732491844133  11.673616748318732 
 -1.244701511308985   3.593091632091545  11.673616748318732 
  3.734043065162017   3.593096045687804  11.673616748318732 
  2.489321145338771  10.060822529479390  11.673616748318732 
  7.468221618794217  10.060822529479390  11.673616748318732 
  8.712836496113171   3.593126496573078  11.673616748318732 
 -4.978023446789458  10.060734961303419   5.002978606422314 
 -0.000747935277231  10.060734961303419   5.002978606422314 
  1.234523925579630   3.587247718424060   5.002978606422314 
  4.978771382066514  10.072474549170385   5.002978606422314 
  6.246020396590077   3.569505190920517   5.002978606422314 
 11.205887149220803   3.591379568464575   5.002978606422314 
 -2.489385691033219   5.748996115881032  11.673616748318732 
 -3.734082330144221  12.216630895971655  11.673616748318732 
  1.244687544972172  12.216600679825588  11.673616748318732 
  2.489348295350758   5.748970626916167  11.673616748318732 
  6.223445078204238  12.216624802390438  11.673616748318732 
 -6.222919814184698  12.216289422874224   5.002978606422314 
  7.468194468782388   5.748970626916167  11.673616748318732 
 -1.245064674540811  12.215954774416389   5.002978606422314 
 -0.014842101734279   5.748475598287453   5.002978606422314 
 -1.245068951769616   7.905507739812459   5.002978606422314 
  3.733758939633217  12.220635655439265   5.002978606422314 
  9.972384865867141   5.748475598287453   5.002978606422314 
 -3.734100157430634   7.904844380305170  11.673616748318732 
  2.489339989001064   1.437146581806056  11.673616748318732 
  6.223466151877737   7.904903313414733  11.673616748318732 
  7.468202775132036   1.437146581806056  11.673616748318732 
 12.446928455166319   1.437247498834912  11.673616748318732 
  1.237255075481495   0.712194495204063   5.002978606422314 
  4.978771382066537   7.283230178314509   5.002978606422314 
  6.228775771960044   0.712411548461322   5.002978606422314 
  9.965578460163012   7.184743662288732   5.002978606422314 
 11.204628643950430   0.720005368415097   5.002978606422314 
 -3.731849374660856   9.343395749643372  11.673616748318732 
  1.244597341772588   9.339864529275392  11.673616748318732 
  2.486929262767461   2.875434927108600  11.673616748318732 
  6.221422010678426   9.343766106988118  11.673616748318732 
  7.470613501365476   2.875434927108600  11.673616748318732 
 12.446928455166208   2.871879352151767  11.673616748318732 
 -1.245735492083016   9.342710714702415   5.002978606422314 
 -0.012334177734775   2.867373856834296   5.002978606422314 
  4.978771382066549   2.862071387133945   5.002978606422314 
  3.724550457595724   9.375933127717207   5.002978606422314 
  8.715574070269488   9.349814775268467   5.002978606422314 
  9.969876941867799   2.867373856834296   5.002978606422314 
 -4.980974844673534  11.499252160408302  11.673616748318732 
  0.002203462607057  11.499252160408302  11.673616748318732 
  1.244278634155551   5.027768951921844  11.673616748318732 
  6.221971525138566   5.031228058080293  11.673616748318732 
  4.978771382066635  11.495821916453989  11.673616748318732 
 11.204585186459340   5.031560908654276  11.673616748318732 
 -1.253979628010345   5.027139575230748   5.002978606422314 
 -2.489385691033247  11.496776046127373   5.002978606422314 
  2.487536678574651  11.507635915583579   5.002978606422314 
  3.650080408103443   4.981869903851956   5.002978606422314 
  7.470006085558469  11.507635915583579   5.002978606422314 
  8.746906735022591   5.021705611700520   5.002978606422314 
  0.001895793728381   7.187442309418600  11.673616748318732 
  1.244552665386977   0.715991624846027  11.673616748318732 
  4.978771382066602   7.184513869857846  11.673616748318732 
  6.221472930110599   0.719663147324649  11.673616748318732 
  9.955646970404736   7.187442309418600  11.673616748318732 
 -2.489385691033204   7.185682963905403   5.002978606422314 
 11.204500825115561   0.719931572176466  11.673616748318732 
  3.728766992172995   0.712411548461322   5.002978606422314 
  2.478626528702551   7.192449299442262   5.002978606422314 
  7.478916235430552   7.192449299442262   5.002978606422314 
  8.720287688651556   0.712194495204063   5.002978606422314 
  2.486984604509433   7.187623762125321  11.673616748318732 
 13.689228266382523   0.720005368415097   5.002978606422314 
 -1.246922007405682   9.343395749643372  11.673616748318732 
  0.001868947102151   2.875574034782248  11.673616748318732 
  4.978771382066625   2.871722461767907  11.673616748318732 
  3.736120753454413   9.343766106988118  11.673616748318732 
  8.712945422360695   9.339864529275392  11.673616748318732 
  9.955673817031082   2.875574034782248  11.673616748318732 
 -3.733035889983523   9.342710714702415   5.002978606422314 
  1.241968693863632   9.349814775268467   5.002978606422314 
  2.464856953581560   2.849331246600690   5.002978606422314 
  6.232992306537499   9.375933127717207   5.002978606422314 
  7.492685810551837   2.849331246600690   5.002978606422314 
 12.446928455166507   2.871731759674476   5.002978606422314 
 -1.247042422326179   5.031560908654276  11.673616748318732 
 -2.489385691033238  11.495405976245499  11.673616748318732 
  2.487176294353375  11.499417452518024  11.673616748318732 
  3.735571238994610   5.031228058080293  11.673616748318732 
  7.470366469779750  11.499417452518024  11.673616748318732 
 -4.979251619366499  11.498257255813348   5.002978606422314 
  8.713264129977578   5.027768951921844  11.673616748318732 
  0.000480237300155  11.498257255813348   5.002978606422314 
  1.210636029110539   5.021705611700520   5.002978606422314 
 -0.008035696029894   7.184743662288732   5.002978606422314 
  6.307462356029793   4.981869903851956   5.002978606422314 
  4.978771382066455  11.512222272349785   5.002978606422314 
 11.211522392143536   5.027139575230748   5.002978606422314 
 -2.489385691033241   7.183693154715745  11.673616748318732 
  3.736069834022350   0.719663147324649  11.673616748318732 
  7.470558159623537   7.187623762125321  11.673616748318732 
  8.712990098746122   0.715991624846027  11.673616748318732 
 13.689356085216957   0.719931572176466  11.673616748318732 
 -0.000186843880494   1.436830536982104   1.668817825017506 
  3.732807041621277   7.906776115274188   1.667901278354144 
  4.978771382066437   1.435165707371178   1.667677965930076 
  8.714652802909438   7.905902139323794   1.667677965930076 
  9.957729608013354   1.436830536982104   1.668817825017506 
 -4.977934620243214  10.061072711353518   8.337121800752072 
 -0.000836761823250  10.061072711353518   8.337121800752072 
  1.243621425147096   3.592500162248471   8.338754157054913 
  4.978771382066493  10.061969661521578   8.338754157054913 
  6.224486807640793   3.591060164337028   8.338055934490484 
 11.202690131146966   3.593165416466464   8.337139387826950 
 -2.489385691033300  10.060732491844131   1.667901270826556 
 -1.245147367013760   3.593165416466463   1.668817825017506 
  3.733055956492233   3.591060164337027   1.667901278354144 
  2.488549874526241  10.061762211994244   1.668384867681350 
  7.468992889606612  10.061762211994244   1.668384867681350 
  8.713921338985870   3.592500162248470   1.667203055789795 
 -6.223219074800689  12.216462201071520   8.337956065478743 
 -1.244816587690238  12.215708973345841   8.337121800752072 
 -0.001309672062145   5.749198973592393   8.337572345163371 
  4.978771382066590   5.748989995339477   8.342363017421723 
  3.733810858933019  12.216974032569848   8.337139387826950 
  9.958852436195189   5.749198973592393   8.337572345163371 
 -2.489385691033212   5.749273073389380   1.668001147365873 
 -3.733954794376406  12.215708973345841   1.668835412092663 
  1.244447692733912  12.216462201071520   1.668001147365873 
  2.487091616047004   5.749133706407225   1.667901278354144 
  6.223731905199896  12.216974032569848   1.668817825017506 
  7.470451148086142   5.749133706407225   1.667901278354144 
 -1.245405865166350   7.905415790832870   8.337121800752072 
 -0.000186843880493   1.436830536982104   8.337139387826950 
  3.732807041621278   7.906776115274189   8.338055934490484 
  4.978771382066438   1.435165707371178   8.338279246914725 
  8.714652802909438   7.905902139323794   8.338279246914725 
 -3.733365516900148   7.905415790832869   1.668835412092663 
  9.957729608013354   1.436830536982104   8.337139387826950 
  2.488911835478008   1.436008800432051   1.668384867681350 
  1.242889961223502   7.905902139323794   1.667677965930076 
  6.224735722511856   7.906776115274188   1.667901278354144 
  7.468630928654971   1.436008800432051   1.668384867681350 
  1.242889961223502   7.905902139323794   8.338279246914725 
 12.446928455166319   1.437247498834911   1.668024841534963 
 -2.489385691033300  10.060732491844131   8.338055942017993 
 -1.245147367013759   3.593165416466464   8.337139387826950 
  3.733055956492233   3.591060164337028   8.338055934490484 
  2.488549874526241  10.061762211994244   8.337572345163371 
  7.468992889606613  10.061762211994244   8.337572345163371 
  8.713921338985870   3.592500162248471   8.338754157054913 
 -4.977934620243215  10.061072711353518   1.668835412092663 
 -0.000836761823250  10.061072711353518   1.668835412092663 
  1.243621425147096   3.592500162248470   1.667203055789795 
  4.978771382066492  10.061969661521578   1.667203055789795 
  6.224486807640792   3.591060164337027   1.667901278354144 
 11.202690131146966   3.593165416466463   1.668817825017506 
 -2.489385691033212   5.749273073389381   8.337956065478743 
 -3.733954794376405  12.215708973345841   8.337121800752072 
  1.244447692733913  12.216462201071520   8.337956065478743 
  2.487091616047004   5.749133706407226   8.338055934490484 
  6.223731905199897  12.216974032569848   8.337139387826950 
 -6.223219074800690  12.216462201071520   1.668001147365873 
  7.470451148086143   5.749133706407226   8.338055934490484 
 -1.244816587690238  12.215708973345841   1.668835412092663 
 -0.001309672062146   5.749198973592392   1.668384867681350 
 -1.245405865166350   7.905415790832869   1.668835412092663 
  4.978771382066589   5.748989995339476   1.663594195422812 
  3.733810858933019  12.216974032569848   1.668817825017506 
  9.958852436195189   5.749198973592392   1.668384867681350 
 -3.733365516900147   7.905415790832870   8.337121800752072 
  2.488911835478009   1.436008800432052   8.337572345163371 
  6.224735722511857   7.906776115274189   8.338055934490484 
  7.468630928654972   1.436008800432052   8.337572345163371 
 12.446928455166319   1.437247498834912   8.337932371309732 
Generated by cif2cell 2.0.0.  :  Failed to get author information, No journal information. Species order: C N B 
 1.0
 14.936314146199660   0.000000000000000   0.000000000000000
 -7.468157073099825  12.935227489513863   0.000000000000000
  0.000000000000001   0.000000000000001  13.341276283792837
 C N B 
   1 143 144
Cartesian
  4.978771382066589   5.748989995339477   5.002978606422314 
  1.244797932119805   0.718527043939127   1.666769588762106 
  4.978771382066656   7.186307501377625   1.672007266836075 
  6.223361077410893   0.718629892306349   1.667513001396367 
  9.957485869149050   7.186323753399581   1.667513001396367 
 11.202122271126310   0.718558313390368   1.666810342217339 
 -3.734064302416194   9.342116960507326   8.339126276118058 
  1.244646590328429   9.342016340312460   8.338444211448207 
  2.489452940185650   2.874373219286307   8.338505825318114 
  6.223603315333037   9.342111392144231   8.338505825318114 
  7.468089823947525   2.874373219286307   8.338505825318114 
 12.446928455166404   2.874625869723934   8.339146870627381 
 -1.244707079650079   9.342116960507326   1.666830936726529 
  0.000146263289512   2.874579442819299   1.667223840705253 
  4.978771382066505   2.874826866880305   1.669683118108001 
  3.733939448800009   9.342111392144231   1.667451387526620 
  8.712896173804827   9.342016340312460   1.667513001396367 
  9.957396500843378   2.874579442819299   1.667223840705253 
 -4.978607523644638  11.497885386975087   8.338987776528160 
 -0.000163858421944  11.497885386975087   8.338987776528160 
  1.244621006919182   5.030485374588034   8.338505825318114 
  6.223524855599782   5.030331242320397   8.333949946008421 
  4.978771382066324  11.497811100379856   8.338733372139416 
 11.202266815749299   5.030505606329034   8.339187624082509 
 -1.244724051615885   5.030505606329033   1.666769588762106 
 -2.489385691033248  11.497963554517268   1.666830936726529 
  2.489249398330802  11.497937335750230   1.666769588762106 
  3.734017908533365   5.030331242320396   1.672007266836075 
  7.468293365802470  11.497937335750230   1.666769588762106 
  8.712921757214083   5.030485374588033   1.667451387526620 
  0.000056894984069   7.186323753399582   8.338444211448207 
  1.244797932119806   0.718527043939128   8.339187624082509 
  4.978771382066657   7.186307501377626   8.333949946008421 
  6.223361077410893   0.718629892306350   8.338444211448207 
  9.957485869149050   7.186323753399582   8.338444211448207 
 -2.489385691033175   7.186426701582288   1.666969436316414 
 11.202122271126310   0.718558313390369   8.339146870627381 
  3.734181686722311   0.718629892306349   1.667513001396367 
  2.489673098200237   7.186071559569211   1.669683118108001 
  7.467869665932747   7.186071559569211   1.669683118108001 
  8.712744832013321   0.718527043939127   1.666769588762106 
  2.489673098200238   7.186071559569212   8.336274094736559 
 13.691734639206597   0.718558313390368   1.666810342217339 
 -1.244707079650078   9.342116960507326   8.339126276118058 
  0.000146263289512   2.874579442819300   8.338733372139416 
  4.978771382066506   2.874826866880305   8.336274094736559 
  3.733939448800009   9.342111392144231   8.338505825318114 
  8.712896173804827   9.342016340312460   8.338444211448207 
  9.957396500843378   2.874579442819300   8.338733372139416 
 -3.734064302416194   9.342116960507326   1.666830936726529 
  1.244646590328428   9.342016340312460   1.667513001396367 
  2.489452940185649   2.874373219286306   1.667451387526620 
  6.223603315333036   9.342111392144231   1.667451387526620 
  7.468089823947524   2.874373219286306   1.667451387526620 
 12.446928455166404   2.874625869723933   1.666810342217339 
 -1.244724051615884   5.030505606329034   8.339187624082509 
 -2.489385691033247  11.497963554517268   8.339126276118058 
  2.489249398330803  11.497937335750230   8.339187624082509 
  3.734017908533366   5.030331242320397   8.333949946008421 
  7.468293365802471  11.497937335750230   8.339187624082509 
 -4.978607523644639  11.497885386975087   1.666969436316414 
  8.712921757214083   5.030485374588034   8.338505825318114 
 -0.000163858421945  11.497885386975087   1.666969436316414 
  1.244621006919182   5.030485374588033   1.667451387526620 
  0.000056894984069   7.186323753399581   1.667513001396367 
  6.223524855599781   5.030331242320396   1.672007266836075 
  4.978771382066323  11.497811100379856   1.667223840705253 
 11.202266815749299   5.030505606329033   1.666769588762106 
 -2.489385691033174   7.186426701582289   8.338987776528160 
  3.734181686722311   0.718629892306350   8.338444211448207 
  7.467869665932748   7.186071559569212   8.336274094736559 
  8.712744832013321   0.718527043939128   8.339187624082509 
 13.691734639206597   0.718558313390369   8.339146870627381 
 -0.003331942654489   1.434954762114602   5.002978606422314 
  3.724906681539346   7.936202237047139   5.002978606422314 
  4.978771382066526   1.438388496452931   5.002978606422314 
  8.711861785693390   7.904290744782944   5.002978606422314 
  9.960874706787571   1.434954762114602   5.002978606422314 
 -4.978796796541540  10.060722199255499  11.673616748318732 
  0.000025414474928  10.060722199255499  11.673616748318732 
  1.244706268019914   3.593126496573078  11.673616748318732 
  4.978771382066546  10.060716992872354  11.673616748318732 
  6.223499698971277   3.593096045687804  11.673616748318732 
 11.202244275441934   3.593091632091545  11.673616748318732 
 -2.489385691033300  10.060732491844131   5.002978606422314 
 -1.248344385087824   3.591379568464575   5.002978606422314 
  3.711522367542920   3.569505190920517   5.002978606422314 
  2.482410121081020  10.073843327517604   5.002978606422314 
  7.475132643052011  10.073843327517604   5.002978606422314 
  8.723018838553664   3.587247718424060   5.002978606422314 
 -6.223458927038633  12.216600679825588  11.673616748318732 
 -1.244689051922391  12.216630895971655  11.673616748318732 
 -0.000110247726718   5.749000874732974  11.673616748318732 
  4.978771382066590   5.748989995339477  11.673616748318732 
  3.734097685928793  12.216624802390438  11.673616748318732 
  9.957653011859700   5.749000874732974  11.673616748318732 
 -2.489385691033271   5.749618629783793   5.002978606422314 
 -3.733706707525802  12.215954774416389   5.002978606422314 
  1.244148432118144  12.216289422874224   5.002978606422314 
  2.457657667015758   5.741262558050710   5.002978606422314 
  6.223783824499784  12.220635655439265   5.002978606422314 
  7.499885097117298   5.741262558050710   5.002978606422314 
 -1.244671224635996   7.904844380305170  11.673616748318732 
 -0.000027815171249   1.437253551536425  11.673616748318732 
  3.734076612255366   7.904903313414733  11.673616748318732 
  4.978771382066557   1.437347590058913  11.673616748318732 
  8.712763237073567   7.904811197979889  11.673616748318732 
 -3.733702430296851   7.905507739812459   5.002978606422314 
  9.957570579304226   1.437253551536425  11.673616748318732 
  2.481519159251372   1.424651060213566   5.002978606422314 
  1.245680978439413   7.904290744782944   5.002978606422314 
  6.232636082593728   7.936202237047139   5.002978606422314 
  7.476023604881801   1.424651060213566   5.002978606422314 
  1.244779527059299   7.904811197979889  11.673616748318732 
 12.446928455166319   1.437247498834912   5.002978606422314 
 -2.489385691033299  10.060732491844133  11.673616748318732 
 -1.244701511308985   3.593091632091545  11.673616748318732 
  3.734043065162017   3.593096045687804  11.673616748318732 
  2.489321145338771  10.060822529479390  11.673616748318732 
  7.468221618794217  10.060822529479390  11.673616748318732 
  8.712836496113171   3.593126496573078  11.673616748318732 
 -4.978023446789458  10.060734961303419   5.002978606422314 
 -0.000747935277231  10.060734961303419   5.002978606422314 
  1.234523925579630   3.587247718424060   5.002978606422314 
  4.978771382066514  10.072474549170385   5.002978606422314 
  6.246020396590077   3.569505190920517   5.002978606422314 
 11.205887149220803   3.591379568464575   5.002978606422314 
 -2.489385691033219   5.748996115881032  11.673616748318732 
 -3.734082330144221  12.216630895971655  11.673616748318732 
  1.244687544972172  12.216600679825588  11.673616748318732 
  2.489348295350758   5.748970626916167  11.673616748318732 
  6.223445078204238  12.216624802390438  11.673616748318732 
 -6.222919814184698  12.216289422874224   5.002978606422314 
  7.468194468782388   5.748970626916167  11.673616748318732 
 -1.245064674540811  12.215954774416389   5.002978606422314 
 -0.014842101734279   5.748475598287453   5.002978606422314 
 -1.245068951769616   7.905507739812459   5.002978606422314 
  3.733758939633217  12.220635655439265   5.002978606422314 
  9.972384865867141   5.748475598287453   5.002978606422314 
 -3.734100157430634   7.904844380305170  11.673616748318732 
  2.489339989001064   1.437146581806056  11.673616748318732 
  6.223466151877737   7.904903313414733  11.673616748318732 
  7.468202775132036   1.437146581806056  11.673616748318732 
 12.446928455166319   1.437247498834912  11.673616748318732 
  1.237255075481495   0.712194495204063   5.002978606422314 
  4.978771382066537   7.283230178314509   5.002978606422314 
  6.228775771960044   0.712411548461322   5.002978606422314 
  9.965578460163012   7.184743662288732   5.002978606422314 
 11.204628643950430   0.720005368415097   5.002978606422314 
 -3.731849374660856   9.343395749643372  11.673616748318732 
  1.244597341772588   9.339864529275392  11.673616748318732 
  2.486929262767461   2.875434927108600  11.673616748318732 
  6.221422010678426   9.343766106988118  11.673616748318732 
  7.470613501365476   2.875434927108600  11.673616748318732 
 12.446928455166208   2.871879352151767  11.673616748318732 
 -1.245735492083016   9.342710714702415   5.002978606422314 
 -0.012334177734775   2.867373856834296   5.002978606422314 
  4.978771382066549   2.862071387133945   5.002978606422314 
  3.724550457595724   9.375933127717207   5.002978606422314 
  8.715574070269488   9.349814775268467   5.002978606422314 
  9.969876941867799   2.867373856834296   5.002978606422314 
 -4.980974844673534  11.499252160408302  11.673616748318732 
  0.002203462607057  11.499252160408302  11.673616748318732 
  1.244278634155551   5.027768951921844  11.673616748318732 
  6.221971525138566   5.031228058080293  11.673616748318732 
  4.978771382066635  11.495821916453989  11.673616748318732 
 11.204585186459340   5.031560908654276  11.673616748318732 
 -1.253979628010345   5.027139575230748   5.002978606422314 
 -2.489385691033247  11.496776046127373   5.002978606422314 
  2.487536678574651  11.507635915583579   5.002978606422314 
  3.650080408103443   4.981869903851956   5.002978606422314 
  7.470006085558469  11.507635915583579   5.002978606422314 
  8.746906735022591   5.021705611700520   5.002978606422314 
  0.001895793728381   7.187442309418600  11.673616748318732 
  1.244552665386977   0.715991624846027  11.673616748318732 
  4.978771382066602   7.184513869857846  11.673616748318732 
  6.221472930110599   0.719663147324649  11.673616748318732 
  9.955646970404736   7.187442309418600  11.673616748318732 
 -2.489385691033204   7.185682963905403   5.002978606422314 
 11.204500825115561   0.719931572176466  11.673616748318732 
  3.728766992172995   0.712411548461322   5.002978606422314 
  2.478626528702551   7.192449299442262   5.002978606422314 
  7.478916235430552   7.192449299442262   5.002978606422314 
  8.720287688651556   0.712194495204063   5.002978606422314 
  2.486984604509433   7.187623762125321  11.673616748318732 
 13.689228266382523   0.720005368415097   5.002978606422314 
 -1.246922007405682   9.343395749643372  11.673616748318732 
  0.001868947102151   2.875574034782248  11.673616748318732 
  4.978771382066625   2.871722461767907  11.673616748318732 
  3.736120753454413   9.343766106988118  11.673616748318732 
  8.712945422360695   9.339864529275392  11.673616748318732 
  9.955673817031082   2.875574034782248  11.673616748318732 
 -3.733035889983523   9.342710714702415   5.002978606422314 
  1.241968693863632   9.349814775268467   5.002978606422314 