B C N                                   
   1.0000000000000000     
     8.7639499999999995  -15.1796066749929999    0.0000000000000000
     8.7639499999999995   15.1796066749929999    0.0000000000000000
     0.0000000000000000    0.0000000000000000   15.0000000000000000
   B    C    N 
    47     1    48
Selective dynamics
Direct
  0.9054976900130461  0.9535726945346331  0.1109897876558582   T   T   T
  0.9058143604996192  0.0966379205463729  0.1110667947244593   T   T   T
  0.9054750715628948  0.2391264194556191  0.1111030790850526   T   T   T
  0.9042445363501644  0.3812480410297043  0.1109742473015548   T   T   T
  0.9021624468575502  0.5232646476601719  0.1110121403293819   T   T   T
  0.9028029819978075  0.6657814617201384  0.1110747610942562   T   T   T
  0.9043156733839529  0.8096458787409431  0.1110158828397808   T   T   T
  0.0471336140260997  0.9517896407413695  0.1109827438138402   T   T   T
  0.0488193168895950  0.0962197219257823  0.1110062591907479   T   T   T
  0.0495561192216232  0.2392133101829288  0.1110723236998245   T   T   T
  0.0491095310339550  0.3813238242111717  0.1110139618330373   T   T   T
  0.0473442148192995  0.5231757605758840  0.1109828307709878   T   T   T
  0.0462306476102774  0.6653958441144688  0.1109931574659082   T   T   T
  0.0462708665992504  0.8081392074749382  0.1109757106544882   T   T   T
  0.1889685535684970  0.9501084139101905  0.1110686702770719   T   T   T
  0.1898555640196800  0.0936598795481512  0.1111638336504733   T   T   T
  0.1933916630345776  0.2392412304737763  0.1110611998047215   T   T   T
  0.1943503526006642  0.3815590678375370  0.1110502711604748   T   T   T
  0.1927336671901649  0.5234555048412081  0.1110142382646698   T   T   T
  0.1899082852364616  0.6654851975100238  0.1110374563112247   T   T   T
  0.1892318303044422  0.8076764535954952  0.1110003011066196   T   T   T
  0.3319966324129564  0.9498610117578323  0.1110595170616623   T   T   T
  0.3312632227538558  0.0912117179850723  0.1113182947304762   T   T   T
  0.3333052925864295  0.2348279726663933  0.1109981237779808   T   T   T
  0.3416563087881226  0.3821086471044871  0.1108558637015165   T   T   T
  0.3391285202057786  0.5253739150444141  0.1110249198500699   T   T   T
  0.3334191388580651  0.6665340171003202  0.1110559302182072   T   T   T
  0.3326533904882065  0.8082806591922881  0.1110362898259541   T   T   T
  0.4755961403977697  0.9513827503433678  0.1110183916154655   T   T   T
  0.4747880271617101  0.0927734794017255  0.1110432822992984   T   T   T
  0.4729231995409951  0.2333656974040137  0.1110733113294159   T   T   T
  0.4762197441036162  0.6678619773493245  0.1110128636674623   T   T   T
  0.4761944359750281  0.8096483060699066  0.1110371420271746   T   T   T
  0.6191724007539775  0.9533582465949516  0.1110027454251792   T   T   T
  0.6185001866385024  0.0954070643730064  0.1109934479589434   T   T   T
  0.6172968577413677  0.2377133095130238  0.1109038060074135   T   T   T
  0.6138540720996427  0.3799526491986793  0.1109299135232038   T   T   T
  0.6120216165634065  0.5277127191536389  0.1112092636645033   T   T   T
  0.6206230264166795  0.6703910738571744  0.1110602299625385   T   T   T
  0.6195780442341519  0.8115574649533986  0.1109909627042809   T   T   T
  0.7626415315027691  0.9540020744396862  0.1110069427575830   T   T   T
  0.7622538600820580  0.0964437673874693  0.1110793198931146   T   T   T
  0.7614476050197583  0.2388885409564130  0.1110241174230066   T   T   T
  0.7595970582761040  0.3811702676998699  0.1109588839510551   T   T   T
  0.7562056213949130  0.5234475335481356  0.1112422698537407   T   T   T
  0.7611072874543657  0.6675261309870275  0.1111724947548609   T   T   T
  0.7627201965569222  0.8113517205629149  0.1110164808210419   T   T   T
  0.4871178708551261  0.5296843424845915  0.1110110617383743   T   T   T
  0.9518504902218565  0.9046435125721511  0.1109563566902618   T   T   T
  0.9532846717894341  0.0487702384016260  0.1109926102653687   T   T   T
  0.9537743902521549  0.1919281824920880  0.1110843630489306   T   T   T
  0.9531641840478675  0.3343679837350728  0.1110082579601083   T   T   T
  0.9511400587561748  0.4762944726876592  0.1109483628697775   T   T   T
  0.9502631291132577  0.6181479175918997  0.1110057532440176   T   T   T
  0.9506140685331487  0.7607912729864618  0.1109960003802622   T   T   T
  0.0938377732227375  0.9031710622416677  0.1109663164865709   T   T   T
  0.0949414385960816  0.0470413992241198  0.1110030016540246   T   T   T
  0.0975316342139833  0.1919160821106740  0.1110150171544617   T   T   T
  0.0983950716670940  0.3347120602889345  0.1110428480805702   T   T   T
  0.0968866019898443  0.4764347444981668  0.1109755351027439   T   T   T
  0.0945350843179951  0.6181308614270031  0.1109951011430990   T   T   T
  0.0938189455653689  0.7603466126604078  0.1109668870588191   T   T   T
  0.2368422210643095  0.9026432478735720  0.1110060756512336   T   T   T
  0.2365772952344200  0.0450606385307331  0.1111996039579498   T   T   T
  0.2381176442245073  0.1889629872260112  0.1111433062660697   T   T   T
  0.2441255441610418  0.3359090506180819  0.1110281157795539   T   T   T
  0.2436389869729451  0.4771559301952143  0.1110053110756992   T   T   T
  0.2388115132655976  0.6184056988804312  0.1110314864580780   T   T   T
  0.2374438437005640  0.7604114362117669  0.1110179166438355   T   T   T
  0.3803407038631601  0.9031378205748183  0.1109972285098455   T   T   T
  0.3797441507111550  0.0448888864939246  0.1111471644952052   T   T   T
  0.3793382083589129  0.1859446675821806  0.1113366558828590   T   T   T
  0.3775463015145662  0.3273792416837306  0.1104143835200719   T   T   T
  0.3964647000984300  0.4816768234721827  0.1109929082892629   T   T   T
  0.3827458107508668  0.6193320651568219  0.1110162665942639   T   T   T
  0.3811030050293610  0.7611537382320440  0.1110335217272922   T   T   T
  0.5238326797657791  0.9044411300713129  0.1110041944348835   T   T   T
  0.5232510660975950  0.0464992840583067  0.1109812637363811   T   T   T
  0.5220983292011667  0.1881795928893450  0.1109696471242497   T   T   T
  0.5176433557478880  0.3295729253253733  0.1102726398614785   T   T   T
  0.5239513120824286  0.6181716585145810  0.1110202255160636   T   T   T
  0.5243530316748070  0.7620207299811944  0.1109913034816956   T   T   T
  0.6670579921958762  0.9059367815308955  0.1109752851833245   T   T   T
  0.6667192882217049  0.0484566093984304  0.1110035385508014   T   T   T
  0.6657433526570427  0.1911703988571692  0.1109584398522351   T   T   T
  0.6635133246134086  0.3342081707541082  0.1108393579754474   T   T   T
  0.6561031612850489  0.4758316895797065  0.1112994181799633   T   T   T
  0.6642464239129194  0.6200829693295492  0.1111459258130379   T   T   T
  0.6668031023670976  0.7634931135944687  0.1109909497805081   T   T   T
  0.8099288807577696  0.9059375912969735  0.1109735563342448   T   T   T
  0.8101737062308300  0.0489870689076409  0.1110488700420164   T   T   T
  0.8097095674276782  0.1917421125349906  0.1110817825018007   T   T   T
  0.8082611469810508  0.3342509045934193  0.1109499117534761   T   T   T
  0.8050278226156146  0.4762850276845202  0.1110619038381675   T   T   T
  0.8061673611469066  0.6182294973810667  0.1111839323471193   T   T   T
  0.8085268370676642  0.7621205290648517  0.1110484172299125   T   T   T

  0.00000000E+00  0.00000000E+00  0.00000000E+00
  0.00000000E+00  0.00000000E+00  0.00000000E+00
  0.00000000E+00  0.00000000E+00  0.00000000E+00
  0.00000000E+00  0.00000000E+00  0.00000000E+00
  0.00000000E+00  0.00000000E+00  0.00000000E+00
  0.00000000E+00  0.00000000E+00  0.00000000E+00
  0.00000000E+00  0.00000000E+00  0.00000000E+00
  0.00000000E+00  0.00000000E+00  0.00000000E+00
  0.00000000E+00  0.00000000E+00  0.00000000E+00
  0.00000000E+00  0.00000000E+00  0.00000000E+00
  0.00000000E+00  0.00000000E+00  0.00000000E+00
  0.00000000E+00  0.00000000E+00  0.00000000E+00
  0.00000000E+00  0.00000000E+00  0.00000000E+00
  0.00000000E+00  0.00000000E+00  0.00000000E+00
  0.00000000E+00  0.00000000E+00  0.00000000E+00
  0.00000000E+00  0.00000000E+00  0.00000000E+00
  0.00000000E+00  0.00000000E+00  0.00000000E+00
  0.00000000E+00  0.00000000E+00  0.00000000E+00
  0.00000000E+00  0.00000000E+00  0.00000000E+00
  0.00000000E+00  0.00000000E+00  0.00000000E+00
  0.00000000E+00  0.00000000E+00  0.00000000E+00
  0.00000000E+00  0.00000000E+00  0.00000000E+00
  0.00000000E+00  0.00000000E+00  0.00000000E+00
  0.00000000E+00  0.00000000E+00  0.00000000E+00
  0.00000000E+00  0.00000000E+00  0.00000000E+00
  0.00000000E+00  0.00000000E+00  0.00000000E+00
  0.00000000E+00  0.00000000E+00  0.00000000E+00
  0.00000000E+00  0.00000000E+00  0.00000000E+00
  0.00000000E+00  0.00000000E+00  0.00000000E+00
  0.00000000E+00  0.00000000E+00  0.00000000E+00
  0.00000000E+00  0.00000000E+00  0.00000000E+00
  0.00000000E+00  0.00000000E+00  0.00000000E+00
  0.00000000E+00  0.00000000E+00  0.00000000E+00
  0.00000000E+00  0.00000000E+00  0.00000000E+00
  0.00000000E+00  0.00000000E+00  0.00000000E+00
  0.00000000E+00  0.00000000E+00  0.00000000E+00
  0.00000000E+00  0.00000000E+00  0.00000000E+00
  0.00000000E+00  0.00000000E+00  0.00000000E+00
  0.00000000E+00  0.00000000E+00  0.00000000E+00
  0.00000000E+00  0.00000000E+00  0.00000000E+00
  0.00000000E+00  0.00000000E+00  0.00000000E+00
  0.00000000E+00  0.00000000E+00  0.00000000E+00
  0.00000000E+00  0.00000000E+00  0.00000000E+00
  0.00000000E+00  0.00000000E+00  0.00000000E+00
  0.00000000E+00  0.00000000E+00  0.00000000E+00
  0.00000000E+00  0.00000000E+00  0.00000000E+00
  0.00000000E+00  0.00000000E+00  0.00000000E+00
  0.00000000E+00  0.00000000E+00  0.00000000E+00
  0.00000000E+00  0.00000000E+00  0.00000000E+00
  0.00000000E+00  0.00000000E+00  0.00000000E+00
  0.00000000E+00  0.00000000E+00  0.00000000E+00
  0.00000000E+00  0.00000000E+00  0.00000000E+00
  0.00000000E+00  0.00000000E+00  0.00000000E+00
  0.00000000E+00  0.00000000E+00  0.00000000E+00
  0.00000000E+00  0.00000000E+00  0.00000000E+00
  0.00000000E+00  0.00000000E+00  0.00000000E+00
  0.00000000E+00  0.00000000E+00  0.00000000E+00
  0.00000000E+00  0.00000000E+00  0.00000000E+00
  0.00000000E+00  0.00000000E+00  0.00000000E+00
  0.00000000E+00  0.00000000E+00  0.00000000E+00
  0.00000000E+00  0.00000000E+00  0.00000000E+00
  0.00000000E+00  0.00000000E+00  0.00000000E+00
  0.00000000E+00  0.00000000E+00  0.00000000E+00
  0.00000000E+00  0.00000000E+00  0.00000000E+00
  0.00000000E+00  0.00000000E+00  0.00000000E+00
  0.00000000E+00  0.00000000E+00  0.00000000E+00
  0.00000000E+00  0.00000000E+00  0.00000000E+00
  0.00000000E+00  0.00000000E+00  0.00000000E+00
  0.00000000E+00  0.00000000E+00  0.00000000E+00
  0.00000000E+00  0.00000000E+00  0.00000000E+00
  0.00000000E+00  0.00000000E+00  0.00000000E+00
  0.00000000E+00  0.00000000E+00  0.00000000E+00
  0.00000000E+00  0.00000000E+00  0.00000000E+00
  0.00000000E+00  0.00000000E+00  0.00000000E+00
  0.00000000E+00  0.00000000E+00  0.00000000E+00
  0.00000000E+00  0.00000000E+00  0.00000000E+00
  0.00000000E+00  0.00000000E+00  0.00000000E+00
  0.00000000E+00  0.00000000E+00  0.00000000E+00
  0.00000000E+00  0.00000000E+00  0.00000000E+00
  0.00000000E+00  0.00000000E+00  0.00000000E+00
  0.00000000E+00  0.00000000E+00  0.00000000E+00
  0.00000000E+00  0.00000000E+00  0.00000000E+00
  0.00000000E+00  0.00000000E+00  0.00000000E+00
  0.00000000E+00  0.00000000E+00  0.00000000E+00
  0.00000000E+00  0.00000000E+00  0.00000000E+00
  0.00000000E+00  0.00000000E+00  0.00000000E+00
  0.00000000E+00  0.00000000E+00  0.00000000E+00
  0.00000000E+00  0.00000000E+00  0.00000000E+00
  0.00000000E+00  0.00000000E+00  0.00000000E+00
  0.00000000E+00  0.00000000E+00  0.00000000E+00
  0.00000000E+00  0.00000000E+00  0.00000000E+00
  0.00000000E+00  0.00000000E+00  0.00000000E+00
  0.00000000E+00  0.00000000E+00  0.00000000E+00
  0.00000000E+00  0.00000000E+00  0.00000000E+00
  0.00000000E+00  0.00000000E+00  0.00000000E+00
  0.00000000E+00  0.00000000E+00  0.00000000E+00
