Species order:X N B                     
   2.51242800000000     
     5.9449720136058266    0.0000000000000000    0.0000000000000000
    -2.9724860068029120    5.1484967885702053   -0.0000000000000001
     0.0000000000000000    0.0000000000000009    5.3101128803662583
   C    N    B 
     2   143   142
Direct
  0.4294096539806088  0.3766508642391402  0.3750000000000000
  0.5439037699182740  0.4076665857840248  0.3750000000000000
  0.1112315753512634  0.0556433066053588  0.1252883674919195
  0.6112811598375434  0.5556173786349128  0.1260525586625655
  0.4445714153421095  0.0557105979980563  0.1262719209918528
  0.9446359576809903  0.5556678980706546  0.1250868990287756
  0.7778528590545901  0.0556204270907416  0.1254213863577555
  0.1112692567602997  0.7223261189665978  0.6246938774241851
  0.4445221529002893  0.7222565749227097  0.6244591730784989
  0.2779035937633410  0.2223186852374521  0.6237269666780759
  0.7779257141676459  0.7222967627226085  0.6246596954716802
  0.6112723096746047  0.2223938069925946  0.6232597166262694
  0.9445762845738015  0.2223022944785462  0.6246864492298857
  0.2778893715614938  0.7222964884470744  0.1253814440142796
  0.1112417236171526  0.2223009572972702  0.1253814237085198
  0.4446400297157279  0.2224407196290963  0.1281152556259579
  0.6111985910320051  0.7222400835962983  0.1256036975003545
  0.9446233037264482  0.7223399796618412  0.1251923997098384
  0.7779162809806408  0.2223284601067779  0.1255274380435646
  0.1112672696948220  0.8890036098241494  0.6246550966396447
  0.4445218878805107  0.8889701730021289  0.6244933983660760
  0.2779477613306952  0.3889738005469076  0.6236780143650732
  0.6113628298679350  0.3890690690450156  0.6247454716130589
  0.7778563289677641  0.8889326703831212  0.6246028534728411
  0.9446205855383849  0.3889872227053869  0.6247407635282564
  0.1112612654444501  0.3889756217863882  0.1254182666286968
  0.2779101101330089  0.8890019842483616  0.1255203091400323
  0.6111630932335131  0.8889305539802008  0.1254861724001323
  0.4446480182203166  0.3889841157862364  0.1280701561579214
  0.9445770184687848  0.8889798737788296  0.1252766959360543
  0.7779936732476703  0.3889975839767539  0.1250377553714828
  0.2779073864022776  0.5556172118449799  0.6243636456380643
  0.1112315753512634  0.0556433066053588  0.6247116325080903
  0.6112811598375434  0.5556173786349127  0.6239474413374363
  0.4445714153421095  0.0557105979980563  0.6237280790081164
  0.9446359576809903  0.5556678980706546  0.6249131009712384
  0.1112650757098463  0.5556485173469601  0.1253347545240003
  0.7778528590545901  0.0556204270907416  0.6245786136422554
  0.2779430891632823  0.0557006615723677  0.1260640504417654
  0.4445713015223914  0.5555726536010951  0.1263989754947230
  0.7779930501021288  0.5557012384377259  0.1249263387624970
  0.6111884970331473  0.0556598791681488  0.1257227756069469
  0.4445713015223914  0.5555726536010951  0.6236010245052469
  0.9445424227330463  0.0556196036974686  0.1252632427913603
  0.2778893715614938  0.7222964884470744  0.6246185559857229
  0.1112417236171527  0.2223009572972702  0.6246185762914659
  0.4446400297157279  0.2224407196290964  0.6218847443740421
  0.6111985910320051  0.7222400835962983  0.6243963024996378
  0.9446233037264482  0.7223399796618412  0.6248076002901579
  0.7779162809806408  0.2223284601067779  0.6244725619564552
  0.1112692567602997  0.7223261189665978  0.1253061225758171
  0.4445221529002893  0.7222565749227094  0.1255408269214797
  0.2779035937633410  0.2223186852374521  0.1262730333219309
  0.7779257141676459  0.7222967627226085  0.1253403045283074
  0.6112723096746047  0.2223938069925946  0.1267402833737540
  0.9445762845738015  0.2223022944785462  0.1253135507701179
  0.1112612654444501  0.3889756217863882  0.6245817333713035
  0.2779101101330089  0.8890019842483616  0.6244796908599819
  0.6111630932335131  0.8889305539802008  0.6245138275998808
  0.4446480182203166  0.3889841157862364  0.6219298438420917
  0.9445770184687848  0.8889798737788296  0.6247233040639578
  0.1112672696948220  0.8890036098241494  0.1253449033603303
  0.7779936732476703  0.3889975839767539  0.6249622446284969
  0.4445218878805107  0.8889701730021289  0.1255066016339165
  0.2779477613306952  0.3889738005469077  0.1263219856349254
  0.2779073864022776  0.5556172118449799  0.1256363543619293
  0.6113628298679350  0.3890690690450156  0.1252545283869531
  0.7778563289677641  0.8889326703831212  0.1253971465271762
  0.9446205855383849  0.3889872227053869  0.1252592364717305
  0.1112650757098463  0.5556485173469601  0.6246652454760124
  0.2779430891632823  0.0557006615723677  0.6239359495582322
  0.7779930501021288  0.5557012384377259  0.6250736612375195
  0.6111884970331473  0.0556598791681488  0.6242772243930664
  0.9445424227330463  0.0556196036974687  0.6247367572086392
  0.0510451975545085  0.1086363989369759  0.3750000000000000
  0.5562558314934060  0.6011184118398403  0.3750000000000000
  0.3909175457430095  0.1194039391600292  0.3750000000000000
  0.8941674172170265  0.6137842221293901  0.3750000000000000
  0.7211994144648016  0.1119732779216581  0.3750000000000000
  0.0556554220445873  0.7778197898089533  0.8750000000000000
  0.3890045188305317  0.7778297711550114  0.8750000000000000
  0.2223186246454833  0.2778167683201834  0.8750000000000000
  0.7223247109921065  0.7778220507572202  0.8750000000000000
  0.5556486356388527  0.2778065150201202  0.8750000000000000
  0.8889858780068945  0.2778132643089704  0.8750000000000000
  0.2256992639823968  0.7803956165764817  0.3750000000000000
  0.0523907932340767  0.2769758309886096  0.3750000000000000
  0.3740722564261392  0.2751632352450715  0.3750000000000000
  0.5559774359427277  0.7744435972459648  0.3750000000000000
  0.8881660615020057  0.7760856268014461  0.3750000000000000
  0.7242871061340456  0.2811102051310325  0.3750000000000000
  0.0556508409814243  0.9444860424182896  0.8750000000000000
  0.3890037885989340  0.9444969712829986  0.8750000000000000
  0.2223233412641569  0.4444832879615419  0.8750000000000000
  0.5556449744472770  0.4444824599548652  0.8750000000000000
  0.7223281974465430  0.9444865793209601  0.8750000000000000
  0.8889876782734196  0.4444809527659798  0.8750000000000000
  0.0578200181062589  0.4453964379495557  0.3750000000000000
  0.2239933092387494  0.9473945498205282  0.3750000000000000
  0.5560219864372875  0.9461335932331429  0.3750000000000000
  0.3872284001387880  0.4362797363872270  0.3750000000000000
  0.8860988199702469  0.9420247108497605  0.3750000000000000
  0.7399628016835891  0.4529435081148590  0.3750000000000000
  0.2223297197611353  0.6111544651645718  0.8750000000000000
  0.0556469662453559  0.1111462129423263  0.8750000000000000
  0.5556558889911570  0.6111532215289809  0.8750000000000000
  0.3889961778897232  0.1111575480491075  0.8750000000000000
  0.8889864710443109  0.6111483141260842  0.8750000000000000
  0.0599915013116533  0.6133873239745070  0.3750000000000000
  0.7223238855786114  0.1111461224563036  0.8750000000000000
  0.2169530604031652  0.1086974732791068  0.3750000000000000
  0.3911231393264940  0.6075557966318527  0.3750000000000000
  0.7220689631614517  0.6074516416915373  0.3750000000000000
  0.5559856490259486  0.1187154227596794  0.3750000000000000
  0.3890003765924113  0.6111542203646221  0.8750000000000000
  0.8861300632070994  0.1098667628676091  0.3750000000000000
  0.2223332011673982  0.7778279959876051  0.8750000000000000
  0.0556494623099349  0.2778135298980322  0.8750000000000000
  0.3889913969686224  0.2778197374896917  0.8750000000000000
  0.5556656092651836  0.7778254353060619  0.8750000000000000
  0.8889870605033064  0.7778202890814012  0.8750000000000000
  0.7223176890578449  0.2778073181920802  0.8750000000000000
  0.0583620157001447  0.7796682215627391  0.3750000000000000
  0.3913495265629420  0.7785127039225840  0.3750000000000000
  0.2144852880735360  0.2750401138823420  0.3750000000000000
  0.7208581555534840  0.7742684770454953  0.3750000000000000
  0.5477774280418474  0.3199275007328077  0.3750000000000000
  0.8885723880285363  0.2783439680446090  0.3750000000000000
  0.0556526380181563  0.4444840491905569  0.8750000000000000
  0.2223266039765215  0.9444931641389436  0.8750000000000000
  0.5556664572156208  0.9444905804231597  0.8750000000000000
  0.3889937150905936  0.4444843854003953  0.8750000000000000
  0.8889887812947451  0.9444844902007553  0.8750000000000000
  0.0532973925977779  0.9427180165273648  0.3750000000000000
  0.7223185758458958  0.4444796486313927  0.8750000000000000
  0.3912931664240582  0.9491756825628730  0.3750000000000000
  0.2224182978976568  0.4434267330635331  0.3750000000000000
  0.2255904964121849  0.6118689101250117  0.3750000000000000
  0.7206038791519583  0.9429102382273947  0.3750000000000000
  0.8943261093459626  0.4469243984493437  0.3750000000000000
  0.0556574411679958  0.6111513053478943  0.8750000000000000
  0.2223180419883946  0.1111518733874818  0.8750000000000000
  0.7223155766446130  0.6111512728773445  0.8750000000000000
  0.5556603743444507  0.1111483330078693  0.8750000000000000
  0.8889876049163490  0.1111461081235658  0.8750000000000000
  0.1057449366060905  0.0524585456684805  0.3750000000000000
  0.6136291946615374  0.5454613058327145  0.3750000000000000
  0.4445038083626223  0.0600826190979898  0.3750000000000000
  0.9494996849480861  0.5581521100826277  0.3750000000000000
  0.7756826379751454  0.0542206858479252  0.3750000000000000
  0.1111999491887949  0.7222570915667679  0.8750000000000000
  0.4445656403280562  0.7223057625889602  0.8750000000000000
  0.2778027997579163  0.2222138500177368  0.8750000000000000
  0.7779194682917860  0.7223106147895263  0.8750000000000000
  0.6112603252287918  0.2222381348674787  0.8750000000000000
  0.9445207567865150  0.2222391646598454  0.8750000000000000
  0.2803762819716541  0.7235165552148671  0.3750000000000000
  0.1037072874105033  0.2189371794914269  0.3750000000000000
  0.4378384378088094  0.2285602774261448  0.3750000000000000
  0.6107639583088925  0.7168517068921756  0.3750000000000000
  0.9475070801447764  0.7242050648083209  0.3750000000000000
  0.7788321099697217  0.2225025840109337  0.3750000000000000
  0.1111720202078270  0.8888980625348052  0.8750000000000000
  0.4445591820783758  0.8889193028394506  0.8750000000000000
  0.2778203913019588  0.3889286886842266  0.8750000000000000
  0.6112849566122340  0.3889598909293183  0.8750000000000000
  0.7779005152117759  0.8889500933669350  0.8750000000000000
  0.9445492073194357  0.3889323527723262  0.8750000000000000
  0.1105306192690059  0.3881253992046305  0.3750000000000000
  0.2796375354620597  0.8914908277175927  0.3750000000000000
  0.6103025645684657  0.8873540353865441  0.3750000000000000
  0.9422006898188083  0.8869426253484691  0.3750000000000000
  0.7844217736625627  0.3915068231932916  0.3750000000000000
  0.2778577097571466  0.5556216432056010  0.8750000000000000
  0.1111384069023799  0.0555460174630379  0.8750000000000000
  0.6112737884158209  0.5556758088931416  0.8750000000000000
  0.4445460263168262  0.0555476729841150  0.8750000000000000
  0.9445672097680449  0.5556131927183749  0.8750000000000000
  0.1143043770238399  0.5568384270885743  0.3750000000000000
  0.7778950988662731  0.0555808630257042  0.8750000000000000
  0.2765487759844742  0.0576355563898418  0.3750000000000000
  0.4464749374414919  0.5521549011590964  0.3750000000000000
  0.7837820095362410  0.5593382991872695  0.3750000000000000
  0.6111415619289022  0.0575818635552047  0.3750000000000000
  0.4445607628127667  0.5556586046387547  0.8750000000000000
  0.9403037730464285  0.0529430578445658  0.3750000000000000
  0.2778743094494138  0.7222714976635525  0.8750000000000000
  0.1111324310748388  0.2222210393890551  0.8750000000000000
  0.4445397245052912  0.2222254415081089  0.8750000000000000
  0.6112570717187696  0.7223304103714832  0.8750000000000000
  0.9445545835406679  0.7222731300360258  0.8750000000000000
  0.7779120523024476  0.2222473801787764  0.8750000000000000
  0.1144722383388003  0.7244568105766944  0.3750000000000000
  0.4456246579088844  0.7207176066243089  0.3750000000000000
  0.2640318000209665  0.2166830808782571  0.3750000000000000
  0.7773781341061209  0.7201828830392549  0.3750000000000000
  0.6188680327223000  0.2264588405526407  0.3750000000000000
  0.9418056272674266  0.2209859958363636  0.3750000000000000
  0.1111644530865973  0.3889223450897976  0.8750000000000000
  0.2778571885416350  0.8888984883533120  0.8750000000000000
  0.6112471477021325  0.8889471763744310  0.8750000000000000
  0.4445428280728712  0.3889469878113716  0.8750000000000000
  0.9445285554801306  0.8889225692076937  0.8750000000000000
  0.1119267110474683  0.8902038405139582  0.3750000000000000
  0.7779317711773911  0.3889511752669937  0.8750000000000000
  0.4454109583245030  0.8904804395383330  0.3750000000000000
  0.2720155220895204  0.3843310320591463  0.3750000000000000
  0.2793631791023629  0.5548895445223209  0.3750000000000000
  0.7755360612281437  0.8863920610814009  0.3750000000000000
  0.9473283608817621  0.3898284832090486  0.3750000000000000
  0.1111974799856716  0.5556050496566901  0.8750000000000000
  0.2778226205373956  0.0555369780642711  0.8750000000000000
  0.7779336832411973  0.5556339715878633  0.8750000000000000
  0.6112465053644534  0.0555675023174685  0.8750000000000000
  0.9445117521394405  0.0555688530182213  0.8750000000000000
  0.0555472517798091  0.1110895701868104  0.1247835893278975
  0.5558008770347973  0.6113414989621593  0.1252682581476642
  0.3888794515532412  0.1110025275602624  0.1259206315936317
  0.8892124456609392  0.6112995347083952  0.1246207897064373
  0.7224031396294419  0.1111736195537498  0.1249522290062749
  0.0557129713475860  0.7778445837244840  0.6251055859994646
  0.3889030200612322  0.7778136497857819  0.6250095055120034
  0.2221208200325262  0.2777768464513735  0.6249140229837693
  0.7224246127835383  0.7779129363739751  0.6250679362142908
  0.5559676539020906  0.2781192590023560  0.6243458693824487
  0.8891409509524307  0.2779373746114481  0.6251790642502173
  0.2222723029544796  0.7777887111227522  0.1249741440093211
  0.0556079701400433  0.2778720755740715  0.1248495414031479
  0.3888423257672007  0.2777721157112087  0.1261683407062543
  0.5556442605952840  0.7778709755678037  0.1250304211153456
  0.8891327423477720  0.7779070601411656  0.1248250714104215
  0.7226354432908726  0.2780363069962899  0.1248587827246073
  0.0556105625192406  0.9444323341563685  0.6251406890514655
  0.3888868374184613  0.9443518317991606  0.6248854022568496
  0.2222123738837642  0.4445996136065923  0.6249028071696114
  0.5560217185827327  0.4446682740694780  0.6247615153985708
  0.7223234743875881  0.9444885223117279  0.6250177540710875
  0.8892155913655808  0.4446579215687858  0.6253738646445418
  0.0557105329416412  0.4446080051945927  0.1248894512366114
  0.2222258246994620  0.9443606283411202  0.1250676127692668
  0.5556092300934130  0.9444314220274487  0.1250153486340672
  0.3889237898063337  0.4446298833405319  0.1256855148915151
  0.8890011839092936  0.9444934296633275  0.1249001320265206
  0.7226732833011714  0.4447165418475704  0.1246697709107142
  0.2222681712261943  0.6112380772156524  0.6250235012812082
  0.0555472517798085  0.1110895701868104  0.6252164106721113
  0.5558008770347973  0.6113414989621594  0.6247317418523382
  0.3888794515532412  0.1110025275602624  0.6240793684063880
  0.8892124456609392  0.6112995347083952  0.6253792102935586
  0.0557362359414400  0.6112452603984684  0.1248689562086544
  0.7224031396294419  0.1111736195537498  0.6250477709937465
  0.2221281950104864  0.1110031590967052  0.1251120461925480
  0.3889109888093730  0.6112925115252604  0.1251600179490783
  0.7226510583511170  0.6113445766956415  0.1247037894781953
  0.5556980598015374  0.1111209802946494  0.1253710035793388
  0.3889109888093730  0.6112925115252604  0.6248399820509165
  0.8890000368963937  0.1111665084685058  0.1248828314156236
  0.2222723029544796  0.7777887111227522  0.6250258559906664
  0.0556079701400433  0.2778720755740715  0.6251504585968651
  0.3888423257672007  0.2777721157112087  0.6238316592937071
  0.5556442605952840  0.7778709755678036  0.6249695788846301
  0.8891327423477723  0.7779070601411656  0.6251749285895807
  0.7226354432908726  0.2780363069962899  0.6251412172753990
  0.0557129713475860  0.7778445837244840  0.1248944140005297
  0.3889030200612322  0.7778136497857819  0.1249904944879716
  0.2221208200325262  0.2777768464513735  0.1250859770162173
  0.7224246127835383  0.7779129363739751  0.1249320637857233
  0.5559676539020906  0.2781192590023560  0.1256541306175246
  0.8891409509524307  0.2779373746114481  0.1248209357497658
  0.0557105329416412  0.4446080051945927  0.6251105487633981
  0.2222258246994620  0.9443606283411202  0.6249323872307072
  0.5556092300934148  0.9444314220274487  0.6249846513659486
  0.3889237898063337  0.4446298833405319  0.6243144851085080
  0.8890011839092936  0.9444934296633275  0.6250998679734807
  0.0556105625192407  0.9444323341563685  0.1248593109485345
  0.7226732833011723  0.4447165418475704  0.6253302290892608
  0.3888868374184614  0.9443518317991606  0.1251145977431510
  0.2222123738837642  0.4445996136065923  0.1250971928304060
  0.2222681712261943  0.6112380772156524  0.1249764987187864
  0.5560217185827327  0.4446682740694780  0.1252384846014093
  0.7223234743875881  0.9444885223117279  0.1249822459289153
  0.8892155913655808  0.4446579215687858  0.1246261353554549
  0.0557362359414400  0.6112452603984684  0.6251310437913485
  0.2221281950104864  0.1110031590967052  0.6248879538074753
  0.7226510583511155  0.6113445766956415  0.6252962105218166
  0.5556980598015374  0.1111209802946494  0.6246289964206568
  0.8890000368963937  0.1111665084685058  0.6251171685843701
 
  0.00000000E+00  0.00000000E+00  0.00000000E+00
  0.00000000E+00  0.00000000E+00  0.00000000E+00
  0.00000000E+00  0.00000000E+00  0.00000000E+00
  0.00000000E+00  0.00000000E+00  0.00000000E+00
  0.00000000E+00  0.00000000E+00  0.00000000E+00
  0.00000000E+00  0.00000000E+00  0.00000000E+00
  0.00000000E+00  0.00000000E+00  0.00000000E+00
  0.00000000E+00  0.00000000E+00  0.00000000E+00
  0.00000000E+00  0.00000000E+00  0.00000000E+00
  0.00000000E+00  0.00000000E+00  0.00000000E+00
  0.00000000E+00  0.00000000E+00  0.00000000E+00
  0.00000000E+00  0.00000000E+00  0.00000000E+00
  0.00000000E+00  0.00000000E+00  0.00000000E+00
  0.00000000E+00  0.00000000E+00  0.00000000E+00
  0.00000000E+00  0.00000000E+00  0.00000000E+00
  0.00000000E+00  0.00000000E+00  0.00000000E+00
  0.00000000E+00  0.00000000E+00  0.00000000E+00
  0.00000000E+00  0.00000000E+00  0.00000000E+00
  0.00000000E+00  0.00000000E+00  0.00000000E+00
  0.00000000E+00  0.00000000E+00  0.00000000E+00
  0.00000000E+00  0.00000000E+00  0.00000000E+00
  0.00000000E+00  0.00000000E+00  0.00000000E+00
  0.00000000E+00  0.00000000E+00  0.00000000E+00
  0.00000000E+00  0.00000000E+00  0.00000000E+00
  0.00000000E+00  0.00000000E+00  0.00000000E+00
  0.00000000E+00  0.00000000E+00  0.00000000E+00
  0.00000000E+00  0.00000000E+00  0.00000000E+00
  0.00000000E+00  0.00000000E+00  0.00000000E+00
  0.00000000E+00  0.00000000E+00  0.00000000E+00
  0.00000000E+00  0.00000000E+00  0.00000000E+00
  0.00000000E+00  0.00000000E+00  0.00000000E+00
  0.00000000E+00  0.00000000E+00  0.00000000E+00
  0.00000000E+00  0.00000000E+00  0.00000000E+00
  0.00000000E+00  0.00000000E+00  0.00000000E+00
  0.00000000E+00  0.00000000E+00  0.00000000E+00
  0.00000000E+00  0.00000000E+00  0.00000000E+00
  0.00000000E+00  0.00000000E+00  0.00000000E+00
  0.00000000E+00  0.00000000E+00  0.00000000E+00
  0.00000000E+00  0.00000000E+00  0.00000000E+00
  0.00000000E+00  0.00000000E+00  0.00000000E+00
  0.00000000E+00  0.00000000E+00  0.00000000E+00
  0.00000000E+00  0.00000000E+00  0.00000000E+00
  0.00000000E+00  0.00000000E+00  0.00000000E+00
  0.00000000E+00  0.00000000E+00  0.00000000E+00
  0.00000000E+00  0.00000000E+00  0.00000000E+00
  0.00000000E+00  0.00000000E+00  0.00000000E+00
  0.00000000E+00  0.00000000E+00  0.00000000E+00
  0.00000000E+00  0.00000000E+00  0.00000000E+00
  0.00000000E+00  0.00000000E+00  0.00000000E+00
  0.00000000E+00  0.00000000E+00  0.00000000E+00
  0.00000000E+00  0.00000000E+00  0.00000000E+00
  0.00000000E+00  0.00000000E+00  0.00000000E+00
  0.00000000E+00  0.00000000E+00  0.00000000E+00
  0.00000000E+00  0.00000000E+00  0.00000000E+00
  0.00000000E+00  0.00000000E+00  0.00000000E+00
  0.00000000E+00  0.00000000E+00  0.00000000E+00
  0.00000000E+00  0.00000000E+00  0.00000000E+00
  0.00000000E+00  0.00000000E+00  0.00000000E+00
  0.00000000E+00  0.00000000E+00  0.00000000E+00
  0.00000000E+00  0.00000000E+00  0.00000000E+00
  0.00000000E+00  0.00000000E+00  0.00000000E+00
  0.00000000E+00  0.00000000E+00  0.00000000E+00
  0.00000000E+00  0.00000000E+00  0.00000000E+00
  0.00000000E+00  0.00000000E+00  0.00000000E+00
  0.00000000E+00  0.00000000E+00  0.00000000E+00
  0.00000000E+00  0.00000000E+00  0.00000000E+00
  0.00000000E+00  0.00000000E+00  0.00000000E+00
  0.00000000E+00  0.00000000E+00  0.00000000E+00
  0.00000000E+00  0.00000000E+00  0.00000000E+00
  0.00000000E+00  0.00000000E+00  0.00000000E+00
  0.00000000E+00  0.00000000E+00  0.00000000E+00
  0.00000000E+00  0.00000000E+00  0.00000000E+00
  0.00000000E+00  0.00000000E+00  0.00000000E+00
  0.00000000E+00  0.00000000E+00  0.00000000E+00
  0.00000000E+00  0.00000000E+00  0.00000000E+00
  0.00000000E+00  0.00000000E+00  0.00000000E+00
  0.00000000E+00  0.00000000E+00  0.00000000E+00
  0.00000000E+00  0.00000000E+00  0.00000000E+00
  0.00000000E+00  0.00000000E+00  0.00000000E+00
  0.00000000E+00  0.00000000E+00  0.00000000E+00
  0.00000000E+00  0.00000000E+00  0.00000000E+00
  0.00000000E+00  0.00000000E+00  0.00000000E+00
  0.00000000E+00  0.00000000E+00  0.00000000E+00
  0.00000000E+00  0.00000000E+00  0.00000000E+00
  0.00000000E+00  0.00000000E+00  0.00000000E+00
  0.00000000E+00  0.00000000E+00  0.00000000E+00
  0.00000000E+00  0.00000000E+00  0.00000000E+00
  0.00000000E+00  0.00000000E+00  0.00000000E+00
  0.00000000E+00  0.00000000E+00  0.00000000E+00
  0.00000000E+00  0.00000000E+00  0.00000000E+00
  0.00000000E+00  0.00000000E+00  0.00000000E+00
  0.00000000E+00  0.00000000E+00  0.00000000E+00
  0.00000000E+00  0.00000000E+00  0.00000000E+00
  0.00000000E+00  0.00000000E+00  0.00000000E+00
  0.00000000E+00  0.00000000E+00  0.00000000E+00
  0.00000000E+00  0.00000000E+00  0.00000000E+00
  0.00000000E+00  0.00000000E+00  0.00000000E+00
  0.00000000E+00  0.00000000E+00  0.00000000E+00
  0.00000000E+00  0.00000000E+00  0.00000000E+00
  0.00000000E+00  0.00000000E+00  0.00000000E+00
  0.00000000E+00  0.00000000E+00  0.00000000E+00
  0.00000000E+00  0.00000000E+00  0.00000000E+00
  0.00000000E+00  0.00000000E+00  0.00000000E+00
  0.00000000E+00  0.00000000E+00  0.00000000E+00
  0.00000000E+00  0.00000000E+00  0.00000000E+00
  0.00000000E+00  0.00000000E+00  0.00000000E+00
  0.00000000E+00  0.00000000E+00  0.00000000E+00
  0.00000000E+00  0.00000000E+00  0.00000000E+00
  0.00000000E+00  0.00000000E+00  0.00000000E+00
  0.00000000E+00  0.00000000E+00  0.00000000E+00
  0.00000000E+00  0.00000000E+00  0.00000000E+00
  0.00000000E+00  0.00000000E+00  0.00000000E+00
  0.00000000E+00  0.00000000E+00  0.00000000E+00
  0.00000000E+00  0.00000000E+00  0.00000000E+00
  0.00000000E+00  0.00000000E+00  0.00000000E+00
  0.00000000E+00  0.00000000E+00  0.00000000E+00
  0.00000000E+00  0.00000000E+00  0.00000000E+00
  0.00000000E+00  0.00000000E+00  0.00000000E+00
  0.00000000E+00  0.00000000E+00  0.00000000E+00
  0.00000000E+00  0.00000000E+00  0.00000000E+00
  0.00000000E+00  0.00000000E+00  0.00000000E+00
  0.00000000E+00  0.00000000E+00  0.00000000E+00
  0.00000000E+00  0.00000000E+00  0.00000000E+00
  0.00000000E+00  0.00000000E+00  0.00000000E+00
  0.00000000E+00  0.00000000E+00  0.00000000E+00
  0.00000000E+00  0.00000000E+00  0.00000000E+00
  0.00000000E+00  0.00000000E+00  0.00000000E+00
  0.00000000E+00  0.00000000E+00  0.00000000E+00
  0.00000000E+00  0.00000000E+00  0.00000000E+00
  0.00000000E+00  0.00000000E+00  0.00000000E+00
  0.00000000E+00  0.00000000E+00  0.00000000E+00
  0.00000000E+00  0.00000000E+00  0.00000000E+00
  0.00000000E+00  0.00000000E+00  0.00000000E+00
  0.00000000E+00  0.00000000E+00  0.00000000E+00
  0.00000000E+00  0.00000000E+00  0.00000000E+00
  0.00000000E+00  0.00000000E+00  0.00000000E+00
  0.00000000E+00  0.00000000E+00  0.00000000E+00
  0.00000000E+00  0.00000000E+00  0.00000000E+00
  0.00000000E+00  0.00000000E+00  0.00000000E+00
  0.00000000E+00  0.00000000E+00  0.00000000E+00
  0.00000000E+00  0.00000000E+00  0.00000000E+00
  0.00000000E+00  0.00000000E+00  0.00000000E+00
  0.00000000E+00  0.00000000E+00  0.00000000E+00
  0.00000000E+00  0.00000000E+00  0.00000000E+00
  0.00000000E+00  0.00000000E+00  0.00000000E+00
  0.00000000E+00  0.00000000E+00  0.00000000E+00
  0.00000000E+00  0.00000000E+00  0.00000000E+00
  0.00000000E+00  0.00000000E+00  0.00000000E+00
  0.00000000E+00  0.00000000E+00  0.00000000E+00
  0.00000000E+00  0.00000000E+00  0.00000000E+00
  0.00000000E+00  0.00000000E+00  0.00000000E+00
  0.00000000E+00  0.00000000E+00  0.00000000E+00
  0.00000000E+00  0.00000000E+00  0.00000000E+00
  0.00000000E+00  0.00000000E+00  0.00000000E+00
  0.00000000E+00  0.00000000E+00  0.00000000E+00
  0.00000000E+00  0.00000000E+00  0.00000000E+00
  0.00000000E+00  0.00000000E+00  0.00000000E+00
  0.00000000E+00  0.00000000E+00  0.00000000E+00
  0.00000000E+00  0.00000000E+00  0.00000000E+00
  0.00000000E+00  0.00000000E+00  0.00000000E+00
  0.00000000E+00  0.00000000E+00  0.00000000E+00
  0.00000000E+00  0.00000000E+00  0.00000000E+00
  0.00000000E+00  0.00000000E+00  0.00000000E+00
  0.00000000E+00  0.00000000E+00  0.00000000E+00
  0.00000000E+00  0.00000000E+00  0.00000000E+00
  0.00000000E+00  0.00000000E+00  0.00000000E+00
  0.00000000E+00  0.00000000E+00  0.00000000E+00
  0.00000000E+00  0.00000000E+00  0.00000000E+00
  0.00000000E+00  0.00000000E+00  0.00000000E+00
  0.00000000E+00  0.00000000E+00  0.00000000E+00
  0.00000000E+00  0.00000000E+00  0.00000000E+00
  0.00000000E+00  0.00000000E+00  0.00000000E+00
  0.00000000E+00  0.00000000E+00  0.00000000E+00
  0.00000000E+00  0.00000000E+00  0.00000000E+00
  0.00000000E+00  0.00000000E+00  0.00000000E+00
  0.00000000E+00  0.00000000E+00  0.00000000E+00
  0.00000000E+00  0.00000000E+00  0.00000000E+00
  0.00000000E+00  0.00000000E+00  0.00000000E+00
  0.00000000E+00  0.00000000E+00  0.00000000E+00
  0.00000000E+00  0.00000000E+00  0.00000000E+00
  0.00000000E+00  0.00000000E+00  0.00000000E+00
  0.00000000E+00  0.00000000E+00  0.00000000E+00
  0.00000000E+00  0.00000000E+00  0.00000000E+00
  0.00000000E+00  0.00000000E+00  0.00000000E+00
  0.00000000E+00  0.00000000E+00  0.00000000E+00
  0.00000000E+00  0.00000000E+00  0.00000000E+00
  0.00000000E+00  0.00000000E+00  0.00000000E+00
  0.00000000E+00  0.00000000E+00  0.00000000E+00
  0.00000000E+00  0.00000000E+00  0.00000000E+00
  0.00000000E+00  0.00000000E+00  0.00000000E+00
  0.00000000E+00  0.00000000E+00  0.00000000E+00
  0.00000000E+00  0.00000000E+00  0.00000000E+00
  0.00000000E+00  0.00000000E+00  0.00000000E+00
  0.00000000E+00  0.00000000E+00  0.00000000E+00
  0.00000000E+00  0.00000000E+00  0.00000000E+00
  0.00000000E+00  0.00000000E+00  0.00000000E+00
  0.00000000E+00  0.00000000E+00  0.00000000E+00
  0.00000000E+00  0.00000000E+00  0.00000000E+00
  0.00000000E+00  0.00000000E+00  0.00000000E+00
  0.00000000E+00  0.00000000E+00  0.00000000E+00
  0.00000000E+00  0.00000000E+00  0.00000000E+00
  0.00000000E+00  0.00000000E+00  0.00000000E+00
  0.00000000E+00  0.00000000E+00  0.00000000E+00
  0.00000000E+00  0.00000000E+00  0.00000000E+00
  0.00000000E+00  0.00000000E+00  0.00000000E+00
  0.00000000E+00  0.00000000E+00  0.00000000E+00
  0.00000000E+00  0.00000000E+00  0.00000000E+00
  0.00000000E+00  0.00000000E+00  0.00000000E+00
  0.00000000E+00  0.00000000E+00  0.00000000E+00
  0.00000000E+00  0.00000000E+00  0.00000000E+00
  0.00000000E+00  0.00000000E+00  0.00000000E+00
  0.00000000E+00  0.00000000E+00  0.00000000E+00
  0.00000000E+00  0.00000000E+00  0.00000000E+00
  0.00000000E+00  0.00000000E+00  0.00000000E+00
  0.00000000E+00  0.00000000E+00  0.00000000E+00
  0.00000000E+00  0.00000000E+00  0.00000000E+00
  0.00000000E+00  0.00000000E+00  0.00000000E+00
  0.00000000E+00  0.00000000E+00  0.00000000E+00
  0.00000000E+00  0.00000000E+00  0.00000000E+00
  0.00000000E+00  0.00000000E+00  0.00000000E+00
  0.00000000E+00  0.00000000E+00  0.00000000E+00
  0.00000000E+00  0.00000000E+00  0.00000000E+00
  0.00000000E+00  0.00000000E+00  0.00000000E+00
  0.00000000E+00  0.00000000E+00  0.00000000E+00
  0.00000000E+00  0.00000000E+00  0.00000000E+00
  0.00000000E+00  0.00000000E+00  0.00000000E+00
  0.00000000E+00  0.00000000E+00  0.00000000E+00
  0.00000000E+00  0.00000000E+00  0.00000000E+00
  0.00000000E+00  0.00000000E+00  0.00000000E+00
  0.00000000E+00  0.00000000E+00  0.00000000E+00
  0.00000000E+00  0.00000000E+00  0.00000000E+00
  0.00000000E+00  0.00000000E+00  0.00000000E+00
  0.00000000E+00  0.00000000E+00  0.00000000E+00
  0.00000000E+00  0.00000000E+00  0.00000000E+00
  0.00000000E+00  0.00000000E+00  0.00000000E+00
  0.00000000E+00  0.00000000E+00  0.00000000E+00
  0.00000000E+00  0.00000000E+00  0.00000000E+00
  0.00000000E+00  0.00000000E+00  0.00000000E+00
  0.00000000E+00  0.00000000E+00  0.00000000E+00
  0.00000000E+00  0.00000000E+00  0.00000000E+00
  0.00000000E+00  0.00000000E+00  0.00000000E+00
  0.00000000E+00  0.00000000E+00  0.00000000E+00
  0.00000000E+00  0.00000000E+00  0.00000000E+00
  0.00000000E+00  0.00000000E+00  0.00000000E+00
  0.00000000E+00  0.00000000E+00  0.00000000E+00
  0.00000000E+00  0.00000000E+00  0.00000000E+00
  0.00000000E+00  0.00000000E+00  0.00000000E+00
  0.00000000E+00  0.00000000E+00  0.00000000E+00