B N Sn                                  
   1.0000000000000000     
     8.7639499999999995  -15.1796066749929999    0.0000000000000000
     8.7639499999999995   15.1796066749929999    0.0000000000000000
     0.0000000000000000    0.0000000000000000   15.0000000000000000
   B    N    Sn
    49    47     1
Selective dynamics
Direct
  0.9031031421447302  0.9499998128810383  0.0994736259677606   T   T   T
  0.9039412697973940  0.0930082593641695  0.1028753370852132   T   T   T
  0.9045795828169801  0.2359907155562049  0.1080617723997809   T   T   T
  0.9048628520682132  0.3791096931890194  0.1119116552257047   T   T   T
  0.9058166249964683  0.5226342463608968  0.1097877141226325   T   T   T
  0.9061217706558533  0.6660847432776258  0.1030565139959232   T   T   T
  0.9049084709200635  0.8088744612331820  0.0984231936677116   T   T   T
  0.0477341458060408  0.9528099180444376  0.1036599248444155   T   T   T
  0.0482760477103802  0.0957420021090960  0.1005935862051477   T   T   T
  0.0482386349175180  0.2377359586386346  0.1048353001118717   T   T   T
  0.0476635398536494  0.3799044660253064  0.1132825722408043   T   T   T
  0.0469809893346037  0.5229620026303625  0.1206657275771779   T   T   T
  0.0469631617720154  0.6665795941589323  0.1200611886176337   T   T   T
  0.0475029660220826  0.8099136304372022  0.1118399038360296   T   T   T
  0.1904438609731901  0.9535554455125148  0.1137948089240293   T   T   T
  0.1914457087565794  0.0969430601322034  0.1035815424279554   T   T   T
  0.1940496977071139  0.2419582649481504  0.1013734045148367   T   T   T
  0.1917851096831759  0.3821065864775520  0.1071433275270143   T   T   T
  0.1889734555966148  0.5239907614781589  0.1166115294802145   T   T   T
  0.1879935722701830  0.6670513737868790  0.1253709241362414   T   T   T
  0.1894811998755699  0.8104224774297656  0.1238566109450673   T   T   T
  0.3328553507112699  0.9532899880388415  0.1191070773010136   T   T   T
  0.3338874893987920  0.0966219266784663  0.1109337564042702   T   T   T
  0.3352620993088692  0.2407789310447600  0.1042594980272492   T   T   T
  0.3419204801316680  0.3903536724447988  0.1067346641089278   T   T   T
  0.3313927948641766  0.5267065733504520  0.1047031387886627   T   T   T
  0.3280523370666769  0.6682233086061641  0.1120941751305206   T   T   T
  0.3315611382613617  0.8104501686765074  0.1214127106095691   T   T   T
  0.4751979154452707  0.9512023898205587  0.1141407042698355   T   T   T
  0.4761947663502209  0.0946962971861567  0.1119390672203893   T   T   T
  0.4772832606454153  0.2383062799841826  0.1143143025711618   T   T   T
  0.4736555591003295  0.3768418050034962  0.1401893038263546   T   T   T
  0.4844444928967221  0.5736573580584321  0.1144986327795689   T   T   T
  0.4662117761772280  0.6619966334116736  0.1018473297412591   T   T   T
  0.4732338220369877  0.8072558588124377  0.1100809653391115   T   T   T
  0.6172520441124332  0.9484786130392518  0.1075193930838077   T   T   T
  0.6185398991875223  0.0927791156413342  0.1084823954460749   T   T   T
  0.6193924351262179  0.2363669738838227  0.1094839667622016   T   T   T
  0.6205505421830304  0.3797333670010326  0.1188867708483366   T   T   T
  0.6339218803752363  0.5280797014975203  0.1375554911464149   T   T   T
  0.6160762175002330  0.6537888949600381  0.1120559323737589   T   T   T
  0.6144212468659598  0.8023801042754760  0.1056849846183786   T   T   T
  0.7594236419918313  0.9479223074219902  0.1032147385223031   T   T   T
  0.7609639700281914  0.0920763969922629  0.1059540864595608   T   T   T
  0.7618313740856271  0.2356432819740235  0.1078155516205202   T   T   T
  0.7625898584616269  0.3790029579000247  0.1070581743507205   T   T   T
  0.7649011520231346  0.5222282770702754  0.1019829720987810   T   T   T
  0.7648567575693224  0.6654252809850473  0.0940452002644755   T   T   T
  0.7577652748097576  0.8033715632812413  0.0996744368144258   T   T   T
  0.9521645962439317  0.9040482548265290  0.0997549363363198   T   T   T
  0.9519619650242438  0.0460689348355266  0.1002477462755093   T   T   T
  0.9524256806985851  0.1887200244739924  0.1052608103445021   T   T   T
  0.9523865661787579  0.3314236378212124  0.1117711855767203   T   T   T
  0.9524115768328537  0.4745301956590500  0.1154067668013932   T   T   T
  0.9527778693249762  0.6181976286684256  0.1113063016174436   T   T   T
  0.9526932738885822  0.7615824346911156  0.1035761602463027   T   T   T
  0.0951845627420137  0.9053484626100595  0.1100829172981136   T   T   T
  0.0959070208830104  0.0483733295207981  0.1018781917277714   T   T   T
  0.0974134845307134  0.1919641660222309  0.1013550318502783   T   T   T
  0.0961505535948758  0.3331439656510136  0.1085242307806404   T   T   T
  0.0943253506753185  0.4751680885803505  0.1189390802436771   T   T   T
  0.0934774238046720  0.6184201851506756  0.1253140609299384   T   T   T
  0.0944203388695236  0.7621490544650565  0.1208642928245006   T   T   T
  0.2375788046226234  0.9057659933477840  0.1209054802448180   T   T   T
  0.2385310330112712  0.0489493568154214  0.1091715403803895   T   T   T
  0.2399868672549284  0.1928016760602010  0.1006416846128686   T   T   T
  0.2439389832764002  0.3390780139824469  0.1032716967172472   T   T   T
  0.2372465543356364  0.4770259968557863  0.1096794442482710   T   T   T
  0.2343372574118609  0.6191332942159655  0.1204343108556230   T   T   T
  0.2364918449102126  0.7624943833804952  0.1263589975375135   T   T   T
  0.3800874829585480  0.9053019863667771  0.1199424300610765   T   T   T
  0.3809395899973347  0.0483065568361893  0.1145697283860856   T   T   T
  0.3819666705245552  0.1919697334211320  0.1093438909852087   T   T   T
  0.3839972757245707  0.3368951425357890  0.1088828119255454   T   T   T
  0.3913395570329218  0.4908259392911091  0.1062807916205569   T   T   T
  0.3733175604112703  0.6208840064819118  0.1010991662593879   T   T   T
  0.3782789396399649  0.7625844808103401  0.1151822211198510   T   T   T
  0.5220519806033216  0.9024229420248548  0.1107875481408599   T   T   T
  0.5233245976683465  0.0462841101883703  0.1113001372865858   T   T   T
  0.5242019354391759  0.1897767429307560  0.1105557522613642   T   T   T
  0.5248129018608246  0.3329308799988997  0.1260895710980168   T   T   T
  0.5188539607789944  0.7568324631819856  0.1051423779936825   T   T   T
  0.6635378629164120  0.8987561270561082  0.1053988716771840   T   T   T
  0.6655389643729084  0.0441491331341443  0.1070435455439727   T   T   T
  0.6665572345227571  0.1881324396553511  0.1077289198540569   T   T   T
  0.6672253058074253  0.3315641266812914  0.1099486072542354   T   T   T
  0.6712477235273182  0.4748082095103691  0.1146076776936051   T   T   T
  0.6708234117692908  0.6162900054510634  0.1017857748384215   T   T   T
  0.6595040620700092  0.7510185517839757  0.1057066670270628   T   T   T
  0.8064583266847494  0.8998546304530508  0.1002700537177473   T   T   T
  0.8080732622586282  0.0439144149284395  0.1039402967365685   T   T   T
  0.8091353188836793  0.1876639676136503  0.1072471984313542   T   T   T
  0.8097320081725808  0.3310051975043883  0.1084517100594566   T   T   T
  0.8114075138854927  0.4742668120204357  0.1034627035509089   T   T   T
  0.8119726983496334  0.6177310618444964  0.0960760675595953   T   T   T
  0.8094040587094379  0.7601086913193736  0.0940827776291221   T   T   T
  0.5261661740425122  0.4973346448157770  0.2333424031351728   T   T   T

  0.00000000E+00  0.00000000E+00  0.00000000E+00
  0.00000000E+00  0.00000000E+00  0.00000000E+00
  0.00000000E+00  0.00000000E+00  0.00000000E+00
  0.00000000E+00  0.00000000E+00  0.00000000E+00
  0.00000000E+00  0.00000000E+00  0.00000000E+00
  0.00000000E+00  0.00000000E+00  0.00000000E+00
  0.00000000E+00  0.00000000E+00  0.00000000E+00
  0.00000000E+00  0.00000000E+00  0.00000000E+00
  0.00000000E+00  0.00000000E+00  0.00000000E+00
  0.00000000E+00  0.00000000E+00  0.00000000E+00
  0.00000000E+00  0.00000000E+00  0.00000000E+00
  0.00000000E+00  0.00000000E+00  0.00000000E+00
  0.00000000E+00  0.00000000E+00  0.00000000E+00
  0.00000000E+00  0.00000000E+00  0.00000000E+00
  0.00000000E+00  0.00000000E+00  0.00000000E+00
  0.00000000E+00  0.00000000E+00  0.00000000E+00
  0.00000000E+00  0.00000000E+00  0.00000000E+00
  0.00000000E+00  0.00000000E+00  0.00000000E+00
  0.00000000E+00  0.00000000E+00  0.00000000E+00
  0.00000000E+00  0.00000000E+00  0.00000000E+00
  0.00000000E+00  0.00000000E+00  0.00000000E+00
  0.00000000E+00  0.00000000E+00  0.00000000E+00
  0.00000000E+00  0.00000000E+00  0.00000000E+00
  0.00000000E+00  0.00000000E+00  0.00000000E+00
  0.00000000E+00  0.00000000E+00  0.00000000E+00
  0.00000000E+00  0.00000000E+00  0.00000000E+00
  0.00000000E+00  0.00000000E+00  0.00000000E+00
  0.00000000E+00  0.00000000E+00  0.00000000E+00
  0.00000000E+00  0.00000000E+00  0.00000000E+00
  0.00000000E+00  0.00000000E+00  0.00000000E+00
  0.00000000E+00  0.00000000E+00  0.00000000E+00
  0.00000000E+00  0.00000000E+00  0.00000000E+00
  0.00000000E+00  0.00000000E+00  0.00000000E+00
  0.00000000E+00  0.00000000E+00  0.00000000E+00
  0.00000000E+00  0.00000000E+00  0.00000000E+00
  0.00000000E+00  0.00000000E+00  0.00000000E+00
  0.00000000E+00  0.00000000E+00  0.00000000E+00
  0.00000000E+00  0.00000000E+00  0.00000000E+00
  0.00000000E+00  0.00000000E+00  0.00000000E+00
  0.00000000E+00  0.00000000E+00  0.00000000E+00
  0.00000000E+00  0.00000000E+00  0.00000000E+00
  0.00000000E+00  0.00000000E+00  0.00000000E+00
  0.00000000E+00  0.00000000E+00  0.00000000E+00
  0.00000000E+00  0.00000000E+00  0.00000000E+00
  0.00000000E+00  0.00000000E+00  0.00000000E+00
  0.00000000E+00  0.00000000E+00  0.00000000E+00
  0.00000000E+00  0.00000000E+00  0.00000000E+00
  0.00000000E+00  0.00000000E+00  0.00000000E+00
  0.00000000E+00  0.00000000E+00  0.00000000E+00
  0.00000000E+00  0.00000000E+00  0.00000000E+00
  0.00000000E+00  0.00000000E+00  0.00000000E+00
  0.00000000E+00  0.00000000E+00  0.00000000E+00
  0.00000000E+00  0.00000000E+00  0.00000000E+00
  0.00000000E+00  0.00000000E+00  0.00000000E+00
  0.00000000E+00  0.00000000E+00  0.00000000E+00
  0.00000000E+00  0.00000000E+00  0.00000000E+00
  0.00000000E+00  0.00000000E+00  0.00000000E+00
  0.00000000E+00  0.00000000E+00  0.00000000E+00
  0.00000000E+00  0.00000000E+00  0.00000000E+00
  0.00000000E+00  0.00000000E+00  0.00000000E+00
  0.00000000E+00  0.00000000E+00  0.00000000E+00
  0.00000000E+00  0.00000000E+00  0.00000000E+00
  0.00000000E+00  0.00000000E+00  0.00000000E+00
  0.00000000E+00  0.00000000E+00  0.00000000E+00
  0.00000000E+00  0.00000000E+00  0.00000000E+00
  0.00000000E+00  0.00000000E+00  0.00000000E+00
  0.00000000E+00  0.00000000E+00  0.00000000E+00
  0.00000000E+00  0.00000000E+00  0.00000000E+00
  0.00000000E+00  0.00000000E+00  0.00000000E+00
  0.00000000E+00  0.00000000E+00  0.00000000E+00
  0.00000000E+00  0.00000000E+00  0.00000000E+00
  0.00000000E+00  0.00000000E+00  0.00000000E+00
  0.00000000E+00  0.00000000E+00  0.00000000E+00
  0.00000000E+00  0.00000000E+00  0.00000000E+00
  0.00000000E+00  0.00000000E+00  0.00000000E+00
  0.00000000E+00  0.00000000E+00  0.00000000E+00
  0.00000000E+00  0.00000000E+00  0.00000000E+00
  0.00000000E+00  0.00000000E+00  0.00000000E+00
  0.00000000E+00  0.00000000E+00  0.00000000E+00
  0.00000000E+00  0.00000000E+00  0.00000000E+00
  0.00000000E+00  0.00000000E+00  0.00000000E+00
  0.00000000E+00  0.00000000E+00  0.00000000E+00
  0.00000000E+00  0.00000000E+00  0.00000000E+00
  0.00000000E+00  0.00000000E+00  0.00000000E+00
  0.00000000E+00  0.00000000E+00  0.00000000E+00
  0.00000000E+00  0.00000000E+00  0.00000000E+00
  0.00000000E+00  0.00000000E+00  0.00000000E+00
  0.00000000E+00  0.00000000E+00  0.00000000E+00
  0.00000000E+00  0.00000000E+00  0.00000000E+00
  0.00000000E+00  0.00000000E+00  0.00000000E+00
  0.00000000E+00  0.00000000E+00  0.00000000E+00
  0.00000000E+00  0.00000000E+00  0.00000000E+00
  0.00000000E+00  0.00000000E+00  0.00000000E+00
  0.00000000E+00  0.00000000E+00  0.00000000E+00
  0.00000000E+00  0.00000000E+00  0.00000000E+00
  0.00000000E+00  0.00000000E+00  0.00000000E+00
  0.00000000E+00  0.00000000E+00  0.00000000E+00
