B C N                                   
   1.0000000000000000     
     8.7639499999999995  -15.1796066749929999    0.0000000000000000
     8.7639499999999995   15.1796066749929999    0.0000000000000000
     0.0000000000000000    0.0000000000000000   15.0000000000000000
   B    C    N 
    48     4    46
Selective dynamics
Direct
  0.9051417685575536  0.9527243274581473  0.1110231270171118   T   T   T
  0.9047192500809229  0.0952825187900787  0.1110503799679794   T   T   T
  0.9047056455630726  0.2380883295293839  0.1110539316653277   T   T   T
  0.9047210725222121  0.3808948058179673  0.1110156774656443   T   T   T
  0.9051469219043828  0.5238582953480211  0.1110152764224680   T   T   T
  0.9060018022237408  0.6670934020913261  0.1110722108604345   T   T   T
  0.9059953399152080  0.8103458394016816  0.1110495697097555   T   T   T
  0.0477002310890896  0.9523014910669105  0.1110207719238329   T   T   T
  0.0472773783088505  0.0948599336344479  0.1110231282071146   T   T   T
  0.0475089953301665  0.2379931396646391  0.1110185548458990   T   T   T
  0.0475100199309176  0.3809538488876500  0.1110322249691038   T   T   T
  0.0472902932998363  0.5238546921820970  0.1110226810229437   T   T   T
  0.0477292337592550  0.6668491100096873  0.1110369414779752   T   T   T
  0.0479821747383250  0.8097106010369395  0.1110173643317647   T   T   T
  0.1902911419830609  0.9520195773006795  0.1110173607957630   T   T   T
  0.1896558709083205  0.0940064035417905  0.1110495676487553   T   T   T
  0.1894523467131259  0.2367181541582000  0.1110247385320627   T   T   T
  0.1905998629579182  0.3810005451159452  0.1110123941475707   T   T   T
  0.1894739480460524  0.5241668890513915  0.1110556536490984   T   T   T
  0.1896782833007196  0.6670667606989437  0.1110600637856370   T   T   T
  0.1903107123379867  0.8096909240000117  0.1110135594731238   T   T   T
  0.3331525574523142  0.9522724075997511  0.1110369385949765   T   T   T
  0.3329083497556757  0.0939999375252547  0.1110722098564376   T   T   T
  0.3315268801727949  0.2344913963381391  0.1110281328511567   T   T   T
  0.3319279168543653  0.3765109253891035  0.1109895730966790   T   T   T
  0.3319285546360738  0.5268212209930648  0.1109628881626820   T   T   T
  0.3315553296295458  0.6684464929824534  0.1110683666515922   T   T   T
  0.3329348913270497  0.8103234012862783  0.1110600620036385   T   T   T
  0.4761469517339036  0.9527112981511666  0.1110226863189455   T   T   T
  0.4761434250729757  0.0948547473206172  0.1110152904424709   T   T   T
  0.4758205077580901  0.2367250944636594  0.1110496360265493   T   T   T
  0.4731609364420248  0.3765179920929033  0.1110518454357339   T   T   T
  0.4731805079959334  0.6680732076149218  0.1109628878336794   T   T   T
  0.4758348979596099  0.8105278817829435  0.1110556536240944   T   T   T
  0.6190478960023496  0.9524917077930872  0.1110322277021069   T   T   T
  0.6191068522190328  0.0952805413837886  0.1110156846836430   T   T   T
  0.6190448633825653  0.2379996551060783  0.1110263625864583   T   T   T
  0.6189827670984912  0.3810190321805066  0.1110201256995038   T   T   T
  0.6234837419720984  0.5268406992689765  0.1110518452617291   T   T   T
  0.6234907322368973  0.6680736810796296  0.1109895706826811   T   T   T
  0.6190011796140528  0.8094019006550884  0.1110123923125728   T   T   T
  0.7620085829373543  0.9524927529198335  0.1110185571998986   T   T   T
  0.7619133713736150  0.0952960434449293  0.1110539311693262   T   T   T
  0.7619104927074267  0.2380911305235734  0.1110613915499417   T   T   T
  0.7620020772739212  0.3809568612444325  0.1110263560094616   T   T   T
  0.7632767746313420  0.5241812642269147  0.1110496287925492   T   T   T
  0.7655103927398595  0.6684748123842046  0.1110281344101514   T   T   T
  0.7632835015107957  0.8105493169888751  0.1110247395520682   T   T   T
  0.3831853746939109  0.4773037873273412  0.1108748136608032   T   T   T
  0.4762035356514066  0.5237980030915932  0.1109873520476132   T   T   T
  0.5227042445694406  0.4772975093025582  0.1111245485061984   T   T   T
  0.5226977594466602  0.6168161252690874  0.1108748171937993   T   T   T
  0.9528597475329653  0.9052190237600067  0.1110131018669260   T   T   T
  0.9523039635549777  0.0476977565740216  0.1110119841675156   T   T   T
  0.9523161387895451  0.1905078732906164  0.1110255115039376   T   T   T
  0.9523194336865866  0.3332704279571704  0.1110147199833510   T   T   T
  0.9523166607737407  0.4760589614838344  0.1109771311354081   T   T   T
  0.9528759765694161  0.6190880147256602  0.1110233575182316   T   T   T
  0.9531004183387470  0.7622714144088525  0.1110358350938684   T   T   T
  0.0952820275622389  0.9047197380107644  0.1109843331989029   T   T   T
  0.0947826911589947  0.0471419789600312  0.1110131123739275   T   T   T
  0.0945710204155255  0.1898533783763691  0.1109995597759809   T   T   T
  0.0953455705666900  0.3333876667970905  0.1110012612222667   T   T   T
  0.0945871382410026  0.4761577422388933  0.1110200049626806   T   T   T
  0.0948056805170160  0.6190785844863574  0.1110204441900904   T   T   T
  0.0952974375239276  0.7620036869041826  0.1109968988973561   T   T   T
  0.2379979807228138  0.9047042148550705  0.1109968979743540   T   T   T
  0.2377303287631471  0.0469013590162486  0.1110358248868652   T   T   T
  0.2367402257872785  0.1886601163111046  0.1110182800600863   T   T   T
  0.2371245859581859  0.3317406947733659  0.1109983321408801   T   T   T
  0.2371295051302617  0.4767919397147718  0.1110062725776622   T   T   T
  0.2367685378727324  0.6195027479845409  0.1110447586746435   T   T   T
  0.2377542029629652  0.7622474464800348  0.1110327925934304   T   T   T
  0.3809230591046408  0.9051959427019831  0.1110204349060893   T   T   T
  0.3809136905883383  0.0471256542825884  0.1110233630782356   T   T   T
  0.3804755841427809  0.1886574582792830  0.1110414095039254   T   T   T
  0.3785404016018644  0.3285085454196039  0.1109923592442208   T   T   T
  0.3785603454989155  0.6214414093360818  0.1110033722764264   T   T   T
  0.3804990507884511  0.7632333209822681  0.1110447655566407   T   T   T
  0.5238440340781131  0.9054146648219976  0.1110200102306800   T   T   T
  0.5239426953371643  0.0476848833322580  0.1109771491324040   T   T   T
  0.5238362944027926  0.1898535052479175  0.1110137267191729   T   T   T
  0.5231918515825210  0.3317522778582427  0.1110087001766676   T   T   T
  0.5232097965872318  0.7628723079527412  0.1110062675506647   T   T   T
  0.6666140884289042  0.9046562135893150  0.1110012599272670   T   T   T
  0.6667312845328266  0.0476822406954119  0.1110147226943486   T   T   T
  0.6667299055719212  0.1905038294903284  0.1110233767587749   T   T   T
  0.6666072435465962  0.3333945146224027  0.1110019618436776   T   T   T
  0.6682496571087597  0.4768099234444808  0.1110086953336651   T   T   T
  0.6714932497693962  0.6214612465481397  0.1109923605522234   T   T   T
  0.6682609086056317  0.7628770639038212  0.1109983273558792   T   T   T
  0.8101483048816297  0.9054306876714726  0.1109995614489822   T   T   T
  0.8094938965443856  0.0476856443724605  0.1110255149699367   T   T   T
  0.8095091054146465  0.1904925520163531  0.1110416457763312   T   T   T
  0.8094977988336717  0.3332717376890798  0.1110233712427748   T   T   T
  0.8101482197930850  0.4761654236322088  0.1110137073901723   T   T   T
  0.8113443752697167  0.6195261669032189  0.1110414088739227   T   T   T
  0.8113416115329037  0.7632614678757232  0.1110182848120825   T   T   T

  0.00000000E+00  0.00000000E+00  0.00000000E+00
  0.00000000E+00  0.00000000E+00  0.00000000E+00
  0.00000000E+00  0.00000000E+00  0.00000000E+00
  0.00000000E+00  0.00000000E+00  0.00000000E+00
  0.00000000E+00  0.00000000E+00  0.00000000E+00
  0.00000000E+00  0.00000000E+00  0.00000000E+00
  0.00000000E+00  0.00000000E+00  0.00000000E+00
  0.00000000E+00  0.00000000E+00  0.00000000E+00
  0.00000000E+00  0.00000000E+00  0.00000000E+00
  0.00000000E+00  0.00000000E+00  0.00000000E+00
  0.00000000E+00  0.00000000E+00  0.00000000E+00
  0.00000000E+00  0.00000000E+00  0.00000000E+00
  0.00000000E+00  0.00000000E+00  0.00000000E+00
  0.00000000E+00  0.00000000E+00  0.00000000E+00
  0.00000000E+00  0.00000000E+00  0.00000000E+00
  0.00000000E+00  0.00000000E+00  0.00000000E+00
  0.00000000E+00  0.00000000E+00  0.00000000E+00
  0.00000000E+00  0.00000000E+00  0.00000000E+00
  0.00000000E+00  0.00000000E+00  0.00000000E+00
  0.00000000E+00  0.00000000E+00  0.00000000E+00
  0.00000000E+00  0.00000000E+00  0.00000000E+00
  0.00000000E+00  0.00000000E+00  0.00000000E+00
  0.00000000E+00  0.00000000E+00  0.00000000E+00
  0.00000000E+00  0.00000000E+00  0.00000000E+00
  0.00000000E+00  0.00000000E+00  0.00000000E+00
  0.00000000E+00  0.00000000E+00  0.00000000E+00
  0.00000000E+00  0.00000000E+00  0.00000000E+00
  0.00000000E+00  0.00000000E+00  0.00000000E+00
  0.00000000E+00  0.00000000E+00  0.00000000E+00
  0.00000000E+00  0.00000000E+00  0.00000000E+00
  0.00000000E+00  0.00000000E+00  0.00000000E+00
  0.00000000E+00  0.00000000E+00  0.00000000E+00
  0.00000000E+00  0.00000000E+00  0.00000000E+00
  0.00000000E+00  0.00000000E+00  0.00000000E+00
  0.00000000E+00  0.00000000E+00  0.00000000E+00
  0.00000000E+00  0.00000000E+00  0.00000000E+00
  0.00000000E+00  0.00000000E+00  0.00000000E+00
  0.00000000E+00  0.00000000E+00  0.00000000E+00
  0.00000000E+00  0.00000000E+00  0.00000000E+00
  0.00000000E+00  0.00000000E+00  0.00000000E+00
  0.00000000E+00  0.00000000E+00  0.00000000E+00
  0.00000000E+00  0.00000000E+00  0.00000000E+00
  0.00000000E+00  0.00000000E+00  0.00000000E+00
  0.00000000E+00  0.00000000E+00  0.00000000E+00
  0.00000000E+00  0.00000000E+00  0.00000000E+00
  0.00000000E+00  0.00000000E+00  0.00000000E+00
  0.00000000E+00  0.00000000E+00  0.00000000E+00
  0.00000000E+00  0.00000000E+00  0.00000000E+00
  0.00000000E+00  0.00000000E+00  0.00000000E+00
  0.00000000E+00  0.00000000E+00  0.00000000E+00
  0.00000000E+00  0.00000000E+00  0.00000000E+00
  0.00000000E+00  0.00000000E+00  0.00000000E+00
  0.00000000E+00  0.00000000E+00  0.00000000E+00
  0.00000000E+00  0.00000000E+00  0.00000000E+00
  0.00000000E+00  0.00000000E+00  0.00000000E+00
  0.00000000E+00  0.00000000E+00  0.00000000E+00
  0.00000000E+00  0.00000000E+00  0.00000000E+00
  0.00000000E+00  0.00000000E+00  0.00000000E+00
  0.00000000E+00  0.00000000E+00  0.00000000E+00
  0.00000000E+00  0.00000000E+00  0.00000000E+00
  0.00000000E+00  0.00000000E+00  0.00000000E+00
  0.00000000E+00  0.00000000E+00  0.00000000E+00
  0.00000000E+00  0.00000000E+00  0.00000000E+00
  0.00000000E+00  0.00000000E+00  0.00000000E+00
  0.00000000E+00  0.00000000E+00  0.00000000E+00
  0.00000000E+00  0.00000000E+00  0.00000000E+00
  0.00000000E+00  0.00000000E+00  0.00000000E+00
  0.00000000E+00  0.00000000E+00  0.00000000E+00
  0.00000000E+00  0.00000000E+00  0.00000000E+00
  0.00000000E+00  0.00000000E+00  0.00000000E+00
  0.00000000E+00  0.00000000E+00  0.00000000E+00
  0.00000000E+00  0.00000000E+00  0.00000000E+00
  0.00000000E+00  0.00000000E+00  0.00000000E+00
  0.00000000E+00  0.00000000E+00  0.00000000E+00
  0.00000000E+00  0.00000000E+00  0.00000000E+00
  0.00000000E+00  0.00000000E+00  0.00000000E+00
  0.00000000E+00  0.00000000E+00  0.00000000E+00
  0.00000000E+00  0.00000000E+00  0.00000000E+00
  0.00000000E+00  0.00000000E+00  0.00000000E+00
  0.00000000E+00  0.00000000E+00  0.00000000E+00
  0.00000000E+00  0.00000000E+00  0.00000000E+00
  0.00000000E+00  0.00000000E+00  0.00000000E+00
  0.00000000E+00  0.00000000E+00  0.00000000E+00
  0.00000000E+00  0.00000000E+00  0.00000000E+00
  0.00000000E+00  0.00000000E+00  0.00000000E+00
  0.00000000E+00  0.00000000E+00  0.00000000E+00
  0.00000000E+00  0.00000000E+00  0.00000000E+00
  0.00000000E+00  0.00000000E+00  0.00000000E+00
  0.00000000E+00  0.00000000E+00  0.00000000E+00
  0.00000000E+00  0.00000000E+00  0.00000000E+00
  0.00000000E+00  0.00000000E+00  0.00000000E+00
  0.00000000E+00  0.00000000E+00  0.00000000E+00
  0.00000000E+00  0.00000000E+00  0.00000000E+00
  0.00000000E+00  0.00000000E+00  0.00000000E+00
  0.00000000E+00  0.00000000E+00  0.00000000E+00
  0.00000000E+00  0.00000000E+00  0.00000000E+00
  0.00000000E+00  0.00000000E+00  0.00000000E+00
  0.00000000E+00  0.00000000E+00  0.00000000E+00
