 B N C 
 1.0
 17.527899999999772   0.000000000000000   0.000000000000000
 -8.763949999999658  15.179606674993195   0.000000000000000
  0.000000000000001   0.000000000000002  15.000000000000000
 B N C 
  48  48   2
Cartesian
  7.510173881747173  14.456291204395049   1.665228146898870 
 15.023612576497813   1.445868918597788   1.665643961729505 
 13.772279382693158   3.614644339786258   1.665706788735465 
 12.519988650402988   5.782786535642840   1.665030165851805 
 11.270250783404776   7.951034902449538   1.665052466150385 
 10.020346985841297  10.119737783328796   1.665795564098160 
  8.767203152609916  12.294287784379939   1.665729450027135 
 -7.512619857288884  14.457168308021167   1.665236878608345 
 -0.000463506050388   1.447485542969437   1.665228164748915 
 -1.250568127278572   3.615867532835488   1.665110080644795 
 -2.501510218277297   5.783124810005723   1.665368466068205 
 -3.753016543580593   7.950833856719305   1.665152889297945 
 -5.006833994325564  10.119737783328796   1.665280805095620 
 -6.258834681739798  12.289216720091261   1.665036655656540 
 -5.008226016383277  14.455334742684489   1.665036602616525 
  2.500400732167853   1.439868597495614   1.665729419112135 
  1.254459263281341   3.619789250973599   1.665204367096110 
  0.004715974904710   5.784599992718222   1.665260393319150 
 -1.246775108609912   7.951764032944745   1.665959927635440 
 -2.505197506883321  10.119737783328796   1.665989720750730 
 -3.755952754996136  12.288254676800921   1.665046740727440 
 -2.503431381950842  14.455808130130434   1.665280761850650 
  5.010158245847389   1.441889147560920   1.665795549038220 
  3.748681961910455   3.596586385386781   1.666107692546940 
  2.521600758181446   5.786903755454482   1.665564753228240 
  1.256842605715628   7.963355324682344   1.665945294418920 
 -0.006134665514906  10.123298078470816   1.666124252670180 
 -1.252613517077773  12.289328037155382   1.665989694020760 
  0.001832494019741  14.454421571798003   1.665152968737975 
  7.513292706167006   1.443791076497391   1.665052676450430 
  6.259994675330166   3.611993902330473   1.665916874361660 
  4.986088051979157   5.758785098924654   1.663426673508915 
  2.495918153587514  10.109498137820722   1.665945289483890 
  1.254148074285879  12.283491351467664   1.665959927260380 
  2.504877334711001  14.454441893015868   1.665368507063250 
 10.015919198387332   1.445609679288225   1.665030274121790 
  8.761642600995103   3.616485222655330   1.665314433017070 
  7.501585799995894   5.788713410583765   1.665130369860270 
  6.269755894614066   7.982160036460533   1.663426670898840 
  5.013159768100754  10.102408738488315   1.665564717018270 
  3.756712217705945  12.283249295514738   1.665260365794180 
  5.007247668225807  14.454723213709251   1.665110115954795 
 12.519730878321964   1.445166330148195   1.665706781295435 
 11.266926344083924   3.614791252304315   1.665942592082115 
 10.012818475705609   5.783585171483279   1.665314334362115 
  8.765886091654712   7.952322205472124   1.665916765851660 
  7.523572329600385  10.134885364926415   1.666107715931850 
  6.256364623751210  12.283343713834064   1.665204382396200 
  8.763699383796620  13.737324301026744   1.665282563293755 
 16.274975084781378   0.723393944330165   1.665218399053380 
 15.025098143005659   2.892375063851365   1.665411156163935 
 13.774651676139690   5.059868891664398   1.665231835992915 
 12.523800404937331   7.228473432240390   1.664513639268420 
 11.271126894158137   9.397642310044235   1.665241006897125 
 10.017704000123770  11.568239778815139   1.665473526385830 
 -6.260337396452019  13.734163131524229   1.664781857296260 
  1.248942795214219   0.721384434466641   1.665282720898770 
  0.001532102543229   2.895805802808054   1.664886397800270 
 -1.245914497290356   5.059868891664398   1.665074747365905 
 -2.497806089309634   7.229036389155137   1.665335510119800 
 -3.754168330636967   9.396489036393520   1.665369599647545 
 -5.006696812997844  11.565527239893250   1.664896379958300 
 -3.755424055774985  13.732794766612745   1.664896366113270 
  3.754427452032366   0.719927613435276   1.665473373280785 
  2.496782516254247   2.883254689113282   1.665632516036205 
  1.259593937128107   5.073365529862088   1.665118032255945 
  0.012679990073066   7.231394814557385   1.665637447876890 
 -1.251660613917431   9.396794342542538   1.665954334293105 
 -2.503064432562161  11.564899399198300   1.665509660107605 
 -1.250717794328633  13.732591941037169   1.665369460387530 
  6.260932068768978   0.719728056044149   1.665241090297185 
  5.005837912749191   2.884408769984728   1.665785767943610 
  3.741266439340579   5.035542479579587   1.665561988928985 
  2.532858548581503   7.262685637924684   1.665646934486550 
  1.246535716263337   9.400067810459774   1.665714431290815 
  0.000272316062576  11.565207608978760   1.665954437523075 
  1.254533130607683  13.728279377272496   1.665335589139785 
  8.765824087692511   0.719464095193160   1.664513909223360 
  7.512772662125883   2.887418928834170   1.665397338328635 
  6.254310652808385   5.051653905532531   1.665223220034510 
  3.740722978246924   9.354766777615101   1.665646987481490 
  2.507732924793958  11.552955596078426   1.665637372471920 
  3.759002115100904  13.728692917544254   1.665074727940905 
 11.269286163869712   0.720499365802136   1.665231876657885 
 10.015969929132734   2.891306762317579   1.665453162245550 
  8.763949999999962   5.059868891664398   1.665030077706540 
  7.516263072746377   7.237414757946978   1.665223147389465 
  6.273692532107878   9.421828674677148   1.665562008549030 
  5.000097181577830  11.552108606312741   1.665117960480945 
  6.256889196002376  13.730402861954364   1.664886422895285 
 13.771644182883076   0.721329524568031   1.665411208153920 
 12.520309617187891   2.891150428274974   1.665691980830760 
 11.268018399365809   5.059868891664398   1.665453079505550 
 10.019773366897823   7.229671311413401   1.665397048393620 
  8.768914478853148   9.402246070522311   1.665785758493565 
  7.515384894073476  11.575727952773772   1.665632587316160 
  3.756859313996037   7.950729618761359   1.664310784750350 
  4.944034712897135   7.265315759679556   1.659400482833130 
