Species order: X N B                    
   2.51242800000000     
     5.9449720136058266    0.0000000000000000    0.0000000000000000
    -2.9724860068029120    5.1484967885702053   -0.0000000000000001
     0.0000000000000000    0.0000000000000009    5.3101128803662583
   P    N    B 
     1   144   143
Direct
  0.4444444444444429  0.3888888888888857  0.3750000000000000
  0.1111057829094249  0.0555398805730664  0.1251420922952982
  0.6111189321199963  0.5555645402099831  0.1253381485629466
  0.4444340976636414  0.0555398805730664  0.1251420922952982
  0.9444557734721580  0.5555647193756470  0.1251123688233245
  0.7777777777777786  0.0555555555555571  0.1250875008674683
  0.1111111111111143  0.7222222222222214  0.6249020351051547
  0.4444340976636414  0.7222275504239114  0.6248579077047017
  0.2777687931233524  0.2222144012133395  0.6246618514370532
  0.7777934527602691  0.7222275504239114  0.6248579077047017
  0.6111140853649488  0.2222192479683869  0.6248499621556012
  0.9444459940765159  0.2222293842648711  0.6249024124950253
  0.2777686139576892  0.7222243874298470  0.1251123688233245
  0.1111051626034452  0.2222192479683869  0.1251500378443988
  0.4444456080899868  0.2222144012133395  0.1253381485629466
  0.6111140853649488  0.7222281707298903  0.1251500378443988
  0.9444557734721580  0.7222243874298470  0.1251123688233245
  0.7777833901883551  0.2222293842648711  0.1250975875049745
  0.1111089459034887  0.8888775598611706  0.6248876311766753
  0.4444327273256434  0.8888830303294865  0.6248987669973476
  0.2777687931233524  0.3888877252433418  0.6246618514370532
  0.6111189321199963  0.3888877252433418  0.6246618514370532
  0.7777833901883551  0.8888873392568127  0.6249024124950253
  0.9444503030038421  0.3889006060076852  0.6248987669973476
  0.1111057829094249  0.3888992356696871  0.1251420922952982
  0.2777686139576892  0.8888775598611706  0.1251123688233245
  0.6111039490684645  0.8888873392568127  0.1250975875049745
  0.4444444444444429  0.3888888888888857  0.1257256717281131
  0.9444503030038421  0.8888830303294865  0.1251012330026523
  0.7777934527602691  0.3888992356696871  0.1251420922952982
  0.2777699512709870  0.5555633820623488  0.6248138426727534
  0.1111057829094249  0.0555398805730664  0.6248579077047017
  0.6111189321199963  0.5555645402099831  0.6246618514370532
  0.4444340976636414  0.0555398805730664  0.6248579077047017
  0.9444557734721580  0.5555647193756470  0.6248876311766753
  0.1111089459034887  0.5555647193756470  0.1251123688233245
  0.7777777777777786  0.0555555555555571  0.6249124991325316
  0.2777699512709870  0.0555399025419742  0.1251861573272467
  0.4444456080899868  0.5555645402099831  0.1253381485629466
  0.7777934307913618  0.5555633820623488  0.1251861573272467
  0.6111039490684645  0.0555499431449804  0.1250975875049745
  0.4444456080899868  0.5555645402099831  0.6246618514370532
  0.9444459940765159  0.0555499431449804  0.1250975875049745
  0.2777686139576892  0.7222243874298470  0.6248876311766753
  0.1111051626034452  0.2222192479683869  0.6248499621556012
  0.4444456080899868  0.2222144012133395  0.6246618514370532
  0.6111140853649488  0.7222281707298903  0.6248499621556012
  0.9444557734721580  0.7222243874298470  0.6248876311766753
  0.7777833901883551  0.2222293842648711  0.6249024124950253
  0.1111111111111143  0.7222222222222214  0.1250979648948450
  0.4444340976636414  0.7222275504239114  0.1251420922952982
  0.2777687931233524  0.2222144012133395  0.1253381485629466
  0.7777934527602691  0.7222275504239114  0.1251420922952982
  0.6111140853649488  0.2222192479683869  0.1251500378443988
  0.9444459940765159  0.2222293842648711  0.1250975875049745
  0.1111057829094249  0.3888992356696871  0.6248579077047017
  0.2777686139576892  0.8888775598611706  0.6248876311766753
  0.6111039490684645  0.8888873392568127  0.6249024124950253
  0.4444444444444429  0.3888888888888857  0.6242743282718870
  0.9444503030038421  0.8888830303294865  0.6248987669973476
  0.1111089459034887  0.8888775598611706  0.1251123688233245
  0.7777934527602691  0.3888992356696871  0.6248579077047017
  0.4444327273256434  0.8888830303294865  0.1251012330026523
  0.2777687931233524  0.3888877252433418  0.1253381485629466
  0.2777699512709870  0.5555633820623488  0.1251861573272467
  0.6111189321199963  0.3888877252433418  0.1253381485629466
  0.7777833901883551  0.8888873392568127  0.1250975875049745
  0.9444503030038421  0.3889006060076852  0.1251012330026523
  0.1111089459034887  0.5555647193756470  0.6248876311766753
  0.2777699512709870  0.0555399025419742  0.6248138426727534
  0.7777934307913618  0.5555633820623488  0.6248138426727534
  0.6111039490684645  0.0555499431449804  0.6249024124950253
  0.9444459940765159  0.0555499431449804  0.6249024124950253
  0.0549245889566592  0.1106722486696950  0.3750000000000000
  0.5559794769328930  0.6119589538657855  0.3750000000000000
  0.3882117806506420  0.1079861370282175  0.3750000000000000
  0.8899704964873951  0.6116519149103684  0.3750000000000000
  0.7223316566995253  0.1110016766338105  0.3750000000000000
  0.0555534713958553  0.7777798619374804  0.8750000000000000
  0.3888949921472543  0.7777803961318124  0.8750000000000000
  0.2222221071916282  0.2777777202624819  0.8750000000000000
  0.7222220765104473  0.7777803629053200  0.8750000000000000
  0.5555556130708538  0.2777777202624819  0.8750000000000000
  0.8888878022823675  0.2777756045647429  0.8750000000000000
  0.2220301001546218  0.7776817167439789  0.3750000000000000
  0.0549245889566592  0.2775856736202998  0.3750000000000000
  0.3832143583493961  0.2664287166987996  0.3750000000000000
  0.5557476597130359  0.7784087443766764  0.3750000000000000
  0.8897304183885760  0.7784777280917664  0.3750000000000000
  0.7226610846636408  0.2775856736202998  0.3750000000000000
  0.0555529372015236  0.9444479293487779  0.8750000000000000
  0.3888949921472543  0.9444479293487779  0.8750000000000000
  0.2222229475898699  0.4444397376861324  0.8750000000000000
  0.5555524960497744  0.4444429146915515  0.8750000000000000
  0.7222225873531219  0.9444451747062438  0.8750000000000000
  0.8888854039845507  0.4444383411860743  0.8750000000000000
  0.0548556052415695  0.4445860236301454  0.3750000000000000
  0.2216814184229668  0.9433628368459335  0.3750000000000000
  0.5557159638963824  0.9445246486148557  0.3750000000000000
  0.3832143583493961  0.4501189749839325  0.3750000000000000
  0.8888086847184729  0.9445246486148557  0.3750000000000000
  0.7253471963051180  0.4451215526826865  0.3750000000000000
  0.2222250170410890  0.6111083162922465  0.8750000000000000
  0.0555529704280157  0.1111112568228884  0.8750000000000000
  0.5555556130708538  0.6111112261417075  0.8750000000000000
  0.3888935956471962  0.1111165432370731  0.8750000000000000
  0.8888832992511505  0.6111083162922465  0.8750000000000000
  0.0556516165893570  0.6113032331787140  0.3750000000000000
  0.7222225873531218  0.1111107459802138  0.8750000000000000
  0.2197743563775683  0.1079861370282175  0.3750000000000000
  0.3882117806506420  0.6135589769557671  0.3750000000000000
  0.7253471963051180  0.6135589769557671  0.3750000000000000
  0.5557476597130359  0.1106722486696950  0.3750000000000000
  0.3888935956471962  0.6111103857434659  0.8750000000000000
  0.8886700199342782  0.1110016766338105  0.3750000000000000
  0.2222263905416252  0.7777798619374804  0.8750000000000000
  0.0555529704280157  0.2777750469384631  0.8750000000000000
  0.3888904186417771  0.2777808372835615  0.8750000000000000
  0.5555582863948729  0.7777803629053200  0.8750000000000000
  0.8888854039845507  0.7777803961318124  0.8750000000000000
  0.7222220765104473  0.2777750469384631  0.8750000000000000
  0.0556516165893570  0.7776817167439789  0.3750000000000000
  0.3887473097031832  0.7784777280917664  0.3750000000000000
  0.2213743794675498  0.2773538564004430  0.3750000000000000
  0.7226610846636408  0.7784087443766764  0.3750000000000000
  0.5559794769328930  0.2773538564004430  0.3750000000000000
  0.8888086847184729  0.2776173694369535  0.3750000000000000
  0.0555529372015236  0.4444383411860743  0.8750000000000000
  0.2222250170410890  0.9444500340821781  0.8750000000000000
  0.5555577287685927  0.9444455310509611  0.8750000000000000
  0.3888904186417771  0.4444429146915515  0.8750000000000000
  0.8888878022823675  0.9444455310509611  0.8750000000000000
  0.0548556052415695  0.9436029149447526  0.3750000000000000
  0.7222167900962624  0.4444397376861324  0.8750000000000000
  0.3887473097031832  0.9436029149447526  0.3750000000000000
  0.2197743563775683  0.4451215526826865  0.3750000000000000
  0.2216814184229668  0.6116519149103684  0.3750000000000000
  0.5669046166345364  0.4501189749839325  0.3750000000000000
  0.7223316566995253  0.9446633133990504  0.3750000000000000
  0.8897304183885760  0.4445860236301454  0.3750000000000000
  0.0555534713958553  0.6111069427917105  0.8750000000000000
  0.2222229475898699  0.1111165432370731  0.8750000000000000
  0.7222167900962624  0.6111103857434659  0.8750000000000000
  0.5555582863948729  0.1111112568228884  0.8750000000000000
  0.8888881586270848  0.1111107459802138  0.8750000000000000
  0.1088870234989558  0.0536342928431922  0.3750000000000000
  0.6166282067638821  0.5615102285523612  0.3750000000000000
  0.4447472693442368  0.0536342928431922  0.3750000000000000
  0.9450535049095011  0.5556945185139731  0.3750000000000000
  0.7777777777777786  0.0555555555555571  0.3750000000000000
  0.1111111111111143  0.7222222222222214  0.8750000000000000
  0.4444578875815861  0.7222591734697235  0.8750000000000000
  0.2777365563002400  0.2221888613361079  0.8750000000000000
  0.7778012858881370  0.7222591734697235  0.8750000000000000
  0.6111370086970521  0.2221963246362838  0.8750000000000000
  0.9444189136139499  0.2222060222695424  0.8750000000000000
  0.2776388148193624  0.7226923197288635  0.3750000000000000
  0.1093975172548541  0.2213654252940913  0.3750000000000000
  0.4448820217884790  0.2167051265694532  0.3750000000000000
  0.6119679080392446  0.7239358160784816  0.3750000000000000
  0.9450535049095011  0.7226923197288635  0.3750000000000000
  0.7779883179383311  0.2218137996944355  0.3750000000000000
  0.1110997638331485  0.8888792513644301  0.8750000000000000
  0.4444580203332194  0.8888956768332739  0.8750000000000000
  0.2777365563002400  0.3888810282974607  0.8750000000000000
  0.6111444719972280  0.3888810282974607  0.8750000000000000
  0.7777871086555925  0.8889144197193787  0.8750000000000000
  0.9444376565000547  0.3888753130001092  0.8750000000000000
  0.1088870234989558  0.3885860639890918  0.3750000000000000
  0.2776388148193624  0.8882798284238275  0.3750000000000000
  0.6115195336389003  0.8895078515772240  0.3750000000000000
  0.9442896041364289  0.8890437291968997  0.3750000000000000
  0.7796990404901435  0.3885860639890918  0.3750000000000000
  0.2777626994540002  0.5555706338793356  0.8750000000000000
  0.1110741598636123  0.0555320474451985  0.8750000000000000
  0.6111444719972280  0.5555967770330958  0.8750000000000000
  0.4444578875815861  0.0555320474451985  0.8750000000000000
  0.9444540819688985  0.5555538458020466  0.8750000000000000
  0.1106410136044722  0.5556945185139731  0.3750000000000000
  0.7777777777777786  0.0555555555555571  0.8750000000000000
  0.2766544430913835  0.0533088861827669  0.3750000000000000
  0.4448820217884790  0.5615102285523612  0.3750000000000000
  0.7800244471505687  0.5566788902419522  0.3750000000000000
  0.6115195336389003  0.0553450153950046  0.3750000000000000
  0.4444523050358679  0.5555967770330958  0.8750000000000000
  0.9438254817561046  0.0553450153950046  0.3750000000000000
  0.2777794875312888  0.7222335695001871  0.8750000000000000
  0.1110593159392389  0.2221963246362838  0.8750000000000000
  0.4444523050358679  0.2221888613361079  0.8750000000000000
  0.6111370086970521  0.7222740173940967  0.8750000000000000
  0.9444540819688985  0.7222335695001871  0.8750000000000000
  0.7777871086555925  0.2222060222695424  0.8750000000000000
  0.1111111111111143  0.7222222222222214  0.3750000000000000
  0.4447472693442368  0.7244463098343799  0.3750000000000000
  0.2718231047809742  0.2167051265694532  0.3750000000000000
  0.7796990404901435  0.7244463098343799  0.3750000000000000
  0.6119679080392446  0.2213654252940913  0.3750000000000000
  0.9438254817561046  0.2218137996944355  0.3750000000000000
  0.1110741598636123  0.3888754457517425  0.8750000000000000
  0.2777794875312888  0.8888792513644301  0.8750000000000000
  0.6111273110637936  0.8889144197193787  0.8750000000000000
  0.4444444444444429  0.3888888888888857  0.8750000000000000
  0.9444376565000547  0.8888956768332739  0.8750000000000000
  0.1106410136044722  0.8882798284238275  0.3750000000000000
  0.7778012858881370  0.3888754457517425  0.8750000000000000
  0.4447541250604714  0.8890437291968997  0.3750000000000000
  0.2718231047809742  0.3884513115448496  0.3750000000000000
  0.2766544430913835  0.5566788902419522  0.3750000000000000
  0.6166282067638821  0.3884513115448496  0.3750000000000000
  0.7779883179383311  0.8895078515772240  0.3750000000000000
  0.9442896041364289  0.3885792082728572  0.3750000000000000
  0.1110997638331485  0.5555538458020466  0.8750000000000000
  0.2777626994540002  0.0555253989080006  0.8750000000000000
  0.7778079344253352  0.5555706338793356  0.8750000000000000
  0.6111273110637936  0.0555462246777431  0.8750000000000000
  0.9444189136139499  0.0555462246777431  0.8750000000000000
  0.0554692789485621  0.1110363171732246  0.1248740309155686
  0.5556349208853653  0.6112698417707310  0.1247673038443277
  0.3888280090410311  0.1109261901487842  0.1248310441881259
  0.8890070065333782  0.6111701699333604  0.1248885902873603
  0.7222345834188357  0.1110987499144996  0.1249148118657724
  0.0555721518604782  0.7777611814728574  0.6250903285782210
  0.3888500382900576  0.7778149519346306  0.6251065277594274
  0.2220634915626050  0.2776984124479702  0.6252326961556721
  0.7222970161601109  0.7778640543847735  0.6251259690844320
  0.5556349208853653  0.2776984124479702  0.6252326961556721
  0.8888925942209669  0.2777851884419412  0.6250899837760969
  0.2221890296123793  0.7777611814728574  0.1249096714217789
  0.0554692789485621  0.2777662951086731  0.1248740309155686
  0.3887839511571244  0.2775679023142563  0.1245955586499069
  0.5555670382246629  0.7778640543847735  0.1248740309155686
  0.8889649136445661  0.7778149519346306  0.1248934722405726
  0.7222970161601109  0.2777662951086731  0.1248740309155686
  0.0555183813987051  0.9443684196887625  0.6251065277594274
  0.3888500382900576  0.9443684196887625  0.6251065277594274
  0.2220981811077458  0.4445053242922975  0.6251689558118740
  0.5557654310190798  0.4445493821762042  0.6254044413500931
  0.7222345834188357  0.9444691668376722  0.6250851881342279
  0.8889649136445661  0.4444832950432710  0.6251065277594274
  0.0555183813987051  0.4444832950432710  0.1248934722405726
  0.2221631633999752  0.9443263267999504  0.1248885902873603
  0.5555481448913945  0.9444407391123617  0.1249100162239029
  0.3887839511571244  0.4445493821762042  0.1245955586499069
  0.8888925942209669  0.9444407391123617  0.1249100162239029
  0.7224071431845517  0.4445053242922975  0.1248310441881259
  0.2221631633999752  0.6111701699333604  0.6251114097126398
  0.0554692789485621  0.1110363171732246  0.6251259690844320
  0.5556349208853653  0.6112698417707310  0.6252326961556721
  0.3888280090410311  0.1109261901487842  0.6251689558118740
  0.8890070065333782  0.6111701699333604  0.6251114097126398
  0.0555721518604782  0.6111443037209562  0.1249096714217789
  0.7222345834188357  0.1110987499144996  0.6250851881342279
  0.2220981811077458  0.1109261901487842  0.1248310441881259
  0.3888280090410311  0.6112351522255897  0.1248310441881259
  0.7224071431845517  0.6112351522255897  0.1248310441881259
  0.5555670382246629  0.1110363171732246  0.1248740309155686
  0.3888280090410311  0.6112351522255897  0.6251689558118740
  0.8888641664956564  0.1110987499144996  0.1249148118657724
  0.2221890296123793  0.7777611814728574  0.6250903285782210
  0.0554692789485621  0.2777662951086731  0.6251259690844320
  0.3887839511571244  0.2775679023142563  0.6254044413500931
  0.5555670382246629  0.7778640543847735  0.6251259690844320
  0.8889649136445661  0.7778149519346306  0.6251065277594274
  0.7222970161601109  0.2777662951086731  0.6251259690844320
  0.0555721518604782  0.7777611814728574  0.1249096714217789
  0.3888500382900576  0.7778149519346306  0.1248934722405726
  0.2220634915626050  0.2776984124479702  0.1247673038443277
  0.7222970161601109  0.7778640543847735  0.1248740309155686
  0.5556349208853653  0.2776984124479702  0.1247673038443277
  0.8888925942209669  0.2777851884419412  0.1249100162239029
  0.0555183813987051  0.4444832950432710  0.6251065277594274
  0.2221631633999752  0.9443263267999504  0.6251114097126398
  0.5555481448913945  0.9444407391123617  0.6250899837760969
  0.3887839511571244  0.4445493821762042  0.6254044413500931
  0.8888925942209669  0.9444407391123617  0.6250899837760969
  0.0555183813987051  0.9443684196887625  0.1248934722405726
  0.7224071431845517  0.4445053242922975  0.6251689558118740
  0.3888500382900576  0.9443684196887625  0.1248934722405726
  0.2220981811077458  0.4445053242922975  0.1248310441881259
  0.2221631633999752  0.6111701699333604  0.1248885902873603
  0.5557654310190798  0.4445493821762042  0.1245955586499069
  0.7222345834188357  0.9444691668376722  0.1249148118657724
  0.8889649136445661  0.4444832950432710  0.1248934722405726
  0.0555721518604782  0.6111443037209562  0.6250903285782210
  0.2220981811077458  0.1109261901487842  0.6251689558118740
  0.7224071431845517  0.6112351522255897  0.6251689558118740
  0.5555670382246629  0.1110363171732246  0.6251259690844320
  0.8888641664956564  0.1110987499144996  0.6250851881342279
 
  0.00000000E+00  0.00000000E+00  0.00000000E+00
  0.00000000E+00  0.00000000E+00  0.00000000E+00
  0.00000000E+00  0.00000000E+00  0.00000000E+00
  0.00000000E+00  0.00000000E+00  0.00000000E+00
  0.00000000E+00  0.00000000E+00  0.00000000E+00
  0.00000000E+00  0.00000000E+00  0.00000000E+00
  0.00000000E+00  0.00000000E+00  0.00000000E+00
  0.00000000E+00  0.00000000E+00  0.00000000E+00
  0.00000000E+00  0.00000000E+00  0.00000000E+00
  0.00000000E+00  0.00000000E+00  0.00000000E+00
  0.00000000E+00  0.00000000E+00  0.00000000E+00
  0.00000000E+00  0.00000000E+00  0.00000000E+00
  0.00000000E+00  0.00000000E+00  0.00000000E+00
  0.00000000E+00  0.00000000E+00  0.00000000E+00
  0.00000000E+00  0.00000000E+00  0.00000000E+00
  0.00000000E+00  0.00000000E+00  0.00000000E+00
  0.00000000E+00  0.00000000E+00  0.00000000E+00
  0.00000000E+00  0.00000000E+00  0.00000000E+00
  0.00000000E+00  0.00000000E+00  0.00000000E+00
  0.00000000E+00  0.00000000E+00  0.00000000E+00
  0.00000000E+00  0.00000000E+00  0.00000000E+00
  0.00000000E+00  0.00000000E+00  0.00000000E+00
  0.00000000E+00  0.00000000E+00  0.00000000E+00
  0.00000000E+00  0.00000000E+00  0.00000000E+00
  0.00000000E+00  0.00000000E+00  0.00000000E+00
  0.00000000E+00  0.00000000E+00  0.00000000E+00
  0.00000000E+00  0.00000000E+00  0.00000000E+00
  0.00000000E+00  0.00000000E+00  0.00000000E+00
  0.00000000E+00  0.00000000E+00  0.00000000E+00
  0.00000000E+00  0.00000000E+00  0.00000000E+00
  0.00000000E+00  0.00000000E+00  0.00000000E+00
  0.00000000E+00  0.00000000E+00  0.00000000E+00
  0.00000000E+00  0.00000000E+00  0.00000000E+00
  0.00000000E+00  0.00000000E+00  0.00000000E+00
  0.00000000E+00  0.00000000E+00  0.00000000E+00
  0.00000000E+00  0.00000000E+00  0.00000000E+00
  0.00000000E+00  0.00000000E+00  0.00000000E+00
  0.00000000E+00  0.00000000E+00  0.00000000E+00
  0.00000000E+00  0.00000000E+00  0.00000000E+00
  0.00000000E+00  0.00000000E+00  0.00000000E+00
  0.00000000E+00  0.00000000E+00  0.00000000E+00
  0.00000000E+00  0.00000000E+00  0.00000000E+00
  0.00000000E+00  0.00000000E+00  0.00000000E+00
  0.00000000E+00  0.00000000E+00  0.00000000E+00
  0.00000000E+00  0.00000000E+00  0.00000000E+00
  0.00000000E+00  0.00000000E+00  0.00000000E+00
  0.00000000E+00  0.00000000E+00  0.00000000E+00
  0.00000000E+00  0.00000000E+00  0.00000000E+00
  0.00000000E+00  0.00000000E+00  0.00000000E+00
  0.00000000E+00  0.00000000E+00  0.00000000E+00
  0.00000000E+00  0.00000000E+00  0.00000000E+00
  0.00000000E+00  0.00000000E+00  0.00000000E+00
  0.00000000E+00  0.00000000E+00  0.00000000E+00
  0.00000000E+00  0.00000000E+00  0.00000000E+00
  0.00000000E+00  0.00000000E+00  0.00000000E+00
  0.00000000E+00  0.00000000E+00  0.00000000E+00
  0.00000000E+00  0.00000000E+00  0.00000000E+00
  0.00000000E+00  0.00000000E+00  0.00000000E+00
  0.00000000E+00  0.00000000E+00  0.00000000E+00
  0.00000000E+00  0.00000000E+00  0.00000000E+00
  0.00000000E+00  0.00000000E+00  0.00000000E+00
  0.00000000E+00  0.00000000E+00  0.00000000E+00
  0.00000000E+00  0.00000000E+00  0.00000000E+00
  0.00000000E+00  0.00000000E+00  0.00000000E+00
  0.00000000E+00  0.00000000E+00  0.00000000E+00
  0.00000000E+00  0.00000000E+00  0.00000000E+00
  0.00000000E+00  0.00000000E+00  0.00000000E+00
  0.00000000E+00  0.00000000E+00  0.00000000E+00
  0.00000000E+00  0.00000000E+00  0.00000000E+00
  0.00000000E+00  0.00000000E+00  0.00000000E+00
  0.00000000E+00  0.00000000E+00  0.00000000E+00
  0.00000000E+00  0.00000000E+00  0.00000000E+00
  0.00000000E+00  0.00000000E+00  0.00000000E+00
  0.00000000E+00  0.00000000E+00  0.00000000E+00
  0.00000000E+00  0.00000000E+00  0.00000000E+00
  0.00000000E+00  0.00000000E+00  0.00000000E+00
  0.00000000E+00  0.00000000E+00  0.00000000E+00
  0.00000000E+00  0.00000000E+00  0.00000000E+00
  0.00000000E+00  0.00000000E+00  0.00000000E+00
  0.00000000E+00  0.00000000E+00  0.00000000E+00
  0.00000000E+00  0.00000000E+00  0.00000000E+00
  0.00000000E+00  0.00000000E+00  0.00000000E+00
  0.00000000E+00  0.00000000E+00  0.00000000E+00
  0.00000000E+00  0.00000000E+00  0.00000000E+00
  0.00000000E+00  0.00000000E+00  0.00000000E+00
  0.00000000E+00  0.00000000E+00  0.00000000E+00
  0.00000000E+00  0.00000000E+00  0.00000000E+00
  0.00000000E+00  0.00000000E+00  0.00000000E+00
  0.00000000E+00  0.00000000E+00  0.00000000E+00
  0.00000000E+00  0.00000000E+00  0.00000000E+00
  0.00000000E+00  0.00000000E+00  0.00000000E+00
  0.00000000E+00  0.00000000E+00  0.00000000E+00
  0.00000000E+00  0.00000000E+00  0.00000000E+00
  0.00000000E+00  0.00000000E+00  0.00000000E+00
  0.00000000E+00  0.00000000E+00  0.00000000E+00
  0.00000000E+00  0.00000000E+00  0.00000000E+00
  0.00000000E+00  0.00000000E+00  0.00000000E+00
  0.00000000E+00  0.00000000E+00  0.00000000E+00
  0.00000000E+00  0.00000000E+00  0.00000000E+00
  0.00000000E+00  0.00000000E+00  0.00000000E+00
  0.00000000E+00  0.00000000E+00  0.00000000E+00
  0.00000000E+00  0.00000000E+00  0.00000000E+00
  0.00000000E+00  0.00000000E+00  0.00000000E+00
  0.00000000E+00  0.00000000E+00  0.00000000E+00
  0.00000000E+00  0.00000000E+00  0.00000000E+00
  0.00000000E+00  0.00000000E+00  0.00000000E+00
  0.00000000E+00  0.00000000E+00  0.00000000E+00
  0.00000000E+00  0.00000000E+00  0.00000000E+00
  0.00000000E+00  0.00000000E+00  0.00000000E+00
  0.00000000E+00  0.00000000E+00  0.00000000E+00
  0.00000000E+00  0.00000000E+00  0.00000000E+00
  0.00000000E+00  0.00000000E+00  0.00000000E+00
  0.00000000E+00  0.00000000E+00  0.00000000E+00
  0.00000000E+00  0.00000000E+00  0.00000000E+00
  0.00000000E+00  0.00000000E+00  0.00000000E+00
  0.00000000E+00  0.00000000E+00  0.00000000E+00
  0.00000000E+00  0.00000000E+00  0.00000000E+00
  0.00000000E+00  0.00000000E+00  0.00000000E+00
  0.00000000E+00  0.00000000E+00  0.00000000E+00
  0.00000000E+00  0.00000000E+00  0.00000000E+00
  0.00000000E+00  0.00000000E+00  0.00000000E+00
  0.00000000E+00  0.00000000E+00  0.00000000E+00
  0.00000000E+00  0.00000000E+00  0.00000000E+00
  0.00000000E+00  0.00000000E+00  0.00000000E+00
  0.00000000E+00  0.00000000E+00  0.00000000E+00
  0.00000000E+00  0.00000000E+00  0.00000000E+00
  0.00000000E+00  0.00000000E+00  0.00000000E+00
  0.00000000E+00  0.00000000E+00  0.00000000E+00
  0.00000000E+00  0.00000000E+00  0.00000000E+00
  0.00000000E+00  0.00000000E+00  0.00000000E+00
  0.00000000E+00  0.00000000E+00  0.00000000E+00
  0.00000000E+00  0.00000000E+00  0.00000000E+00
  0.00000000E+00  0.00000000E+00  0.00000000E+00
  0.00000000E+00  0.00000000E+00  0.00000000E+00
  0.00000000E+00  0.00000000E+00  0.00000000E+00
  0.00000000E+00  0.00000000E+00  0.00000000E+00
  0.00000000E+00  0.00000000E+00  0.00000000E+00
  0.00000000E+00  0.00000000E+00  0.00000000E+00
  0.00000000E+00  0.00000000E+00  0.00000000E+00
  0.00000000E+00  0.00000000E+00  0.00000000E+00
  0.00000000E+00  0.00000000E+00  0.00000000E+00
  0.00000000E+00  0.00000000E+00  0.00000000E+00
  0.00000000E+00  0.00000000E+00  0.00000000E+00
  0.00000000E+00  0.00000000E+00  0.00000000E+00
  0.00000000E+00  0.00000000E+00  0.00000000E+00
  0.00000000E+00  0.00000000E+00  0.00000000E+00
  0.00000000E+00  0.00000000E+00  0.00000000E+00
  0.00000000E+00  0.00000000E+00  0.00000000E+00
  0.00000000E+00  0.00000000E+00  0.00000000E+00
  0.00000000E+00  0.00000000E+00  0.00000000E+00
  0.00000000E+00  0.00000000E+00  0.00000000E+00
  0.00000000E+00  0.00000000E+00  0.00000000E+00
  0.00000000E+00  0.00000000E+00  0.00000000E+00
  0.00000000E+00  0.00000000E+00  0.00000000E+00
  0.00000000E+00  0.00000000E+00  0.00000000E+00
  0.00000000E+00  0.00000000E+00  0.00000000E+00
  0.00000000E+00  0.00000000E+00  0.00000000E+00
  0.00000000E+00  0.00000000E+00  0.00000000E+00
  0.00000000E+00  0.00000000E+00  0.00000000E+00
  0.00000000E+00  0.00000000E+00  0.00000000E+00
  0.00000000E+00  0.00000000E+00  0.00000000E+00
  0.00000000E+00  0.00000000E+00  0.00000000E+00
  0.00000000E+00  0.00000000E+00  0.00000000E+00
  0.00000000E+00  0.00000000E+00  0.00000000E+00
  0.00000000E+00  0.00000000E+00  0.00000000E+00
  0.00000000E+00  0.00000000E+00  0.00000000E+00
  0.00000000E+00  0.00000000E+00  0.00000000E+00
  0.00000000E+00  0.00000000E+00  0.00000000E+00
  0.00000000E+00  0.00000000E+00  0.00000000E+00
  0.00000000E+00  0.00000000E+00  0.00000000E+00
  0.00000000E+00  0.00000000E+00  0.00000000E+00
  0.00000000E+00  0.00000000E+00  0.00000000E+00
  0.00000000E+00  0.00000000E+00  0.00000000E+00
  0.00000000E+00  0.00000000E+00  0.00000000E+00
  0.00000000E+00  0.00000000E+00  0.00000000E+00
  0.00000000E+00  0.00000000E+00  0.00000000E+00
  0.00000000E+00  0.00000000E+00  0.00000000E+00
  0.00000000E+00  0.00000000E+00  0.00000000E+00
  0.00000000E+00  0.00000000E+00  0.00000000E+00
  0.00000000E+00  0.00000000E+00  0.00000000E+00
  0.00000000E+00  0.00000000E+00  0.00000000E+00
  0.00000000E+00  0.00000000E+00  0.00000000E+00
  0.00000000E+00  0.00000000E+00  0.00000000E+00
  0.00000000E+00  0.00000000E+00  0.00000000E+00
  0.00000000E+00  0.00000000E+00  0.00000000E+00
  0.00000000E+00  0.00000000E+00  0.00000000E+00
  0.00000000E+00  0.00000000E+00  0.00000000E+00
  0.00000000E+00  0.00000000E+00  0.00000000E+00
  0.00000000E+00  0.00000000E+00  0.00000000E+00
  0.00000000E+00  0.00000000E+00  0.00000000E+00
  0.00000000E+00  0.00000000E+00  0.00000000E+00
  0.00000000E+00  0.00000000E+00  0.00000000E+00
  0.00000000E+00  0.00000000E+00  0.00000000E+00
  0.00000000E+00  0.00000000E+00  0.00000000E+00
  0.00000000E+00  0.00000000E+00  0.00000000E+00
  0.00000000E+00  0.00000000E+00  0.00000000E+00
  0.00000000E+00  0.00000000E+00  0.00000000E+00
  0.00000000E+00  0.00000000E+00  0.00000000E+00
  0.00000000E+00  0.00000000E+00  0.00000000E+00
  0.00000000E+00  0.00000000E+00  0.00000000E+00
  0.00000000E+00  0.00000000E+00  0.00000000E+00
  0.00000000E+00  0.00000000E+00  0.00000000E+00
  0.00000000E+00  0.00000000E+00  0.00000000E+00
  0.00000000E+00  0.00000000E+00  0.00000000E+00
  0.00000000E+00  0.00000000E+00  0.00000000E+00
  0.00000000E+00  0.00000000E+00  0.00000000E+00
  0.00000000E+00  0.00000000E+00  0.00000000E+00
  0.00000000E+00  0.00000000E+00  0.00000000E+00
  0.00000000E+00  0.00000000E+00  0.00000000E+00
  0.00000000E+00  0.00000000E+00  0.00000000E+00
  0.00000000E+00  0.00000000E+00  0.00000000E+00
  0.00000000E+00  0.00000000E+00  0.00000000E+00
  0.00000000E+00  0.00000000E+00  0.00000000E+00
  0.00000000E+00  0.00000000E+00  0.00000000E+00
  0.00000000E+00  0.00000000E+00  0.00000000E+00
  0.00000000E+00  0.00000000E+00  0.00000000E+00
  0.00000000E+00  0.00000000E+00  0.00000000E+00
  0.00000000E+00  0.00000000E+00  0.00000000E+00
  0.00000000E+00  0.00000000E+00  0.00000000E+00
  0.00000000E+00  0.00000000E+00  0.00000000E+00
  0.00000000E+00  0.00000000E+00  0.00000000E+00
  0.00000000E+00  0.00000000E+00  0.00000000E+00
  0.00000000E+00  0.00000000E+00  0.00000000E+00
  0.00000000E+00  0.00000000E+00  0.00000000E+00
  0.00000000E+00  0.00000000E+00  0.00000000E+00
  0.00000000E+00  0.00000000E+00  0.00000000E+00
  0.00000000E+00  0.00000000E+00  0.00000000E+00
  0.00000000E+00  0.00000000E+00  0.00000000E+00
  0.00000000E+00  0.00000000E+00  0.00000000E+00
  0.00000000E+00  0.00000000E+00  0.00000000E+00
  0.00000000E+00  0.00000000E+00  0.00000000E+00
  0.00000000E+00  0.00000000E+00  0.00000000E+00
  0.00000000E+00  0.00000000E+00  0.00000000E+00
  0.00000000E+00  0.00000000E+00  0.00000000E+00
  0.00000000E+00  0.00000000E+00  0.00000000E+00
  0.00000000E+00  0.00000000E+00  0.00000000E+00
  0.00000000E+00  0.00000000E+00  0.00000000E+00
  0.00000000E+00  0.00000000E+00  0.00000000E+00
  0.00000000E+00  0.00000000E+00  0.00000000E+00
  0.00000000E+00  0.00000000E+00  0.00000000E+00
  0.00000000E+00  0.00000000E+00  0.00000000E+00
  0.00000000E+00  0.00000000E+00  0.00000000E+00
  0.00000000E+00  0.00000000E+00  0.00000000E+00
  0.00000000E+00  0.00000000E+00  0.00000000E+00
  0.00000000E+00  0.00000000E+00  0.00000000E+00
  0.00000000E+00  0.00000000E+00  0.00000000E+00
  0.00000000E+00  0.00000000E+00  0.00000000E+00