B C N                                   
   1.0000000000000000     
     8.7639499999999995  -15.1796066749929999    0.0000000000000000
     8.7639499999999995   15.1796066749929999    0.0000000000000000
     0.0000000000000000    0.0000000000000000   15.0000000000000000
   B    C    N 
    49     1    48
Selective dynamics
Direct
  0.9048459433292922  0.9525117571673496  0.1110166960619356   T   T   T
  0.9047314256212580  0.0952703533137431  0.1110402762612511   T   T   T
  0.9047597560058757  0.2380986298269772  0.1110424403573955   T   T   T
  0.9048882224581625  0.3809594169965891  0.1110101958515013   T   T   T
  0.9054389010113525  0.5239102719865468  0.1110256639356731   T   T   T
  0.9054889646905246  0.6669748315712983  0.1110722476515426   T   T   T
  0.9054155912502504  0.8100370590882152  0.1110536166023176   T   T   T
  0.0476552127119351  0.9523465189100645  0.1110184320492398   T   T   T
  0.0474899647066503  0.0951557499977082  0.1110166945479325   T   T   T
  0.0474917999640629  0.2380666170583829  0.1110067162884194   T   T   T
  0.0475031579413760  0.3809468640503053  0.1110242578658401   T   T   T
  0.0476346111580326  0.5238440540735039  0.1110190568809316   T   T   T
  0.0478483631063698  0.6667541641464541  0.1110270107173104   T   T   T
  0.0478728894902741  0.8096115343296829  0.1110013166545306   T   T   T
  0.1903901973703128  0.9521288092267259  0.1110013137695282   T   T   T
  0.1899646995577851  0.0945861471287476  0.1110536129983169   T   T   T
  0.1901582843388224  0.2378233996907362  0.1110063714186791   T   T   T
  0.1901346140301091  0.3809442734951885  0.1110064448216041   T   T   T
  0.1899064985184824  0.5238996235215384  0.1110437850533385   T   T   T
  0.1903276664178500  0.6667712793114769  0.1110520082851573   T   T   T
  0.1904790929358602  0.8095225074671356  0.1110023845298075   T   T   T
  0.3332474533525482  0.9521531946346313  0.1110270128383160   T   T   T
  0.3330269612297026  0.0945127159134762  0.1110722465185395   T   T   T
  0.3320677081846815  0.2364514185283621  0.1110437290051877   T   T   T
  0.3330141895372087  0.3808150305441904  0.1110283727753758   T   T   T
  0.3320148550041920  0.5241658279885039  0.1110081800941185   T   T   T
  0.3329688950495871  0.6670330338844104  0.1110590489659723   T   T   T
  0.3332303711295229  0.8096740748381498  0.1110520098141529   T   T   T
  0.4761575610924952  0.9523670537749694  0.1110190637779284   T   T   T
  0.4760914109134521  0.0945624559246439  0.1110256722236710   T   T   T
  0.4758609450169635  0.2364376306738060  0.1110547063202460   T   T   T
  0.4739363968675641  0.3764489765918430  0.1110522965082955   T   T   T
  0.4739271124907517  0.5260744305492481  0.1110731102718909   T   T   T
  0.4758359050984998  0.6679870130458071  0.1110081805211191   T   T   T
  0.4761021438154583  0.8100955963575129  0.1110437926843401   T   T   T
  0.6190548952996937  0.9524986788636219  0.1110242616138393   T   T   T
  0.6190422871534125  0.0951133786248371  0.1110101989295014   T   T   T
  0.6190527199062806  0.2377852869031306  0.1110250695843042   T   T   T
  0.6192078485334180  0.3807939036335838  0.1110083400882009   T   T   T
  0.6235528880941555  0.5260653789944392  0.1110522948762925   T   T   T
  0.6191865991488124  0.6669873827177931  0.1110283701293786   T   T   T
  0.6190573943298149  0.8098671615178840  0.1110064459956054   T   T   T
  0.7619351083326117  0.9525099844179374  0.1110067236224213   T   T   T
  0.7619031225340239  0.0952419880331281  0.1110424427003960   T   T   T
  0.7619655118741363  0.2380361195988683  0.1110541425249742   T   T   T
  0.7622162739518739  0.3809489561437168  0.1110250644653056   T   T   T
  0.7635640244721947  0.5241408905660359  0.1110547030132522   T   T   T
  0.7635504032266373  0.6679340507973132  0.1110437331311886   T   T   T
  0.7621782572792632  0.8098433715341772  0.1110063796196781   T   T   T
  0.5237929592112528  0.4762088984777472  0.1111347221962906   T   T   T
  0.9526257425135612  0.9050551475641112  0.1110155128747852   T   T   T
  0.9523550835173079  0.0476466463216913  0.1110057440513489   T   T   T
  0.9523337516965801  0.1904292839148837  0.1110056517010185   T   T   T
  0.9523427220657313  0.3332461154750199  0.1109966692695510   T   T   T
  0.9526141483284097  0.4761392815909641  0.1109730032233294   T   T   T
  0.9527857250417161  0.6191798995220317  0.1110352701363766   T   T   T
  0.9527914213568419  0.7622026698700726  0.1110242555843549   T   T   T
  0.0952481352775666  0.9047535921964337  0.1109760684318643   T   T   T
  0.0949465936168837  0.0473759776104357  0.1110155252857854   T   T   T
  0.0950519146557541  0.1903502424138565  0.1109781246001313   T   T   T
  0.0950578102253329  0.3332250155380583  0.1109941029352668   T   T   T
  0.0949569422763459  0.4761343571904310  0.1110049739853577   T   T   T
  0.0952522013066465  0.6190904263779076  0.1110059600425940   T   T   T
  0.0953525203017671  0.7619799948390859  0.1109798965972958   T   T   T
  0.2380216266559164  0.9046490684182293  0.1109798948462982   T   T   T
  0.2377991014899247  0.0472102942031615  0.1110242531263531   T   T   T
  0.2371691090240048  0.1895397379671928  0.1110195362346234   T   T   T
  0.2378826061245975  0.3332113730434490  0.1109892745105241   T   T   T
  0.2371843332560199  0.4761891716317795  0.1109920581561801   T   T   T
  0.2378132400283982  0.6191706005755054  0.1110375021950514   T   T   T
  0.2380278439797551  0.7619738225482449  0.1110161952720506   T   T   T
  0.3809112059490913  0.9047494393243517  0.1110059628325898   T   T   T
  0.3808217725339694  0.0472157548112885  0.1110352792943771   T   T   T
  0.3804799411127172  0.1895498845475992  0.1110466002298076   T   T   T
  0.3792351818812049  0.3311815568544720  0.1110111143107216   T   T   T
  0.3792474494330659  0.4766314678386869  0.1110036161583073   T   T   T
  0.3804923553541100  0.6195094381298931  0.1109991096169504   T   T   T
  0.3808312018254963  0.7621887500535997  0.1110375057230524   T   T   T
  0.5238674359375618  0.9050451205956536  0.1110049816463514   T   T   T
  0.5238624530970345  0.0473873132595894  0.1109730086793313   T   T   T
  0.5237961701142398  0.1895563658106557  0.1110194169152639   T   T   T
  0.5233531079355679  0.3311947684770760  0.1110020264451125   T   T   T
  0.5233700179983096  0.6207540663299371  0.1110036147613092   T   T   T
  0.5238124721172223  0.7628176782059815  0.1109920659201811   T   T   T
  0.6667767024999416  0.9049440021756626  0.1109941040102682   T   T   T
  0.6667556642949827  0.0476590397062662  0.1109966726345535   T   T   T
  0.6667520937654605  0.1903841505522887  0.1110175510863685   T   T   T
  0.6667625226971764  0.3332390937328215  0.1110004149981550   T   T   T
  0.6688070239189298  0.4766486437864280  0.1110020258901076   T   T   T
  0.6688203223215251  0.6207665428478053  0.1110111078587236   T   T   T
  0.6667902375735560  0.7621190043533971  0.1109892738855236   T   T   T
  0.8096514256981423  0.9049497925942459  0.1109781358011341   T   T   T
  0.8095724840641169  0.0476680397294213  0.1110056579640193   T   T   T
  0.8095577434294179  0.1904439537145826  0.1110273168884801   T   T   T
  0.8096173992737068  0.3332495630805420  0.1110175461323722   T   T   T
  0.8104449563223465  0.4762055160147565  0.1110194060332664   T   T   T
  0.8104518734633962  0.6195218358522828  0.1110465999098076   T   T   T
  0.8104620201928106  0.7628326186719903  0.1110195539036185   T   T   T

  0.00000000E+00  0.00000000E+00  0.00000000E+00
  0.00000000E+00  0.00000000E+00  0.00000000E+00
  0.00000000E+00  0.00000000E+00  0.00000000E+00
  0.00000000E+00  0.00000000E+00  0.00000000E+00
  0.00000000E+00  0.00000000E+00  0.00000000E+00
  0.00000000E+00  0.00000000E+00  0.00000000E+00
  0.00000000E+00  0.00000000E+00  0.00000000E+00
  0.00000000E+00  0.00000000E+00  0.00000000E+00
  0.00000000E+00  0.00000000E+00  0.00000000E+00
  0.00000000E+00  0.00000000E+00  0.00000000E+00
  0.00000000E+00  0.00000000E+00  0.00000000E+00
  0.00000000E+00  0.00000000E+00  0.00000000E+00
  0.00000000E+00  0.00000000E+00  0.00000000E+00
  0.00000000E+00  0.00000000E+00  0.00000000E+00
  0.00000000E+00  0.00000000E+00  0.00000000E+00
  0.00000000E+00  0.00000000E+00  0.00000000E+00
  0.00000000E+00  0.00000000E+00  0.00000000E+00
  0.00000000E+00  0.00000000E+00  0.00000000E+00
  0.00000000E+00  0.00000000E+00  0.00000000E+00
  0.00000000E+00  0.00000000E+00  0.00000000E+00
  0.00000000E+00  0.00000000E+00  0.00000000E+00
  0.00000000E+00  0.00000000E+00  0.00000000E+00
  0.00000000E+00  0.00000000E+00  0.00000000E+00
  0.00000000E+00  0.00000000E+00  0.00000000E+00
  0.00000000E+00  0.00000000E+00  0.00000000E+00
  0.00000000E+00  0.00000000E+00  0.00000000E+00
  0.00000000E+00  0.00000000E+00  0.00000000E+00
  0.00000000E+00  0.00000000E+00  0.00000000E+00
  0.00000000E+00  0.00000000E+00  0.00000000E+00
  0.00000000E+00  0.00000000E+00  0.00000000E+00
  0.00000000E+00  0.00000000E+00  0.00000000E+00
  0.00000000E+00  0.00000000E+00  0.00000000E+00
  0.00000000E+00  0.00000000E+00  0.00000000E+00
  0.00000000E+00  0.00000000E+00  0.00000000E+00
  0.00000000E+00  0.00000000E+00  0.00000000E+00
  0.00000000E+00  0.00000000E+00  0.00000000E+00
  0.00000000E+00  0.00000000E+00  0.00000000E+00
  0.00000000E+00  0.00000000E+00  0.00000000E+00
  0.00000000E+00  0.00000000E+00  0.00000000E+00
  0.00000000E+00  0.00000000E+00  0.00000000E+00
  0.00000000E+00  0.00000000E+00  0.00000000E+00
  0.00000000E+00  0.00000000E+00  0.00000000E+00
  0.00000000E+00  0.00000000E+00  0.00000000E+00
  0.00000000E+00  0.00000000E+00  0.00000000E+00
  0.00000000E+00  0.00000000E+00  0.00000000E+00
  0.00000000E+00  0.00000000E+00  0.00000000E+00
  0.00000000E+00  0.00000000E+00  0.00000000E+00
  0.00000000E+00  0.00000000E+00  0.00000000E+00
  0.00000000E+00  0.00000000E+00  0.00000000E+00
  0.00000000E+00  0.00000000E+00  0.00000000E+00
  0.00000000E+00  0.00000000E+00  0.00000000E+00
  0.00000000E+00  0.00000000E+00  0.00000000E+00
  0.00000000E+00  0.00000000E+00  0.00000000E+00
  0.00000000E+00  0.00000000E+00  0.00000000E+00
  0.00000000E+00  0.00000000E+00  0.00000000E+00
  0.00000000E+00  0.00000000E+00  0.00000000E+00
  0.00000000E+00  0.00000000E+00  0.00000000E+00
  0.00000000E+00  0.00000000E+00  0.00000000E+00
  0.00000000E+00  0.00000000E+00  0.00000000E+00
  0.00000000E+00  0.00000000E+00  0.00000000E+00
  0.00000000E+00  0.00000000E+00  0.00000000E+00
  0.00000000E+00  0.00000000E+00  0.00000000E+00
  0.00000000E+00  0.00000000E+00  0.00000000E+00
  0.00000000E+00  0.00000000E+00  0.00000000E+00
  0.00000000E+00  0.00000000E+00  0.00000000E+00
  0.00000000E+00  0.00000000E+00  0.00000000E+00
  0.00000000E+00  0.00000000E+00  0.00000000E+00
  0.00000000E+00  0.00000000E+00  0.00000000E+00
  0.00000000E+00  0.00000000E+00  0.00000000E+00
  0.00000000E+00  0.00000000E+00  0.00000000E+00
  0.00000000E+00  0.00000000E+00  0.00000000E+00
  0.00000000E+00  0.00000000E+00  0.00000000E+00
  0.00000000E+00  0.00000000E+00  0.00000000E+00
  0.00000000E+00  0.00000000E+00  0.00000000E+00
  0.00000000E+00  0.00000000E+00  0.00000000E+00
  0.00000000E+00  0.00000000E+00  0.00000000E+00
  0.00000000E+00  0.00000000E+00  0.00000000E+00
  0.00000000E+00  0.00000000E+00  0.00000000E+00
  0.00000000E+00  0.00000000E+00  0.00000000E+00
  0.00000000E+00  0.00000000E+00  0.00000000E+00
  0.00000000E+00  0.00000000E+00  0.00000000E+00
  0.00000000E+00  0.00000000E+00  0.00000000E+00
  0.00000000E+00  0.00000000E+00  0.00000000E+00
  0.00000000E+00  0.00000000E+00  0.00000000E+00
  0.00000000E+00  0.00000000E+00  0.00000000E+00
  0.00000000E+00  0.00000000E+00  0.00000000E+00
  0.00000000E+00  0.00000000E+00  0.00000000E+00
  0.00000000E+00  0.00000000E+00  0.00000000E+00
  0.00000000E+00  0.00000000E+00  0.00000000E+00
  0.00000000E+00  0.00000000E+00  0.00000000E+00
  0.00000000E+00  0.00000000E+00  0.00000000E+00
  0.00000000E+00  0.00000000E+00  0.00000000E+00
  0.00000000E+00  0.00000000E+00  0.00000000E+00
  0.00000000E+00  0.00000000E+00  0.00000000E+00
  0.00000000E+00  0.00000000E+00  0.00000000E+00
  0.00000000E+00  0.00000000E+00  0.00000000E+00
  0.00000000E+00  0.00000000E+00  0.00000000E+00
  0.00000000E+00  0.00000000E+00  0.00000000E+00
