Species order: X N B                    
   2.51242800000000     
     5.9449720136058266    0.0000000000000000    0.0000000000000000
    -2.9724860068029120    5.1484967885702053   -0.0000000000000001
     0.0000000000000000    0.0000000000000009    5.3101128803662583
   Sn   N    B 
     1   143   144
Direct
  0.5555555555555571  0.4444444444444429  0.3750000000000000
  0.1111004853839535  0.0555576932523082  0.1251373076960357
  0.6111998476251407  0.5557330285835382  0.1179478439300308
  0.4444583684427442  0.0555827620697227  0.1249101291000621
  0.9444172379302422  0.5555416315572900  0.1249101291000621
  0.7777872900852689  0.0555603117093131  0.1250671577537805
  0.1111021400999112  0.7222177367166059  0.6248581158122308
  0.4444583684427442  0.7222089397063419  0.6250898708999566
  0.2777475225837537  0.2222231482591996  0.6264640519817610
  0.7777768517407652  0.7222524774162178  0.6264640519817539
  0.6111422923420813  0.2222231482591996  0.6264640519817539
  0.9444396882906813  0.2222127099147022  0.6249328422462007
  0.2777822632833744  0.7222177367165846  0.1251418841877837
  0.1110701103872910  0.2222017218603095  0.1248184412709761
  0.4444706233919999  0.2222745801173297  0.1226138664077502
  0.6111422923420813  0.7222524774162249  0.1235359480182248
  0.9444172379302422  0.7222089397063419  0.1249101291000621
  0.7777982781397046  0.2222017218603095  0.1248184412709761
  0.1111071772140455  0.8888928227859471  0.6248010325799073
  0.4444523122385519  0.8888928227859471  0.6248010325799073
  0.2777475225837466  0.3888577076578861  0.6264640519817539
  0.6111998476251336  0.3888001523748952  0.6320521560699334
  0.7777982781397046  0.8889298896126802  0.6251815587289874
  0.9444423067476860  0.3888761254649534  0.6248626923039826
  0.1111004853839535  0.3888761254649534  0.1251373076960357
  0.2777822632833744  0.8888978599000845  0.1251418841877837
  0.6111238745349825  0.8888995146160610  0.1251373076960357
  0.4442669714164819  0.3888001523748952  0.1179478439300308
  0.9444423067476860  0.8888995146160610  0.1251373076960357
  0.7777768517407652  0.3888577076578861  0.1235359480182248
  0.2777910602936414  0.5555416315572900  0.6250898708999566
  0.1111004853839535  0.0555576932523082  0.6248626923039826
  0.6111998476251407  0.5557330285835382  0.6320521560699334
  0.4444583684427442  0.0555827620697227  0.6250898708999566
  0.9444172379302422  0.5555416315572900  0.6250898708999566
  0.1111071772140455  0.5555476877614135  0.1251989674200658
  0.7777872900852618  0.0555603117093131  0.6249328422462007
  0.2777910602936485  0.0555827620697227  0.1249101291000621
  0.4444706233919999  0.5555293766080183  0.1226138664077431
  0.7777254198826645  0.5555293766080112  0.1226138664077431
  0.6111238745349825  0.0555576932523082  0.1251373076960357
  0.4444706233919928  0.5555293766080254  0.6273861335922628
  0.9444396882906813  0.0555603117093131  0.1250671577537805
  0.2777822632833744  0.7222177367166059  0.6248581158122308
  0.1110701103872910  0.2222017218603095  0.6251815587289874
  0.4444706233919928  0.2222745801173226  0.6273861335922557
  0.6111422923420813  0.7222524774162178  0.6264640519817539
  0.9444172379302422  0.7222089397063419  0.6250898708999566
  0.7777982781397046  0.2222017218603095  0.6251815587289874
  0.1111021400999112  0.7222177367166059  0.1251418841877837
  0.4444583684427442  0.7222089397063419  0.1249101291000621
  0.2777475225837537  0.2222231482591996  0.1235359480182248
  0.7777768517407652  0.7222524774162249  0.1235359480182248
  0.6111422923420813  0.2222231482591996  0.1235359480182248
  0.9444396882906742  0.2222127099147022  0.1250671577537805
  0.1111004853839535  0.3888761254649534  0.6248626923039826
  0.2777822632833744  0.8888978599000845  0.6248581158122308
  0.6111238745349754  0.8888995146160539  0.6248626923039826
  0.4442669714164819  0.3888001523748952  0.6320521560699263
  0.9444423067476860  0.8888995146160610  0.6248626923039826
  0.1111071772140455  0.8888928227859471  0.1251989674200658
  0.7777768517407652  0.3888577076578861  0.6264640519817539
  0.4444523122385519  0.8888928227859471  0.1251989674200658
  0.2777475225837537  0.3888577076578861  0.1235359480182248
  0.2777910602936485  0.5555416315572900  0.1249101291000621
  0.6111998476251336  0.3888001523748952  0.1179478439300308
  0.7777982781397046  0.8889298896126802  0.1248184412709761
  0.9444423067476860  0.3888761254649534  0.1251373076960357
  0.1111071772140455  0.5555476877614135  0.6248010325799073
  0.2777910602936414  0.0555827620697227  0.6250898708999566
  0.7777254198826645  0.5555293766080254  0.6273861335922557
  0.6111238745349825  0.0555576932523082  0.6248626923039826
  0.9444396882906742  0.0555603117093131  0.6249328422462007
  0.0541471466848830  0.1101854107425935  0.3750000000000000
  0.5548165233913198  0.6231510078338177  0.3750000000000000
  0.3869268314033588  0.1071869961400938  0.3750000000000000
  0.8928130038599182  0.6130731685966143  0.3750000000000000
  0.7227049307243512  0.1101854107425864  0.3750000000000000
  0.0555666895075774  0.7777837996296425  0.8750000000000000
  0.3888837767887376  0.7777837996296425  0.8750000000000000
  0.2222148818520953  0.2777741075927144  0.8750000000000000
  0.7222258924072767  0.7777851181479069  0.8750000000000000
  0.5555399214062486  0.2777473421236840  0.8750000000000000
  0.8888927526071810  0.2777795170110951  0.8750000000000000
  0.2222222222222214  0.7777777777777786  0.3750000000000000
  0.0541471466848830  0.2772950692756470  0.3750000000000000
  0.3768489921661342  0.2649988488908120  0.3750000000000000
  0.5548546582774484  0.7827079416553826  0.3750000000000000
  0.8945199500446634  0.7827079416553542  0.3750000000000000
  0.7244534707584945  0.2755465292414913  0.3750000000000000
  0.0555569377520791  0.9444430622479130  0.8750000000000000
  0.3888837767887376  0.9444333104924169  0.8750000000000000
  0.2222128690210841  0.4444514968252659  0.8750000000000000
  0.5555555555555571  0.4444444444444429  0.8750000000000000
  0.7222204829889377  0.9444465689295366  0.8750000000000000
  0.8889052944708299  0.4444514968252659  0.8750000000000000
  0.0558288447459917  0.4449910228253419  0.3750000000000000
  0.2216241879464755  0.9429221114442375  0.3750000000000000
  0.5550089771746874  0.9441711552540593  0.3750000000000000
  0.3768489921661342  0.4451834766086636  0.3750000000000000
  0.8898145892573904  0.9458528533150735  0.3750000000000000
  0.7350011511091820  0.4451834766086707  0.3750000000000000
  0.2222162003703343  0.6111162232112255  0.8750000000000000
  0.0555534310705352  0.1111072473928035  0.8750000000000000
  0.5555399214062486  0.6111259126158302  0.8750000000000000
  0.3888739958770045  0.1110813250873793  0.8750000000000000
  0.8889186749126553  0.6111260041230338  0.8750000000000000
  0.0570778885557547  0.6120354098355898  0.3750000000000000
  0.7222204829889448  0.1111072473928035  0.8750000000000000
  0.2172920583446021  0.1054800499553777  0.3750000000000000
  0.3869268314033730  0.6130731685966072  0.3750000000000000
  0.7350011511091891  0.6231510078338106  0.3750000000000000
  0.5548546582774555  0.1054800499553777  0.3750000000000000
  0.3888739958770045  0.6111260041230338  0.8750000000000000
  0.8888888888888857  0.1111111111111143  0.3750000000000000
  0.2222222222222214  0.7777777777777786  0.8750000000000000
  0.0555534310705352  0.2777795170110951  0.8750000000000000
  0.3888740873841757  0.2777473421236911  0.8750000000000000
  0.5555485031747482  0.7777871309788961  0.8750000000000000
  0.8889052944708299  0.7777871309788890  0.8750000000000000
  0.7222258924072767  0.2777741075927073  0.8750000000000000
  0.0570778885557547  0.7783758120535171  0.3750000000000000
  0.3879645901644626  0.7783758120535029  0.3750000000000000
  0.2177597251496224  0.2755465292414842  0.3750000000000000
  0.7244534707585087  0.7822402748503674  0.3750000000000000
  0.5548165233913056  0.2649988488908120  0.3750000000000000
  0.8898145892573833  0.2772950692756470  0.3750000000000000
  0.0555569377520791  0.4444472088374806  0.8750000000000000
  0.2222162003703343  0.9444333104924169  0.8750000000000000
  0.5555527911624845  0.9444430622479201  0.8750000000000000
  0.3888740873841686  0.4444600785938081  0.8750000000000000
  0.8888927526072166  0.9444465689295295  0.8750000000000000
  0.0558288447459917  0.9441711552540522  0.3750000000000000
  0.7222526578762909  0.4444600785938081  0.8750000000000000
  0.3879645901644626  0.9429221114442446  0.3750000000000000
  0.2172920583446021  0.4451453417225609  0.3750000000000000
  0.2216241879464755  0.6120354098355898  0.3750000000000000
  0.7227049307243583  0.9458528533150806  0.3750000000000000
  0.8945199500446634  0.4451453417225609  0.3750000000000000
  0.0555666895075774  0.6111162232112113  0.8750000000000000
  0.2222128690210912  0.1110947055291681  0.8750000000000000
  0.7222526578762980  0.6111259126158373  0.8750000000000000
  0.5555485031747482  0.1110947055291681  0.8750000000000000
  0.8888888888888857  0.1111111111111143  0.8750000000000000
  0.1082442512023105  0.0533340074265921  0.3750000000000000
  0.6289029850503799  0.5911393034340221  0.3750000000000000
  0.4436748492390724  0.0528564677783232  0.3750000000000000
  0.9471435322216541  0.5563251507609422  0.3750000000000000
  0.7784425309409246  0.0558879321371383  0.3750000000000000
  0.1111100513554299  0.7222216923443643  0.8750000000000000
  0.4444400917129315  0.7222158416216580  0.8750000000000000
  0.2778049692123793  0.2222342295716737  0.8750000000000000
  0.7777657704283248  0.7221950307876130  0.8750000000000000
  0.6110959270259456  0.2222342295716737  0.8750000000000000
  0.9444469247184327  0.2222271827700750  0.8750000000000000
  0.2773609487904907  0.7226390512095030  0.3750000000000000
  0.1080983136625284  0.2207158234979503  0.3750000000000000
  0.4418482471491544  0.2170298276316098  0.3750000000000000
  0.6123301418880003  0.7316804750536584  0.3750000000000000
  0.9471435322216968  0.7241517147940399  0.3750000000000000
  0.7792841765020940  0.2207158234979503  0.3750000000000000
  0.1111118283491584  0.8888881716508277  0.8750000000000000
  0.4444430099683689  0.8888881716508277  0.8750000000000000
  0.2778049692123793  0.3889040729740210  0.8750000000000000
  0.6110912696151677  0.3889087303848742  0.8750000000000000
  0.7777687811473710  0.8888708956281567  0.8750000000000000
  0.9444419746337445  0.3888957519480634  0.8750000000000000
  0.1082442512023105  0.3882435771090469  0.3750000000000000
  0.2773609487904907  0.8880552309143028  0.3750000000000000
  0.6117564228909884  0.8917557487976979  0.3750000000000000
  0.4088606965659442  0.3710970149496604  0.3750000000000000
  0.9466659925733847  0.8917557487976979  0.3750000000000000
  0.7860169998322739  0.3876698581119432  0.3750000000000000
  0.2777841583783774  0.5555599082871062  0.8750000000000000
  0.1111204439810240  0.0555580253662827  0.8750000000000000
  0.6110912696151677  0.5555158725635730  0.8750000000000000
  0.4444400917129315  0.0555575834246301  0.8750000000000000
  0.9444424165753711  0.5555599082871062  0.8750000000000000
  0.1113081792732412  0.5559496918798551  0.3750000000000000
  0.7777728172299320  0.0555530752816229  0.8750000000000000
  0.2758482852059009  0.0528564677783232  0.3750000000000000
  0.4418482471491544  0.5581517528508685  0.3750000000000000
  0.7829701723683625  0.5581517528508685  0.3750000000000000
  0.6117564228909955  0.0533340074265921  0.3750000000000000
  0.4444491219679452  0.5555508780320636  0.8750000000000000
  0.9441120678628765  0.0558879321371383  0.3750000000000000
  0.2777783076556134  0.7222216923443643  0.8750000000000000
  0.1111291043718805  0.2222312188526007  0.8750000000000000
  0.4444491219679452  0.2222315772692045  0.8750000000000000
  0.6110959270259456  0.7221950307876130  0.8750000000000000
  0.9444424165753995  0.7222158416216580  0.8750000000000000
  0.7777687811473781  0.2222312188526007  0.8750000000000000
  0.1119447690857265  0.7226390512095030  0.3750000000000000
  0.4436748492390724  0.7241517147940399  0.3750000000000000
  0.2683195249463816  0.2139830001677313  0.3750000000000000
  0.7860169998322739  0.7316804750536513  0.3750000000000000
  0.6123301418880145  0.2139830001677242  0.3750000000000000
  0.9441120678628765  0.2215574690590516  0.3750000000000000
  0.1111204439810240  0.3888957519480634  0.8750000000000000
  0.2777783076556134  0.8888899486445554  0.8750000000000000
  0.6111042480519158  0.8888795560189848  0.8750000000000000
  0.4444841274364110  0.3889087303848742  0.8750000000000000
  0.9444419746337374  0.8888795560189848  0.8750000000000000
  0.1113081792732412  0.8886918207267522  0.3750000000000000
  0.7777657704283106  0.3889040729740210  0.8750000000000000
  0.4440503081201824  0.8886918207267522  0.3750000000000000
  0.2683195249463673  0.3876698581119432  0.3750000000000000
  0.2758482852059009  0.5563251507609422  0.3750000000000000
  0.6289029850503657  0.3710970149496461  0.3750000000000000
  0.7792841765020869  0.8919016863375077  0.3750000000000000
  0.9466659925733847  0.3882435771090469  0.3750000000000000
  0.1111118283491584  0.5555569900316465  0.8750000000000000
  0.2777841583783774  0.0555575834246301  0.8750000000000000
  0.7777684227307740  0.5555508780320636  0.8750000000000000
  0.6111042480519087  0.0555580253662827  0.8750000000000000
  0.9444469247184327  0.0555530752816229  0.8750000000000000
  0.0555395685933733  0.1111129991769112  0.1249920888968844
  0.5556411738446896  0.6110663275582735  0.1212386024020115
  0.3889477385155619  0.1112288103644619  0.1242718689458285
  0.8887711896355477  0.6110522614844867  0.1242718689458285
  0.7222400972501777  0.1111129991769112  0.1249920888968844
  0.0555208686444677  0.7777675702309385  0.6249233614432605
  0.3889133682531131  0.7777675702309385  0.6249233614432605
  0.2222038053772399  0.2777685693552692  0.6261229116602304
  0.7222314306446805  0.7777961946227334  0.6261229116602304
  0.5556411738446896  0.2779081796197183  0.6287613975980263
  0.8888870008230604  0.2777599027498060  0.6250079111030887
  0.2222222222222214  0.7777777777777786  0.1250774396106568
  0.0555395685933733  0.2777599027498060  0.1249920888968844
  0.3889336724417420  0.2779081796197254  0.1212386024020115
  0.5555897010740281  0.7777679387740076  0.1245727868331433
  0.8888449043666578  0.7777679387740076  0.1245727868331433
  0.7222314306446805  0.2777685693552692  0.1238770883397419
  0.0555437785518492  0.9444562214481357  0.6248330622557566
  0.3889133682531131  0.9444791313554888  0.6249233614432605
  0.2222320612259369  0.4444102989259289  0.6254272131668976
  0.5555555555555571  0.4444444444444429  0.6303913513185516
  0.7222400972501777  0.9444604314066799  0.6250079111030887
  0.8888449043666578  0.4444102989259218  0.6254272131668976
  0.0555437785518492  0.4444208904370124  0.1251669377442506
  0.2222324297690622  0.9444791313554888  0.1250766385567564
  0.5555791095629234  0.9444562214481357  0.1251669377442506
  0.3889336724417349  0.4443588261553292  0.1212386024020115
  0.8888870008230604  0.9444604314066799  0.1249920888968844
  0.7220918203802980  0.4443588261553292  0.1212386024020115
  0.2222324297690551  0.6110866317468505  0.6249233614432605
  0.0555395685933733  0.1111129991769112  0.6250079111030887
  0.5556411738446896  0.6110663275582806  0.6287613975980263
  0.3889477385155619  0.1112288103644619  0.6257281310541890
  0.8887711896355477  0.6110522614844867  0.6257281310541890
  0.0555208686444677  0.6110866317468647  0.1250766385567564
  0.7222400972501777  0.1111129991769112  0.6250079111030887
  0.2222320612259440  0.1111550956333508  0.1245727868331433
  0.3889477385155548  0.6110522614844867  0.1242718689458285
  0.7220918203802980  0.6110663275582735  0.1212386024020115
  0.5555897010740209  0.1111550956333508  0.1245727868331433
  0.3889477385155619  0.6110522614844867  0.6257281310541890
  0.8888888888888857  0.1111111111111143  0.1250248454403562
  0.2222222222222214  0.7777777777777786  0.6249225603893601
  0.0555395685933733  0.2777599027498060  0.6250079111030887
  0.3889336724417420  0.2779081796197254  0.6287613975980263
  0.5555897010740281  0.7777679387740076  0.6254272131668976
  0.8888449043666649  0.7777679387740076  0.6254272131668976
  0.7222314306446805  0.2777685693552692  0.6261229116602304
  0.0555208686444677  0.7777675702309385  0.1250766385567564
  0.3889133682531131  0.7777675702309385  0.1250766385567564
  0.2222038053772328  0.2777685693552692  0.1238770883397419
  0.7222314306446805  0.7777961946227760  0.1238770883397419
  0.5556411738446967  0.2779081796197254  0.1212386024020115
  0.8888870008230604  0.2777599027498060  0.1249920888968844
  0.0555437785518492  0.4444208904370124  0.6248330622557566
  0.2222324297690622  0.9444791313554888  0.6249233614432605
  0.5555791095629377  0.9444562214481357  0.6248330622557566
  0.3889336724417420  0.4443588261553292  0.6287613975980263
  0.8888870008230604  0.9444604314066799  0.6250079111030887
  0.0555437785518492  0.9444562214481357  0.1251669377442506
  0.7220918203802908  0.4443588261553292  0.6287613975980263
  0.3889133682531131  0.9444791313554888  0.1250766385567564
  0.2222320612259369  0.4444102989259289  0.1245727868331433
  0.2222324297690622  0.6110866317468505  0.1250766385567564
  0.5555555555555571  0.4444444444444429  0.1196086486814762
  0.7222400972501777  0.9444604314066799  0.1249920888968844
  0.8888449043666578  0.4444102989259218  0.1245727868331433
  0.0555208686444677  0.6110866317468505  0.6249233614432605
  0.2222320612259440  0.1111550956333508  0.6254272131668976
  0.7220918203802908  0.6110663275582735  0.6287613975980263
  0.5555897010740209  0.1111550956333508  0.6254272131668976
  0.8888888888888857  0.1111111111111143  0.6249751545596421
 
  0.00000000E+00  0.00000000E+00  0.00000000E+00
  0.00000000E+00  0.00000000E+00  0.00000000E+00
  0.00000000E+00  0.00000000E+00  0.00000000E+00
  0.00000000E+00  0.00000000E+00  0.00000000E+00
  0.00000000E+00  0.00000000E+00  0.00000000E+00
  0.00000000E+00  0.00000000E+00  0.00000000E+00
  0.00000000E+00  0.00000000E+00  0.00000000E+00
  0.00000000E+00  0.00000000E+00  0.00000000E+00
  0.00000000E+00  0.00000000E+00  0.00000000E+00
  0.00000000E+00  0.00000000E+00  0.00000000E+00
  0.00000000E+00  0.00000000E+00  0.00000000E+00
  0.00000000E+00  0.00000000E+00  0.00000000E+00
  0.00000000E+00  0.00000000E+00  0.00000000E+00
  0.00000000E+00  0.00000000E+00  0.00000000E+00
  0.00000000E+00  0.00000000E+00  0.00000000E+00
  0.00000000E+00  0.00000000E+00  0.00000000E+00
  0.00000000E+00  0.00000000E+00  0.00000000E+00
  0.00000000E+00  0.00000000E+00  0.00000000E+00
  0.00000000E+00  0.00000000E+00  0.00000000E+00
  0.00000000E+00  0.00000000E+00  0.00000000E+00
  0.00000000E+00  0.00000000E+00  0.00000000E+00
  0.00000000E+00  0.00000000E+00  0.00000000E+00
  0.00000000E+00  0.00000000E+00  0.00000000E+00
  0.00000000E+00  0.00000000E+00  0.00000000E+00
  0.00000000E+00  0.00000000E+00  0.00000000E+00
  0.00000000E+00  0.00000000E+00  0.00000000E+00
  0.00000000E+00  0.00000000E+00  0.00000000E+00
  0.00000000E+00  0.00000000E+00  0.00000000E+00
  0.00000000E+00  0.00000000E+00  0.00000000E+00
  0.00000000E+00  0.00000000E+00  0.00000000E+00
  0.00000000E+00  0.00000000E+00  0.00000000E+00
  0.00000000E+00  0.00000000E+00  0.00000000E+00
  0.00000000E+00  0.00000000E+00  0.00000000E+00
  0.00000000E+00  0.00000000E+00  0.00000000E+00
  0.00000000E+00  0.00000000E+00  0.00000000E+00
  0.00000000E+00  0.00000000E+00  0.00000000E+00
  0.00000000E+00  0.00000000E+00  0.00000000E+00
  0.00000000E+00  0.00000000E+00  0.00000000E+00
  0.00000000E+00  0.00000000E+00  0.00000000E+00
  0.00000000E+00  0.00000000E+00  0.00000000E+00
  0.00000000E+00  0.00000000E+00  0.00000000E+00
  0.00000000E+00  0.00000000E+00  0.00000000E+00
  0.00000000E+00  0.00000000E+00  0.00000000E+00
  0.00000000E+00  0.00000000E+00  0.00000000E+00
  0.00000000E+00  0.00000000E+00  0.00000000E+00
  0.00000000E+00  0.00000000E+00  0.00000000E+00
  0.00000000E+00  0.00000000E+00  0.00000000E+00
  0.00000000E+00  0.00000000E+00  0.00000000E+00
  0.00000000E+00  0.00000000E+00  0.00000000E+00
  0.00000000E+00  0.00000000E+00  0.00000000E+00
  0.00000000E+00  0.00000000E+00  0.00000000E+00
  0.00000000E+00  0.00000000E+00  0.00000000E+00
  0.00000000E+00  0.00000000E+00  0.00000000E+00
  0.00000000E+00  0.00000000E+00  0.00000000E+00
  0.00000000E+00  0.00000000E+00  0.00000000E+00
  0.00000000E+00  0.00000000E+00  0.00000000E+00
  0.00000000E+00  0.00000000E+00  0.00000000E+00
  0.00000000E+00  0.00000000E+00  0.00000000E+00
  0.00000000E+00  0.00000000E+00  0.00000000E+00
  0.00000000E+00  0.00000000E+00  0.00000000E+00
  0.00000000E+00  0.00000000E+00  0.00000000E+00
  0.00000000E+00  0.00000000E+00  0.00000000E+00
  0.00000000E+00  0.00000000E+00  0.00000000E+00
  0.00000000E+00  0.00000000E+00  0.00000000E+00
  0.00000000E+00  0.00000000E+00  0.00000000E+00
  0.00000000E+00  0.00000000E+00  0.00000000E+00
  0.00000000E+00  0.00000000E+00  0.00000000E+00
  0.00000000E+00  0.00000000E+00  0.00000000E+00
  0.00000000E+00  0.00000000E+00  0.00000000E+00
  0.00000000E+00  0.00000000E+00  0.00000000E+00
  0.00000000E+00  0.00000000E+00  0.00000000E+00
  0.00000000E+00  0.00000000E+00  0.00000000E+00
  0.00000000E+00  0.00000000E+00  0.00000000E+00
  0.00000000E+00  0.00000000E+00  0.00000000E+00
  0.00000000E+00  0.00000000E+00  0.00000000E+00
  0.00000000E+00  0.00000000E+00  0.00000000E+00
  0.00000000E+00  0.00000000E+00  0.00000000E+00
  0.00000000E+00  0.00000000E+00  0.00000000E+00
  0.00000000E+00  0.00000000E+00  0.00000000E+00
  0.00000000E+00  0.00000000E+00  0.00000000E+00
  0.00000000E+00  0.00000000E+00  0.00000000E+00
  0.00000000E+00  0.00000000E+00  0.00000000E+00
  0.00000000E+00  0.00000000E+00  0.00000000E+00
  0.00000000E+00  0.00000000E+00  0.00000000E+00
  0.00000000E+00  0.00000000E+00  0.00000000E+00
  0.00000000E+00  0.00000000E+00  0.00000000E+00
  0.00000000E+00  0.00000000E+00  0.00000000E+00
  0.00000000E+00  0.00000000E+00  0.00000000E+00
  0.00000000E+00  0.00000000E+00  0.00000000E+00
  0.00000000E+00  0.00000000E+00  0.00000000E+00
  0.00000000E+00  0.00000000E+00  0.00000000E+00
  0.00000000E+00  0.00000000E+00  0.00000000E+00
  0.00000000E+00  0.00000000E+00  0.00000000E+00
  0.00000000E+00  0.00000000E+00  0.00000000E+00
  0.00000000E+00  0.00000000E+00  0.00000000E+00
  0.00000000E+00  0.00000000E+00  0.00000000E+00
  0.00000000E+00  0.00000000E+00  0.00000000E+00
  0.00000000E+00  0.00000000E+00  0.00000000E+00
  0.00000000E+00  0.00000000E+00  0.00000000E+00
  0.00000000E+00  0.00000000E+00  0.00000000E+00
  0.00000000E+00  0.00000000E+00  0.00000000E+00
  0.00000000E+00  0.00000000E+00  0.00000000E+00
  0.00000000E+00  0.00000000E+00  0.00000000E+00
  0.00000000E+00  0.00000000E+00  0.00000000E+00
  0.00000000E+00  0.00000000E+00  0.00000000E+00
  0.00000000E+00  0.00000000E+00  0.00000000E+00
  0.00000000E+00  0.00000000E+00  0.00000000E+00
  0.00000000E+00  0.00000000E+00  0.00000000E+00
  0.00000000E+00  0.00000000E+00  0.00000000E+00
  0.00000000E+00  0.00000000E+00  0.00000000E+00
  0.00000000E+00  0.00000000E+00  0.00000000E+00
  0.00000000E+00  0.00000000E+00  0.00000000E+00
  0.00000000E+00  0.00000000E+00  0.00000000E+00
  0.00000000E+00  0.00000000E+00  0.00000000E+00
  0.00000000E+00  0.00000000E+00  0.00000000E+00
  0.00000000E+00  0.00000000E+00  0.00000000E+00
  0.00000000E+00  0.00000000E+00  0.00000000E+00
  0.00000000E+00  0.00000000E+00  0.00000000E+00
  0.00000000E+00  0.00000000E+00  0.00000000E+00
  0.00000000E+00  0.00000000E+00  0.00000000E+00
  0.00000000E+00  0.00000000E+00  0.00000000E+00
  0.00000000E+00  0.00000000E+00  0.00000000E+00
  0.00000000E+00  0.00000000E+00  0.00000000E+00
  0.00000000E+00  0.00000000E+00  0.00000000E+00
  0.00000000E+00  0.00000000E+00  0.00000000E+00
  0.00000000E+00  0.00000000E+00  0.00000000E+00
  0.00000000E+00  0.00000000E+00  0.00000000E+00
  0.00000000E+00  0.00000000E+00  0.00000000E+00
  0.00000000E+00  0.00000000E+00  0.00000000E+00
  0.00000000E+00  0.00000000E+00  0.00000000E+00
  0.00000000E+00  0.00000000E+00  0.00000000E+00
  0.00000000E+00  0.00000000E+00  0.00000000E+00
  0.00000000E+00  0.00000000E+00  0.00000000E+00
  0.00000000E+00  0.00000000E+00  0.00000000E+00
  0.00000000E+00  0.00000000E+00  0.00000000E+00
  0.00000000E+00  0.00000000E+00  0.00000000E+00
  0.00000000E+00  0.00000000E+00  0.00000000E+00
  0.00000000E+00  0.00000000E+00  0.00000000E+00
  0.00000000E+00  0.00000000E+00  0.00000000E+00
  0.00000000E+00  0.00000000E+00  0.00000000E+00
  0.00000000E+00  0.00000000E+00  0.00000000E+00
  0.00000000E+00  0.00000000E+00  0.00000000E+00
  0.00000000E+00  0.00000000E+00  0.00000000E+00
  0.00000000E+00  0.00000000E+00  0.00000000E+00
  0.00000000E+00  0.00000000E+00  0.00000000E+00
  0.00000000E+00  0.00000000E+00  0.00000000E+00
  0.00000000E+00  0.00000000E+00  0.00000000E+00
  0.00000000E+00  0.00000000E+00  0.00000000E+00
  0.00000000E+00  0.00000000E+00  0.00000000E+00
  0.00000000E+00  0.00000000E+00  0.00000000E+00
  0.00000000E+00  0.00000000E+00  0.00000000E+00
  0.00000000E+00  0.00000000E+00  0.00000000E+00
  0.00000000E+00  0.00000000E+00  0.00000000E+00
  0.00000000E+00  0.00000000E+00  0.00000000E+00
  0.00000000E+00  0.00000000E+00  0.00000000E+00
  0.00000000E+00  0.00000000E+00  0.00000000E+00
  0.00000000E+00  0.00000000E+00  0.00000000E+00
  0.00000000E+00  0.00000000E+00  0.00000000E+00
  0.00000000E+00  0.00000000E+00  0.00000000E+00
  0.00000000E+00  0.00000000E+00  0.00000000E+00
  0.00000000E+00  0.00000000E+00  0.00000000E+00
  0.00000000E+00  0.00000000E+00  0.00000000E+00
  0.00000000E+00  0.00000000E+00  0.00000000E+00
  0.00000000E+00  0.00000000E+00  0.00000000E+00
  0.00000000E+00  0.00000000E+00  0.00000000E+00
  0.00000000E+00  0.00000000E+00  0.00000000E+00
  0.00000000E+00  0.00000000E+00  0.00000000E+00
  0.00000000E+00  0.00000000E+00  0.00000000E+00
  0.00000000E+00  0.00000000E+00  0.00000000E+00
  0.00000000E+00  0.00000000E+00  0.00000000E+00
  0.00000000E+00  0.00000000E+00  0.00000000E+00
  0.00000000E+00  0.00000000E+00  0.00000000E+00
  0.00000000E+00  0.00000000E+00  0.00000000E+00
  0.00000000E+00  0.00000000E+00  0.00000000E+00
  0.00000000E+00  0.00000000E+00  0.00000000E+00
  0.00000000E+00  0.00000000E+00  0.00000000E+00
  0.00000000E+00  0.00000000E+00  0.00000000E+00
  0.00000000E+00  0.00000000E+00  0.00000000E+00
  0.00000000E+00  0.00000000E+00  0.00000000E+00
  0.00000000E+00  0.00000000E+00  0.00000000E+00
  0.00000000E+00  0.00000000E+00  0.00000000E+00
  0.00000000E+00  0.00000000E+00  0.00000000E+00
  0.00000000E+00  0.00000000E+00  0.00000000E+00
  0.00000000E+00  0.00000000E+00  0.00000000E+00
  0.00000000E+00  0.00000000E+00  0.00000000E+00
  0.00000000E+00  0.00000000E+00  0.00000000E+00
  0.00000000E+00  0.00000000E+00  0.00000000E+00
  0.00000000E+00  0.00000000E+00  0.00000000E+00
  0.00000000E+00  0.00000000E+00  0.00000000E+00
  0.00000000E+00  0.00000000E+00  0.00000000E+00
  0.00000000E+00  0.00000000E+00  0.00000000E+00
  0.00000000E+00  0.00000000E+00  0.00000000E+00
  0.00000000E+00  0.00000000E+00  0.00000000E+00
  0.00000000E+00  0.00000000E+00  0.00000000E+00
  0.00000000E+00  0.00000000E+00  0.00000000E+00
  0.00000000E+00  0.00000000E+00  0.00000000E+00
  0.00000000E+00  0.00000000E+00  0.00000000E+00
  0.00000000E+00  0.00000000E+00  0.00000000E+00
  0.00000000E+00  0.00000000E+00  0.00000000E+00
  0.00000000E+00  0.00000000E+00  0.00000000E+00
  0.00000000E+00  0.00000000E+00  0.00000000E+00
  0.00000000E+00  0.00000000E+00  0.00000000E+00
  0.00000000E+00  0.00000000E+00  0.00000000E+00
  0.00000000E+00  0.00000000E+00  0.00000000E+00
  0.00000000E+00  0.00000000E+00  0.00000000E+00
  0.00000000E+00  0.00000000E+00  0.00000000E+00
  0.00000000E+00  0.00000000E+00  0.00000000E+00
  0.00000000E+00  0.00000000E+00  0.00000000E+00
  0.00000000E+00  0.00000000E+00  0.00000000E+00
  0.00000000E+00  0.00000000E+00  0.00000000E+00
  0.00000000E+00  0.00000000E+00  0.00000000E+00
  0.00000000E+00  0.00000000E+00  0.00000000E+00
  0.00000000E+00  0.00000000E+00  0.00000000E+00
  0.00000000E+00  0.00000000E+00  0.00000000E+00
  0.00000000E+00  0.00000000E+00  0.00000000E+00
  0.00000000E+00  0.00000000E+00  0.00000000E+00
  0.00000000E+00  0.00000000E+00  0.00000000E+00
  0.00000000E+00  0.00000000E+00  0.00000000E+00
  0.00000000E+00  0.00000000E+00  0.00000000E+00
  0.00000000E+00  0.00000000E+00  0.00000000E+00
  0.00000000E+00  0.00000000E+00  0.00000000E+00
  0.00000000E+00  0.00000000E+00  0.00000000E+00
  0.00000000E+00  0.00000000E+00  0.00000000E+00
  0.00000000E+00  0.00000000E+00  0.00000000E+00
  0.00000000E+00  0.00000000E+00  0.00000000E+00
  0.00000000E+00  0.00000000E+00  0.00000000E+00
  0.00000000E+00  0.00000000E+00  0.00000000E+00
  0.00000000E+00  0.00000000E+00  0.00000000E+00
  0.00000000E+00  0.00000000E+00  0.00000000E+00
  0.00000000E+00  0.00000000E+00  0.00000000E+00
  0.00000000E+00  0.00000000E+00  0.00000000E+00
  0.00000000E+00  0.00000000E+00  0.00000000E+00
  0.00000000E+00  0.00000000E+00  0.00000000E+00
  0.00000000E+00  0.00000000E+00  0.00000000E+00
  0.00000000E+00  0.00000000E+00  0.00000000E+00
  0.00000000E+00  0.00000000E+00  0.00000000E+00
  0.00000000E+00  0.00000000E+00  0.00000000E+00
  0.00000000E+00  0.00000000E+00  0.00000000E+00
  0.00000000E+00  0.00000000E+00  0.00000000E+00
  0.00000000E+00  0.00000000E+00  0.00000000E+00
  0.00000000E+00  0.00000000E+00  0.00000000E+00
  0.00000000E+00  0.00000000E+00  0.00000000E+00
  0.00000000E+00  0.00000000E+00  0.00000000E+00
  0.00000000E+00  0.00000000E+00  0.00000000E+00
  0.00000000E+00  0.00000000E+00  0.00000000E+00
  0.00000000E+00  0.00000000E+00  0.00000000E+00
  0.00000000E+00  0.00000000E+00  0.00000000E+00