Species order: X N B                    
   2.51242800000000     
     5.9449720136058266    0.0000000000000000    0.0000000000000000
    -2.9724860068029120    5.1484967885702053   -0.0000000000000001
     0.0000000000000000    0.0000000000000009    5.3101128803662583
   In   N    B 
     1   143   143
Direct
  0.4980602676839159  0.4156968005086226  0.3750000000000000
  0.1109780557407206  0.0554967205368654  0.1248869908990990
  0.6114091400126835  0.5561363866948267  0.1234701505299470
  0.4444455990478459  0.0555425823047218  0.1247591929690796
  0.9443985804225801  0.5555043201991451  0.1247339078817389
  0.7777999359581420  0.0555666346457406  0.1248261106739664
  0.1110620477490820  0.7221976905412100  0.6251410754413446
  0.4444455990478459  0.7222363500764573  0.6252408070309216
  0.2774620267368649  0.2220446261129578  0.6262105841390702
  0.7778601422557793  0.7224534431148303  0.6262573936601512
  0.6112034328128315  0.2220672382160631  0.6263393905985265
  0.9443810720346217  0.2221546916498628  0.6251233307402703
  0.2777478290484319  0.7221994552669738  0.1248751082628885
  0.1109013691613172  0.2221173512473235  0.1248444981438073
  0.4444457154378579  0.2222183097162654  0.1240786715716018
  0.6112034328128315  0.7224695279301058  0.1236606094014711
  0.9443985804225801  0.7222275935567706  0.1247339078817389
  0.7778247723877575  0.2221085324261227  0.1247947880566925
  0.1110580710622132  0.8888844535429248  0.6251342414041154
  0.4444377495312782  0.8888855414323041  0.6251704187495960
  0.2774620267368644  0.3887507339572326  0.6262105841390702
  0.6114091400126834  0.3886060866511855  0.6265298494700473
  0.7778247723877575  0.8890495732949647  0.6252052119433105
  0.9444196028509825  0.3888093378985644  0.6250771647940759
  0.1109780557407205  0.3888146685371865  0.1248869908990990
  0.2777478290484319  0.8888817071147889  0.1248751082628885
  0.6111350789693577  0.8889621826879655  0.1248399976498050
  0.4437273356525869  0.3885303344929579  0.1243867957527585
  0.9444196028509825  0.8889435982857428  0.1249228352059213
  0.7778601422557793  0.3887400324742777  0.1237426063398447
  0.2777351310350893  0.5555207182549765  0.6251781849252959
  0.1109780557407206  0.0554967205368654  0.6251130091008978
  0.6114091400126835  0.5561363866948267  0.6265298494700465
  0.4444455990478459  0.0555425823047218  0.6252408070309216
  0.9443985804225801  0.5555043201991451  0.6252660921182608
  0.1110580710622135  0.5555069508526228  0.1248657585958803
  0.7777999359581420  0.0555666346457406  0.6251738893260319
  0.2777351310350895  0.0555477461134468  0.1248218150747039
  0.4444457154378579  0.5555607390549290  0.1240786715716018
  0.7777714821994434  0.5555524077663840  0.1237650210983117
  0.6111350789693580  0.0555062296147176  0.1248399976498050
  0.4444457154378579  0.5555607390549290  0.6259213284283947
  0.9443810720346217  0.0555597137180890  0.1248766692597305
  0.2777478290484319  0.7221994552669738  0.6251248917371116
  0.1109013691613172  0.2221173512473235  0.6251555018561967
  0.4444457154378578  0.2222183097162654  0.6259213284283947
  0.6112034328128315  0.7224695279301058  0.6263393905985265
  0.9443985804225801  0.7222275935567706  0.6252660921182608
  0.7778247723877575  0.2221085324261227  0.6252052119433105
  0.1110620477490820  0.7221976905412100  0.1248589245586558
  0.4444455990478459  0.7222363500764573  0.1247591929690796
  0.2774620267368645  0.2220446261129578  0.1237894158609284
  0.7778601422557793  0.7224534431148303  0.1237426063398447
  0.6112034328128315  0.2220672382160627  0.1236606094014711
  0.9443810720346217  0.2221546916498628  0.1248766692597305
  0.1109780557407203  0.3888146685371865  0.6251130091008978
  0.2777478290484319  0.8888817071147889  0.6251248917371116
  0.6111350789693580  0.8889621826879655  0.6251600023501944
  0.4437273356525888  0.3885303344929579  0.6256132042472436
  0.9444196028509825  0.8889435982857428  0.6250771647940759
  0.1110580710622135  0.8888844535429248  0.1248657585958803
  0.7778601422557793  0.3887400324742777  0.6262573936601512
  0.4444377495312782  0.8888855414323041  0.1248295812504077
  0.2774620267368644  0.3887507339572326  0.1237894158609284
  0.2777351310350895  0.5555207182549765  0.1248218150747039
  0.6114091400126829  0.3886060866511855  0.1234701505299471
  0.7778247723877575  0.8890495732949647  0.1247947880566925
  0.9444196028509825  0.3888093378985642  0.1249228352059215
  0.1110580710622135  0.5555069508526228  0.6251342414041154
  0.2777351310350903  0.0555477461134468  0.6251781849252959
  0.7777714821994434  0.5555524077663840  0.6262349789016864
  0.6111350789693580  0.0555062296147176  0.6251600023501944
  0.9443810720346217  0.0555597137180890  0.6251233307402703
  0.0580495400774732  0.1123661351134363  0.3750000000000000
  0.5561831119847329  0.6214009350036489  0.3750000000000000
  0.3877117211255168  0.1030719107091139  0.3750000000000000
  0.8882476793624341  0.6107905063478944  0.3750000000000000
  0.7245849834333442  0.1113182163298648  0.3750000000000000
  0.0556932615554127  0.7778446502542022  0.8750000000000000
  0.3889661725003474  0.7778396564197271  0.8750000000000000
  0.2223550645019113  0.2778441989176226  0.8750000000000000
  0.7223067459005449  0.7777957032808177  0.8750000000000000
  0.5556066504462351  0.2777839719736824  0.8750000000000000
  0.8889849907537400  0.2778386266366454  0.8750000000000000
  0.2210276295872341  0.7771804814602872  0.3750000000000000
  0.0580495400774732  0.2790167382973734  0.3750000000000000
  0.3860094350147948  0.2627540184651047  0.3750000000000000
  0.5564165882782184  0.7828176282690703  0.3750000000000000
  0.8901641496921604  0.7790824817424414  0.3750000000000000
  0.7245085977052507  0.2764296027847978  0.3750000000000000
  0.0556576214357758  0.9444894347406231  0.8750000000000000
  0.3889661725003479  0.9444598494139531  0.8750000000000000
  0.2223246962207977  0.4445167004167619  0.8750000000000000
  0.5556509538449590  0.4444921435891427  0.8750000000000000
  0.7223094209979630  0.9444787725600748  0.8750000000000000
  0.8890129993328251  0.4445218881077788  0.8750000000000000
  0.0558203000289789  0.4452944006987493  0.3750000000000000
  0.2209707229770613  0.9417910905427762  0.3750000000000000
  0.5565698005794982  0.9449515669564181  0.3750000000000000
  0.3860094350147950  0.4565887498830216  0.3750000000000000
  0.8912808326597480  0.9463447132773669  0.3750000000000000
  0.7245971887034763  0.4433327273004077  0.3750000000000000
  0.2223050869202722  0.6111761850669052  0.8750000000000000
  0.0556687549323400  0.1111654060180553  0.8750000000000000
  0.5556066504462351  0.6111560118058844  0.8750000000000000
  0.3889511976500873  0.1110896071241931  0.8750000000000000
  0.8890783296702611  0.6112058315017977  0.8750000000000000
  0.0546958857987007  0.6111348553181326  0.3750000000000000
  0.7223094209979630  0.1111639817712271  0.8750000000000000
  0.2212487195360069  0.1077902402979263  0.3750000000000000
  0.3877117211255166  0.6179731437497453  0.3750000000000000
  0.7245971887034762  0.6145977947364060  0.3750000000000000
  0.5564165882782184  0.1069322933424789  0.3750000000000000
  0.3889511976500873  0.6111949238592348  0.8750000000000000
  0.8916490888245189  0.1124912110789320  0.3750000000000000
  0.2223230478386240  0.7778281905859812  0.8750000000000000
  0.0556687549323400  0.2778366822476224  0.8750000000000000
  0.3889999756048005  0.2777859791612774  0.8750000000000000
  0.5556255227223099  0.7778212680865083  0.8750000000000000
  0.8890129993328251  0.7778244445583833  0.8750000000000000
  0.7223067459005449  0.2778443759530726  0.8750000000000000
  0.0546958857987007  0.7768943638139130  0.3750000000000000
  0.3882490394131037  0.7797727994840224  0.3750000000000000
  0.2257669972374043  0.2795501652853699  0.3750000000000000
  0.7245085977052490  0.7814123282537901  0.3750000000000000
  0.5561831119847329  0.2681155103144123  0.3750000000000000
  0.8912808326597480  0.2782694527157143  0.3750000000000000
  0.0556576214357758  0.4445015200284851  0.8750000000000000
  0.2223050869202722  0.9444622351867005  0.8750000000000000
  0.5556394054782225  0.9444863694057767  0.8750000000000000
  0.3889999756048005  0.4445473297768597  0.8750000000000000
  0.8889849907537400  0.9444796974504289  0.8750000000000000
  0.0558203000289788  0.9438592326635550  0.3750000000000000
  0.7223711989517436  0.4445465560813872  0.8750000000000000
  0.3882490394131040  0.9418095732624185  0.3750000000000000
  0.2212487195360073  0.4467918125714165  0.3750000000000000
  0.2209707229770614  0.6125129657676187  0.3750000000000000
  0.7245849834333442  0.9466001004368201  0.3750000000000000
  0.8901641496921611  0.4444150012830496  0.3750000000000000
  0.0556932615554129  0.6111819446345463  0.8750000000000000
  0.2223246962207977  0.1111413291373704  0.8750000000000000
  0.7223711989517436  0.6111579762036958  0.8750000000000000
  0.5556255227223099  0.1111375879691398  0.8750000000000000
  0.8889897938379595  0.1111615635856539  0.8750000000000000
  0.1118948206373796  0.0549016345471962  0.3750000000000000
  0.6145744700348303  0.5686931517914153  0.3750000000000000
  0.4449885055134207  0.0515523130654230  0.3750000000000000
  0.9437036099513026  0.5554144341714404  0.3750000000000000
  0.7806369087456612  0.0569851210394993  0.3750000000000000
  0.1112050892636332  0.7222692112984804  0.8750000000000000
  0.4445073391553062  0.7221891909187230  0.8750000000000000
  0.2780689561953687  0.2223877857438915  0.8750000000000000
  0.7777701957393783  0.7220844180837807  0.8750000000000000
  0.6111197382695157  0.2223777271776971  0.8750000000000000
  0.9445765227687415  0.2223141121334820  0.8750000000000000
  0.2772055950144875  0.7229683610270233  0.3750000000000000
  0.1155166007173477  0.2244249670253384  0.3750000000000000
  0.4431833076194562  0.2130763511903244  0.3750000000000000
  0.6126880163112675  0.7287864349383668  0.3750000000000000
  0.9437036099513006  0.7216225091132042  0.3750000000000000
  0.7802452236955344  0.2223326526914230  0.3750000000000000
  0.1112299378585895  0.8889384764307646  0.8750000000000000
  0.4445107865067014  0.8889220599200081  0.8750000000000000
  0.2780689561953687  0.3890145037848041  0.8750000000000000
  0.6111212608695649  0.3890148519033398  0.8750000000000000
  0.7778123900196205  0.8888075358841498  0.8750000000000000
  0.9445245662292857  0.3889867011271712  0.8750000000000000
  0.1118948206373793  0.3903265194235114  0.3750000000000000
  0.2772055950144875  0.8875705673207990  0.3750000000000000
  0.6132292589456451  0.8918010930319179  0.3750000000000000
  0.9455135119065156  0.8895799932677316  0.3750000000000000
  0.7793864765366024  0.3882254942490893  0.3750000000000000
  0.2779473686944774  0.5556188895946774  0.8750000000000000
  0.1112974231720826  0.0556459165782234  0.8750000000000000
  0.6111212608695649  0.5554397422995532  0.8750000000000000
  0.4445073391553062  0.0556514815699190  0.8750000000000000
  0.9445127883758612  0.5556378715763420  0.8750000000000000
  0.1104666989832470  0.5561625157950931  0.3750000000000000
  0.7778439221011147  0.0555886277172239  0.8750000000000000
  0.2771761815375977  0.0525887261842115  0.3750000000000000
  0.4431833076194570  0.5634402897624756  0.3750000000000000
  0.7762507817914205  0.5547920575623817  0.3750000000000000
  0.6132292589456451  0.0547614992470544  0.3750000000000000
  0.4445845445364943  0.5555436011103692  0.8750000000000000
  0.9474862621029382  0.0573451218027294  0.3750000000000000
  0.2778831980589306  0.7222576472420322  0.8750000000000000
  0.1113610818138146  0.2223472075735714  0.8750000000000000
  0.4445845445364943  0.2223742767594567  0.8750000000000000
  0.6111197382695157  0.7220753444251431  0.8750000000000000
  0.9445127883758626  0.7222082501328527  0.8750000000000000
  0.7778123900196205  0.2223381874687897  0.8750000000000000
  0.1101701272146875  0.7217517302740083  0.3750000000000000
  0.4449885055134213  0.7267695257813332  0.3750000000000000
  0.2801031426671763  0.2202457400081242  0.3750000000000000
  0.7793864765366018  0.7244943156208395  0.3750000000000000
  0.6126880163112672  0.2172349147062363  0.3750000000000000
  0.9474862621029382  0.2234744736335408  0.3750000000000000
  0.1112974231720824  0.3889848399271887  0.8750000000000000
  0.2778831980589306  0.8889588841502210  0.8750000000000000
  0.6111537390679908  0.8888583330335583  0.8750000000000000
  0.4446956398642792  0.3890144865988020  0.8750000000000000
  0.9445245662292857  0.8888711984354477  0.8750000000000000
  0.1104666989832468  0.8876375165214841  0.3750000000000000
  0.7777701957393783  0.3890191109889244  0.8750000000000000
  0.4451537587938778  0.8892435460635972  0.3750000000000000
  0.2801031426671767  0.3931907359923804  0.3750000000000000
  0.2771761815375973  0.5579207886867159  0.3750000000000000
  0.6145744700348277  0.3792146515767442  0.3750000000000000
  0.7802452236955344  0.8912459043374358  0.3750000000000000
  0.9455135119065166  0.3892668519721112  0.3750000000000000
  0.1112299378585895  0.5556247947611493  0.8750000000000000
  0.2779473686944774  0.0556618124331316  0.8750000000000000
  0.7777865592376442  0.5555599462854832  0.8750000000000000
  0.6111537390679908  0.0556287393677623  0.8750000000000000
  0.9445765227687415  0.0555957439685973  0.8750000000000000
  0.0555476988861023  0.1111518283799562  0.1252401799296816
  0.5558099108372665  0.6109056779609608  0.1243291460327944
  0.3890810607983038  0.1115649070626844  0.1250893173678050
  0.8883958741503709  0.6108646037418574  0.1247878424426265
  0.7222148746871142  0.1111046387247827  0.1251168576738413
  0.0553723869818473  0.7777212408429375  0.6249016347077115
  0.3889587507726834  0.7776906257210909  0.6248713136859116
  0.2222641388704980  0.2777987361019159  0.6251493453866267
  0.7221425905310740  0.7777285426672086  0.6255003962303104
  0.5558099108372668  0.2782375662096473  0.6256708539672049
  0.8888314918341278  0.2777049037958103  0.6248353660610029
  0.2222001003928441  0.7777667168630926  0.1250840454925464
  0.0555476988861023  0.2777292038394814  0.1252401799296816
  0.3889150666676449  0.2781377369086884  0.1248948195229612
  0.5556246636706591  0.7776794953868932  0.1248153046015943
  0.8886577883012320  0.7777011593840016  0.1247979887608792
  0.7221425905310740  0.2777473811971967  0.1244996037696892
  0.0555004088590995  0.9445024812038927  0.6247774021917811
  0.3889587507726834  0.9446014583849296  0.6248713136859116
  0.2222820509638640  0.4442900107174257  0.6249733765735660
  0.5555435238220912  0.4444384285777098  0.6154404275293063
  0.7222148746871142  0.9444435692956665  0.6248831423261575
  0.8886577883012320  0.4442899622505730  0.6252020112391197
  0.0555004088590995  0.4443312609885349  0.1252225978082158
  0.2222745266615196  0.9446361489350984  0.1251782565827070
  0.5555901992371117  0.9444617662852169  0.1251552144845963
  0.3889150666676451  0.4441106630922954  0.1248948195229612
  0.8888314918341278  0.9444599213716562  0.1251646339389965
  0.7216520381805572  0.4440819948030467  0.1240490661426630
  0.2222745266615198  0.6109717110597558  0.6248217434172899
  0.0555476988861023  0.1111518283799562  0.6247598200703224
  0.5558099108372665  0.6109056779609608  0.6256708539672049
  0.3890810607983038  0.1115649070626844  0.6249106826321894
  0.8883958741503709  0.6108646037418575  0.6252121575573710
  0.0553723869818473  0.6109844794722431  0.1250983652922872
  0.7222148746871142  0.1111046387247827  0.6248831423261575
  0.2222820509638640  0.1113253735797710  0.1250266234264313
  0.3890810607983038  0.6108494870689665  0.1250893173678052
  0.7216520381805572  0.6109033767108456  0.1240490661426632
  0.5556246636706591  0.1112785016170988  0.1248153046015943
  0.3890810607983038  0.6108494870689665  0.6249106826321894
  0.8888700840046774  0.1111017086690086  0.1251132014863673
  0.2222001003928441  0.7777667168630926  0.6249159545074559
  0.0555476988861023  0.2777292038394814  0.6247598200703224
  0.3889150666676451  0.2781377369086884  0.6251051804770386
  0.5556246636706591  0.7776794953868932  0.6251846953984050
  0.8886577883012320  0.7777011593840016  0.6252020112391197
  0.7221425905310740  0.2777473811971965  0.6255003962303104
  0.0553723869818473  0.7777212408429375  0.1250983652922874
  0.3889587507726834  0.7776906257210909  0.1251286863140860
  0.2222641388704980  0.2777987361019159  0.1248506546133753
  0.7221425905310740  0.7777285426672086  0.1244996037696892
  0.5558099108372668  0.2782375662096473  0.1243291460327944
  0.8888314918341278  0.2777049037958103  0.1251646339389962
  0.0555004088590995  0.4443312609885350  0.6247774021917811
  0.2222745266615196  0.9446361489350984  0.6248217434172899
  0.5555901992371117  0.9444617662852154  0.6248447855154017
  0.3889150666676449  0.4441106630922954  0.6251051804770386
  0.8888314918341278  0.9444599213716562  0.6248353660610029
  0.0555004088590995  0.9445024812038927  0.1252225978082160
  0.7216520381805572  0.4440819948030467  0.6259509338573382
  0.3889587507726835  0.9446014583849296  0.1251286863140860
  0.2222820509638640  0.4442900107174257  0.1250266234264313
  0.2222745266615198  0.6109717110597558  0.1251782565827070
  0.5555435238220910  0.4444384285777098  0.1345595724706955
  0.7222148746871142  0.9444435692956665  0.1251168576738413
  0.8886577883012320  0.4442899622505730  0.1247979887608790
  0.0553723869818473  0.6109844794722431  0.6249016347077113
  0.2222820509638640  0.1113253735797710  0.6249733765735660
  0.7216520381805572  0.6109033767108456  0.6259509338573382
  0.5556246636706591  0.1112785016170989  0.6251846953984050
  0.8888700840046774  0.1111017086690087  0.6248867985136354
 
  0.00000000E+00  0.00000000E+00  0.00000000E+00
  0.00000000E+00  0.00000000E+00  0.00000000E+00
  0.00000000E+00  0.00000000E+00  0.00000000E+00
  0.00000000E+00  0.00000000E+00  0.00000000E+00
  0.00000000E+00  0.00000000E+00  0.00000000E+00
  0.00000000E+00  0.00000000E+00  0.00000000E+00
  0.00000000E+00  0.00000000E+00  0.00000000E+00
  0.00000000E+00  0.00000000E+00  0.00000000E+00
  0.00000000E+00  0.00000000E+00  0.00000000E+00
  0.00000000E+00  0.00000000E+00  0.00000000E+00
  0.00000000E+00  0.00000000E+00  0.00000000E+00
  0.00000000E+00  0.00000000E+00  0.00000000E+00
  0.00000000E+00  0.00000000E+00  0.00000000E+00
  0.00000000E+00  0.00000000E+00  0.00000000E+00
  0.00000000E+00  0.00000000E+00  0.00000000E+00
  0.00000000E+00  0.00000000E+00  0.00000000E+00
  0.00000000E+00  0.00000000E+00  0.00000000E+00
  0.00000000E+00  0.00000000E+00  0.00000000E+00
  0.00000000E+00  0.00000000E+00  0.00000000E+00
  0.00000000E+00  0.00000000E+00  0.00000000E+00
  0.00000000E+00  0.00000000E+00  0.00000000E+00
  0.00000000E+00  0.00000000E+00  0.00000000E+00
  0.00000000E+00  0.00000000E+00  0.00000000E+00
  0.00000000E+00  0.00000000E+00  0.00000000E+00
  0.00000000E+00  0.00000000E+00  0.00000000E+00
  0.00000000E+00  0.00000000E+00  0.00000000E+00
  0.00000000E+00  0.00000000E+00  0.00000000E+00
  0.00000000E+00  0.00000000E+00  0.00000000E+00
  0.00000000E+00  0.00000000E+00  0.00000000E+00
  0.00000000E+00  0.00000000E+00  0.00000000E+00
  0.00000000E+00  0.00000000E+00  0.00000000E+00
  0.00000000E+00  0.00000000E+00  0.00000000E+00
  0.00000000E+00  0.00000000E+00  0.00000000E+00
  0.00000000E+00  0.00000000E+00  0.00000000E+00
  0.00000000E+00  0.00000000E+00  0.00000000E+00
  0.00000000E+00  0.00000000E+00  0.00000000E+00
  0.00000000E+00  0.00000000E+00  0.00000000E+00
  0.00000000E+00  0.00000000E+00  0.00000000E+00
  0.00000000E+00  0.00000000E+00  0.00000000E+00
  0.00000000E+00  0.00000000E+00  0.00000000E+00
  0.00000000E+00  0.00000000E+00  0.00000000E+00
  0.00000000E+00  0.00000000E+00  0.00000000E+00
  0.00000000E+00  0.00000000E+00  0.00000000E+00
  0.00000000E+00  0.00000000E+00  0.00000000E+00
  0.00000000E+00  0.00000000E+00  0.00000000E+00
  0.00000000E+00  0.00000000E+00  0.00000000E+00
  0.00000000E+00  0.00000000E+00  0.00000000E+00
  0.00000000E+00  0.00000000E+00  0.00000000E+00
  0.00000000E+00  0.00000000E+00  0.00000000E+00
  0.00000000E+00  0.00000000E+00  0.00000000E+00
  0.00000000E+00  0.00000000E+00  0.00000000E+00
  0.00000000E+00  0.00000000E+00  0.00000000E+00
  0.00000000E+00  0.00000000E+00  0.00000000E+00
  0.00000000E+00  0.00000000E+00  0.00000000E+00
  0.00000000E+00  0.00000000E+00  0.00000000E+00
  0.00000000E+00  0.00000000E+00  0.00000000E+00
  0.00000000E+00  0.00000000E+00  0.00000000E+00
  0.00000000E+00  0.00000000E+00  0.00000000E+00
  0.00000000E+00  0.00000000E+00  0.00000000E+00
  0.00000000E+00  0.00000000E+00  0.00000000E+00
  0.00000000E+00  0.00000000E+00  0.00000000E+00
  0.00000000E+00  0.00000000E+00  0.00000000E+00
  0.00000000E+00  0.00000000E+00  0.00000000E+00
  0.00000000E+00  0.00000000E+00  0.00000000E+00
  0.00000000E+00  0.00000000E+00  0.00000000E+00
  0.00000000E+00  0.00000000E+00  0.00000000E+00
  0.00000000E+00  0.00000000E+00  0.00000000E+00
  0.00000000E+00  0.00000000E+00  0.00000000E+00
  0.00000000E+00  0.00000000E+00  0.00000000E+00
  0.00000000E+00  0.00000000E+00  0.00000000E+00
  0.00000000E+00  0.00000000E+00  0.00000000E+00
  0.00000000E+00  0.00000000E+00  0.00000000E+00
  0.00000000E+00  0.00000000E+00  0.00000000E+00
  0.00000000E+00  0.00000000E+00  0.00000000E+00
  0.00000000E+00  0.00000000E+00  0.00000000E+00
  0.00000000E+00  0.00000000E+00  0.00000000E+00
  0.00000000E+00  0.00000000E+00  0.00000000E+00
  0.00000000E+00  0.00000000E+00  0.00000000E+00
  0.00000000E+00  0.00000000E+00  0.00000000E+00
  0.00000000E+00  0.00000000E+00  0.00000000E+00
  0.00000000E+00  0.00000000E+00  0.00000000E+00
  0.00000000E+00  0.00000000E+00  0.00000000E+00
  0.00000000E+00  0.00000000E+00  0.00000000E+00
  0.00000000E+00  0.00000000E+00  0.00000000E+00
  0.00000000E+00  0.00000000E+00  0.00000000E+00
  0.00000000E+00  0.00000000E+00  0.00000000E+00
  0.00000000E+00  0.00000000E+00  0.00000000E+00
  0.00000000E+00  0.00000000E+00  0.00000000E+00
  0.00000000E+00  0.00000000E+00  0.00000000E+00
  0.00000000E+00  0.00000000E+00  0.00000000E+00
  0.00000000E+00  0.00000000E+00  0.00000000E+00
  0.00000000E+00  0.00000000E+00  0.00000000E+00
  0.00000000E+00  0.00000000E+00  0.00000000E+00
  0.00000000E+00  0.00000000E+00  0.00000000E+00
  0.00000000E+00  0.00000000E+00  0.00000000E+00
  0.00000000E+00  0.00000000E+00  0.00000000E+00
  0.00000000E+00  0.00000000E+00  0.00000000E+00
  0.00000000E+00  0.00000000E+00  0.00000000E+00
  0.00000000E+00  0.00000000E+00  0.00000000E+00
  0.00000000E+00  0.00000000E+00  0.00000000E+00
  0.00000000E+00  0.00000000E+00  0.00000000E+00
  0.00000000E+00  0.00000000E+00  0.00000000E+00
  0.00000000E+00  0.00000000E+00  0.00000000E+00
  0.00000000E+00  0.00000000E+00  0.00000000E+00
  0.00000000E+00  0.00000000E+00  0.00000000E+00
  0.00000000E+00  0.00000000E+00  0.00000000E+00
  0.00000000E+00  0.00000000E+00  0.00000000E+00
  0.00000000E+00  0.00000000E+00  0.00000000E+00
  0.00000000E+00  0.00000000E+00  0.00000000E+00
  0.00000000E+00  0.00000000E+00  0.00000000E+00
  0.00000000E+00  0.00000000E+00  0.00000000E+00
  0.00000000E+00  0.00000000E+00  0.00000000E+00
  0.00000000E+00  0.00000000E+00  0.00000000E+00
  0.00000000E+00  0.00000000E+00  0.00000000E+00
  0.00000000E+00  0.00000000E+00  0.00000000E+00
  0.00000000E+00  0.00000000E+00  0.00000000E+00
  0.00000000E+00  0.00000000E+00  0.00000000E+00
  0.00000000E+00  0.00000000E+00  0.00000000E+00
  0.00000000E+00  0.00000000E+00  0.00000000E+00
  0.00000000E+00  0.00000000E+00  0.00000000E+00
  0.00000000E+00  0.00000000E+00  0.00000000E+00
  0.00000000E+00  0.00000000E+00  0.00000000E+00
  0.00000000E+00  0.00000000E+00  0.00000000E+00
  0.00000000E+00  0.00000000E+00  0.00000000E+00
  0.00000000E+00  0.00000000E+00  0.00000000E+00
  0.00000000E+00  0.00000000E+00  0.00000000E+00
  0.00000000E+00  0.00000000E+00  0.00000000E+00
  0.00000000E+00  0.00000000E+00  0.00000000E+00
  0.00000000E+00  0.00000000E+00  0.00000000E+00
  0.00000000E+00  0.00000000E+00  0.00000000E+00
  0.00000000E+00  0.00000000E+00  0.00000000E+00
  0.00000000E+00  0.00000000E+00  0.00000000E+00
  0.00000000E+00  0.00000000E+00  0.00000000E+00
  0.00000000E+00  0.00000000E+00  0.00000000E+00
  0.00000000E+00  0.00000000E+00  0.00000000E+00
  0.00000000E+00  0.00000000E+00  0.00000000E+00
  0.00000000E+00  0.00000000E+00  0.00000000E+00
  0.00000000E+00  0.00000000E+00  0.00000000E+00
  0.00000000E+00  0.00000000E+00  0.00000000E+00
  0.00000000E+00  0.00000000E+00  0.00000000E+00
  0.00000000E+00  0.00000000E+00  0.00000000E+00
  0.00000000E+00  0.00000000E+00  0.00000000E+00
  0.00000000E+00  0.00000000E+00  0.00000000E+00
  0.00000000E+00  0.00000000E+00  0.00000000E+00
  0.00000000E+00  0.00000000E+00  0.00000000E+00
  0.00000000E+00  0.00000000E+00  0.00000000E+00
  0.00000000E+00  0.00000000E+00  0.00000000E+00
  0.00000000E+00  0.00000000E+00  0.00000000E+00
  0.00000000E+00  0.00000000E+00  0.00000000E+00
  0.00000000E+00  0.00000000E+00  0.00000000E+00
  0.00000000E+00  0.00000000E+00  0.00000000E+00
  0.00000000E+00  0.00000000E+00  0.00000000E+00
  0.00000000E+00  0.00000000E+00  0.00000000E+00
  0.00000000E+00  0.00000000E+00  0.00000000E+00
  0.00000000E+00  0.00000000E+00  0.00000000E+00
  0.00000000E+00  0.00000000E+00  0.00000000E+00
  0.00000000E+00  0.00000000E+00  0.00000000E+00
  0.00000000E+00  0.00000000E+00  0.00000000E+00
  0.00000000E+00  0.00000000E+00  0.00000000E+00
  0.00000000E+00  0.00000000E+00  0.00000000E+00
  0.00000000E+00  0.00000000E+00  0.00000000E+00
  0.00000000E+00  0.00000000E+00  0.00000000E+00
  0.00000000E+00  0.00000000E+00  0.00000000E+00
  0.00000000E+00  0.00000000E+00  0.00000000E+00
  0.00000000E+00  0.00000000E+00  0.00000000E+00
  0.00000000E+00  0.00000000E+00  0.00000000E+00
  0.00000000E+00  0.00000000E+00  0.00000000E+00
  0.00000000E+00  0.00000000E+00  0.00000000E+00
  0.00000000E+00  0.00000000E+00  0.00000000E+00
  0.00000000E+00  0.00000000E+00  0.00000000E+00
  0.00000000E+00  0.00000000E+00  0.00000000E+00
  0.00000000E+00  0.00000000E+00  0.00000000E+00
  0.00000000E+00  0.00000000E+00  0.00000000E+00
  0.00000000E+00  0.00000000E+00  0.00000000E+00
  0.00000000E+00  0.00000000E+00  0.00000000E+00
  0.00000000E+00  0.00000000E+00  0.00000000E+00
  0.00000000E+00  0.00000000E+00  0.00000000E+00
  0.00000000E+00  0.00000000E+00  0.00000000E+00
  0.00000000E+00  0.00000000E+00  0.00000000E+00
  0.00000000E+00  0.00000000E+00  0.00000000E+00
  0.00000000E+00  0.00000000E+00  0.00000000E+00
  0.00000000E+00  0.00000000E+00  0.00000000E+00
  0.00000000E+00  0.00000000E+00  0.00000000E+00
  0.00000000E+00  0.00000000E+00  0.00000000E+00
  0.00000000E+00  0.00000000E+00  0.00000000E+00
  0.00000000E+00  0.00000000E+00  0.00000000E+00
  0.00000000E+00  0.00000000E+00  0.00000000E+00
  0.00000000E+00  0.00000000E+00  0.00000000E+00
  0.00000000E+00  0.00000000E+00  0.00000000E+00
  0.00000000E+00  0.00000000E+00  0.00000000E+00
  0.00000000E+00  0.00000000E+00  0.00000000E+00
  0.00000000E+00  0.00000000E+00  0.00000000E+00
  0.00000000E+00  0.00000000E+00  0.00000000E+00
  0.00000000E+00  0.00000000E+00  0.00000000E+00
  0.00000000E+00  0.00000000E+00  0.00000000E+00
  0.00000000E+00  0.00000000E+00  0.00000000E+00
  0.00000000E+00  0.00000000E+00  0.00000000E+00
  0.00000000E+00  0.00000000E+00  0.00000000E+00
  0.00000000E+00  0.00000000E+00  0.00000000E+00
  0.00000000E+00  0.00000000E+00  0.00000000E+00
  0.00000000E+00  0.00000000E+00  0.00000000E+00
  0.00000000E+00  0.00000000E+00  0.00000000E+00
  0.00000000E+00  0.00000000E+00  0.00000000E+00
  0.00000000E+00  0.00000000E+00  0.00000000E+00
  0.00000000E+00  0.00000000E+00  0.00000000E+00
  0.00000000E+00  0.00000000E+00  0.00000000E+00
  0.00000000E+00  0.00000000E+00  0.00000000E+00
  0.00000000E+00  0.00000000E+00  0.00000000E+00
  0.00000000E+00  0.00000000E+00  0.00000000E+00
  0.00000000E+00  0.00000000E+00  0.00000000E+00
  0.00000000E+00  0.00000000E+00  0.00000000E+00
  0.00000000E+00  0.00000000E+00  0.00000000E+00
  0.00000000E+00  0.00000000E+00  0.00000000E+00
  0.00000000E+00  0.00000000E+00  0.00000000E+00
  0.00000000E+00  0.00000000E+00  0.00000000E+00
  0.00000000E+00  0.00000000E+00  0.00000000E+00
  0.00000000E+00  0.00000000E+00  0.00000000E+00
  0.00000000E+00  0.00000000E+00  0.00000000E+00
  0.00000000E+00  0.00000000E+00  0.00000000E+00
  0.00000000E+00  0.00000000E+00  0.00000000E+00
  0.00000000E+00  0.00000000E+00  0.00000000E+00
  0.00000000E+00  0.00000000E+00  0.00000000E+00
  0.00000000E+00  0.00000000E+00  0.00000000E+00
  0.00000000E+00  0.00000000E+00  0.00000000E+00
  0.00000000E+00  0.00000000E+00  0.00000000E+00
  0.00000000E+00  0.00000000E+00  0.00000000E+00
  0.00000000E+00  0.00000000E+00  0.00000000E+00
  0.00000000E+00  0.00000000E+00  0.00000000E+00
  0.00000000E+00  0.00000000E+00  0.00000000E+00
  0.00000000E+00  0.00000000E+00  0.00000000E+00
  0.00000000E+00  0.00000000E+00  0.00000000E+00
  0.00000000E+00  0.00000000E+00  0.00000000E+00
  0.00000000E+00  0.00000000E+00  0.00000000E+00
  0.00000000E+00  0.00000000E+00  0.00000000E+00
  0.00000000E+00  0.00000000E+00  0.00000000E+00
  0.00000000E+00  0.00000000E+00  0.00000000E+00
  0.00000000E+00  0.00000000E+00  0.00000000E+00
  0.00000000E+00  0.00000000E+00  0.00000000E+00
  0.00000000E+00  0.00000000E+00  0.00000000E+00
  0.00000000E+00  0.00000000E+00  0.00000000E+00
  0.00000000E+00  0.00000000E+00  0.00000000E+00
  0.00000000E+00  0.00000000E+00  0.00000000E+00
  0.00000000E+00  0.00000000E+00  0.00000000E+00
  0.00000000E+00  0.00000000E+00  0.00000000E+00
  0.00000000E+00  0.00000000E+00  0.00000000E+00
  0.00000000E+00  0.00000000E+00  0.00000000E+00
  0.00000000E+00  0.00000000E+00  0.00000000E+00
  0.00000000E+00  0.00000000E+00  0.00000000E+00