Species order: X N B                    
   2.51242800000000     
     5.9449720136058266    0.0000000000000000    0.0000000000000000
    -2.9724860068029120    5.1484967885702053   -0.0000000000000001
     0.0000000000000000    0.0000000000000009    5.3101128803662583
   Al   N    B 
     1   144   143
Direct
  0.4444444444444429  0.3888888888888857  0.3750000000000000
  0.1110990583944924  0.0555445792635783  0.1243673229795080
  0.6111264603161822  0.5555751773710191  0.1245599319730169
  0.4444455208690858  0.0555445792635783  0.1243673229795080
  0.9444494099655613  0.5555564406364439  0.1245725954797910
  0.7777777777777786  0.0555555555555571  0.1245338561462837
  0.1111111111111143  0.7222222222222214  0.6254032913250768
  0.4444455208690858  0.7222342749388430  0.6256326770204924
  0.2777581559623158  0.2222068730171534  0.6254400680269844
  0.7777887540697580  0.7222342749388430  0.6256326770204924
  0.6111138895082244  0.2222194438251109  0.6256741825854067
  0.9444442206262865  0.2222231453210874  0.6254946069935265
  0.2777768926968929  0.7222263026624545  0.1245725954797910
  0.1111055543168935  0.2222194438251109  0.1243258174145945
  0.4444487170548372  0.2222068730171534  0.1245599319730169
  0.6111138895082244  0.7222277790164421  0.1243258174145945
  0.9444494099655613  0.7222263026624545  0.1245725954797910
  0.7777789246947985  0.2222231453210874  0.1245053930064734
  0.1111070306708818  0.8888839233677673  0.6254274045202098
  0.4444463012452251  0.8888898172892751  0.6254627476234567
  0.2777581559623158  0.3888846162784914  0.6254400680269844
  0.6111264603161822  0.3888846162784914  0.6254400680269844
  0.7777789246947985  0.8888891127070421  0.6254946069935265
  0.9444435160440535  0.3888870320881035  0.6254627476234567
  0.1110990583944924  0.3888878124642428  0.1243673229795080
  0.2777768926968929  0.8888839233677673  0.1245725954797910
  0.6111101880122473  0.8888891127070421  0.1245053930064734
  0.4444444444444429  0.3888888888888857  0.1290610384506857
  0.9444435160440535  0.8888898172892751  0.1245372523765417
  0.7777887540697580  0.3888878124642428  0.1243673229795080
  0.2777725984759867  0.5555607348573486  0.6255699619997057
  0.1110990583944924  0.0555445792635783  0.6256326770204924
  0.6111264603161822  0.5555751773710191  0.6254400680269844
  0.4444455208690858  0.0555445792635783  0.6256326770204924
  0.9444494099655613  0.5555564406364439  0.6254274045202098
  0.1111070306708818  0.5555564406364439  0.1245725954797910
  0.7777777777777786  0.0555555555555571  0.6254661438537166
  0.2777725984759867  0.0555451969519741  0.1244300380002942
  0.4444487170548372  0.5555751773710191  0.1245599319730169
  0.7777881363813623  0.5555607348573486  0.1244300380002942
  0.6111101880122473  0.0555544086385366  0.1245053930064734
  0.4444487170548372  0.5555751773710191  0.6254400680269844
  0.9444442206262865  0.0555544086385366  0.1245053930064734
  0.2777768926968929  0.7222263026624545  0.6254274045202098
  0.1111055543168935  0.2222194438251109  0.6256741825854067
  0.4444487170548372  0.2222068730171534  0.6254400680269844
  0.6111138895082244  0.7222277790164421  0.6256741825854067
  0.9444494099655613  0.7222263026624545  0.6254274045202098
  0.7777789246947985  0.2222231453210874  0.6254946069935265
  0.1111111111111143  0.7222222222222214  0.1245967086749226
  0.4444455208690858  0.7222342749388430  0.1243673229795080
  0.2777581559623158  0.2222068730171534  0.1245599319730169
  0.7777887540697580  0.7222342749388430  0.1243673229795080
  0.6111138895082244  0.2222194438251109  0.1243258174145945
  0.9444442206262865  0.2222231453210874  0.1245053930064734
  0.1110990583944924  0.3888878124642428  0.6256326770204924
  0.2777768926968929  0.8888839233677673  0.6254274045202098
  0.6111101880122473  0.8888891127070421  0.6254946069935265
  0.4444444444444429  0.3888888888888857  0.6209389615493150
  0.9444435160440535  0.8888898172892751  0.6254627476234567
  0.1111070306708818  0.8888839233677673  0.1245725954797910
  0.7777887540697580  0.3888878124642428  0.6256326770204924
  0.4444463012452251  0.8888898172892751  0.1245372523765417
  0.2777581559623158  0.3888846162784914  0.1245599319730169
  0.2777725984759867  0.5555607348573486  0.1244300380002942
  0.6111264603161822  0.3888846162784914  0.1245599319730169
  0.7777789246947985  0.8888891127070421  0.1245053930064734
  0.9444435160440535  0.3888870320881035  0.1245372523765417
  0.1111070306708818  0.5555564406364439  0.6254274045202098
  0.2777725984759867  0.0555451969519741  0.6255699619997057
  0.7777881363813623  0.5555607348573486  0.6255699619997057
  0.6111101880122473  0.0555544086385366  0.6254946069935265
  0.9444442206262865  0.0555544086385366  0.6254946069935265
  0.0545710544589843  0.1104475570705647  0.3750000000000000
  0.5561048136537200  0.6122096273074393  0.3750000000000000
  0.3878842695154757  0.1054958876941498  0.3750000000000000
  0.8908050634731688  0.6120691984032551  0.3750000000000000
  0.7223956873750540  0.1109376459582812  0.3750000000000000
  0.0555541543563015  0.7777791789770351  0.8750000000000000
  0.3888917259089376  0.7777802682515845  0.8750000000000000
  0.2222195703075594  0.2777764518204474  0.8750000000000000
  0.7222244636382237  0.7777820417128525  0.8750000000000000
  0.5555568815128886  0.2777764518204474  0.8750000000000000
  0.8888889548381719  0.2777779096763503  0.8750000000000000
  0.2218528242626126  0.7775930787979736  0.3750000000000000
  0.0545710544589843  0.2774568307217550  0.3750000000000000
  0.3796324598354360  0.2592649196708774  0.3750000000000000
  0.5558765026115813  0.7787622788743525  0.3750000000000000
  0.8904654408201540  0.7790480286583852  0.3750000000000000
  0.7228857762627715  0.2774568307217550  0.3750000000000000
  0.0555530650817513  0.9444447909906889  0.8750000000000000
  0.3888917259089376  0.9444447909906889  0.8750000000000000
  0.2222228135536256  0.4444404192187861  0.8750000000000000
  0.5555393335836490  0.4444363334584888  0.8750000000000000
  0.7222224985866473  0.9444449971732946  0.8750000000000000
  0.8888885423426397  0.4444416074243910  0.8750000000000000
  0.0542853046749504  0.4447507454951054  0.3750000000000000
  0.2212641349300800  0.9425282698601598  0.3750000000000000
  0.5558137018218443  0.9445735175775852  0.3750000000000000
  0.3796324598354356  0.4537008734978926  0.3750000000000000
  0.8887598157557434  0.9445735175775852  0.3750000000000000
  0.7278374456391854  0.4454490638178529  0.3750000000000000
  0.2222237756310698  0.6111095577022653  0.8750000000000000
  0.0555512916204826  0.1111088696951118  0.8750000000000000
  0.5555568815128886  0.6111137630257766  0.8750000000000000
  0.3888929141145425  0.1111157276681753  0.8750000000000000
  0.8888857820711897  0.6111095577022653  0.8750000000000000
  0.0557402545353616  0.6114805090707230  0.3750000000000000
  0.7222224985866473  0.1111108347466884  0.8750000000000000
  0.2176116181786665  0.1054958876941498  0.3750000000000000
  0.3878842695154757  0.6157217151546678  0.3750000000000000
  0.7278374456391855  0.6157217151546678  0.3750000000000000
  0.5558765026115813  0.1104475570705647  0.3750000000000000
  0.3888929141145425  0.6111105197797104  0.8750000000000000
  0.8885419585832189  0.1109376459582812  0.3750000000000000
  0.2222250246207327  0.7777791789770351  0.8750000000000000
  0.0555512916204826  0.2777757552587060  0.8750000000000000
  0.3888969998748398  0.2777939997496880  0.8750000000000000
  0.5555575780746294  0.7777820417128525  0.8750000000000000
  0.8888885423426397  0.7777802682515845  0.8750000000000000
  0.7222244636382237  0.2777757552587060  0.8750000000000000
  0.0557402545353616  0.7775930787979736  0.3750000000000000
  0.3885825878382232  0.7790480286583852  0.3750000000000000
  0.2211237060258968  0.2772285196796160  0.3750000000000000
  0.7228857762627715  0.7787622788743525  0.3750000000000000
  0.5561048136537200  0.2772285196796160  0.3750000000000000
  0.8887598157557434  0.2775196315114921  0.3750000000000000
  0.0555530650817513  0.4444416074243910  0.8750000000000000
  0.2222237756310698  0.9444475512621389  0.8750000000000000
  0.5555554236569856  0.9444443784951567  0.8750000000000000
  0.3888969998748398  0.4444363334584888  0.8750000000000000
  0.8888889548381719  0.9444443784951567  0.8750000000000000
  0.0542853046749504  0.9428678925131746  0.3750000000000000
  0.7222176056651602  0.4444404192187861  0.8750000000000000
  0.3885825878382232  0.9428678925131746  0.3750000000000000
  0.2176116181786665  0.4454490638178529  0.3750000000000000
  0.2212641349300800  0.6120691984032551  0.3750000000000000
  0.5740684136624565  0.4537008734978926  0.3750000000000000
  0.7223956873750540  0.9447913747501097  0.3750000000000000
  0.8904654408201540  0.4447507454951054  0.3750000000000000
  0.0555541543563015  0.6111083087126031  0.8750000000000000
  0.2222228135536256  0.1111157276681753  0.8750000000000000
  0.7222176056651602  0.6111105197797104  0.8750000000000000
  0.5555575780746294  0.1111088696951118  0.8750000000000000
  0.8888883361600340  0.1111108347466884  0.8750000000000000
  0.1081354925309197  0.0527882710436063  0.3750000000000000
  0.6181897217931830  0.5613469966100715  0.3750000000000000
  0.4446527785126867  0.0527882710436063  0.3750000000000000
  0.9452866049946834  0.5557970215938400  0.3750000000000000
  0.7777777777777786  0.0555555555555571  0.3750000000000000
  0.1111111111111143  0.7222222222222214  0.8750000000000000
  0.4444494030725678  0.7222335908272705  0.8750000000000000
  0.2777572968986545  0.2222099417382243  0.8750000000000000
  0.7777841877547016  0.7222335908272705  0.8750000000000000
  0.6111208651935331  0.2222124681398034  0.8750000000000000
  0.9444372016940799  0.2222182430937765  0.8750000000000000
  0.2775363117394970  0.7228229167341783  0.3750000000000000
  0.1101942184186383  0.2217637758759833  0.3750000000000000
  0.4431572748168884  0.2151436115401537  0.3750000000000000
  0.6115695574573522  0.7231391149146985  0.3750000000000000
  0.9452866049946834  0.7228229167341783  0.3750000000000000
  0.7779091088656137  0.2218242229586189  0.3750000000000000
  0.1111086765766606  0.8888877890060101  0.8750000000000000
  0.4444481703839231  0.8888907518586263  0.8750000000000000
  0.2777572968986545  0.3888806884937587  0.8750000000000000
  0.6111233915951115  0.3888806884937587  0.8750000000000000
  0.7777810413996961  0.8888961316392487  0.8750000000000000
  0.9444425814747023  0.3888851629494054  0.8750000000000000
  0.1081354925309197  0.3886805548206419  0.3750000000000000
  0.2775363117394970  0.8880467283386452  0.3750000000000000
  0.6115091103747188  0.8894182192403245  0.3750000000000000
  0.9442987139914344  0.8890346193418942  0.3750000000000000
  0.7805450622897283  0.3886805548206419  0.3750000000000000
  0.2777747244883672  0.5555586088449695  0.8750000000000000
  0.1110997425060665  0.0555491455786345  0.8750000000000000
  0.6111233915951115  0.5555760364346813  0.8750000000000000
  0.4444494030725678  0.0555491455786345  0.8750000000000000
  0.9444455443273185  0.5555542209039791  0.8750000000000000
  0.1105104165991565  0.5557970215938400  0.3750000000000000
  0.7777777777777786  0.0555555555555571  0.8750000000000000
  0.2763552512031061  0.0527105024062116  0.3750000000000000
  0.4431572748168884  0.5613469966100715  0.3750000000000000
  0.7806228309271236  0.5569780821302306  0.3750000000000000
  0.6115091103747188  0.0554242244677220  0.3750000000000000
  0.4444526448395699  0.5555760364346813  0.8750000000000000
  0.9439151140930041  0.0554242244677220  0.3750000000000000
  0.2777791124293568  0.7222246567566745  0.8750000000000000
  0.1110916029462776  0.2222124681398034  0.8750000000000000
  0.4444526448395699  0.2222099417382243  0.8750000000000000
  0.6111208651935331  0.7222417303870570  0.8750000000000000
  0.9444455443273185  0.7222246567566745  0.8750000000000000
  0.7777810413996961  0.2222182430937765  0.8750000000000000
  0.1111111111111143  0.7222222222222214  0.3750000000000000
  0.4446527785126867  0.7251978408024152  0.3750000000000000
  0.2719863367232644  0.2151436115401537  0.3750000000000000
  0.7805450622897283  0.7251978408024152  0.3750000000000000
  0.6115695574573522  0.2217637758759833  0.3750000000000000
  0.9439151140930041  0.2218242229586189  0.3750000000000000
  0.1110997425060665  0.3888839302607608  0.8750000000000000
  0.2777791124293568  0.8888877890060101  0.8750000000000000
  0.6111150902395581  0.8888961316392487  0.8750000000000000
  0.4444444444444429  0.3888888888888857  0.8750000000000000
  0.9444425814747023  0.8888907518586263  0.8750000000000000
  0.1105104165991565  0.8880467283386452  0.3750000000000000
  0.7777841877547016  0.3888839302607608  0.8750000000000000
  0.4447359053504606  0.8890346193418942  0.3750000000000000
  0.2719863367232644  0.3901760585164402  0.3750000000000000
  0.2763552512031061  0.5569780821302306  0.3750000000000000
  0.6181897217931830  0.3901760585164402  0.3750000000000000
  0.7779091088656137  0.8894182192403245  0.3750000000000000
  0.9442987139914344  0.3885974279828680  0.3750000000000000
  0.1111086765766606  0.5555542209039791  0.8750000000000000
  0.2777747244883672  0.0555494489767338  0.8750000000000000
  0.7777838843566013  0.5555586088449695  0.8750000000000000
  0.6111150902395581  0.0555522919336394  0.8750000000000000
  0.9444372016940799  0.0555522919336394  0.8750000000000000
  0.0555378437599180  0.1110939465423513  0.1243445742353183
  0.5555871643899858  0.6111743287799697  0.1244317851920423
  0.3888622801098336  0.1110332124542875  0.1243254307067215
  0.8889175739974353  0.6111254536653886  0.1244494193770670
  0.7222240327443751  0.1111093005889601  0.1244397528929239
  0.0555575549665846  0.7777757783667523  0.6254954785322572
  0.3888836796419075  0.7777868613445843  0.6255762817283631
  0.2221590045533646  0.2777461689433509  0.6255682148079569
  0.7222393867909839  0.7777954895734175  0.6256554257646819
  0.5555871643899858  0.2777461689433509  0.6255682148079569
  0.8888881863279720  0.2777763726559501  0.6255583586859215
  0.2222182234001663  0.7777757783667523  0.1245045214677430
  0.0555378437599180  0.2777772305509025  0.1243445742353183
  0.3887457513176331  0.2774915026352733  0.1258010569953361
  0.5555561027824338  0.7777954895734175  0.1243445742353183
  0.8889031817026682  0.7777868613445843  0.1244237182716375
  0.7222393867909839  0.2777772305509025  0.1243445742353183
  0.0555464719887524  0.9444301516306604  0.6255762817283631
  0.3888836796419075  0.9444301516306604  0.6255762817283631
  0.2221709323444466  0.4444710532234950  0.6256745692932778
  0.5558418306980624  0.4445875820156955  0.6241989430046638
  0.7222240327443751  0.9444480654887512  0.6255602471070772
  0.8889031817026682  0.4444496536914211  0.6255762817283631
  0.0555464719887524  0.4444496536914211  0.1244237182716375
  0.2222078796679469  0.9444157593358933  0.1244494193770670
  0.5555569606773857  0.9444451470053566  0.1244416413140789
  0.3887457513176331  0.4445875820156955  0.1258010569953361
  0.8888881863279720  0.9444451470053566  0.1244416413140789
  0.7223001208790478  0.4444710532234950  0.1243254307067215
  0.2222078796679469  0.6111254536653886  0.6255505806229336
  0.0555378437599180  0.1110939465423513  0.6256554257646819
  0.5555871643899858  0.6111743287799697  0.6255682148079569
  0.3888622801098336  0.1110332124542875  0.6256745692932778
  0.8889175739974353  0.6111254536653886  0.6255505806229336
  0.0555575549665846  0.6111151099331694  0.1245045214677430
  0.7222240327443751  0.1111093005889601  0.6255602471070772
  0.2221709323444466  0.1110332124542875  0.1243254307067215
  0.3888622801098336  0.6111624009888883  0.1243254307067215
  0.7223001208790478  0.6111624009888883  0.1243254307067215
  0.5555561027824338  0.1110939465423513  0.1243445742353183
  0.3888622801098336  0.6111624009888883  0.6256745692932778
  0.8888852678445774  0.1111093005889601  0.1244397528929239
  0.2222182234001663  0.7777757783667523  0.6254954785322572
  0.0555378437599180  0.2777772305509025  0.6256554257646819
  0.3887457513176331  0.2774915026352733  0.6241989430046638
  0.5555561027824338  0.7777954895734175  0.6256554257646819
  0.8889031817026682  0.7777868613445843  0.6255762817283631
  0.7222393867909839  0.2777772305509025  0.6256554257646819
  0.0555575549665846  0.7777757783667523  0.1245045214677430
  0.3888836796419075  0.7777868613445843  0.1244237182716375
  0.2221590045533646  0.2777461689433509  0.1244317851920423
  0.7222393867909839  0.7777954895734175  0.1243445742353183
  0.5555871643899858  0.2777461689433509  0.1244317851920423
  0.8888881863279720  0.2777763726559501  0.1244416413140789
  0.0555464719887524  0.4444496536914211  0.6255762817283631
  0.2222078796679469  0.9444157593358933  0.6255505806229336
  0.5555569606773857  0.9444451470053566  0.6255583586859215
  0.3887457513176331  0.4445875820156955  0.6241989430046638
  0.8888881863279720  0.9444451470053566  0.6255583586859215
  0.0555464719887524  0.9444301516306604  0.1244237182716375
  0.7223001208790478  0.4444710532234950  0.6256745692932778
  0.3888836796419075  0.9444301516306604  0.1244237182716375
  0.2221709323444466  0.4444710532234950  0.1243254307067215
  0.2222078796679469  0.6111254536653886  0.1244494193770670
  0.5558418306980624  0.4445875820156955  0.1258010569953361
  0.7222240327443751  0.9444480654887512  0.1244397528929239
  0.8889031817026682  0.4444496536914211  0.1244237182716375
  0.0555575549665846  0.6111151099331694  0.6254954785322572
  0.2221709323444466  0.1110332124542875  0.6256745692932778
  0.7223001208790478  0.6111624009888883  0.6256745692932778
  0.5555561027824338  0.1110939465423513  0.6256554257646819
  0.8888852678445774  0.1111093005889601  0.6255602471070772
 
  0.00000000E+00  0.00000000E+00  0.00000000E+00
  0.00000000E+00  0.00000000E+00  0.00000000E+00
  0.00000000E+00  0.00000000E+00  0.00000000E+00
  0.00000000E+00  0.00000000E+00  0.00000000E+00
  0.00000000E+00  0.00000000E+00  0.00000000E+00
  0.00000000E+00  0.00000000E+00  0.00000000E+00
  0.00000000E+00  0.00000000E+00  0.00000000E+00
  0.00000000E+00  0.00000000E+00  0.00000000E+00
  0.00000000E+00  0.00000000E+00  0.00000000E+00
  0.00000000E+00  0.00000000E+00  0.00000000E+00
  0.00000000E+00  0.00000000E+00  0.00000000E+00
  0.00000000E+00  0.00000000E+00  0.00000000E+00
  0.00000000E+00  0.00000000E+00  0.00000000E+00
  0.00000000E+00  0.00000000E+00  0.00000000E+00
  0.00000000E+00  0.00000000E+00  0.00000000E+00
  0.00000000E+00  0.00000000E+00  0.00000000E+00
  0.00000000E+00  0.00000000E+00  0.00000000E+00
  0.00000000E+00  0.00000000E+00  0.00000000E+00
  0.00000000E+00  0.00000000E+00  0.00000000E+00
  0.00000000E+00  0.00000000E+00  0.00000000E+00
  0.00000000E+00  0.00000000E+00  0.00000000E+00
  0.00000000E+00  0.00000000E+00  0.00000000E+00
  0.00000000E+00  0.00000000E+00  0.00000000E+00
  0.00000000E+00  0.00000000E+00  0.00000000E+00
  0.00000000E+00  0.00000000E+00  0.00000000E+00
  0.00000000E+00  0.00000000E+00  0.00000000E+00
  0.00000000E+00  0.00000000E+00  0.00000000E+00
  0.00000000E+00  0.00000000E+00  0.00000000E+00
  0.00000000E+00  0.00000000E+00  0.00000000E+00
  0.00000000E+00  0.00000000E+00  0.00000000E+00
  0.00000000E+00  0.00000000E+00  0.00000000E+00
  0.00000000E+00  0.00000000E+00  0.00000000E+00
  0.00000000E+00  0.00000000E+00  0.00000000E+00
  0.00000000E+00  0.00000000E+00  0.00000000E+00
  0.00000000E+00  0.00000000E+00  0.00000000E+00
  0.00000000E+00  0.00000000E+00  0.00000000E+00
  0.00000000E+00  0.00000000E+00  0.00000000E+00
  0.00000000E+00  0.00000000E+00  0.00000000E+00
  0.00000000E+00  0.00000000E+00  0.00000000E+00
  0.00000000E+00  0.00000000E+00  0.00000000E+00
  0.00000000E+00  0.00000000E+00  0.00000000E+00
  0.00000000E+00  0.00000000E+00  0.00000000E+00
  0.00000000E+00  0.00000000E+00  0.00000000E+00
  0.00000000E+00  0.00000000E+00  0.00000000E+00
  0.00000000E+00  0.00000000E+00  0.00000000E+00
  0.00000000E+00  0.00000000E+00  0.00000000E+00
  0.00000000E+00  0.00000000E+00  0.00000000E+00
  0.00000000E+00  0.00000000E+00  0.00000000E+00
  0.00000000E+00  0.00000000E+00  0.00000000E+00
  0.00000000E+00  0.00000000E+00  0.00000000E+00
  0.00000000E+00  0.00000000E+00  0.00000000E+00
  0.00000000E+00  0.00000000E+00  0.00000000E+00
  0.00000000E+00  0.00000000E+00  0.00000000E+00
  0.00000000E+00  0.00000000E+00  0.00000000E+00
  0.00000000E+00  0.00000000E+00  0.00000000E+00
  0.00000000E+00  0.00000000E+00  0.00000000E+00
  0.00000000E+00  0.00000000E+00  0.00000000E+00
  0.00000000E+00  0.00000000E+00  0.00000000E+00
  0.00000000E+00  0.00000000E+00  0.00000000E+00
  0.00000000E+00  0.00000000E+00  0.00000000E+00
  0.00000000E+00  0.00000000E+00  0.00000000E+00
  0.00000000E+00  0.00000000E+00  0.00000000E+00
  0.00000000E+00  0.00000000E+00  0.00000000E+00
  0.00000000E+00  0.00000000E+00  0.00000000E+00
  0.00000000E+00  0.00000000E+00  0.00000000E+00
  0.00000000E+00  0.00000000E+00  0.00000000E+00
  0.00000000E+00  0.00000000E+00  0.00000000E+00
  0.00000000E+00  0.00000000E+00  0.00000000E+00
  0.00000000E+00  0.00000000E+00  0.00000000E+00
  0.00000000E+00  0.00000000E+00  0.00000000E+00
  0.00000000E+00  0.00000000E+00  0.00000000E+00
  0.00000000E+00  0.00000000E+00  0.00000000E+00
  0.00000000E+00  0.00000000E+00  0.00000000E+00
  0.00000000E+00  0.00000000E+00  0.00000000E+00
  0.00000000E+00  0.00000000E+00  0.00000000E+00
  0.00000000E+00  0.00000000E+00  0.00000000E+00
  0.00000000E+00  0.00000000E+00  0.00000000E+00
  0.00000000E+00  0.00000000E+00  0.00000000E+00
  0.00000000E+00  0.00000000E+00  0.00000000E+00
  0.00000000E+00  0.00000000E+00  0.00000000E+00
  0.00000000E+00  0.00000000E+00  0.00000000E+00
  0.00000000E+00  0.00000000E+00  0.00000000E+00
  0.00000000E+00  0.00000000E+00  0.00000000E+00
  0.00000000E+00  0.00000000E+00  0.00000000E+00
  0.00000000E+00  0.00000000E+00  0.00000000E+00
  0.00000000E+00  0.00000000E+00  0.00000000E+00
  0.00000000E+00  0.00000000E+00  0.00000000E+00
  0.00000000E+00  0.00000000E+00  0.00000000E+00
  0.00000000E+00  0.00000000E+00  0.00000000E+00
  0.00000000E+00  0.00000000E+00  0.00000000E+00
  0.00000000E+00  0.00000000E+00  0.00000000E+00
  0.00000000E+00  0.00000000E+00  0.00000000E+00
  0.00000000E+00  0.00000000E+00  0.00000000E+00
  0.00000000E+00  0.00000000E+00  0.00000000E+00
  0.00000000E+00  0.00000000E+00  0.00000000E+00
  0.00000000E+00  0.00000000E+00  0.00000000E+00
  0.00000000E+00  0.00000000E+00  0.00000000E+00
  0.00000000E+00  0.00000000E+00  0.00000000E+00
  0.00000000E+00  0.00000000E+00  0.00000000E+00
  0.00000000E+00  0.00000000E+00  0.00000000E+00
  0.00000000E+00  0.00000000E+00  0.00000000E+00
  0.00000000E+00  0.00000000E+00  0.00000000E+00
  0.00000000E+00  0.00000000E+00  0.00000000E+00
  0.00000000E+00  0.00000000E+00  0.00000000E+00
  0.00000000E+00  0.00000000E+00  0.00000000E+00
  0.00000000E+00  0.00000000E+00  0.00000000E+00
  0.00000000E+00  0.00000000E+00  0.00000000E+00
  0.00000000E+00  0.00000000E+00  0.00000000E+00
  0.00000000E+00  0.00000000E+00  0.00000000E+00
  0.00000000E+00  0.00000000E+00  0.00000000E+00
  0.00000000E+00  0.00000000E+00  0.00000000E+00
  0.00000000E+00  0.00000000E+00  0.00000000E+00
  0.00000000E+00  0.00000000E+00  0.00000000E+00
  0.00000000E+00  0.00000000E+00  0.00000000E+00
  0.00000000E+00  0.00000000E+00  0.00000000E+00
  0.00000000E+00  0.00000000E+00  0.00000000E+00
  0.00000000E+00  0.00000000E+00  0.00000000E+00
  0.00000000E+00  0.00000000E+00  0.00000000E+00
  0.00000000E+00  0.00000000E+00  0.00000000E+00
  0.00000000E+00  0.00000000E+00  0.00000000E+00
  0.00000000E+00  0.00000000E+00  0.00000000E+00
  0.00000000E+00  0.00000000E+00  0.00000000E+00
  0.00000000E+00  0.00000000E+00  0.00000000E+00
  0.00000000E+00  0.00000000E+00  0.00000000E+00
  0.00000000E+00  0.00000000E+00  0.00000000E+00
  0.00000000E+00  0.00000000E+00  0.00000000E+00
  0.00000000E+00  0.00000000E+00  0.00000000E+00
  0.00000000E+00  0.00000000E+00  0.00000000E+00
  0.00000000E+00  0.00000000E+00  0.00000000E+00
  0.00000000E+00  0.00000000E+00  0.00000000E+00
  0.00000000E+00  0.00000000E+00  0.00000000E+00
  0.00000000E+00  0.00000000E+00  0.00000000E+00
  0.00000000E+00  0.00000000E+00  0.00000000E+00
  0.00000000E+00  0.00000000E+00  0.00000000E+00
  0.00000000E+00  0.00000000E+00  0.00000000E+00
  0.00000000E+00  0.00000000E+00  0.00000000E+00
  0.00000000E+00  0.00000000E+00  0.00000000E+00
  0.00000000E+00  0.00000000E+00  0.00000000E+00
  0.00000000E+00  0.00000000E+00  0.00000000E+00
  0.00000000E+00  0.00000000E+00  0.00000000E+00
  0.00000000E+00  0.00000000E+00  0.00000000E+00
  0.00000000E+00  0.00000000E+00  0.00000000E+00
  0.00000000E+00  0.00000000E+00  0.00000000E+00
  0.00000000E+00  0.00000000E+00  0.00000000E+00
  0.00000000E+00  0.00000000E+00  0.00000000E+00
  0.00000000E+00  0.00000000E+00  0.00000000E+00
  0.00000000E+00  0.00000000E+00  0.00000000E+00
  0.00000000E+00  0.00000000E+00  0.00000000E+00
  0.00000000E+00  0.00000000E+00  0.00000000E+00
  0.00000000E+00  0.00000000E+00  0.00000000E+00
  0.00000000E+00  0.00000000E+00  0.00000000E+00
  0.00000000E+00  0.00000000E+00  0.00000000E+00
  0.00000000E+00  0.00000000E+00  0.00000000E+00
  0.00000000E+00  0.00000000E+00  0.00000000E+00
  0.00000000E+00  0.00000000E+00  0.00000000E+00
  0.00000000E+00  0.00000000E+00  0.00000000E+00
  0.00000000E+00  0.00000000E+00  0.00000000E+00
  0.00000000E+00  0.00000000E+00  0.00000000E+00
  0.00000000E+00  0.00000000E+00  0.00000000E+00
  0.00000000E+00  0.00000000E+00  0.00000000E+00
  0.00000000E+00  0.00000000E+00  0.00000000E+00
  0.00000000E+00  0.00000000E+00  0.00000000E+00
  0.00000000E+00  0.00000000E+00  0.00000000E+00
  0.00000000E+00  0.00000000E+00  0.00000000E+00
  0.00000000E+00  0.00000000E+00  0.00000000E+00
  0.00000000E+00  0.00000000E+00  0.00000000E+00
  0.00000000E+00  0.00000000E+00  0.00000000E+00
  0.00000000E+00  0.00000000E+00  0.00000000E+00
  0.00000000E+00  0.00000000E+00  0.00000000E+00
  0.00000000E+00  0.00000000E+00  0.00000000E+00
  0.00000000E+00  0.00000000E+00  0.00000000E+00
  0.00000000E+00  0.00000000E+00  0.00000000E+00
  0.00000000E+00  0.00000000E+00  0.00000000E+00
  0.00000000E+00  0.00000000E+00  0.00000000E+00
  0.00000000E+00  0.00000000E+00  0.00000000E+00
  0.00000000E+00  0.00000000E+00  0.00000000E+00
  0.00000000E+00  0.00000000E+00  0.00000000E+00
  0.00000000E+00  0.00000000E+00  0.00000000E+00
  0.00000000E+00  0.00000000E+00  0.00000000E+00
  0.00000000E+00  0.00000000E+00  0.00000000E+00
  0.00000000E+00  0.00000000E+00  0.00000000E+00
  0.00000000E+00  0.00000000E+00  0.00000000E+00
  0.00000000E+00  0.00000000E+00  0.00000000E+00
  0.00000000E+00  0.00000000E+00  0.00000000E+00
  0.00000000E+00  0.00000000E+00  0.00000000E+00
  0.00000000E+00  0.00000000E+00  0.00000000E+00
  0.00000000E+00  0.00000000E+00  0.00000000E+00
  0.00000000E+00  0.00000000E+00  0.00000000E+00
  0.00000000E+00  0.00000000E+00  0.00000000E+00
  0.00000000E+00  0.00000000E+00  0.00000000E+00
  0.00000000E+00  0.00000000E+00  0.00000000E+00
  0.00000000E+00  0.00000000E+00  0.00000000E+00
  0.00000000E+00  0.00000000E+00  0.00000000E+00
  0.00000000E+00  0.00000000E+00  0.00000000E+00
  0.00000000E+00  0.00000000E+00  0.00000000E+00
  0.00000000E+00  0.00000000E+00  0.00000000E+00
  0.00000000E+00  0.00000000E+00  0.00000000E+00
  0.00000000E+00  0.00000000E+00  0.00000000E+00
  0.00000000E+00  0.00000000E+00  0.00000000E+00
  0.00000000E+00  0.00000000E+00  0.00000000E+00
  0.00000000E+00  0.00000000E+00  0.00000000E+00
  0.00000000E+00  0.00000000E+00  0.00000000E+00
  0.00000000E+00  0.00000000E+00  0.00000000E+00
  0.00000000E+00  0.00000000E+00  0.00000000E+00
  0.00000000E+00  0.00000000E+00  0.00000000E+00
  0.00000000E+00  0.00000000E+00  0.00000000E+00
  0.00000000E+00  0.00000000E+00  0.00000000E+00
  0.00000000E+00  0.00000000E+00  0.00000000E+00
  0.00000000E+00  0.00000000E+00  0.00000000E+00
  0.00000000E+00  0.00000000E+00  0.00000000E+00
  0.00000000E+00  0.00000000E+00  0.00000000E+00
  0.00000000E+00  0.00000000E+00  0.00000000E+00
  0.00000000E+00  0.00000000E+00  0.00000000E+00
  0.00000000E+00  0.00000000E+00  0.00000000E+00
  0.00000000E+00  0.00000000E+00  0.00000000E+00
  0.00000000E+00  0.00000000E+00  0.00000000E+00
  0.00000000E+00  0.00000000E+00  0.00000000E+00
  0.00000000E+00  0.00000000E+00  0.00000000E+00
  0.00000000E+00  0.00000000E+00  0.00000000E+00
  0.00000000E+00  0.00000000E+00  0.00000000E+00
  0.00000000E+00  0.00000000E+00  0.00000000E+00
  0.00000000E+00  0.00000000E+00  0.00000000E+00
  0.00000000E+00  0.00000000E+00  0.00000000E+00
  0.00000000E+00  0.00000000E+00  0.00000000E+00
  0.00000000E+00  0.00000000E+00  0.00000000E+00
  0.00000000E+00  0.00000000E+00  0.00000000E+00
  0.00000000E+00  0.00000000E+00  0.00000000E+00
  0.00000000E+00  0.00000000E+00  0.00000000E+00
  0.00000000E+00  0.00000000E+00  0.00000000E+00
  0.00000000E+00  0.00000000E+00  0.00000000E+00
  0.00000000E+00  0.00000000E+00  0.00000000E+00
  0.00000000E+00  0.00000000E+00  0.00000000E+00
  0.00000000E+00  0.00000000E+00  0.00000000E+00
  0.00000000E+00  0.00000000E+00  0.00000000E+00
  0.00000000E+00  0.00000000E+00  0.00000000E+00
  0.00000000E+00  0.00000000E+00  0.00000000E+00
  0.00000000E+00  0.00000000E+00  0.00000000E+00
  0.00000000E+00  0.00000000E+00  0.00000000E+00
  0.00000000E+00  0.00000000E+00  0.00000000E+00
  0.00000000E+00  0.00000000E+00  0.00000000E+00
  0.00000000E+00  0.00000000E+00  0.00000000E+00
  0.00000000E+00  0.00000000E+00  0.00000000E+00
  0.00000000E+00  0.00000000E+00  0.00000000E+00
  0.00000000E+00  0.00000000E+00  0.00000000E+00
  0.00000000E+00  0.00000000E+00  0.00000000E+00
  0.00000000E+00  0.00000000E+00  0.00000000E+00
  0.00000000E+00  0.00000000E+00  0.00000000E+00