Sb B N                                  
   1.0000000000000000     
     8.7639499999999995  -15.1796066749929999    0.0000000000000000
     8.7639499999999995   15.1796066749929999    0.0000000000000000
     0.0000000000000000    0.0000000000000000   15.0000000000000000
   Sb   B    N 
     1    48    49
Selective dynamics
Direct
  0.4708952917312264  0.5290933829949314  0.2460788597004607   T   T   T
  0.9050206660165118  0.9524681933558672  0.1021814901221939   T   T   T
  0.9048071077779800  0.0951931001237917  0.1004489986144604   T   T   T
  0.9047694443907948  0.2380408957891593  0.1007068167000024   T   T   T
  0.9048104142762367  0.3809117221490512  0.1013593071819287   T   T   T
  0.9049654597480506  0.5237888697705902  0.1026860105378998   T   T   T
  0.9047170853279347  0.6665734540039550  0.1056545408373468   T   T   T
  0.9047961588727109  0.8094348346099155  0.1057859353848898   T   T   T
  0.0476908924879414  0.9523122948857254  0.1037491175657713   T   T   T
  0.0475323762223266  0.0949806295120654  0.1021880134002056   T   T   T
  0.0474372820464818  0.2378208635765586  0.1025988746726007   T   T   T
  0.0474616004273208  0.3808805853951025  0.1035076480828793   T   T   T
  0.0475694566204697  0.5237934757011109  0.1040908760284980   T   T   T
  0.0477129159900259  0.6666155782754002  0.1048500297320256   T   T   T
  0.0477148781528614  0.8094713237479840  0.1051977796309529   T   T   T
  0.1905323119067248  0.9522886454974052  0.1052287213544623   T   T   T
  0.1905674864398418  0.0952073048945038  0.1058043424290483   T   T   T
  0.1897470376951802  0.2373269565244927  0.1085789608260126   T   T   T
  0.1897806769463224  0.3804211609934031  0.1124486868676793   T   T   T
  0.1898942592866767  0.5235982158354743  0.1100899080130278   T   T   T
  0.1906483136776908  0.6665416092571869  0.1079224638550123   T   T   T
  0.1905637323432810  0.8094396497214517  0.1061380913727019   T   T   T
  0.3333864243214374  0.9522869179007472  0.1049020249888004   T   T   T
  0.3334312603829859  0.0952867238983045  0.1057010383539477   T   T   T
  0.3336216618317204  0.2383901644202701  0.1150921806786868   T   T   T
  0.3298843540726532  0.3779716935936728  0.1353410968433278   T   T   T
  0.3297274298482525  0.5222322463625431  0.1364499102281313   T   T   T
  0.3336510433240014  0.6663517167449273  0.1178502492885761   T   T   T
  0.3334636715202700  0.8093571537951271  0.1079413007717311   T   T   T
  0.4762153422673868  0.9524343318905764  0.1041384100083592   T   T   T
  0.4762126984376668  0.0950358162576023  0.1027442106481391   T   T   T
  0.4763457778972514  0.2376522363078424  0.1064133284949944   T   T   T
  0.4780250581462714  0.3805590738934160  0.1274693101974383   T   T   T
  0.4777716637117060  0.6702744297206403  0.1364608902007724   T   T   T
  0.4764045646810137  0.8101066314488329  0.1101093847667605   T   T   T
  0.6191213864131692  0.9525375402872899  0.1035353066273473   T   T   T
  0.6190877657055998  0.0951873632019350  0.1014056923200127   T   T   T
  0.6191550878982537  0.2379105249722103  0.1013576063262560   T   T   T
  0.6193484059263661  0.3806522468767188  0.1069171246512236   T   T   T
  0.6194437013143275  0.5219766135045936  0.1274667954431797   T   T   T
  0.6220308799711142  0.6701161851810106  0.1353598588728545   T   T   T
  0.6195808463441110  0.8102180038937888  0.1124607070479942   T   T   T
  0.7621800692645466  0.9525619921166020  0.1026018488026483   T   T   T
  0.7619595433534458  0.0952299138968486  0.1007124246999809   T   T   T
  0.7619670530402618  0.2380325106115866  0.1004973525669415   T   T   T
  0.7620892856117933  0.3808464029501700  0.1013284569221793   T   T   T
  0.7623482029540588  0.5236568264869098  0.1063755699624062   T   T   T
  0.7616123466981592  0.6663799384892387  0.1150849375607965   T   T   T
  0.7626738609722957  0.8102516250182308  0.1085778367286529   T   T   T
  0.9524669097572497  0.9046759185154662  0.1034630674504927   T   T   T
  0.9524335069411533  0.0475661948802227  0.1009237968164025   T   T   T
  0.9523143023152028  0.1903724120128749  0.1006026782814187   T   T   T
  0.9523205239012226  0.3332453110083877  0.1014299559747340   T   T   T
  0.9524368983057078  0.4761436530343627  0.1023536685405762   T   T   T
  0.9524461627175318  0.6190334611756747  0.1039911105183845   T   T   T
  0.9524367270799464  0.7618323487571375  0.1055794752810091   T   T   T
  0.0953068314336868  0.9046966532241785  0.1048931996103060   T   T   T
  0.0953266480718208  0.0475354815279656  0.1034779833215590   T   T   T
  0.0948326485483473  0.1899913218755241  0.1030465710379119   T   T   T
  0.0949108824085848  0.3330586766933847  0.1048951798772881   T   T   T
  0.0949070385595429  0.4760882241847996  0.1048756826659127   T   T   T
  0.0953560292861311  0.6190215371043251  0.1053728375727033   T   T   T
  0.0953242739062280  0.7618488775666338  0.1055519209427520   T   T   T
  0.2381526609136680  0.9046782944458479  0.1055873444761894   T   T   T
  0.2381710883427391  0.0475667344847119  0.1056212643351107   T   T   T
  0.2381887160532195  0.1904300502646606  0.1095021598936844   T   T   T
  0.2365290401283794  0.3317846779627774  0.1157054932194592   T   T   T
  0.2366980044183164  0.4757830243711404  0.1158276212286122   T   T   T
  0.2382797743560557  0.6189061801895916  0.1116144211557904   T   T   T
  0.2382041824925714  0.7617981959247239  0.1074979890987613   T   T   T
  0.3809830040638496  0.9046466327442589  0.1054189006597556   T   T   T
  0.3809675333293118  0.0475549863601244  0.1040477355232579   T   T   T
  0.3810206520341088  0.1904956155861828  0.1084490749505785   T   T   T
  0.3809519059273917  0.3329201732433614  0.1290756088554132   T   T   T
  0.3687390241487581  0.4692930467735233  0.1592732120560066   T   T   T
  0.3810605458174901  0.6189420776362896  0.1327786435220396   T   T   T
  0.3810967979906140  0.7617216926460776  0.1116274208124691   T   T   T
  0.5239160567844365  0.9050944605552812  0.1049087569531430   T   T   T
  0.5238613312262396  0.0475670957349374  0.1024157926548647   T   T   T
  0.5238963197441877  0.1901166391471196  0.1022965751514753   T   T   T
  0.5240791686094107  0.3321920698558802  0.1100201744566888   T   T   T
  0.5288702610020916  0.4711326300374030  0.1426454361941350   T   T   T
  0.5307112047863711  0.6312651933399923  0.1592936425129179   T   T   T
  0.5242200567418548  0.7633014536968936  0.1158383937794022   T   T   T
  0.6669442678974290  0.9050882483559335  0.1049120668333231   T   T   T
  0.6667567140706365  0.0476790346413522  0.1014555212714189   T   T   T
  0.6667686602130872  0.1903753855447109  0.1006845495001806   T   T   T
  0.6669180580589237  0.3330830789614798  0.1017666057353679   T   T   T
  0.6678076861453717  0.4759235719963698  0.1099953556953523   T   T   T
  0.6670839076664807  0.6190497894240659  0.1290879709884209   T   T   T
  0.6682171549817537  0.7634694983012560  0.1157125601482814   T   T   T
  0.8100094504892079  0.9051661912623103  0.1030432917866373   T   T   T
  0.8096280998220271  0.0476847321942258  0.1005970384076449   T   T   T
  0.8095703284844114  0.1904291843019770  0.1003975900892813   T   T   T
  0.8096243387210390  0.3332328379203701  0.1006513561328068   T   T   T
  0.8098847022148702  0.4761064209886169  0.1022509443862858   T   T   T
  0.8095067490556591  0.6189823572584030  0.1084168476410939   T   T   T
  0.8095728020320087  0.7618129682454006  0.1094951850944276   T   T   T

  0.00000000E+00  0.00000000E+00  0.00000000E+00
  0.00000000E+00  0.00000000E+00  0.00000000E+00
  0.00000000E+00  0.00000000E+00  0.00000000E+00
  0.00000000E+00  0.00000000E+00  0.00000000E+00
  0.00000000E+00  0.00000000E+00  0.00000000E+00
  0.00000000E+00  0.00000000E+00  0.00000000E+00
  0.00000000E+00  0.00000000E+00  0.00000000E+00
  0.00000000E+00  0.00000000E+00  0.00000000E+00
  0.00000000E+00  0.00000000E+00  0.00000000E+00
  0.00000000E+00  0.00000000E+00  0.00000000E+00
  0.00000000E+00  0.00000000E+00  0.00000000E+00
  0.00000000E+00  0.00000000E+00  0.00000000E+00
  0.00000000E+00  0.00000000E+00  0.00000000E+00
  0.00000000E+00  0.00000000E+00  0.00000000E+00
  0.00000000E+00  0.00000000E+00  0.00000000E+00
  0.00000000E+00  0.00000000E+00  0.00000000E+00
  0.00000000E+00  0.00000000E+00  0.00000000E+00
  0.00000000E+00  0.00000000E+00  0.00000000E+00
  0.00000000E+00  0.00000000E+00  0.00000000E+00
  0.00000000E+00  0.00000000E+00  0.00000000E+00
  0.00000000E+00  0.00000000E+00  0.00000000E+00
  0.00000000E+00  0.00000000E+00  0.00000000E+00
  0.00000000E+00  0.00000000E+00  0.00000000E+00
  0.00000000E+00  0.00000000E+00  0.00000000E+00
  0.00000000E+00  0.00000000E+00  0.00000000E+00
  0.00000000E+00  0.00000000E+00  0.00000000E+00
  0.00000000E+00  0.00000000E+00  0.00000000E+00
  0.00000000E+00  0.00000000E+00  0.00000000E+00
  0.00000000E+00  0.00000000E+00  0.00000000E+00
  0.00000000E+00  0.00000000E+00  0.00000000E+00
  0.00000000E+00  0.00000000E+00  0.00000000E+00
  0.00000000E+00  0.00000000E+00  0.00000000E+00
  0.00000000E+00  0.00000000E+00  0.00000000E+00
  0.00000000E+00  0.00000000E+00  0.00000000E+00
  0.00000000E+00  0.00000000E+00  0.00000000E+00
  0.00000000E+00  0.00000000E+00  0.00000000E+00
  0.00000000E+00  0.00000000E+00  0.00000000E+00
  0.00000000E+00  0.00000000E+00  0.00000000E+00
  0.00000000E+00  0.00000000E+00  0.00000000E+00
  0.00000000E+00  0.00000000E+00  0.00000000E+00
  0.00000000E+00  0.00000000E+00  0.00000000E+00
  0.00000000E+00  0.00000000E+00  0.00000000E+00
  0.00000000E+00  0.00000000E+00  0.00000000E+00
  0.00000000E+00  0.00000000E+00  0.00000000E+00
  0.00000000E+00  0.00000000E+00  0.00000000E+00
  0.00000000E+00  0.00000000E+00  0.00000000E+00
  0.00000000E+00  0.00000000E+00  0.00000000E+00
  0.00000000E+00  0.00000000E+00  0.00000000E+00
  0.00000000E+00  0.00000000E+00  0.00000000E+00
  0.00000000E+00  0.00000000E+00  0.00000000E+00
  0.00000000E+00  0.00000000E+00  0.00000000E+00
  0.00000000E+00  0.00000000E+00  0.00000000E+00
  0.00000000E+00  0.00000000E+00  0.00000000E+00
  0.00000000E+00  0.00000000E+00  0.00000000E+00
  0.00000000E+00  0.00000000E+00  0.00000000E+00
  0.00000000E+00  0.00000000E+00  0.00000000E+00
  0.00000000E+00  0.00000000E+00  0.00000000E+00
  0.00000000E+00  0.00000000E+00  0.00000000E+00
  0.00000000E+00  0.00000000E+00  0.00000000E+00
  0.00000000E+00  0.00000000E+00  0.00000000E+00
  0.00000000E+00  0.00000000E+00  0.00000000E+00
  0.00000000E+00  0.00000000E+00  0.00000000E+00
  0.00000000E+00  0.00000000E+00  0.00000000E+00
  0.00000000E+00  0.00000000E+00  0.00000000E+00
  0.00000000E+00  0.00000000E+00  0.00000000E+00
  0.00000000E+00  0.00000000E+00  0.00000000E+00
  0.00000000E+00  0.00000000E+00  0.00000000E+00
  0.00000000E+00  0.00000000E+00  0.00000000E+00
  0.00000000E+00  0.00000000E+00  0.00000000E+00
  0.00000000E+00  0.00000000E+00  0.00000000E+00
  0.00000000E+00  0.00000000E+00  0.00000000E+00
  0.00000000E+00  0.00000000E+00  0.00000000E+00
  0.00000000E+00  0.00000000E+00  0.00000000E+00
  0.00000000E+00  0.00000000E+00  0.00000000E+00
  0.00000000E+00  0.00000000E+00  0.00000000E+00
  0.00000000E+00  0.00000000E+00  0.00000000E+00
  0.00000000E+00  0.00000000E+00  0.00000000E+00
  0.00000000E+00  0.00000000E+00  0.00000000E+00
  0.00000000E+00  0.00000000E+00  0.00000000E+00
  0.00000000E+00  0.00000000E+00  0.00000000E+00
  0.00000000E+00  0.00000000E+00  0.00000000E+00
  0.00000000E+00  0.00000000E+00  0.00000000E+00
  0.00000000E+00  0.00000000E+00  0.00000000E+00
  0.00000000E+00  0.00000000E+00  0.00000000E+00
  0.00000000E+00  0.00000000E+00  0.00000000E+00
  0.00000000E+00  0.00000000E+00  0.00000000E+00
  0.00000000E+00  0.00000000E+00  0.00000000E+00
  0.00000000E+00  0.00000000E+00  0.00000000E+00
  0.00000000E+00  0.00000000E+00  0.00000000E+00
  0.00000000E+00  0.00000000E+00  0.00000000E+00
  0.00000000E+00  0.00000000E+00  0.00000000E+00
  0.00000000E+00  0.00000000E+00  0.00000000E+00
  0.00000000E+00  0.00000000E+00  0.00000000E+00
  0.00000000E+00  0.00000000E+00  0.00000000E+00
  0.00000000E+00  0.00000000E+00  0.00000000E+00
  0.00000000E+00  0.00000000E+00  0.00000000E+00
  0.00000000E+00  0.00000000E+00  0.00000000E+00
  0.00000000E+00  0.00000000E+00  0.00000000E+00
