Species order: X N B                    
   2.51242800000000     
     5.9449720136058266    0.0000000000000000    0.0000000000000000
    -2.9724860068029120    5.1484967885702053   -0.0000000000000001
     0.0000000000000000    0.0000000000000009    5.3101128803662583
   Ge   N    B 
     1   143   143
Direct
  0.4719677455663376  0.4026505394498389  0.3750000000000000
  0.1113763320074511  0.0556767437336162  0.1248293343915936
  0.6113808671893547  0.5557301738539928  0.1312589658206494
  0.4446344060561426  0.0556374527638136  0.1251739603158648
  0.9446629158367884  0.5556723613411937  0.1251065304745839
  0.7779819745603584  0.0556576539468422  0.1242966710746835
  0.1113147251155898  0.7223240292244623  0.6254652195280003
  0.4446344060561426  0.7223302866256432  0.6248260396841256
  0.2780933274919640  0.2223662143682750  0.6219757495969676
  0.7779964705108573  0.7223183929828780  0.6237107011634813
  0.6112933051866284  0.2223160912465813  0.6235562761722311
  0.9446941536225737  0.2223548953428255  0.6254364329682892
  0.2779699849977638  0.7223275534509644  0.1245474411704564
  0.1114269693243229  0.2223801513288299  0.1253236742164921
  0.4446671941296246  0.2223165457459136  0.1291537500077501
  0.6112933051866284  0.7223105472734478  0.1264437238277889
  0.9446629158367884  0.7223238878289738  0.1251065304745839
  0.7779787245286106  0.2223415441134025  0.1247261898834387
  0.1113273501075413  0.8889839277607563  0.6254281971280601
  0.4446226680582780  0.8889780006957735  0.6256834753785429
  0.2780933274919640  0.3890604464570359  0.6219757495969678
  0.6113808671893547  0.3889840266686498  0.6187410341793534
  0.7779787245286106  0.8889705137485542  0.6252738101166089
  0.9446762936199120  0.3890185013195093  0.6253023342976392
  0.1113763320074511  0.3890329216071783  0.1248293343915938
  0.2779699849977638  0.8889757648801000  0.1245474411704564
  0.6112906253783263  0.8889784133303557  0.1243540862104994
  0.4447975670788443  0.3890654502061576  0.1374454118021105
  0.9446762936199120  0.8889911256336807  0.1246976657024018
  0.7779964705108573  0.3890114108611775  0.1262892988365592
  0.2780047482164354  0.5556877323275886  0.6244434829757696
  0.1113763320074511  0.0556767437336167  0.6251706656083649
  0.6113808671893547  0.5557301738539928  0.6187410341793534
  0.4446344060561426  0.0556374527638131  0.6248260396841256
  0.9446629158367884  0.5556723613411937  0.6248934695254328
  0.1113273501075413  0.5556767556801082  0.1245718028719533
  0.7779819745603584  0.0556576539468422  0.6257033289252765
  0.2780047482164285  0.0556503492223077  0.1255565170242742
  0.4446671941296246  0.5556839817170386  0.1291537500077500
  0.7780013702301136  0.5556673517816796  0.1276418151196459
  0.6112906253783263  0.0556455453813691  0.1243540862104994
  0.4446671941296246  0.5556839817170386  0.6208462499922328
  0.9446941536225737  0.0556725916130870  0.1245635670317321
  0.2779699849977638  0.7223275534509644  0.6254525588296160
  0.1114269693243229  0.2223801513288299  0.6246763257834947
  0.4446671941296246  0.2223165457459136  0.6208462499922330
  0.6112933051866284  0.7223105472734478  0.6235562761722311
  0.9446629158367884  0.7223238878289738  0.6248934695254328
  0.7779787245286106  0.2223415441134025  0.6252738101166089
  0.1113147251155898  0.7223240292244623  0.1245347804719639
  0.4446344060561399  0.7223302866256432  0.1251739603158648
  0.2780933274919640  0.2223662143682750  0.1280242504030362
  0.7779964705108573  0.7223183929828780  0.1262892988365592
  0.6112933051866284  0.2223160912465813  0.1264437238277889
  0.9446941536225737  0.2223548953428255  0.1245635670317321
  0.1113763320074511  0.3890329216071783  0.6251706656083649
  0.2779699849977638  0.8889757648801000  0.6254525588296160
  0.6112906253783263  0.8889784133303557  0.6256459137894903
  0.4447975670788443  0.3890654502061576  0.6125545881979325
  0.9446762936199120  0.8889911256336807  0.6253023342976392
  0.1113273501075389  0.8889839277607563  0.1245718028719533
  0.7779964705108573  0.3890114108611775  0.6237107011634813
  0.4446226680582780  0.8889780006957735  0.1243165246215013
  0.2780933274919640  0.3890604464570359  0.1280242504030362
  0.2780047482164353  0.5556877323275886  0.1255565170242742
  0.6113808671893547  0.3889840266686498  0.1312589658206494
  0.7779787245286106  0.8889705137485542  0.1247261898834387
  0.9446762936199120  0.3890185013195093  0.1246976657024018
  0.1113273501075413  0.5556767556801082  0.6254281971280601
  0.2780047482164354  0.0556503492223077  0.6244434829757696
  0.7780013702301136  0.5556673517816796  0.6223581848803528
  0.6112906253783263  0.0556455453813664  0.6256459137894903
  0.9446941536225737  0.0556725916130870  0.6254364329682892
  0.0554004908155968  0.1111255306161556  0.3750000000000000
  0.5532775716432123  0.6131432757986010  0.3750000000000000
  0.3866142341602135  0.1056991687274204  0.3750000000000000
  0.8867056451086042  0.6100194892209811  0.3750000000000000
  0.7218679322098573  0.1105388836297348  0.3750000000000000
  0.0557353589814776  0.7778735537168963  0.8750000000000000
  0.3890899893771575  0.7778719517208145  0.8750000000000000
  0.2224138573575026  0.2778735953454554  0.8750000000000000
  0.7224120531559203  0.7778753341306763  0.8750000000000000
  0.5557468701549839  0.2778814950082213  0.8750000000000000
  0.8890788726460555  0.2778668833572938  0.8750000000000000
  0.2199414812435787  0.7766374072885102  0.3750000000000000
  0.0554004908155968  0.2776082935327543  0.3750000000000000
  0.3870422210324209  0.2686270208401481  0.3750000000000000
  0.5545218794306347  0.7789687760225634  0.3750000000000000
  0.8875070709154977  0.7772855514996958  0.3750000000000000
  0.7215429910580203  0.2765350505700270  0.3750000000000000
  0.0557400716813218  0.9445469784226552  0.8750000000000000
  0.3890899893771858  0.9445513709895667  0.8750000000000000
  0.2224133432469063  0.4445248733989794  0.8750000000000000
  0.5557309308176407  0.4445321320754846  0.8750000000000000
  0.7224176248583222  0.9445440061164951  0.8750000000000000
  0.8890707283108048  0.4445280694122130  0.8750000000000000
  0.0541264951585375  0.4439100452937531  0.3750000000000000
  0.2198977524021139  0.9423458422620291  0.3750000000000000
  0.5546663409744929  0.9439998371539471  0.3750000000000000
  0.3870422210324210  0.4517485335256691  0.3750000000000000
  0.8884240098811508  0.9445671233724097  0.3750000000000000
  0.7206837141759775  0.4439202499036191  0.3750000000000000
  0.2224148783158053  0.6111933323465685  0.8750000000000000
  0.0557414313127637  0.1112091824949139  0.8750000000000000
  0.5557468701549839  0.6111987084801502  0.8750000000000000
  0.3890911775799418  0.1112303158385529  0.8750000000000000
  0.8890600723840697  0.6111967028587140  0.8750000000000000
  0.0533003562982446  0.6101444134696640  0.3750000000000000
  0.7224176248583222  0.1112069520751689  0.8750000000000000
  0.2207854179418785  0.1093470090868189  0.3750000000000000
  0.3866142341602135  0.6142483987660383  0.3750000000000000
  0.7206837141759775  0.6100967976057567  0.3750000000000000
  0.5545218794306347  0.1088864367414648  0.3750000000000000
  0.3890911775799418  0.6111941950747486  0.8750000000000000
  0.8887306480606589  0.1110319906969965  0.3750000000000000
  0.2224137333555186  0.7778735333444206  0.8750000000000000
  0.0557414313127637  0.2778655821511590  0.8750000000000000
  0.3890888608796410  0.2778946575073489  0.8750000000000000
  0.5557544477408585  0.7778736543180591  0.8750000000000000
  0.8890707283108148  0.7778759922320083  0.8750000000000000
  0.7224120531559203  0.2778700523585874  0.8750000000000000
  0.0533003562982459  0.7764892761619843  0.3750000000000000
  0.3870969070570382  0.7781065273440354  0.3750000000000000
  0.2230325858918619  0.2781829596125877  0.3750000000000000
  0.7215429910580203  0.7783412738213660  0.3750000000000000
  0.5532775716432123  0.2734676291779549  0.3750000000000000
  0.8884240098811506  0.2771902198422074  0.3750000000000000
  0.0557400716813218  0.4445264265919357  0.8750000000000000
  0.2224148783158053  0.9445548793026035  0.8750000000000000
  0.5557545155794127  0.9445439244563265  0.8750000000000000
  0.3890888608796410  0.4445275367056102  0.8750000000000000
  0.8890788726460555  0.9445453226220679  0.8750000000000000
  0.0541264951585375  0.9435497831981194  0.3750000000000000
  0.7223973246986567  0.4445304754709203  0.8750000000000000
  0.3870969070570212  0.9423237130462582  0.3750000000000000
  0.2207854179418785  0.4447717421883647  0.3750000000000000
  0.2198977524021139  0.6108852434733297  0.3750000000000000
  0.7218679322098573  0.9446623819135331  0.3750000000000000
  0.8875070709154977  0.4435548527491452  0.3750000000000000
  0.0557353589814775  0.6111951385979507  0.8750000000000000
  0.2224133432469063  0.1112218031812894  0.8750000000000000
  0.7223973246986567  0.6112001825609495  0.8750000000000000
  0.5557544477408585  0.1112141267561384  0.8750000000000000
  0.8890805037346207  0.1112069185339930  0.8750000000000000
  0.1095362255855019  0.0544240972868830  0.3750000000000000
  0.6164150815460238  0.5710824917869456  0.3750000000000000
  0.4431723768622998  0.0517322700519325  0.3750000000000000
  0.9431294984245758  0.5546441255511826  0.3750000000000000
  0.7779163447322384  0.0556248390327406  0.3750000000000000
  0.1113143948500585  0.7223238640916598  0.8750000000000000
  0.4446367309211195  0.7223619616113192  0.8750000000000000
  0.2778680986670806  0.2222553270496934  0.8750000000000000
  0.7780306143190686  0.7224121330118376  0.8750000000000000
  0.6113380910421351  0.2222558678113251  0.8750000000000000
  0.9446246947294222  0.2222941307495007  0.8750000000000000
  0.2757482690987996  0.7218692891601818  0.3750000000000000
  0.1107520581734440  0.2220426957533843  0.3750000000000000
  0.4409564964199303  0.2132314908602115  0.3750000000000000
  0.6115287038814688  0.7267719952163272  0.3750000000000000
  0.9431294984245758  0.7218187062066909  0.3750000000000000
  0.7779581925635848  0.2209975879425238  0.3750000000000000
  0.1112961746701236  0.8889924663338445  0.8750000000000000
  0.4446467835854523  0.8889900584593786  0.8750000000000000
  0.2778680986670806  0.3889461049507571  0.8750000000000000
  0.6113453981044010  0.3889430525666440  0.8750000000000000
  0.7780088793894968  0.8890598061606534  0.8750000000000000
  0.9446547539146638  0.3889537860093186  0.8750000000000000
  0.1095362255855019  0.3884454616318995  0.3750000000000000
  0.2757482690987996  0.8872123132719256  0.3750000000000000
  0.6110528007982464  0.8900685475687014  0.3750000000000000
  0.9435941256316026  0.8890340252978362  0.3750000000000000
  0.7781478345250672  0.3868175844329640  0.3750000000000000
  0.2779260343848937  0.5556478680160254  0.8750000000000000
  0.1112523457932491  0.0556344361320548  0.8750000000000000
  0.6113453981044010  0.5557356788712356  0.8750000000000000
  0.4446367309211195  0.0556081026431582  0.8750000000000000
  0.9446788354640488  0.5556506531998241  0.8750000000000000
  0.1090107061223062  0.5548562212719266  0.3750000000000000
  0.7779960076548160  0.0556646704941229  0.8750000000000000
  0.2750032035244618  0.0523421702052524  0.3750000000000000
  0.4409564964199304  0.5610583388930376  0.3750000000000000
  0.7779257541951476  0.5556295437643207  0.3750000000000000
  0.6110528007982464  0.0543175865629539  0.3750000000000000
  0.4446060944816082  0.5556922530138374  0.8750000000000000
  0.9442997403766289  0.0558014053945666  0.3750000000000000
  0.2779632488700125  0.7223227575827198  0.8750000000000000
  0.1112255149977124  0.2222794241655287  0.8750000000000000
  0.4446060944816086  0.2222471748010955  0.8750000000000000
  0.6113380910421431  0.7224155565641697  0.8750000000000000
  0.9446788354640488  0.7223615155975803  0.8750000000000000
  0.7780088793894968  0.2222824065621828  0.8750000000000000
  0.1090715857070827  0.7212024595200962  0.3750000000000000
  0.4431723768622999  0.7247734401436723  0.3750000000000000
  0.2752240225715202  0.2195692981705137  0.3750000000000000
  0.7781478345250672  0.7246635834254640  0.3750000000000000
  0.6115287038814688  0.2180900419985977  0.3750000000000000
  0.9442997403766289  0.2218316683154288  0.3750000000000000
  0.1112523457932491  0.3889512429945038  0.8750000000000000
  0.2779632488700125  0.8889738246206002  0.8750000000000000
  0.6113338426513389  0.8890343140316337  0.8750000000000000
  0.4445595702742325  0.3889464518037897  0.8750000000000000
  0.9446547539146637  0.8890343012385900  0.8750000000000000
  0.1090107061223062  0.8874878181838041  0.3750000000000000
  0.7780306143190686  0.3889518146407097  0.8750000000000000
  0.4434289330198024  0.8883811331765273  0.3750000000000000
  0.2752240225715202  0.3889880577343786  0.3750000000000000
  0.2750032035244618  0.5559943666526187  0.3750000000000000
  0.6164150815460238  0.3786659230923222  0.3750000000000000
  0.7779581925635848  0.8902939379544371  0.3750000000000000
  0.9435941256316026  0.3878934336670495  0.3750000000000000
  0.1112961746701236  0.5556370416696538  0.8750000000000000
  0.2779260343848937  0.0556114997022175  0.8750000000000000
  0.7780359243632824  0.5556846288482346  0.8750000000000000
  0.6113338426513389  0.0556328619530497  0.8750000000000000
  0.9446246947294222  0.0556638973132114  0.8750000000000000
  0.0557468180288240  0.1111791933641326  0.1245098992285391
  0.5557372450674086  0.6115383354268297  0.1280359003234141
  0.3889148722447009  0.1108327406646065  0.1258388034847263
  0.8894362199122520  0.6113847766227276  0.1251733521453418
  0.7224358465507080  0.1111541560134512  0.1240083644707920
  0.0558994543461215  0.7779335015376739  0.6257483150735849
  0.3889890987343090  0.7779322975438037  0.6258275468782271
  0.2222681844781600  0.2778007589057976  0.6233108041736725
  0.7225417775517288  0.7780935449628813  0.6248577922074952
  0.5557372450674086  0.2775322429738672  0.6219640996765537
  0.8891787149882721  0.2778860179582279  0.6257621888977728
  0.2224104326603611  0.7778718829968120  0.1241163588003866
  0.0557468180288240  0.2779009579980500  0.1245098992285391
  0.3887391566518357  0.2772967289156197  0.1306966433729528
  0.5556922531985975  0.7780449224505440  0.1247118723713464
  0.8893322038658368  0.7780496114384846  0.1247429219208678
  0.7225417775517288  0.2777815659221735  0.1251422077925343
  0.0558145976113218  0.9445361732972263  0.6257628402892731
  0.3889890987343090  0.9443901345238528  0.6258275468782271
  0.2223033668709839  0.4446444459708865  0.6245209307598646
  0.5561772147820453  0.4447552740576869  0.6182799504252940
  0.7224358465507080  0.9446150238706740  0.6259916355292880
  0.8893322038658368  0.4446159257607933  0.6252570780791293
  0.0558145976113214  0.4446117576474426  0.1242371597106916
  0.2223706068846406  0.9443996845928915  0.1243903418452523
  0.5556912828778732  0.9445123081055935  0.1238550705773323
  0.3887391566518358  0.4447757610695916  0.1306966433729478
  0.8891787149882721  0.9446260303634312  0.1242378111021757
  0.7228390454049696  0.4446480629340605  0.1273426803595849
  0.2223706068846406  0.6113042556249746  0.6256096581548048
  0.0557468180288240  0.1111791933641326  0.6254901007714283
  0.5557372450674086  0.6115383354268297  0.6219640996765537
  0.3889148722447009  0.1108327406646065  0.6241611965152841
  0.8894362199122520  0.6113847766227276  0.6248266478546243
  0.0558994543461215  0.6112992861417094  0.1242516849263643
  0.7224358465507080  0.1111541560134512  0.6259916355292880
  0.2223033668709839  0.1109922542334119  0.1254790692400500
  0.3889148722447009  0.6114154649134486  0.1258388034847260
  0.7228390454049696  0.6115243158042130  0.1273426803595851
  0.5556922531985975  0.1109806640813826  0.1247118723713500
  0.3889148722447009  0.6114154649134486  0.6241611965152841
  0.8891214411134838  0.1112273872234159  0.1241306645739570
  0.2224104326603611  0.7778718829968120  0.6258836411996932
  0.0557468180288240  0.2779009579980500  0.6254901007714283
  0.3887391566518357  0.2772967289156197  0.6193033566270406
  0.5556922531985975  0.7780449224505440  0.6252881276286869
  0.8893322038658368  0.7780496114384846  0.6252570780791293
  0.7225417775517288  0.2777815659221735  0.6248577922074952
  0.0558994543461215  0.7779335015376739  0.1242516849263637
  0.3889890987343090  0.7779322975438037  0.1241724531217440
  0.2222681844781600  0.2778007589057976  0.1266891958263167
  0.7225417775517288  0.7780935449628812  0.1251422077925343
  0.5557372450674086  0.2775322429738672  0.1280359003234141
  0.8891787149882721  0.2778860179582279  0.1242378111021757
  0.0558145976113218  0.4446117576474426  0.6257628402892731
  0.2223706068846406  0.9443996845928915  0.6256096581548048
  0.5556912828778732  0.9445123081055935  0.6261449294226764
  0.3887391566518358  0.4447757610695916  0.6193033566270406
  0.8891787149882721  0.9446260303634312  0.6257621888977728
  0.0558145976113214  0.9445361732972263  0.1242371597106916
  0.7228390454049696  0.4446480629340605  0.6226573196403890
  0.3889890987343090  0.9443901345238528  0.1241724531217440
  0.2223033668709839  0.4446444459708865  0.1254790692400500
  0.2223706068846406  0.6113042556249746  0.1243903418452523
  0.5561772147820453  0.4447552740576869  0.1317200495746584
  0.7224358465507080  0.9446150238706740  0.1240083644707920
  0.8893322038658368  0.4446159257607933  0.1247429219208678
  0.0558994543461215  0.6112992861417094  0.6257483150735849
  0.2223033668709839  0.1109922542334119  0.6245209307598646
  0.7228390454049696  0.6115243158042130  0.6226573196403890
  0.5556922531985975  0.1109806640813890  0.6252881276286869
  0.8891214411134838  0.1112273872234159  0.6258693354259290
 
  0.00000000E+00  0.00000000E+00  0.00000000E+00
  0.00000000E+00  0.00000000E+00  0.00000000E+00
  0.00000000E+00  0.00000000E+00  0.00000000E+00
  0.00000000E+00  0.00000000E+00  0.00000000E+00
  0.00000000E+00  0.00000000E+00  0.00000000E+00
  0.00000000E+00  0.00000000E+00  0.00000000E+00
  0.00000000E+00  0.00000000E+00  0.00000000E+00
  0.00000000E+00  0.00000000E+00  0.00000000E+00
  0.00000000E+00  0.00000000E+00  0.00000000E+00
  0.00000000E+00  0.00000000E+00  0.00000000E+00
  0.00000000E+00  0.00000000E+00  0.00000000E+00
  0.00000000E+00  0.00000000E+00  0.00000000E+00
  0.00000000E+00  0.00000000E+00  0.00000000E+00
  0.00000000E+00  0.00000000E+00  0.00000000E+00
  0.00000000E+00  0.00000000E+00  0.00000000E+00
  0.00000000E+00  0.00000000E+00  0.00000000E+00
  0.00000000E+00  0.00000000E+00  0.00000000E+00
  0.00000000E+00  0.00000000E+00  0.00000000E+00
  0.00000000E+00  0.00000000E+00  0.00000000E+00
  0.00000000E+00  0.00000000E+00  0.00000000E+00
  0.00000000E+00  0.00000000E+00  0.00000000E+00
  0.00000000E+00  0.00000000E+00  0.00000000E+00
  0.00000000E+00  0.00000000E+00  0.00000000E+00
  0.00000000E+00  0.00000000E+00  0.00000000E+00
  0.00000000E+00  0.00000000E+00  0.00000000E+00
  0.00000000E+00  0.00000000E+00  0.00000000E+00
  0.00000000E+00  0.00000000E+00  0.00000000E+00
  0.00000000E+00  0.00000000E+00  0.00000000E+00
  0.00000000E+00  0.00000000E+00  0.00000000E+00
  0.00000000E+00  0.00000000E+00  0.00000000E+00
  0.00000000E+00  0.00000000E+00  0.00000000E+00
  0.00000000E+00  0.00000000E+00  0.00000000E+00
  0.00000000E+00  0.00000000E+00  0.00000000E+00
  0.00000000E+00  0.00000000E+00  0.00000000E+00
  0.00000000E+00  0.00000000E+00  0.00000000E+00
  0.00000000E+00  0.00000000E+00  0.00000000E+00
  0.00000000E+00  0.00000000E+00  0.00000000E+00
  0.00000000E+00  0.00000000E+00  0.00000000E+00
  0.00000000E+00  0.00000000E+00  0.00000000E+00
  0.00000000E+00  0.00000000E+00  0.00000000E+00
  0.00000000E+00  0.00000000E+00  0.00000000E+00
  0.00000000E+00  0.00000000E+00  0.00000000E+00
  0.00000000E+00  0.00000000E+00  0.00000000E+00
  0.00000000E+00  0.00000000E+00  0.00000000E+00
  0.00000000E+00  0.00000000E+00  0.00000000E+00
  0.00000000E+00  0.00000000E+00  0.00000000E+00
  0.00000000E+00  0.00000000E+00  0.00000000E+00
  0.00000000E+00  0.00000000E+00  0.00000000E+00
  0.00000000E+00  0.00000000E+00  0.00000000E+00
  0.00000000E+00  0.00000000E+00  0.00000000E+00
  0.00000000E+00  0.00000000E+00  0.00000000E+00
  0.00000000E+00  0.00000000E+00  0.00000000E+00
  0.00000000E+00  0.00000000E+00  0.00000000E+00
  0.00000000E+00  0.00000000E+00  0.00000000E+00
  0.00000000E+00  0.00000000E+00  0.00000000E+00
  0.00000000E+00  0.00000000E+00  0.00000000E+00
  0.00000000E+00  0.00000000E+00  0.00000000E+00
  0.00000000E+00  0.00000000E+00  0.00000000E+00
  0.00000000E+00  0.00000000E+00  0.00000000E+00
  0.00000000E+00  0.00000000E+00  0.00000000E+00
  0.00000000E+00  0.00000000E+00  0.00000000E+00
  0.00000000E+00  0.00000000E+00  0.00000000E+00
  0.00000000E+00  0.00000000E+00  0.00000000E+00
  0.00000000E+00  0.00000000E+00  0.00000000E+00
  0.00000000E+00  0.00000000E+00  0.00000000E+00
  0.00000000E+00  0.00000000E+00  0.00000000E+00
  0.00000000E+00  0.00000000E+00  0.00000000E+00
  0.00000000E+00  0.00000000E+00  0.00000000E+00
  0.00000000E+00  0.00000000E+00  0.00000000E+00
  0.00000000E+00  0.00000000E+00  0.00000000E+00
  0.00000000E+00  0.00000000E+00  0.00000000E+00
  0.00000000E+00  0.00000000E+00  0.00000000E+00
  0.00000000E+00  0.00000000E+00  0.00000000E+00
  0.00000000E+00  0.00000000E+00  0.00000000E+00
  0.00000000E+00  0.00000000E+00  0.00000000E+00
  0.00000000E+00  0.00000000E+00  0.00000000E+00
  0.00000000E+00  0.00000000E+00  0.00000000E+00
  0.00000000E+00  0.00000000E+00  0.00000000E+00
  0.00000000E+00  0.00000000E+00  0.00000000E+00
  0.00000000E+00  0.00000000E+00  0.00000000E+00
  0.00000000E+00  0.00000000E+00  0.00000000E+00
  0.00000000E+00  0.00000000E+00  0.00000000E+00
  0.00000000E+00  0.00000000E+00  0.00000000E+00
  0.00000000E+00  0.00000000E+00  0.00000000E+00
  0.00000000E+00  0.00000000E+00  0.00000000E+00
  0.00000000E+00  0.00000000E+00  0.00000000E+00
  0.00000000E+00  0.00000000E+00  0.00000000E+00
  0.00000000E+00  0.00000000E+00  0.00000000E+00
  0.00000000E+00  0.00000000E+00  0.00000000E+00
  0.00000000E+00  0.00000000E+00  0.00000000E+00
  0.00000000E+00  0.00000000E+00  0.00000000E+00
  0.00000000E+00  0.00000000E+00  0.00000000E+00
  0.00000000E+00  0.00000000E+00  0.00000000E+00
  0.00000000E+00  0.00000000E+00  0.00000000E+00
  0.00000000E+00  0.00000000E+00  0.00000000E+00
  0.00000000E+00  0.00000000E+00  0.00000000E+00
  0.00000000E+00  0.00000000E+00  0.00000000E+00
  0.00000000E+00  0.00000000E+00  0.00000000E+00
  0.00000000E+00  0.00000000E+00  0.00000000E+00
  0.00000000E+00  0.00000000E+00  0.00000000E+00
  0.00000000E+00  0.00000000E+00  0.00000000E+00
  0.00000000E+00  0.00000000E+00  0.00000000E+00
  0.00000000E+00  0.00000000E+00  0.00000000E+00
  0.00000000E+00  0.00000000E+00  0.00000000E+00
  0.00000000E+00  0.00000000E+00  0.00000000E+00
  0.00000000E+00  0.00000000E+00  0.00000000E+00
  0.00000000E+00  0.00000000E+00  0.00000000E+00
  0.00000000E+00  0.00000000E+00  0.00000000E+00
  0.00000000E+00  0.00000000E+00  0.00000000E+00
  0.00000000E+00  0.00000000E+00  0.00000000E+00
  0.00000000E+00  0.00000000E+00  0.00000000E+00
  0.00000000E+00  0.00000000E+00  0.00000000E+00
  0.00000000E+00  0.00000000E+00  0.00000000E+00
  0.00000000E+00  0.00000000E+00  0.00000000E+00
  0.00000000E+00  0.00000000E+00  0.00000000E+00
  0.00000000E+00  0.00000000E+00  0.00000000E+00
  0.00000000E+00  0.00000000E+00  0.00000000E+00
  0.00000000E+00  0.00000000E+00  0.00000000E+00
  0.00000000E+00  0.00000000E+00  0.00000000E+00
  0.00000000E+00  0.00000000E+00  0.00000000E+00
  0.00000000E+00  0.00000000E+00  0.00000000E+00
  0.00000000E+00  0.00000000E+00  0.00000000E+00
  0.00000000E+00  0.00000000E+00  0.00000000E+00
  0.00000000E+00  0.00000000E+00  0.00000000E+00
  0.00000000E+00  0.00000000E+00  0.00000000E+00
  0.00000000E+00  0.00000000E+00  0.00000000E+00
  0.00000000E+00  0.00000000E+00  0.00000000E+00
  0.00000000E+00  0.00000000E+00  0.00000000E+00
  0.00000000E+00  0.00000000E+00  0.00000000E+00
  0.00000000E+00  0.00000000E+00  0.00000000E+00
  0.00000000E+00  0.00000000E+00  0.00000000E+00
  0.00000000E+00  0.00000000E+00  0.00000000E+00
  0.00000000E+00  0.00000000E+00  0.00000000E+00
  0.00000000E+00  0.00000000E+00  0.00000000E+00
  0.00000000E+00  0.00000000E+00  0.00000000E+00
  0.00000000E+00  0.00000000E+00  0.00000000E+00
  0.00000000E+00  0.00000000E+00  0.00000000E+00
  0.00000000E+00  0.00000000E+00  0.00000000E+00
  0.00000000E+00  0.00000000E+00  0.00000000E+00
  0.00000000E+00  0.00000000E+00  0.00000000E+00
  0.00000000E+00  0.00000000E+00  0.00000000E+00
  0.00000000E+00  0.00000000E+00  0.00000000E+00
  0.00000000E+00  0.00000000E+00  0.00000000E+00
  0.00000000E+00  0.00000000E+00  0.00000000E+00
  0.00000000E+00  0.00000000E+00  0.00000000E+00
  0.00000000E+00  0.00000000E+00  0.00000000E+00
  0.00000000E+00  0.00000000E+00  0.00000000E+00
  0.00000000E+00  0.00000000E+00  0.00000000E+00
  0.00000000E+00  0.00000000E+00  0.00000000E+00
  0.00000000E+00  0.00000000E+00  0.00000000E+00
  0.00000000E+00  0.00000000E+00  0.00000000E+00
  0.00000000E+00  0.00000000E+00  0.00000000E+00
  0.00000000E+00  0.00000000E+00  0.00000000E+00
  0.00000000E+00  0.00000000E+00  0.00000000E+00
  0.00000000E+00  0.00000000E+00  0.00000000E+00
  0.00000000E+00  0.00000000E+00  0.00000000E+00
  0.00000000E+00  0.00000000E+00  0.00000000E+00
  0.00000000E+00  0.00000000E+00  0.00000000E+00
  0.00000000E+00  0.00000000E+00  0.00000000E+00
  0.00000000E+00  0.00000000E+00  0.00000000E+00
  0.00000000E+00  0.00000000E+00  0.00000000E+00
  0.00000000E+00  0.00000000E+00  0.00000000E+00
  0.00000000E+00  0.00000000E+00  0.00000000E+00
  0.00000000E+00  0.00000000E+00  0.00000000E+00
  0.00000000E+00  0.00000000E+00  0.00000000E+00
  0.00000000E+00  0.00000000E+00  0.00000000E+00
  0.00000000E+00  0.00000000E+00  0.00000000E+00
  0.00000000E+00  0.00000000E+00  0.00000000E+00
  0.00000000E+00  0.00000000E+00  0.00000000E+00
  0.00000000E+00  0.00000000E+00  0.00000000E+00
  0.00000000E+00  0.00000000E+00  0.00000000E+00
  0.00000000E+00  0.00000000E+00  0.00000000E+00
  0.00000000E+00  0.00000000E+00  0.00000000E+00
  0.00000000E+00  0.00000000E+00  0.00000000E+00
  0.00000000E+00  0.00000000E+00  0.00000000E+00
  0.00000000E+00  0.00000000E+00  0.00000000E+00
  0.00000000E+00  0.00000000E+00  0.00000000E+00
  0.00000000E+00  0.00000000E+00  0.00000000E+00
  0.00000000E+00  0.00000000E+00  0.00000000E+00
  0.00000000E+00  0.00000000E+00  0.00000000E+00
  0.00000000E+00  0.00000000E+00  0.00000000E+00
  0.00000000E+00  0.00000000E+00  0.00000000E+00
  0.00000000E+00  0.00000000E+00  0.00000000E+00
  0.00000000E+00  0.00000000E+00  0.00000000E+00
  0.00000000E+00  0.00000000E+00  0.00000000E+00
  0.00000000E+00  0.00000000E+00  0.00000000E+00
  0.00000000E+00  0.00000000E+00  0.00000000E+00
  0.00000000E+00  0.00000000E+00  0.00000000E+00
  0.00000000E+00  0.00000000E+00  0.00000000E+00
  0.00000000E+00  0.00000000E+00  0.00000000E+00
  0.00000000E+00  0.00000000E+00  0.00000000E+00
  0.00000000E+00  0.00000000E+00  0.00000000E+00
  0.00000000E+00  0.00000000E+00  0.00000000E+00
  0.00000000E+00  0.00000000E+00  0.00000000E+00
  0.00000000E+00  0.00000000E+00  0.00000000E+00
  0.00000000E+00  0.00000000E+00  0.00000000E+00
  0.00000000E+00  0.00000000E+00  0.00000000E+00
  0.00000000E+00  0.00000000E+00  0.00000000E+00
  0.00000000E+00  0.00000000E+00  0.00000000E+00
  0.00000000E+00  0.00000000E+00  0.00000000E+00
  0.00000000E+00  0.00000000E+00  0.00000000E+00
  0.00000000E+00  0.00000000E+00  0.00000000E+00
  0.00000000E+00  0.00000000E+00  0.00000000E+00
  0.00000000E+00  0.00000000E+00  0.00000000E+00
  0.00000000E+00  0.00000000E+00  0.00000000E+00
  0.00000000E+00  0.00000000E+00  0.00000000E+00
  0.00000000E+00  0.00000000E+00  0.00000000E+00
  0.00000000E+00  0.00000000E+00  0.00000000E+00
  0.00000000E+00  0.00000000E+00  0.00000000E+00
  0.00000000E+00  0.00000000E+00  0.00000000E+00
  0.00000000E+00  0.00000000E+00  0.00000000E+00
  0.00000000E+00  0.00000000E+00  0.00000000E+00
  0.00000000E+00  0.00000000E+00  0.00000000E+00
  0.00000000E+00  0.00000000E+00  0.00000000E+00
  0.00000000E+00  0.00000000E+00  0.00000000E+00
  0.00000000E+00  0.00000000E+00  0.00000000E+00
  0.00000000E+00  0.00000000E+00  0.00000000E+00
  0.00000000E+00  0.00000000E+00  0.00000000E+00
  0.00000000E+00  0.00000000E+00  0.00000000E+00
  0.00000000E+00  0.00000000E+00  0.00000000E+00
  0.00000000E+00  0.00000000E+00  0.00000000E+00
  0.00000000E+00  0.00000000E+00  0.00000000E+00
  0.00000000E+00  0.00000000E+00  0.00000000E+00
  0.00000000E+00  0.00000000E+00  0.00000000E+00
  0.00000000E+00  0.00000000E+00  0.00000000E+00
  0.00000000E+00  0.00000000E+00  0.00000000E+00
  0.00000000E+00  0.00000000E+00  0.00000000E+00
  0.00000000E+00  0.00000000E+00  0.00000000E+00
  0.00000000E+00  0.00000000E+00  0.00000000E+00
  0.00000000E+00  0.00000000E+00  0.00000000E+00
  0.00000000E+00  0.00000000E+00  0.00000000E+00
  0.00000000E+00  0.00000000E+00  0.00000000E+00
  0.00000000E+00  0.00000000E+00  0.00000000E+00
  0.00000000E+00  0.00000000E+00  0.00000000E+00
  0.00000000E+00  0.00000000E+00  0.00000000E+00
  0.00000000E+00  0.00000000E+00  0.00000000E+00
  0.00000000E+00  0.00000000E+00  0.00000000E+00
  0.00000000E+00  0.00000000E+00  0.00000000E+00
  0.00000000E+00  0.00000000E+00  0.00000000E+00
  0.00000000E+00  0.00000000E+00  0.00000000E+00
  0.00000000E+00  0.00000000E+00  0.00000000E+00
  0.00000000E+00  0.00000000E+00  0.00000000E+00
  0.00000000E+00  0.00000000E+00  0.00000000E+00
  0.00000000E+00  0.00000000E+00  0.00000000E+00
  0.00000000E+00  0.00000000E+00  0.00000000E+00
  0.00000000E+00  0.00000000E+00  0.00000000E+00
  0.00000000E+00  0.00000000E+00  0.00000000E+00
  0.00000000E+00  0.00000000E+00  0.00000000E+00