 B N 
 1.0
 14.936314146199660   0.000000000000000   0.000000000000000
 -7.468157073099825  12.935227489513863   0.000000000000000
  0.000000000000001   0.000000000000001  13.341276283792837
 B N 
 143 145
Cartesian
  1.251371806277911   0.728174375274613   5.002978606422314 
  4.962050110140424   7.170109298049170   5.002978606422314 
  6.216785266821920   0.728174375274613   5.002978606422314 
  9.954656733704494   7.186101286308256   5.002978606422314 
 11.202235609649751   0.718623749417456   5.002978606422314 
 -3.734078536549858   9.342108742426666  11.673616748318732 
  1.244758862596251   9.342077556271603  11.673616748318732 
  2.488777670133314   2.874993912266413  11.673616748318732 
  6.223398210503587   9.342077556271603  11.673616748318732 
  7.467433788871101   2.874912586013922  11.673616748318732 
 12.446281826310761   2.874879989059297  11.673616748318732 
 -1.243131870830050   9.339677470692482   5.002978606422314 
  0.003663087655739   2.876609882313816   5.002978606422314 
  4.973164590467960   2.897040142004000   5.002978606422314 
  3.734078536549971   9.337878973138523   5.002978606422314 
  8.711288943929901   9.339677470692482   5.002978606422314 
  9.956802100513460   2.876505868584759   5.002978606422314 
 -4.978124571970112  11.498408901096601  11.673616748318732 
  0.000693213161692  11.498380217484442  11.673616748318732 
  1.244820907781729   5.029590227078257  11.673616748318732 
  6.223336165318211   5.029590227078257  11.673616748318732 
  4.979428108817990  11.498347491999951  11.673616748318732 
 11.202235609649746   5.029565792311020  11.673616748318732 
 -1.233082280521605   5.031375082683542   5.002978606422314 
 -2.490710746775257  11.500547470279265   5.002978606422314 
  2.488014557547048  11.496333121711155   5.002978606422314 
  7.468194606687490  11.497958320652016   5.002978606422314 
  8.701239353621560   5.031375082683542   5.002978606422314 
 -0.000569784371099   7.186566459334420  11.673616748318732 
  1.244686844979385   0.718696514963037  11.673616748318732 
  4.978035298901551   7.186514598421472  11.673616748318732 
  6.223470228120432   0.718696514963037  11.673616748318732 
  9.956847911767262   7.186583192940446  11.673616748318732 
 -2.486499660604659   7.186101286308256   5.002978606422314 
 11.202235609649751   0.718623749417457  11.673616748318732 
  3.734078536549915   0.723638459315362   5.002978606422314 
  2.506106962959411   7.170109298049170   5.002978606422314 
  7.463814206935633   7.183730139225429   5.002978606422314 
  8.710738121510534   0.718259747470240   5.002978606422314 
  2.490121774198273   7.186514598421472  11.673616748318732 
 13.693733097788956   0.718259747470240   5.002978606422314 
 -1.244644803247177   9.341334133242960  11.673616748318732 
  0.000723284228824   2.874912586013922  11.673616748318732 
  4.979379402966519   2.874993912266413  11.673616748318732 
  3.734078536549965   9.341273565738300  11.673616748318732 
  8.712801876347015   9.341334133242960  11.673616748318732 
  9.958189392988730   2.874879989059297  11.673616748318732 
 -3.734078536549858   9.342108742426664   5.002978606422314 
  1.249624449750342   9.331549279807986   5.002978606422314 
  2.494992482631873   2.897040142004000   5.002978606422314 
  6.218532623349497   9.331549279807986   5.002978606422314 
  7.464493985444198   2.876609882313816   5.002978606422314 
 12.447669118786031   2.876505868584759   5.002978606422314 
 -1.244632828974222   5.030324666531505  11.673616748318732 
 -2.490032501129617  11.498408901096601  11.673616748318732 
  2.488728964281956  11.498347491999951  11.673616748318732 
  3.734078536549918   5.030366245922021  11.673616748318732 
  7.467463859938164  11.498380217484442  11.673616748318732 
 -4.977446326324459  11.500547470279265   5.002978606422314 
  8.712789902074160   5.030324666531505  11.673616748318732 
 -0.000037533587635  11.497958320652016   5.002978606422314 
  1.267020909041419   5.023949297712985   5.002978606422314 
  0.004342866164202   7.183730139225429   5.002978606422314 
  6.201136164058520   5.023949297712985   5.002978606422314 
  4.980142515552898  11.496333121711155   5.002978606422314 
 11.202235609649755   5.030409585975881   5.002978606422314 
 -2.488690838667424   7.186583192940446  11.673616748318732 
  3.734078536549909   0.717965819097392  11.673616748318732 
  7.468726857470936   7.186566459334420  11.673616748318732 
  8.712839820720720   0.717871256706897  11.673616748318732 
 13.691631398578785   0.717871256706897  11.673616748318732 
  0.000507628772604   1.436896906757085   1.667796376421889 
  3.734078536549926   7.904941735997583   1.667880055442104 
  4.979507906002585   1.437150119409952   1.668099290111480 
  8.712690184127865   7.904769020841876   1.667762700173522 
  9.958296408740015   1.436812381918225   1.667751865581074 
 -4.978145073209598  10.060370892256975   8.338159900573364 
  0.000847325434899  10.060345866804060   8.338115052631197 
  1.244623137048435   3.593078500884325   8.338077157402525 
  4.979328818098619  10.060468168470265   8.338160836422738 
  6.223533936051401   3.593078500884325   8.338077157402525 
 11.202235609649694   3.592971369867386   8.338198503876148 
 -2.490011999890224  10.060370892256975   1.667797312271263 
 -1.244742652776086   3.593733662538880   1.667796376421889 
  3.734078536549865   3.594588209497719   1.670028832298101 
  2.488828255001221  10.060468168470265   1.667796376421889 
  7.467309747664851  10.060345866804060   1.667842160213430 
  8.712899725875920   3.593733662538880   1.667796376421889 
 -6.223553063194179  12.217530857968367   8.338115052631197 
 -1.244604009905625  12.217530857968367   8.338115052631197 
 -0.000452595023865   5.748400836612790   8.337857922733148 
  4.977498790289173   5.748255264134218   8.335928380546527 
  3.734078536549927  12.217473973929781   8.338205347263568 
  9.956784274309177   5.748449502507577   8.338115052631197 
 -2.488627201209328   5.748449502507576   1.667842160213430 
 -3.734078536549909  12.216788185596329   1.667762700173522 
  1.244820477932975  12.216677428706316   1.667758708968492 
  2.490658282810663   5.748255264134217   1.670028832298101 
  6.223336595166866  12.216677428706316   1.667758708968492 
  7.468609668123703   5.748400836612789   1.668099290111480 
 -1.244533111028118   7.904769020841877   8.338194512671105 
  0.000507628772605   1.436896906757086   8.338160836422738 
  3.734078536549927   7.904941735997584   8.338077157402525 
  4.979507906002586   1.437150119409953   8.337857922733148 
  8.712690184127865   7.904769020841877   8.338194512671105 
 -3.734078536549911   7.905584442766132   1.667797312271263 
  9.958296408740015   1.436812381918225   8.338205347263568 
  2.488649167097142   1.437150119409952   1.668099290111480 
  1.244976774428796   7.905547781743489   1.668099290111480 
  6.223180298670922   7.905547781743489   1.668099290111480 
  7.467649444327212   1.436896906757085   1.667796376421889 
  1.244976774428797   7.905547781743490   8.337857922733148 
 12.446174810559372   1.436812381918225   1.667751865581074 
 -2.490011999890223  10.060370892256975   8.338159900573364 
 -1.244742652776086   3.593733662538881   8.338160836422738 
  3.734078536549865   3.594588209497720   8.335928380546527 
  2.488828255001221  10.060468168470265   8.338160836422738 
  7.467309747664852  10.060345866804060   8.338115052631197 
  8.712899725875920   3.593733662538881   8.338160836422738 
 -4.978145073209599  10.060370892256975   1.667797312271263 
  0.000847325434899  10.060345866804060   1.667842160213430 
  1.244623137048434   3.593078500884324   1.667880055442104 
  4.979328818098618  10.060468168470265   1.667796376421889 
  6.223533936051400   3.593078500884324   1.667880055442104 
 11.202235609649694   3.592971369867385   1.667758708968492 
 -2.488627201209328   5.748449502507577   8.338115052631197 
 -3.734078536549909  12.216788185596329   8.338194512671105 
  1.244820477932975  12.216677428706316   8.338198503876148 
  2.490658282810663   5.748255264134218   8.335928380546527 
  6.223336595166867  12.216677428706316   8.338198503876148 
 -6.223553063194180  12.217530857968367   1.667842160213430 
  7.468609668123704   5.748400836612790   8.337857922733148 
 -1.244604009905625  12.217530857968367   1.667842160213430 
 -0.000452595023866   5.748400836612789   1.668099290111480 
 -1.244533111028118   7.904769020841876   1.667762700173522 
  4.977498790289172   5.748255264134217   1.670028832298101 
  3.734078536549926  12.217473973929781   1.667751865581074 
  9.956784274309177   5.748449502507576   1.667842160213430 
 -3.734078536549911   7.905584442766133   8.338159900573364 
  2.488649167097142   1.437150119409953   8.337857922733148 
  6.223180298670923   7.905547781743490   8.337857922733148 
  7.467649444327213   1.436896906757086   8.338160836422738 
 12.446174810559372   1.436812381918225   8.338205347263568 
  3.734078536549917   5.030366245922021   5.002978606422314 
  1.244672054613214   0.718678730714928   1.667754206645199 
  4.978452427462753   7.186326538932652   1.668218640888441 
  6.223485018486617   0.718678730714928   1.667754206645199 
  9.957449795520017   7.186220157132459   1.667612863824976 
 11.202235609649751   0.718623749417456   1.667389957143140 
 -3.734078536549858   9.342108742426664   8.338444179517957 
  1.244750856168695   9.342099257228501   8.338203006199416 
  2.489149098708650   2.874726698080189   8.337738571956187 
  6.223406216931129   9.342099257228501   8.338203006199416 
  7.468345531841431   2.874386190964569   8.338630575450406 
 12.446748232573871   2.874519729528489   8.338370174825567 
 -1.244631346891355   9.342036897766963   1.667612863824976 
 -0.000188458741493   2.874386190964568   1.667326637394209 
  4.979007974391184   2.874726698080188   1.668218640888441 
  3.734078536549964   9.342326355837002   1.667326637394209 
  8.712788419991192   9.342036897766963   1.667612863824976 
  9.957722986725635   2.874519729528488   1.667587038019060 
 -4.978739912078674  11.498069172380582   8.338344349019652 
  0.000036691317650  11.498001174421081   8.338297605346428 
  1.244775207795868   5.030045500753313   8.337738571956187 
  6.223381865304073   5.030045500753313   8.337738571956187 
  4.978882911780813  11.498123702093016   8.338370174825567 
 11.202235609649748   5.030323878437764   8.338297605346428 
 -1.244655625767949   5.030320749822709   1.667754206645199 
 -2.489417161021040  11.498069172380582   1.667612863824976 
  2.489274161319130  11.498123702093016   1.667587038019060 
  3.734078536549917   5.030366245922020   1.667193932399460 
  7.468120381782174  11.498001174421081   1.667659607498199 
  8.712812698867888   5.030320749822709   1.667754206645199 
  0.000070121320233   7.186197009611281   8.338289063471136 
  1.244672054613214   0.718678730714929   8.338203006199416 
  4.978452427462754   7.186326538932652   8.337738571956187 
  6.223485018486618   0.718678730714929   8.338203006199416 
  9.957449795520017   7.186220157132460   8.338344349019652 
 -2.489292722420166   7.186220157132459   1.667612863824976 
 11.202235609649751   0.718623749417456   8.338567255701488 
  3.734078536549915   0.718704718543683   1.667668149373480 
  2.489704645637084   7.186326538932652   1.668218640888441 
  7.468086951779601   7.186197009611281   1.667668149373480 
  8.712918611494786   0.718455306144636   1.667587038019060 
  2.489704645637084   7.186326538932652   8.337738571956187 
 13.691552607804704   0.718455306144636   1.667587038019060 
 -1.244631346891354   9.342036897766963   8.338344349019652 
 -0.000188458741493   2.874386190964569   8.338630575450406 
  4.979007974391185   2.874726698080189   8.337738571956187 
  3.734078536549964   9.342326355837002   8.338630575450406 
  8.712788419991192   9.342036897766963   8.338344349019652 
  9.957722986725635   2.874519729528489   8.338370174825567 
 -3.734078536549859   9.342108742426664   1.667513033326657 
  1.244750856168695   9.342099257228501   1.667754206645199 
  2.489149098708650   2.874726698080188   1.668218640888441 
  6.223406216931128   9.342099257228501   1.667754206645199 
  7.468345531841430   2.874386190964568   1.667326637394209 
 12.446748232573871   2.874519729528488   1.667587038019060 
 -1.244655625767948   5.030320749822710   8.338203006199416 
 -2.489417161021039  11.498069172380582   8.338344349019652 
  2.489274161319130  11.498123702093016   8.338370174825567 
  3.734078536549917   5.030366245922021   8.338763280445168 
  7.468120381782175  11.498001174421081   8.338297605346428 
 -4.978739912078675  11.498069172380582   1.667612863824976 
  8.712812698867888   5.030320749822710   8.338203006199416 
  0.000036691317650  11.498001174421081   1.667659607498199 
  1.244775207795868   5.030045500753312   1.668218640888441 
  0.000070121320233   7.186197009611281   1.667668149373480 
  6.223381865304072   5.030045500753312   1.668218640888441 
  4.978882911780812  11.498123702093016   1.667587038019060 
 11.202235609649748   5.030323878437764   1.667659607498199 
 -2.489292722420166   7.186220157132460   8.338344349019652 
  3.734078536549915   0.718704718543683   8.338289063471136 
  7.468086951779602   7.186197009611281   8.338289063471136 
  8.712918611494786   0.718455306144637   8.338370174825567 
 13.691552607804704   0.718455306144637   8.338370174825567 
  0.002815425077227   1.439048987579242   5.002978606422314 
  3.734078536549910   7.903647626900953   5.002978606422314 
  4.968895785764492   1.454371244076967   5.002978606422314 
  8.709432317729185   7.902888090799624   5.002978606422314 
  9.956383478731141   1.437916812573789   5.002978606422314 
 -4.978725753637501  10.060706148258348  11.673616748318732 
  0.000050418979207  10.060698704009678  11.673616748318732 
  1.244692933542937   3.593118797909206  11.673616748318732 
  4.978850932551771  10.060701477181626  11.673616748318732 
  6.223464139556898   3.593118797909206  11.673616748318732 
 11.202235609649703   3.593183454389298  11.673616748318732 
 -2.488701230823813  10.061127665130311   5.002978606422314 
 -1.241724997960790   3.594656232354365   5.002978606422314 
  3.734078536549864   3.628509006055515   5.002978606422314 
  2.489538113511910  10.057393517832624   5.002978606422314 
  7.464594792205544  10.055925953834251   5.002978606422314 
  8.709882071060623   3.594656232354365   5.002978606422314 
 -6.223460175949795  12.216664298130491  11.673616748318732 
 -1.244696897150008  12.216664298130491  11.673616748318732 
 -0.000045132219978   5.748942213946091  11.673616748318732 
  4.978710570689201   5.748954885874372  11.673616748318732 
  3.734078536549921  12.216652988002858  11.673616748318732 
  9.957488293520473   5.748963225139837  11.673616748318732 
 -2.483441966565311   5.748308238594592   5.002978606422314 
 -3.734078536549917  12.220550045680849   5.002978606422314 
  1.243771157972240  12.216071603544519   5.002978606422314 
  2.520034554346318   5.731294865855319   5.002978606422314 
  6.224385915127601  12.216071603544519   5.002978606422314 
  7.448389676561289   5.748980639993499   5.002978606422314 
 -1.244669690562329   7.904847875072728  11.673616748318732 
  0.000066634728236   1.437194113425077  11.673616748318732 
  3.734078536549912   7.904861141947822  11.673616748318732 
  4.978835328076971   1.437232303882566  11.673616748318732 
  8.712826763662047   7.904847875072728  11.673616748318732 
 -3.734078536549920   7.904070897019473   5.002978606422314 
  9.957585414071138   1.437222874881695  11.673616748318732 
  2.499261287335235   1.454371244076967   5.002978606422314 
  1.254584645753124   7.887746853695781   5.002978606422314 
  6.213572427346608   7.887746853695781   5.002978606422314 
  7.465341648022604   1.439048987579242   5.002978606422314 
  1.244711659307070   7.904924219937577  11.673616748318732 
 12.448087740568230   1.437916812573789   5.002978606422314 
 -2.489431319462319  10.060706148258348  11.673616748318732 
 -1.244705761273615   3.593203147159544  11.673616748318732 
  3.734078536549865   3.593188966017411  11.673616748318732 
  2.489306140548066  10.060701477181626  11.673616748318732 
  7.468106654120529  10.060698704009678  11.673616748318732 
  8.712862834373450   3.593203147159544  11.673616748318732 
 -4.979455842276008  10.061127665130311   5.002978606422314 
  0.003562280894175  10.055925953834251   5.002978606422314 
  1.245743868401400   3.593725555432640   5.002978606422314 
  4.978618959587943  10.057393517832624   5.002978606422314 
  6.222413204698432   3.593725555432640   5.002978606422314 
 11.202235609649701   3.594183020190965   5.002978606422314 
 -2.489331220420636   5.748963225139837  11.673616748318732 
 -3.734078536549909  12.216630477134654  11.673616748318732 
  1.244636807349253  12.216571386445356  11.673616748318732 
  2.489446502410635   5.748954885874372  11.673616748318732 
  6.223520265750603  12.216571386445356  11.673616748318732 
 -6.221082784009461  12.222092034851174   5.002978606422314 
  7.468202205319815   5.748942213946091  11.673616748318732 
 -1.247074289090374  12.222092034851174   5.002978606422314 
  0.019767396538547   5.748980639993499   5.002978606422314 
 -1.241275244629453   7.902888090799624   5.002978606422314 
  4.948122518753518   5.731294865855319   5.002978606422314 
  3.734078536549919  12.215265112618665   5.002978606422314 
  9.951599039665144   5.748308238594592   5.002978606422314 
 -3.734078536549911   7.904913930763416  11.673616748318732 
  2.489321745022758   1.437232303882566  11.673616748318732 
  6.223445413792649   7.904924219937577  11.673616748318732 
  7.468090438371595   1.437194113425077  11.673616748318732 
 12.446885805228247   1.437222874881695  11.673616748318732 
Generated by cif2cell 2.0.0.  :  Failed to get author information, No journal information. Species order: B N 
 1.0
 14.936314146199660   0.000000000000000   0.000000000000000
 -7.468157073099825  12.935227489513863   0.000000000000000
  0.000000000000001   0.000000000000001  13.341276283792837
 B N 
 143 145
Cartesian
  1.251371806277911   0.728174375274613   5.002978606422314 
  4.962050110140424   7.170109298049170   5.002978606422314 
  6.216785266821920   0.728174375274613   5.002978606422314 
  9.954656733704494   7.186101286308256   5.002978606422314 
 11.202235609649751   0.718623749417456   5.002978606422314 
 -3.734078536549858   9.342108742426666  11.673616748318732 
  1.244758862596251   9.342077556271603  11.673616748318732 
  2.488777670133314   2.874993912266413  11.673616748318732 
  6.223398210503587   9.342077556271603  11.673616748318732 
  7.467433788871101   2.874912586013922  11.673616748318732 
 12.446281826310761   2.874879989059297  11.673616748318732 
 -1.243131870830050   9.339677470692482   5.002978606422314 
  0.003663087655739   2.876609882313816   5.002978606422314 
  4.973164590467960   2.897040142004000   5.002978606422314 
  3.734078536549971   9.337878973138523   5.002978606422314 
  8.711288943929901   9.339677470692482   5.002978606422314 
  9.956802100513460   2.876505868584759   5.002978606422314 
 -4.978124571970112  11.498408901096601  11.673616748318732 
  0.000693213161692  11.498380217484442  11.673616748318732 
  1.244820907781729   5.029590227078257  11.673616748318732 
  6.223336165318211   5.029590227078257  11.673616748318732 
  4.979428108817990  11.498347491999951  11.673616748318732 
 11.202235609649746   5.029565792311020  11.673616748318732 
 -1.233082280521605   5.031375082683542   5.002978606422314 
 -2.490710746775257  11.500547470279265   5.002978606422314 
  2.488014557547048  11.496333121711155   5.002978606422314 
  7.468194606687490  11.497958320652016   5.002978606422314 
  8.701239353621560   5.031375082683542   5.002978606422314 
 -0.000569784371099   7.186566459334420  11.673616748318732 
  1.244686844979385   0.718696514963037  11.673616748318732 
  4.978035298901551   7.186514598421472  11.673616748318732 
  6.223470228120432   0.718696514963037  11.673616748318732 
  9.956847911767262   7.186583192940446  11.673616748318732 
 -2.486499660604659   7.186101286308256   5.002978606422314 
 11.202235609649751   0.718623749417457  11.673616748318732 
  3.734078536549915   0.723638459315362   5.002978606422314 
  2.506106962959411   7.170109298049170   5.002978606422314 
  7.463814206935633   7.183730139225429   5.002978606422314 
  8.710738121510534   0.718259747470240   5.002978606422314 
  2.490121774198273   7.186514598421472  11.673616748318732 
 13.693733097788956   0.718259747470240   5.002978606422314 
 -1.244644803247177   9.341334133242960  11.673616748318732 
  0.000723284228824   2.874912586013922  11.673616748318732 
  4.979379402966519   2.874993912266413  11.673616748318732 
  3.734078536549965   9.341273565738300  11.673616748318732 
  8.712801876347015   9.341334133242960  11.673616748318732 
  9.958189392988730   2.874879989059297  11.673616748318732 
 -3.734078536549858   9.342108742426664   5.002978606422314 
  1.249624449750342   9.331549279807986   5.002978606422314 
  2.494992482631873   2.897040142004000   5.002978606422314 
  6.218532623349497   9.331549279807986   5.002978606422314 
  7.464493985444198   2.876609882313816   5.002978606422314 
 12.447669118786031   2.876505868584759   5.002978606422314 
 -1.244632828974222   5.030324666531505  11.673616748318732 
 -2.490032501129617  11.498408901096601  11.673616748318732 
  2.488728964281956  11.498347491999951  11.673616748318732 
  3.734078536549918   5.030366245922021  11.673616748318732 
  7.467463859938164  11.498380217484442  11.673616748318732 
 -4.977446326324459  11.500547470279265   5.002978606422314 
  8.712789902074160   5.030324666531505  11.673616748318732 
 -0.000037533587635  11.497958320652016   5.002978606422314 
  1.267020909041419   5.023949297712985   5.002978606422314 
  0.004342866164202   7.183730139225429   5.002978606422314 
  6.201136164058520   5.023949297712985   5.002978606422314 
  4.980142515552898  11.496333121711155   5.002978606422314 
 11.202235609649755   5.030409585975881   5.002978606422314 
 -2.488690838667424   7.186583192940446  11.673616748318732 
  3.734078536549909   0.717965819097392  11.673616748318732 
  7.468726857470936   7.186566459334420  11.673616748318732 
  8.712839820720720   0.717871256706897  11.673616748318732 
 13.691631398578785   0.717871256706897  11.673616748318732 
  0.000507628772604   1.436896906757085   1.667796376421889 
  3.734078536549926   7.904941735997583   1.667880055442104 
  4.979507906002585   1.437150119409952   1.668099290111480 
  8.712690184127865   7.904769020841876   1.667762700173522 
  9.958296408740015   1.436812381918225   1.667751865581074 
 -4.978145073209598  10.060370892256975   8.338159900573364 
  0.000847325434899  10.060345866804060   8.338115052631197 
  1.244623137048435   3.593078500884325   8.338077157402525 
  4.979328818098619  10.060468168470265   8.338160836422738 
  6.223533936051401   3.593078500884325   8.338077157402525 
 11.202235609649694   3.592971369867386   8.338198503876148 
 -2.490011999890224  10.060370892256975   1.667797312271263 
 -1.244742652776086   3.593733662538880   1.667796376421889 
  3.734078536549865   3.594588209497719   1.670028832298101 
  2.488828255001221  10.060468168470265   1.667796376421889 
  7.467309747664851  10.060345866804060   1.667842160213430 
  8.712899725875920   3.593733662538880   1.667796376421889 
 -6.223553063194179  12.217530857968367   8.338115052631197 
 -1.244604009905625  12.217530857968367   8.338115052631197 
 -0.000452595023865   5.748400836612790   8.337857922733148 
  4.977498790289173   5.748255264134218   8.335928380546527 
  3.734078536549927  12.217473973929781   8.338205347263568 
  9.956784274309177   5.748449502507577   8.338115052631197 
 -2.488627201209328   5.748449502507576   1.667842160213430 
 -3.734078536549909  12.216788185596329   1.667762700173522 
  1.244820477932975  12.216677428706316   1.667758708968492 
  2.490658282810663   5.748255264134217   1.670028832298101 
  6.223336595166866  12.216677428706316   1.667758708968492 
  7.468609668123703   5.748400836612789   1.668099290111480 
 -1.244533111028118   7.904769020841877   8.338194512671105 
  0.000507628772605   1.436896906757086   8.338160836422738 
  3.734078536549927   7.904941735997584   8.338077157402525 
  4.979507906002586   1.437150119409953   8.337857922733148 
  8.712690184127865   7.904769020841877   8.338194512671105 
 -3.734078536549911   7.905584442766132   1.667797312271263 
  9.958296408740015   1.436812381918225   8.338205347263568 
  2.488649167097142   1.437150119409952   1.668099290111480 
  1.244976774428796   7.905547781743489   1.668099290111480 
  6.223180298670922   7.905547781743489   1.668099290111480 
  7.467649444327212   1.436896906757085   1.667796376421889 
  1.244976774428797   7.905547781743490   8.337857922733148 
 12.446174810559372   1.436812381918225   1.667751865581074 
 -2.490011999890223  10.060370892256975   8.338159900573364 
 -1.244742652776086   3.593733662538881   8.338160836422738 
  3.734078536549865   3.594588209497720   8.335928380546527 
  2.488828255001221  10.060468168470265   8.338160836422738 
  7.467309747664852  10.060345866804060   8.338115052631197 
  8.712899725875920   3.593733662538881   8.338160836422738 
 -4.978145073209599  10.060370892256975   1.667797312271263 
  0.000847325434899  10.060345866804060   1.667842160213430 
  1.244623137048434   3.593078500884324   1.667880055442104 
  4.979328818098618  10.060468168470265   1.667796376421889 
  6.223533936051400   3.593078500884324   1.667880055442104 
 11.202235609649694   3.592971369867385   1.667758708968492 
 -2.488627201209328   5.748449502507577   8.338115052631197 
 -3.734078536549909  12.216788185596329   8.338194512671105 
  1.244820477932975  12.216677428706316   8.338198503876148 
  2.490658282810663   5.748255264134218   8.335928380546527 
  6.223336595166867  12.216677428706316   8.338198503876148 
 -6.223553063194180  12.217530857968367   1.667842160213430 
  7.468609668123704   5.748400836612790   8.337857922733148 
 -1.244604009905625  12.217530857968367   1.667842160213430 
 -0.000452595023866   5.748400836612789   1.668099290111480 
 -1.244533111028118   7.904769020841876   1.667762700173522 
  4.977498790289172   5.748255264134217   1.670028832298101 
  3.734078536549926  12.217473973929781   1.667751865581074 
  9.956784274309177   5.748449502507576   1.667842160213430 
 -3.734078536549911   7.905584442766133   8.338159900573364 
  2.488649167097142   1.437150119409953   8.337857922733148 
  6.223180298670923   7.905547781743490   8.337857922733148 
  7.467649444327213   1.436896906757086   8.338160836422738 
 12.446174810559372   1.436812381918225   8.338205347263568 
  3.734078536549917   5.030366245922021   5.002978606422314 
  1.244672054613214   0.718678730714928   1.667754206645199 
  4.978452427462753   7.186326538932652   1.668218640888441 
  6.223485018486617   0.718678730714928   1.667754206645199 
  9.957449795520017   7.186220157132459   1.667612863824976 
 11.202235609649751   0.718623749417456   1.667389957143140 
 -3.734078536549858   9.342108742426664   8.338444179517957 
  1.244750856168695   9.342099257228501   8.338203006199416 
  2.489149098708650   2.874726698080189   8.337738571956187 
  6.223406216931129   9.342099257228501   8.338203006199416 
  7.468345531841431   2.874386190964569   8.338630575450406 
 12.446748232573871   2.874519729528489   8.338370174825567 
 -1.244631346891355   9.342036897766963   1.667612863824976 
 -0.000188458741493   2.874386190964568   1.667326637394209 
  4.979007974391184   2.874726698080188   1.668218640888441 
  3.734078536549964   9.342326355837002   1.667326637394209 
  8.712788419991192   9.342036897766963   1.667612863824976 
  9.957722986725635   2.874519729528488   1.667587038019060 
 -4.978739912078674  11.498069172380582   8.338344349019652 
  0.000036691317650  11.498001174421081   8.338297605346428 
  1.244775207795868   5.030045500753313   8.337738571956187 
  6.223381865304073   5.030045500753313   8.337738571956187 
  4.978882911780813  11.498123702093016   8.338370174825567 
 11.202235609649748   5.030323878437764   8.338297605346428 
 -1.244655625767949   5.030320749822709   1.667754206645199 
 -2.489417161021040  11.498069172380582   1.667612863824976 
  2.489274161319130  11.498123702093016   1.667587038019060 
  3.734078536549917   5.030366245922020   1.667193932399460 
  7.468120381782174  11.498001174421081   1.667659607498199 
  8.712812698867888   5.030320749822709   1.667754206645199 
  0.000070121320233   7.186197009611281   8.338289063471136 
  1.244672054613214   0.718678730714929   8.338203006199416 
  4.978452427462754   7.186326538932652   8.337738571956187 
  6.223485018486618   0.718678730714929   8.338203006199416 
  9.957449795520017   7.186220157132460   8.338344349019652 
 -2.489292722420166   7.186220157132459   1.667612863824976 
 11.202235609649751   0.718623749417456   8.338567255701488 
  3.734078536549915   0.718704718543683   1.667668149373480 
  2.489704645637084   7.186326538932652   1.668218640888441 
  7.468086951779601   7.186197009611281   1.667668149373480 
  8.712918611494786   0.718455306144636   1.667587038019060 
  2.489704645637084   7.186326538932652   8.337738571956187 
 13.691552607804704   0.718455306144636   1.667587038019060 
 -1.244631346891354   9.342036897766963   8.338344349019652 
 -0.000188458741493   2.874386190964569   8.338630575450406 
  4.979007974391185   2.874726698080189   8.337738571956187 
  3.734078536549964   9.342326355837002   8.338630575450406 
  8.712788419991192   9.342036897766963   8.338344349019652 
  9.957722986725635   2.874519729528489   8.338370174825567 
 -3.734078536549859   9.342108742426664   1.667513033326657 
  1.244750856168695   9.342099257228501   1.667754206645199 
  2.489149098708650   2.874726698080188   1.668218640888441 