 Se N B 
 1.0
 17.527899999999772   0.000000000000000   0.000000000000000
 -8.763949999999658  15.179606674993195   0.000000000000000
  0.000000000000001   0.000000000000002  15.000000000000000
 Se N B 
   1  48  48
Cartesian
  4.461413989932873   7.543953402307078   1.667946063593580 
  8.782100573057726  13.751646275803228   1.665865713678150 
 16.267581901878781   0.727659180257449   1.666386579285705 
 15.002907397221144   2.892720808465644   1.666464637895055 
 13.754718260460425   5.059868891664398   1.665947052860520 
 12.520700972461594   7.230719455177392   1.664833076262975 
 11.293121799072626   9.399590033379770   1.667905308516810 
 10.047730069443325  11.575999810552844   1.666875399955560 
 -6.239033569366641  13.721859681128452   1.665809870800410 
  1.245737554164778   0.698282622798493   1.665865713678150 
 -0.027108721600136   2.862313960376056   1.666401429340395 
 -1.271840337470059   5.044353572082105   1.665962943718740 
 -2.489075159884650   7.218398270495803   1.665264587374665 
 -3.725382551441631   9.386086828427198   1.667378768475360 
 -4.975878811226631  11.554495306752891   1.667784683641170 
 -3.730463582830216  13.711617758856228   1.667784683641170 
  3.762717410918228   0.690038559774751   1.666875399955560 
  2.468954071044095   2.820072194305977   1.664510731177815 
  1.204629713606361   4.992558184607449   1.663327492033575 
  0.031334371901368   7.198302135980105   1.665674105189715 
 -1.208174877620632   9.374416860458620   1.668905109724350 
 -2.467368325147381  11.544287737085634   1.668766942050360 
 -1.227318624925987  13.712860469708016   1.667378768475360 
  6.270239431809617   0.699702572838281   1.667905308516810 
  4.996741333229775   2.848639026641517   1.664041425207555 
  3.676615679137184   4.923060662059223   1.655560092804735 
  2.512681913100478   7.100126365159333   1.659368111194680 
  1.317956609611311   9.358829367032310   1.668844995876345 
  0.041391700708329  11.538729661560087   1.668905109724350 
  1.268108429496148  13.726031140697170   1.665264587374665 
  8.762326036730572   0.721023112628778   1.664833076262975 
  7.489556365017695   2.895383300250087   1.663754818465770 
  6.195989712396679   5.070177149939788   1.660495162084920 
  3.871413440563837   9.453518404602887   1.659368111194680 
  2.545716958397895  11.553340525489066   1.665674105189715 
  3.759503778492935  13.758897211323273   1.665962943718740 
 11.259321843891135   0.737758074267903   1.665947052860520 
  9.987936807556888   2.909918687703996   1.666239543860160 
  8.711430224555530   5.090205385187535   1.663314134465685 
  7.471054928994193   7.278654888048968   1.660495162084920 
  6.338774528175821   9.534055046441349   1.655560092804735 
  5.042594925383579  11.640108929116128   1.663327492033575 
  6.271571322245807  13.771947816939480   1.666401429340395 
 13.760246278762889   0.740368614704828   1.666464637895055 
 12.496447458124962   2.904924666508296   1.668182524116750 
 11.237867183626321   5.074861604952385   1.666239543860160 
 10.001264977146533   7.245790230236660   1.663754818465770 
  8.795339189671585   9.428003511519695   1.664041425207555 
  7.556185161086963  11.631414912102800   1.664510731177815 
  7.523842937302451  14.473125391319362   1.666572792004890 
 15.013048344369318   1.451970734323934   1.666662909035745 
 13.752335548935347   3.619426308838031   1.667311638026970 
 12.502358447451476   5.787533701479044   1.665604717722195 
 11.271090769743058   7.956695998498460   1.665691266211065 
 10.051898134924478  10.133795263918694   1.667258304647325 
  8.805373875465820  12.320991713593658   1.666244644362930 
 -7.494291258049750  14.446589312522971   1.665906836850765 
 -0.008205078729152   1.427235542506069   1.666572792004890 
 -1.271088480101182   3.602201073524176   1.666386351634890 
 -2.514578893358088   5.775227914871657   1.665927880522725 
 -3.740330857367290   7.942867522590917   1.665907028653215 
 -4.975207565651495  10.111765485192302   1.668338080033170 
 -6.226306321695227  12.282356489450404   1.667086417704615 
 -4.986018185387567  14.430598557559657   1.667086417704615 
  2.496362827603946   1.393464033184293   1.666244644362930 
  1.222359940785304   3.560293885230208   1.664935968532440 
 -0.015272639738836   5.753711247310831   1.665173697587940 
 -1.219079993919697   7.928650697016008   1.666825013346300 
 -2.462645332149671  10.098757475450771   1.668675217025175 
 -3.720504503726452  12.267792514050234   1.668248377866690 
 -2.480681856435384  14.432410754312659   1.668338080033170 
  5.013792645835970   1.407540582896517   1.667258304647325 
  3.714753855298106   3.507704997276252   1.661312233465455 
  2.447460262920725   5.692230439051647   1.659278473416330 
  1.318441237674097   7.905619044799527   1.665532488155895 
  0.058509979514079  10.085977484890538   1.669589182644450 
 -1.213135472795321  12.262972036381353   1.668675217025175 
  0.015077231537287  14.447425135696701   1.665907028653215 
  7.508812233659440   1.440238421746228   1.665691266211065 
  6.230026873296929   3.603287016957456   1.662854757785640 
  4.869053031253003   5.637842994348099   1.658294070608400 
  2.576721407067434  10.085024228345670   1.665532488155895 
  1.288014795369707  12.271066251425312   1.666825013346300 
  2.505184180058635  14.469712599986428   1.665927880522725 
 10.002995726647113   1.458510482501525   1.665604717722195 
  8.732289467114930   3.634353885802081   1.664631591732630 
  7.449085166670206   5.819026911108453   1.661739738044745 
  6.315978973623595   8.143992241356855   1.658294070608400 
  5.058081680698326  10.213959374001295   1.659278473416330 
  3.773471287578873  12.316008226294462   1.665173697587940 
  5.008825834399060  14.479331733416512   1.666386351634890 
 12.505620357549414   1.460052254787971   1.667311638026970 
 11.242907161748690   3.628662760992561   1.667833886911575 
  9.982669655770348   5.800075901331123   1.664631591732630 
  8.758443056490075   7.982632308955063   1.662854757785640 
  7.583583004679250  10.208713649834957   1.661312233465455 
  6.291842734505131  12.340895652050255   1.664935968532440 
