 B Ge N 
 1.0
 17.527899999999772   0.000000000000000   0.000000000000000
 -8.763949999999658  15.179606674993195   0.000000000000000
  0.000000000000001   0.000000000000002  15.000000000000000
 B Ge N 
  47   1  49
Cartesian
  7.520134249741870  14.496606182340523   1.660533512672355 
 15.028246638522273   1.472469575830796   1.645416403154310 
 13.770554849495110   3.628272262288608   1.649347410825480 
 12.502100102865667   5.783568227630583   1.659756533862630 
 11.197353149937761   7.934992963428890   1.673666578254465 
  9.972743505321109  10.100945631995334   1.668204929132010 
  8.763382845948295  12.317807495211818   1.672905759829965 
 -7.509902132162789  14.468889368526591   1.659498047442120 
  0.008194416879682   1.460607207452659   1.659973327019355 
 -1.246029875640095   3.626366970812526   1.676147542567935 
 -2.511218472098788   5.787790788184023   1.680697743398505 
 -3.793865451399215   7.943977184003079   1.673542002734175 
 -5.044404442639532  10.102099004073654   1.667998708664535 
 -6.282091833953222  12.273866054050387   1.663724125950870 
 -5.020368109780604  14.435179398181486   1.652707366054515 
  2.513734164133786   1.446996995559061   1.663861761460410 
  1.262458751215675   3.605349811192601   1.697719129902090 
  0.006438347339387   5.781239451820756   1.724878380770250 
 -1.272011920480704   7.948591720830088   1.709539480536255 
 -2.528271305958917  10.107074258585294   1.674053704256220 
 -3.778797330085298  12.266972673244322   1.656977931464565 
 -2.517498477948210  14.427166379394254   1.644412289349645 
  5.002873676003399   1.405082339097795   1.657672639934820 
  3.788498403399819   3.611017689572195   1.666344437539515 
  2.518706191521344   5.742363533609119   1.669199052853665 
  1.239681011490253   7.949640640181921   1.698804180845220 
 -0.015212466700435  10.119737783328796   1.695616375257630 
 -1.271557224725276  12.273684866136321   1.664598935653710 
 -0.013070261088400  14.443318268811327   1.643127637698615 
  7.516018414484116   1.393852691926757   1.650504317067885 
  6.283397352541091   3.506227013454994   1.741828986436620 
  5.170159188964975   5.707362521933113   1.613676876704205 
  2.469998233227182  10.190564192971914   1.702245617776110 
  1.225336417439973  12.313004498080586   1.711154519818230 
  2.489246094681899  14.482583845017942   1.661337972878790 
 10.013766437784650   1.433942404432047   1.633309883535855 
  8.774174850219286   3.563912798822866   1.698598832404605 
  7.524867405564151   5.674177128367752   1.759889826895035 
  4.981876548457698  10.283097474340279   1.685956641656175 
  3.730654845294212  12.362801344796095   1.745130185286030 
  5.005288287807538  14.502137993357904   1.669853426764980 
 12.517369573306892   1.465305187338682   1.636956529231275 
 11.264522032858380   3.613869367047858   1.649313269444490 
  9.995946958040360   5.764539413247586   1.692320873454195 
  8.621924618009015   7.921670049047052   1.664266642587510 
  7.519266721867626  10.170515518121082   1.655569827017460 
  6.267543418110389  12.367479345868077   1.719025445363955 
  4.011446708329409   7.918752360313118   1.063676471219520 
  8.764590571966043  13.761277177868779   1.663012043307060 
 16.281915994107397   0.753774005947697   1.646955330992295 
 15.027187410326080   2.912595224697058   1.652044707416430 
 13.763819366134019   5.070174079832719   1.657553596309530 
 12.473208612916093   7.226089564626059   1.667350750068330 
 11.224023292304587   9.381334258452224   1.671831803072940 
  9.991302742262450  11.556262517890634   1.668103249187700 
 -6.273346025264305  13.721826541631810   1.659311413715055 
  1.257959254946346   0.734484244128457   1.659774446861865 
  0.006397530395721   2.900039710578671   1.678622161915485 
 -1.250529374575677   5.069363668767104   1.696622009747775 
 -2.527565188368095   7.230631119345040   1.686872086935570 
 -3.785732937380044   9.386898821449927   1.669769879463675 
 -5.033625801788982  11.547283837499492   1.663032374631600 
 -3.771908179910544  13.709487989700449   1.649899552752255 
  3.748867949444821   0.698939169680748   1.652006930647320 
  2.523697700109355   2.896294736619659   1.676528377262895 
  1.260305765820362   5.041952291451779   1.727774553113325 
 -0.012250716239292   7.229914328651564   1.737943904247930 
 -1.267702062001654   9.392815369747375   1.692252172697025 
 -2.524339076560295  11.549528877724198   1.660878107891280 
 -1.263996508848060  13.714177194616902   1.646677674122040 
  6.254778877295390   0.685375260451131   1.645026626438850 
  5.010914536625662   2.840974264605017   1.680807693768240 
  3.819614567766335   5.074272538933536   1.629452755568745 
  2.452689385332556   7.168269670762693   1.636842064474305 
  1.249810415223289   9.405580932794519   1.691234579625570 
 -0.015033900802590  11.563536841059248   1.690033133895195 
  1.240322003276684  13.746530758020478   1.667614936034535 
  8.767516678718854   0.696329947434188   1.627883807008800 
  7.535087832934634   2.818981998398543   1.695896661984810 
  6.317903304932653   4.909755091063920   1.811964105063975 
  5.588214422393987   7.084164457922350   1.384743334600035 
  3.756413205908549   9.587598280490823   1.617197087241330 
  2.479241004244710  11.623599742530981   1.761374227369560 
  3.744907864619335  13.789432120979031   1.689487253012295 
 11.267526879925610   0.736050170681866   1.632747196616235 
 10.028700241468810   2.869257214555271   1.648737086625930 
  8.784614304412020   4.998230938145769   1.740380286995490 
  7.418768998707201   7.082782178231346   1.697186583079785 
  6.225107862205653   9.658303238992124   1.592314369161405 
  5.000061693058703  11.698197741104691   1.771610046732795 
  6.264406051621497  13.797086533626810   1.681075841040390 
 13.773249706782003   0.757558595631246   1.641718122752040 
 12.520595858014042   2.904662258454397   1.639129433669160 
 11.256301103630756   5.059868891664398   1.660630828624350 
  9.928323110439052   7.211178795140952   1.680972129215700 
  8.710758432363770   9.379107425995123   1.658023023493815 
  7.507784186678760  11.625508154818208   1.689595279748490 
