B Ge N                                  
   1.0000000000000000     
     8.7639499999999995  -15.1796066749929999    0.0000000000000000
     8.7639499999999995   15.1796066749929999    0.0000000000000000
     0.0000000000000000    0.0000000000000000   15.0000000000000000
   B    Ge   N 
    47     1    49
Selective dynamics
Direct
  0.9065406427154471  0.9550053893176400  0.1107022341781573   T   T   T
  0.9058915982235118  0.0970031442419745  0.1096944268769540   T   T   T
  0.9051477254446242  0.2390228113265806  0.1099564940550323   T   T   T
  0.9037731146323772  0.3810090967085731  0.1106504355908419   T   T   T
  0.9002004503329701  0.5227403537735245  0.1115777718836306   T   T   T
  0.9016783063015757  0.6654286799562189  0.1112136619421341   T   T   T
  0.9057030402463953  0.8114707949254122  0.1115270506553306   T   T   T
  0.0481355461652948  0.9531794649437499  0.1106332031628077   T   T   T
  0.0485783454539770  0.0962216768013402  0.1106648884679566   T   T   T
  0.0483602753974419  0.2388972948018855  0.1117431695045293   T   T   T
  0.0473738495468594  0.3812872699606111  0.1120465162265665   T   T   T
  0.0452188747209343  0.5233322149967130  0.1115694668489453   T   T   T
  0.0449594724263861  0.6655046616402649  0.1111999139109694   T   T   T
  0.0458827375983397  0.8085760268261946  0.1109149417300575   T   T   T
  0.1890578221897532  0.9509587242442797  0.1101804910703009   T   T   T
  0.1910758430294789  0.0953250651706833  0.1109241174306940   T   T   T
  0.1907820352255814  0.2375127293075410  0.1131812753268058   T   T   T
  0.1907951609204588  0.3808556819423215  0.1149918920513497   T   T   T
  0.1892474083728724  0.5236362108067373  0.1139692987024175   T   T   T
  0.1886735283721773  0.6658324207593362  0.1116035802837475   T   T   T
  0.1884733850007066  0.8081219056520662  0.1104651954309708   T   T   T
  0.3315873501582264  0.9504308437162265  0.1096274859566432   T   T   T
  0.3317053578988442  0.0925638173097414  0.1105115093289881   T   T   T
  0.3350840909933781  0.2378861170046634  0.1110896291693006   T   T   T
  0.3328442838808536  0.3782946196536870  0.1112799368569114   T   T   T
  0.3325788129245373  0.5237053113687143  0.1132536120563476   T   T   T
  0.3324654332026512  0.6665758605377780  0.1130410916838422   T   T   T
  0.3317372895034202  0.8085640905541990  0.1109732623769138   T   T   T
  0.4750017645811007  0.9514948956223727  0.1095418425132408   T   T   T
  0.4747151479286620  0.0918240321880663  0.1100336211378588   T   T   T
  0.4739711238995716  0.2309827315375133  0.1161219324291077   T   T   T
  0.4829618195771220  0.3759888279144542  0.1075784584469466   T   T   T
  0.4765843719574837  0.6713325589496203  0.1134830411850736   T   T   T
  0.4754849627701973  0.8111543837538933  0.1140769679878822   T   T   T
  0.6190570334246646  0.9540816277457622  0.1107558648585861   T   T   T
  0.6185369308922357  0.0944650566469760  0.1088873255690570   T   T   T
  0.6179748209419317  0.2347829476170844  0.1132399221603069   T   T   T
  0.6162093061950901  0.3738026452105219  0.1173259884596690   T   T   T
  0.6229397499626965  0.6774284534842792  0.1123971094437455   T   T   T
  0.6200583943113546  0.8144348934391373  0.1163420123524023   T   T   T
  0.7632461140295023  0.9553698131881538  0.1113235617843318   T   T   T
  0.7624053034112462  0.0965311696615049  0.1091304352820850   T   T   T
  0.7616993755521030  0.2380739794135328  0.1099542179629660   T   T   T
  0.7601655269617649  0.3797555191429338  0.1128213915636129   T   T   T
  0.7528285164370944  0.5218626686880607  0.1109511095058342   T   T   T
  0.7639943515225478  0.6700117951590887  0.1103713218011642   T   T   T
  0.7649467961161572  0.8147430701377918  0.1146016963575966   T   T   T
  0.4896958857137552  0.5216704575987745  0.0709117647479681   T   T   T
  0.9533182899834882  0.9065634882713421  0.1108674695538038   T   T   T
  0.9537427540863221  0.0496570182671115  0.1097970220661533   T   T   T
  0.9532673650206531  0.1918755397987520  0.1101363138277623   T   T   T
  0.9522581561946276  0.3340122170744577  0.1105035730873023   T   T   T
  0.9496399094153526  0.4760393150719965  0.1111567166712220   T   T   T
  0.9493629671426623  0.6180222227962586  0.1114554535381961   T   T   T
  0.9506737269035410  0.7613018416958298  0.1112068832791799   T   T   T
  0.0940759715835850  0.9039645647892227  0.1106207609143371   T   T   T
  0.0959620907815235  0.0483862500428584  0.1106516297907907   T   T   T
  0.0958891959652264  0.1910484094002370  0.1119081441276990   T   T   T
  0.0956343374966224  0.3339588289279161  0.1131081339831853   T   T   T
  0.0939668548312425  0.4763385029769405  0.1124581391290377   T   T   T
  0.0932111447486396  0.6183888042971404  0.1113179919642454   T   T   T
  0.0931772562714387  0.7607103454480433  0.1108688249754398   T   T   T
  0.2363813349799314  0.9031517273952417  0.1099933035168166   T   T   T
  0.2369023480968754  0.0460446166126410  0.1101337953764884   T   T   T
  0.2393825983688413  0.1908016985308979  0.1117685584841928   T   T   T
  0.2379793516925159  0.3321530260568517  0.1151849702075546   T   T   T
  0.2374467145308640  0.4762912823401466  0.1158629269498623   T   T   T
  0.2370644755030734  0.6187785738362407  0.1128168115131350   T   T   T
  0.2364107810979615  0.7608582438931594  0.1107252071927523   T   T   T
  0.3796169185229287  0.9034606421791922  0.1097785116081363   T   T   T
  0.3794225473908934  0.0451510553023889  0.1096684417625901   T   T   T
  0.3794608477373901  0.1871573042327391  0.1120538462512157   T   T   T
  0.3850573761866006  0.3342822147884019  0.1086301837045830   T   T   T
  0.3760457219273936  0.4722302642117642  0.1091228042982866   T   T   T
  0.3811138298744807  0.6196195418086307  0.1127489719750377   T   T   T
  0.3800328166618346  0.7617810585375016  0.1126688755930129   T   T   T
  0.5235587398857318  0.9055920256923677  0.1111743290689695   T   T   T
  0.5231398491156891  0.0458727266353562  0.1085255871339197   T   T   T
  0.5227453287929988  0.1857085008034178  0.1130597774656535   T   T   T
  0.5221704669933969  0.3234441574268336  0.1207976070042652   T   T   T
  0.5521630474363171  0.4666895927937824  0.0923162223066690   T   T   T
  0.5301157385671900  0.6316104551170866  0.1078131391494216   T   T   T
  0.5243143471007554  0.7657378739384355  0.1174249484913041   T   T   T
  0.6678632472594282  0.9084182756655789  0.1126324835341531   T   T   T
  0.6670785230464569  0.0484894099327639  0.1088498131077490   T   T   T
  0.6665247294006911  0.1890205244436323  0.1099158057750623   T   T   T
  0.6658153162684888  0.3292727568745134  0.1160253524663659   T   T   T
  0.6565541334626825  0.4665985311661264  0.1131457722053190   T   T   T
  0.6732884051798992  0.6362683464587504  0.1061542912774275   T   T   T
  0.6705891354879302  0.7706522304280939  0.1181073364488528   T   T   T
  0.8118575343220472  0.9089225319886616  0.1120717227360256   T   T   T
  0.8107432359778862  0.0499063389355964  0.1094478748501360   T   T   T
  0.8100002507338451  0.1913529329610054  0.1092752955779438   T   T   T
  0.8088600328788665  0.3331572968975071  0.1107087219082901   T   T   T
  0.8039582111370014  0.4750570254906935  0.1120648086143802   T   T   T
  0.8059030819162857  0.6178755238399037  0.1105348682329209   T   T   T
  0.8112651515201016  0.7658635960554904  0.1126396853165664   T   T   T

  0.00000000E+00  0.00000000E+00  0.00000000E+00
  0.00000000E+00  0.00000000E+00  0.00000000E+00
  0.00000000E+00  0.00000000E+00  0.00000000E+00
  0.00000000E+00  0.00000000E+00  0.00000000E+00
  0.00000000E+00  0.00000000E+00  0.00000000E+00
  0.00000000E+00  0.00000000E+00  0.00000000E+00
  0.00000000E+00  0.00000000E+00  0.00000000E+00
  0.00000000E+00  0.00000000E+00  0.00000000E+00
  0.00000000E+00  0.00000000E+00  0.00000000E+00
  0.00000000E+00  0.00000000E+00  0.00000000E+00
  0.00000000E+00  0.00000000E+00  0.00000000E+00
  0.00000000E+00  0.00000000E+00  0.00000000E+00
  0.00000000E+00  0.00000000E+00  0.00000000E+00
  0.00000000E+00  0.00000000E+00  0.00000000E+00
  0.00000000E+00  0.00000000E+00  0.00000000E+00
  0.00000000E+00  0.00000000E+00  0.00000000E+00
  0.00000000E+00  0.00000000E+00  0.00000000E+00
  0.00000000E+00  0.00000000E+00  0.00000000E+00
  0.00000000E+00  0.00000000E+00  0.00000000E+00
  0.00000000E+00  0.00000000E+00  0.00000000E+00
  0.00000000E+00  0.00000000E+00  0.00000000E+00
  0.00000000E+00  0.00000000E+00  0.00000000E+00
  0.00000000E+00  0.00000000E+00  0.00000000E+00
  0.00000000E+00  0.00000000E+00  0.00000000E+00
  0.00000000E+00  0.00000000E+00  0.00000000E+00
  0.00000000E+00  0.00000000E+00  0.00000000E+00
  0.00000000E+00  0.00000000E+00  0.00000000E+00
  0.00000000E+00  0.00000000E+00  0.00000000E+00
  0.00000000E+00  0.00000000E+00  0.00000000E+00
  0.00000000E+00  0.00000000E+00  0.00000000E+00
  0.00000000E+00  0.00000000E+00  0.00000000E+00
  0.00000000E+00  0.00000000E+00  0.00000000E+00
  0.00000000E+00  0.00000000E+00  0.00000000E+00
  0.00000000E+00  0.00000000E+00  0.00000000E+00
  0.00000000E+00  0.00000000E+00  0.00000000E+00
  0.00000000E+00  0.00000000E+00  0.00000000E+00
  0.00000000E+00  0.00000000E+00  0.00000000E+00
  0.00000000E+00  0.00000000E+00  0.00000000E+00
  0.00000000E+00  0.00000000E+00  0.00000000E+00
  0.00000000E+00  0.00000000E+00  0.00000000E+00
  0.00000000E+00  0.00000000E+00  0.00000000E+00
  0.00000000E+00  0.00000000E+00  0.00000000E+00
  0.00000000E+00  0.00000000E+00  0.00000000E+00
  0.00000000E+00  0.00000000E+00  0.00000000E+00
  0.00000000E+00  0.00000000E+00  0.00000000E+00
  0.00000000E+00  0.00000000E+00  0.00000000E+00
  0.00000000E+00  0.00000000E+00  0.00000000E+00
  0.00000000E+00  0.00000000E+00  0.00000000E+00
  0.00000000E+00  0.00000000E+00  0.00000000E+00
  0.00000000E+00  0.00000000E+00  0.00000000E+00
  0.00000000E+00  0.00000000E+00  0.00000000E+00
  0.00000000E+00  0.00000000E+00  0.00000000E+00
  0.00000000E+00  0.00000000E+00  0.00000000E+00
  0.00000000E+00  0.00000000E+00  0.00000000E+00
  0.00000000E+00  0.00000000E+00  0.00000000E+00
  0.00000000E+00  0.00000000E+00  0.00000000E+00
  0.00000000E+00  0.00000000E+00  0.00000000E+00
  0.00000000E+00  0.00000000E+00  0.00000000E+00
  0.00000000E+00  0.00000000E+00  0.00000000E+00
  0.00000000E+00  0.00000000E+00  0.00000000E+00
  0.00000000E+00  0.00000000E+00  0.00000000E+00
  0.00000000E+00  0.00000000E+00  0.00000000E+00
  0.00000000E+00  0.00000000E+00  0.00000000E+00
  0.00000000E+00  0.00000000E+00  0.00000000E+00
  0.00000000E+00  0.00000000E+00  0.00000000E+00
  0.00000000E+00  0.00000000E+00  0.00000000E+00
  0.00000000E+00  0.00000000E+00  0.00000000E+00
  0.00000000E+00  0.00000000E+00  0.00000000E+00
  0.00000000E+00  0.00000000E+00  0.00000000E+00
  0.00000000E+00  0.00000000E+00  0.00000000E+00
  0.00000000E+00  0.00000000E+00  0.00000000E+00
  0.00000000E+00  0.00000000E+00  0.00000000E+00
  0.00000000E+00  0.00000000E+00  0.00000000E+00
  0.00000000E+00  0.00000000E+00  0.00000000E+00
  0.00000000E+00  0.00000000E+00  0.00000000E+00
  0.00000000E+00  0.00000000E+00  0.00000000E+00
  0.00000000E+00  0.00000000E+00  0.00000000E+00
  0.00000000E+00  0.00000000E+00  0.00000000E+00
  0.00000000E+00  0.00000000E+00  0.00000000E+00
  0.00000000E+00  0.00000000E+00  0.00000000E+00
  0.00000000E+00  0.00000000E+00  0.00000000E+00
  0.00000000E+00  0.00000000E+00  0.00000000E+00
  0.00000000E+00  0.00000000E+00  0.00000000E+00
  0.00000000E+00  0.00000000E+00  0.00000000E+00
  0.00000000E+00  0.00000000E+00  0.00000000E+00
  0.00000000E+00  0.00000000E+00  0.00000000E+00
  0.00000000E+00  0.00000000E+00  0.00000000E+00
  0.00000000E+00  0.00000000E+00  0.00000000E+00
  0.00000000E+00  0.00000000E+00  0.00000000E+00
  0.00000000E+00  0.00000000E+00  0.00000000E+00
  0.00000000E+00  0.00000000E+00  0.00000000E+00
  0.00000000E+00  0.00000000E+00  0.00000000E+00
  0.00000000E+00  0.00000000E+00  0.00000000E+00
  0.00000000E+00  0.00000000E+00  0.00000000E+00
  0.00000000E+00  0.00000000E+00  0.00000000E+00
  0.00000000E+00  0.00000000E+00  0.00000000E+00
  0.00000000E+00  0.00000000E+00  0.00000000E+00
