In B N                                  
   1.0000000000000000     
     8.7639499999999995  -15.1796066749929999    0.0000000000000000
     8.7639499999999995   15.1796066749929999    0.0000000000000000
     0.0000000000000000    0.0000000000000000   15.0000000000000000
   In   B    N 
     1    48    48
Selective dynamics
Direct
  0.4343780480956664  0.5029042266718352  0.1113838839045348   T   T   T
  0.9051529072790971  0.9527665981159724  0.1110044937403931   T   T   T
  0.9059949033479024  0.0961030959644651  0.1110313821201365   T   T   T
  0.9062402347054068  0.2388344641982060  0.1110857576987312   T   T   T
  0.9059949033479024  0.3813205010744333  0.1110313821201365   T   T   T
  0.9051529072790971  0.5238167144111268  0.1110044937403931   T   T   T
  0.9036781482812702  0.6662241475003380  0.1110506100882918   T   T   T
  0.9036781482812702  0.8088844060289332  0.1110506100882918   T   T   T
  0.0469307000521710  0.9516407416147191  0.1110090470889914   T   T   T
  0.0477162579676582  0.0948116046342783  0.1109990471980119   T   T   T
  0.0487585868457014  0.2386634592975583  0.1110164934301183   T   T   T
  0.0487585868457014  0.3815255327951437  0.1110164934301183   T   T   T
  0.0477162579676582  0.5243350585813754  0.1109990471980119   T   T   T
  0.0469307000521710  0.6667220752414494  0.1110090470889914   T   T   T
  0.0466610094662041  0.8090465631351033  0.1109760858991966   T   T   T
  0.1897480065562490  0.9515533592420463  0.1109957205430001   T   T   T
  0.1899461223563116  0.0937568188430621  0.1110558076925271   T   T   T
  0.1899674072808956  0.2363843777612172  0.1110178261233618   T   T   T
  0.1918625193819760  0.3816464623144877  0.1110088379473694   T   T   T
  0.1899674072808956  0.5250134347676796  0.1110178261233618   T   T   T
  0.1899461223563116  0.6676197087612435  0.1110558076925271   T   T   T
  0.1897480065562490  0.8096267641182059  0.1109957205430001   T   T   T
  0.3330539350609937  0.9522430259319999  0.1110237487030083   T   T   T
  0.3331208852180136  0.0929101112821110  0.1110697107791552   T   T   T
  0.3332742270036419  0.2331634323333697  0.1110500306135538   T   T   T
  0.3305541691005530  0.3698544667724701  0.1111283314571975   T   T   T
  0.3305541691005530  0.5321301075750839  0.1111283314571975   T   T   T
  0.3332742270036419  0.6715411999172716  0.1110500306135538   T   T   T
  0.3331208852180136  0.8116411791829022  0.1110697107791552   T   T   T
  0.4768207172597640  0.9540162935814224  0.1110041867763498   T   T   T
  0.4768207172597640  0.0942348289253421  0.1110041867763498   T   T   T
  0.4770217559207557  0.2342680999117663  0.1110207087931133   T   T   T
  0.4784791370953956  0.3743228386974981  0.1110347508492657   T   T   T
  0.4784791370953956  0.6755867036448971  0.1110347508492657   T   T   T
  0.4770217559207557  0.8141840612559956  0.1110207087931133   T   T   T
  0.6205252992433025  0.9545229216466358  0.1109905584163316   T   T   T
  0.6204179044636254  0.0959232990773080  0.1109838220568643   T   T   T
  0.6205252992433025  0.2374327828436670  0.1109905584163316   T   T   T
  0.6206657135440908  0.3792867729492504  0.1109993351814719   T   T   T
  0.6185985539083211  0.5208611056044001  0.1110199005054467   T   T   T
  0.6185985539083211  0.6691678535519151  0.1110199005054467   T   T   T
  0.6206657135440908  0.8128093458418405  0.1109993351814719   T   T   T
  0.7633280322700891  0.9540168854534574  0.1109839355873218   T   T   T
  0.7634810960866896  0.0963973244791637  0.1110274416894091   T   T   T
  0.7634810960866896  0.2385124652985231  0.1110274416894091   T   T   T
  0.7633280322700891  0.3807415520636304  0.1109839355873218   T   T   T
  0.7625237339176261  0.5231304707355817  0.1110396475531888   T   T   T
  0.7596434074153026  0.6655369063316492  0.1110952415770932   T   T   T
  0.7625237339176261  0.8108236684300451  0.1110396475531888   T   T   T
  0.9519276890241551  0.9043563183083834  0.1110061612021135   T   T   T
  0.9528428111797028  0.0478454465067381  0.1109825583515137   T   T   T
  0.9535598696336187  0.1911481154856626  0.1110379160591157   T   T   T
  0.9535598696336187  0.3338387362659541  0.1110379160591157   T   T   T
  0.9528428111797028  0.4764243467909625  0.1109825583515137   T   T   T
  0.9519276890241551  0.6190000643907687  0.1110061612021135   T   T   T
  0.9516158242677515  0.7615222589713755  0.1110074527950968   T   T   T
  0.0945139457120465  0.9040872830766590  0.1109614546364366   T   T   T
  0.0947045287390731  0.0465837454689159  0.1110002147188795   T   T   T
  0.0950031216396181  0.1896161780523514  0.1109762581879074   T   T   T
  0.0960802393288629  0.3337544665014323  0.1109808300861427   T   T   T
  0.0950031216396181  0.4768156372612676  0.1109762581879074   T   T   T
  0.0947045287390731  0.6195494769451592  0.1110002147188795   T   T   T
  0.0945139457120465  0.7618570678663936  0.1109614546364366   T   T   T
  0.2376409620244360  0.9045356836277162  0.1109714036156319   T   T   T
  0.2376371526141856  0.0461353671989364  0.1110349898515724   T   T   T
  0.2374797689820559  0.1880500088177021  0.1110424287359976   T   T   T
  0.2368022848046254  0.3310309908542766  0.1110302067072894   T   T   T
  0.2368022848046254  0.4771999876243431  0.1110302067072894   T   T   T
  0.2374797689820559  0.6208584538393501  0.1110424287359976   T   T   T
  0.2376371526141856  0.7629304790902525  0.1110349898515724   T   T   T
  0.3813476494778712  0.9062581264883545  0.1110213978750873   T   T   T
  0.3813476494778712  0.0465182166645198  0.1110213978750873   T   T   T
  0.3814507926052645  0.1865536085161108  0.1110347334586684   T   T   T
  0.3816405339469696  0.3258531888445785  0.1110326612460432   T   T   T
  0.3816405339469696  0.6272160387773860  0.1110326612460432   T   T   T
  0.3814507926052645  0.7663258777641562  0.1110347334586684   T   T   T
  0.5253375742542123  0.9084771194491704  0.1109829038941736   T   T   T
  0.5251814514481097  0.0483042167835582  0.1109681514312506   T   T   T
  0.5253375742542123  0.1882891484800456  0.1109829038941736   T   T   T
  0.5258660606875866  0.3276219319243681  0.1110028450902127   T   T   T
  0.5273895375131934  0.4659637342073055  0.1109914878138860   T   T   T
  0.5273895375131934  0.6328544969808819  0.1109914878138860   T   T   T
  0.5258660606875866  0.7696728224382210  0.1110028450902127   T   T   T
  0.6686568026691255  0.9078413132483881  0.1109704127821893   T   T   T
  0.6684867898618952  0.0492772163379222  0.1109748032180997   T   T   T
  0.6684867898618952  0.1906365556429800  0.1109748032180997   T   T   T
  0.6686568026691255  0.3322441830957408  0.1109704127821893   T   T   T
  0.6686510753982148  0.4746525484803555  0.1109946579638097   T   T   T
  0.6648808125177302  0.6181547530968613  0.1110362268237956   T   T   T
  0.6686510753982148  0.7654272205928614  0.1109946579638097   T   T   T
  0.8105979117156462  0.9061759573759819  0.1109870226835212   T   T   T
  0.8110872303181976  0.0490596033465578  0.1109966165077334   T   T   T
  0.8111919165171407  0.1913094493175732  0.1110601667359162   T   T   T
  0.8110872303181976  0.3334546090896459  0.1109966165077334   T   T   T
  0.8105979117156462  0.4758506480136667  0.1109870226835212   T   T   T
  0.8088717535821522  0.6186178565771794  0.1110705749907930   T   T   T
  0.8088717535821522  0.7616825906799733  0.1110705749907930   T   T   T

  0.00000000E+00  0.00000000E+00  0.00000000E+00
  0.00000000E+00  0.00000000E+00  0.00000000E+00
  0.00000000E+00  0.00000000E+00  0.00000000E+00
  0.00000000E+00  0.00000000E+00  0.00000000E+00
  0.00000000E+00  0.00000000E+00  0.00000000E+00
  0.00000000E+00  0.00000000E+00  0.00000000E+00
  0.00000000E+00  0.00000000E+00  0.00000000E+00
  0.00000000E+00  0.00000000E+00  0.00000000E+00
  0.00000000E+00  0.00000000E+00  0.00000000E+00
  0.00000000E+00  0.00000000E+00  0.00000000E+00
  0.00000000E+00  0.00000000E+00  0.00000000E+00
  0.00000000E+00  0.00000000E+00  0.00000000E+00
  0.00000000E+00  0.00000000E+00  0.00000000E+00
  0.00000000E+00  0.00000000E+00  0.00000000E+00
  0.00000000E+00  0.00000000E+00  0.00000000E+00
  0.00000000E+00  0.00000000E+00  0.00000000E+00
  0.00000000E+00  0.00000000E+00  0.00000000E+00
  0.00000000E+00  0.00000000E+00  0.00000000E+00
  0.00000000E+00  0.00000000E+00  0.00000000E+00
  0.00000000E+00  0.00000000E+00  0.00000000E+00
  0.00000000E+00  0.00000000E+00  0.00000000E+00
  0.00000000E+00  0.00000000E+00  0.00000000E+00
  0.00000000E+00  0.00000000E+00  0.00000000E+00
  0.00000000E+00  0.00000000E+00  0.00000000E+00
  0.00000000E+00  0.00000000E+00  0.00000000E+00
  0.00000000E+00  0.00000000E+00  0.00000000E+00
  0.00000000E+00  0.00000000E+00  0.00000000E+00
  0.00000000E+00  0.00000000E+00  0.00000000E+00
  0.00000000E+00  0.00000000E+00  0.00000000E+00
  0.00000000E+00  0.00000000E+00  0.00000000E+00
  0.00000000E+00  0.00000000E+00  0.00000000E+00
  0.00000000E+00  0.00000000E+00  0.00000000E+00
  0.00000000E+00  0.00000000E+00  0.00000000E+00
  0.00000000E+00  0.00000000E+00  0.00000000E+00
  0.00000000E+00  0.00000000E+00  0.00000000E+00
  0.00000000E+00  0.00000000E+00  0.00000000E+00
  0.00000000E+00  0.00000000E+00  0.00000000E+00
  0.00000000E+00  0.00000000E+00  0.00000000E+00
  0.00000000E+00  0.00000000E+00  0.00000000E+00
  0.00000000E+00  0.00000000E+00  0.00000000E+00
  0.00000000E+00  0.00000000E+00  0.00000000E+00
  0.00000000E+00  0.00000000E+00  0.00000000E+00
  0.00000000E+00  0.00000000E+00  0.00000000E+00
  0.00000000E+00  0.00000000E+00  0.00000000E+00
  0.00000000E+00  0.00000000E+00  0.00000000E+00
  0.00000000E+00  0.00000000E+00  0.00000000E+00
  0.00000000E+00  0.00000000E+00  0.00000000E+00
  0.00000000E+00  0.00000000E+00  0.00000000E+00
  0.00000000E+00  0.00000000E+00  0.00000000E+00
  0.00000000E+00  0.00000000E+00  0.00000000E+00
  0.00000000E+00  0.00000000E+00  0.00000000E+00
  0.00000000E+00  0.00000000E+00  0.00000000E+00
  0.00000000E+00  0.00000000E+00  0.00000000E+00
  0.00000000E+00  0.00000000E+00  0.00000000E+00
  0.00000000E+00  0.00000000E+00  0.00000000E+00
  0.00000000E+00  0.00000000E+00  0.00000000E+00
  0.00000000E+00  0.00000000E+00  0.00000000E+00
  0.00000000E+00  0.00000000E+00  0.00000000E+00
  0.00000000E+00  0.00000000E+00  0.00000000E+00
  0.00000000E+00  0.00000000E+00  0.00000000E+00
  0.00000000E+00  0.00000000E+00  0.00000000E+00
  0.00000000E+00  0.00000000E+00  0.00000000E+00
  0.00000000E+00  0.00000000E+00  0.00000000E+00
  0.00000000E+00  0.00000000E+00  0.00000000E+00
  0.00000000E+00  0.00000000E+00  0.00000000E+00
  0.00000000E+00  0.00000000E+00  0.00000000E+00
  0.00000000E+00  0.00000000E+00  0.00000000E+00
  0.00000000E+00  0.00000000E+00  0.00000000E+00
  0.00000000E+00  0.00000000E+00  0.00000000E+00
  0.00000000E+00  0.00000000E+00  0.00000000E+00
  0.00000000E+00  0.00000000E+00  0.00000000E+00
  0.00000000E+00  0.00000000E+00  0.00000000E+00
  0.00000000E+00  0.00000000E+00  0.00000000E+00
  0.00000000E+00  0.00000000E+00  0.00000000E+00
  0.00000000E+00  0.00000000E+00  0.00000000E+00
  0.00000000E+00  0.00000000E+00  0.00000000E+00
  0.00000000E+00  0.00000000E+00  0.00000000E+00
  0.00000000E+00  0.00000000E+00  0.00000000E+00
  0.00000000E+00  0.00000000E+00  0.00000000E+00
  0.00000000E+00  0.00000000E+00  0.00000000E+00
  0.00000000E+00  0.00000000E+00  0.00000000E+00
  0.00000000E+00  0.00000000E+00  0.00000000E+00
  0.00000000E+00  0.00000000E+00  0.00000000E+00
  0.00000000E+00  0.00000000E+00  0.00000000E+00
  0.00000000E+00  0.00000000E+00  0.00000000E+00
  0.00000000E+00  0.00000000E+00  0.00000000E+00
  0.00000000E+00  0.00000000E+00  0.00000000E+00
  0.00000000E+00  0.00000000E+00  0.00000000E+00
  0.00000000E+00  0.00000000E+00  0.00000000E+00
  0.00000000E+00  0.00000000E+00  0.00000000E+00
  0.00000000E+00  0.00000000E+00  0.00000000E+00
  0.00000000E+00  0.00000000E+00  0.00000000E+00
  0.00000000E+00  0.00000000E+00  0.00000000E+00
  0.00000000E+00  0.00000000E+00  0.00000000E+00
  0.00000000E+00  0.00000000E+00  0.00000000E+00
  0.00000000E+00  0.00000000E+00  0.00000000E+00
  0.00000000E+00  0.00000000E+00  0.00000000E+00
