 N Ga B 
 1.0
 14.936314146199660   0.000000000000000   0.000000000000000
 -7.468157073099825  12.935227489513863   0.000000000000000
  0.000000000000001   0.000000000000001  13.341276283792837
 N Ga B 
 143   1 143
Cartesian
  1.243889115110855   0.718353001803965   1.665684880995558 
  4.979309682038155   7.192810228211949   1.662933670448990 
  6.224056748931061   0.718723476560528   1.664058370493471 
  9.957753899920409   7.185889803967348   1.663650913052622 
 11.202942390485692   0.719031809523351   1.665623083271536 
 -3.734147803771027   9.342068750977894   8.340200361419878 
  1.245075472429936   9.342572017394682   8.341898842351156 
  2.487176507533257   2.873049160679524   8.348659292812282 
  6.223417890205966   9.344887041229345   8.350488406585379 
  7.470740937552423   2.873070503342978   8.351226372126783 
 12.447073020977999   2.874048485156324   8.339668471967418 
 -1.244445918087801   9.342114523246005   1.666007903319678 
 -0.001418589886506   2.873675974416865   1.665273816473760 
  4.979284829518869   2.874621452753430   1.663056611230733 
  3.734136820501717   9.345058681845886   1.654730840717831 
  8.712654377958167   9.342465436485687   1.663650913052622 
  9.959336489320096   2.873518942028719   1.664358943413406 
 -4.979000739717836  11.498228059102379   8.340211280530699 
  0.000448840579045  11.498239128908102   8.340472549002559 
  1.242336122203390   5.029175955384488   8.348659292812282 
  6.229425532217898   5.027546060353461   8.343023542395638 
  4.978822955679463  11.500021430078762   8.341598269431236 
 11.202905510065737   5.029717209760134   8.340018400466588 
 -1.245329185030777   5.029805568779536   1.665684880995558 
 -2.489257220982425  11.498190945695519   1.666007903319678 
  2.489739443412519  11.499086529676854   1.665102365627517 
  3.728215404514914   5.026981165063326   1.674730746509101 
  7.467929941503653  11.498884659538161   1.665938812378051 
  8.715232827270309   5.028936967174829   1.655468806259249 
  0.000139163184094   7.186122493968202   8.341269475800006 
  1.243889115110855   0.718353001803966   8.340272331849057 
  4.979309682038156   7.192810228211950   8.343023542395638 
  6.224056748931062   0.718723476560529   8.341898842351156 
  9.957753899920409   7.185889803967349   8.342306299792005 
 -2.489285536302353   7.185914830410051   1.665745932313928 
 11.202942390485692   0.719031809523352   8.340334129573092 
  3.734048525041951   0.718801768373264   1.664687737044622 
  2.489751928074324   7.186618925169775   1.663056611230733 
  7.468596984282843   7.186491477014332   1.658775959638471 
  8.713985085688540   0.718376838465531   1.665102365627517 
  2.489751928074325   7.186618925169776   8.342900601613895 
 13.691306892409070   0.718972203339574   1.666288740877223 
 -1.244445918087801   9.342114523246005   8.339949309524963 
 -0.001418589886505   2.873675974416866   8.340683396370867 
  4.979284829518870   2.874621452753431   8.342900601613895 
  3.734136820501717   9.345058681845886   8.351226372126783 
  8.712654377958167   9.342465436485687   8.342306299792005 
  9.959336489320096   2.873518942028720   8.341598269431236 
 -3.734147803771028   9.342068750977894   1.665756851424762 
  1.245075472429935   9.342572017394682   1.664058370493471 
  2.487176507533257   2.873049160679523   1.657297920032319 
  6.223417890205965   9.344887041229345   1.655468806259249 
  7.470740937552422   2.873070503342977   1.654730840717831 
 12.447073020977999   2.874048485156323   1.666288740877223 
 -1.245329185030776   5.029805568779537   8.340272331849057 
 -2.489257220982424  11.498190945695519   8.339949309524963 
  2.489739443412520  11.499086529676854   8.340854847217125 
  3.728215404514914   5.026981165063327   8.331226466335528 
  7.467929941503654  11.498884659538161   8.340018400466588 
 -4.979000739717836  11.498228059102379   1.665745932313928 
  8.715232827270309   5.028936967174830   8.350488406585379 
  0.000448840579044  11.498239128908102   1.665484663842070 
  1.242336122203390   5.029175955384487   1.657297920032319 
  0.000139163184094   7.186122493968201   1.664687737044622 
  6.229425532217897   5.027546060353460   1.662933670448990 
  4.978822955679462  11.500021430078762   1.664358943413406 
 11.202905510065737   5.029717209760133   1.665938812378051 
 -2.489285536302353   7.185914830410052   8.340211280530699 
  3.734048525041951   0.718801768373264   8.341269475800006 
  7.468596984282844   7.186491477014333   8.347181253206157 
  8.713985085688540   0.718376838465531   8.340854847217125 
 13.691306892409070   0.718972203339574   8.339668471967418 
  0.031651623015129   1.456387500472366   5.002978606422314 
  3.684971661043444   8.002456094942252   5.002978606422314 
  5.013209047593116   1.363928375942613   5.002978606422314 
  8.699286487228523   7.897030392828932   5.002978606422314 
  9.986753236702379   1.442597473988051   5.002978606422314 
 -4.978073902648988  10.061096543824668  11.673616748318732 
  0.000014870341624  10.061052312208959  11.673616748318732 
  1.245317208728703   3.593479223355765  11.673616748318732 
  4.979146610876078  10.060620367401267  11.673616748318732 
  6.223527813966927   3.592936280250043  11.673616748318732 
 11.202487652319702   3.593456448902161  11.673616748318732 
 -2.499017775473348  10.055171405299813   5.002978606422314 
 -1.212291306362548   3.610959855870583   5.002978606422314 
  3.814906237611750   3.494392795526144   5.002978606422314 
  2.474079185484554  10.109760022714038   5.002978606422314 
  7.468912915433082  10.063753683588514   5.002978606422314 
  8.744647994663264   3.582780555253120   5.002978606422314 
 -6.223030568203790  12.216735187064028  11.673616748318732 
 -1.244408437785235  12.216456708007634  11.673616748318732 
  0.000254797779770   5.749425997273058  11.673616748318732 
  4.979081779792883   5.749169203550308  11.673616748318732 
  3.734364175073495  12.216646749009156  11.673616748318732 
  9.958027422854069   5.749493223117033  11.673616748318732 
 -2.485936889883161   5.758712491718541   5.002978606422314 
 -3.731412895213815  12.193017627479060   5.002978606422314 
  1.256510590476621  12.223426718330247   5.002978606422314 
  2.444300359499531   5.868351813569080   5.002978606422314 
  6.244947558962877  12.236656573457203   5.002978606422314 
  7.465795603755067   5.733254339155789   5.002978606422314 
 -1.244626066444452   7.905229177845228  11.673616748318732 
  0.000482999167496   1.437472641532293  11.673616748318732 
  3.733952308825445   7.905007544434074  11.673616748318732 
  4.979109751750553   1.436765829394061  11.673616748318732 
  8.713978854267573   7.905513034893908  11.673616748318732 
 -3.745808509969162   7.903867406535344   5.002978606422314 
  9.957722830205901   1.437473364596233  11.673616748318732 
  2.511789032905301   1.422703772745942   5.002978606422314 
  1.198415455271960   7.971344698231097   5.002978606422314 
  6.208656014910493   7.910683979240856   5.002978606422314 
  7.502962907543624   1.399477910751583   5.002978606422314 
  1.244444892386598   7.905395115054550  11.673616748318732 
 12.477565640656408   1.454935886124826   5.002978606422314 
 -2.489036458264424  10.060934121477237  11.673616748318732 
 -1.244256366637468   3.593424465287567  11.673616748318732 
  3.734765337579437   3.592954001251783  11.673616748318732 
  2.489426458275635  10.060864294900004  11.673616748318732 
  7.468835210499541  10.060900604719889  11.673616748318732 
  8.712940430405315   3.593499766989922  11.673616748318732 
 -4.985497056914314  10.051070955405594   5.002978606422314 
 -0.015882538007631  10.081007283417641   5.002978606422314 
  1.293006825977814   3.621012836712089   5.002978606422314 
  4.985717283332447  10.093439529409162   5.002978606422314 
  6.283430410377989   3.501793519722908   5.002978606422314 
 11.230343538447841   3.601697441139578   5.002978606422314 
 -2.489055024930352   5.749299831894787  11.673616748318732 
 -3.733726506603451  12.216477605342702  11.673616748318732 
  1.244882871583671  12.216713451697352  11.673616748318732 
  2.489586417469393   5.749667155396142  11.673616748318732 
  6.223882707268828  12.216653164543994  11.673616748318732 
 -6.213319898155643  12.214729241315448   5.002978606422314 
  7.468767001334826   5.749695523034713  11.673616748318732 
 -1.235075629961364  12.192711662918516   5.002978606422314 
 -0.001393565322704   5.775663721574836   5.002978606422314 
 -1.263786197551761   7.918962813014948   5.002978606422314 
  3.753316987226805  12.239225763821409   5.002978606422314 
  9.960537114100058   5.748133978129192   5.002978606422314 
 -3.733414518577689   7.905283252495777  11.673616748318732 
  2.489890678673706   1.437250159218235  11.673616748318732 
  6.224380196607812   7.905036693090208  11.673616748318732 
  7.468291601515673   1.437216902774501  11.673616748318732 
 12.447288004516679   1.437455084749139  11.673616748318732 
  4.294380765250063   5.353856888489600   5.002978606422314 
  1.271229581974391   0.723261769752033   5.002978606422314 
  4.917962176392446   7.242927708425365   5.002978606422314 
  6.253122722169389   0.684087110691780   5.002978606422314 
  9.942857195489690   7.183749859895408   5.002978606422314 
 11.231549092088184   0.735547896394170   5.002978606422314 
 -3.733822749778569   9.342256420987932  11.673616748318732 
  1.245244437643942   9.341323874172488  11.673616748318732 
  2.491527534059422   2.876086880858753  11.673616748318732 
  6.223600566164301   9.340121887153083  11.673616748318732 
  7.466586335239675   2.875987793941751  11.673616748318732 
 12.447415421741820   2.875178583528054  11.673616748318732 
 -1.253031872861015   9.349894639744608   5.002978606422314 
  0.055347361658869   2.906449811822394   5.002978606422314 
  5.019969315818731   2.796488577838248   5.002978606422314 
  3.718957047327516   9.397008177883668   5.002978606422314 
  8.703352779813844   9.330634484051959   5.002978606422314 
  9.984405507460185   2.881367855187204   5.002978606422314 
 -4.978186060444646  11.498188761366251  11.673616748318732 
  0.000051013621229  11.498009443406909  11.673616748318732 
  1.247142378311288   5.031425194799047  11.673616748318732 
  6.222018274972410   5.031498023304557  11.673616748318732 
  4.979144817203141  11.496650321123399  11.673616748318732 
 11.201988420428965   5.031129388196979  11.673616748318732 
 -1.227407833854699   5.051028723660651   5.002978606422314 
 -2.486812419836839  11.486865232496870   5.002978606422314 
  2.500830433704933  11.525689091907079   5.002978606422314 
  7.478569032136297  11.499834927409118   5.002978606422314 
  8.708142903838850   5.027462309130263   5.002978606422314 
  0.001285149978304   7.186505412408486  11.673616748318732 
  1.245961136189026   0.719324194303748  11.673616748318732 
  4.979028553725876   7.184419373789444  11.673616748318732 
  6.223060307800075   0.719493876339324  11.673616748318732 
  9.957192576159393   7.186709712035515  11.673616748318732 
 -2.498542869120256   7.193483579654252   5.002978606422314 
 11.202251800809467   0.718633097387885  11.673616748318732 
  3.749670485430427   0.695868776172782   5.002978606422314 
  2.442429116676995   7.260919161302968   5.002978606422314 
  7.438963962954202   7.169382844173295   5.002978606422314 
  8.742569075531886   0.714680636696763   5.002978606422314 
  2.490814921137988   7.185636182511933  11.673616748318732 
 13.725444068883435   0.740057373152257   5.002978606422314 
 -1.244163377256268   9.342129886854407  11.673616748318732 
  0.001853711481252   2.875565238492403  11.673616748318732 
  4.978965245943634   2.876033403079518  11.673616748318732 
  3.734585967114102   9.340002045401041  11.673616748318732 
  8.713083777293466   9.341569361814804  11.673616748318732 
  9.956577954087656   2.875483236762423  11.673616748318732 
 -3.743240498277816   9.336819081356730   5.002978606422314 
  1.229612486311976   9.385062071539194   5.002978606422314 
  2.559047273114371   2.886531619159920   5.002978606422314 
  6.218595837161723   9.339484316449139   5.002978606422314 
  7.508140634247839   2.833949686131543   5.002978606422314 
 12.482401901916083   2.893069562290242   5.002978606422314 
 -1.243452097114922   5.031114395420531  11.673616748318732 
 -2.489102645291497  11.498427951429047  11.673616748318732 
  2.489552738572987  11.497214163706094  11.673616748318732 
  3.735991943673337   5.031470952039787  11.673616748318732 
  7.468694379086259  11.497384347396737  11.673616748318732 
 -4.977074677006437  11.486426599088686   5.002978606422314 
  8.711197420766469   5.031477746233567  11.673616748318732 
  0.008487011349247  11.502879968966052   5.002978606422314 
  1.289947656543446   5.084676634926959   5.002978606422314 
 -0.011910410452068   7.211118004621763   5.002978606422314 
  6.242154790433514   4.949358821898774   5.002978606422314 
  4.998154822936836  11.517807380056796   5.002978606422314 
 11.209048011498707   5.038455798585693   5.002978606422314 
 -2.488912229503558   7.186640012224635  11.673616748318732 
  3.734953135535929   0.719602762829294  11.673616748318732 
  7.467490505335936   7.185852651096456  11.673616748318732 
  8.712270216772929   0.719151330316841  11.673616748318732 
 13.692456786689679   0.718703681913440  11.673616748318732 
  0.000275187314696   1.438187909665992   1.670863217976755 
  3.739323881155141   7.902183126771178   1.670685105313142 
  4.978800128551152   1.443237047623195   1.670845778553371 
  8.708090529885588   7.902113409226944   1.667348165457633 
  9.957889092410520   1.437573799051915   1.669332369379253 
 -4.980547305777470  10.060306770597457   8.336907223679086 
  0.002177820787414  10.059951660691295   8.336500172710144 
  1.246186269751748   3.593980975971353   8.336662840964431 
  4.978400986222900  10.059953860999324   8.341364260115823 
  6.223767582684827   3.599000407177246   8.335272107531486 
 11.202298096633967   3.592585869740137   8.336121535746392 
 -2.489135312609250  10.060877047894646   1.669277769587133 
 -1.243740832189567   3.592886860876986   1.670863217976755 
  3.733242854297459   3.598478291206401   1.679040320321020 
  2.491668769053467  10.059580077889951   1.666788706662305 
  7.465766522728326  10.059820444319836   1.666414636773223 
  8.711990406602874   3.593187290299525   1.664592952728805 
 -6.224134057060142  12.217636077603201   8.335592559182979 
 -1.244280154737357  12.218880203799658   8.336500172710144 
  0.002884627328627   5.747430559903624   8.336698164956344 
  4.978915426580143   5.749073159478153   8.210586791694562 
  3.734534284965833  12.216740519074216   8.336624843465374 
  9.955557632621849   5.747375741750919   8.339542576071391 
 -2.488826575265573   5.747893737242804   1.670364653661635 
 -3.734215483046269  12.219276629675576   1.669918742365324 
  1.245594083601214  12.217124070147129   1.669692069327272 
  2.493609351266975   5.745586501219802   1.679040320321020 
  6.223033985755658  12.216924294085700   1.669835677098251 
  7.462944664209683   5.745239554774903   1.666915424866813 
 -1.242446528487788   7.903406199657473   8.336038470479318 
  0.000275187314697   1.438187909665992   8.335093994867872 
  3.739323881155141   7.902183126771179   8.335272107531486 
  4.978800128551153   1.443237047623196   8.335111434291269 
  8.708090529885588   7.902113409226945   8.338609047386981 
 -3.735335183819923   7.903536109166316   1.669049989165541 
  9.957889092410520   1.437573799051915   8.336624843465374 
  2.489477493994535   1.440525377099897   1.669259047888284 
  1.249894320166768   7.901891364383689   1.670845778553371 
  6.217610046333773   7.902222385360368   1.666915424866813 
  7.468300592349929   1.439800909376281   1.666788706662305 
  1.249894320166768   7.901891364383690   8.335111434291269 
 12.447255835701846   1.437436512075242   1.669796588774848 
 -2.489135312609250  10.060877047894646   8.336679443257495 
 -1.243740832189566   3.592886860876987   8.335093994867872 
  3.733242854297460   3.598478291206402   8.326916892523595 
  2.491668769053467  10.059580077889951   8.339168506182322 
  7.465766522728327  10.059820444319836   8.339542576071391 
  8.711990406602874   3.593187290299526   8.341364260115823 
 -4.980547305777471  10.060306770597457   1.669049989165541 
  0.002177820787414  10.059951660691295   1.669457040134471 
  1.246186269751747   3.593980975971352   1.669294371880210 
  4.978400986222899  10.059953860999324   1.664592952728805 
  6.223767582684826   3.599000407177245   1.670685105313142 
 11.202298096633967   3.592585869740136   1.669835677098251 
 -2.488826575265573   5.747893737242805   8.335592559182979 
 -3.734215483046269  12.219276629675576   8.336038470479318 
  1.245594083601214  12.217124070147129   8.336265143517355 
  2.493609351266976   5.745586501219803   8.326916892523595 
  6.223033985755658  12.216924294085700   8.336121535746392 
 -6.224134057060143  12.217636077603201   1.670364653661635 
  7.462944664209684   5.745239554774904   8.339041787977814 
 -1.244280154737357  12.218880203799658   1.669457040134471 
  0.002884627328626   5.747430559903624   1.669259047888284 
 -1.242446528487788   7.903406199657472   1.669918742365324 
  4.978915426580142   5.749073159478152   1.795370421150052 
  3.734534284965832  12.216740519074216   1.669332369379253 
  9.955557632621849   5.747375741750918   1.666414636773223 
 -3.735335183819922   7.903536109166317   8.336907223679086 
  2.489477493994535   1.440525377099897   8.336698164956344 
  6.217610046333774   7.902222385360369   8.339041787977814 
  7.468300592349930   1.439800909376281   8.339168506182322 
 12.447255835701846   1.437436512075243   8.336160624069780 
Generated by cif2cell 2.0.0.  :  Failed to get author information, No journal information. Species order: N Ga B 
 1.0
 14.936314146199660   0.000000000000000   0.000000000000000
 -7.468157073099825  12.935227489513863   0.000000000000000
  0.000000000000001   0.000000000000001  13.341276283792837
 N Ga B 
 143   1 143
Cartesian
  1.243889115110855   0.718353001803965   1.665684880995558 
  4.979309682038155   7.192810228211949   1.662933670448990 
  6.224056748931061   0.718723476560528   1.664058370493471 
  9.957753899920409   7.185889803967348   1.663650913052622 
 11.202942390485692   0.719031809523351   1.665623083271536 
 -3.734147803771027   9.342068750977894   8.340200361419878 
  1.245075472429936   9.342572017394682   8.341898842351156 
  2.487176507533257   2.873049160679524   8.348659292812282 
  6.223417890205966   9.344887041229345   8.350488406585379 
  7.470740937552423   2.873070503342978   8.351226372126783 
 12.447073020977999   2.874048485156324   8.339668471967418 
 -1.244445918087801   9.342114523246005   1.666007903319678 
 -0.001418589886506   2.873675974416865   1.665273816473760 
  4.979284829518869   2.874621452753430   1.663056611230733 
  3.734136820501717   9.345058681845886   1.654730840717831 
  8.712654377958167   9.342465436485687   1.663650913052622 
  9.959336489320096   2.873518942028719   1.664358943413406 
 -4.979000739717836  11.498228059102379   8.340211280530699 
  0.000448840579045  11.498239128908102   8.340472549002559 
  1.242336122203390   5.029175955384488   8.348659292812282 
  6.229425532217898   5.027546060353461   8.343023542395638 
  4.978822955679463  11.500021430078762   8.341598269431236 
 11.202905510065737   5.029717209760134   8.340018400466588 
 -1.245329185030777   5.029805568779536   1.665684880995558 
 -2.489257220982425  11.498190945695519   1.666007903319678 
  2.489739443412519  11.499086529676854   1.665102365627517 
  3.728215404514914   5.026981165063326   1.674730746509101 
  7.467929941503653  11.498884659538161   1.665938812378051 
  8.715232827270309   5.028936967174829   1.655468806259249 
  0.000139163184094   7.186122493968202   8.341269475800006 
  1.243889115110855   0.718353001803966   8.340272331849057 
  4.979309682038156   7.192810228211950   8.343023542395638 
  6.224056748931062   0.718723476560529   8.341898842351156 
  9.957753899920409   7.185889803967349   8.342306299792005 
 -2.489285536302353   7.185914830410051   1.665745932313928 
 11.202942390485692   0.719031809523352   8.340334129573092 
  3.734048525041951   0.718801768373264   1.664687737044622 
  2.489751928074324   7.186618925169775   1.663056611230733 
  7.468596984282843   7.186491477014332   1.658775959638471 
  8.713985085688540   0.718376838465531   1.665102365627517 
  2.489751928074325   7.186618925169776   8.342900601613895 
 13.691306892409070   0.718972203339574   1.666288740877223 
 -1.244445918087801   9.342114523246005   8.339949309524963 
 -0.001418589886505   2.873675974416866   8.340683396370867 
  4.979284829518870   2.874621452753431   8.342900601613895 
  3.734136820501717   9.345058681845886   8.351226372126783 
  8.712654377958167   9.342465436485687   8.342306299792005 
  9.959336489320096   2.873518942028720   8.341598269431236 
 -3.734147803771028   9.342068750977894   1.665756851424762 
  1.245075472429935   9.342572017394682   1.664058370493471 
  2.487176507533257   2.873049160679523   1.657297920032319 
  6.223417890205965   9.344887041229345   1.655468806259249 
  7.470740937552422   2.873070503342977   1.654730840717831 
 12.447073020977999   2.874048485156323   1.666288740877223 
 -1.245329185030776   5.029805568779537   8.340272331849057 
 -2.489257220982424  11.498190945695519   8.339949309524963 
  2.489739443412520  11.499086529676854   8.340854847217125 
  3.728215404514914   5.026981165063327   8.331226466335528 
  7.467929941503654  11.498884659538161   8.340018400466588 
 -4.979000739717836  11.498228059102379   1.665745932313928 
  8.715232827270309   5.028936967174830   8.350488406585379 
  0.000448840579044  11.498239128908102   1.665484663842070 
  1.242336122203390   5.029175955384487   1.657297920032319 
  0.000139163184094   7.186122493968201   1.664687737044622 
  6.229425532217897   5.027546060353460   1.662933670448990 
  4.978822955679462  11.500021430078762   1.664358943413406 
 11.202905510065737   5.029717209760133   1.665938812378051 
 -2.489285536302353   7.185914830410052   8.340211280530699 
  3.734048525041951   0.718801768373264   8.341269475800006 
  7.468596984282844   7.186491477014333   8.347181253206157 
  8.713985085688540   0.718376838465531   8.340854847217125 
 13.691306892409070   0.718972203339574   8.339668471967418 
  0.031651623015129   1.456387500472366   5.002978606422314 
  3.684971661043444   8.002456094942252   5.002978606422314 
  5.013209047593116   1.363928375942613   5.002978606422314 
  8.699286487228523   7.897030392828932   5.002978606422314 
  9.986753236702379   1.442597473988051   5.002978606422314 
 -4.978073902648988  10.061096543824668  11.673616748318732 
  0.000014870341624  10.061052312208959  11.673616748318732 
  1.245317208728703   3.593479223355765  11.673616748318732 
  4.979146610876078  10.060620367401267  11.673616748318732 
  6.223527813966927   3.592936280250043  11.673616748318732 
 11.202487652319702   3.593456448902161  11.673616748318732 
 -2.499017775473348  10.055171405299813   5.002978606422314 
 -1.212291306362548   3.610959855870583   5.002978606422314 
  3.814906237611750   3.494392795526144   5.002978606422314 
  2.474079185484554  10.109760022714038   5.002978606422314 
  7.468912915433082  10.063753683588514   5.002978606422314 
  8.744647994663264   3.582780555253120   5.002978606422314 
 -6.223030568203790  12.216735187064028  11.673616748318732 
 -1.244408437785235  12.216456708007634  11.673616748318732 
  0.000254797779770   5.749425997273058  11.673616748318732 
  4.979081779792883   5.749169203550308  11.673616748318732 
  3.734364175073495  12.216646749009156  11.673616748318732 
  9.958027422854069   5.749493223117033  11.673616748318732 
 -2.485936889883161   5.758712491718541   5.002978606422314 
 -3.731412895213815  12.193017627479060   5.002978606422314 
  1.256510590476621  12.223426718330247   5.002978606422314 
  2.444300359499531   5.868351813569080   5.002978606422314 
  6.244947558962877  12.236656573457203   5.002978606422314 
  7.465795603755067   5.733254339155789   5.002978606422314 
 -1.244626066444452   7.905229177845228  11.673616748318732 
  0.000482999167496   1.437472641532293  11.673616748318732 
  3.733952308825445   7.905007544434074  11.673616748318732 
  4.979109751750553   1.436765829394061  11.673616748318732 
  8.713978854267573   7.905513034893908  11.673616748318732 
 -3.745808509969162   7.903867406535344   5.002978606422314 
  9.957722830205901   1.437473364596233  11.673616748318732 
  2.511789032905301   1.422703772745942   5.002978606422314 
  1.198415455271960   7.971344698231097   5.002978606422314 
  6.208656014910493   7.910683979240856   5.002978606422314 
  7.502962907543624   1.399477910751583   5.002978606422314 
  1.244444892386598   7.905395115054550  11.673616748318732 
 12.477565640656408   1.454935886124826   5.002978606422314 
 -2.489036458264424  10.060934121477237  11.673616748318732 
 -1.244256366637468   3.593424465287567  11.673616748318732 
  3.734765337579437   3.592954001251783  11.673616748318732 
  2.489426458275635  10.060864294900004  11.673616748318732 
  7.468835210499541  10.060900604719889  11.673616748318732 
  8.712940430405315   3.593499766989922  11.673616748318732 
 -4.985497056914314  10.051070955405594   5.002978606422314 
 -0.015882538007631  10.081007283417641   5.002978606422314 
  1.293006825977814   3.621012836712089   5.002978606422314 
  4.985717283332447  10.093439529409162   5.002978606422314 
  6.283430410377989   3.501793519722908   5.002978606422314 
 11.230343538447841   3.601697441139578   5.002978606422314 
 -2.489055024930352   5.749299831894787  11.673616748318732 
 -3.733726506603451  12.216477605342702  11.673616748318732 
  1.244882871583671  12.216713451697352  11.673616748318732 
  2.489586417469393   5.749667155396142  11.673616748318732 
  6.223882707268828  12.216653164543994  11.673616748318732 
 -6.213319898155643  12.214729241315448   5.002978606422314 
  7.468767001334826   5.749695523034713  11.673616748318732 
 -1.235075629961364  12.192711662918516   5.002978606422314 
 -0.001393565322704   5.775663721574836   5.002978606422314 
 -1.263786197551761   7.918962813014948   5.002978606422314 
  3.753316987226805  12.239225763821409   5.002978606422314 
  9.960537114100058   5.748133978129192   5.002978606422314 
 -3.733414518577689   7.905283252495777  11.673616748318732 
  2.489890678673706   1.437250159218235  11.673616748318732 
  6.224380196607812   7.905036693090208  11.673616748318732 
  7.468291601515673   1.437216902774501  11.673616748318732 
 12.447288004516679   1.437455084749139  11.673616748318732 
  4.294380765250063   5.353856888489600   5.002978606422314 
  1.271229581974391   0.723261769752033   5.002978606422314 
  4.917962176392446   7.242927708425365   5.002978606422314 
  6.253122722169389   0.684087110691780   5.002978606422314 
  9.942857195489690   7.183749859895408   5.002978606422314 
 11.231549092088184   0.735547896394170   5.002978606422314 
 -3.733822749778569   9.342256420987932  11.673616748318732 
  1.245244437643942   9.341323874172488  11.673616748318732 
  2.491527534059422   2.876086880858753  11.673616748318732 
  6.223600566164301   9.340121887153083  11.673616748318732 
  7.466586335239675   2.875987793941751  11.673616748318732 
 12.447415421741820   2.875178583528054  11.673616748318732 
 -1.253031872861015   9.349894639744608   5.002978606422314 
  0.055347361658869   2.906449811822394   5.002978606422314 
  5.019969315818731   2.796488577838248   5.002978606422314 
  3.718957047327516   9.397008177883668   5.002978606422314 
  8.703352779813844   9.330634484051959   5.002978606422314 
  9.984405507460185   2.881367855187204   5.002978606422314 
 -4.978186060444646  11.498188761366251  11.673616748318732 
  0.000051013621229  11.498009443406909  11.673616748318732 
  1.247142378311288   5.031425194799047  11.673616748318732 
  6.222018274972410   5.031498023304557  11.673616748318732 
  4.979144817203141  11.496650321123399  11.673616748318732 
 11.201988420428965   5.031129388196979  11.673616748318732 
 -1.227407833854699   5.051028723660651   5.002978606422314 
 -2.486812419836839  11.486865232496870   5.002978606422314 
  2.500830433704933  11.525689091907079   5.002978606422314 
  7.478569032136297  11.499834927409118   5.002978606422314 
  8.708142903838850   5.027462309130263   5.002978606422314 
  0.001285149978304   7.186505412408486  11.673616748318732 
  1.245961136189026   0.719324194303748  11.673616748318732 
  4.979028553725876   7.184419373789444  11.673616748318732 
  6.223060307800075   0.719493876339324  11.673616748318732 
  9.957192576159393   7.186709712035515  11.673616748318732 
 -2.498542869120256   7.193483579654252   5.002978606422314 
 11.202251800809467   0.718633097387885  11.673616748318732 
  3.749670485430427   0.695868776172782   5.002978606422314 
  2.442429116676995   7.260919161302968   5.002978606422314 
  7.438963962954202   7.169382844173295   5.002978606422314 
  8.742569075531886   0.714680636696763   5.002978606422314 
  2.490814921137988   7.185636182511933  11.673616748318732 
 13.725444068883435   0.740057373152257   5.002978606422314 
 -1.244163377256268   9.342129886854407  11.673616748318732 
  0.001853711481252   2.875565238492403  11.673616748318732 
  4.978965245943634   2.876033403079518  11.673616748318732 
  3.734585967114102   9.340002045401041  11.673616748318732 
  8.713083777293466   9.341569361814804  11.673616748318732 
  9.956577954087656   2.875483236762423  11.673616748318732 
 -3.743240498277816   9.336819081356730   5.002978606422314 
  1.229612486311976   9.385062071539194   5.002978606422314 
  2.559047273114371   2.886531619159920   5.002978606422314 
  6.218595837161723   9.339484316449139   5.002978606422314 