 B N Ge 
 1.0
 14.936314146199660   0.000000000000000   0.000000000000000
 -7.468157073099825  12.935227489513863   0.000000000000000
  0.000000000000001   0.000000000000001  13.341276283792837
 B N Ge 
 143 143   1
Cartesian
  1.268071337679958   0.726652426858244   5.002978606422314 
  4.896779781458865   7.351826564205977   5.002978606422314 
  6.259064836285400   0.678718520965991   5.002978606422314 
  9.942239261279621   7.178296737953824   5.002978606422314 
 11.237600755508080   0.739041825898589   5.002978606422314 
 -3.734323237669070   9.341967464169418  11.673616748318732 
  1.244185303370833   9.342325292572118  11.673616748318732 
  2.488307535789086   2.873697096095593  11.673616748318732 
  6.223298123160008   9.342717178936601  11.673616748318732 
  7.468537143265015   2.873778847751251  11.673616748318732 
 12.446554390677388   2.874120901772785  11.673616748318732 
 -1.255629289234071   9.348997222076381   5.002978606422314 
  0.043800683430054   2.899783334038715   5.002978606422314 
  5.033868499843228   2.777076961383833   5.002978606422314 
  3.715958916447312   9.440218193644512   5.002978606422314 
  8.698321270577509   9.332825898298886   5.002978606422314 
 10.001515428927966   2.872662591398329   5.002978606422314 
 -4.979185188949088  11.497803827422640  11.673616748318732 
 -0.000204179208387  11.497862107758172  11.673616748318732 
  1.243462764861631   5.029831486878399  11.673616748318732 
  6.223852726236274   5.029782835684537  11.673616748318732 
  4.978483892529393  11.498386122706304  11.673616748318732 
 11.202195019986782   5.029971651450097  11.673616748318732 
 -1.226050560812444   5.046598275317261   5.002978606422314 
 -2.488888314521721  11.485064512767529   5.002978606422314 
  2.501844778322074  11.537835615718954   5.002978606422314 
  7.478282240205417  11.510211466639637   5.002978606422314 
  8.732791116441977   5.009924625490457   5.002978606422314 
 -0.000771814737418   7.186047410944755  11.673616748318732 
  1.243945517362534   0.718219543823138  11.673616748318732 
  4.978460383306696   7.186865648995822  11.673616748318732 
  6.223397994437463   0.718075929952900  11.673616748318732 
  9.957609933521216   7.186052122679031  11.673616748318732 
 -2.500416256841537   7.190050005064418   5.002978606422314 
 11.202068740494855   0.718527407466105  11.673616748318732 
  3.745942633407210   0.691599715640276   5.002978606422314 
  2.432567755711096   7.282662015987523   5.002978606422314 
  7.438532812883215   7.169133919564174   5.002978606422314 
  8.753595446029333   0.709485822997229   5.002978606422314 
  2.488549821583287   7.186450528975402  11.673616748318732 
 13.725038387848310   0.744074073593970   5.002978606422314 
 -1.245087157110851   9.341978590928974  11.673616748318732 
 -0.000958962139091   2.873941340620598  11.673616748318732 
  4.978537940891302   2.873664596091015  11.673616748318732 
  3.733648367610079   9.342795967804363  11.673616748318732 
  8.712722966886419   9.342259598570816  11.673616748318732 
  9.957750740017389   2.874042958413722  11.673616748318732 
 -3.746866562719588   9.334725572075397   5.002978606422314 
  1.227934208284916   9.392892388178828   5.002978606422314 
  2.532646727096101   2.879921791383719   5.002978606422314 
  6.215731863907770   9.369599136541074   5.002978606422314 
  7.544062540154598   2.809748220744916   5.002978606422314 
 12.485677626020449   2.890709881987109   5.002978606422314 
 -1.245416561906642   5.029921143552682  11.673616748318732 
 -2.489695561333709  11.497703582570203  11.673616748318732 
  2.489142997103551  11.498205961245432  11.673616748318732 
  3.733134209455715   5.029821038420014  11.673616748318732 
  7.467795049431548  11.498142136235529  11.673616748318732 
 -4.980984933687520  11.486520985025592   5.002978606422314 
  8.713293787879126   5.029918177016818  11.673616748318732 
  0.009449440161866  11.503435627500361   5.002978606422314 
  1.271023104765302   5.065118005289768   5.002978606422314 
 -0.017471451335016   7.210024120334180   5.002978606422314 
  6.325872768515934   4.876564901882746   5.002978606422314 
  4.999170804083082  11.536977638598804   5.002978606422314 
 11.217890962110015   5.033019159872882   5.002978606422314 
 -2.489745156329672   7.185967208529858  11.673616748318732 
  3.733528012275513   0.718050379862644  11.673616748318732 
  7.468318042455704   7.186330429875301  11.673616748318732 
  8.712924267902697   0.718300585025642  11.673616748318732 
 13.691110291888425   0.718486848015585  11.673616748318732 
  0.000252109385498   1.437096963303360   1.666617387840746 
  3.732314452881093   7.907925717292933   1.664193000433402 
  4.979080083782832   1.434039786141003   1.664530413071475 
  8.715060000242378   7.906137234812856   1.666754147292797 
  9.958147504026769   1.436849004439396   1.666255581193842 
 -4.977898477425925  10.061054773263530   8.339023022485694 
 -0.001160507933976  10.061258956192129   8.339278284705538 
  1.243987973983409   3.592711789317796   8.339982918485870 
  4.978921779617007  10.062638178652749   8.340626398301120 
  6.225236097823153   3.590058768965078   8.341764212411091 
 11.203134669919102   3.593197808824959   8.339107652040024 
 -2.489572142971916  10.060624843767085   1.667026826639856 
 -1.244697158418364   3.593412347985336   1.666617387840746 
  3.733920004035275   3.588302722217085   1.678264322712713 
  2.488131349113909  10.062339083551844   1.665192351147825 
  7.469486806158566  10.062116913415649   1.666607193025893 
  8.714575490579511   3.592296151782425   1.665330814543641 
 -6.222937778058862  12.216501415858252   8.339160508243577 
 -1.244817167984233  12.215335478570605   8.339278284705538 
 -0.001551563508429   5.749883897832380   8.341082069683127 
  4.982267137733122   5.751008270814571   8.335311142919306 
  3.734035800226848  12.217326707405023   8.339701631650799 
  9.959406574912718   5.749449367163280   8.339350019818308 
 -2.489211081660776   5.749497076120426   1.666796704600944 
 -3.733942879895822  12.215347229123513   1.666782866150753 
  1.244436050706764  12.216455479543969   1.666511513553410 
  2.485135624893227   5.751260714589457   1.678264322712713 
  6.223982227191301  12.217342818260253   1.666849560804483 
  7.471752358265132   5.749789324396699   1.665484186073155 
 -1.245713187612040   7.905606981186502   8.339174346693982 
  0.000252109385498   1.437096963303361   8.339339825003828 
  3.732314452881094   7.907925717292934   8.341764212411091 
  4.979080083782840   1.434039786140990   8.341426799773167 
  8.715060000242378   7.906137234812857   8.339203065552004 
 -3.733362980333518   7.905456060476473   1.666934190358788 
  9.958147504026769   1.436849004439397   8.339701631650799 
  2.489384051546363   1.435456854174619   1.664875143161501 
  1.242069235694065   7.906732443466850   1.664530413071475 
  6.225954109435130   7.907575187350636   1.665484186073155 
  7.468921251372623   1.435357911013669   1.665192351147825 
  1.242069235694065   7.906732443466851   8.341426799773167 
 12.447343987021902   1.437487406263719   1.666897902747835 
 -2.489572142971916  10.060624843767085   8.338930386204771 
 -1.244697158418364   3.593412347985337   8.339339825003828 
  3.733920004035290   3.588302722217086   8.327692890132100 
  2.488131349113910  10.062339083551844   8.340764861696604 
  7.469486806158567  10.062116913415649   8.339350019818294 
  8.714575490579511   3.592296151782426   8.340626398301120 
 -4.977898477425926  10.061054773263530   1.666934190358788 
 -0.001160507933976  10.061258956192129   1.666678928138944 
  1.243987973983424   3.592711789317796   1.665974294358985 
  4.978921779617006  10.062638178652749   1.665330814543641 
  6.225236097823152   3.590058768965077   1.664193000433402 
 11.203134669919095   3.593197808824971   1.666849560804483 
 -2.489211081660776   5.749497076120427   8.339160508243577 
 -3.733942879895806  12.215347229123513   8.339174346693982 
  1.244436050706764  12.216455479543969   8.339445699291325 
  2.485135624893257   5.751260714589458   8.327692890132100 
  6.223982227191302  12.217342818260253   8.339107652040024 
 -6.222937778058863  12.216501415858252   1.666796704600944 
  7.471752358265133   5.749789324396700   8.340473026771607 
 -1.244817167984234  12.215335478570605   1.666678928138944 
 -0.001551563508384   5.749883897832379   1.664875143161501 
 -1.245713187612041   7.905606981186502   1.666782866150753 
  4.982267137733105   5.751008270814570   1.670646069925376 
  3.734035800226848  12.217326707405023   1.666255581193842 
  9.959406574912711   5.749449367163291   1.666607193025880 
 -3.733362980333517   7.905456060476474   8.339023022485694 
  2.489384051546363   1.435456854174620   8.341082069683127 
  6.225954109435093   7.907575187350677   8.340473026771607 
  7.468921251372624   1.435357911013670   8.340764861696604 
 12.447343987021902   1.437487406263720   8.339059310096845 
  1.245230764316532   0.718664385541550   1.668182420922669 
  4.978941367463045   7.186975005930185   1.675736164877268 
  6.223687693012500   0.718215620279188   1.668604137247822 
  9.957624345549370   7.186352413045623   1.669929661856277 
 11.202548593856440   0.718804450933490   1.668491488167388 
 -3.734106488854045   9.342092604156568   8.336953303369688 
  1.244451128029603   9.342506333734356   8.337353075596726 
  2.490355089489726   2.874700007126126   8.336481376512088 
  6.223718299427691   9.342358727978448   8.335485855022846 
  7.468495337316109   2.874117080114591   8.337421894004107 
 12.447451185032824   2.874860729451828   8.336730197741820 
 -1.244870548506673   9.342228077741330   1.669350007530899 
  0.000919340221409   2.875025778993982   1.668711385706053 
  4.979348300078188   2.874232141954962   1.671394946705087 
  3.733920382454608   9.342590646608974   1.668535318840400 
  8.712990231986133   9.342121934570615   1.669929661856277 
  9.957810881196362   2.874602605998052   1.669087808721229 
 -4.978613260085106  11.497824935347504   8.336614931619820 
 -0.000078277688369  11.497934797033938   8.336499979972581 
  1.245355088142158   5.031103264883448   8.336481376512088 
  6.224187924197336   5.030144701716179   8.330221047967106 
  4.978998632144152  11.498158382702814   8.336869404123226 
 11.202512785441135   5.030606372878171   8.336546122755653 
 -1.244388694200812   5.030811779205736   1.668182420922669 
 -2.489371195114254  11.497766427717997   1.669350007530899 
  2.489347348938838  11.498220607598494   1.668650760972191 
  3.735908773808134   5.031422933895958   1.717255956781047 
  7.468503617039687  11.498099968477637   1.669411090089255 
  8.713193448377034   5.030461285818056   1.670471357821862 
 -0.000084910495944   7.186694248342240   8.337381496897164 
  1.245230764316533   0.718664385541550   8.337774791921932 
  4.978941367463046   7.186975005930186   8.330221047967106 
  6.223687693012501   0.718215620279188   8.337353075596726 
  9.957624345549370   7.186352413045624   8.336027550988364 
 -2.489440911898750   7.186451959493177   1.669342281224728 
 11.202548593856440   0.718804450933491   8.337465724677241 
  3.734431642014620   0.718321837686933   1.668575715947542 
  2.489446510312572   7.186868547685720   1.671394946705087 
  7.468226636391817   7.186277656559511   1.672663113607345 
  8.713039127934225   0.718470235729678   1.668650760972191 
  2.489446510312580   7.186868547685709   8.334562266139342 
 13.692199398630317   0.718893580870357   1.669227015102820 
 -1.244870548506672   9.342228077741330   8.336607205313728 
  0.000919340221409   2.875025778993983   8.337245827138787 
  4.979348300078189   2.874232141954963   8.334562266139342 
  3.733920382454608   9.342590646608974   8.337421894004107 
  8.712990231986133   9.342121934570615   8.336027550988364 
  9.957810881196362   2.874602605998053   8.336869404123226 
 -3.734106488854045   9.342092604156568   1.669003909475139 
  1.244451128029603   9.342506333734356   1.668604137247822 
  2.490355089489726   2.874700007126125   1.669475836332700 
  6.223718299427690   9.342358727978448   1.670471357821862 
  7.468495337316094   2.874117080114590   1.668535318840387 
 12.447451185032831   2.874860729451814   1.669227015102820 
 -1.244388694200796   5.030811779205737   8.337774791921932 
 -2.489371195114253  11.497766427717997   8.336607205313728 
  2.489347348938839  11.498220607598494   8.337306451872237 
  3.735908773808149   5.031422933895959   8.288701256063487 
  7.468503617039628  11.498099968477637   8.336546122755653 
 -4.978613260085107  11.497824935347504   1.669342281224728 
  8.713193448377034   5.030461285818057   8.335485855022846 
 -0.000078277688369  11.497934797033938   1.669457232872060 
  1.245355088142158   5.031103264883448   1.669475836332700 
 -0.000084910495960   7.186694248342239   1.668575715947542 
  6.224187924197277   5.030144701716178   1.675736164877281 
  4.978998632144122  11.498158382702865   1.669087808721242 
 11.202512785441195   5.030606372878170   1.669411090089255 
 -2.489440911898749   7.186451959493178   8.336614931619820 
  3.734431642014620   0.718321837686934   8.337381496897164 
  7.468226636391804   7.186277656559512   8.333294099237243 
  8.713039127934225   0.718470235729679   8.337306451872237 
 13.692199398630317   0.718893580870358   8.336730197741820 
  0.035587435156394   1.461404905570338   5.002978606422314 
  3.680702594109309   8.013456356280068   5.002978606422314 
  5.011518415700333   1.375271589908492   5.002978606422314 
  8.679333036716571   7.885510262804672   5.002978606422314 
  9.990395049601847   1.442098070729702   5.002978606422314 
 -4.979166849107516  10.060539029711656  11.673616748318732 
 -0.000232533663256  10.060565607680671  11.673616748318732 
  1.244283581013955   3.592882458116517  11.673616748318732 
  4.978469670854861  10.060586221296854  11.673616748318732 
  6.223139471024697   3.592945419824035  11.673616748318732 
 11.201944256991620   3.592939505331820  11.673616748318732 
 -2.501666075708720  10.053642408446061   5.002978606422314 
 -1.205978200015958   3.611859666620365   5.002978606422314 
  3.826031026669754   3.524710364949968   5.002978606422314 
  2.474167438771512  10.114648766455760   5.002978606422314 
  7.462859206665563  10.065191741173756   5.002978606422314 
  8.748499398641105   3.577521334128183   5.002978606422314 
 -6.223841521602960  12.216420633874256  11.673616748318732 
 -1.244953638273303  12.216485802118541  11.673616748318732 
 -0.000354220222923   5.748713579435052  11.673616748318732 
  4.978312603042203   5.748725119146249  11.673616748318732 
  3.733788728503995  12.216444106832938  11.673616748318732 
  9.957226701365959   5.748766593837598  11.673616748318732 
 -2.479457728390527   5.755787137443346   5.002978606422314 
 -3.733631202287614  12.198273905212268   5.002978606422314 
  1.257218758057140  12.223835579073482   5.002978606422314 
  2.476118539330652   5.862827378792987   5.002978606422314 
  6.245856350792113  12.241233526479606   5.002978606422314 
  7.450809336028263   5.717454928947570   5.002978606422314 
 -1.244975853172616   7.904612056797510  11.673616748318732 
 -0.000387456363369   1.437030883507282  11.673616748318732 
  3.733766052457519   7.904666659793842  11.673616748318732 
  4.978450065892704   1.437173546130928  11.673616748318732 
  8.712426743715216   7.904616923448986  11.673616748318732 
 -3.752721779841632   7.898653081101174   5.002978606422314 
  9.957259613648541   1.437076334336854  11.673616748318732 
  2.518103052182264   1.440247755212897   5.002978606422314 
  1.207393650780702   7.964208961080352   5.002978606422314 
  6.187480190441909   7.905605195785805   5.002978606422314 
  7.507240810459959   1.397109968469235   5.002978606422314 
  1.244468142509236   7.904619951974897  11.673616748318732 
 12.481389009183243   1.457143308973232   5.002978606422314 
 -2.489688750619064  10.060557520310807  11.673616748318732 
 -1.245074168074900   3.592891507697505  11.673616748318732 
  3.733698764217594   3.593067485383546  11.673616748318732 
  2.489105810120785  10.060583901513864  11.673616748318732 
  7.467805570339936  10.060570474210284  11.673616748318732 
  8.712572389000853   3.592930592786903  11.673616748318732 
 -4.993469430140124  10.047691050789878   5.002978606422314 
 -0.013722371408866  10.078230799025773   5.002978606422314 
  1.300476510872963   3.625325461297090   5.002978606422314 
  4.983088366223012  10.099404553656717   5.002978606422314 
  6.290822382677858   3.492596268638246   5.002978606422314 
 11.234761691951803   3.600196001439275   5.002978606422314 
 -2.489732912683002   5.748754802244499  11.673616748318732 
 -3.734435842472135  12.216483241674183  11.673616748318732 
  1.244419579320967  12.216445969784619  11.673616748318732 
  2.489151410929512   5.748686733703890  11.673616748318732 
  6.223163323340616  12.216441042170631  11.673616748318732 
 -6.212613748526727  12.221803036900912   5.002978606422314 
  7.467779610592884   5.748747031754167  11.673616748318732 
 -1.236400052678773  12.195970664265772   5.002978606422314 
  0.016956978815673   5.772359831435284   5.002978606422314 
 -1.260343281042369   7.914413563869194   5.002978606422314 
  3.754705397768090  12.242629367937329   5.002978606422314 
  9.958755654117072   5.742172283757048   5.002978606422314 
 -3.734443813191910   7.904615490154429  11.673616748318732 
  2.488969197726507   1.437078943075595  11.673616748318732 
  6.223065083692381   7.904655833264911  11.673616748318732 
  7.467888449642673   1.437079410020013  11.673616748318732 
 12.446619395873146   1.437069063369061  11.673616748318732 
  4.193467377138028   5.295594516698029   5.002978606422314 
Generated by cif2cell 2.0.0.  :  Failed to get author information, No journal information. Species order: B N Ge 
 1.0
 14.936314146199660   0.000000000000000   0.000000000000000
 -7.468157073099825  12.935227489513863   0.000000000000000
  0.000000000000001   0.000000000000001  13.341276283792837
 B N Ge 
 143 143   1
Cartesian
  1.268071337679958   0.726652426858244   5.002978606422314 
  4.896779781458865   7.351826564205977   5.002978606422314 
  6.259064836285400   0.678718520965991   5.002978606422314 
  9.942239261279621   7.178296737953824   5.002978606422314 
 11.237600755508080   0.739041825898589   5.002978606422314 
 -3.734323237669070   9.341967464169418  11.673616748318732 
  1.244185303370833   9.342325292572118  11.673616748318732 
  2.488307535789086   2.873697096095593  11.673616748318732 
  6.223298123160008   9.342717178936601  11.673616748318732 
  7.468537143265015   2.873778847751251  11.673616748318732 
 12.446554390677388   2.874120901772785  11.673616748318732 
 -1.255629289234071   9.348997222076381   5.002978606422314 
  0.043800683430054   2.899783334038715   5.002978606422314 
  5.033868499843228   2.777076961383833   5.002978606422314 
  3.715958916447312   9.440218193644512   5.002978606422314 
  8.698321270577509   9.332825898298886   5.002978606422314 
 10.001515428927966   2.872662591398329   5.002978606422314 
 -4.979185188949088  11.497803827422640  11.673616748318732 
 -0.000204179208387  11.497862107758172  11.673616748318732 
  1.243462764861631   5.029831486878399  11.673616748318732 
  6.223852726236274   5.029782835684537  11.673616748318732 
  4.978483892529393  11.498386122706304  11.673616748318732 
 11.202195019986782   5.029971651450097  11.673616748318732 
 -1.226050560812444   5.046598275317261   5.002978606422314 
 -2.488888314521721  11.485064512767529   5.002978606422314 
  2.501844778322074  11.537835615718954   5.002978606422314 
  7.478282240205417  11.510211466639637   5.002978606422314 
  8.732791116441977   5.009924625490457   5.002978606422314 
 -0.000771814737418   7.186047410944755  11.673616748318732 
  1.243945517362534   0.718219543823138  11.673616748318732 
  4.978460383306696   7.186865648995822  11.673616748318732 
  6.223397994437463   0.718075929952900  11.673616748318732 
  9.957609933521216   7.186052122679031  11.673616748318732 
 -2.500416256841537   7.190050005064418   5.002978606422314 
 11.202068740494855   0.718527407466105  11.673616748318732 
  3.745942633407210   0.691599715640276   5.002978606422314 
  2.432567755711096   7.282662015987523   5.002978606422314 
  7.438532812883215   7.169133919564174   5.002978606422314 
  8.753595446029333   0.709485822997229   5.002978606422314 
  2.488549821583287   7.186450528975402  11.673616748318732 
 13.725038387848310   0.744074073593970   5.002978606422314 
 -1.245087157110851   9.341978590928974  11.673616748318732 
 -0.000958962139091   2.873941340620598  11.673616748318732 
  4.978537940891302   2.873664596091015  11.673616748318732 
  3.733648367610079   9.342795967804363  11.673616748318732 
  8.712722966886419   9.342259598570816  11.673616748318732 
  9.957750740017389   2.874042958413722  11.673616748318732 
 -3.746866562719588   9.334725572075397   5.002978606422314 
  1.227934208284916   9.392892388178828   5.002978606422314 
  2.532646727096101   2.879921791383719   5.002978606422314 
  6.215731863907770   9.369599136541074   5.002978606422314 
  7.544062540154598   2.809748220744916   5.002978606422314 
 12.485677626020449   2.890709881987109   5.002978606422314 
 -1.245416561906642   5.029921143552682  11.673616748318732 
 -2.489695561333709  11.497703582570203  11.673616748318732 
  2.489142997103551  11.498205961245432  11.673616748318732 
  3.733134209455715   5.029821038420014  11.673616748318732 
  7.467795049431548  11.498142136235529  11.673616748318732 
 -4.980984933687520  11.486520985025592   5.002978606422314 
  8.713293787879126   5.029918177016818  11.673616748318732 
  0.009449440161866  11.503435627500361   5.002978606422314 
  1.271023104765302   5.065118005289768   5.002978606422314 
 -0.017471451335016   7.210024120334180   5.002978606422314 
  6.325872768515934   4.876564901882746   5.002978606422314 
  4.999170804083082  11.536977638598804   5.002978606422314 
 11.217890962110015   5.033019159872882   5.002978606422314 
 -2.489745156329672   7.185967208529858  11.673616748318732 
  3.733528012275513   0.718050379862644  11.673616748318732 
  7.468318042455704   7.186330429875301  11.673616748318732 
  8.712924267902697   0.718300585025642  11.673616748318732 
 13.691110291888425   0.718486848015585  11.673616748318732 
  0.000252109385498   1.437096963303360   1.666617387840746 
  3.732314452881093   7.907925717292933   1.664193000433402 
  4.979080083782832   1.434039786141003   1.664530413071475 
  8.715060000242378   7.906137234812856   1.666754147292797 
  9.958147504026769   1.436849004439396   1.666255581193842 
 -4.977898477425925  10.061054773263530   8.339023022485694 
 -0.001160507933976  10.061258956192129   8.339278284705538 
  1.243987973983409   3.592711789317796   8.339982918485870 
  4.978921779617007  10.062638178652749   8.340626398301120 
  6.225236097823153   3.590058768965078   8.341764212411091 
 11.203134669919102   3.593197808824959   8.339107652040024 
 -2.489572142971916  10.060624843767085   1.667026826639856 
 -1.244697158418364   3.593412347985336   1.666617387840746 
  3.733920004035275   3.588302722217085   1.678264322712713 
  2.488131349113909  10.062339083551844   1.665192351147825 
  7.469486806158566  10.062116913415649   1.666607193025893 
  8.714575490579511   3.592296151782425   1.665330814543641 
 -6.222937778058862  12.216501415858252   8.339160508243577 
 -1.244817167984233  12.215335478570605   8.339278284705538 
 -0.001551563508429   5.749883897832380   8.341082069683127 
  4.982267137733122   5.751008270814571   8.335311142919306 
  3.734035800226848  12.217326707405023   8.339701631650799 
  9.959406574912718   5.749449367163280   8.339350019818308 
 -2.489211081660776   5.749497076120426   1.666796704600944 
 -3.733942879895822  12.215347229123513   1.666782866150753 
  1.244436050706764  12.216455479543969   1.666511513553410 
  2.485135624893227   5.751260714589457   1.678264322712713 
  6.223982227191301  12.217342818260253   1.666849560804483 
  7.471752358265132   5.749789324396699   1.665484186073155 
 -1.245713187612040   7.905606981186502   8.339174346693982 
  0.000252109385498   1.437096963303361   8.339339825003828 
  3.732314452881094   7.907925717292934   8.341764212411091 
  4.979080083782840   1.434039786140990   8.341426799773167 
  8.715060000242378   7.906137234812857   8.339203065552004 
 -3.733362980333518   7.905456060476473   1.666934190358788 
  9.958147504026769   1.436849004439397   8.339701631650799 
  2.489384051546363   1.435456854174619   1.664875143161501 
  1.242069235694065   7.906732443466850   1.664530413071475 
  6.225954109435130   7.907575187350636   1.665484186073155 
  7.468921251372623   1.435357911013669   1.665192351147825 
  1.242069235694065   7.906732443466851   8.341426799773167 
 12.447343987021902   1.437487406263719   1.666897902747835 
 -2.489572142971916  10.060624843767085   8.338930386204771 
 -1.244697158418364   3.593412347985337   8.339339825003828 
  3.733920004035290   3.588302722217086   8.327692890132100 
  2.488131349113910  10.062339083551844   8.340764861696604 
  7.469486806158567  10.062116913415649   8.339350019818294 
  8.714575490579511   3.592296151782426   8.340626398301120 
 -4.977898477425926  10.061054773263530   1.666934190358788 
 -0.001160507933976  10.061258956192129   1.666678928138944 
  1.243987973983424   3.592711789317796   1.665974294358985 
  4.978921779617006  10.062638178652749   1.665330814543641 
  6.225236097823152   3.590058768965077   1.664193000433402 
 11.203134669919095   3.593197808824971   1.666849560804483 
 -2.489211081660776   5.749497076120427   8.339160508243577 
 -3.733942879895806  12.215347229123513   8.339174346693982 
  1.244436050706764  12.216455479543969   8.339445699291325 
  2.485135624893257   5.751260714589458   8.327692890132100 
  6.223982227191302  12.217342818260253   8.339107652040024 
 -6.222937778058863  12.216501415858252   1.666796704600944 
  7.471752358265133   5.749789324396700   8.340473026771607 
 -1.244817167984234  12.215335478570605   1.666678928138944 
 -0.001551563508384   5.749883897832379   1.664875143161501 
 -1.245713187612041   7.905606981186502   1.666782866150753 
  4.982267137733105   5.751008270814570   1.670646069925376 
  3.734035800226848  12.217326707405023   1.666255581193842 
  9.959406574912711   5.749449367163291   1.666607193025880 
 -3.733362980333517   7.905456060476474   8.339023022485694 
  2.489384051546363   1.435456854174620   8.341082069683127 
  6.225954109435093   7.907575187350677   8.340473026771607 
  7.468921251372624   1.435357911013670   8.340764861696604 
 12.447343987021902   1.437487406263720   8.339059310096845 
  1.245230764316532   0.718664385541550   1.668182420922669 
  4.978941367463045   7.186975005930185   1.675736164877268 
  6.223687693012500   0.718215620279188   1.668604137247822 
  9.957624345549370   7.186352413045623   1.669929661856277 
 11.202548593856440   0.718804450933490   1.668491488167388 
 -3.734106488854045   9.342092604156568   8.336953303369688 
  1.244451128029603   9.342506333734356   8.337353075596726 
  2.490355089489726   2.874700007126126   8.336481376512088 
  6.223718299427691   9.342358727978448   8.335485855022846 
  7.468495337316109   2.874117080114591   8.337421894004107 
 12.447451185032824   2.874860729451828   8.336730197741820 
 -1.244870548506673   9.342228077741330   1.669350007530899 
  0.000919340221409   2.875025778993982   1.668711385706053 
  4.979348300078188   2.874232141954962   1.671394946705087 
  3.733920382454608   9.342590646608974   1.668535318840400 
  8.712990231986133   9.342121934570615   1.669929661856277 
  9.957810881196362   2.874602605998052   1.669087808721229 
 -4.978613260085106  11.497824935347504   8.336614931619820 
 -0.000078277688369  11.497934797033938   8.336499979972581 
  1.245355088142158   5.031103264883448   8.336481376512088 
  6.224187924197336   5.030144701716179   8.330221047967106 
  4.978998632144152  11.498158382702814   8.336869404123226 
 11.202512785441135   5.030606372878171   8.336546122755653 
 -1.244388694200812   5.030811779205736   1.668182420922669 
 -2.489371195114254  11.497766427717997   1.669350007530899 
  2.489347348938838  11.498220607598494   1.668650760972191 
  3.735908773808134   5.031422933895958   1.717255956781047 
  7.468503617039687  11.498099968477637   1.669411090089255 
  8.713193448377034   5.030461285818056   1.670471357821862 
 -0.000084910495944   7.186694248342240   8.337381496897164 
  1.245230764316533   0.718664385541550   8.337774791921932 
  4.978941367463046   7.186975005930186   8.330221047967106 
  6.223687693012501   0.718215620279188   8.337353075596726 
  9.957624345549370   7.186352413045624   8.336027550988364 
 -2.489440911898750   7.186451959493177   1.669342281224728 
 11.202548593856440   0.718804450933491   8.337465724677241 
  3.734431642014620   0.718321837686933   1.668575715947542 
  2.489446510312572   7.186868547685720   1.671394946705087 
  7.468226636391817   7.186277656559511   1.672663113607345 
  8.713039127934225   0.718470235729678   1.668650760972191 
  2.489446510312580   7.186868547685709   8.334562266139342 
 13.692199398630317   0.718893580870357   1.669227015102820 
 -1.244870548506672   9.342228077741330   8.336607205313728 
  0.000919340221409   2.875025778993983   8.337245827138787 
  4.979348300078189   2.874232141954963   8.334562266139342 
  3.733920382454608   9.342590646608974   8.337421894004107 
  8.712990231986133   9.342121934570615   8.336027550988364 
  9.957810881196362   2.874602605998053   8.336869404123226 
 -3.734106488854045   9.342092604156568   1.669003909475139 
  1.244451128029603   9.342506333734356   1.668604137247822 
  2.490355089489726   2.874700007126125   1.669475836332700 
  6.223718299427690   9.342358727978448   1.670471357821862 