Species order: X N B                    
   2.51242800000000     
     5.9449720136058266    0.0000000000000000    0.0000000000000000
    -2.9724860068029120    5.1484967885702053   -0.0000000000000001
     0.0000000000000000    0.0000000000000009    5.3101128803662583
   Al   N    B 
     1   143   143
Direct
  0.4944417848108660  0.4138875590722008  0.3750000000000000
  0.1111969532047808  0.0556119910530129  0.1246099116976184
  0.6115021517921588  0.5559997246791335  0.1239776590097507
  0.4446160032275893  0.0556296649088399  0.1244165370734295
  0.9445773482314900  0.5556040191720741  0.1247407864403525
  0.7779603114033046  0.0556468223684187  0.1252651447105731
  0.1112454301626462  0.7222893817478571  0.6247435189494345
  0.4446160032275893  0.7223196716520338  0.6255834629266409
  0.2777803197432859  0.2222204924855129  0.6254687480745663
  0.7780009184148262  0.7224547480881269  0.6261499915437175
  0.6113285434409168  0.2222162843546407  0.6261506868912400
  0.9445703478783678  0.2222607781826882  0.6249289114436807
  0.2779320365551122  0.7222946140274460  0.1249604950426729
  0.1111513200906484  0.2222423267119926  0.1244524969926847
  0.4446255706007848  0.2222973394710656  0.1247468198518155
  0.6113285434409168  0.7224455924195972  0.1238493131087895
  0.9445773482314900  0.7223066623927054  0.1247407864403525
  0.7779733721473485  0.2222386771802326  0.1247384193527878
  0.1112426137848137  0.8889709292293012  0.6249983715862523
  0.4446235974479158  0.8889784653904605  0.6250781535164036
  0.2777803197432859  0.3888931605911195  0.6254687480745663
  0.6115021517921588  0.3888357604462157  0.6260223409901645
  0.7779733721473485  0.8890680283006522  0.6252615806472319
  0.9445988266398980  0.3889188611799576  0.6250783870781945
  0.1111969532047808  0.3889182954851211  0.1246099116976184
  0.2779320365551122  0.8889707558608877  0.1249604950426729
  0.6113062039330618  0.8890229071468735  0.1248376755685899
  0.4442891567229933  0.3888112450280976  0.1272810373414788
  0.9445988266398980  0.8890132987934263  0.1249216129220745
  0.7780009184148262  0.3888795036602774  0.1238500084562501
  0.2779144214931512  0.5556130022182015  0.6255412570462080
  0.1111969532047808  0.0556119910530230  0.6253900883023434
  0.6115021517921588  0.5559997246791335  0.6260223409901645
  0.4446160032275893  0.0556296649088293  0.6255834629266409
  0.9445773482314900  0.5556040191720741  0.6252592135596274
  0.1112426137848137  0.5556050178889871  0.1250016284138154
  0.7779603114033046  0.0556468223684187  0.6247348552893907
  0.2779144214931512  0.0556347526081286  0.1244587429538755
  0.4446255706007848  0.5556615644630477  0.1247468198518152
  0.7779393974035811  0.5556363653687388  0.1239966635068857
  0.6113062039330618  0.0556166301194412  0.1248376755685948
  0.4446255706007848  0.5556615644630477  0.6252531801481898
  0.9445703478783678  0.0556429030289932  0.1250710885563064
  0.2779320365551122  0.7222946140274460  0.6250395049575208
  0.1111513200906484  0.2222423267119926  0.6255475030073440
  0.4446255706007848  0.2222973394710656  0.6252531801481898
  0.6113285434409168  0.7224455924195972  0.6261506868912400
  0.9445773482314900  0.7223066623927054  0.6252592135596274
  0.7779733721473485  0.2222386771802326  0.6252615806472319
  0.1112454301626462  0.7222893817478571  0.1252564810506834
  0.4446160032275893  0.7223196716520338  0.1244165370734295
  0.2777803197432859  0.2222204924855129  0.1245312519253586
  0.7780009184148262  0.7224547480881269  0.1238500084562501
  0.6113285434409168  0.2222162843546407  0.1238493131087895
  0.9445703478783678  0.2222607781826882  0.1250710885563064
  0.1111969532047808  0.3889182954851211  0.6253900883023434
  0.2779320365551122  0.8889707558608877  0.6250395049575208
  0.6113062039330618  0.8890229071468735  0.6251623244312200
  0.4442891567229933  0.3888112450280976  0.6227189626583964
  0.9445988266398980  0.8890132987934263  0.6250783870781945
  0.1112426137848137  0.8889709292293012  0.1250016284138154
  0.7780009184148262  0.3888795036602774  0.6261499915437175
  0.4446235974479158  0.8889784653904605  0.1249218464835708
  0.2777803197432856  0.3888931605911195  0.1245312519253585
  0.2779144214931512  0.5556130022182015  0.1244587429538755
  0.6115021517921588  0.3888357604462157  0.1239776590097570
  0.7779733721473485  0.8890680283006522  0.1247384193527878
  0.9445988266398980  0.3889188611799576  0.1249216129220745
  0.1112426137848137  0.5556050178889870  0.6249983715862523
  0.2779144214931512  0.0556347526081286  0.6255412570462080
  0.7779393974035811  0.5556363653687388  0.6260033364930323
  0.6113062039330618  0.0556166301194412  0.6251623244312200
  0.9445703478783678  0.0556429030289932  0.6249289114436807
  0.0589202436716946  0.1129366865140254  0.3750000000000000
  0.5563546247586392  0.6231562265571159  0.3750000000000000
  0.3880091251248345  0.1052537784034698  0.3750000000000000
  0.8850795743843420  0.6092064538589052  0.3750000000000000
  0.7245568105565099  0.1111338710924277  0.3750000000000000
  0.0556524421710405  0.7778243314381611  0.8750000000000000
  0.3889435149984314  0.7778181314621273  0.8750000000000000
  0.2223157853418726  0.2778245593375611  0.8750000000000000
  0.7222844386906898  0.7777953825931613  0.8750000000000000
  0.5556009477356708  0.2777909781357777  0.8750000000000000
  0.8889568913056626  0.2778203992037170  0.8750000000000000
  0.2203235276838852  0.7768284305085739  0.3750000000000000
  0.0589202436716946  0.2793168904909791  0.3750000000000000
  0.3918561432798829  0.2722667463593446  0.3750000000000000
  0.5560804637549926  0.7832549280570545  0.3750000000000000
  0.8885370230255283  0.7782190210219671  0.3750000000000000
  0.7242241860902416  0.2757506197632757  0.3750000000000000
  0.0556285615688185  0.9444755334263220  0.8750000000000000
  0.3889435149984314  0.9444587168694420  0.8750000000000000
  0.2222974437988781  0.4444910738350443  0.8750000000000000
  0.5556162411089365  0.4444747872211325  0.8750000000000000
  0.7222801049862253  0.9444689149399501  0.8750000000000000
  0.8889788857003538  0.4444992668049619  0.8750000000000000
  0.0560692458364574  0.4450158581760665  0.3750000000000000
  0.2208115015824073  0.9422044509654826  0.3750000000000000
  0.5561042299780604  0.9447187816559071  0.3750000000000000
  0.3918561432798415  0.4529227302538891  0.3750000000000000
  0.8914898773014783  0.9466011459090071  0.3750000000000000
  0.7194975177271313  0.4404549104119342  0.3750000000000000
  0.2222839930928018  0.6111549121306002  0.8750000000000000
  0.0556316772200579  0.1111466708768468  0.8750000000000000
  0.5556009477356708  0.6111433029332103  0.8750000000000000
  0.3889413965089019  0.1111124675996220  0.8750000000000000
  0.8890162027570322  0.6111747680452528  0.8750000000000000
  0.0534160043984606  0.6104440960621164  0.3750000000000000
  0.7222801049862253  0.1111445233796574  0.8750000000000000
  0.2234533531606358  0.1102184894450094  0.3750000000000000
  0.3880091251248345  0.6160886800546710  0.3750000000000000
  0.7194975177271313  0.6123759406484602  0.3750000000000000
  0.5560804637549926  0.1061588690312985  0.3750000000000000
  0.3889413965089019  0.6111622622426022  0.8750000000000000
  0.8921017714510755  0.1127175523921071  0.3750000000000000
  0.2222935352659152  0.7778134342997322  0.8750000000000000
  0.0556316772200579  0.2778183396765250  0.8750000000000000
  0.3889743838440853  0.2778038669497910  0.8750000000000000
  0.5556062262843434  0.7778086724793432  0.8750000000000000
  0.8889788857003538  0.7778129522286722  0.8750000000000000
  0.7222844386906898  0.2778223894308360  0.8750000000000000
  0.0534160043984547  0.7763052416694568  0.3750000000000000
  0.3878199981864096  0.7790510587545659  0.3750000000000000
  0.2271352512136430  0.2802342922734603  0.3750000000000000
  0.7242241860902416  0.7818068996601680  0.3750000000000000
  0.5563546247584928  0.2665317315348683  0.3750000000000000
  0.8914898773014783  0.2782220647260099  0.3750000000000000
  0.0556285615688185  0.4444863614758572  0.8750000000000000
  0.2222839930928018  0.9444624142954745  0.8750000000000000
  0.5556093625387805  0.9444713479360886  0.8750000000000000
  0.3889743838440853  0.4445038502275836  0.8750000000000000
  0.8889568913056626  0.9444698254350751  0.8750000000000000
  0.0560692458364666  0.9443867209937579  0.3750000000000000
  0.7223236542964540  0.4445103503988461  0.8750000000000000
  0.3878199981864096  0.9421022727653237  0.3750000000000000
  0.2234533531606882  0.4465681970490027  0.3750000000000000
  0.2208115015824073  0.6119403839502587  0.3750000000000000
  0.7245568105565099  0.9467562727975306  0.3750000000000000
  0.8885370230255283  0.4436513353368997  0.3750000000000000
  0.0556524421710413  0.6111614440662161  0.8750000000000000
  0.2222974437988781  0.1111397032972334  0.8750000000000000
  0.7223236542964540  0.6111466372309601  0.8750000000000000
  0.5556062262843434  0.1111308871385348  0.8750000000000000
  0.8889557150174749  0.1111445241754411  0.8750000000000000
  0.1133541853720863  0.0561029647899702  0.3750000000000000
  0.6056796730412141  0.5621162797788513  0.3750000000000000
  0.4446776457382690  0.0524022872604593  0.3750000000000000
  0.9416779758858662  0.5545902601526320  0.3750000000000000
  0.7808820037118127  0.0571076685226121  0.3750000000000000
  0.1111723054493281  0.7222528193913912  0.8750000000000000
  0.4444964061513793  0.7221918292755323  0.8750000000000000
  0.2779902456354335  0.2223494618336782  0.8750000000000000
  0.7777694823768142  0.7221208516480531  0.8750000000000000
  0.6111214970083406  0.2223410750727327  0.8750000000000000
  0.9445353286889576  0.2222882580116991  0.8750000000000000
  0.2766901356421045  0.7224996591360520  0.3750000000000000
  0.1167205798331388  0.2250269565832250  0.3750000000000000
  0.4446343054611597  0.2163761825419724  0.3750000000000000
  0.6127698327744862  0.7298008122479948  0.3750000000000000
  0.9416779758858662  0.7204210490667956  0.3750000000000000
  0.7803373662900848  0.2222210200751416  0.3750000000000000
  0.1111941603926566  0.8889244250839147  0.8750000000000000
  0.4444894670458264  0.8889114001896696  0.8750000000000000
  0.2779902456354335  0.3889741171351800  0.8750000000000000
  0.6111297928454629  0.3889737757446035  0.8750000000000000
  0.7777991883707345  0.8888256564786521  0.8750000000000000
  0.9444981610780659  0.3889611950340199  0.8750000000000000
  0.1133541853720863  0.3905845539153987  0.3750000000000000
  0.2766901356421045  0.8875238098392959  0.3750000000000000
  0.6129954313754874  0.8919615800050448  0.3750000000000000
  0.9451102494903123  0.8891874820331400  0.3750000000000000
  0.7766433362117336  0.3875253686434414  0.3750000000000000
  0.2779061147458109  0.5555924764314898  0.8750000000000000
  0.1112473443540740  0.0556227590478515  0.8750000000000000
  0.6111297928454629  0.5554893504341454  0.8750000000000000
  0.4444964061513793  0.0556379102091743  0.8750000000000000
  0.9444819480081422  0.5556085880590572  0.8750000000000000
  0.1099856285801346  0.5558402841416611  0.3750000000000000
  0.7778179880676507  0.0555756607005030  0.8750000000000000
  0.2776516094253297  0.0535202779787736  0.3750000000000000
  0.4446343054612140  0.5615914562526193  0.3750000000000000
  0.7713136315695753  0.5523234824512856  0.3750000000000000
  0.6129954313754874  0.0543671847038318  0.3750000000000000
  0.4445598613132304  0.5555448046704085  0.8750000000000000
  0.9480874766961207  0.0576412676923270  0.3750000000000000
  0.2778522076220502  0.7222432656098540  0.8750000000000000
  0.1112901092477259  0.2223117212905320  0.8750000000000000
  0.4445598613132304  0.2223483899760833  0.8750000000000000
  0.6111214970083406  0.7221137552689377  0.8750000000000000
  0.9444819480081422  0.7222066932823809  0.8750000000000000
  0.7777991883707345  0.2223068652256177  0.8750000000000000
  0.1091026429890194  0.7212179881611100  0.3750000000000000
  0.4446776457382403  0.7256086918111428  0.3750000000000000
  0.2838713700305142  0.2236172439951052  0.3750000000000000
  0.7766433362117336  0.7224513009016117  0.3750000000000000
  0.6127698327744862  0.2163023538596909  0.3750000000000000
  0.9480874766961207  0.2237795423371434  0.3750000000000000
  0.1112473443540740  0.3889579186395374  0.8750000000000000
  0.2778522076220502  0.8889422753454650  0.8750000000000000
  0.6111360549017502  0.8888605568816410  0.8750000000000000
  0.4446224089958970  0.3889778711645513  0.8750000000000000
  0.9444981610780659  0.8888702993772928  0.8750000000000000
  0.1099856285801404  0.8874786777718470  0.3750000000000000
  0.7777694823768142  0.3889819640622542  0.8750000000000000
  0.4446049419590206  0.8889691376462310  0.3750000000000000
  0.2838713700305142  0.3935874593686807  0.3750000000000000
  0.2776516094253297  0.5574646647798916  0.3750000000000000
  0.6056796730412141  0.3768967265955598  0.3750000000000000
  0.7803373662900848  0.8914496795482471  0.3750000000000000
  0.9451102494903123  0.3892561007905827  0.3750000000000000
  0.1111941603926566  0.5556030686419917  0.8750000000000000
  0.2779061147458109  0.0556469716477113  0.8750000000000000
  0.7777752042698820  0.5555542688016648  0.8750000000000000
  0.6111360549017502  0.0556088313535938  0.8750000000000000
  0.9445353286889576  0.0555804040106283  0.8750000000000000
  0.0557456333801387  0.1112474613635087  0.1251082534256117
  0.5558717725399266  0.6109867656702480  0.1252474237960635
  0.3892204995402994  0.1115672026534073  0.1250420061173499
  0.8886521221802224  0.6109927277567727  0.1249471199009507
  0.7223894750263733  0.1112159648385362  0.1253357859924442
  0.0555675536289733  0.7778130619929631  0.6246054470315985
  0.3891332665408564  0.7777957877794124  0.6248908184110163
  0.2224974892623150  0.2779154112978510  0.6247578637052743
  0.7222977873302450  0.7777536270521652  0.6253493670542698
  0.5558717725399266  0.2782183402030440  0.6247525762038332
  0.8890054073529570  0.2778209273035817  0.6247041971770096
  0.2223798079499834  0.7778565706415546  0.1254184237727338
  0.0557456333801393  0.2778315053500847  0.1251082534256117
  0.3891613309750980  0.2781177504182031  0.1268503598798229
  0.5557878916048034  0.7777469815139400  0.1248230560842331
  0.8888433399781654  0.7777704856243449  0.1249286612703009
  0.7222977873302450  0.2778774936115053  0.1246506329457260
  0.0556886912400747  0.9445865680659451  0.6247683141618583
  0.3891332665408564  0.9446708120949224  0.6248908184110163
  0.2224859293731358  0.4444064578332732  0.6249775994509776
  0.5558922693860008  0.4446128013596647  0.6183296179151432
  0.7223894750263733  0.9445068435212118  0.6246642140074924
  0.8888433399781654  0.4444061876871797  0.6250713387296629
  0.0556886912400588  0.4444354565072811  0.1252316858381956
  0.2224411520812244  0.9446956823572709  0.1251473322827089
  0.5557761105601359  0.9445547219465354  0.1252531656784180
  0.3891613309750980  0.4443769138902684  0.1268503598798229
  0.8890054073529570  0.9445178133826123  0.1252958028229739
  0.7219791043070517  0.4443011359532918  0.1245919721238231
  0.2224411520812244  0.6110788030571750  0.6248526677172971
  0.0557456333801483  0.1112474613635087  0.6248917465743699
  0.5558717725399266  0.6109867656702480  0.6247525762038332
  0.3892204995402994  0.1115672026534073  0.6249579938825114
  0.8886521221802224  0.6109927277567727  0.6250528800990314
  0.0555675536289733  0.6110878249694011  0.1253945529683687
  0.7223894750263733  0.1112159648385362  0.6246642140074924
  0.2224859293731358  0.1114128048732254  0.1250224005490569
  0.3892204995402994  0.6109866302202835  0.1250420061173499
  0.7219791043070517  0.6110113016872423  0.1245919721238231
  0.5557878916048034  0.1113742434243683  0.1248230560842331
  0.3892204995402994  0.6109866302202835  0.6249579938825114
  0.8890450047221388  0.1111891690277279  0.1255058227244384
  0.2223798079499834  0.7778565706415546  0.6245815762271995
  0.0557456333801387  0.2778315053500847  0.6248917465743699
  0.3891613309750980  0.2781177504182031  0.6231496401201280
  0.5557878916048034  0.7777469815139400  0.6251769439156124
  0.8888433399781654  0.7777704856243449  0.6250713387296629
  0.7222977873302450  0.2778774936115053  0.6253493670542698
  0.0555675536289733  0.7778130619929631  0.1253945529683687
  0.3891332665408564  0.7777957877794124  0.1251091815889459
  0.2224974892623150  0.2779154112978510  0.1252421362948227
  0.7222977873302450  0.7777536270521652  0.1246506329457260
  0.5558717725399266  0.2782183402030440  0.1252474237960635
  0.8890054073529570  0.2778209273035817  0.1252958028229739
  0.0556886912400747  0.4444354565072811  0.6247683141618583
  0.2224411520812244  0.9446956823572709  0.6248526677172971
  0.5557761105601359  0.9445547219465354  0.6247468343216181
  0.3891613309750980  0.4443769138902684  0.6231496401201280
  0.8890054073529570  0.9445178133826123  0.6247041971770096
  0.0556886912400588  0.9445865680659451  0.1252316858381956
  0.7219791043070517  0.4443011359532918  0.6254080278761783
  0.3891332665408564  0.9446708120949224  0.1251091815889459
  0.2224859293731358  0.4444064578332732  0.1250224005490569
  0.2224411520812244  0.6110788030571750  0.1251473322827089
  0.5558922693859635  0.4446128013596460  0.1316703820847882
  0.7223894750263733  0.9445068435212118  0.1253357859924442
  0.8888433399781654  0.4444061876871797  0.1249286612703009
  0.0555675536289733  0.6110878249694011  0.6246054470315985
  0.2224859293731358  0.1114128048732254  0.6249775994509776
  0.7219791043070517  0.6110113016872423  0.6254080278761783
  0.5557878916048034  0.1113742434243670  0.6251769439156124
  0.8890450047221388  0.1111891690277279  0.6244941772755940
 
  0.00000000E+00  0.00000000E+00  0.00000000E+00
  0.00000000E+00  0.00000000E+00  0.00000000E+00
  0.00000000E+00  0.00000000E+00  0.00000000E+00
  0.00000000E+00  0.00000000E+00  0.00000000E+00
  0.00000000E+00  0.00000000E+00  0.00000000E+00
  0.00000000E+00  0.00000000E+00  0.00000000E+00
  0.00000000E+00  0.00000000E+00  0.00000000E+00
  0.00000000E+00  0.00000000E+00  0.00000000E+00
  0.00000000E+00  0.00000000E+00  0.00000000E+00
  0.00000000E+00  0.00000000E+00  0.00000000E+00
  0.00000000E+00  0.00000000E+00  0.00000000E+00
  0.00000000E+00  0.00000000E+00  0.00000000E+00
  0.00000000E+00  0.00000000E+00  0.00000000E+00
  0.00000000E+00  0.00000000E+00  0.00000000E+00
  0.00000000E+00  0.00000000E+00  0.00000000E+00
  0.00000000E+00  0.00000000E+00  0.00000000E+00
  0.00000000E+00  0.00000000E+00  0.00000000E+00
  0.00000000E+00  0.00000000E+00  0.00000000E+00
  0.00000000E+00  0.00000000E+00  0.00000000E+00
  0.00000000E+00  0.00000000E+00  0.00000000E+00
  0.00000000E+00  0.00000000E+00  0.00000000E+00
  0.00000000E+00  0.00000000E+00  0.00000000E+00
  0.00000000E+00  0.00000000E+00  0.00000000E+00
  0.00000000E+00  0.00000000E+00  0.00000000E+00
  0.00000000E+00  0.00000000E+00  0.00000000E+00
  0.00000000E+00  0.00000000E+00  0.00000000E+00
  0.00000000E+00  0.00000000E+00  0.00000000E+00
  0.00000000E+00  0.00000000E+00  0.00000000E+00
  0.00000000E+00  0.00000000E+00  0.00000000E+00
  0.00000000E+00  0.00000000E+00  0.00000000E+00
  0.00000000E+00  0.00000000E+00  0.00000000E+00
  0.00000000E+00  0.00000000E+00  0.00000000E+00
  0.00000000E+00  0.00000000E+00  0.00000000E+00
  0.00000000E+00  0.00000000E+00  0.00000000E+00
  0.00000000E+00  0.00000000E+00  0.00000000E+00
  0.00000000E+00  0.00000000E+00  0.00000000E+00
  0.00000000E+00  0.00000000E+00  0.00000000E+00
  0.00000000E+00  0.00000000E+00  0.00000000E+00
  0.00000000E+00  0.00000000E+00  0.00000000E+00
  0.00000000E+00  0.00000000E+00  0.00000000E+00
  0.00000000E+00  0.00000000E+00  0.00000000E+00
  0.00000000E+00  0.00000000E+00  0.00000000E+00
  0.00000000E+00  0.00000000E+00  0.00000000E+00
  0.00000000E+00  0.00000000E+00  0.00000000E+00
  0.00000000E+00  0.00000000E+00  0.00000000E+00
  0.00000000E+00  0.00000000E+00  0.00000000E+00
  0.00000000E+00  0.00000000E+00  0.00000000E+00
  0.00000000E+00  0.00000000E+00  0.00000000E+00
  0.00000000E+00  0.00000000E+00  0.00000000E+00
  0.00000000E+00  0.00000000E+00  0.00000000E+00
  0.00000000E+00  0.00000000E+00  0.00000000E+00
  0.00000000E+00  0.00000000E+00  0.00000000E+00
  0.00000000E+00  0.00000000E+00  0.00000000E+00
  0.00000000E+00  0.00000000E+00  0.00000000E+00
  0.00000000E+00  0.00000000E+00  0.00000000E+00
  0.00000000E+00  0.00000000E+00  0.00000000E+00
  0.00000000E+00  0.00000000E+00  0.00000000E+00
  0.00000000E+00  0.00000000E+00  0.00000000E+00
  0.00000000E+00  0.00000000E+00  0.00000000E+00
  0.00000000E+00  0.00000000E+00  0.00000000E+00
  0.00000000E+00  0.00000000E+00  0.00000000E+00
  0.00000000E+00  0.00000000E+00  0.00000000E+00
  0.00000000E+00  0.00000000E+00  0.00000000E+00
  0.00000000E+00  0.00000000E+00  0.00000000E+00
  0.00000000E+00  0.00000000E+00  0.00000000E+00
  0.00000000E+00  0.00000000E+00  0.00000000E+00
  0.00000000E+00  0.00000000E+00  0.00000000E+00
  0.00000000E+00  0.00000000E+00  0.00000000E+00
  0.00000000E+00  0.00000000E+00  0.00000000E+00
  0.00000000E+00  0.00000000E+00  0.00000000E+00
  0.00000000E+00  0.00000000E+00  0.00000000E+00
  0.00000000E+00  0.00000000E+00  0.00000000E+00
  0.00000000E+00  0.00000000E+00  0.00000000E+00
  0.00000000E+00  0.00000000E+00  0.00000000E+00
  0.00000000E+00  0.00000000E+00  0.00000000E+00
  0.00000000E+00  0.00000000E+00  0.00000000E+00
  0.00000000E+00  0.00000000E+00  0.00000000E+00
  0.00000000E+00  0.00000000E+00  0.00000000E+00
  0.00000000E+00  0.00000000E+00  0.00000000E+00
  0.00000000E+00  0.00000000E+00  0.00000000E+00
  0.00000000E+00  0.00000000E+00  0.00000000E+00
  0.00000000E+00  0.00000000E+00  0.00000000E+00
  0.00000000E+00  0.00000000E+00  0.00000000E+00
  0.00000000E+00  0.00000000E+00  0.00000000E+00
  0.00000000E+00  0.00000000E+00  0.00000000E+00
  0.00000000E+00  0.00000000E+00  0.00000000E+00
  0.00000000E+00  0.00000000E+00  0.00000000E+00
  0.00000000E+00  0.00000000E+00  0.00000000E+00
  0.00000000E+00  0.00000000E+00  0.00000000E+00
  0.00000000E+00  0.00000000E+00  0.00000000E+00
  0.00000000E+00  0.00000000E+00  0.00000000E+00
  0.00000000E+00  0.00000000E+00  0.00000000E+00
  0.00000000E+00  0.00000000E+00  0.00000000E+00
  0.00000000E+00  0.00000000E+00  0.00000000E+00
  0.00000000E+00  0.00000000E+00  0.00000000E+00
  0.00000000E+00  0.00000000E+00  0.00000000E+00
  0.00000000E+00  0.00000000E+00  0.00000000E+00
  0.00000000E+00  0.00000000E+00  0.00000000E+00
  0.00000000E+00  0.00000000E+00  0.00000000E+00
  0.00000000E+00  0.00000000E+00  0.00000000E+00
  0.00000000E+00  0.00000000E+00  0.00000000E+00
  0.00000000E+00  0.00000000E+00  0.00000000E+00
  0.00000000E+00  0.00000000E+00  0.00000000E+00
  0.00000000E+00  0.00000000E+00  0.00000000E+00
  0.00000000E+00  0.00000000E+00  0.00000000E+00
  0.00000000E+00  0.00000000E+00  0.00000000E+00
  0.00000000E+00  0.00000000E+00  0.00000000E+00
  0.00000000E+00  0.00000000E+00  0.00000000E+00
  0.00000000E+00  0.00000000E+00  0.00000000E+00
  0.00000000E+00  0.00000000E+00  0.00000000E+00
  0.00000000E+00  0.00000000E+00  0.00000000E+00
  0.00000000E+00  0.00000000E+00  0.00000000E+00
  0.00000000E+00  0.00000000E+00  0.00000000E+00
  0.00000000E+00  0.00000000E+00  0.00000000E+00
  0.00000000E+00  0.00000000E+00  0.00000000E+00
  0.00000000E+00  0.00000000E+00  0.00000000E+00
  0.00000000E+00  0.00000000E+00  0.00000000E+00
  0.00000000E+00  0.00000000E+00  0.00000000E+00
  0.00000000E+00  0.00000000E+00  0.00000000E+00
  0.00000000E+00  0.00000000E+00  0.00000000E+00
  0.00000000E+00  0.00000000E+00  0.00000000E+00
  0.00000000E+00  0.00000000E+00  0.00000000E+00
  0.00000000E+00  0.00000000E+00  0.00000000E+00
  0.00000000E+00  0.00000000E+00  0.00000000E+00
  0.00000000E+00  0.00000000E+00  0.00000000E+00
  0.00000000E+00  0.00000000E+00  0.00000000E+00
  0.00000000E+00  0.00000000E+00  0.00000000E+00
  0.00000000E+00  0.00000000E+00  0.00000000E+00
  0.00000000E+00  0.00000000E+00  0.00000000E+00
  0.00000000E+00  0.00000000E+00  0.00000000E+00
  0.00000000E+00  0.00000000E+00  0.00000000E+00
  0.00000000E+00  0.00000000E+00  0.00000000E+00
  0.00000000E+00  0.00000000E+00  0.00000000E+00
  0.00000000E+00  0.00000000E+00  0.00000000E+00
  0.00000000E+00  0.00000000E+00  0.00000000E+00
  0.00000000E+00  0.00000000E+00  0.00000000E+00
  0.00000000E+00  0.00000000E+00  0.00000000E+00
  0.00000000E+00  0.00000000E+00  0.00000000E+00
  0.00000000E+00  0.00000000E+00  0.00000000E+00
  0.00000000E+00  0.00000000E+00  0.00000000E+00
  0.00000000E+00  0.00000000E+00  0.00000000E+00
  0.00000000E+00  0.00000000E+00  0.00000000E+00
  0.00000000E+00  0.00000000E+00  0.00000000E+00
  0.00000000E+00  0.00000000E+00  0.00000000E+00
  0.00000000E+00  0.00000000E+00  0.00000000E+00
  0.00000000E+00  0.00000000E+00  0.00000000E+00
  0.00000000E+00  0.00000000E+00  0.00000000E+00
  0.00000000E+00  0.00000000E+00  0.00000000E+00
  0.00000000E+00  0.00000000E+00  0.00000000E+00
  0.00000000E+00  0.00000000E+00  0.00000000E+00
  0.00000000E+00  0.00000000E+00  0.00000000E+00
  0.00000000E+00  0.00000000E+00  0.00000000E+00
  0.00000000E+00  0.00000000E+00  0.00000000E+00
  0.00000000E+00  0.00000000E+00  0.00000000E+00
  0.00000000E+00  0.00000000E+00  0.00000000E+00
  0.00000000E+00  0.00000000E+00  0.00000000E+00
  0.00000000E+00  0.00000000E+00  0.00000000E+00
  0.00000000E+00  0.00000000E+00  0.00000000E+00
  0.00000000E+00  0.00000000E+00  0.00000000E+00
  0.00000000E+00  0.00000000E+00  0.00000000E+00
  0.00000000E+00  0.00000000E+00  0.00000000E+00
  0.00000000E+00  0.00000000E+00  0.00000000E+00
  0.00000000E+00  0.00000000E+00  0.00000000E+00
  0.00000000E+00  0.00000000E+00  0.00000000E+00
  0.00000000E+00  0.00000000E+00  0.00000000E+00
  0.00000000E+00  0.00000000E+00  0.00000000E+00
  0.00000000E+00  0.00000000E+00  0.00000000E+00
  0.00000000E+00  0.00000000E+00  0.00000000E+00
  0.00000000E+00  0.00000000E+00  0.00000000E+00
  0.00000000E+00  0.00000000E+00  0.00000000E+00
  0.00000000E+00  0.00000000E+00  0.00000000E+00
  0.00000000E+00  0.00000000E+00  0.00000000E+00
  0.00000000E+00  0.00000000E+00  0.00000000E+00
  0.00000000E+00  0.00000000E+00  0.00000000E+00
  0.00000000E+00  0.00000000E+00  0.00000000E+00
  0.00000000E+00  0.00000000E+00  0.00000000E+00
  0.00000000E+00  0.00000000E+00  0.00000000E+00
  0.00000000E+00  0.00000000E+00  0.00000000E+00
  0.00000000E+00  0.00000000E+00  0.00000000E+00
  0.00000000E+00  0.00000000E+00  0.00000000E+00
  0.00000000E+00  0.00000000E+00  0.00000000E+00
  0.00000000E+00  0.00000000E+00  0.00000000E+00
  0.00000000E+00  0.00000000E+00  0.00000000E+00
  0.00000000E+00  0.00000000E+00  0.00000000E+00
  0.00000000E+00  0.00000000E+00  0.00000000E+00
  0.00000000E+00  0.00000000E+00  0.00000000E+00
  0.00000000E+00  0.00000000E+00  0.00000000E+00
  0.00000000E+00  0.00000000E+00  0.00000000E+00
  0.00000000E+00  0.00000000E+00  0.00000000E+00
  0.00000000E+00  0.00000000E+00  0.00000000E+00
  0.00000000E+00  0.00000000E+00  0.00000000E+00
  0.00000000E+00  0.00000000E+00  0.00000000E+00
  0.00000000E+00  0.00000000E+00  0.00000000E+00
  0.00000000E+00  0.00000000E+00  0.00000000E+00
  0.00000000E+00  0.00000000E+00  0.00000000E+00
  0.00000000E+00  0.00000000E+00  0.00000000E+00
  0.00000000E+00  0.00000000E+00  0.00000000E+00
  0.00000000E+00  0.00000000E+00  0.00000000E+00
  0.00000000E+00  0.00000000E+00  0.00000000E+00
  0.00000000E+00  0.00000000E+00  0.00000000E+00
  0.00000000E+00  0.00000000E+00  0.00000000E+00
  0.00000000E+00  0.00000000E+00  0.00000000E+00
  0.00000000E+00  0.00000000E+00  0.00000000E+00
  0.00000000E+00  0.00000000E+00  0.00000000E+00
  0.00000000E+00  0.00000000E+00  0.00000000E+00
  0.00000000E+00  0.00000000E+00  0.00000000E+00
  0.00000000E+00  0.00000000E+00  0.00000000E+00
  0.00000000E+00  0.00000000E+00  0.00000000E+00
  0.00000000E+00  0.00000000E+00  0.00000000E+00
  0.00000000E+00  0.00000000E+00  0.00000000E+00
  0.00000000E+00  0.00000000E+00  0.00000000E+00
  0.00000000E+00  0.00000000E+00  0.00000000E+00
  0.00000000E+00  0.00000000E+00  0.00000000E+00
  0.00000000E+00  0.00000000E+00  0.00000000E+00
  0.00000000E+00  0.00000000E+00  0.00000000E+00
  0.00000000E+00  0.00000000E+00  0.00000000E+00
  0.00000000E+00  0.00000000E+00  0.00000000E+00
  0.00000000E+00  0.00000000E+00  0.00000000E+00
  0.00000000E+00  0.00000000E+00  0.00000000E+00
  0.00000000E+00  0.00000000E+00  0.00000000E+00
  0.00000000E+00  0.00000000E+00  0.00000000E+00
  0.00000000E+00  0.00000000E+00  0.00000000E+00
  0.00000000E+00  0.00000000E+00  0.00000000E+00
  0.00000000E+00  0.00000000E+00  0.00000000E+00
  0.00000000E+00  0.00000000E+00  0.00000000E+00
  0.00000000E+00  0.00000000E+00  0.00000000E+00
  0.00000000E+00  0.00000000E+00  0.00000000E+00
  0.00000000E+00  0.00000000E+00  0.00000000E+00
  0.00000000E+00  0.00000000E+00  0.00000000E+00
  0.00000000E+00  0.00000000E+00  0.00000000E+00
  0.00000000E+00  0.00000000E+00  0.00000000E+00
  0.00000000E+00  0.00000000E+00  0.00000000E+00
  0.00000000E+00  0.00000000E+00  0.00000000E+00
  0.00000000E+00  0.00000000E+00  0.00000000E+00
  0.00000000E+00  0.00000000E+00  0.00000000E+00
  0.00000000E+00  0.00000000E+00  0.00000000E+00
  0.00000000E+00  0.00000000E+00  0.00000000E+00
  0.00000000E+00  0.00000000E+00  0.00000000E+00
  0.00000000E+00  0.00000000E+00  0.00000000E+00
  0.00000000E+00  0.00000000E+00  0.00000000E+00
  0.00000000E+00  0.00000000E+00  0.00000000E+00
  0.00000000E+00  0.00000000E+00  0.00000000E+00
  0.00000000E+00  0.00000000E+00  0.00000000E+00
  0.00000000E+00  0.00000000E+00  0.00000000E+00
  0.00000000E+00  0.00000000E+00  0.00000000E+00
  0.00000000E+00  0.00000000E+00  0.00000000E+00
  0.00000000E+00  0.00000000E+00  0.00000000E+00
  0.00000000E+00  0.00000000E+00  0.00000000E+00