 Al N B 
 1.0
 14.936314146199660   0.000000000000000   0.000000000000000
 -7.468157073099825  12.935227489513863   0.000000000000000
  0.000000000000001   0.000000000000001  13.341276283792837
 Al N B 
   1 143 143
Cartesian
  4.294160523189666   5.353729731678528   5.002978606422314 
  1.245553540835149   0.719353755415533   1.662455259656951 
  4.981294963740727   7.191982922831675   1.654020201866946 
  6.225473223171864   0.719582370761272   1.659875395369384 
  9.959165922947150   7.186864382078999   1.664201295758335 
 11.204280394328840   0.719804306404069   1.671196904313045 
 -3.732573862886761   9.342977466168852   8.334875892813365 
  1.246527533747710   9.343369272970019   8.346081817476191 
  2.489436576574097   2.874472623131918   8.344551374940803 
  6.225060586546795   9.345116517399354   8.353640032279291 
  7.471449055611129   2.874418190001783   8.353649309102694 
 12.448521046438689   2.874993727789450   8.337349265300055 
 -1.242929421330778   9.343045146895625   1.667132488923825 
  0.000450430462379   2.874755053818493   1.660355146587308 
  4.980915751824486   2.875466656371928   1.664281789167610 
  3.735658010413996   9.344998086744100   1.652307903742320 
  8.714204398874557   9.343200995241128   1.664201295758335 
  9.960341334871194   2.874707846294947   1.664169715789156 
 -4.977419906969584  11.499041201145538   8.338275952252808 
  0.002006914156293  11.499138683104540   8.339340345025418 
  1.244698911368789   5.030421501362186   8.344551374940803 
  6.229701705594201   5.029679017429921   8.351937010976560 
  4.980354999750672  11.500297199722484   8.341787497055739 
 11.204317672842077   5.030753944325419   8.339343461037801 
 -1.243630294118262   5.030746626934013   1.662455259656951 
 -2.487693028881188  11.499038958585677   1.667132488923825 
  2.491298789308320  11.499713547333764   1.665493920387054 
  3.732338966907419   5.029361904919564   1.698091484860424 
  7.469533861361176  11.499589261096126   1.666613751810428 
  8.716252907631645   5.030244845854923   1.652317180564910 
  0.001611932758953   7.186980579824215   8.345518737164534 
  1.245553540835075   0.719353755415663   8.343501953187157 
  4.981294963740728   7.191982922831675   8.351937010976560 
  6.225473223171947   0.719582370761131   8.346081817476191 
  9.959165922947150   7.186864382079000   8.341755917086012 
 -2.487790918263050   7.186877300709466   1.667681260592715 
 11.204280394328840   0.719804306404069   8.334760308531102 
  3.735528033980488   0.719648181308974   1.660438475681215 
  2.491299357032174   7.187608743508699   1.664281789167597 
  7.469967574225119   7.187282787491281   1.654273746113859 
  8.715307771856528   0.719413762795118   1.665493920387121 
  2.491299357032175   7.187608743508700   8.341675423677097 
 13.692849509272619   0.719753608856985   1.668607947544399 
 -1.242929421330778   9.343045146895625   8.338824723923391 
  0.000450430462380   2.874755053818494   8.345602066257706 
  4.980915751824487   2.875466656371929   8.341675423677097 
  3.735658010413996   9.344998086744100   8.353649309102694 
  8.714204398874557   9.343200995241128   8.341755917086012 
  9.960341334871194   2.874707846294948   8.341787497055739 
 -3.732573862886762   9.342977466168852   1.671081320032824 
  1.246527533747710   9.343369272970019   1.659875395369384 
  2.489436576574097   2.874472623131917   1.661405837902823 
  6.225060586546794   9.345116517399354   1.652317180564910 
  7.471449055611128   2.874418190001782   1.652307903742320 
 12.448521046438689   2.874993727789449   1.668607947544399 
 -1.243630294118262   5.030746626934014   8.343501953187157 
 -2.487693028881188  11.499038958585677   8.338824723923391 
  2.491298789308320  11.499713547333764   8.340463292455038 
  3.732338966907420   5.029361904919565   8.307865727982536 
  7.469533861361177  11.499589261096126   8.339343461037801 
 -4.977419906969585  11.499041201145538   1.667681260592715 
  8.716252907631645   5.030244845854924   8.353640032279291 
  0.002006914156293  11.499138683104540   1.666616867818876 
  1.244698911368789   5.030421501362185   1.661405837902810 
  0.001611932758952   7.186980579824214   1.660438475681215 
  6.229701705594200   5.029679017429920   1.654020201867026 
  4.980354999750671  11.500297199722484   1.664169715789156 
 11.204317672842077   5.030753944325419   1.666613751810428 
 -2.487790918263050   7.186877300709467   8.338275952252808 
  3.735528033980489   0.719648181308974   8.345518737164534 
  7.469967574225120   7.187282787491282   8.351683466729675 
  8.715307771856528   0.719413762795119   8.340463292455038 
 13.692849509272619   0.719753608856985   8.337349265300055 
  0.036622354848896   1.460861731970826   5.002978606422314 
  3.656058871077340   8.060667552023336   5.002978606422314 
  5.009374434802256   1.361481567779766   5.002978606422314 
  8.670177080024779   7.880224068744968   5.002978606422314 
  9.992242933780627   1.437541904370865   5.002978606422314 
 -4.977671923189180  10.061334674031643  11.673616748318732 
  0.000514545079512  10.061254475931214  11.673616748318732 
  1.245740961627657   3.593723877205296  11.673616748318732 
  4.979569191258136  10.060960214136012  11.673616748318732 
  6.224043637098212   3.593289496720862  11.673616748318732 
 11.202933011605792   3.593670064927637  11.673616748318732 
 -2.510655314602218  10.048452468950416   5.002978606422314 
 -1.205931142305385   3.613027520164446   5.002978606422314 
  3.819555628553139   3.521832301987899   5.002978606422314 
  2.456321666199381  10.131580676700821   5.002978606422314 
  7.459606220172301  10.066440073585916   5.002978606422314 
  8.757891014322846   3.566896997012412   5.002978606422314 
 -6.222605964234440  12.217005883149431  11.673616748318732 
 -1.243983521495623  12.216788357160599  11.673616748318732 
  0.000775297486286   5.749593157114599  11.673616748318732 
  4.979451195933646   5.749382486058613  11.673616748318732 
  3.734760342192623  12.216920271522573  11.673616748318732 
  9.958477562781844   5.749699135044303  11.673616748318732 
 -2.485980459125356   5.756381361948653   5.002978606422314 
 -3.738420880055114  12.187628914871032   5.002978606422314 
  1.250839225668956  12.220152354335532   5.002978606422314 
  2.470388364632665   5.858658551005779   5.002978606422314 
  6.246206822307115  12.244501164167511   5.002978606422314 
  7.457254497608854   5.697384465051816   5.002978606422314 
 -1.244097329282076   7.905427819743168  11.673616748318732 
  0.000871411178343   1.437707472494143  11.673616748318732 
  3.734516114828001   7.905277652133957  11.673616748318732 
  4.979545521904873   1.437265045322350  11.673616748318732 
  8.714276118563262   7.905684660516216  11.673616748318732 
 -3.761054171608123   7.896233252194126   5.002978606422314 
  9.958157791210233   1.437679694129457  11.673616748318732 
  2.514440488293834   1.425701234521775   5.002978606422314 
  1.194379150849586   7.969247230221493   5.002978606422314 
  6.173321239633333   7.921222101392871   5.002978606422314 
  7.512981388580603   1.373189120949348   5.002978606422314 
  1.245095111139787   7.905522895113986  11.673616748318732 
 12.482919922614855   1.458027182253102   5.002978606422314 
 -2.488586825516589  10.061193717067081  11.673616748318732 
 -1.243858791053323   3.593643424474887  11.673616748318732 
  3.735160678024140   3.593456216462189  11.673616748318732 
  2.489911798472451  10.061132121837085  11.673616748318732 
  7.469238605423795  10.061187481368252  11.673616748318732 
  8.713446036502244   3.593695808968177  11.673616748318732 
 -4.999731259328117  10.041684902296463   5.002978606422314 
 -0.025474349653017  10.077202670936943   5.002978606422314 
  1.299729753835786   3.624894320920122   5.002978606422314 
  4.978583228224287  10.112850099975812   5.002978606422314 
  6.319386616016214   3.447648580577554   5.002978606422314 
 11.237766784955875   3.598865699833190   5.002978606422314 
 -2.488608293259251   5.749532201676502  11.673616748318732 
 -3.733290109091921  12.216836184207461  11.673616748318732 
  1.245295604019928  12.216951742881113  11.673616748318732 
  2.490219018822468   5.749758422658599  11.673616748318732 
  6.224290383818137  12.216932048984143  11.673616748318732 
 -6.215360500377115  12.215857074130318   5.002978606422314 
  7.469179898405535   5.749842503852594  11.673616748318732 
 -1.243166426844973  12.186307216607506   5.002978606422314 
  0.002528040416785   5.776461218410908   5.002978606422314 
 -1.271956951984654   7.915588076417059   5.002978606422314 
  3.751683584045999  12.246507765760310   5.002978606422314 
  9.958210248451874   5.738730948609403   5.002978606422314 
 -3.733007302039135   7.905512311816307  11.673616748318732 
  2.490295693195760   1.437617345266784  11.673616748318732 
  6.224713934265193   7.905320782033871  11.673616748318732 
  7.468766216543933   1.437503306248442  11.673616748318732 
 12.447677057203409   1.437679704423104  11.673616748318732 
  1.274107969185942   0.725704612394449   5.002978606422314 
  4.848649197776083   7.271101954498660   5.002978606422314 
  6.250496498288462   0.677835506684892   5.002978606422314 
  9.923430898357573   7.173751178542972   5.002978606422314 
 11.237009879948102   0.738700683735737   5.002978606422314 
 -3.733393023155679   9.342504523770414  11.673616748318732 
  1.245695941194786   9.341715602747167  11.673616748318732 
  2.491608932296931   2.876140870989607  11.673616748318732 
  6.224097376238919   9.340797490989059  11.673616748318732 
  7.467424588367346   2.876032386328883  11.673616748318732 
 12.447792765145120   2.875349185629080  11.673616748318732 
 -1.263010152584058   9.345697452021055   5.002978606422314 
  0.062838590269202   2.910774874676975   5.002978606422314 
  5.025266348444019   2.798875144492986   5.002978606422314 
  3.702255623690095   9.440139528459811   5.002978606422314 
  8.684980519190535   9.318810157913235   5.002978606422314 
  9.995782560061153   2.874479447623789   5.002978606422314 
 -4.977796321793998  11.498439659445767  11.673616748318732 
  0.000504353787766  11.498271179475680  11.673616748318732 
  1.247229834254198   5.031468692676366  11.673616748318732 
  6.223109315464348   5.031464276711604  11.673616748318732 
  4.979563406980770  11.497162065067867  11.673616748318732 
 11.202497944515205   5.031301542358220  11.673616748318732 
 -1.223853076462800   5.052300058785979   5.002978606422314 
 -2.495436430890781  11.480322382631337   5.002978606422314 
  2.494583150561478  11.537725949271477   5.002978606422314 
  7.475871805922820  11.501842360926688   5.002978606422314 
  8.706088526370889   5.012728801360633   5.002978606422314 
  0.001641150370363   7.186715074103693  11.673616748318732 
  1.246225781794358   0.719493041878382  11.673616748318732 
  4.979544848565370   7.185381115867954  11.673616748318732 
  6.223625306472616   0.719689025596813  11.673616748318732 
  9.957706874075971   7.186923481671499  11.673616748318732 
 -2.508322649486229   7.189920523208411   5.002978606422314 
 11.202686054790757   0.718883814041043  11.673616748318732 
  3.747393819033210   0.692296970957461   5.002978606422314 
  2.447144460340565   7.264313242795000   5.002978606422314 
  7.395744184261576   7.144429893307904   5.002978606422314 
  8.749869658219001   0.703251902108486   5.002978606422314 
  2.491189882942189   7.186098429029272  11.673616748318732 
 13.730458348992121   0.745602910384216   5.002978606422314 
 -1.243738293304915   9.342380943432847  11.673616748318732 
  0.002005179300033   2.875652688478435  11.673616748318732 
  4.979553044073115   2.876127006267779  11.673616748318732 
  3.735043711818002   9.340705697710854  11.673616748318732 
  8.713526056187373   9.341907872057163  11.673616748318732 
  9.957230432231061   2.875589874174069  11.673616748318732 
 -3.756577869667563   9.329118746393474   5.002978606422314 
  1.222885326486737   9.385913496945689   5.002978606422314 
  2.569983257478712   2.892539921654811   5.002978606422314 
  6.204809056412477   9.345071927257584   5.002978606422314 
  7.537142767728563   2.797920153692430   5.002978606422314 
 12.489711618090837   2.894639287630244   5.002978606422314 
 -1.243173548023143   5.031259161450237  11.673616748318732 
 -2.488672681940655  11.498670556639663  11.673616748318732 
  2.489969847206586  11.497613509720006  11.673616748318732 
  3.736072137385934   5.031517251900283  11.673616748318732 
  7.469098231006993  11.497739531117579  11.673616748318732 
 -4.985050264586892  11.479738589071811   5.002978606422314 
  8.712030915887411   5.031570194463162  11.673616748318732 
  0.001797930972653  11.499018026610960   5.002978606422314 
  1.300618991320240   5.091143323953684   5.002978606422314 
 -0.016142017704513   7.210932256293490   5.002978606422314 
  6.231897913958267   4.875244898566679   5.002978606422314 
  4.997877813295969  11.531104400410809   5.002978606422314 
 11.209437886813987   5.035116215407329   5.002978606422314 
 -2.488500076067023   7.186852086756154  11.673616748318732 
  3.735312708085806   0.719806237365671  11.673616748318732 
  7.468128244057614   7.186220849720073  11.673616748318732 
  8.712824614881503   0.719312883984751  11.673616748318732 
 13.692793204144511   0.718945169836563  11.673616748318732 
  0.001820776998341   1.439011220367893   1.669103774333861 
  3.739730284050544   7.903252807026957   1.670960484696566 
  4.980318259652663   1.443147146690515   1.668219950691280 
  8.710197602161500   7.903329927972471   1.666954047462778 
  9.959257840451626   1.438603805652238   1.672139349171528 
 -4.978855683134040  10.061188901194326   8.333033837210483 
  0.003515599859004  10.060965455312342   8.336841055626785 
  1.247776451755130   3.594899067979515   8.335067270164249 
  4.980080407670783  10.060420096714278   8.342958679765994 
  6.224897154407737   3.598817522281335   8.334996728146674 
 11.203653718596563   3.593676896019527   8.334351290183488 
 -2.487620378581407  10.061751695461625   1.673241842629856 
 -1.242255029365579   3.593813725457438   1.669103774333861 
  3.735608848056929   3.597516370531296   1.692345697855269 
  2.493085926587932  10.060334135165547   1.665298877807121 
  7.467531199207482  10.060638166180574   1.666707785771455 
  8.713233889299438   3.594408594080752   1.662998533078580 
 -6.222537072704298  12.218442141472170   8.335206692592829 
 -1.242733293306576  12.219531857151621   8.336841055626785 
  0.004222502827553   5.748498629882437   8.337998825457111 
  4.982543329728251   5.751167730337307   8.249306267057984 
  3.736110670868032  12.217410886349549   8.333817863672246 
  9.957148138765879   5.748495135481269   8.339249427072692 
 -2.487330011298962   5.748873734327624   1.670750520252519 
 -3.732684815595583  12.219853559652828   1.669625136163247 
  1.247163554644332  12.218030204672944   1.671037088735453 
  2.493959300405367   5.748116472258729   1.692345697855269 
  6.224656653211828  12.217552784002288   1.671605922660927 
  7.465596037866117   5.747136267405259   1.662215922846538 
 -1.241181558745080   7.904443331564399   8.336332076681460 
  0.001820776998476   1.439011220367894   8.336853438510525 
  3.739730284050544   7.903252807026958   8.334996728146674 
  4.980318259652664   1.443147146690515   8.337737262151494 
  8.710197602161500   7.903329927972472   8.339003165381611 
 -3.733725424992282   7.904560032051432   1.672923375633706 
  9.959257840451626   1.438603805652239   8.333817863672246 
  2.491071407478484   1.441149976279984   1.667958387387983 
  1.250575529225626   7.903251054950859   1.668219950691280 
  6.220578334482473   7.903570185988462   1.662215922846538 
  7.469662203872466   1.440651175166694   1.665298877807121 
  1.250575529225626   7.903251054950860   8.337737262151494 
 12.448677301512909   1.438257195743671   1.674407856191453 
 -2.487620378581407  10.061751695461625   8.332715370213878 
 -1.242255029365579   3.593813725457438   8.336853438510525 
  3.735608848056929   3.597516370531296   8.313611514988704 
  2.493085926587933  10.060334135165547   8.340658335035439 
  7.467531199207483  10.060638166180574   8.339249427072692 
  8.713233889299438   3.594408594080753   8.342958679765994 
 -4.978855683134041  10.061188901194326   1.672923375633706 
  0.003515599859004  10.060965455312342   1.669116157217337 
  1.247776451755129   3.594899067979514   1.670889942681672 
  4.980080407670782  10.060420096714278   1.662998533078580 
  6.224897154407736   3.598817522281335   1.670960484696566 
 11.203653718596563   3.593676896019526   1.671605922660927 
 -2.487330011298722   5.748873734327625   8.335206692592829 
 -3.732684815595582  12.219853559652828   8.336332076681460 
  1.247163554644332  12.218030204672944   8.334920124109656 
  2.493959300405367   5.748116472258730   8.313611514988704 
  6.224656653211829  12.217552784002288   8.334351290183488 
 -6.222537072704537  12.218442141472170   1.670750520252519 
  7.465596037866118   5.747136267405260   8.343741289998103 
 -1.242733293306577  12.219531857151621   1.669116157217337 
  0.004222502827553   5.748498629882437   1.667958387387983 
 -1.241181558745080   7.904443331564398   1.669625136163247 
  4.982543329727825   5.751167730337060   1.756650945785724 
  3.736110670868031  12.217410886349549   1.672139349171528 
  9.957148138765879   5.748495135481268   1.666707785771455 
 -3.733725424992281   7.904560032051433   8.333033837210483 
  2.491071407478484   1.441149976279985   8.337998825457111 
  6.220578334482474   7.903570185988463   8.343741289998103 
  7.469662203872475   1.440651175166682   8.340658335035439 
 12.448677301512909   1.438257195743672   8.331549356653602 
Generated by cif2cell 2.0.0.  :  Failed to get author information, No journal information. Species order: Al N B 
 1.0
 14.936314146199660   0.000000000000000   0.000000000000000
 -7.468157073099825  12.935227489513863   0.000000000000000
  0.000000000000001   0.000000000000001  13.341276283792837
 Al N B 
   1 143 143
Cartesian
  4.294160523189666   5.353729731678528   5.002978606422314 
  1.245553540835149   0.719353755415533   1.662455259656951 
  4.981294963740727   7.191982922831675   1.654020201866946 
  6.225473223171864   0.719582370761272   1.659875395369384 
  9.959165922947150   7.186864382078999   1.664201295758335 
 11.204280394328840   0.719804306404069   1.671196904313045 
 -3.732573862886761   9.342977466168852   8.334875892813365 
  1.246527533747710   9.343369272970019   8.346081817476191 
  2.489436576574097   2.874472623131918   8.344551374940803 
  6.225060586546795   9.345116517399354   8.353640032279291 
  7.471449055611129   2.874418190001783   8.353649309102694 
 12.448521046438689   2.874993727789450   8.337349265300055 
 -1.242929421330778   9.343045146895625   1.667132488923825 
  0.000450430462379   2.874755053818493   1.660355146587308 
  4.980915751824486   2.875466656371928   1.664281789167610 
  3.735658010413996   9.344998086744100   1.652307903742320 
  8.714204398874557   9.343200995241128   1.664201295758335 
  9.960341334871194   2.874707846294947   1.664169715789156 
 -4.977419906969584  11.499041201145538   8.338275952252808 
  0.002006914156293  11.499138683104540   8.339340345025418 
  1.244698911368789   5.030421501362186   8.344551374940803 
  6.229701705594201   5.029679017429921   8.351937010976560 
  4.980354999750672  11.500297199722484   8.341787497055739 
 11.204317672842077   5.030753944325419   8.339343461037801 
 -1.243630294118262   5.030746626934013   1.662455259656951 
 -2.487693028881188  11.499038958585677   1.667132488923825 
  2.491298789308320  11.499713547333764   1.665493920387054 
  3.732338966907419   5.029361904919564   1.698091484860424 
  7.469533861361176  11.499589261096126   1.666613751810428 
  8.716252907631645   5.030244845854923   1.652317180564910 
  0.001611932758953   7.186980579824215   8.345518737164534 
  1.245553540835075   0.719353755415663   8.343501953187157 
  4.981294963740728   7.191982922831675   8.351937010976560 
  6.225473223171947   0.719582370761131   8.346081817476191 
  9.959165922947150   7.186864382079000   8.341755917086012 
 -2.487790918263050   7.186877300709466   1.667681260592715 
 11.204280394328840   0.719804306404069   8.334760308531102 
  3.735528033980488   0.719648181308974   1.660438475681215 
  2.491299357032174   7.187608743508699   1.664281789167597 
  7.469967574225119   7.187282787491281   1.654273746113859 
  8.715307771856528   0.719413762795118   1.665493920387121 
  2.491299357032175   7.187608743508700   8.341675423677097 
 13.692849509272619   0.719753608856985   1.668607947544399 
 -1.242929421330778   9.343045146895625   8.338824723923391 
  0.000450430462380   2.874755053818494   8.345602066257706 
  4.980915751824487   2.875466656371929   8.341675423677097 
  3.735658010413996   9.344998086744100   8.353649309102694 
  8.714204398874557   9.343200995241128   8.341755917086012 
  9.960341334871194   2.874707846294948   8.341787497055739 
 -3.732573862886762   9.342977466168852   1.671081320032824 
  1.246527533747710   9.343369272970019   1.659875395369384 
  2.489436576574097   2.874472623131917   1.661405837902823 
  6.225060586546794   9.345116517399354   1.652317180564910 
  7.471449055611128   2.874418190001782   1.652307903742320 
 12.448521046438689   2.874993727789449   1.668607947544399 
 -1.243630294118262   5.030746626934014   8.343501953187157 
 -2.487693028881188  11.499038958585677   8.338824723923391 
  2.491298789308320  11.499713547333764   8.340463292455038 
  3.732338966907420   5.029361904919565   8.307865727982536 
  7.469533861361177  11.499589261096126   8.339343461037801 
 -4.977419906969585  11.499041201145538   1.667681260592715 
  8.716252907631645   5.030244845854924   8.353640032279291 
  0.002006914156293  11.499138683104540   1.666616867818876 
  1.244698911368789   5.030421501362185   1.661405837902810 
  0.001611932758952   7.186980579824214   1.660438475681215 
  6.229701705594200   5.029679017429920   1.654020201867026 
  4.980354999750671  11.500297199722484   1.664169715789156 
 11.204317672842077   5.030753944325419   1.666613751810428 
 -2.487790918263050   7.186877300709467   8.338275952252808 
  3.735528033980489   0.719648181308974   8.345518737164534 
  7.469967574225120   7.187282787491282   8.351683466729675 
  8.715307771856528   0.719413762795119   8.340463292455038 
 13.692849509272619   0.719753608856985   8.337349265300055 
  0.036622354848896   1.460861731970826   5.002978606422314 
  3.656058871077340   8.060667552023336   5.002978606422314 
  5.009374434802256   1.361481567779766   5.002978606422314 
  8.670177080024779   7.880224068744968   5.002978606422314 
  9.992242933780627   1.437541904370865   5.002978606422314 
 -4.977671923189180  10.061334674031643  11.673616748318732 
  0.000514545079512  10.061254475931214  11.673616748318732 
  1.245740961627657   3.593723877205296  11.673616748318732 
  4.979569191258136  10.060960214136012  11.673616748318732 
  6.224043637098212   3.593289496720862  11.673616748318732 
 11.202933011605792   3.593670064927637  11.673616748318732 
 -2.510655314602218  10.048452468950416   5.002978606422314 
 -1.205931142305385   3.613027520164446   5.002978606422314 
  3.819555628553139   3.521832301987899   5.002978606422314 
  2.456321666199381  10.131580676700821   5.002978606422314 
  7.459606220172301  10.066440073585916   5.002978606422314 
  8.757891014322846   3.566896997012412   5.002978606422314 
 -6.222605964234440  12.217005883149431  11.673616748318732 
 -1.243983521495623  12.216788357160599  11.673616748318732 
  0.000775297486286   5.749593157114599  11.673616748318732 
  4.979451195933646   5.749382486058613  11.673616748318732 
  3.734760342192623  12.216920271522573  11.673616748318732 
  9.958477562781844   5.749699135044303  11.673616748318732 
 -2.485980459125356   5.756381361948653   5.002978606422314 
 -3.738420880055114  12.187628914871032   5.002978606422314 
  1.250839225668956  12.220152354335532   5.002978606422314 
  2.470388364632665   5.858658551005779   5.002978606422314 
  6.246206822307115  12.244501164167511   5.002978606422314 
  7.457254497608854   5.697384465051816   5.002978606422314 
 -1.244097329282076   7.905427819743168  11.673616748318732 
  0.000871411178343   1.437707472494143  11.673616748318732 
  3.734516114828001   7.905277652133957  11.673616748318732 
  4.979545521904873   1.437265045322350  11.673616748318732 
  8.714276118563262   7.905684660516216  11.673616748318732 
 -3.761054171608123   7.896233252194126   5.002978606422314 
  9.958157791210233   1.437679694129457  11.673616748318732 
  2.514440488293834   1.425701234521775   5.002978606422314 
  1.194379150849586   7.969247230221493   5.002978606422314 
  6.173321239633333   7.921222101392871   5.002978606422314 
  7.512981388580603   1.373189120949348   5.002978606422314 
  1.245095111139787   7.905522895113986  11.673616748318732 
 12.482919922614855   1.458027182253102   5.002978606422314 
 -2.488586825516589  10.061193717067081  11.673616748318732 
 -1.243858791053323   3.593643424474887  11.673616748318732 
  3.735160678024140   3.593456216462189  11.673616748318732 
  2.489911798472451  10.061132121837085  11.673616748318732 
  7.469238605423795  10.061187481368252  11.673616748318732 
  8.713446036502244   3.593695808968177  11.673616748318732 
 -4.999731259328117  10.041684902296463   5.002978606422314 
 -0.025474349653017  10.077202670936943   5.002978606422314 
  1.299729753835786   3.624894320920122   5.002978606422314 
  4.978583228224287  10.112850099975812   5.002978606422314 
  6.319386616016214   3.447648580577554   5.002978606422314 
 11.237766784955875   3.598865699833190   5.002978606422314 
 -2.488608293259251   5.749532201676502  11.673616748318732 
 -3.733290109091921  12.216836184207461  11.673616748318732 
  1.245295604019928  12.216951742881113  11.673616748318732 
  2.490219018822468   5.749758422658599  11.673616748318732 
  6.224290383818137  12.216932048984143  11.673616748318732 
 -6.215360500377115  12.215857074130318   5.002978606422314 
  7.469179898405535   5.749842503852594  11.673616748318732 
 -1.243166426844973  12.186307216607506   5.002978606422314 
  0.002528040416785   5.776461218410908   5.002978606422314 
 -1.271956951984654   7.915588076417059   5.002978606422314 
  3.751683584045999  12.246507765760310   5.002978606422314 
  9.958210248451874   5.738730948609403   5.002978606422314 
 -3.733007302039135   7.905512311816307  11.673616748318732 
  2.490295693195760   1.437617345266784  11.673616748318732 
  6.224713934265193   7.905320782033871  11.673616748318732 
  7.468766216543933   1.437503306248442  11.673616748318732 
 12.447677057203409   1.437679704423104  11.673616748318732 
  1.274107969185942   0.725704612394449   5.002978606422314 
  4.848649197776083   7.271101954498660   5.002978606422314 
  6.250496498288462   0.677835506684892   5.002978606422314 
  9.923430898357573   7.173751178542972   5.002978606422314 
 11.237009879948102   0.738700683735737   5.002978606422314 
 -3.733393023155679   9.342504523770414  11.673616748318732 
  1.245695941194786   9.341715602747167  11.673616748318732 
  2.491608932296931   2.876140870989607  11.673616748318732 
  6.224097376238919   9.340797490989059  11.673616748318732 
  7.467424588367346   2.876032386328883  11.673616748318732 
 12.447792765145120   2.875349185629080  11.673616748318732 
 -1.263010152584058   9.345697452021055   5.002978606422314 
  0.062838590269202   2.910774874676975   5.002978606422314 
  5.025266348444019   2.798875144492986   5.002978606422314 
  3.702255623690095   9.440139528459811   5.002978606422314 
  8.684980519190535   9.318810157913235   5.002978606422314 
  9.995782560061153   2.874479447623789   5.002978606422314 
 -4.977796321793998  11.498439659445767  11.673616748318732 
  0.000504353787766  11.498271179475680  11.673616748318732 
  1.247229834254198   5.031468692676366  11.673616748318732 
  6.223109315464348   5.031464276711604  11.673616748318732 
  4.979563406980770  11.497162065067867  11.673616748318732 
 11.202497944515205   5.031301542358220  11.673616748318732 
 -1.223853076462800   5.052300058785979   5.002978606422314 
 -2.495436430890781  11.480322382631337   5.002978606422314 
  2.494583150561478  11.537725949271477   5.002978606422314 
  7.475871805922820  11.501842360926688   5.002978606422314 
  8.706088526370889   5.012728801360633   5.002978606422314 
  0.001641150370363   7.186715074103693  11.673616748318732 
  1.246225781794358   0.719493041878382  11.673616748318732 
  4.979544848565370   7.185381115867954  11.673616748318732 
  6.223625306472616   0.719689025596813  11.673616748318732 
  9.957706874075971   7.186923481671499  11.673616748318732 
 -2.508322649486229   7.189920523208411   5.002978606422314 
 11.202686054790757   0.718883814041043  11.673616748318732 
  3.747393819033210   0.692296970957461   5.002978606422314 
  2.447144460340565   7.264313242795000   5.002978606422314 
  7.395744184261576   7.144429893307904   5.002978606422314 
  8.749869658219001   0.703251902108486   5.002978606422314 
  2.491189882942189   7.186098429029272  11.673616748318732 
 13.730458348992121   0.745602910384216   5.002978606422314 
 -1.243738293304915   9.342380943432847  11.673616748318732 
  0.002005179300033   2.875652688478435  11.673616748318732 
  4.979553044073115   2.876127006267779  11.673616748318732 
  3.735043711818002   9.340705697710854  11.673616748318732 
  8.713526056187373   9.341907872057163  11.673616748318732 
  9.957230432231061   2.875589874174069  11.673616748318732 
 -3.756577869667563   9.329118746393474   5.002978606422314 
  1.222885326486737   9.385913496945689   5.002978606422314 
  2.569983257478712   2.892539921654811   5.002978606422314 
  6.204809056412477   9.345071927257584   5.002978606422314 