 C B N 
 1.0
 14.936314146199660   0.000000000000000   0.000000000000000
 -7.468157073099825  12.935227489513863   0.000000000000000
  0.000000000000001   0.000000000000001  13.341276283792837
 C B N 
   1 143 144
Cartesian
  3.734078536549917   5.030366245922021   5.002978606422314 
  1.253218072100322   0.726627027158763   5.002978606422314 
  4.974931954033630   7.160826958332491   5.002978606422314 
  6.214939000999508   0.726627027158763   5.002978606422314 
  9.957269556225580   7.186484816432812   5.002978606422314 
 11.202235609649751   0.718623749417456   5.002978606422314 
 -3.734078536549858   9.342108742426666  11.673616748318732 
  1.244874248657567   9.341834632886780  11.673616748318732 
  2.489047619152164   2.875217651733060  11.673616748318732 
  6.223282824442286   9.341834632886780  11.673616748318732 
  7.467317351490510   2.874979811166950  11.673616748318732 
 12.446506531840042   2.874967217875641  11.673616748318732 
 -1.244770428921597   9.341748476309109   5.002978606422314 
  0.011941107219943   2.881389199137558   5.002978606422314 
  4.958684926520132   2.890525307803225   5.002978606422314 
  3.734078536549994   9.328320339490999   5.002978606422314 
  8.712927502021390   9.341748476309109   5.002978606422314 
  9.953100768273629   2.876642655792916   5.002978606422314 
 -4.978219247142351  11.498507501672877  11.673616748318732 
  0.000466535819888  11.498249345260168  11.673616748318732 
  1.245149646353106   5.029712140052970  11.673616748318732 
  6.223007426746848   5.029712140052970  11.673616748318732 
  4.979391298424283  11.498109276895040  11.673616748318732 
 11.202235609649739   5.029827536759607  11.673616748318732 
 -1.233499190387231   5.033747669845828   5.002978606422314 
 -2.489736482345682  11.498092934538148   5.002978606422314 
  2.489746762469800  11.493059280359484   5.002978606422314 
  7.469003272126487  11.497491437443127   5.002978606422314 
  8.701656263487155   5.033747669845828   5.002978606422314 
 -0.000094782031488   7.186292216605788  11.673616748318732 
  1.244839529771148   0.718917903915777  11.673616748318732 
  4.977976509349014   7.186168945980126  11.673616748318732 
  6.223317543328669   0.718917903915777  11.673616748318732 
  9.956809858749470   7.186451901548068  11.673616748318732 
 -2.489112483125803   7.186484816432812   5.002978606422314 
 11.202235609649751   0.718623749417457  11.673616748318732 
  3.734078536549916   0.719224068123433   5.002978606422314 
  2.493225119066176   7.160826958332491   5.002978606422314 
  7.467637181850099   7.185937334821393   5.002978606422314 
  8.708768994193411   0.721396801613728   5.002978606422314 
  2.490180563750793   7.186168945980126  11.673616748318732 
 13.695702225106080   0.721396801613728   5.002978606422314 
 -1.244512075057160   9.341366824059090  11.673616748318732 
  0.000839721609414   2.874979811166950  11.673616748318732 
  4.979109453947685   2.875217651733060  11.673616748318732 
  3.734078536549965   9.341139115432243  11.673616748318732 
  8.712669148156998   9.341366824059090  11.673616748318732 
  9.957964687459482   2.874967217875641  11.673616748318732 
 -3.734078536549858   9.342108742426664   5.002978606422314 
  1.247361274062319   9.330724040761549   5.002978606422314 
  2.509472146579700   2.890525307803225   5.002978606422314 
  6.220795799037519   9.330724040761549   5.002978606422314 
  7.456215965880008   2.881389199137558   5.002978606422314 
 12.451370451025909   2.876642655792916   5.002978606422314 
 -1.244364758121150   5.030346200963574  11.673616748318732 
 -2.489937825957364  11.498507501672877  11.673616748318732 
  2.488765774675707  11.498109276895040  11.673616748318732 
  3.734078536549918   5.030366245922021  11.673616748318732 
  7.467690537279921  11.498249345260168  11.673616748318732 
 -4.978420590754078  11.498092934538148   5.002978606422314 
  8.712521831221089   5.030346200963574  11.673616748318732 
 -0.000846199026737  11.497491437443127   5.002978606422314 
  1.268618729096018   5.039746471630452   5.002978606422314 
  0.000519891249750   7.185937334821393   5.002978606422314 
  6.199538344003905   5.039746471630452   5.002978606422314 
  4.978410310630188  11.493059280359484   5.002978606422314 
 11.202235609649703   5.031343352393751   5.002978606422314 
 -2.488652785649677   7.186451901548068  11.673616748318732 
  3.734078536549916   0.718514304554669  11.673616748318732 
  7.468251855131324   7.186292216605788  11.673616748318732 
  8.712651925585185   0.718022242995451  11.673616748318732 
 13.691819293714321   0.718022242995451  11.673616748318732 
 -0.000184171427527   1.437721149887267   1.667679731416374 
  3.734078536549903   7.904463857341719   1.670609241775165 
  4.978976165218320   1.439147007782295   1.670839781086146 
  8.711663555773628   7.904176296685172   1.668010434058126 
  9.957913525064436   1.437033439911372   1.667307444595885 
 -4.978729943916291  10.060708567516933   8.338323803440327 
  0.001013193092731  10.060315879868972   8.337921500801354 
  1.245036992104379   3.593317440212263   8.335347971069503 
  4.978269102508904  10.060655163452857   8.338277481428266 
  6.223120080995469   3.593317440212263   8.335347971069503 
 11.202235609649708   3.592700850532630   8.338663987374723 
 -2.489427129183515  10.060708567516933   1.667633409404262 
 -1.244374737386519   3.592722424426131   1.667679731416374 
  3.734078536549895   3.594574857744599   1.679975117425325 
  2.489887970590920  10.060655163452857   1.667679731416374 
  7.467143880007017  10.060315879868972   1.668035712043301 
  8.712531810486350   3.592722424426131   1.667679731416374 
 -6.223610027575547  12.217689497041247   8.337921500801354 
 -1.244547045524271  12.217689497041247   8.337921500801354 
  0.001542631427230   5.747862893454032   8.335117431758468 
  4.977510353246514   5.748261940010752   8.325982095419302 
  3.734078536549892  12.217031857943498   8.338649768248731 
  9.956675371032691   5.748320850369772   8.337921500801354 
 -2.488518297932872   5.748320850369772   1.668035712043301 
 -3.734078536549881  12.217973633909684   1.668010434058126 
  1.245054754549073  12.216812688373668   1.667293225469878 
  2.490646719853320   5.748261940010751   1.679975117425325 
  6.223102318550780  12.216812688373668   1.667293225469878 
  7.466614441672604   5.747862893454031   1.670839781086146 
 -1.243506482673835   7.904176296685173   8.337946778786474 
 -0.000184171427527   1.437721149887268   8.338277481428266 
  3.734078536549903   7.904463857341720   8.335347971069503 
  4.978976165218321   1.439147007782296   8.335117431758468 
  8.711663555773628   7.904176296685173   8.337946778786474 
 -3.734078536549903   7.904909092246226   1.667633409404262 
  9.957913525064436   1.437033439911373   8.338649768248731 
  2.489180907881406   1.439147007782295   1.670839781086146 
  1.246440260095628   7.904088836529930   1.670839781086146 
  6.221716813004089   7.904088836529930   1.670839781086146 
  7.468341244527373   1.437721149887267   1.667679731416374 
  1.246440260095629   7.904088836529930   8.335117431758468 
 12.446557694234922   1.437033439911372   1.667307444595885 
 -2.489427129183515  10.060708567516933   8.338323803440327 
 -1.244374737386518   3.592722424426132   8.338277481428266 
  3.734078536549895   3.594574857744600   8.325982095419302 
  2.489887970590920  10.060655163452857   8.338277481428266 
  7.467143880007018  10.060315879868972   8.337921500801354 
  8.712531810486350   3.592722424426132   8.338277481428266 
 -4.978729943916292  10.060708567516933   1.667633409404262 
  0.001013193092731  10.060315879868972   1.668035712043301 
  1.245036992104379   3.593317440212262   1.670609241775165 
  4.978269102508903  10.060655163452857   1.667679731416374 
  6.223120080995468   3.593317440212262   1.670609241775165 
 11.202235609649708   3.592700850532629   1.667293225469878 
 -2.488518297932872   5.748320850369772   8.337921500801354 
 -3.734078536549880  12.217973633909684   8.337946778786474 
  1.245054754549073  12.216812688373668   8.338663987374723 
  2.490646719853321   5.748261940010752   8.325982095419302 
  6.223102318550781  12.216812688373668   8.338663987374723 
 -6.223610027575548  12.217689497041247   1.668035712043301 
  7.466614441672605   5.747862893454032   8.335117431758468 
 -1.244547045524271  12.217689497041247   1.668035712043301 
  0.001542631427229   5.747862893454031   1.670839781086146 
 -1.243506482673836   7.904176296685172   1.668010434058126 
  4.977510353246513   5.748261940010751   1.679975117425325 
  3.734078536549892  12.217031857943498   1.667307444595885 
  9.956675371032691   5.748320850369772   1.668035712043301 
 -3.734078536549903   7.904909092246227   8.338323803440327 
  2.489180907881406   1.439147007782296   8.335117431758468 
  6.221716813004090   7.904088836529930   8.335117431758468 
  7.468341244527374   1.437721149887268   8.338277481428266 
 12.446557694234922   1.437033439911373   8.338649768248731 
  1.244446536926357   0.718856001178868   1.667505830794991 
  4.978070792484751   7.186721506377853   1.668511240338464 
  6.223710536173474   0.718856001178868   1.667505830794991 
  9.957308051815904   7.186174615520226   1.666449194415276 
 11.202235609649751   0.718623749417456   1.665458215546011 
 -3.734078536549858   9.342108742426664   8.339700264245574 
  1.245017135737236   9.342205926042354   8.338451382049652 
  2.488616229378370   2.874859719943497   8.337445972506151 
  6.223139937362602   9.342205926042354   8.338451382049652 
  7.469365148480752   2.873797515023413   8.341673490035085 
 12.446331013831767   2.874296642195695   8.340263782520939 
 -1.244521034846169   9.341936914924531   1.666449194415276 
 -0.001208075380769   2.873797515023413   1.664283722809556 
  4.979540843721463   2.874859719943496   1.668511240338464 
  3.734078536550008   9.343503707719314   1.664283722809556 
  8.712678107945990   9.341936914924531   1.666449194415276 
  9.958140205467771   2.874296642195694   1.665693430323649 
 -4.978708480419786  11.498214696835285   8.339508018429353 
 -0.000012062190493  11.497973026570030   8.339607632528528 
  1.244623973443611   5.029517511444740   8.337445972506151 
  6.223533099656314   5.029517511444740   8.337445972506151 
  4.978898321854436  11.498596567789011   8.340263782520939 
 11.202235609649748   5.030380174139867   8.339607632528528 
 -1.244614863886265   5.030036810544919   1.667505830794991 
 -2.489448592679945  11.498214696835285   1.666449194415276 
  2.489258751245539  11.498596567789011   1.665693430323649 
  3.734078536549917   5.030366245922020   1.672722669571471 
  7.468169135290319  11.497973026570030   1.666349580316101 
  8.712771936986218   5.030036810544919   1.667505830794991 
  0.000548904219945   7.185920584175250   8.338704518283166 
  1.244446536926357   0.718856001178868   8.338451382049652 
  4.978070792484752   7.186721506377854   8.337445972506151 
  6.223710536173475   0.718856001178868   8.338451382049652 
  9.957308051815904   7.186174615520227   8.339508018429353 
 -2.489150978716099   7.186174615520226   1.666449194415276 
 11.202235609649751   0.718623749417456   8.340498997298630 
  3.734078536549907   0.719257569415759   1.667252694561462 
  2.490086280615143   7.186721506377853   1.668511240338464 
  7.467608168879875   7.185920584175249   1.667252694561462 
  8.713320420163299   0.718205527781435   1.665693430323649 
  2.490086280615144   7.186721506377854   8.337445972506151 
 13.691150799136190   0.718205527781435   1.665693430323649 
 -1.244521034846169   9.341936914924531   8.339508018429353 
 -0.001208075380768   2.873797515023413   8.341673490035085 
  4.979540843721464   2.874859719943497   8.337445972506151 
  3.734078536550009   9.343503707719314   8.341673490035085 
  8.712678107945990   9.341936914924531   8.339508018429353 
  9.958140205467771   2.874296642195695   8.340263782520939 
 -3.734078536549859   9.342108742426664   1.666256948599042 
  1.245017135737235   9.342205926042354   1.667505830794991 
  2.488616229378369   2.874859719943496   1.668511240338464 
  6.223139937362601   9.342205926042354   1.667505830794991 
  7.469365148480751   2.873797515023413   1.664283722809556 
 12.446331013831767   2.874296642195694   1.665693430323649 
 -1.244614863886264   5.030036810544920   8.338451382049652 
 -2.489448592679944  11.498214696835285   8.339508018429353 
  2.489258751245540  11.498596567789011   8.340263782520939 
  3.734078536549917   5.030366245922021   8.333234543273155 
  7.468169135290320  11.497973026570030   8.339607632528528 
 -4.978708480419787  11.498214696835285   1.666449194415276 
  8.712771936986218   5.030036810544920   8.338451382049652 
 -0.000012062190493  11.497973026570030   1.666349580316101 
  1.244623973443610   5.029517511444739   1.668511240338464 
  0.000548904219945   7.185920584175249   1.667252694561462 
  6.223533099656313   5.029517511444739   1.668511240338464 
  4.978898321854435  11.498596567789011   1.665693430323649 
 11.202235609649748   5.030380174139866   1.666349580316101 
 -2.489150978716099   7.186174615520227   8.339508018429353 
  3.734078536549908   0.719257569415760   8.338704518283166 
  7.467608168879876   7.185920584175250   8.338704518283166 
  8.713320420163299   0.718205527781436   8.340263782520939 
 13.691150799136190   0.718205527781436   8.340263782520939 
  0.002371500732097   1.439078213317664   5.002978606422314 
  3.734078536549904   7.901619860205016   5.002978606422314 
  4.970235077379447   1.444095346413452   5.002978606422314 
  8.714557451264229   7.905847088025721   5.002978606422314 
  9.956441382668681   1.437883381719856   5.002978606422314 
 -4.978677202779620  10.060678117407489  11.673616748318732 
  0.000078029467413  10.060639292039339  11.673616748318732 
  1.244629558392975   3.593082208249333  11.673616748318732 
  4.978970061718484  10.060657869408994  11.673616748318732 
  6.223527514706860   3.593082208249333  11.673616748318732 
 11.202235609649678   3.593250042243122  11.673616748318732 
 -2.490067478646879  10.060338861581902   5.002978606422314 
 -1.241921649901436   3.594257169724913   5.002978606422314 
  3.734078536549857   3.630796935343657   5.002978606422314 
  2.489785385916379  10.057763354723679   5.002978606422314 
  7.467367521081362  10.057679545323650   5.002978606422314 
  8.710078723001271   3.594257169724913   5.002978606422314 
 -6.223422528918288  12.216717915499871  11.673616748318732 
 -1.244734544181515  12.216717915499871  11.673616748318732 
 -0.000033768649241   5.748890329025102  11.673616748318732 
  4.978642180180421   5.748915400595709  11.673616748318732 
  3.734078536549950  12.216675598601977  11.673616748318732 
  9.957423036000765   5.748969019740811  11.673616748318732 
 -2.486346985780899   5.749832696494158   5.002978606422314 
 -3.734078536549931  12.214632051228651   5.002978606422314 
  1.243546327563799  12.215941797647650   5.002978606422314 
  2.522015959231907   5.730150901211243   5.002978606422314 
  6.224610745536101  12.215941797647650   5.002978606422314 
  7.457958510792096   5.752958728263616   5.002978606422314 
 -1.244596282739021   7.904805493046197  11.673616748318732 
  0.000163964750479   1.437112748426690  11.673616748318732 
  3.734078536549934   7.904934321267580  11.673616748318732 
  4.978874579951261   1.437268087484010  11.673616748318732 
  8.712753355838679   7.904805493046197  11.673616748318732 
 -3.734078536549919   7.905648504116343   5.002978606422314 
  9.957604995424408   1.437211569582122  11.673616748318732 
  2.497921995720264   1.444095346413452   5.002978606422314 
  1.246355103137294   7.894044663089190   5.002978606422314 
  6.221801969962439   7.894044663089190   5.002978606422314 
  7.465785572367736   1.439078213317664   5.002978606422314 
  1.244762274752110   7.904940321257123  11.673616748318732 
 12.448029836630692   1.437883381719856   5.002978606422314 
 -2.489479870320213  10.060678117407489  11.673616748318732 
 -1.244727560418075   3.593328119930551  11.673616748318732 
  3.734078536549857   3.593267936574724  11.673616748318732 
  2.489187011381342  10.060657869408994  11.673616748318732 
  7.468079043632322  10.060639292039339  11.673616748318732 
  8.712884633517909   3.593328119930551  11.673616748318732 
 -4.978089594452943  10.060338861581902   5.002978606422314 
  0.000789552018371  10.057679545323650   5.002978606422314 
  1.247499965873040   3.594739438780614   5.002978606422314 
  4.978371687183446  10.057763354723679   5.002978606422314 
  6.220657107226794   3.594739438780614   5.002978606422314 
 11.202235609649723   3.594442631984666   5.002978606422314 
 -2.489265962900916   5.748969019740811  11.673616748318732 
 -3.734078536549924  12.216715241187792  11.673616748318732 
  1.244579140576262  12.216538092518462  11.673616748318732 
  2.489514892919416   5.748915400595709  11.673616748318732 
  6.223577932523564  12.216538092518462  11.673616748318732 
 -6.221215074349232  12.218813985462209   5.002978606422314 
  7.468190841749094   5.748890329025102  11.673616748318732 
 -1.246941998750589  12.218813985462209   5.002978606422314 
  0.010198562307769   5.752958728263616   5.002978606422314 
 -1.246400378164526   7.905847088025721   5.002978606422314 
  4.946141113867929   5.730150901211243   5.002978606422314 
  3.734078536549914  12.215331974326519   5.002978606422314 
  9.954504058880733   5.749832696494158   5.002978606422314 
 -3.734078536549926   7.904969992465183  11.673616748318732 
  2.489282493148469   1.437268087484010  11.673616748318732 
  6.223394798347655   7.904940321257123  11.673616748318732 
  7.467993108349323   1.437112748426690  11.673616748318732 
 12.446866223875007   1.437211569582122  11.673616748318732 
Generated by cif2cell 2.0.0.  :  Failed to get author information, No journal information. Species order: C B N 
 1.0
 14.936314146199660   0.000000000000000   0.000000000000000
 -7.468157073099825  12.935227489513863   0.000000000000000
  0.000000000000001   0.000000000000001  13.341276283792837
 C B N 
   1 143 144
Cartesian
  3.734078536549917   5.030366245922021   5.002978606422314 
  1.253218072100322   0.726627027158763   5.002978606422314 
  4.974931954033630   7.160826958332491   5.002978606422314 
  6.214939000999508   0.726627027158763   5.002978606422314 
  9.957269556225580   7.186484816432812   5.002978606422314 
 11.202235609649751   0.718623749417456   5.002978606422314 
 -3.734078536549858   9.342108742426666  11.673616748318732 
  1.244874248657567   9.341834632886780  11.673616748318732 
  2.489047619152164   2.875217651733060  11.673616748318732 
  6.223282824442286   9.341834632886780  11.673616748318732 
  7.467317351490510   2.874979811166950  11.673616748318732 
 12.446506531840042   2.874967217875641  11.673616748318732 
 -1.244770428921597   9.341748476309109   5.002978606422314 
  0.011941107219943   2.881389199137558   5.002978606422314 
  4.958684926520132   2.890525307803225   5.002978606422314 
  3.734078536549994   9.328320339490999   5.002978606422314 
  8.712927502021390   9.341748476309109   5.002978606422314 
  9.953100768273629   2.876642655792916   5.002978606422314 
 -4.978219247142351  11.498507501672877  11.673616748318732 
  0.000466535819888  11.498249345260168  11.673616748318732 
  1.245149646353106   5.029712140052970  11.673616748318732 
  6.223007426746848   5.029712140052970  11.673616748318732 
  4.979391298424283  11.498109276895040  11.673616748318732 
 11.202235609649739   5.029827536759607  11.673616748318732 
 -1.233499190387231   5.033747669845828   5.002978606422314 
 -2.489736482345682  11.498092934538148   5.002978606422314 
  2.489746762469800  11.493059280359484   5.002978606422314 
  7.469003272126487  11.497491437443127   5.002978606422314 
  8.701656263487155   5.033747669845828   5.002978606422314 
 -0.000094782031488   7.186292216605788  11.673616748318732 
  1.244839529771148   0.718917903915777  11.673616748318732 
  4.977976509349014   7.186168945980126  11.673616748318732 
  6.223317543328669   0.718917903915777  11.673616748318732 
  9.956809858749470   7.186451901548068  11.673616748318732 
 -2.489112483125803   7.186484816432812   5.002978606422314 
 11.202235609649751   0.718623749417457  11.673616748318732 
  3.734078536549916   0.719224068123433   5.002978606422314 
  2.493225119066176   7.160826958332491   5.002978606422314 
  7.467637181850099   7.185937334821393   5.002978606422314 
  8.708768994193411   0.721396801613728   5.002978606422314 
  2.490180563750793   7.186168945980126  11.673616748318732 
 13.695702225106080   0.721396801613728   5.002978606422314 
 -1.244512075057160   9.341366824059090  11.673616748318732 
  0.000839721609414   2.874979811166950  11.673616748318732 
  4.979109453947685   2.875217651733060  11.673616748318732 
  3.734078536549965   9.341139115432243  11.673616748318732 
  8.712669148156998   9.341366824059090  11.673616748318732 
  9.957964687459482   2.874967217875641  11.673616748318732 
 -3.734078536549858   9.342108742426664   5.002978606422314 
  1.247361274062319   9.330724040761549   5.002978606422314 
  2.509472146579700   2.890525307803225   5.002978606422314 
  6.220795799037519   9.330724040761549   5.002978606422314 
  7.456215965880008   2.881389199137558   5.002978606422314 
 12.451370451025909   2.876642655792916   5.002978606422314 
 -1.244364758121150   5.030346200963574  11.673616748318732 
 -2.489937825957364  11.498507501672877  11.673616748318732 
  2.488765774675707  11.498109276895040  11.673616748318732 
  3.734078536549918   5.030366245922021  11.673616748318732 
  7.467690537279921  11.498249345260168  11.673616748318732 
 -4.978420590754078  11.498092934538148   5.002978606422314 
  8.712521831221089   5.030346200963574  11.673616748318732 
 -0.000846199026737  11.497491437443127   5.002978606422314 
  1.268618729096018   5.039746471630452   5.002978606422314 
  0.000519891249750   7.185937334821393   5.002978606422314 
  6.199538344003905   5.039746471630452   5.002978606422314 
  4.978410310630188  11.493059280359484   5.002978606422314 
 11.202235609649703   5.031343352393751   5.002978606422314 
 -2.488652785649677   7.186451901548068  11.673616748318732 
  3.734078536549916   0.718514304554669  11.673616748318732 
  7.468251855131324   7.186292216605788  11.673616748318732 
  8.712651925585185   0.718022242995451  11.673616748318732 
 13.691819293714321   0.718022242995451  11.673616748318732 
 -0.000184171427527   1.437721149887267   1.667679731416374 
  3.734078536549903   7.904463857341719   1.670609241775165 
  4.978976165218320   1.439147007782295   1.670839781086146 
  8.711663555773628   7.904176296685172   1.668010434058126 
  9.957913525064436   1.437033439911372   1.667307444595885 
 -4.978729943916291  10.060708567516933   8.338323803440327 
  0.001013193092731  10.060315879868972   8.337921500801354 
  1.245036992104379   3.593317440212263   8.335347971069503 
  4.978269102508904  10.060655163452857   8.338277481428266 
  6.223120080995469   3.593317440212263   8.335347971069503 
 11.202235609649708   3.592700850532630   8.338663987374723 
 -2.489427129183515  10.060708567516933   1.667633409404262 
 -1.244374737386519   3.592722424426131   1.667679731416374 
  3.734078536549895   3.594574857744599   1.679975117425325 
  2.489887970590920  10.060655163452857   1.667679731416374 
  7.467143880007017  10.060315879868972   1.668035712043301 
  8.712531810486350   3.592722424426131   1.667679731416374 
 -6.223610027575547  12.217689497041247   8.337921500801354 
 -1.244547045524271  12.217689497041247   8.337921500801354 
  0.001542631427230   5.747862893454032   8.335117431758468 
  4.977510353246514   5.748261940010752   8.325982095419302 
  3.734078536549892  12.217031857943498   8.338649768248731 
  9.956675371032691   5.748320850369772   8.337921500801354 
 -2.488518297932872   5.748320850369772   1.668035712043301 
 -3.734078536549881  12.217973633909684   1.668010434058126 
  1.245054754549073  12.216812688373668   1.667293225469878 
  2.490646719853320   5.748261940010751   1.679975117425325 
  6.223102318550780  12.216812688373668   1.667293225469878 
  7.466614441672604   5.747862893454031   1.670839781086146 
 -1.243506482673835   7.904176296685173   8.337946778786474 
 -0.000184171427527   1.437721149887268   8.338277481428266 
  3.734078536549903   7.904463857341720   8.335347971069503 
  4.978976165218321   1.439147007782296   8.335117431758468 
  8.711663555773628   7.904176296685173   8.337946778786474 
 -3.734078536549903   7.904909092246226   1.667633409404262 
  9.957913525064436   1.437033439911373   8.338649768248731 
  2.489180907881406   1.439147007782295   1.670839781086146 
  1.246440260095628   7.904088836529930   1.670839781086146 
  6.221716813004089   7.904088836529930   1.670839781086146 
  7.468341244527373   1.437721149887267   1.667679731416374 
  1.246440260095629   7.904088836529930   8.335117431758468 
 12.446557694234922   1.437033439911372   1.667307444595885 
 -2.489427129183515  10.060708567516933   8.338323803440327 
 -1.244374737386518   3.592722424426132   8.338277481428266 
  3.734078536549895   3.594574857744600   8.325982095419302 
  2.489887970590920  10.060655163452857   8.338277481428266 
  7.467143880007018  10.060315879868972   8.337921500801354 
  8.712531810486350   3.592722424426132   8.338277481428266 
 -4.978729943916292  10.060708567516933   1.667633409404262 
  0.001013193092731  10.060315879868972   1.668035712043301 
  1.245036992104379   3.593317440212262   1.670609241775165 
  4.978269102508903  10.060655163452857   1.667679731416374 
  6.223120080995468   3.593317440212262   1.670609241775165 
 11.202235609649708   3.592700850532629   1.667293225469878 
 -2.488518297932872   5.748320850369772   8.337921500801354 
 -3.734078536549880  12.217973633909684   8.337946778786474 
  1.245054754549073  12.216812688373668   8.338663987374723 
  2.490646719853321   5.748261940010752   8.325982095419302 
  6.223102318550781  12.216812688373668   8.338663987374723 
 -6.223610027575548  12.217689497041247   1.668035712043301 
  7.466614441672605   5.747862893454032   8.335117431758468 
 -1.244547045524271  12.217689497041247   1.668035712043301 
  0.001542631427229   5.747862893454031   1.670839781086146 
 -1.243506482673836   7.904176296685172   1.668010434058126 
  4.977510353246513   5.748261940010751   1.679975117425325 
  3.734078536549892  12.217031857943498   1.667307444595885 
  9.956675371032691   5.748320850369772   1.668035712043301 
 -3.734078536549903   7.904909092246227   8.338323803440327 
  2.489180907881406   1.439147007782296   8.335117431758468 
  6.221716813004090   7.904088836529930   8.335117431758468 
  7.468341244527374   1.437721149887268   8.338277481428266 
 12.446557694234922   1.437033439911373   8.338649768248731 
  1.244446536926357   0.718856001178868   1.667505830794991 
  4.978070792484751   7.186721506377853   1.668511240338464 
  6.223710536173474   0.718856001178868   1.667505830794991 
  9.957308051815904   7.186174615520226   1.666449194415276 
 11.202235609649751   0.718623749417456   1.665458215546011 
 -3.734078536549858   9.342108742426664   8.339700264245574 
  1.245017135737236   9.342205926042354   8.338451382049652 
  2.488616229378370   2.874859719943497   8.337445972506151 
  6.223139937362602   9.342205926042354   8.338451382049652 
  7.469365148480752   2.873797515023413   8.341673490035085 
 12.446331013831767   2.874296642195695   8.340263782520939 
 -1.244521034846169   9.341936914924531   1.666449194415276 
 -0.001208075380769   2.873797515023413   1.664283722809556 
  4.979540843721463   2.874859719943496   1.668511240338464 
  3.734078536550008   9.343503707719314   1.664283722809556 
  8.712678107945990   9.341936914924531   1.666449194415276 
  9.958140205467771   2.874296642195694   1.665693430323649 
 -4.978708480419786  11.498214696835285   8.339508018429353 
 -0.000012062190493  11.497973026570030   8.339607632528528 
  1.244623973443611   5.029517511444740   8.337445972506151 
  6.223533099656314   5.029517511444740   8.337445972506151 
  4.978898321854436  11.498596567789011   8.340263782520939 
 11.202235609649748   5.030380174139867   8.339607632528528 
 -1.244614863886265   5.030036810544919   1.667505830794991 
 -2.489448592679945  11.498214696835285   1.666449194415276 
  2.489258751245539  11.498596567789011   1.665693430323649 
  3.734078536549917   5.030366245922020   1.672722669571471 
  7.468169135290319  11.497973026570030   1.666349580316101 
  8.712771936986218   5.030036810544919   1.667505830794991 
  0.000548904219945   7.185920584175250   8.338704518283166 
  1.244446536926357   0.718856001178868   8.338451382049652 
  4.978070792484752   7.186721506377854   8.337445972506151 
  6.223710536173475   0.718856001178868   8.338451382049652 
  9.957308051815904   7.186174615520227   8.339508018429353 
 -2.489150978716099   7.186174615520226   1.666449194415276 
 11.202235609649751   0.718623749417456   8.340498997298630 
  3.734078536549907   0.719257569415759   1.667252694561462 
  2.490086280615143   7.186721506377853   1.668511240338464 
  7.467608168879875   7.185920584175249   1.667252694561462 
  8.713320420163299   0.718205527781435   1.665693430323649 
  2.490086280615144   7.186721506377854   8.337445972506151 
 13.691150799136190   0.718205527781435   1.665693430323649 
 -1.244521034846169   9.341936914924531   8.339508018429353 
 -0.001208075380768   2.873797515023413   8.341673490035085 
  4.979540843721464   2.874859719943497   8.337445972506151 
  3.734078536550009   9.343503707719314   8.341673490035085 
  8.712678107945990   9.341936914924531   8.339508018429353 
  9.958140205467771   2.874296642195695   8.340263782520939 
 -3.734078536549859   9.342108742426664   1.666256948599042 
  1.245017135737235   9.342205926042354   1.667505830794991 