B Ga N                                  
   1.0000000000000000     
     8.7639499999999995  -15.1796066749929999    0.0000000000000000
     8.7639499999999995   15.1796066749929999    0.0000000000000000
     0.0000000000000000    0.0000000000000000   15.0000000000000000
   B    Ga   N 
    47     1    49
Selective dynamics
Direct
  0.9100907975835948  0.9552553097317599  0.1106770991250077   T   T   T
  0.9085198491825430  0.0964195996377634  0.1107928799001724   T   T   T
  0.9080928020615082  0.2382955829193692  0.1107546711732761   T   T   T
  0.9084525063680385  0.3807263176418014  0.1106877889668256   T   T   T
  0.9097078650196893  0.5238751869346535  0.1107408285372061   T   T   T
  0.9106385795641043  0.6673988054055585  0.1107757624305507   T   T   T
  0.9078907383961560  0.8100668085899043  0.1107255700221245   T   T   T
  0.0511058723913034  0.9537918337473756  0.1107041462428140   T   T   T
  0.0518394041500643  0.0970193158604067  0.1107803382317376   T   T   T
  0.0507063352633204  0.2387708433647953  0.1108400447639817   T   T   T
  0.0500351469264768  0.3813277201441904  0.1107268285252582   T   T   T
  0.0500892482837708  0.5245713761847530  0.1106954778628438   T   T   T
  0.0508804791487615  0.6679571191053116  0.1107593533294235   T   T   T
  0.0507855840684628  0.8109727466946702  0.1107488085735177   T   T   T
  0.1933400441878524  0.9539493447506946  0.1107252618162162   T   T   T
  0.1943615679725311  0.0972262114855486  0.1107098157556141   T   T   T
  0.1937758254115335  0.2395067395843720  0.1107834371856909   T   T   T
  0.1916543687369630  0.3814522104733045  0.1107235181577853   T   T   T
  0.1902745833495527  0.5249470374306161  0.1106898850536020   T   T   T
  0.1910939247325576  0.6684334689139674  0.1107338825056693   T   T   T
  0.1926881104355950  0.8112461075199987  0.1107374609500821   T   T   T
  0.3354975416734721  0.9537110359831933  0.1107219082969529   T   T   T
  0.3361896160195184  0.0963911546126812  0.1107558017680324   T   T   T
  0.3378446074576170  0.2406018777203083  0.1107473199291947   T   T   T
  0.3346567717491762  0.3824305435339706  0.1106941615418859   T   T   T
  0.3295218722446235  0.5257138149061183  0.1106683925917256   T   T   T
  0.3306125769774049  0.6691100718087358  0.1107244787135897   T   T   T
  0.3346737488938853  0.8115049892970302  0.1107775720152665   T   T   T
  0.4780101891491055  0.9529430821650173  0.1107496891730663   T   T   T
  0.4785883651670715  0.0949979049504034  0.1107426424873599   T   T   T
  0.4792030599818105  0.2368455103945969  0.1107925693862135   T   T   T
  0.4808368528177714  0.3776772315226310  0.1108171107508729   T   T   T
  0.4678246982291616  0.6655979580859436  0.1107691887945619   T   T   T
  0.4771603981888312  0.8103479855088683  0.1107948568949452   T   T   T
  0.6211492506368304  0.9547383717391492  0.1107650970717693   T   T   T
  0.6215848592623752  0.0951631237246454  0.1106987297020121   T   T   T
  0.6222955743358749  0.2357402074392338  0.1107173936135569   T   T   T
  0.6244741582570089  0.3758997279890817  0.1108156783737235   T   T   T
  0.6305344344136398  0.5160571736414037  0.1108285961071094   T   T   T
  0.6215552203509208  0.8153318984072658  0.1107315186485065   T   T   T
  0.7655632139588742  0.9547219166795240  0.1107042355646094   T   T   T
  0.7650295570889523  0.0958827009157739  0.1107290142916165   T   T   T
  0.7653736965243219  0.2374006745558457  0.1106751908068376   T   T   T
  0.7667307581087635  0.3793848654502130  0.1107062119348035   T   T   T
  0.7696376101346731  0.5223754495627482  0.1107887912556527   T   T   T
  0.7694427629033607  0.6648051348378109  0.1107463521218116   T   T   T
  0.7687540853067797  0.8151197274607177  0.1106890090802247   T   T   T
  0.6167098740865317  0.6626746300483530  0.1110364058267583   T   T   T
  0.9557694221274952  0.9056676368287668  0.1106786964163735   T   T   T
  0.9570936416695182  0.0498334534139039  0.1107419143333398   T   T   T
  0.9559177686163770  0.1912287584783134  0.1108041838698850   T   T   T
  0.9554754159516486  0.3332639138490052  0.1107003331024961   T   T   T
  0.9557153056702891  0.4758878254337930  0.1106881444973870   T   T   T
  0.9564447171216700  0.6191356809706083  0.1107498683854274   T   T   T
  0.9555857330414371  0.7625240919948917  0.1107474366201103   T   T   T
  0.0983567555239893  0.9061856965355345  0.1106987592586261   T   T   T
  0.0992776296332493  0.0494199483011749  0.1106973430058406   T   T   T
  0.0992319141112374  0.1920588452894969  0.1108181231923020   T   T   T
  0.0975295312567765  0.3337095139507993  0.1107555724154207   T   T   T
  0.0964440868645218  0.4764219556000018  0.1106693956769051   T   T   T
  0.0969330805037707  0.6197879004643737  0.1107124151543419   T   T   T
  0.0977822668526186  0.7631432868575571  0.1107336752399979   T   T   T
  0.2405666082376582  0.9064012530222306  0.1107050431239422   T   T   T
  0.2414648521088722  0.0494838608565431  0.1107089854891501   T   T   T
  0.2430094568072302  0.1934310431596767  0.1107090131292104   T   T   T
  0.2407564620510794  0.3346951534489370  0.1107311599649018   T   T   T
  0.2366689187446638  0.4763112180269058  0.1106700737795901   T   T   T
  0.2369098089303027  0.6200953058095058  0.1106934524848369   T   T   T
  0.2396633382848343  0.7635324812514399  0.1107490468655732   T   T   T
  0.3829318399557863  0.9063314735887790  0.1107340209548924   T   T   T
  0.3836154373356121  0.0489725137910665  0.1107255384820645   T   T   T
  0.3847101433579726  0.1925234563174946  0.1107545722934926   T   T   T
  0.3881201798437284  0.3393226640718172  0.1107440842329749   T   T   T
  0.3762003027369440  0.4768402590628881  0.1105997272584263   T   T   T
  0.3749970547133882  0.6200056212792528  0.1106916077753345   T   T   T
  0.3817122547710955  0.7637501834897328  0.1107653624053491   T   T   T
  0.5256435311742631  0.9055356297436543  0.1107696571254609   T   T   T
  0.5262964847006023  0.0479893399689690  0.1107066992405846   T   T   T
  0.5269741166912415  0.1902757124783823  0.1107396837371555   T   T   T
  0.5289456347364628  0.3334158609567827  0.1108083564490249   T   T   T
  0.4645023093327974  0.5191836743658121  0.1105439598768080   T   T   T
  0.5013167833874684  0.6065875277184877  0.1107123853963396   T   T   T
  0.5243743183060420  0.7615544674311397  0.1107792933870342   T   T   T
  0.6695730500278350  0.9091001642956313  0.1107086517127345   T   T   T
  0.6696342485293659  0.0489729498404502  0.1107216302104242   T   T   T
  0.6700092779639545  0.1896915696300773  0.1106611798570575   T   T   T
  0.6711904474301971  0.3302113762485495  0.1107287348193345   T   T   T
  0.6737145130606034  0.4692748190959540  0.1108056274602071   T   T   T
  0.6749251399235413  0.6055684037673581  0.1107519470587187   T   T   T
  0.6761174916248053  0.7772905688151174  0.1107138436331941   T   T   T
  0.8156800148033947  0.9090585263307553  0.1106354748968816   T   T   T
  0.8132908054318653  0.0492192745332373  0.1107373609352914   T   T   T
  0.8130223440949119  0.1906268073088049  0.1106898663875478   T   T   T
  0.8134923654420508  0.3323784429051067  0.1106605133067387   T   T   T
  0.8149371233202191  0.4745735786119896  0.1107304833089712   T   T   T
  0.8160521063953003  0.6176274059391341  0.1107523700016932   T   T   T
  0.8115959615575773  0.7609224549180332  0.1107120861465422   T   T   T

  0.00000000E+00  0.00000000E+00  0.00000000E+00
  0.00000000E+00  0.00000000E+00  0.00000000E+00
  0.00000000E+00  0.00000000E+00  0.00000000E+00
  0.00000000E+00  0.00000000E+00  0.00000000E+00
  0.00000000E+00  0.00000000E+00  0.00000000E+00
  0.00000000E+00  0.00000000E+00  0.00000000E+00
  0.00000000E+00  0.00000000E+00  0.00000000E+00
  0.00000000E+00  0.00000000E+00  0.00000000E+00
  0.00000000E+00  0.00000000E+00  0.00000000E+00
  0.00000000E+00  0.00000000E+00  0.00000000E+00
  0.00000000E+00  0.00000000E+00  0.00000000E+00
  0.00000000E+00  0.00000000E+00  0.00000000E+00
  0.00000000E+00  0.00000000E+00  0.00000000E+00
  0.00000000E+00  0.00000000E+00  0.00000000E+00
  0.00000000E+00  0.00000000E+00  0.00000000E+00
  0.00000000E+00  0.00000000E+00  0.00000000E+00
  0.00000000E+00  0.00000000E+00  0.00000000E+00
  0.00000000E+00  0.00000000E+00  0.00000000E+00
  0.00000000E+00  0.00000000E+00  0.00000000E+00
  0.00000000E+00  0.00000000E+00  0.00000000E+00
  0.00000000E+00  0.00000000E+00  0.00000000E+00
  0.00000000E+00  0.00000000E+00  0.00000000E+00
  0.00000000E+00  0.00000000E+00  0.00000000E+00
  0.00000000E+00  0.00000000E+00  0.00000000E+00
  0.00000000E+00  0.00000000E+00  0.00000000E+00
  0.00000000E+00  0.00000000E+00  0.00000000E+00
  0.00000000E+00  0.00000000E+00  0.00000000E+00
  0.00000000E+00  0.00000000E+00  0.00000000E+00
  0.00000000E+00  0.00000000E+00  0.00000000E+00
  0.00000000E+00  0.00000000E+00  0.00000000E+00
  0.00000000E+00  0.00000000E+00  0.00000000E+00
  0.00000000E+00  0.00000000E+00  0.00000000E+00
  0.00000000E+00  0.00000000E+00  0.00000000E+00
  0.00000000E+00  0.00000000E+00  0.00000000E+00
  0.00000000E+00  0.00000000E+00  0.00000000E+00
  0.00000000E+00  0.00000000E+00  0.00000000E+00
  0.00000000E+00  0.00000000E+00  0.00000000E+00
  0.00000000E+00  0.00000000E+00  0.00000000E+00
  0.00000000E+00  0.00000000E+00  0.00000000E+00
  0.00000000E+00  0.00000000E+00  0.00000000E+00
  0.00000000E+00  0.00000000E+00  0.00000000E+00
  0.00000000E+00  0.00000000E+00  0.00000000E+00
  0.00000000E+00  0.00000000E+00  0.00000000E+00
  0.00000000E+00  0.00000000E+00  0.00000000E+00
  0.00000000E+00  0.00000000E+00  0.00000000E+00
  0.00000000E+00  0.00000000E+00  0.00000000E+00
  0.00000000E+00  0.00000000E+00  0.00000000E+00
  0.00000000E+00  0.00000000E+00  0.00000000E+00
  0.00000000E+00  0.00000000E+00  0.00000000E+00
  0.00000000E+00  0.00000000E+00  0.00000000E+00
  0.00000000E+00  0.00000000E+00  0.00000000E+00
  0.00000000E+00  0.00000000E+00  0.00000000E+00
  0.00000000E+00  0.00000000E+00  0.00000000E+00
  0.00000000E+00  0.00000000E+00  0.00000000E+00
  0.00000000E+00  0.00000000E+00  0.00000000E+00
  0.00000000E+00  0.00000000E+00  0.00000000E+00
  0.00000000E+00  0.00000000E+00  0.00000000E+00
  0.00000000E+00  0.00000000E+00  0.00000000E+00
  0.00000000E+00  0.00000000E+00  0.00000000E+00
  0.00000000E+00  0.00000000E+00  0.00000000E+00
  0.00000000E+00  0.00000000E+00  0.00000000E+00
  0.00000000E+00  0.00000000E+00  0.00000000E+00
  0.00000000E+00  0.00000000E+00  0.00000000E+00
  0.00000000E+00  0.00000000E+00  0.00000000E+00
  0.00000000E+00  0.00000000E+00  0.00000000E+00
  0.00000000E+00  0.00000000E+00  0.00000000E+00
  0.00000000E+00  0.00000000E+00  0.00000000E+00
  0.00000000E+00  0.00000000E+00  0.00000000E+00
  0.00000000E+00  0.00000000E+00  0.00000000E+00
  0.00000000E+00  0.00000000E+00  0.00000000E+00
  0.00000000E+00  0.00000000E+00  0.00000000E+00
  0.00000000E+00  0.00000000E+00  0.00000000E+00
  0.00000000E+00  0.00000000E+00  0.00000000E+00
  0.00000000E+00  0.00000000E+00  0.00000000E+00
  0.00000000E+00  0.00000000E+00  0.00000000E+00
  0.00000000E+00  0.00000000E+00  0.00000000E+00
  0.00000000E+00  0.00000000E+00  0.00000000E+00
  0.00000000E+00  0.00000000E+00  0.00000000E+00
  0.00000000E+00  0.00000000E+00  0.00000000E+00
  0.00000000E+00  0.00000000E+00  0.00000000E+00
  0.00000000E+00  0.00000000E+00  0.00000000E+00
  0.00000000E+00  0.00000000E+00  0.00000000E+00
  0.00000000E+00  0.00000000E+00  0.00000000E+00
  0.00000000E+00  0.00000000E+00  0.00000000E+00
  0.00000000E+00  0.00000000E+00  0.00000000E+00
  0.00000000E+00  0.00000000E+00  0.00000000E+00
  0.00000000E+00  0.00000000E+00  0.00000000E+00
  0.00000000E+00  0.00000000E+00  0.00000000E+00
  0.00000000E+00  0.00000000E+00  0.00000000E+00
  0.00000000E+00  0.00000000E+00  0.00000000E+00
  0.00000000E+00  0.00000000E+00  0.00000000E+00
  0.00000000E+00  0.00000000E+00  0.00000000E+00
  0.00000000E+00  0.00000000E+00  0.00000000E+00
  0.00000000E+00  0.00000000E+00  0.00000000E+00
  0.00000000E+00  0.00000000E+00  0.00000000E+00
  0.00000000E+00  0.00000000E+00  0.00000000E+00
  0.00000000E+00  0.00000000E+00  0.00000000E+00
