Al As B N                               
   1.0000000000000000     
     8.7639499999999995  -15.1796066749929999    0.0000000000000000
     8.7639499999999995   15.1796066749929999    0.0000000000000000
     0.0000000000000000    0.0000000000000000   15.0000000000000000
   Al   As   B    N 
     1     1    48    48
Selective dynamics
Direct
  0.5417240694731549  0.4582773324438376  0.1106235866165967   T   T   T
  0.4739252639054070  0.5260767572915901  0.1106651409862492   T   T   T
  0.9062600445686352  0.9546029896696796  0.1110040134416447   T   T   T
  0.9040380011115197  0.0959640200844680  0.1109870819138236   T   T   T
  0.9036004928660519  0.2383293573384810  0.1110198019628267   T   T   T
  0.9046688946568684  0.3813129607579339  0.1109362199369969   T   T   T
  0.9084388240362365  0.5251393345659923  0.1109842683474582   T   T   T
  0.9096090878660363  0.6694967951889148  0.1111163988424470   T   T   T
  0.9102302706477730  0.8141494267686283  0.1110326963953662   T   T   T
  0.0479222821521823  0.9520797390438316  0.1109611174281040   T   T   T
  0.0453990315263234  0.0937419766273525  0.1110040134416447   T   T   T
  0.0446777101449952  0.2369834180605785  0.1110015890830626   T   T   T
  0.0453778789085527  0.3806970152961583  0.1109741679061433   T   T   T
  0.0475152494706960  0.5243473490569066  0.1109466625355777   T   T   T
  0.0494494019412319  0.6675014224480195  0.1109983368546274   T   T   T
  0.0495581864055012  0.8102048143797864  0.1110242437005220   T   T   T
  0.1897972068162108  0.9504438347905013  0.1110242437005220   T   T   T
  0.1858525944273686  0.0897717505482343  0.1110326963953662   T   T   T
  0.1840715361577987  0.2327644544666315  0.1110784271600023   T   T   T
  0.1850796058506020  0.3788704940659287  0.1110288428152740   T   T   T
  0.1867598368693248  0.5240351003317943  0.1110493503436037   T   T   T
  0.1905209136736604  0.6670596327338557  0.1110235727230515   T   T   T
  0.1908486910340507  0.8091533301619626  0.1110056246598545   T   T   T
  0.3325005987489894  0.9505526192547729  0.1109983368546274   T   T   T
  0.3305052260080898  0.0903929333299549  0.1111163988424470   T   T   T
  0.3222796763107878  0.2256361063834559  0.1112445553669089   T   T   T
  0.3216729949880542  0.3715506116071066  0.1110915836883274   T   T   T
  0.3241019347625608  0.5231507081081358  0.1110200100373551   T   T   T
  0.3325087560353828  0.6674932651616171  0.1110636768635112   T   T   T
  0.3329423884631419  0.8094811075223360  0.1110235727230515   T   T   T
  0.4756546721400837  0.9524867717253039  0.1109466625355777   T   T   T
  0.4748626866309989  0.0915631971597508  0.1109842683474582   T   T   T
  0.4728352122393540  0.2282686221412737  0.1111767410385884   T   T   T
  0.4538532051600517  0.3489224246769275  0.1108646581872875   T   T   T
  0.4768513130888693  0.6759000864344366  0.1110200100373551   T   T   T
  0.4759669208652046  0.8132421843266798  0.1110493503436037   T   T   T
  0.6193050058998449  0.9546241422874504  0.1109741679061433   T   T   T
  0.6186890604380768  0.0953331265391194  0.1109362199369969   T   T   T
  0.6184874341029437  0.2363922988136697  0.1109770406252266   T   T   T
  0.6208015769678532  0.3792004442281540  0.1114338638798728   T   T   T
  0.6510795965190730  0.5461488160369443  0.1108646581872875   T   T   T
  0.6284514095888850  0.6783290262089359  0.1110915836883274   T   T   T
  0.6211315271300744  0.8149224153453972  0.1110288428152740   T   T   T
  0.7630186031354373  0.9553243110510214  0.1110015890830626   T   T   T
  0.7616726638575316  0.0964015283299418  0.1110198019628267   T   T   T
  0.7616538174000222  0.2383482037959847  0.1110213674516995   T   T   T
  0.7636097223823409  0.3815145870930587  0.1109770406252266   T   T   T
  0.7717333990547310  0.5271668089576418  0.1111767410385884   T   T   T
  0.7743659148125499  0.6777223448862133  0.1112445553669089   T   T   T
  0.7672375667293699  0.8159304850382084  0.1110784271600023   T   T   T
  0.9544498796487766  0.9074914398034515  0.1109484938504877   T   T   T
  0.9515489720046481  0.0484524299133515  0.1109729489436807   T   T   T
  0.9505059510338455  0.1904832189785637  0.1109841234304161   T   T   T
  0.9509439210291442  0.3331744384304538  0.1109616101993424   T   T   T
  0.9533451726474207  0.4763401191695671  0.1108915143329502   T   T   T
  0.9550562868760811  0.6201867951948937  0.1109992989796452   T   T   T
  0.9554921983319238  0.7641700108950914  0.1110283487954911   T   T   T
  0.0955121757489618  0.9044892261690367  0.1109839768539062   T   T   T
  0.0925099621145332  0.0455515222692327  0.1109484938504877   T   T   T
  0.0907478491585313  0.1879535849535311  0.1110088554493044   T   T   T
  0.0913209268804923  0.3319264233194398  0.1109768715971304   T   T   T
  0.0928828165628010  0.4758153263192915  0.1109610013314765   T   T   T
  0.0958034824941038  0.6193189832829612  0.1109789458099284   T   T   T
  0.0963677257412587  0.7621794787751461  0.1109979152042398   T   T   T
  0.2378219231428654  0.9036336761767364  0.1109979152042398   T   T   T
  0.2358313910229141  0.0445092035860861  0.1110283487954911   T   T   T
  0.2297125524662059  0.1828175882190010  0.1111222770898732   T   T   T
  0.2291659836820663  0.3274660593656513  0.1110478437753850   T   T   T
  0.2310706766897469  0.4747513725207258  0.1110650584166713   T   T   T
  0.2373115818561813  0.6192386882506361  0.1110259709431670   T   T   T
  0.2381807098217535  0.7618206920962540  0.1109952921375996   T   T   T
  0.3806824186350312  0.9041979194239004  0.1109789458099284   T   T   T
  0.3798146067230961  0.0449451150419261  0.1109992989796452   T   T   T
  0.3769524503909156  0.1843955335828966  0.1112111645582577   T   T   T
  0.3644185157131082  0.3180389613576317  0.1111311102869003   T   T   T
  0.3603678140252518  0.4669125377773743  0.1109029057244633   T   T   T
  0.3801747751504633  0.6198266267675381  0.1110208441398711   T   T   T
  0.3807627136673640  0.7626898200618250  0.1110259709431670   T   T   T
  0.5241860755976943  0.9071185853551977  0.1109610013314765   T   T   T
  0.5236612827474332  0.0466562292705893  0.1108915143329502   T   T   T
  0.5231060864362703  0.1856099263474387  0.1110203152874040   T   T   T
  0.5204724270153829  0.3221305149659937  0.1112708851956059   T   T   T
  0.5330888641396215  0.6396335878927534  0.1109029057244633   T   T   T
  0.5252500293962606  0.7689307252282594  0.1110650584166713   T   T   T
  0.6680749785975626  0.9086804750375157  0.1109768715971304   T   T   T
  0.6668269634865429  0.0490574808888592  0.1109616101993424   T   T   T
  0.6665761721288965  0.1903934967051115  0.1109500884299638   T   T   T
  0.6673639895057191  0.3326374124112816  0.1110426441109550   T   T   T
  0.6778708869510093  0.4795289749016102  0.1112708851956059   T   T   T
  0.6819624405593649  0.6355828862048999  0.1111311102869003   T   T   T
  0.6725353425513461  0.7708354182359273  0.1110478437753850   T   T   T
  0.8120478169644575  0.9092535527594588  0.1110088554493044   T   T   T
  0.8095181829394397  0.0494954508841647  0.1109841234304161   T   T   T
  0.8088998732284808  0.1911015286895188  0.1110272746534692   T   T   T
  0.8096079052128882  0.3334252297880995  0.1109500884299638   T   T   T
  0.8143914755705589  0.4768953154807197  0.1110203152874040   T   T   T
  0.8156058683351171  0.6230489515270825  0.1112111645582577   T   T   T
  0.8171838136989990  0.7702888494517955  0.1111222770898732   T   T   T

  0.00000000E+00  0.00000000E+00  0.00000000E+00
  0.00000000E+00  0.00000000E+00  0.00000000E+00
  0.00000000E+00  0.00000000E+00  0.00000000E+00
  0.00000000E+00  0.00000000E+00  0.00000000E+00
  0.00000000E+00  0.00000000E+00  0.00000000E+00
  0.00000000E+00  0.00000000E+00  0.00000000E+00
  0.00000000E+00  0.00000000E+00  0.00000000E+00
  0.00000000E+00  0.00000000E+00  0.00000000E+00
  0.00000000E+00  0.00000000E+00  0.00000000E+00
  0.00000000E+00  0.00000000E+00  0.00000000E+00
  0.00000000E+00  0.00000000E+00  0.00000000E+00
  0.00000000E+00  0.00000000E+00  0.00000000E+00
  0.00000000E+00  0.00000000E+00  0.00000000E+00
  0.00000000E+00  0.00000000E+00  0.00000000E+00
  0.00000000E+00  0.00000000E+00  0.00000000E+00
  0.00000000E+00  0.00000000E+00  0.00000000E+00
  0.00000000E+00  0.00000000E+00  0.00000000E+00
  0.00000000E+00  0.00000000E+00  0.00000000E+00
  0.00000000E+00  0.00000000E+00  0.00000000E+00
  0.00000000E+00  0.00000000E+00  0.00000000E+00
  0.00000000E+00  0.00000000E+00  0.00000000E+00
  0.00000000E+00  0.00000000E+00  0.00000000E+00
  0.00000000E+00  0.00000000E+00  0.00000000E+00
  0.00000000E+00  0.00000000E+00  0.00000000E+00
  0.00000000E+00  0.00000000E+00  0.00000000E+00
  0.00000000E+00  0.00000000E+00  0.00000000E+00
  0.00000000E+00  0.00000000E+00  0.00000000E+00
  0.00000000E+00  0.00000000E+00  0.00000000E+00
  0.00000000E+00  0.00000000E+00  0.00000000E+00
  0.00000000E+00  0.00000000E+00  0.00000000E+00
  0.00000000E+00  0.00000000E+00  0.00000000E+00
  0.00000000E+00  0.00000000E+00  0.00000000E+00
  0.00000000E+00  0.00000000E+00  0.00000000E+00
  0.00000000E+00  0.00000000E+00  0.00000000E+00
  0.00000000E+00  0.00000000E+00  0.00000000E+00
  0.00000000E+00  0.00000000E+00  0.00000000E+00
  0.00000000E+00  0.00000000E+00  0.00000000E+00
  0.00000000E+00  0.00000000E+00  0.00000000E+00
  0.00000000E+00  0.00000000E+00  0.00000000E+00
  0.00000000E+00  0.00000000E+00  0.00000000E+00
  0.00000000E+00  0.00000000E+00  0.00000000E+00
  0.00000000E+00  0.00000000E+00  0.00000000E+00
  0.00000000E+00  0.00000000E+00  0.00000000E+00
  0.00000000E+00  0.00000000E+00  0.00000000E+00
  0.00000000E+00  0.00000000E+00  0.00000000E+00
  0.00000000E+00  0.00000000E+00  0.00000000E+00
  0.00000000E+00  0.00000000E+00  0.00000000E+00
  0.00000000E+00  0.00000000E+00  0.00000000E+00
  0.00000000E+00  0.00000000E+00  0.00000000E+00
  0.00000000E+00  0.00000000E+00  0.00000000E+00
  0.00000000E+00  0.00000000E+00  0.00000000E+00
  0.00000000E+00  0.00000000E+00  0.00000000E+00
  0.00000000E+00  0.00000000E+00  0.00000000E+00
  0.00000000E+00  0.00000000E+00  0.00000000E+00
  0.00000000E+00  0.00000000E+00  0.00000000E+00
  0.00000000E+00  0.00000000E+00  0.00000000E+00
  0.00000000E+00  0.00000000E+00  0.00000000E+00
  0.00000000E+00  0.00000000E+00  0.00000000E+00
  0.00000000E+00  0.00000000E+00  0.00000000E+00
  0.00000000E+00  0.00000000E+00  0.00000000E+00
  0.00000000E+00  0.00000000E+00  0.00000000E+00
  0.00000000E+00  0.00000000E+00  0.00000000E+00
  0.00000000E+00  0.00000000E+00  0.00000000E+00
  0.00000000E+00  0.00000000E+00  0.00000000E+00
  0.00000000E+00  0.00000000E+00  0.00000000E+00
  0.00000000E+00  0.00000000E+00  0.00000000E+00
  0.00000000E+00  0.00000000E+00  0.00000000E+00
  0.00000000E+00  0.00000000E+00  0.00000000E+00
  0.00000000E+00  0.00000000E+00  0.00000000E+00
  0.00000000E+00  0.00000000E+00  0.00000000E+00
  0.00000000E+00  0.00000000E+00  0.00000000E+00
  0.00000000E+00  0.00000000E+00  0.00000000E+00
  0.00000000E+00  0.00000000E+00  0.00000000E+00
  0.00000000E+00  0.00000000E+00  0.00000000E+00
  0.00000000E+00  0.00000000E+00  0.00000000E+00
  0.00000000E+00  0.00000000E+00  0.00000000E+00
  0.00000000E+00  0.00000000E+00  0.00000000E+00
  0.00000000E+00  0.00000000E+00  0.00000000E+00
  0.00000000E+00  0.00000000E+00  0.00000000E+00
  0.00000000E+00  0.00000000E+00  0.00000000E+00
  0.00000000E+00  0.00000000E+00  0.00000000E+00
  0.00000000E+00  0.00000000E+00  0.00000000E+00
  0.00000000E+00  0.00000000E+00  0.00000000E+00
  0.00000000E+00  0.00000000E+00  0.00000000E+00
  0.00000000E+00  0.00000000E+00  0.00000000E+00
  0.00000000E+00  0.00000000E+00  0.00000000E+00
  0.00000000E+00  0.00000000E+00  0.00000000E+00
  0.00000000E+00  0.00000000E+00  0.00000000E+00
  0.00000000E+00  0.00000000E+00  0.00000000E+00
  0.00000000E+00  0.00000000E+00  0.00000000E+00
  0.00000000E+00  0.00000000E+00  0.00000000E+00
  0.00000000E+00  0.00000000E+00  0.00000000E+00
  0.00000000E+00  0.00000000E+00  0.00000000E+00
  0.00000000E+00  0.00000000E+00  0.00000000E+00
  0.00000000E+00  0.00000000E+00  0.00000000E+00
  0.00000000E+00  0.00000000E+00  0.00000000E+00
  0.00000000E+00  0.00000000E+00  0.00000000E+00
  0.00000000E+00  0.00000000E+00  0.00000000E+00
