B N Si                                  
   1.0000000000000000     
     8.7639499999999995  -15.1796066749929999    0.0000000000000000
     8.7639499999999995   15.1796066749929999    0.0000000000000000
     0.0000000000000000    0.0000000000000000   15.0000000000000000
   B    N    Si
    48    48     1
Selective dynamics
Direct
  0.9047985795483781  0.9518292759007129  0.1178493741580360   T   T   T
  0.9052556470968188  0.0949066222631680  0.1180629547741779   T   T   T
  0.9053964197616412  0.2378554010927795  0.1169979321240463   T   T   T
  0.9053842335784347  0.3807449733371898  0.1154182722465040   T   T   T
  0.9046583528255624  0.5234411259583310  0.1140823558747905   T   T   T
  0.9037706309367641  0.6658910880073871  0.1145501259493471   T   T   T
  0.9033012596723431  0.8079640716671006  0.1160429535054691   T   T   T
  0.0477732601481917  0.9523624760975146  0.1175474196093938   T   T   T
  0.0483145507470366  0.0953367917736563  0.1178233037357435   T   T   T
  0.0483878192706017  0.2381338988959157  0.1163062963477302   T   T   T
  0.0482066100008654  0.3809525566198774  0.1143513558984444   T   T   T
  0.0478086692612508  0.5237597397990803  0.1140540672962724   T   T   T
  0.0474031217657277  0.6665128733917108  0.1149990743559120   T   T   T
  0.0472954585090943  0.8093113812812435  0.1165637541650697   T   T   T
  0.1908271842956373  0.9528420558947120  0.1165941730880421   T   T   T
  0.1921822653962814  0.0968316089590173  0.1160475573294421   T   T   T
  0.1916071044888105  0.2387895141373977  0.1144527177260821   T   T   T
  0.1910993643761770  0.3811656433851796  0.1092701802234980   T   T   T
  0.1907209821016788  0.5238896133305543  0.1084549895725057   T   T   T
  0.1905837806887445  0.6667074740939259  0.1111093852630634   T   T   T
  0.1904845936488734  0.8096474025852731  0.1148467981860338   T   T   T
  0.3336213625233735  0.9527430429181027  0.1150042690555460   T   T   T
  0.3342553126479473  0.0963702996159745  0.1145561685024096   T   T   T
  0.3372475768605359  0.2421631374688168  0.1122316548131716   T   T   T
  0.3336986062547546  0.3820189721652372  0.1005348554620246   T   T   T
  0.3330194477042004  0.5234054348124871  0.0926315838081860   T   T   T
  0.3335707106887041  0.6665809065966293  0.1020769712078112   T   T   T
  0.3334335517954273  0.8095638257400016  0.1111291158676963   T   T   T
  0.4763866268314381  0.9523487808526832  0.1140656982794971   T   T   T
  0.4767039930658212  0.0954962002614550  0.1140258479283872   T   T   T
  0.4773316310175432  0.2390227709975647  0.1104160909342249   T   T   T
  0.4848265651392723  0.3882516686358927  0.1090677841649050   T   T   T
  0.4767497146395318  0.6671420852306561  0.0926209419759998   T   T   T
  0.4762565575598349  0.8094323147610429  0.1084725832779694   T   T   T
  0.6192008647830982  0.9519609758725202  0.1143557066321288   T   T   T
  0.6194091320677841  0.0947848033730578  0.1154107496928766   T   T   T
  0.6197036365754024  0.2374304930014002  0.1123480757254025   T   T   T
  0.6204964363769423  0.3796428185975210  0.1085756740894531   T   T   T
  0.6118823908807597  0.5153170788797610  0.1090267874471379   T   T   T
  0.6181332837602360  0.6664616227611236  0.1004915964075902   T   T   T
  0.6189890604157970  0.8090603413007710  0.1092630428060664   T   T   T
  0.7620174315606328  0.9517706977716905  0.1163009080324669   T   T   T
  0.7623180546513436  0.0947789840856105  0.1169970285255819   T   T   T
  0.7625073225295947  0.2376534625687487  0.1155743174080446   T   T   T
  0.7627288076698709  0.3804482316674287  0.1123819345161942   T   T   T
  0.7611152790271727  0.5228096300411570  0.1104256429897117   T   T   T
  0.7579714155066160  0.6628998082141513  0.1122088793044070   T   T   T
  0.7613518753432625  0.8085468098923857  0.1144606613625932   T   T   T
  0.9519889837839408  0.9037956071470880  0.1174886619137285   T   T   T
  0.9528761109856942  0.0472656620584224  0.1184384257333498   T   T   T
  0.9530205909711167  0.1902551845820851  0.1176004720472719   T   T   T
  0.9529352938393478  0.3331597221988837  0.1161276414935730   T   T   T
  0.9524920532516054  0.4760085717505754  0.1150513349531322   T   T   T
  0.9518689236296285  0.6186730218608284  0.1148129997001729   T   T   T
  0.9516255872224492  0.7611026126891687  0.1159758904276013   T   T   T
  0.0953673007508199  0.9047662685365029  0.1172424100000079   T   T   T
  0.0963534966665741  0.0481522095524366  0.1174406753826031   T   T   T
  0.0961904162176387  0.1906269705447678  0.1169576780960359   T   T   T
  0.0958283590468022  0.3333581552319245  0.1137865967656762   T   T   T
  0.0954845785742397  0.4762129045559539  0.1128954618995110   T   T   T
  0.0952048385999744  0.6190430643187927  0.1137505873540218   T   T   T
  0.0950558259590080  0.7618454232646462  0.1158482524116789   T   T   T
  0.2382922589421374  0.9050877473361296  0.1158607013409659   T   T   T
  0.2390484217734966  0.0485171082523532  0.1160301544886527   T   T   T
  0.2410684531545278  0.1929032849916013  0.1143006832495091   T   T   T
  0.2387690467365341  0.3334665013399658  0.1100201401882326   T   T   T
  0.2382470212130866  0.4763260433947648  0.1049791320289434   T   T   T
  0.2382392882864058  0.6191607523180712  0.1069379255629369   T   T   T
  0.2380968182763304  0.7620396720418917  0.1121133822311860   T   T   T
  0.3811002434448198  0.9049465724829188  0.1137799499705255   T   T   T
  0.3814679747583906  0.0482812155052928  0.1147782978371551   T   T   T
  0.3825446295280787  0.1922987876340375  0.1125449867462332   T   T   T
  0.3874837460622695  0.3399218687410371  0.1092205193695187   T   T   T
  0.3773229007284488  0.4735328505147556  0.0806903315780631   T   T   T
  0.3810271392052704  0.6191282819846576  0.0923066095586805   T   T   T
  0.3809844321427739  0.7619121641017184  0.1069571208720324   T   T   T
  0.5239340486340324  0.9046720737408080  0.1129087355700680   T   T   T
  0.5241432239584310  0.0476782058779772  0.1150251109624491   T   T   T
  0.5245338716811491  0.1908947616379124  0.1119987600511978   T   T   T
  0.5257867194073457  0.3347571644326324  0.1077981842612026   T   T   T
  0.5266194782055424  0.6228451709084690  0.0806464977006758   T   T   T
  0.5238303726192858  0.7619066114107099  0.1049855638121022   T   T   T
  0.6667977261453205  0.9043234361742006  0.1137753887815960   T   T   T
  0.6670082226233459  0.0472348319640973  0.1161448738630654   T   T   T
  0.6672132811734776  0.1899948045702735  0.1147497271689394   T   T   T
  0.6676467668941808  0.3325099436878505  0.1106133807709840   T   T   T
  0.6653691545435431  0.4743450341550706  0.1077625119356835   T   T   T
  0.6602126935759437  0.6126622893796927  0.1091674069276899   T   T   T
  0.6666935065201010  0.7613917056853869  0.1100107898239540   T   T   T
  0.8095255592744952  0.9039625601900090  0.1169708996974049   T   T   T
  0.8099164980283964  0.0471506414309871  0.1175841387556529   T   T   T
  0.8100755569134644  0.1901012881159032  0.1170604086259181   T   T   T
  0.8101779122674638  0.3329376067904824  0.1147649510984845   T   T   T
  0.8092519481746420  0.4756131840240337  0.1120777637859989   T   T   T
  0.8078433223841207  0.6176083837334626  0.1125347834227992   T   T   T
  0.8072187434131627  0.7590827969386006  0.1143031494364156   T   T   T
  0.4818821962452999  0.5182604103575074  0.0303458570936241   T   T   T

  0.00000000E+00  0.00000000E+00  0.00000000E+00
  0.00000000E+00  0.00000000E+00  0.00000000E+00
  0.00000000E+00  0.00000000E+00  0.00000000E+00
  0.00000000E+00  0.00000000E+00  0.00000000E+00
  0.00000000E+00  0.00000000E+00  0.00000000E+00
  0.00000000E+00  0.00000000E+00  0.00000000E+00
  0.00000000E+00  0.00000000E+00  0.00000000E+00
  0.00000000E+00  0.00000000E+00  0.00000000E+00
  0.00000000E+00  0.00000000E+00  0.00000000E+00
  0.00000000E+00  0.00000000E+00  0.00000000E+00
  0.00000000E+00  0.00000000E+00  0.00000000E+00
  0.00000000E+00  0.00000000E+00  0.00000000E+00
  0.00000000E+00  0.00000000E+00  0.00000000E+00
  0.00000000E+00  0.00000000E+00  0.00000000E+00
  0.00000000E+00  0.00000000E+00  0.00000000E+00
  0.00000000E+00  0.00000000E+00  0.00000000E+00
  0.00000000E+00  0.00000000E+00  0.00000000E+00
  0.00000000E+00  0.00000000E+00  0.00000000E+00
  0.00000000E+00  0.00000000E+00  0.00000000E+00
  0.00000000E+00  0.00000000E+00  0.00000000E+00
  0.00000000E+00  0.00000000E+00  0.00000000E+00
  0.00000000E+00  0.00000000E+00  0.00000000E+00
  0.00000000E+00  0.00000000E+00  0.00000000E+00
  0.00000000E+00  0.00000000E+00  0.00000000E+00
  0.00000000E+00  0.00000000E+00  0.00000000E+00
  0.00000000E+00  0.00000000E+00  0.00000000E+00
  0.00000000E+00  0.00000000E+00  0.00000000E+00
  0.00000000E+00  0.00000000E+00  0.00000000E+00
  0.00000000E+00  0.00000000E+00  0.00000000E+00
  0.00000000E+00  0.00000000E+00  0.00000000E+00
  0.00000000E+00  0.00000000E+00  0.00000000E+00
  0.00000000E+00  0.00000000E+00  0.00000000E+00
  0.00000000E+00  0.00000000E+00  0.00000000E+00
  0.00000000E+00  0.00000000E+00  0.00000000E+00
  0.00000000E+00  0.00000000E+00  0.00000000E+00
  0.00000000E+00  0.00000000E+00  0.00000000E+00
  0.00000000E+00  0.00000000E+00  0.00000000E+00
  0.00000000E+00  0.00000000E+00  0.00000000E+00
  0.00000000E+00  0.00000000E+00  0.00000000E+00
  0.00000000E+00  0.00000000E+00  0.00000000E+00
  0.00000000E+00  0.00000000E+00  0.00000000E+00
  0.00000000E+00  0.00000000E+00  0.00000000E+00
  0.00000000E+00  0.00000000E+00  0.00000000E+00
  0.00000000E+00  0.00000000E+00  0.00000000E+00
  0.00000000E+00  0.00000000E+00  0.00000000E+00
  0.00000000E+00  0.00000000E+00  0.00000000E+00
  0.00000000E+00  0.00000000E+00  0.00000000E+00
  0.00000000E+00  0.00000000E+00  0.00000000E+00
  0.00000000E+00  0.00000000E+00  0.00000000E+00
  0.00000000E+00  0.00000000E+00  0.00000000E+00
  0.00000000E+00  0.00000000E+00  0.00000000E+00
  0.00000000E+00  0.00000000E+00  0.00000000E+00
  0.00000000E+00  0.00000000E+00  0.00000000E+00
  0.00000000E+00  0.00000000E+00  0.00000000E+00
  0.00000000E+00  0.00000000E+00  0.00000000E+00
  0.00000000E+00  0.00000000E+00  0.00000000E+00
  0.00000000E+00  0.00000000E+00  0.00000000E+00
  0.00000000E+00  0.00000000E+00  0.00000000E+00
  0.00000000E+00  0.00000000E+00  0.00000000E+00
  0.00000000E+00  0.00000000E+00  0.00000000E+00
  0.00000000E+00  0.00000000E+00  0.00000000E+00
  0.00000000E+00  0.00000000E+00  0.00000000E+00
  0.00000000E+00  0.00000000E+00  0.00000000E+00
  0.00000000E+00  0.00000000E+00  0.00000000E+00
  0.00000000E+00  0.00000000E+00  0.00000000E+00
  0.00000000E+00  0.00000000E+00  0.00000000E+00
  0.00000000E+00  0.00000000E+00  0.00000000E+00
  0.00000000E+00  0.00000000E+00  0.00000000E+00
  0.00000000E+00  0.00000000E+00  0.00000000E+00
  0.00000000E+00  0.00000000E+00  0.00000000E+00
  0.00000000E+00  0.00000000E+00  0.00000000E+00
  0.00000000E+00  0.00000000E+00  0.00000000E+00
  0.00000000E+00  0.00000000E+00  0.00000000E+00
  0.00000000E+00  0.00000000E+00  0.00000000E+00
  0.00000000E+00  0.00000000E+00  0.00000000E+00
  0.00000000E+00  0.00000000E+00  0.00000000E+00
  0.00000000E+00  0.00000000E+00  0.00000000E+00
  0.00000000E+00  0.00000000E+00  0.00000000E+00
  0.00000000E+00  0.00000000E+00  0.00000000E+00
  0.00000000E+00  0.00000000E+00  0.00000000E+00
  0.00000000E+00  0.00000000E+00  0.00000000E+00
  0.00000000E+00  0.00000000E+00  0.00000000E+00
  0.00000000E+00  0.00000000E+00  0.00000000E+00
  0.00000000E+00  0.00000000E+00  0.00000000E+00
  0.00000000E+00  0.00000000E+00  0.00000000E+00
  0.00000000E+00  0.00000000E+00  0.00000000E+00
  0.00000000E+00  0.00000000E+00  0.00000000E+00
  0.00000000E+00  0.00000000E+00  0.00000000E+00
  0.00000000E+00  0.00000000E+00  0.00000000E+00
  0.00000000E+00  0.00000000E+00  0.00000000E+00
  0.00000000E+00  0.00000000E+00  0.00000000E+00
  0.00000000E+00  0.00000000E+00  0.00000000E+00
  0.00000000E+00  0.00000000E+00  0.00000000E+00
  0.00000000E+00  0.00000000E+00  0.00000000E+00
  0.00000000E+00  0.00000000E+00  0.00000000E+00
  0.00000000E+00  0.00000000E+00  0.00000000E+00
  0.00000000E+00  0.00000000E+00  0.00000000E+00
