 B N 
 1.0
 17.527899999999772   0.000000000000000   0.000000000000000
 -8.763949999999658  15.179606674993195   0.000000000000000
  0.000000000000001   0.000000000000002  15.000000000000000
 B N 
  49  48
Cartesian
  7.508833005793573  14.466735011237583   1.664499906544485 
 15.010925596158426   1.453152460527698   1.665490226748600 
 13.754804884861631   3.622210211177781   1.665286853941365 
 12.502057599853440   5.790106028540785   1.664422170674340 
 11.259612023073775   7.958194980758293   1.665656089689990 
 10.030447756159969  10.131939664328963   1.667257861340940 
  8.778745440102981  12.309207384052609   1.665002116575225 
 -7.510338105008302  14.455904060737279   1.664752891179315 
 -0.010244503395034   1.443359057487841   1.665357499674210 
 -1.264653136338847   3.615387665071611   1.665498322255845 
 -2.510704092678232   5.784020602633581   1.665186726270105 
 -3.749748199732151   7.949677384672364   1.664471374734120 
 -4.995271685762392  10.119737783328796   1.664957777542830 
 -6.247725569596737  12.289143980366834   1.664543950892760 
 -5.002535183651749  14.445864935608531   1.665541543442985 
  2.493231743761901   1.422524008165134   1.665389708607000 
  1.238007577554395   3.599380953768011   1.666145381894550 
 -0.001730074676858   5.776406926898889   1.668706683743700 
 -1.225663425963907   7.941641256633646   1.667218205676555 
 -2.483508079153765  10.110131182574337   1.665884673409995 
 -3.741251790315049  12.279865980012145   1.665010104716505 
 -2.497753003379289  14.445972889939897   1.666056135773910 
  5.004616384585850   1.427287595182607   1.664881347978075 
  3.730234259617218   3.558864665555825   1.662201813677100 
  2.492639258251067   5.755015467736575   1.667122885650300 
  1.313850477657397   7.928721833277840   1.668542899841970 
  0.032810578944032  10.100768136293505   1.666190311474650 
 -1.233404680485973  12.275368527360532   1.665772577117640 
  0.004533351679132  14.452179762041254   1.665479147784450 
  7.501650603762839   1.449817484188503   1.664094083320575 
  6.227402730505119   3.621391992342261   1.663007498597190 
  4.903954799284462   5.731626478378924   1.670650870133025 
  3.927472572780669   7.850967857609128   1.668412578392295 
  2.554653486487279  10.076833884453409   1.664097734446500 
  1.273566798523053  12.269980329234420   1.663196365556115 
  2.499540109384341  14.461815519381735   1.664719509634020 
 10.000584973066839   1.457418769934453   1.665406329753885 
  8.732347900709186   3.635078677254230   1.664807895304245 
  7.452861634387769   5.816920271453833   1.666721117589255 
  6.254113417123710   8.067036294768418   1.668980904660780 
  5.026351650210374  10.142857062480818   1.663142808674955 
  3.760613486766924  12.292675188235103   1.660666494462165 
  5.000612903527237  14.467058261289910   1.664298742936335 
 12.504400704607381   1.456457225286846   1.666539444129375 
 11.243810985836967   3.628126790410385   1.666253287501755 
  9.982119368545540   5.799750408152144   1.666594344906360 
  8.742148038300119   7.975940237376697   1.667789342756985 
  7.547363626682846  10.169833380040346   1.666009398909465 
  6.265849687900515  12.307620008987746   1.662627203685075 
  8.765646181540864  13.746828927543405   1.664093814273915 
 16.264663494094524   0.729285412174382   1.664980142838270 
 15.008187082015510   2.898033373415668   1.664714636081100 
 13.757121262922682   5.067546381384835   1.664026446855210 
 12.513974686194970   7.234671738154067   1.663736295513705 
 11.275938546157338   9.402558617354872   1.665445682438040 
 10.026581531183620  11.575485075771251   1.665095125924920 
 -6.255771128520214  13.731593193219677   1.664294656072170 
  1.241688149958507   0.715007754119918   1.665302787070395 
 -0.014642738442674   2.886753744357677   1.665478913402400 
 -1.259100884299253   5.059868891664398   1.666150873813140 
 -2.492828827512361   7.228177536660447   1.665029944160055 
 -3.742182128023309   9.394144334689493   1.664750788786095 
 -4.995745638355182  11.562910715534771   1.664240915010855 
 -3.747584714034719  13.724768397611147   1.665262123130460 
  3.752594485497160   0.708745124217934   1.665906552027885 
  2.481233422460515   2.859139340085035   1.664017239228915 
  1.241897877881773   5.045380491882709   1.668424236985125 
  0.035430433182096   7.219968683821111   1.669414260541590 
 -1.226767982963093   9.386472845218776   1.666564927888260 
 -2.487178494285094  11.555749580208619   1.665478089771240 
 -1.242653114129124  13.723438623634928   1.665808795506225 
  6.259044989505442   0.713341692045511   1.665251964078690 
  4.993946087249805   2.871785030763350   1.661625477040290 
  3.715347937423457   4.992084977929777   1.663319935480050 
  2.589864480420729   7.199359230522522   1.667832514910550 
  1.293742516605366   9.372699241088629   1.666229896168260 
  0.021651171880249  11.548720872366776   1.664688022083540 
  1.257819823701066  13.724237838668362   1.664340082787520 
  8.755431385464959   0.724973243505513   1.664855058257535 
  7.485276867502728   2.903664297906105   1.662624297968715 
  6.190891464884683   5.088469985295590   1.666232966949855 
  3.824354192349476   9.335965107834021   1.665197150583270 
  2.529157844729419  11.538532655954745   1.660737219897420 
  3.752529644162169  13.739903566060658   1.662659944198170 
 11.253857239600801   0.731751071358904   1.665880879132095 
  9.988569924796263   2.908289469835749   1.665200712208725 
  8.713779393977166   5.088902375148184   1.665796035408315 
  7.453773799139884   7.274031773255826   1.666588883808645 
  6.298817715927523   9.466022397109803   1.664511902401260 
  5.015551055506552  11.581011878906999   1.660130425161675 
  6.256636256457202  13.748785979041831   1.663472920811940 
 13.758250863681516   0.733070890941109   1.665968865595605 
 12.498909915706435   2.903482781655447   1.666198159394820 
 11.239564960717054   5.075126685270238   1.665372858933495 
  9.992422303666999   7.245441255831603   1.667305300850145 
  8.774219786243325   9.418939553434331   1.668828789511560 
  7.528639571802651  11.601283438330523   1.664551649978745 
