B N C                                   
   1.0000000000000000     
     8.7639499999999995  -15.1796066749929999    0.0000000000000000
     8.7639499999999995   15.1796066749929999    0.0000000000000000
     0.0000000000000000    0.0000000000000000   15.0000000000000000
   B    N    C 
    48    48     1
Selective dynamics
Direct
  0.9043341183012309  0.9510940491035336  0.1150669307413647   T   T   T
  0.9056294821576191  0.0945536419723663  0.1164261166580256   T   T   T
  0.9060348060201459  0.2375024363397485  0.1165397945807793   T   T   T
  0.9059220632237877  0.3803752638844088  0.1155170695577575   T   T   T
  0.9046631335640962  0.5230564202458923  0.1139366687213599   T   T   T
  0.9029552574780597  0.6653305218035298  0.1132781865429095   T   T   T
  0.9021487064952970  0.8070091813245349  0.1137148179372107   T   T   T
  0.0476384763650007  0.9524942434863326  0.1164966990510424   T   T   T
  0.0490509391963263  0.0958179164124522  0.1150409151042426   T   T   T
  0.0493164154594679  0.2383434066059661  0.1133139394345148   T   T   T
  0.0488183376911421  0.3809471884608898  0.1126220113320825   T   T   T
  0.0477067931905847  0.5237900262931841  0.1135745734102066   T   T   T
  0.0468015801743887  0.6665675070840056  0.1150494599810066   T   T   T
  0.0467314663574134  0.8093264176912625  0.1164391350020046   T   T   T
  0.1907901952680799  0.9534140691320420  0.1161793392690083   T   T   T
  0.1930999813079964  0.0979892112274613  0.1135470728400091   T   T   T
  0.1936681182561200  0.2405006015368545  0.1095957924749738   T   T   T
  0.1922704861570978  0.3818217235931068  0.1062680996430961   T   T   T
  0.1903720974715972  0.5244134095037130  0.1068294163264851   T   T   T
  0.1898018815855493  0.6672104050653647  0.1109768350214189   T   T   T
  0.1900215080231788  0.8101037046780374  0.1151464264727787   T   T   T
  0.3335476634092289  0.9533224375030401  0.1143516879804865   T   T   T
  0.3347654148807178  0.0971614235730753  0.1127873360647487   T   T   T
  0.3396193752450298  0.2443475174907336  0.1082238162597419   T   T   T
  0.3381395045958071  0.3848856591061596  0.1035106773557364   T   T   T
  0.3328027862542333  0.5258990305046866  0.1004943292798891   T   T   T
  0.3322860878771654  0.6678754115744765  0.1039070456776617   T   T   T
  0.3329370422125095  0.8103409516579794  0.1105882918048453   T   T   T
  0.4763465251776672  0.9524488898145580  0.1127701452319496   T   T   T
  0.4770545166868526  0.0954710548280007  0.1130827465534330   T   T   T
  0.4783648507399523  0.2391015616173363  0.1090654032804241   T   T   T
  0.4899848058062816  0.3916939590241101  0.1049668424681248   T   T   T
  0.4743089738280899  0.6674036807346942  0.1005758123281111   T   T   T
  0.4757682769277652  0.8098064157287196  0.1066235583955755   T   T   T
  0.6192303266041871  0.9513529111582375  0.1122156125594264   T   T   T
  0.6197648985418469  0.0942228494588702  0.1148357936889035   T   T   T
  0.6203541513027443  0.2367236173663529  0.1120861704466757   T   T   T
  0.6215342224715779  0.3785833067596621  0.1076621372851369   T   T   T
  0.6084172876724497  0.5101490100720234  0.1050545462853809   T   T   T
  0.6152960841216528  0.6620426095002403  0.1036140080710293   T   T   T
  0.6183690893078378  0.8079021198874025  0.1062944395502554   T   T   T
  0.7618302622253349  0.9508581496479437  0.1131780713966020   T   T   T
  0.7626679259990461  0.0941476783342636  0.1163477316507409   T   T   T
  0.7631021585346884  0.2370466973653798  0.1160211076467548   T   T   T
  0.7634037626381528  0.3797636211925340  0.1124938779449234   T   T   T
  0.7610121644804867  0.5217481312081356  0.1094572179437618   T   T   T
  0.7557824875203800  0.6605088918159137  0.1084438362171924   T   T   T
  0.7596477978406125  0.8064713265170372  0.1096989105627477   T   T   T
  0.9514984606812955  0.9032295794131355  0.1156514527580677   T   T   T
  0.9531947196827185  0.0469540275046079  0.1161101781194497   T   T   T
  0.9537943420113967  0.1900302843196695  0.1163111380066855   T   T   T
  0.9536412212541393  0.3328681120200391  0.1155662612967177   T   T   T
  0.9526555214924902  0.4757126156172778  0.1149643250813986   T   T   T
  0.9514205151777688  0.6184038225964325  0.1145855053837055   T   T   T
  0.9509311605980307  0.7607027135546607  0.1148308301093451   T   T   T
  0.0951745135113289  0.9049756672933744  0.1172335856981455   T   T   T
  0.0968988712579003  0.0486434550568790  0.1156073225380939   T   T   T
  0.0976915146216874  0.1915032843820333  0.1127651373547958   T   T   T
  0.0969134707478596  0.3336722958293665  0.1105361293536896   T   T   T
  0.0955274420003507  0.4763003715962059  0.1115792484253795   T   T   T
  0.0946798742665802  0.6191605470753810  0.1135410816724378   T   T   T
  0.0945877655411888  0.7620004639168501  0.1161791367845759   T   T   T
  0.2381642645715191  0.9055918499910608  0.1157393578260562   T   T   T
  0.2394236045098252  0.0492113962883828  0.1145065051607467   T   T   T
  0.2427887788911293  0.1944824822054282  0.1101515110411980   T   T   T
  0.2418974483073755  0.3360078633442538  0.1059081961013892   T   T   T
  0.2382962190749944  0.4769849681776386  0.1030505676762145   T   T   T
  0.2373717115614403  0.6196987788756562  0.1065832490472425   T   T   T
  0.2376426213825704  0.7625344105732867  0.1124742429755385   T   T   T
  0.3809892692412866  0.9054968080295827  0.1127857345785562   T   T   T
  0.3817132957298371  0.0486977768981780  0.1138046229194953   T   T   T
  0.3834521196207321  0.1930064385160161  0.1098083907423939   T   T   T
  0.3911917603342492  0.3426028840126075  0.1051537352344840   T   T   T
  0.3826675916308492  0.4803096673528546  0.1002292923017997   T   T   T
  0.3797285107712117  0.6204963791669669  0.1000752118347940   T   T   T
  0.3805163281088244  0.7628286884629276  0.1062736583362484   T   T   T
  0.5238807346074362  0.9046674050483658  0.1111020911682593   T   T   T
  0.5244274973116188  0.0474996650128055  0.1139499825441337   T   T   T
  0.5251848336496897  0.1904949070469602  0.1112273168224021   T   T   T
  0.5271170662846084  0.3341025462081834  0.1066451967875640   T   T   T
  0.5198769045283680  0.6175112640847783  0.1002347787412184   T   T   T
  0.5231986803792826  0.7618975133649997  0.1032152227136193   T   T   T
  0.6665126221806255  0.9032746831569826  0.1102867258508720   T   T   T
  0.6672856939978954  0.0465210488442718  0.1151299609099913   T   T   T
  0.6678112931028399  0.1892303724304470  0.1149342489387332   T   T   T
  0.6686178312922814  0.3314881508173532  0.1102339194837320   T   T   T
  0.6659911474261891  0.4729822674022404  0.1067811749990101   T   T   T
  0.6575223901787789  0.6089427606734872  0.1053185883776694   T   T   T
  0.6641701422241689  0.7582597038435839  0.1060273430130634   T   T   T
  0.8086443434707747  0.9024656857364398  0.1128023541432933   T   T   T
  0.8101213943602383  0.0463525799069538  0.1161737086312310   T   T   T
  0.8106814740067717  0.1894726935743186  0.1172332353219892   T   T   T
  0.8108764385957659  0.3322993794119535  0.1154183740187576   T   T   T
  0.8096183205575976  0.4749254423833398  0.1118638127458231   T   T   T
  0.8071147215017909  0.6166594588891124  0.1101817086326342   T   T   T
  0.8056583131941046  0.7573483155831051  0.1103112957618610   T   T   T
  0.4729730263521141  0.5272581863163271  0.1002584163969645   T   T   T

  0.00000000E+00  0.00000000E+00  0.00000000E+00
  0.00000000E+00  0.00000000E+00  0.00000000E+00
  0.00000000E+00  0.00000000E+00  0.00000000E+00
  0.00000000E+00  0.00000000E+00  0.00000000E+00
  0.00000000E+00  0.00000000E+00  0.00000000E+00
  0.00000000E+00  0.00000000E+00  0.00000000E+00
  0.00000000E+00  0.00000000E+00  0.00000000E+00
  0.00000000E+00  0.00000000E+00  0.00000000E+00
  0.00000000E+00  0.00000000E+00  0.00000000E+00
  0.00000000E+00  0.00000000E+00  0.00000000E+00
  0.00000000E+00  0.00000000E+00  0.00000000E+00
  0.00000000E+00  0.00000000E+00  0.00000000E+00
  0.00000000E+00  0.00000000E+00  0.00000000E+00
  0.00000000E+00  0.00000000E+00  0.00000000E+00
  0.00000000E+00  0.00000000E+00  0.00000000E+00
  0.00000000E+00  0.00000000E+00  0.00000000E+00
  0.00000000E+00  0.00000000E+00  0.00000000E+00
  0.00000000E+00  0.00000000E+00  0.00000000E+00
  0.00000000E+00  0.00000000E+00  0.00000000E+00
  0.00000000E+00  0.00000000E+00  0.00000000E+00
  0.00000000E+00  0.00000000E+00  0.00000000E+00
  0.00000000E+00  0.00000000E+00  0.00000000E+00
  0.00000000E+00  0.00000000E+00  0.00000000E+00
  0.00000000E+00  0.00000000E+00  0.00000000E+00
  0.00000000E+00  0.00000000E+00  0.00000000E+00
  0.00000000E+00  0.00000000E+00  0.00000000E+00
  0.00000000E+00  0.00000000E+00  0.00000000E+00
  0.00000000E+00  0.00000000E+00  0.00000000E+00
  0.00000000E+00  0.00000000E+00  0.00000000E+00
  0.00000000E+00  0.00000000E+00  0.00000000E+00
  0.00000000E+00  0.00000000E+00  0.00000000E+00
  0.00000000E+00  0.00000000E+00  0.00000000E+00
  0.00000000E+00  0.00000000E+00  0.00000000E+00
  0.00000000E+00  0.00000000E+00  0.00000000E+00
  0.00000000E+00  0.00000000E+00  0.00000000E+00
  0.00000000E+00  0.00000000E+00  0.00000000E+00
  0.00000000E+00  0.00000000E+00  0.00000000E+00
  0.00000000E+00  0.00000000E+00  0.00000000E+00
  0.00000000E+00  0.00000000E+00  0.00000000E+00
  0.00000000E+00  0.00000000E+00  0.00000000E+00
  0.00000000E+00  0.00000000E+00  0.00000000E+00
  0.00000000E+00  0.00000000E+00  0.00000000E+00
  0.00000000E+00  0.00000000E+00  0.00000000E+00
  0.00000000E+00  0.00000000E+00  0.00000000E+00
  0.00000000E+00  0.00000000E+00  0.00000000E+00
  0.00000000E+00  0.00000000E+00  0.00000000E+00
  0.00000000E+00  0.00000000E+00  0.00000000E+00
  0.00000000E+00  0.00000000E+00  0.00000000E+00
  0.00000000E+00  0.00000000E+00  0.00000000E+00
  0.00000000E+00  0.00000000E+00  0.00000000E+00
  0.00000000E+00  0.00000000E+00  0.00000000E+00
  0.00000000E+00  0.00000000E+00  0.00000000E+00
  0.00000000E+00  0.00000000E+00  0.00000000E+00
  0.00000000E+00  0.00000000E+00  0.00000000E+00
  0.00000000E+00  0.00000000E+00  0.00000000E+00
  0.00000000E+00  0.00000000E+00  0.00000000E+00
  0.00000000E+00  0.00000000E+00  0.00000000E+00
  0.00000000E+00  0.00000000E+00  0.00000000E+00
  0.00000000E+00  0.00000000E+00  0.00000000E+00
  0.00000000E+00  0.00000000E+00  0.00000000E+00
  0.00000000E+00  0.00000000E+00  0.00000000E+00
  0.00000000E+00  0.00000000E+00  0.00000000E+00
  0.00000000E+00  0.00000000E+00  0.00000000E+00
  0.00000000E+00  0.00000000E+00  0.00000000E+00
  0.00000000E+00  0.00000000E+00  0.00000000E+00
  0.00000000E+00  0.00000000E+00  0.00000000E+00
  0.00000000E+00  0.00000000E+00  0.00000000E+00
  0.00000000E+00  0.00000000E+00  0.00000000E+00
  0.00000000E+00  0.00000000E+00  0.00000000E+00
  0.00000000E+00  0.00000000E+00  0.00000000E+00
  0.00000000E+00  0.00000000E+00  0.00000000E+00
  0.00000000E+00  0.00000000E+00  0.00000000E+00
  0.00000000E+00  0.00000000E+00  0.00000000E+00
  0.00000000E+00  0.00000000E+00  0.00000000E+00
  0.00000000E+00  0.00000000E+00  0.00000000E+00
  0.00000000E+00  0.00000000E+00  0.00000000E+00
  0.00000000E+00  0.00000000E+00  0.00000000E+00
  0.00000000E+00  0.00000000E+00  0.00000000E+00
  0.00000000E+00  0.00000000E+00  0.00000000E+00
  0.00000000E+00  0.00000000E+00  0.00000000E+00
  0.00000000E+00  0.00000000E+00  0.00000000E+00
  0.00000000E+00  0.00000000E+00  0.00000000E+00
  0.00000000E+00  0.00000000E+00  0.00000000E+00
  0.00000000E+00  0.00000000E+00  0.00000000E+00
  0.00000000E+00  0.00000000E+00  0.00000000E+00
  0.00000000E+00  0.00000000E+00  0.00000000E+00
  0.00000000E+00  0.00000000E+00  0.00000000E+00
  0.00000000E+00  0.00000000E+00  0.00000000E+00
  0.00000000E+00  0.00000000E+00  0.00000000E+00
  0.00000000E+00  0.00000000E+00  0.00000000E+00
  0.00000000E+00  0.00000000E+00  0.00000000E+00
  0.00000000E+00  0.00000000E+00  0.00000000E+00
  0.00000000E+00  0.00000000E+00  0.00000000E+00
  0.00000000E+00  0.00000000E+00  0.00000000E+00
  0.00000000E+00  0.00000000E+00  0.00000000E+00
  0.00000000E+00  0.00000000E+00  0.00000000E+00
  0.00000000E+00  0.00000000E+00  0.00000000E+00
