 Pb N B 
 1.0
 14.936314146199660   0.000000000000000   0.000000000000000
 -7.468157073099825  12.935227489513863   0.000000000000000
  0.000000000000001   0.000000000000001  13.341276283792837
 Pb N B 
   1 143 143
Cartesian
  4.294754492492472   5.354072660013600   5.002978606422314 
  1.244984372014294   0.718451485013863   1.669013974843389 
  4.978858387587262   7.186989849652298   1.650023666576218 
  6.223812371345811   0.718413192683929   1.668855384989485 
  9.957672745799830   7.186378859307921   1.670925840027647 
 11.202518427690284   0.718787034489237   1.668617037654600 
 -3.733924290967276   9.342197796155288   8.336327534608822 
  1.244684569917784   9.342515522136052   8.337101827855141 
  2.489521716639513   2.874226501155695   8.345276578903670 
  6.223586898471821   9.342152397250411   8.336921185919206 
  7.468503621291837   2.874246253514356   8.340055028652856 
 12.447187848404758   2.874754317317815   8.336588657294216 
 -1.244611725648589   9.342344284637079   1.669701294400706 
  0.000330788044759   2.874685978236327   1.668233644528614 
  4.979296109930400   2.874390986400762   1.659970463903522 
  3.734036391888348   9.342533234042220   1.665902184191772 
  8.713037335246685   9.342150627285331   1.670925840027647 
  9.957737424686561   2.874618732748488   1.669329368802129 
 -4.978515432184617  11.497898122760693   8.336148124024096 
  0.000183024975887  11.498085660198036   8.336304331910844 
  1.244528333517793   5.030618295809594   8.345276578903670 
  6.224159289300144   5.030065417174238   8.355933546268410 
  4.978975870064846  11.498086704123969   8.336627844042500 
 11.202341554838320   5.030614843106179   8.335423787531026 
 -1.244696267617432   5.030704847476622   1.669013974843389 
 -2.489141145561347  11.497932471440212   1.669701294400706 
  2.489480071907352  11.498249399491870   1.669184730140846 
  3.733923724158746   5.030276864946356   1.658973982272269 
  7.468425337170919  11.497947443311574   1.670533425313601 
  8.712949060247171   5.030450654615978   1.669036026925423 
  0.000015294469010   7.186668937257798   8.337557676949833 
  1.244984372014294   0.718451485013864   8.336943238001238 
  4.978858387587263   7.186989849652299   8.355933546268410 
  6.223812371345812   0.718413192683930   8.337101827855141 
  9.957672745799830   7.186378859307922   8.335031372817074 
 -2.489328615789328   7.186500087233400   1.669809088820624 
 11.202518427690284   0.718787034489237   8.337340175190027 
  3.734459824454935   0.718421273274454   1.668399535894795 
  2.489557978563960   7.186743927469061   1.659970463903522 
  7.468264527095369   7.186299532767571   1.666536616760501 
  8.713130423929501   0.718570781245503   1.669184730140846 
  2.489557978563961   7.186743927469061   8.345986748941106 
 13.691975574705166   0.718718730727349   1.669368555550411 
 -1.244611725648589   9.342344284637079   8.336255918443921 
  0.000330788044760   2.874685978236328   8.337723568316013 
  4.979296109930401   2.874390986400762   8.345986748941106 
  3.734036391888349   9.342533234042220   8.340055028652856 
  8.713037335246685   9.342150627285331   8.335031372817074 
  9.957737424686561   2.874618732748489   8.336627844042500 
 -3.733924290967276   9.342197796155288   1.669629678235806 
  1.244684569917784   9.342515522136052   1.668855384989485 
  2.489521716639513   2.874226501155694   1.660680633940957 
  6.223586898471820   9.342152397250411   1.669036026925423 
  7.468503621291836   2.874246253514355   1.665902184191772 
 12.447187848404758   2.874754317317814   1.669368555550411 
 -1.244696267617432   5.030704847476623   8.336943238001238 
 -2.489141145561347  11.497932471440212   8.336255918443921 
  2.489480071907352  11.498249399491870   8.336772482703783 
  3.733923724158746   5.030276864946357   8.346983230572357 
  7.468425337170919  11.497947443311574   8.335423787531026 
 -4.978515432184618  11.497898122760693   1.669809088820624 
  8.712949060247171   5.030450654615978   8.336921185919206 
  0.000183024975886  11.498085660198036   1.669652880933784 
  1.244528333517793   5.030618295809593   1.660680633940957 
  0.000015294469010   7.186668937257797   1.668399535894795 
  6.224159289300143   5.030065417174237   1.650023666576218 
  4.978975870064845  11.498086704123969   1.669329368802129 
 11.202341554838320   5.030614843106178   1.670533425313601 
 -2.489328615789327   7.186500087233401   8.336148124024096 
  3.734459824454935   0.718421273274454   8.337557676949833 
  7.468264527095370   7.186299532767572   8.339420596084127 
  8.713130423929501   0.718570781245504   8.336772482703783 
 13.691975574705166   0.718718730727350   8.336588657294216 
  0.023750459617394   1.452698564574148   5.002978606422314 
  3.670779136747745   8.005795126582424   5.002978606422314 
  5.016919074740374   1.337153788018910   5.002978606422314 
  8.710917452071465   7.903745533512000   5.002978606422314 
  9.986052703257588   1.440439896112912   5.002978606422314 
 -4.979156904413345  10.060543843773036  11.673616748318732 
 -0.000240610600514  10.060580987441767  11.673616748318732 
  1.244297734025555   3.592890629361462  11.673616748318732 
  4.978490562065564  10.060591147381263  11.673616748318732 
  6.223155315409821   3.592921584093353  11.673616748318732 
 11.201955923830804   3.592955738153604  11.673616748318732 
 -2.501375127881217  10.053810387252605   5.002978606422314 
 -1.219436600262205   3.605961715597801   5.002978606422314 
  3.805889946607183   3.400872367854385   5.002978606422314 
  2.470778460699648  10.113132978677653   5.002978606422314 
  7.476978368825583  10.076100750803350   5.002978606422314 
  8.748253690517556   3.580441992139503   5.002978606422314 
 -6.223833912948709  12.216419250022291  11.673616748318732 
 -1.244944357478080  12.216471117405078  11.673616748318732 
 -0.000373160343654   5.748749754416652  11.673616748318732 
  4.978415669495316   5.748784624590758  11.673616748318732 
  3.733810989057068  12.216449886402128  11.673616748318732 
  9.957251464303557   5.748779565422572  11.673616748318732 
 -2.488443503784975   5.756443515036063   5.002978606422314 
 -3.734622166138815  12.186937462152283   5.002978606422314 
  1.255466603362948  12.222823972089129   5.002978606422314 
  2.358801147860772   5.907303690347001   5.002978606422314 
  6.240729651206944  12.237922778584004   5.002978606422314 
  7.503192131016794   5.751210061390362   5.002978606422314 
 -1.245011934643602   7.904623431942952  11.673616748318732 
 -0.000363955846292   1.437037907810131  11.673616748318732 
  3.733753332301868   7.904692299299078  11.673616748318732 
  4.978456980267043   1.437089531381148  11.673616748318732 
  8.712517230693678   7.904669166130116  11.673616748318732 
 -3.744313558861980   7.904147768714083   5.002978606422314 
  9.957275749178924   1.437092722756542  11.673616748318732 
  2.500858221016451   1.406308762195196   5.002978606422314 
  1.177082995527809   7.987944969951191   5.002978606422314 
  6.242904390139784   7.934092460745558   5.002978606422314 
  7.504233610701515   1.394932921255133   5.002978606422314 
  1.244398840788915   7.904667947373422  11.673616748318732 
 12.472881063154983   1.452231244043339   5.002978606422314 
 -2.489703751708995  10.060548859427403  11.673616748318732 
 -1.245056334591629   3.592908347590833  11.673616748318732 
  3.733752894945453   3.592953569037325  11.673616748318732 
  2.489112717011301  10.060586436932475  11.673616748318732 
  7.467829185531267  10.060585433750106  11.673616748318732 
  8.712587100720384   3.592946222063986  11.673616748318732 
 -4.984506780591675  10.052225439952460   5.002978606422314 
 -0.021644053159144  10.084432855874175   5.002978606422314 
  1.281354266823410   3.614285228547597   5.002978606422314 
  4.985494876194786  10.097731435174213   5.002978606422314 
  6.279225834454566   3.487832917318920   5.002978606422314 
 11.229331150376099   3.597411523308697   5.002978606422314 
 -2.489730306806953   5.748762083458558  11.673616748318732 
 -3.734444032042629  12.216446306630852  11.673616748318732 
  1.244449737714623  12.216463381741383  11.673616748318732 
  2.489079821843708   5.748790570462452  11.673616748318732 
  6.223183214796234  12.216443029538880  11.673616748318732 
 -6.216538196554164  12.213692938340223   5.002978606422314 
  7.467863228866354   5.748817307395234  11.673616748318732 
 -1.234989754767256  12.186009258204747   5.002978606422314 
 -0.021057466899328   5.774394866070372   5.002978606422314 
 -1.270656410646517   7.919223585529762   5.002978606422314 
  3.751098203253894  12.239697872999590   5.002978606422314 
  9.975262714666597   5.748945332052708   5.002978606422314 
 -3.734434671745254   7.904621695481317  11.673616748318732 
  2.488991056119226   1.437044452959026  11.673616748318732 
  6.223167753319785   7.904693110993011  11.673616748318732 
  7.467894098824999   1.437084123853108  11.673616748318732 
 12.446640703165158   1.437081365139653  11.673616748318732 
  1.253539059191185   0.711705451152672   5.002978606422314 
  4.950092181645381   7.458386275692320   5.002978606422314 
  6.262504792171034   0.662016452478934   5.002978606422314 
  9.961387729888717   7.185645939857384   5.002978606422314 
 11.231824605473641   0.735706964121489   5.002978606422314 
 -3.734271754739334   9.341997187853019  11.673616748318732 
  1.244099144160965   9.342230164631449  11.673616748318732 
  2.488298011830914   2.873715888828545  11.673616748318732 
  6.223336515979525   9.342734413620121  11.673616748318732 
  7.468427920911526   2.873771838807588  11.673616748318732 
 12.446714844435570   2.874188762936512  11.673616748318732 
 -1.259363144483860   9.351064783317717   5.002978606422314 
  0.030851595647897   2.892307174721935   5.002978606422314 
  5.031542490261323   2.731210181751356   5.002978606422314 
  3.712556487449610   9.440071317645204   5.002978606422314 
  8.714260100427975   9.345734357606334   5.002978606422314 
  9.998551421613607   2.870061784380293   5.002978606422314 
 -4.979141220315812  11.497879615561210  11.673616748318732 
 -0.000265346216188  11.497826792969667  11.673616748318732 
  1.243474277866703   5.029813842522175  11.673616748318732 
  6.223625335519038   5.029850213539386  11.673616748318732 
  4.978538092911721  11.498437133200042  11.673616748318732 
 11.202342232171667   5.029993854139495  11.673616748318732 
 -1.246261160727575   5.041486440823848   5.002978606422314 
 -2.488964681587881  11.480797118646686   5.002978606422314 
  2.499495120638532  11.536495501926632   5.002978606422314 
  7.477360075188405  11.515048657585554   5.002978606422314 
  8.765428141503246   5.014380988869660   5.002978606422314 
 -0.000782088007716   7.185988011250464  11.673616748318732 
  1.244026202269512   0.718324851029437  11.673616748318732 
  4.978405038881903   7.186635033930906  11.673616748318732 
  6.223272531619254   0.718048877858798  11.673616748318732 
  9.957729614603766   7.186106141976404  11.673616748318732 
 -2.501111917872999   7.190665240816338   5.002978606422314 
 11.202157315278539   0.718578546141169  11.673616748318732 
  3.740385937394366   0.674938221211918   5.002978606422314 
  2.391682954568747   7.303581022416116   5.002978606422314 
  7.484583561816612   7.195721331856865   5.002978606422314 
  8.751260044599331   0.708121016649477   5.002978606422314 
  2.488416907310388   7.186353815849572  11.673616748318732 
 13.716044625875046   0.739987628939425   5.002978606422314 
 -1.245096356607030   9.341943761694385  11.673616748318732 
 -0.000817228149625   2.874023170777527  11.673616748318732 
  4.978387727730774   2.873597845517475  11.673616748318732 
  3.733587686510143   9.342704882943282  11.673616748318732 
  8.712829589511447   9.342336235780085  11.673616748318732 
  9.957822016592115   2.874064392074625  11.673616748318732 
 -3.741352942659847   9.337908862100868   5.002978606422314 
  1.215189770622232   9.404222511607124   5.002978606422314 
  2.505354588800975   2.841363723933009   5.002978606422314 
  6.235909700333214   9.395635447658609   5.002978606422314 
  7.542234127309102   2.806875068798052   5.002978606422314 
 12.477641780151808   2.884964277969970   5.002978606422314 
 -1.245285020737378   5.029938365128821  11.673616748318732 
 -2.489730324083740  11.497713030190091  11.673616748318732 
  2.489121003152854  11.498175493385000  11.673616748318732 
  3.733162084728728   5.029837132216419  11.673616748318732 
  7.467887883616959  11.498258524382829  11.673616748318732 
 -4.980799954412966  11.485610907024299   5.002978606422314 
  8.713327909962654   5.029942808832054  11.673616748318732 
  0.008078498600204  11.502644114020486   5.002978606422314 
  1.223984769684770   5.060761353927633   5.002978606422314 
 -0.034679076781505   7.213542627640296   5.002978606422314 
  6.444812385776171   4.869454939038051   5.002978606422314 
  4.995436435477779  11.535711136476868   5.002978606422314 
 11.221619009843884   5.029801946068504   5.002978606422314 
 -2.489657537559780   7.185967392414051  11.673616748318732 
  3.733471433996124   0.718071182796746  11.673616748318732 
  7.468395995916138   7.186375436326633  11.673616748318732 
  8.712886884986199   0.718296771635853  11.673616748318732 
 13.691249288259039   0.718591874464776  11.673616748318732 
  0.000205813277388   1.437188674225713   1.667114781113733 
  3.732034949941448   7.907469195929645   1.650003842401899 
  4.978849022992009   1.434488366282615   1.662998266618472 
  8.715108707112204   7.906165355737952   1.665320006139171 
  9.958202716298745   1.436804094424960   1.666258656148593 
 -4.977561806316430  10.061384745760455   8.338643504092593 
 -0.000842810617273  10.061272326771244   8.338927630834903 
  1.243616981449271   3.592497596678361   8.344887719443784 
  4.978691234576314  10.062672158412040   8.342772547896521 
  6.224700987255315   3.590044973000620   8.355953370442728 
 11.203265237135710   3.593110183524348   8.338827317070370 
 -2.489131997909145  10.060878961637638   1.667317741048222 
 -1.244640882483864   3.593326398918453   1.667114781113733 
  3.732702991832864   3.588300669182818   1.652750600460178 
  2.488002466889853  10.062277530575868   1.664629351721937 
  7.469538074045730  10.062260516047656   1.666525712672478 
  8.714489645394021   3.592079504040655   1.663184664948107 
 -6.222827331945716  12.216759214035319   8.338350319524464 
 -1.244646740064549  12.215603927227756   8.338927630834903 
 -0.001530269782499   5.749643748927166   8.341671725318072 
  4.980461492470211   5.749965781036029   8.365017191603076 
  3.734024513149584  12.217396977642142   8.339698556696048 
  9.959556572383953   5.749421965139465   8.339431500172150 
 -2.488932598833799   5.749463826171600   1.667606893320164 
 -3.733709917534623  12.215831008679526   1.667246306769971 
  1.244500194469960  12.216492512962667   1.666890869807178 
  2.484525340812139   5.750207777622705   1.652750600460178 
  6.223971625063195  12.217499705437158   1.667129895774258 
  7.471024394233361   5.749454206698934   1.653485071387873 
 -1.245177741046357   7.905566842731860   8.338710906074658 
  0.000205813277389   1.437188674225714   8.338842431730894 
  3.732034949941448   7.907469195929646   8.355953370442728 
  4.978849022992010   1.434488366282616   8.342958946226156 
  8.715108707112204   7.906165355737953   8.340637206705457 
 -3.732908880213598   7.905582639961061   1.667313708752021 
  9.958202716298745   1.436804094424960   8.339698556696048 
  2.489186723356744   1.435595369534783   1.664285487526556 
  1.242342187096633   7.906308048881877   1.662998266618472 
  6.225299906979946   7.907112310854552   1.653485071387873 
  7.468803503819677   1.435277072221604   1.664629351721937 
  1.242342187096634   7.906308048881878   8.342958946226156 
 12.447419206723904   1.437530834378796   1.666939322102936 
 -2.489131997909144  10.060878961637638   8.338639471796407 
 -1.244640882483864   3.593326398918454   8.338842431730894 
  3.732702991832864   3.588300669182819   8.353206612384437 
  2.488002466889853  10.062277530575868   8.341327861122691 
  7.469538074045730  10.062260516047656   8.339431500172150 
  8.714489645394021   3.592079504040655   8.342772547896521 
 -4.977561806316431  10.061384745760455   1.667313708752021 
 -0.000842810617273  10.061272326771244   1.667029582009725 
  1.243616981449271   3.592497596678360   1.661069493400843 
  4.978691234576313  10.062672158412040   1.663184664948107 
  6.224700987255314   3.590044973000619   1.650003842401899 
 11.203265237135710   3.593110183524347   1.667129895774258 
 -2.488932598833798   5.749463826171601   8.338350319524464 
 -3.733709917534623  12.215831008679526   8.338710906074658 
  1.244500194469960  12.216492512962667   8.339066343037464 
  2.484525340812139   5.750207777622705   8.353206612384437 
  6.223971625063196  12.217499705437158   8.338827317070370 
 -6.222827331945717  12.216759214035319   1.667606893320164 
  7.471024394233361   5.749454206698935   8.352472141456849 
 -1.244646740064550  12.215603927227756   1.667029582009725 
 -0.001530269782499   5.749643748927165   1.664285487526556 
 -1.245177741046357   7.905566842731859   1.667246306769971 
  4.980461492470210   5.749965781036028   1.640940021241551 
  3.734024513149584  12.217396977642142   1.666258656148593 
  9.959556572383953   5.749421965139464   1.666525712672478 
 -3.732908880213597   7.905582639961062   8.338643504092593 
  2.489186723356745   1.435595369534783   8.341671725318072 
  6.225299906979947   7.907112310854552   8.352472141456849 
  7.468803503819678   1.435277072221605   8.341327861122691 
 12.447419206723904   1.437530834378797   8.339017890741690 
Generated by cif2cell 2.0.0.  :  Failed to get author information, No journal information. Species order: Pb N B 
 1.0
 14.936314146199660   0.000000000000000   0.000000000000000
 -7.468157073099825  12.935227489513863   0.000000000000000
  0.000000000000001   0.000000000000001  13.341276283792837
 Pb N B 
   1 143 143
Cartesian
  4.294754492492472   5.354072660013600   5.002978606422314 
  1.244984372014294   0.718451485013863   1.669013974843389 
  4.978858387587262   7.186989849652298   1.650023666576218 
  6.223812371345811   0.718413192683929   1.668855384989485 
  9.957672745799830   7.186378859307921   1.670925840027647 
 11.202518427690284   0.718787034489237   1.668617037654600 
 -3.733924290967276   9.342197796155288   8.336327534608822 
  1.244684569917784   9.342515522136052   8.337101827855141 
  2.489521716639513   2.874226501155695   8.345276578903670 
  6.223586898471821   9.342152397250411   8.336921185919206 
  7.468503621291837   2.874246253514356   8.340055028652856 
 12.447187848404758   2.874754317317815   8.336588657294216 
 -1.244611725648589   9.342344284637079   1.669701294400706 
  0.000330788044759   2.874685978236327   1.668233644528614 
  4.979296109930400   2.874390986400762   1.659970463903522 
  3.734036391888348   9.342533234042220   1.665902184191772 
  8.713037335246685   9.342150627285331   1.670925840027647 
  9.957737424686561   2.874618732748488   1.669329368802129 
 -4.978515432184617  11.497898122760693   8.336148124024096 
  0.000183024975887  11.498085660198036   8.336304331910844 
  1.244528333517793   5.030618295809594   8.345276578903670 
  6.224159289300144   5.030065417174238   8.355933546268410 
  4.978975870064846  11.498086704123969   8.336627844042500 
 11.202341554838320   5.030614843106179   8.335423787531026 
 -1.244696267617432   5.030704847476622   1.669013974843389 
 -2.489141145561347  11.497932471440212   1.669701294400706 
  2.489480071907352  11.498249399491870   1.669184730140846 
  3.733923724158746   5.030276864946356   1.658973982272269 
  7.468425337170919  11.497947443311574   1.670533425313601 
  8.712949060247171   5.030450654615978   1.669036026925423 
  0.000015294469010   7.186668937257798   8.337557676949833 
  1.244984372014294   0.718451485013864   8.336943238001238 
  4.978858387587263   7.186989849652299   8.355933546268410 
  6.223812371345812   0.718413192683930   8.337101827855141 
  9.957672745799830   7.186378859307922   8.335031372817074 
 -2.489328615789328   7.186500087233400   1.669809088820624 
 11.202518427690284   0.718787034489237   8.337340175190027 
  3.734459824454935   0.718421273274454   1.668399535894795 
  2.489557978563960   7.186743927469061   1.659970463903522 
  7.468264527095369   7.186299532767571   1.666536616760501 
  8.713130423929501   0.718570781245503   1.669184730140846 
  2.489557978563961   7.186743927469061   8.345986748941106 
 13.691975574705166   0.718718730727349   1.669368555550411 
 -1.244611725648589   9.342344284637079   8.336255918443921 
  0.000330788044760   2.874685978236328   8.337723568316013 
  4.979296109930401   2.874390986400762   8.345986748941106 
  3.734036391888349   9.342533234042220   8.340055028652856 
  8.713037335246685   9.342150627285331   8.335031372817074 
  9.957737424686561   2.874618732748489   8.336627844042500 
 -3.733924290967276   9.342197796155288   1.669629678235806 
  1.244684569917784   9.342515522136052   1.668855384989485 
  2.489521716639513   2.874226501155694   1.660680633940957 
  6.223586898471820   9.342152397250411   1.669036026925423 
  7.468503621291836   2.874246253514355   1.665902184191772 
 12.447187848404758   2.874754317317814   1.669368555550411 
 -1.244696267617432   5.030704847476623   8.336943238001238 
 -2.489141145561347  11.497932471440212   8.336255918443921 
  2.489480071907352  11.498249399491870   8.336772482703783 
  3.733923724158746   5.030276864946357   8.346983230572357 
  7.468425337170919  11.497947443311574   8.335423787531026 
 -4.978515432184618  11.497898122760693   1.669809088820624 
  8.712949060247171   5.030450654615978   8.336921185919206 
  0.000183024975886  11.498085660198036   1.669652880933784 
  1.244528333517793   5.030618295809593   1.660680633940957 
  0.000015294469010   7.186668937257797   1.668399535894795 
  6.224159289300143   5.030065417174237   1.650023666576218 
  4.978975870064845  11.498086704123969   1.669329368802129 
 11.202341554838320   5.030614843106178   1.670533425313601 
 -2.489328615789327   7.186500087233401   8.336148124024096 
  3.734459824454935   0.718421273274454   8.337557676949833 
  7.468264527095370   7.186299532767572   8.339420596084127 
  8.713130423929501   0.718570781245504   8.336772482703783 
 13.691975574705166   0.718718730727350   8.336588657294216 
  0.023750459617394   1.452698564574148   5.002978606422314 
  3.670779136747745   8.005795126582424   5.002978606422314 
  5.016919074740374   1.337153788018910   5.002978606422314 
  8.710917452071465   7.903745533512000   5.002978606422314 
  9.986052703257588   1.440439896112912   5.002978606422314 
 -4.979156904413345  10.060543843773036  11.673616748318732 
 -0.000240610600514  10.060580987441767  11.673616748318732 
  1.244297734025555   3.592890629361462  11.673616748318732 
  4.978490562065564  10.060591147381263  11.673616748318732 
  6.223155315409821   3.592921584093353  11.673616748318732 
 11.201955923830804   3.592955738153604  11.673616748318732 
 -2.501375127881217  10.053810387252605   5.002978606422314 
 -1.219436600262205   3.605961715597801   5.002978606422314 
  3.805889946607183   3.400872367854385   5.002978606422314 
  2.470778460699648  10.113132978677653   5.002978606422314 
  7.476978368825583  10.076100750803350   5.002978606422314 
  8.748253690517556   3.580441992139503   5.002978606422314 
 -6.223833912948709  12.216419250022291  11.673616748318732 
 -1.244944357478080  12.216471117405078  11.673616748318732 
 -0.000373160343654   5.748749754416652  11.673616748318732 
  4.978415669495316   5.748784624590758  11.673616748318732 
  3.733810989057068  12.216449886402128  11.673616748318732 
  9.957251464303557   5.748779565422572  11.673616748318732 
 -2.488443503784975   5.756443515036063   5.002978606422314 
 -3.734622166138815  12.186937462152283   5.002978606422314 
  1.255466603362948  12.222823972089129   5.002978606422314 
  2.358801147860772   5.907303690347001   5.002978606422314 
  6.240729651206944  12.237922778584004   5.002978606422314 
  7.503192131016794   5.751210061390362   5.002978606422314 
 -1.245011934643602   7.904623431942952  11.673616748318732 
 -0.000363955846292   1.437037907810131  11.673616748318732 
  3.733753332301868   7.904692299299078  11.673616748318732 
  4.978456980267043   1.437089531381148  11.673616748318732 
  8.712517230693678   7.904669166130116  11.673616748318732 
 -3.744313558861980   7.904147768714083   5.002978606422314 
  9.957275749178924   1.437092722756542  11.673616748318732 
  2.500858221016451   1.406308762195196   5.002978606422314 
  1.177082995527809   7.987944969951191   5.002978606422314 
  6.242904390139784   7.934092460745558   5.002978606422314 
  7.504233610701515   1.394932921255133   5.002978606422314 
  1.244398840788915   7.904667947373422  11.673616748318732 
 12.472881063154983   1.452231244043339   5.002978606422314 
 -2.489703751708995  10.060548859427403  11.673616748318732 
 -1.245056334591629   3.592908347590833  11.673616748318732 
  3.733752894945453   3.592953569037325  11.673616748318732 
  2.489112717011301  10.060586436932475  11.673616748318732 
  7.467829185531267  10.060585433750106  11.673616748318732 
  8.712587100720384   3.592946222063986  11.673616748318732 
 -4.984506780591675  10.052225439952460   5.002978606422314 
 -0.021644053159144  10.084432855874175   5.002978606422314 
  1.281354266823410   3.614285228547597   5.002978606422314 
  4.985494876194786  10.097731435174213   5.002978606422314 
  6.279225834454566   3.487832917318920   5.002978606422314 
 11.229331150376099   3.597411523308697   5.002978606422314 
 -2.489730306806953   5.748762083458558  11.673616748318732 
 -3.734444032042629  12.216446306630852  11.673616748318732 
  1.244449737714623  12.216463381741383  11.673616748318732 
  2.489079821843708   5.748790570462452  11.673616748318732 
  6.223183214796234  12.216443029538880  11.673616748318732 
 -6.216538196554164  12.213692938340223   5.002978606422314 
  7.467863228866354   5.748817307395234  11.673616748318732 
 -1.234989754767256  12.186009258204747   5.002978606422314 
 -0.021057466899328   5.774394866070372   5.002978606422314 
 -1.270656410646517   7.919223585529762   5.002978606422314 
  3.751098203253894  12.239697872999590   5.002978606422314 
  9.975262714666597   5.748945332052708   5.002978606422314 
 -3.734434671745254   7.904621695481317  11.673616748318732 
  2.488991056119226   1.437044452959026  11.673616748318732 
  6.223167753319785   7.904693110993011  11.673616748318732 
  7.467894098824999   1.437084123853108  11.673616748318732 
 12.446640703165158   1.437081365139653  11.673616748318732 
  1.253539059191185   0.711705451152672   5.002978606422314 
  4.950092181645381   7.458386275692320   5.002978606422314 
  6.262504792171034   0.662016452478934   5.002978606422314 
  9.961387729888717   7.185645939857384   5.002978606422314 
 11.231824605473641   0.735706964121489   5.002978606422314 
 -3.734271754739334   9.341997187853019  11.673616748318732 
  1.244099144160965   9.342230164631449  11.673616748318732 
  2.488298011830914   2.873715888828545  11.673616748318732 
  6.223336515979525   9.342734413620121  11.673616748318732 
  7.468427920911526   2.873771838807588  11.673616748318732 
 12.446714844435570   2.874188762936512  11.673616748318732 
 -1.259363144483860   9.351064783317717   5.002978606422314 
  0.030851595647897   2.892307174721935   5.002978606422314 
  5.031542490261323   2.731210181751356   5.002978606422314 
  3.712556487449610   9.440071317645204   5.002978606422314 
  8.714260100427975   9.345734357606334   5.002978606422314 
  9.998551421613607   2.870061784380293   5.002978606422314 
 -4.979141220315812  11.497879615561210  11.673616748318732 
 -0.000265346216188  11.497826792969667  11.673616748318732 
  1.243474277866703   5.029813842522175  11.673616748318732 
  6.223625335519038   5.029850213539386  11.673616748318732 
  4.978538092911721  11.498437133200042  11.673616748318732 
 11.202342232171667   5.029993854139495  11.673616748318732 
 -1.246261160727575   5.041486440823848   5.002978606422314 
 -2.488964681587881  11.480797118646686   5.002978606422314 
  2.499495120638532  11.536495501926632   5.002978606422314 
  7.477360075188405  11.515048657585554   5.002978606422314 
  8.765428141503246   5.014380988869660   5.002978606422314 
 -0.000782088007716   7.185988011250464  11.673616748318732 
  1.244026202269512   0.718324851029437  11.673616748318732 
  4.978405038881903   7.186635033930906  11.673616748318732 
  6.223272531619254   0.718048877858798  11.673616748318732 
  9.957729614603766   7.186106141976404  11.673616748318732 
 -2.501111917872999   7.190665240816338   5.002978606422314 
 11.202157315278539   0.718578546141169  11.673616748318732 
  3.740385937394366   0.674938221211918   5.002978606422314 
  2.391682954568747   7.303581022416116   5.002978606422314 
  7.484583561816612   7.195721331856865   5.002978606422314 
  8.751260044599331   0.708121016649477   5.002978606422314 
  2.488416907310388   7.186353815849572  11.673616748318732 
 13.716044625875046   0.739987628939425   5.002978606422314 
 -1.245096356607030   9.341943761694385  11.673616748318732 
 -0.000817228149625   2.874023170777527  11.673616748318732 
  4.978387727730774   2.873597845517475  11.673616748318732 
  3.733587686510143   9.342704882943282  11.673616748318732 
  8.712829589511447   9.342336235780085  11.673616748318732 
  9.957822016592115   2.874064392074625  11.673616748318732 
 -3.741352942659847   9.337908862100868   5.002978606422314 
  1.215189770622232   9.404222511607124   5.002978606422314 
  2.505354588800975   2.841363723933009   5.002978606422314 
  6.235909700333214   9.395635447658609   5.002978606422314 