Species order: X N B                    
   2.51242800000000     
     5.9449720136058266    0.0000000000000000    0.0000000000000000
    -2.9724860068029120    5.1484967885702053   -0.0000000000000001
     0.0000000000000000    0.0000000000000009    5.3101128803662583
   Pb   N    B 
     1   143   143
Direct
  0.4944948072005680  0.4139140702669483  0.3750000000000000
  0.1111239703477336  0.0555422380933224  0.1251015224735980
  0.6111460178594105  0.5556137188525320  0.1236780973182218
  0.4444596141023418  0.0555392777797162  0.1250896353159882
  0.9444586111834775  0.5555664842488215  0.1252448269928648
  0.7778030243491205  0.0555681788412245  0.1250717699086752
  0.1111248802896920  0.7222291068115103  0.6248523272646641
  0.4444596141023418  0.7222536696559613  0.6249103646840115
  0.2777765063176141  0.2222014652224496  0.6255231059896140
  0.7777876781461955  0.7222255971009220  0.6248968246049299
  0.6111246978424116  0.2222029922430362  0.6251317228760538
  0.9444718348369459  0.2222422697744028  0.6248718998062892
  0.2777923135075770  0.7222404315819407  0.1251530407498627
  0.1111406398637846  0.2222369865985530  0.1250430325436860
  0.4444755549932154  0.2222141812914333  0.1244236629684429
  0.6111246978424116  0.7222550389327040  0.1248682771239464
  0.9444586111834775  0.7222254602679915  0.1252448269928648
  0.7777955933534191  0.2222317879665307  0.1251251629373764
  0.1111250826582564  0.8888825598221317  0.6248388794819395
  0.4444607826989002  0.8888970580161143  0.6248505880983742
  0.2777765063176141  0.3889083744284934  0.6255231059896140
  0.6111460178594105  0.3888656323402074  0.6263219026817783
  0.7777955933534191  0.8888971387202170  0.6248748370626237
  0.9444611468810230  0.3889081075059813  0.6247845865883921
  0.1111239703477336  0.3889150655877398  0.1251015224735980
  0.2777923135075770  0.8888852152589650  0.1251530407498627
  0.6111278437616335  0.8889097164169006  0.1251143214962569
  0.4444306246680567  0.3888819790006962  0.1243489713414910
  0.9444611468810230  0.8888863727083702  0.1252154134116077
  0.7777876781461955  0.3888954143786017  0.1251031753950701
  0.2777954788147791  0.5555889096719618  0.6249445330113145
  0.1111239703477336  0.0555422380933224  0.6248984775264019
  0.6111460178594105  0.5556137188525320  0.6263219026817783
  0.4444596141023418  0.0555392777797162  0.6249103646840115
  0.9444586111834775  0.5555664842488215  0.6247551730071423
  0.1111250826582564  0.5555758561694601  0.1251611205180674
  0.7778030243491205  0.0555681788412245  0.6249282300913246
  0.2777954788147791  0.0555399024761530  0.1250554669886857
  0.4444755549932154  0.5555947070351180  0.1244236629684429
  0.7777873699698418  0.5555603516515853  0.1249158312376028
  0.6111278437616335  0.0555514606780615  0.1251143214962569
  0.4444755549932154  0.5555947070351180  0.6255763370315574
  0.9444718348369459  0.0555628983958717  0.1251281001937107
  0.2777923135075770  0.7222404315819407  0.6248469592501373
  0.1111406398637846  0.2222369865985530  0.6249569674563142
  0.4444755549932154  0.2222141812914333  0.6255763370315574
  0.6111246978424116  0.7222550389327040  0.6251317228760538
  0.9444586111834775  0.7222254602679915  0.6247551730071423
  0.7777955933534191  0.2222317879665307  0.6248748370626237
  0.1111248802896920  0.7222291068115103  0.1251476727353360
  0.4444596141023418  0.7222536696559613  0.1250896353159882
  0.2777765063176141  0.2222014652224496  0.1244768940103860
  0.7777876781461955  0.7222255971009220  0.1251031753950701
  0.6111246978424116  0.2222029922430362  0.1248682771239464
  0.9444718348369459  0.2222422697744028  0.1251281001937107
  0.1111239703477336  0.3889150655877398  0.6248984775264019
  0.2777923135075770  0.8888852152589650  0.6248469592501373
  0.6111278437616335  0.8889097164169006  0.6248856785037432
  0.4444306246680567  0.3888819790006962  0.6256510286585090
  0.9444611468810230  0.8888863727083702  0.6247845865883921
  0.1111250826582564  0.8888825598221317  0.1251611205180674
  0.7777876781461955  0.3888954143786017  0.6248968246049299
  0.4444607826989002  0.8888970580161143  0.1251494119016256
  0.2777765063176141  0.3889083744284934  0.1244768940103860
  0.2777954788147791  0.5555889096719618  0.1250554669886857
  0.6111460178594105  0.3888656323402074  0.1236780973182218
  0.7777955933534191  0.8888971387202170  0.1251251629373764
  0.9444611468810230  0.3889081075059813  0.1252154134116077
  0.1111250826582564  0.5555758561694601  0.6248388794819395
  0.2777954788147791  0.0555399024761530  0.6249445330113145
  0.7777873699698418  0.5555603516515853  0.6250841687623969
  0.6111278437616335  0.0555514606780615  0.6248856785037432
  0.9444718348369459  0.0555628983958717  0.6248718998062892
  0.0577429182650863  0.1123056062022720  0.3750000000000000
  0.5552191140989823  0.6189141345270066  0.3750000000000000
  0.3875738764957568  0.1033730399486902  0.3750000000000000
  0.8887163816669135  0.6110248575001316  0.3750000000000000
  0.7242543882743833  0.1113579098072011  0.3750000000000000
  0.0555224524514978  0.7777631937226284  0.8750000000000000
  0.3888669235161214  0.7777660652352291  0.8750000000000000
  0.2221869514508467  0.2777601423920912  0.8750000000000000
  0.7221979575166779  0.7777668506825282  0.8750000000000000
  0.5555272524362724  0.2777625354487199  0.8750000000000000
  0.8888638626965525  0.2777651758398748  0.8750000000000000
  0.2211519504241909  0.7772426418787667  0.3750000000000000
  0.0577429182650863  0.2787706453961502  0.3750000000000000
  0.3862656119304639  0.2629155436664221  0.3750000000000000
  0.5563352797051270  0.7818287685219312  0.3750000000000000
  0.8900735294902881  0.7789658712204088  0.3750000000000000
  0.7241025284172239  0.2767977598416451  0.3750000000000000
  0.0555236734757580  0.9444301818368257  0.8750000000000000
  0.3888669235161214  0.9444341916142209  0.8750000000000000
  0.2221879524887308  0.4444258718354175  0.8750000000000000
  0.5555238018428484  0.4444285675880921  0.8750000000000000
  0.7221983625898404  0.9444325502822097  0.8750000000000000
  0.8888612521108529  0.4444281764725747  0.8750000000000000
  0.0559067451998126  0.4450206631234438  0.3750000000000000
  0.2210391014755076  0.9421509959551776  0.3750000000000000
  0.5565173062472660  0.9449253197902975  0.3750000000000000
  0.3862656119304639  0.4566834015973704  0.3750000000000000
  0.8908688938582502  0.9460925823302961  0.3750000000000000
  0.7246536663719352  0.4446160738999498  0.3750000000000000
  0.2221916665080085  0.6110927263050423  0.8750000000000000
  0.0555230868168760  0.1110949079925412  0.8750000000000000
  0.5555272524362724  0.6110980503208884  0.8750000000000000
  0.3888617333036840  0.1110988989212709  0.8750000000000000
  0.8888591905381003  0.6110962619357215  0.8750000000000000
  0.0548427326247733  0.6110559536058950  0.3750000000000000
  0.7221983625898404  0.1110991456409667  0.8750000000000000
  0.2217944086477626  0.1087192910472775  0.3750000000000000
  0.3875738764957568  0.6175341698804093  0.3750000000000000
  0.7246536663719352  0.6133709258053212  0.3750000000000000
  0.5563352797051270  0.1078398445165314  0.3750000000000000
  0.3888617333036840  0.6110961677157559  0.8750000000000000
  0.8912056235919399  0.1122694784626413  0.3750000000000000
  0.2221938296149973  0.7777635814741667  0.8750000000000000
  0.0555230868168760  0.2777615121576705  0.8750000000000000
  0.3888607020690421  0.2777650081492583  0.8750000000000000
  0.5555316340672259  0.7777664865259034  0.8750000000000000
  0.8888612521108529  0.7777664089716136  0.8750000000000000
  0.7221979575166779  0.2777644401674929  0.8750000000000000
  0.0548427326247733  0.7771201123522139  0.3750000000000000
  0.3883559165954180  0.7796100118107141  0.3750000000000000
  0.2254949101556220  0.2794141217444824  0.3750000000000000
  0.7241025284172239  0.7806381019089216  0.3750000000000000
  0.5552191140989823  0.2696383129053113  0.3750000000000000
  0.8908688938582502  0.2781096448612902  0.3750000000000000
  0.0555236734757580  0.4444268249722611  0.8750000000000000
  0.2221916665080085  0.9444322735363019  0.8750000000000000
  0.5555338538336374  0.9444335935834792  0.8750000000000000
  0.3888607020690421  0.4444290272531194  0.8750000000000000
  0.8888638626965525  0.9444320201900065  0.8750000000000000
  0.0559067451998126  0.9442194154096973  0.3750000000000000
  0.7221958739772176  0.4444310942390153  0.8750000000000000
  0.3883559165954180  0.9420792381180396  0.3750000000000000
  0.2217944086477626  0.4464084509338137  0.3750000000000000
  0.2210391014755076  0.6122214388536730  0.3750000000000000
  0.7242543882743833  0.9462298118005176  0.3750000000000000
  0.8900735294902881  0.4444409916032148  0.3750000000000000
  0.0555224524514978  0.6110925920622049  0.8750000000000000
  0.2221879524887308  0.1110954139866489  0.8750000000000000
  0.7221958739772176  0.6110981130715381  0.8750000000000000
  0.5555316340672259  0.1110984808746582  0.8750000000000000
  0.8888632018732617  0.1110982676033058  0.8750000000000000
  0.1114359524515894  0.0550207139170633  0.3750000000000000
  0.6197106873245319  0.5765949057902979  0.3750000000000000
  0.4448701402620382  0.0511793436192448  0.3750000000000000
  0.9446790024269001  0.5555098235174086  0.3750000000000000
  0.7804191251708321  0.0568762292520875  0.3750000000000000
  0.1110938629299313  0.7222135981316334  0.8750000000000000
  0.4444093890614396  0.7222316091622564  0.8750000000000000
  0.2776748408760416  0.2221619906691371  0.8750000000000000
  0.7777934121455338  0.7222705917769086  0.8750000000000000
  0.6111012915431374  0.2221663160649674  0.8750000000000000
  0.9444183057710974  0.2221985477461849  0.8750000000000000
  0.2771417757323648  0.7229145982085196  0.3750000000000000
  0.1138651681335585  0.2235992507334435  0.3750000000000000
  0.4424389684914548  0.2111451216428514  0.3750000000000000
  0.6134568484683778  0.7297955389882352  0.3750000000000000
  0.9446790024269001  0.7225025122428345  0.3750000000000000
  0.7803519831820104  0.2218794981925868  0.3750000000000000
  0.1110824701862918  0.8888811290626417  0.8750000000000000
  0.4444207575460942  0.8888770454397150  0.8750000000000000
  0.2776748408760416  0.3888461835402331  0.8750000000000000
  0.6111019506517186  0.3888489953204854  0.8750000000000000
  0.7777798293014966  0.8889242297842405  0.8750000000000000
  0.9444371884391864  0.3888600999261225  0.8750000000000000
  0.1114359524515894  0.3897485718678547  0.3750000000000000
  0.2771417757323648  0.8875605108571740  0.3750000000000000
  0.6132767304249155  0.8918664562551272  0.3750000000000000
  0.9457203684331368  0.8902084379204306  0.3750000000000000
  0.7806800420178172  0.3876530963939093  0.3750000000000000
  0.2777157727187032  0.5555362684634569  0.8750000000000000
  0.1110549250732654  0.0555324482396431  0.8750000000000000
  0.6111019506517186  0.5555862886645685  0.8750000000000000
  0.4444093890614396  0.0555111132325186  0.8750000000000000
  0.9444518769503972  0.5555454009449717  0.8750000000000000
  0.1104971801215559  0.5558978569681560  0.3750000000000000
  0.7777707886040156  0.0555520609686756  0.8750000000000000
  0.2765114378735976  0.0521783031461230  0.3750000000000000
  0.4424389684914548  0.5646271801819392  0.3750000000000000
  0.7792441358592522  0.5562887345962937  0.3750000000000000
  0.6132767304249155  0.0547436075031168  0.3750000000000000
  0.4443840797946674  0.5555645481824962  0.8750000000000000
  0.9469054108130669  0.0572071600239966  0.3750000000000000
  0.2777443851512088  0.7222094678479810  0.8750000000000000
  0.1110381588738858  0.2221857461036072  0.8750000000000000
  0.4443840797946674  0.2221528649455142  0.8750000000000000
  0.6111012915431374  0.7222683088115057  0.8750000000000000
  0.9444518769503972  0.7222398093387684  0.8750000000000000
  0.7777798293014966  0.2221889328505844  0.8750000000000000
  0.1104617401852137  0.7218975367592712  0.3750000000000000
  0.4448701402620382  0.7270241299761292  0.3750000000000000
  0.2775662495512103  0.2196609009185500  0.3750000000000000
  0.7806800420178172  0.7263602789572365  0.3750000000000000
  0.6134568484683778  0.2169946428134711  0.3750000000000000
  0.9469054108130669  0.2230315841224058  0.3750000000000000
  0.1110549250732654  0.3888558101669581  0.8750000000000000
  0.2777443851512088  0.8888682506365565  0.8750000000000000
  0.6111009470010768  0.8889040028639745  0.8750000000000000
  0.4443626347188581  0.3888479840260969  0.8750000000000000
  0.9444371884391864  0.8889104218463926  0.8750000000000000
  0.1104971801215559  0.8879326564867357  0.3750000000000000
  0.7777934121455338  0.3888561537019468  0.8750000000000000
  0.4451655950148939  0.8892494641741148  0.3750000000000000
  0.2775662495512103  0.3912386819659888  0.3750000000000000
  0.2765114378735976  0.5576664680608102  0.3750000000000000
  0.6197106873245319  0.3764491148675625  0.3750000000000000
  0.7803519831820104  0.8918058183227523  0.3750000000000000
  0.9457203684331368  0.3888452638460346  0.3750000000000000
  0.1110824701862918  0.5555346744569787  0.8750000000000000
  0.2777157727187032  0.0555128375885821  0.8750000000000000
  0.7777991059148223  0.5555662196240755  0.8750000000000000
  0.6111009470010768  0.0555302774704308  0.8750000000000000
  0.9444183057710974  0.0555530913582552  0.8750000000000000
  0.0555670611299407  0.1111065634826128  0.1249591677476139
  0.5555195436841576  0.6113127273826422  0.1236766113903469
  0.3887874351445788  0.1108978073594380  0.1246506129731164
  0.8890905261847365  0.6112119297590396  0.1248246397657041
  0.7222492672151345  0.1110768322853024  0.1248949966033446
  0.0556617500764236  0.7778282023966621  0.6250259215621294
  0.3888533287920949  0.7778195114796062  0.6250472183808341
  0.2221261821008728  0.2777297577171077  0.6254939588936679
  0.7222918324028004  0.7779277300356328  0.6253354154753121
  0.5555195436841576  0.2775401496348585  0.6263233886096530
  0.8889574923810645  0.2777771157435891  0.6250396993277541
  0.2222448688735670  0.7777891011034512  0.1249743806800326
  0.0555670611299407  0.2777938309806637  0.1249591677476139
  0.3886105562794235  0.2774053005323430  0.1238824955951155
  0.5555226695563105  0.7778972220421333  0.1247728715238549
  0.8890404126255342  0.7778959066784696  0.1249150139178959
  0.7222918324028004  0.2776974357005033  0.1246645845246878
  0.0556042060158255  0.9444564638649781  0.6250039458109415
  0.3888533287920949  0.9443671506458245  0.6250472183808341
  0.2221450395276567  0.4444949850003177  0.6252529029364042
  0.5557064281547904  0.4445198807440631  0.6270027704744421
  0.7222492672151345  0.9445057682631680  0.6251050033966555
  0.8890404126255342  0.4444778392803929  0.6250849860821043
  0.0556042060158255  0.4444810754841757  0.1249960541890584
  0.2222170323423425  0.9443847059189696  0.1249690262988830
  0.5555383580020103  0.9444358456676661  0.1249423843978205
  0.3886105562794235  0.4445385890804163  0.1238824955951155
  0.8889574923810645  0.9445137099708111  0.1249603006722460
  0.7224321357026278  0.4444803318194304  0.1239375481187318
  0.2222170323423425  0.6111656597567087  0.6250309737011172
  0.0555670611299407  0.1111065634826128  0.6250408322523859
  0.5555195436841576  0.6113127273826422  0.6263233886096530
  0.3887874351445788  0.1108978073594380  0.6253493870268837
  0.8890905261847365  0.6112119297590396  0.6251753602342960
  0.0556617500764236  0.6111668810130972  0.1249740784378704
  0.7222492672151345  0.1110768322853024  0.6251050033966555
  0.2221450395276567  0.1109833878606747  0.1247470970635958
  0.3887874351445788  0.6112229611184838  0.1246506129731164
  0.7224321357026278  0.6112851372165332  0.1239375481187318
  0.5555226695563105  0.1109587808475057  0.1247728715238549
  0.3887874351445788  0.6112229611184838  0.6253493870268837
  0.8889326972477435  0.1111330152905430  0.1249460161564875
  0.2222448688735670  0.7777891011034512  0.6250256193199675
  0.0555670611299407  0.2777938309806637  0.6250408322523859
  0.3886105562794235  0.2774053005323430  0.6261175044048842
  0.5555226695563105  0.7778972220421333  0.6252271284761450
  0.8890404126255342  0.7778959066784696  0.6250849860821043
  0.7222918324028004  0.2776974357005033  0.6253354154753121
  0.0556617500764236  0.7778282023966621  0.1249740784378704
  0.3888533287920949  0.7778195114796062  0.1249527816191660
  0.2221261821008728  0.2777297577171077  0.1245060411063322
  0.7222918324028004  0.7779277300356328  0.1246645845246878
  0.5555195436841576  0.2775401496348585  0.1236766113903469
  0.8889574923810645  0.2777771157435891  0.1249603006722460
  0.0556042060158255  0.4444810754841757  0.6250039458109415
  0.2222170323423425  0.9443847059189696  0.6250309737011172
  0.5555383580020103  0.9444358456676661  0.6250576156021797
  0.3886105562794235  0.4445385890804163  0.6261175044048842
  0.8889574923810645  0.9445137099708111  0.6250396993277541
  0.0556042060158255  0.9444564638649781  0.1249960541890584
  0.7224321357026278  0.4444803318194304  0.6260624518812752
  0.3888533287920949  0.9443671506458245  0.1249527816191660
  0.2221450395276567  0.4444949850003177  0.1247470970635958
  0.2222170323423425  0.6111656597567087  0.1249690262988830
  0.5557064281547904  0.4445198807440631  0.1229972295255579
  0.7222492672151345  0.9445057682631680  0.1248949966033446
  0.8890404126255342  0.4444778392803929  0.1249150139178959
  0.0556617500764236  0.6111668810130972  0.6250259215621294
  0.2221450395276567  0.1109833878606747  0.6252529029364042
  0.7224321357026278  0.6112851372165332  0.6260624518812752
  0.5555226695563105  0.1109587808475057  0.6252271284761450
  0.8889326972477435  0.1111330152905430  0.6250539838435125
 
  0.00000000E+00  0.00000000E+00  0.00000000E+00
  0.00000000E+00  0.00000000E+00  0.00000000E+00
  0.00000000E+00  0.00000000E+00  0.00000000E+00
  0.00000000E+00  0.00000000E+00  0.00000000E+00
  0.00000000E+00  0.00000000E+00  0.00000000E+00
  0.00000000E+00  0.00000000E+00  0.00000000E+00
  0.00000000E+00  0.00000000E+00  0.00000000E+00
  0.00000000E+00  0.00000000E+00  0.00000000E+00
  0.00000000E+00  0.00000000E+00  0.00000000E+00
  0.00000000E+00  0.00000000E+00  0.00000000E+00
  0.00000000E+00  0.00000000E+00  0.00000000E+00
  0.00000000E+00  0.00000000E+00  0.00000000E+00
  0.00000000E+00  0.00000000E+00  0.00000000E+00
  0.00000000E+00  0.00000000E+00  0.00000000E+00
  0.00000000E+00  0.00000000E+00  0.00000000E+00
  0.00000000E+00  0.00000000E+00  0.00000000E+00
  0.00000000E+00  0.00000000E+00  0.00000000E+00
  0.00000000E+00  0.00000000E+00  0.00000000E+00
  0.00000000E+00  0.00000000E+00  0.00000000E+00
  0.00000000E+00  0.00000000E+00  0.00000000E+00
  0.00000000E+00  0.00000000E+00  0.00000000E+00
  0.00000000E+00  0.00000000E+00  0.00000000E+00
  0.00000000E+00  0.00000000E+00  0.00000000E+00
  0.00000000E+00  0.00000000E+00  0.00000000E+00
  0.00000000E+00  0.00000000E+00  0.00000000E+00
  0.00000000E+00  0.00000000E+00  0.00000000E+00
  0.00000000E+00  0.00000000E+00  0.00000000E+00
  0.00000000E+00  0.00000000E+00  0.00000000E+00
  0.00000000E+00  0.00000000E+00  0.00000000E+00
  0.00000000E+00  0.00000000E+00  0.00000000E+00
  0.00000000E+00  0.00000000E+00  0.00000000E+00
  0.00000000E+00  0.00000000E+00  0.00000000E+00
  0.00000000E+00  0.00000000E+00  0.00000000E+00
  0.00000000E+00  0.00000000E+00  0.00000000E+00
  0.00000000E+00  0.00000000E+00  0.00000000E+00
  0.00000000E+00  0.00000000E+00  0.00000000E+00
  0.00000000E+00  0.00000000E+00  0.00000000E+00
  0.00000000E+00  0.00000000E+00  0.00000000E+00
  0.00000000E+00  0.00000000E+00  0.00000000E+00
  0.00000000E+00  0.00000000E+00  0.00000000E+00
  0.00000000E+00  0.00000000E+00  0.00000000E+00
  0.00000000E+00  0.00000000E+00  0.00000000E+00
  0.00000000E+00  0.00000000E+00  0.00000000E+00
  0.00000000E+00  0.00000000E+00  0.00000000E+00
  0.00000000E+00  0.00000000E+00  0.00000000E+00
  0.00000000E+00  0.00000000E+00  0.00000000E+00
  0.00000000E+00  0.00000000E+00  0.00000000E+00
  0.00000000E+00  0.00000000E+00  0.00000000E+00
  0.00000000E+00  0.00000000E+00  0.00000000E+00
  0.00000000E+00  0.00000000E+00  0.00000000E+00
  0.00000000E+00  0.00000000E+00  0.00000000E+00
  0.00000000E+00  0.00000000E+00  0.00000000E+00
  0.00000000E+00  0.00000000E+00  0.00000000E+00
  0.00000000E+00  0.00000000E+00  0.00000000E+00
  0.00000000E+00  0.00000000E+00  0.00000000E+00
  0.00000000E+00  0.00000000E+00  0.00000000E+00
  0.00000000E+00  0.00000000E+00  0.00000000E+00
  0.00000000E+00  0.00000000E+00  0.00000000E+00
  0.00000000E+00  0.00000000E+00  0.00000000E+00
  0.00000000E+00  0.00000000E+00  0.00000000E+00
  0.00000000E+00  0.00000000E+00  0.00000000E+00
  0.00000000E+00  0.00000000E+00  0.00000000E+00
  0.00000000E+00  0.00000000E+00  0.00000000E+00
  0.00000000E+00  0.00000000E+00  0.00000000E+00
  0.00000000E+00  0.00000000E+00  0.00000000E+00
  0.00000000E+00  0.00000000E+00  0.00000000E+00
  0.00000000E+00  0.00000000E+00  0.00000000E+00
  0.00000000E+00  0.00000000E+00  0.00000000E+00
  0.00000000E+00  0.00000000E+00  0.00000000E+00
  0.00000000E+00  0.00000000E+00  0.00000000E+00
  0.00000000E+00  0.00000000E+00  0.00000000E+00
  0.00000000E+00  0.00000000E+00  0.00000000E+00
  0.00000000E+00  0.00000000E+00  0.00000000E+00
  0.00000000E+00  0.00000000E+00  0.00000000E+00
  0.00000000E+00  0.00000000E+00  0.00000000E+00
  0.00000000E+00  0.00000000E+00  0.00000000E+00
  0.00000000E+00  0.00000000E+00  0.00000000E+00
  0.00000000E+00  0.00000000E+00  0.00000000E+00
  0.00000000E+00  0.00000000E+00  0.00000000E+00
  0.00000000E+00  0.00000000E+00  0.00000000E+00
  0.00000000E+00  0.00000000E+00  0.00000000E+00
  0.00000000E+00  0.00000000E+00  0.00000000E+00
  0.00000000E+00  0.00000000E+00  0.00000000E+00
  0.00000000E+00  0.00000000E+00  0.00000000E+00
  0.00000000E+00  0.00000000E+00  0.00000000E+00
  0.00000000E+00  0.00000000E+00  0.00000000E+00
  0.00000000E+00  0.00000000E+00  0.00000000E+00
  0.00000000E+00  0.00000000E+00  0.00000000E+00
  0.00000000E+00  0.00000000E+00  0.00000000E+00
  0.00000000E+00  0.00000000E+00  0.00000000E+00
  0.00000000E+00  0.00000000E+00  0.00000000E+00
  0.00000000E+00  0.00000000E+00  0.00000000E+00
  0.00000000E+00  0.00000000E+00  0.00000000E+00
  0.00000000E+00  0.00000000E+00  0.00000000E+00
  0.00000000E+00  0.00000000E+00  0.00000000E+00
  0.00000000E+00  0.00000000E+00  0.00000000E+00
  0.00000000E+00  0.00000000E+00  0.00000000E+00
  0.00000000E+00  0.00000000E+00  0.00000000E+00
  0.00000000E+00  0.00000000E+00  0.00000000E+00
  0.00000000E+00  0.00000000E+00  0.00000000E+00
  0.00000000E+00  0.00000000E+00  0.00000000E+00
  0.00000000E+00  0.00000000E+00  0.00000000E+00
  0.00000000E+00  0.00000000E+00  0.00000000E+00
  0.00000000E+00  0.00000000E+00  0.00000000E+00
  0.00000000E+00  0.00000000E+00  0.00000000E+00
  0.00000000E+00  0.00000000E+00  0.00000000E+00
  0.00000000E+00  0.00000000E+00  0.00000000E+00
  0.00000000E+00  0.00000000E+00  0.00000000E+00
  0.00000000E+00  0.00000000E+00  0.00000000E+00
  0.00000000E+00  0.00000000E+00  0.00000000E+00
  0.00000000E+00  0.00000000E+00  0.00000000E+00
  0.00000000E+00  0.00000000E+00  0.00000000E+00
  0.00000000E+00  0.00000000E+00  0.00000000E+00
  0.00000000E+00  0.00000000E+00  0.00000000E+00
  0.00000000E+00  0.00000000E+00  0.00000000E+00
  0.00000000E+00  0.00000000E+00  0.00000000E+00
  0.00000000E+00  0.00000000E+00  0.00000000E+00
  0.00000000E+00  0.00000000E+00  0.00000000E+00
  0.00000000E+00  0.00000000E+00  0.00000000E+00
  0.00000000E+00  0.00000000E+00  0.00000000E+00
  0.00000000E+00  0.00000000E+00  0.00000000E+00
  0.00000000E+00  0.00000000E+00  0.00000000E+00
  0.00000000E+00  0.00000000E+00  0.00000000E+00
  0.00000000E+00  0.00000000E+00  0.00000000E+00
  0.00000000E+00  0.00000000E+00  0.00000000E+00
  0.00000000E+00  0.00000000E+00  0.00000000E+00
  0.00000000E+00  0.00000000E+00  0.00000000E+00
  0.00000000E+00  0.00000000E+00  0.00000000E+00
  0.00000000E+00  0.00000000E+00  0.00000000E+00
  0.00000000E+00  0.00000000E+00  0.00000000E+00
  0.00000000E+00  0.00000000E+00  0.00000000E+00
  0.00000000E+00  0.00000000E+00  0.00000000E+00
  0.00000000E+00  0.00000000E+00  0.00000000E+00
  0.00000000E+00  0.00000000E+00  0.00000000E+00
  0.00000000E+00  0.00000000E+00  0.00000000E+00
  0.00000000E+00  0.00000000E+00  0.00000000E+00
  0.00000000E+00  0.00000000E+00  0.00000000E+00
  0.00000000E+00  0.00000000E+00  0.00000000E+00
  0.00000000E+00  0.00000000E+00  0.00000000E+00
  0.00000000E+00  0.00000000E+00  0.00000000E+00
  0.00000000E+00  0.00000000E+00  0.00000000E+00
  0.00000000E+00  0.00000000E+00  0.00000000E+00
  0.00000000E+00  0.00000000E+00  0.00000000E+00
  0.00000000E+00  0.00000000E+00  0.00000000E+00
  0.00000000E+00  0.00000000E+00  0.00000000E+00
  0.00000000E+00  0.00000000E+00  0.00000000E+00
  0.00000000E+00  0.00000000E+00  0.00000000E+00
  0.00000000E+00  0.00000000E+00  0.00000000E+00
  0.00000000E+00  0.00000000E+00  0.00000000E+00
  0.00000000E+00  0.00000000E+00  0.00000000E+00
  0.00000000E+00  0.00000000E+00  0.00000000E+00
  0.00000000E+00  0.00000000E+00  0.00000000E+00
  0.00000000E+00  0.00000000E+00  0.00000000E+00
  0.00000000E+00  0.00000000E+00  0.00000000E+00
  0.00000000E+00  0.00000000E+00  0.00000000E+00
  0.00000000E+00  0.00000000E+00  0.00000000E+00
  0.00000000E+00  0.00000000E+00  0.00000000E+00
  0.00000000E+00  0.00000000E+00  0.00000000E+00
  0.00000000E+00  0.00000000E+00  0.00000000E+00
  0.00000000E+00  0.00000000E+00  0.00000000E+00
  0.00000000E+00  0.00000000E+00  0.00000000E+00
  0.00000000E+00  0.00000000E+00  0.00000000E+00
  0.00000000E+00  0.00000000E+00  0.00000000E+00
  0.00000000E+00  0.00000000E+00  0.00000000E+00
  0.00000000E+00  0.00000000E+00  0.00000000E+00
  0.00000000E+00  0.00000000E+00  0.00000000E+00
  0.00000000E+00  0.00000000E+00  0.00000000E+00
  0.00000000E+00  0.00000000E+00  0.00000000E+00
  0.00000000E+00  0.00000000E+00  0.00000000E+00
  0.00000000E+00  0.00000000E+00  0.00000000E+00
  0.00000000E+00  0.00000000E+00  0.00000000E+00
  0.00000000E+00  0.00000000E+00  0.00000000E+00
  0.00000000E+00  0.00000000E+00  0.00000000E+00
  0.00000000E+00  0.00000000E+00  0.00000000E+00
  0.00000000E+00  0.00000000E+00  0.00000000E+00
  0.00000000E+00  0.00000000E+00  0.00000000E+00
  0.00000000E+00  0.00000000E+00  0.00000000E+00
  0.00000000E+00  0.00000000E+00  0.00000000E+00
  0.00000000E+00  0.00000000E+00  0.00000000E+00
  0.00000000E+00  0.00000000E+00  0.00000000E+00
  0.00000000E+00  0.00000000E+00  0.00000000E+00
  0.00000000E+00  0.00000000E+00  0.00000000E+00
  0.00000000E+00  0.00000000E+00  0.00000000E+00
  0.00000000E+00  0.00000000E+00  0.00000000E+00
  0.00000000E+00  0.00000000E+00  0.00000000E+00
  0.00000000E+00  0.00000000E+00  0.00000000E+00
  0.00000000E+00  0.00000000E+00  0.00000000E+00
  0.00000000E+00  0.00000000E+00  0.00000000E+00
  0.00000000E+00  0.00000000E+00  0.00000000E+00
  0.00000000E+00  0.00000000E+00  0.00000000E+00
  0.00000000E+00  0.00000000E+00  0.00000000E+00
  0.00000000E+00  0.00000000E+00  0.00000000E+00
  0.00000000E+00  0.00000000E+00  0.00000000E+00
  0.00000000E+00  0.00000000E+00  0.00000000E+00
  0.00000000E+00  0.00000000E+00  0.00000000E+00
  0.00000000E+00  0.00000000E+00  0.00000000E+00
  0.00000000E+00  0.00000000E+00  0.00000000E+00
  0.00000000E+00  0.00000000E+00  0.00000000E+00
  0.00000000E+00  0.00000000E+00  0.00000000E+00
  0.00000000E+00  0.00000000E+00  0.00000000E+00
  0.00000000E+00  0.00000000E+00  0.00000000E+00
  0.00000000E+00  0.00000000E+00  0.00000000E+00
  0.00000000E+00  0.00000000E+00  0.00000000E+00
  0.00000000E+00  0.00000000E+00  0.00000000E+00
  0.00000000E+00  0.00000000E+00  0.00000000E+00
  0.00000000E+00  0.00000000E+00  0.00000000E+00
  0.00000000E+00  0.00000000E+00  0.00000000E+00
  0.00000000E+00  0.00000000E+00  0.00000000E+00
  0.00000000E+00  0.00000000E+00  0.00000000E+00
  0.00000000E+00  0.00000000E+00  0.00000000E+00
  0.00000000E+00  0.00000000E+00  0.00000000E+00
  0.00000000E+00  0.00000000E+00  0.00000000E+00
  0.00000000E+00  0.00000000E+00  0.00000000E+00
  0.00000000E+00  0.00000000E+00  0.00000000E+00
  0.00000000E+00  0.00000000E+00  0.00000000E+00
  0.00000000E+00  0.00000000E+00  0.00000000E+00
  0.00000000E+00  0.00000000E+00  0.00000000E+00
  0.00000000E+00  0.00000000E+00  0.00000000E+00
  0.00000000E+00  0.00000000E+00  0.00000000E+00
  0.00000000E+00  0.00000000E+00  0.00000000E+00
  0.00000000E+00  0.00000000E+00  0.00000000E+00
  0.00000000E+00  0.00000000E+00  0.00000000E+00
  0.00000000E+00  0.00000000E+00  0.00000000E+00
  0.00000000E+00  0.00000000E+00  0.00000000E+00
  0.00000000E+00  0.00000000E+00  0.00000000E+00
  0.00000000E+00  0.00000000E+00  0.00000000E+00
  0.00000000E+00  0.00000000E+00  0.00000000E+00
  0.00000000E+00  0.00000000E+00  0.00000000E+00
  0.00000000E+00  0.00000000E+00  0.00000000E+00
  0.00000000E+00  0.00000000E+00  0.00000000E+00
  0.00000000E+00  0.00000000E+00  0.00000000E+00
  0.00000000E+00  0.00000000E+00  0.00000000E+00
  0.00000000E+00  0.00000000E+00  0.00000000E+00
  0.00000000E+00  0.00000000E+00  0.00000000E+00
  0.00000000E+00  0.00000000E+00  0.00000000E+00
  0.00000000E+00  0.00000000E+00  0.00000000E+00
  0.00000000E+00  0.00000000E+00  0.00000000E+00
  0.00000000E+00  0.00000000E+00  0.00000000E+00
  0.00000000E+00  0.00000000E+00  0.00000000E+00
  0.00000000E+00  0.00000000E+00  0.00000000E+00
  0.00000000E+00  0.00000000E+00  0.00000000E+00
  0.00000000E+00  0.00000000E+00  0.00000000E+00
  0.00000000E+00  0.00000000E+00  0.00000000E+00
  0.00000000E+00  0.00000000E+00  0.00000000E+00
  0.00000000E+00  0.00000000E+00  0.00000000E+00
  0.00000000E+00  0.00000000E+00  0.00000000E+00
  0.00000000E+00  0.00000000E+00  0.00000000E+00
  0.00000000E+00  0.00000000E+00  0.00000000E+00