B N O                                   
   1.0000000000000000     
     8.7639499999999995  -15.1796066749929999    0.0000000000000000
     8.7639499999999995   15.1796066749929999    0.0000000000000000
     0.0000000000000000    0.0000000000000000   15.0000000000000000
   B    N    O 
    48    49     1
Selective dynamics
Direct
  0.9052282925880045  0.9528378967979692  0.1110123332802186   T   T   T
  0.9047042247092181  0.0952977964867785  0.1110199821024006   T   T   T
  0.9045636073711388  0.2379961505310715  0.1110431123427247   T   T   T
  0.9047042247092181  0.3808351219134363  0.1110199821024006   T   T   T
  0.9052282925880045  0.5238208010380372  0.1110123332802186   T   T   T
  0.9049333890213741  0.6667318525156578  0.1110460161101313   T   T   T
  0.9049333890213741  0.8096319417537180  0.1110460161101313   T   T   T
  0.0476502897933212  0.9523517314026821  0.1110167398915401   T   T   T
  0.0471641243980343  0.0947737286079918  0.1110123332802186   T   T   T
  0.0469176570898824  0.2376423901531989  0.1110183217029827   T   T   T
  0.0469176570898824  0.3807056721836834  0.1110183217029827   T   T   T
  0.0471641243980343  0.5238208010380372  0.1110123332802186   T   T   T
  0.0476502897933212  0.6667306751946362  0.1110167398915401   T   T   T
  0.0476655477946314  0.8095488322993180  0.1110051437610776   T   T   T
  0.1904531888966855  0.9523364734013721  0.1110051437610776   T   T   T
  0.1903700794422856  0.0950686321746222  0.1110460161101313   T   T   T
  0.1888575270416692  0.2366146448829871  0.1110338660727258   T   T   T
  0.1889368199198627  0.3801836125834314  0.1110157096770050   T   T   T
  0.1888575270416692  0.5236732874066835  0.1110338660727258   T   T   T
  0.1903700794422856  0.6667318525156578  0.1110460161101313   T   T   T
  0.1904531888966855  0.8095488322993180  0.1110051437610776   T   T   T
  0.3332713460023622  0.9523517314026821  0.1110167398915401   T   T   T
  0.3332701686813406  0.0950686321746222  0.1110460161101313   T   T   T
  0.3333271978156573  0.2380827796813161  0.1110527956378086   T   T   T
  0.3302323901270272  0.3786928184704817  0.1110273644231110   T   T   T
  0.3302323901270272  0.5229699769035459  0.1110273644231110   T   T   T
  0.3333271978156573  0.6666748233813410  0.1110527956378086   T   T   T
  0.3332701686813406  0.8096319417537180  0.1110460161101313   T   T   T
  0.4761812201589610  0.9528378967979692  0.1110123332802186   T   T   T
  0.4761812201589610  0.0947737286079918  0.1110123332802186   T   T   T
  0.4763287337903143  0.2366146448829871  0.1110338660727258   T   T   T
  0.4770320442934527  0.3786928184704817  0.1110273644231110   T   T   T
  0.4770320442934527  0.6697696310699707  0.1110273644231110   T   T   T
  0.4763287337903143  0.8111444941543344  0.1110338660727258   T   T   T
  0.6192963490123199  0.9530843641061212  0.1110183217029827   T   T   T
  0.6191668992825672  0.0952977964867785  0.1110199821024006   T   T   T
  0.6192963490123199  0.2376423901531989  0.1110183217029827   T   T   T
  0.6198184086125724  0.3801836125834314  0.1110157096770050   T   T   T
  0.6213092027255223  0.5229699769035457  0.1110273644231110   T   T   T
  0.6213092027255223  0.6697696310699707  0.1110273644231110   T   T   T
  0.6198184086125724  0.8110652012761406  0.1110157096770050   T   T   T
  0.7623596310428046  0.9530843641061212  0.1110183217029827   T   T   T
  0.7620058706649320  0.0954384138248576  0.1110431123427247   T   T   T
  0.7620058706649320  0.2379961505310715  0.1110431123427247   T   T   T
  0.7623596310428046  0.3807056721836834  0.1110183217029827   T   T   T
  0.7633873763130162  0.5236732874066835  0.1110338660727258   T   T   T
  0.7619192415146872  0.6666748233813410  0.1110527956378086   T   T   T
  0.7633873763130162  0.8111444941543344  0.1110338660727258   T   T   T
  0.9526935163483585  0.9050105844500772  0.1110087567395922   T   T   T
  0.9522994447845899  0.0477019571334157  0.1109892678022805   T   T   T
  0.9518264281938608  0.1902361816707470  0.1110140987250274   T   T   T
  0.9518264281938608  0.3330172286411119  0.1110140987250274   T   T   T
  0.9522994447845899  0.4760244697691726  0.1109892678022805   T   T   T
  0.9526935163483585  0.6191116255732769  0.1110087567395922   T   T   T
  0.9527697862346235  0.7620992399548135  0.1110166088470424   T   T   T
  0.0952775773973887  0.9047238245206094  0.1109898539120727   T   T   T
  0.0949908174679214  0.0473078855696471  0.1110087567395922   T   T   T
  0.0937606601648018  0.1893118613681520  0.1110056106466139   T   T   T
  0.0935966696045647  0.3325126816392828  0.1109975471636104   T   T   T
  0.0937606601648018  0.4758774924706507  0.1110056106466139   T   T   T
  0.0949908174679214  0.6191116255732768  0.1110087567395922   T   T   T
  0.0952775773973887  0.7619841581077845  0.1109898539120727   T   T   T
  0.2380172438102214  0.9047238245206094  0.1109898539120727   T   T   T
  0.2379021619631926  0.0472316156833822  0.1110166088470424   T   T   T
  0.2374182114882398  0.1896428405846012  0.1110331159876514   T   T   T
  0.2343989719522825  0.3303956933535206  0.1109993689717459   T   T   T
  0.2343989719522823  0.4754319722727558  0.1109993689717459   T   T   T
  0.2374182114882398  0.6192040645786342  0.1110331159876514   T   T   T
  0.2379021619631926  0.7620992399548135  0.1110166088470424   T   T   T
  0.3808897763447213  0.9050105844500772  0.1110087567395922   T   T   T
  0.3808897763447213  0.0473078855696471  0.1110087567395922   T   T   T
  0.3807973373393642  0.1896428405846012  0.1110331159876514   T   T   T
  0.3803833642873252  0.3321940203316477  0.1110176053500326   T   T   T
  0.3669304755669873  0.4691795846204909  0.1110306408152036   T   T   T
  0.3803833642873252  0.6196180376306735  0.1110176053500326   T   T   T
  0.3807973373393642  0.7625831904297659  0.1110331159876514   T   T   T
  0.5241239094463460  0.9062407417531971  0.1110056106466139   T   T   T
  0.5239769321478245  0.0477019571334157  0.1109892678022805   T   T   T
  0.5241239094463460  0.1893118613681520  0.1110056106466139   T   T   T
  0.5245694296442411  0.3303956933535205  0.1109993689717459   T   T   T
  0.5308218172965060  0.4691795846204909  0.1110306408152036   T   T   T
  0.5308218172965060  0.6330709263510106  0.1110306408152036   T   T   T
  0.5245694296442411  0.7656024299657233  0.1109993689717459   T   T   T
  0.6674887202777141  0.9064047323134339  0.1109975471636104   T   T   T
  0.6669841732758842  0.0481749737241449  0.1110140987250274   T   T   T
  0.6669841732758842  0.1902361816707470  0.1110140987250274   T   T   T
  0.6674887202777141  0.3325126816392828  0.1109975471636104   T   T   T
  0.6696057085634762  0.4754319722727558  0.1109993689717459   T   T   T
  0.6678073815853492  0.6196180376306735  0.1110176053500326   T   T   T
  0.6696057085634762  0.7656024299657233  0.1109993689717459   T   T   T
  0.8106895405498467  0.9062407417531971  0.1110056106466139   T   T   T
  0.8097652202472516  0.0481749737241449  0.1110140987250274   T   T   T
  0.8095252739059973  0.1904761280120013  0.1110289554101389   T   T   T
  0.8097652202472516  0.3330172286411119  0.1110140987250274   T   T   T
  0.8106895405498467  0.4758774924706507  0.1110056106466139   T   T   T
  0.8103585613333975  0.6192040645786342  0.1110331159876514   T   T   T
  0.8103585613333975  0.7625831904297659  0.1110331159876514   T   T   T
  0.4761912123819982  0.5238108088150000  0.1111529067226518   T   T   T

  0.00000000E+00  0.00000000E+00  0.00000000E+00
  0.00000000E+00  0.00000000E+00  0.00000000E+00
  0.00000000E+00  0.00000000E+00  0.00000000E+00
  0.00000000E+00  0.00000000E+00  0.00000000E+00
  0.00000000E+00  0.00000000E+00  0.00000000E+00
  0.00000000E+00  0.00000000E+00  0.00000000E+00
  0.00000000E+00  0.00000000E+00  0.00000000E+00
  0.00000000E+00  0.00000000E+00  0.00000000E+00
  0.00000000E+00  0.00000000E+00  0.00000000E+00
  0.00000000E+00  0.00000000E+00  0.00000000E+00
  0.00000000E+00  0.00000000E+00  0.00000000E+00
  0.00000000E+00  0.00000000E+00  0.00000000E+00
  0.00000000E+00  0.00000000E+00  0.00000000E+00
  0.00000000E+00  0.00000000E+00  0.00000000E+00
  0.00000000E+00  0.00000000E+00  0.00000000E+00
  0.00000000E+00  0.00000000E+00  0.00000000E+00
  0.00000000E+00  0.00000000E+00  0.00000000E+00
  0.00000000E+00  0.00000000E+00  0.00000000E+00
  0.00000000E+00  0.00000000E+00  0.00000000E+00
  0.00000000E+00  0.00000000E+00  0.00000000E+00
  0.00000000E+00  0.00000000E+00  0.00000000E+00
  0.00000000E+00  0.00000000E+00  0.00000000E+00
  0.00000000E+00  0.00000000E+00  0.00000000E+00
  0.00000000E+00  0.00000000E+00  0.00000000E+00
  0.00000000E+00  0.00000000E+00  0.00000000E+00
  0.00000000E+00  0.00000000E+00  0.00000000E+00
  0.00000000E+00  0.00000000E+00  0.00000000E+00
  0.00000000E+00  0.00000000E+00  0.00000000E+00
  0.00000000E+00  0.00000000E+00  0.00000000E+00
  0.00000000E+00  0.00000000E+00  0.00000000E+00
  0.00000000E+00  0.00000000E+00  0.00000000E+00
  0.00000000E+00  0.00000000E+00  0.00000000E+00
  0.00000000E+00  0.00000000E+00  0.00000000E+00
  0.00000000E+00  0.00000000E+00  0.00000000E+00
  0.00000000E+00  0.00000000E+00  0.00000000E+00
  0.00000000E+00  0.00000000E+00  0.00000000E+00
  0.00000000E+00  0.00000000E+00  0.00000000E+00
  0.00000000E+00  0.00000000E+00  0.00000000E+00
  0.00000000E+00  0.00000000E+00  0.00000000E+00
  0.00000000E+00  0.00000000E+00  0.00000000E+00
  0.00000000E+00  0.00000000E+00  0.00000000E+00
  0.00000000E+00  0.00000000E+00  0.00000000E+00
  0.00000000E+00  0.00000000E+00  0.00000000E+00
  0.00000000E+00  0.00000000E+00  0.00000000E+00
  0.00000000E+00  0.00000000E+00  0.00000000E+00
  0.00000000E+00  0.00000000E+00  0.00000000E+00
  0.00000000E+00  0.00000000E+00  0.00000000E+00
  0.00000000E+00  0.00000000E+00  0.00000000E+00
  0.00000000E+00  0.00000000E+00  0.00000000E+00
  0.00000000E+00  0.00000000E+00  0.00000000E+00
  0.00000000E+00  0.00000000E+00  0.00000000E+00
  0.00000000E+00  0.00000000E+00  0.00000000E+00
  0.00000000E+00  0.00000000E+00  0.00000000E+00
  0.00000000E+00  0.00000000E+00  0.00000000E+00
  0.00000000E+00  0.00000000E+00  0.00000000E+00
  0.00000000E+00  0.00000000E+00  0.00000000E+00
  0.00000000E+00  0.00000000E+00  0.00000000E+00
  0.00000000E+00  0.00000000E+00  0.00000000E+00
  0.00000000E+00  0.00000000E+00  0.00000000E+00
  0.00000000E+00  0.00000000E+00  0.00000000E+00
  0.00000000E+00  0.00000000E+00  0.00000000E+00
  0.00000000E+00  0.00000000E+00  0.00000000E+00
  0.00000000E+00  0.00000000E+00  0.00000000E+00
  0.00000000E+00  0.00000000E+00  0.00000000E+00
  0.00000000E+00  0.00000000E+00  0.00000000E+00
  0.00000000E+00  0.00000000E+00  0.00000000E+00
  0.00000000E+00  0.00000000E+00  0.00000000E+00
  0.00000000E+00  0.00000000E+00  0.00000000E+00
  0.00000000E+00  0.00000000E+00  0.00000000E+00
  0.00000000E+00  0.00000000E+00  0.00000000E+00
  0.00000000E+00  0.00000000E+00  0.00000000E+00
  0.00000000E+00  0.00000000E+00  0.00000000E+00
  0.00000000E+00  0.00000000E+00  0.00000000E+00
  0.00000000E+00  0.00000000E+00  0.00000000E+00
  0.00000000E+00  0.00000000E+00  0.00000000E+00
  0.00000000E+00  0.00000000E+00  0.00000000E+00
  0.00000000E+00  0.00000000E+00  0.00000000E+00
  0.00000000E+00  0.00000000E+00  0.00000000E+00
  0.00000000E+00  0.00000000E+00  0.00000000E+00
  0.00000000E+00  0.00000000E+00  0.00000000E+00
  0.00000000E+00  0.00000000E+00  0.00000000E+00
  0.00000000E+00  0.00000000E+00  0.00000000E+00
  0.00000000E+00  0.00000000E+00  0.00000000E+00
  0.00000000E+00  0.00000000E+00  0.00000000E+00
  0.00000000E+00  0.00000000E+00  0.00000000E+00
  0.00000000E+00  0.00000000E+00  0.00000000E+00
  0.00000000E+00  0.00000000E+00  0.00000000E+00
  0.00000000E+00  0.00000000E+00  0.00000000E+00
  0.00000000E+00  0.00000000E+00  0.00000000E+00
  0.00000000E+00  0.00000000E+00  0.00000000E+00
  0.00000000E+00  0.00000000E+00  0.00000000E+00
  0.00000000E+00  0.00000000E+00  0.00000000E+00
  0.00000000E+00  0.00000000E+00  0.00000000E+00
  0.00000000E+00  0.00000000E+00  0.00000000E+00
  0.00000000E+00  0.00000000E+00  0.00000000E+00
  0.00000000E+00  0.00000000E+00  0.00000000E+00
  0.00000000E+00  0.00000000E+00  0.00000000E+00
  0.00000000E+00  0.00000000E+00  0.00000000E+00
