B C N                                   
   1.0000000000000000     
     8.7639499999999995  -15.1796066749929999    0.0000000000000000
     8.7639499999999995   15.1796066749929999    0.0000000000000000
     0.0000000000000000    0.0000000000000000   15.0000000000000000
   B    C    N 
    47     1    48
Selective dynamics
Direct
  0.9044550710315294  0.9523222165281479  0.1109727708951708   T   T   T
  0.9048263990505490  0.0952730467807755  0.1110440402246225   T   T   T
  0.9049628371691969  0.2380842987887407  0.1110396546711855   T   T   T
  0.9046586066338780  0.3807803772815403  0.1109744747123932   T   T   T
  0.9028642459093273  0.5232648092523289  0.1109868387718545   T   T   T
  0.9033105008125401  0.6660693166394814  0.1110297245616066   T   T   T
  0.9038210607006488  0.8090895794956354  0.1109830674664590   T   T   T
  0.0470348860961735  0.9522420474941486  0.1109563115881104   T   T   T
  0.0477684118585445  0.0955218206143368  0.1109824439572660   T   T   T
  0.0482291156497075  0.2382656689617667  0.1110092875615540   T   T   T
  0.0482356593085513  0.3809252451526735  0.1110183503810160   T   T   T
  0.0475336518626186  0.5235536213257350  0.1109967805684729   T   T   T
  0.0467949270938193  0.6663968079390817  0.1110109498873837   T   T   T
  0.0469222418480208  0.8093999243874916  0.1109712391377391   T   T   T
  0.1902726890010930  0.9527962956561884  0.1109586558488292   T   T   T
  0.1902400877439130  0.0954755741256944  0.1110076405148720   T   T   T
  0.1918730970021467  0.2388483108507570  0.1110361613911191   T   T   T
  0.1919586451026805  0.3807275625997801  0.1110258963436286   T   T   T
  0.1921626118511814  0.5236461940530547  0.1110129467573575   T   T   T
  0.1901589730634637  0.6665889243369638  0.1110437991371953   T   T   T
  0.1900663572376666  0.8096920187759632  0.1109880002070127   T   T   T
  0.3332731995396613  0.9528954715375956  0.1109909030176593   T   T   T
  0.3338539946068230  0.0965655035958640  0.1110053711947492   T   T   T
  0.3350785590974090  0.2408609580267807  0.1110791951150200   T   T   T
  0.3372967958872662  0.3775701090128926  0.1111277107455302   T   T   T
  0.3375864288680292  0.5249559167229653  0.1110930519743085   T   T   T
  0.3331031890473273  0.6669525658243000  0.1110580257843928   T   T   T
  0.3330633520941998  0.8097687242616808  0.1110381580689096   T   T   T
  0.4760458187606696  0.9523731365229183  0.1109955727908757   T   T   T
  0.4763576602841869  0.0954676599288778  0.1109697713350321   T   T   T
  0.4776307096197275  0.2412130318064991  0.1110529286637393   T   T   T
  0.4753570863504842  0.6667578928752363  0.1110792474319123   T   T   T
  0.4759446830036690  0.8095194239095510  0.1110308240261293   T   T   T
  0.6188435207546762  0.9523777621192726  0.1110190350099653   T   T   T
  0.6189639078516751  0.0951495206591671  0.1109866438940983   T   T   T
  0.6185161238252206  0.2378154045958822  0.1110019520356975   T   T   T
  0.6137207687913716  0.3765174115984608  0.1111105701836255   T   T   T
  0.6147869105401714  0.5239965598132633  0.1111876672532666   T   T   T
  0.6185151523767358  0.6670874919334076  0.1111094108194037   T   T   T
  0.6186910927504833  0.8097490795383643  0.1109939427289839   T   T   T
  0.7617186576475804  0.9523524930077490  0.1110128563258458   T   T   T
  0.7618636994555111  0.0951670473343420  0.1110531942464941   T   T   T
  0.7617396164890090  0.2378994805331413  0.1110059639146755   T   T   T
  0.7608390787966114  0.3801283950660630  0.1110032320209613   T   T   T
  0.7576452895046647  0.5228340198346521  0.1110486757049115   T   T   T
  0.7603078687859877  0.6659161909952552  0.1110775037624497   T   T   T
  0.7613396254610220  0.8093688972954581  0.1109981062258065   T   T   T
  0.4822830573677286  0.5266027624892894  0.1112262190210178   T   T   T
  0.9512800793959487  0.9040627067683733  0.1109373549541288   T   T   T
  0.9518968862975153  0.0473121787948029  0.1109785919456317   T   T   T
  0.9524703042414128  0.1904466544417885  0.1110270394594841   T   T   T
  0.9528519170027354  0.3335171480629880  0.1109959754936700   T   T   T
  0.9520095805957264  0.4763303431034813  0.1109592261369663   T   T   T
  0.9512886307145718  0.6188169096451993  0.1109968414333690   T   T   T
  0.9511756480581210  0.7613294245904917  0.1109840747302658   T   T   T
  0.0943019710148705  0.9042089284894684  0.1109340661727601   T   T   T
  0.0940636995575046  0.0468421060059051  0.1109605706515104   T   T   T
  0.0951613792190990  0.1906228902083713  0.1109828684939833   T   T   T
  0.0959427991403153  0.3338470352511588  0.1109919456160943   T   T   T
  0.0963368752315964  0.4765115060016804  0.1109929003974222   T   T   T
  0.0949050282976110  0.6189432035825938  0.1109984529566542   T   T   T
  0.0944760396848447  0.7615414395630878  0.1109716783979486   T   T   T
  0.2375174530284124  0.9043349581344251  0.1109552099586751   T   T   T
  0.2372678476916496  0.0469553179651044  0.1109651913540504   T   T   T
  0.2366935003879354  0.1893028612892504  0.1110347904323315   T   T   T
  0.2390245138675048  0.3348078092599175  0.1110433873444697   T   T   T
  0.2417201125509489  0.4771941185219183  0.1110167699938163   T   T   T
  0.2383798169529936  0.6190808130377602  0.1110305095025901   T   T   T
  0.2377207827660988  0.7616596908505621  0.1110180860051156   T   T   T
  0.3806837565121542  0.9043657998398900  0.1109930379246989   T   T   T
  0.3806785593141628  0.0469244453433928  0.1109608810581419   T   T   T
  0.3804745198134002  0.1895114397593506  0.1110200149092561   T   T   T
  0.3789610558231957  0.3317646654450846  0.1111177534927343   T   T   T
  0.3926565377419745  0.4813147134319715  0.1111721917425866   T   T   T
  0.3815854513216936  0.6195490213358836  0.1110382692693764   T   T   T
  0.3808181129174245  0.7617841415631131  0.1110300079602698   T   T   T
  0.5236381238396636  0.9042194021239635  0.1109954122794433   T   T   T
  0.5238640551300376  0.0467579734583352  0.1109625108586353   T   T   T
  0.5240125301902766  0.1890474722205949  0.1109817254688883   T   T   T
  0.5252933868112089  0.3319042681158211  0.1110915897722193   T   T   T
  0.5221637566960906  0.6170825769398941  0.1111532345947805   T   T   T
  0.5236067356782366  0.7614780647772100  0.1109996433735923   T   T   T
  0.6663445565535178  0.9044209236888594  0.1109916981629790   T   T   T
  0.6666929663741109  0.0471357257749160  0.1110119932016560   T   T   T
  0.6670494543780154  0.1898982262743063  0.1109634085846730   T   T   T
  0.6677813019321408  0.3330189833925038  0.1110256227988930   T   T   T
  0.6609890238715704  0.4763241119230011  0.1111231079813340   T   T   T
  0.6636690077664811  0.6182392150730069  0.1111097481879054   T   T   T
  0.6655935125702608  0.7614509178703327  0.1109959339667119   T   T   T
  0.8088362823037474  0.9042811322332133  0.1109787628741296   T   T   T
  0.8093492434406488  0.0472829434506048  0.1110365353399932   T   T   T
  0.8097613916308314  0.1902527695998022  0.1110235464500028   T   T   T
  0.8099873639021016  0.3333230818058862  0.1109607476585380   T   T   T
  0.8074847609680503  0.4763575573949330  0.1109796029267164   T   T   T
  0.8074694984222097  0.6185835096869458  0.1110331495983572   T   T   T
  0.8080417537832443  0.7611659007866224  0.1109920113572417   T   T   T

  0.00000000E+00  0.00000000E+00  0.00000000E+00
  0.00000000E+00  0.00000000E+00  0.00000000E+00
  0.00000000E+00  0.00000000E+00  0.00000000E+00
  0.00000000E+00  0.00000000E+00  0.00000000E+00
  0.00000000E+00  0.00000000E+00  0.00000000E+00
  0.00000000E+00  0.00000000E+00  0.00000000E+00
  0.00000000E+00  0.00000000E+00  0.00000000E+00
  0.00000000E+00  0.00000000E+00  0.00000000E+00
  0.00000000E+00  0.00000000E+00  0.00000000E+00
  0.00000000E+00  0.00000000E+00  0.00000000E+00
  0.00000000E+00  0.00000000E+00  0.00000000E+00
  0.00000000E+00  0.00000000E+00  0.00000000E+00
  0.00000000E+00  0.00000000E+00  0.00000000E+00
  0.00000000E+00  0.00000000E+00  0.00000000E+00
  0.00000000E+00  0.00000000E+00  0.00000000E+00
  0.00000000E+00  0.00000000E+00  0.00000000E+00
  0.00000000E+00  0.00000000E+00  0.00000000E+00
  0.00000000E+00  0.00000000E+00  0.00000000E+00
  0.00000000E+00  0.00000000E+00  0.00000000E+00
  0.00000000E+00  0.00000000E+00  0.00000000E+00
  0.00000000E+00  0.00000000E+00  0.00000000E+00
  0.00000000E+00  0.00000000E+00  0.00000000E+00
  0.00000000E+00  0.00000000E+00  0.00000000E+00
  0.00000000E+00  0.00000000E+00  0.00000000E+00
  0.00000000E+00  0.00000000E+00  0.00000000E+00
  0.00000000E+00  0.00000000E+00  0.00000000E+00
  0.00000000E+00  0.00000000E+00  0.00000000E+00
  0.00000000E+00  0.00000000E+00  0.00000000E+00
  0.00000000E+00  0.00000000E+00  0.00000000E+00
  0.00000000E+00  0.00000000E+00  0.00000000E+00
  0.00000000E+00  0.00000000E+00  0.00000000E+00
  0.00000000E+00  0.00000000E+00  0.00000000E+00
  0.00000000E+00  0.00000000E+00  0.00000000E+00
  0.00000000E+00  0.00000000E+00  0.00000000E+00
  0.00000000E+00  0.00000000E+00  0.00000000E+00
  0.00000000E+00  0.00000000E+00  0.00000000E+00
  0.00000000E+00  0.00000000E+00  0.00000000E+00
  0.00000000E+00  0.00000000E+00  0.00000000E+00
  0.00000000E+00  0.00000000E+00  0.00000000E+00
  0.00000000E+00  0.00000000E+00  0.00000000E+00
  0.00000000E+00  0.00000000E+00  0.00000000E+00
  0.00000000E+00  0.00000000E+00  0.00000000E+00
  0.00000000E+00  0.00000000E+00  0.00000000E+00
  0.00000000E+00  0.00000000E+00  0.00000000E+00
  0.00000000E+00  0.00000000E+00  0.00000000E+00
  0.00000000E+00  0.00000000E+00  0.00000000E+00
  0.00000000E+00  0.00000000E+00  0.00000000E+00
  0.00000000E+00  0.00000000E+00  0.00000000E+00
  0.00000000E+00  0.00000000E+00  0.00000000E+00
  0.00000000E+00  0.00000000E+00  0.00000000E+00
  0.00000000E+00  0.00000000E+00  0.00000000E+00
  0.00000000E+00  0.00000000E+00  0.00000000E+00
  0.00000000E+00  0.00000000E+00  0.00000000E+00
  0.00000000E+00  0.00000000E+00  0.00000000E+00
  0.00000000E+00  0.00000000E+00  0.00000000E+00
  0.00000000E+00  0.00000000E+00  0.00000000E+00
  0.00000000E+00  0.00000000E+00  0.00000000E+00
  0.00000000E+00  0.00000000E+00  0.00000000E+00
  0.00000000E+00  0.00000000E+00  0.00000000E+00
  0.00000000E+00  0.00000000E+00  0.00000000E+00
  0.00000000E+00  0.00000000E+00  0.00000000E+00
  0.00000000E+00  0.00000000E+00  0.00000000E+00
  0.00000000E+00  0.00000000E+00  0.00000000E+00
  0.00000000E+00  0.00000000E+00  0.00000000E+00
  0.00000000E+00  0.00000000E+00  0.00000000E+00
  0.00000000E+00  0.00000000E+00  0.00000000E+00
  0.00000000E+00  0.00000000E+00  0.00000000E+00
  0.00000000E+00  0.00000000E+00  0.00000000E+00
  0.00000000E+00  0.00000000E+00  0.00000000E+00
  0.00000000E+00  0.00000000E+00  0.00000000E+00
  0.00000000E+00  0.00000000E+00  0.00000000E+00
  0.00000000E+00  0.00000000E+00  0.00000000E+00
  0.00000000E+00  0.00000000E+00  0.00000000E+00
  0.00000000E+00  0.00000000E+00  0.00000000E+00
  0.00000000E+00  0.00000000E+00  0.00000000E+00
  0.00000000E+00  0.00000000E+00  0.00000000E+00
  0.00000000E+00  0.00000000E+00  0.00000000E+00
  0.00000000E+00  0.00000000E+00  0.00000000E+00
  0.00000000E+00  0.00000000E+00  0.00000000E+00
  0.00000000E+00  0.00000000E+00  0.00000000E+00
  0.00000000E+00  0.00000000E+00  0.00000000E+00
  0.00000000E+00  0.00000000E+00  0.00000000E+00
  0.00000000E+00  0.00000000E+00  0.00000000E+00
  0.00000000E+00  0.00000000E+00  0.00000000E+00
  0.00000000E+00  0.00000000E+00  0.00000000E+00
  0.00000000E+00  0.00000000E+00  0.00000000E+00
  0.00000000E+00  0.00000000E+00  0.00000000E+00
  0.00000000E+00  0.00000000E+00  0.00000000E+00
  0.00000000E+00  0.00000000E+00  0.00000000E+00
  0.00000000E+00  0.00000000E+00  0.00000000E+00
  0.00000000E+00  0.00000000E+00  0.00000000E+00
  0.00000000E+00  0.00000000E+00  0.00000000E+00
  0.00000000E+00  0.00000000E+00  0.00000000E+00
  0.00000000E+00  0.00000000E+00  0.00000000E+00
  0.00000000E+00  0.00000000E+00  0.00000000E+00
  0.00000000E+00  0.00000000E+00  0.00000000E+00
