Species order: X N B                    
   2.51242800000000     
     5.9449720136058266    0.0000000000000000    0.0000000000000000
    -2.9724860068029120    5.1484967885702053   -0.0000000000000001
     0.0000000000000000    0.0000000000000009    5.3101128803662583
   S    N    B 
     1   143   143
Direct
  0.4903289984321384  0.4118311658827334  0.3750000000000000
  0.1111066650605150  0.0555371007784239  0.1252011438764943
  0.6110493489911017  0.5555145824046502  0.1254355277808352
  0.4444380133355473  0.0555371085328657  0.1251808387517198
  0.9444309284333893  0.5555582450758348  0.1251729384962763
  0.7777829185255607  0.0555581259294487  0.1251005676754709
  0.1111031379848957  0.7222182356591125  0.6248865660812231
  0.4444380133355473  0.7222342381360176  0.6248191612482800
  0.2777511560313178  0.2222040120993365  0.6248808617253148
  0.7777450570204800  0.7221856747996378  0.6246642359787157
  0.6110882993143303  0.2222083711202699  0.6247284954046067
  0.9444476439685263  0.2222339464502492  0.6248730950498623
  0.2777732214123172  0.7222283342850563  0.1251215788227613
  0.1111012233447471  0.2222172783390377  0.1251839950216978
  0.4444289295017039  0.2221957782696602  0.1251137946633262
  0.6110882993143303  0.7222132615273883  0.1252715045953935
  0.9444309284333893  0.7222060166908885  0.1251729384962763
  0.7777728921275752  0.2222313162344625  0.1251430627504631
  0.1111032683187989  0.8888704124171274  0.6248824361944397
  0.4444425201377364  0.8888879267355334  0.6248753732368213
  0.2777511560313178  0.3888804772653098  0.6248808617253148
  0.6110493489911017  0.3888680999197805  0.6245644722191649
  0.7777728921275752  0.8888749092264412  0.6248569372495357
  0.9444369664965507  0.3889058512657769  0.6248514753692704
  0.1111066650605150  0.3889028976154196  0.1252011438764943
  0.2777732214123172  0.8888782204605885  0.1251215788227613
  0.6111084136292109  0.8888919011274223  0.1251118164400608
  0.4443387072462707  0.3888360202897994  0.1238463116597776
  0.9444369664965507  0.8888644485641030  0.1251485246307300
  0.7777450570204800  0.3888927155541702  0.1253357640212838
  0.2777687014037031  0.5555676507063934  0.6248316285840010
  0.1111066650605150  0.0555371007784239  0.6247988561235059
  0.6110493489911017  0.5555145824046502  0.6245644722191649
  0.4444380133355473  0.0555371085328657  0.6248191612482800
  0.9444309284333893  0.5555582450758348  0.6248270615037244
  0.1111032683187989  0.5555661892350008  0.1251175638055600
  0.7777829185255607  0.0555581259294487  0.6248994323245292
  0.2777687014037031  0.0555343840306449  0.1251683714159994
  0.4444289295017039  0.5555664845653798  0.1251137946633262
  0.7777419417156718  0.5555376375245042  0.1254221550461120
  0.6111084136292109  0.0555498458351179  0.1251118164400608
  0.4444289295017039  0.5555664845653798  0.6248862053366742
  0.9444476439685263  0.0555470308516129  0.1251269049501376
  0.2777732214123172  0.7222283342850563  0.6248784211772394
  0.1111012233447471  0.2222172783390377  0.6248160049783019
  0.4444289295017039  0.2221957782696602  0.6248862053366742
  0.6110882993143303  0.7222132615273883  0.6247284954046067
  0.9444309284333893  0.7222060166908885  0.6248270615037244
  0.7777728921275752  0.2222313162344625  0.6248569372495357
  0.1111031379848957  0.7222182356591125  0.1251134339187775
  0.4444380133355473  0.7222342381360176  0.1251808387517198
  0.2777511560313178  0.2222040120993365  0.1251191382746853
  0.7777450570204800  0.7221856747996378  0.1253357640212838
  0.6110882993143303  0.2222083711202699  0.1252715045953935
  0.9444476439685263  0.2222339464502492  0.1251269049501376
  0.1111066650605150  0.3889028976154196  0.6247988561235059
  0.2777732214123172  0.8888782204605885  0.6248784211772394
  0.6111084136292109  0.8888919011274223  0.6248881835599389
  0.4443387072462707  0.3888360202897994  0.6261536883402222
  0.9444369664965507  0.8888644485641030  0.6248514753692704
  0.1111032683187989  0.8888704124171274  0.1251175638055600
  0.7777450570204800  0.3888927155541702  0.6246642359787157
  0.4444425201377364  0.8888879267355334  0.1251246267631790
  0.2777511560313178  0.3888804772653098  0.1251191382746853
  0.2777687014037031  0.5555676507063934  0.1251683714159994
  0.6110493489911017  0.3888680999197805  0.1254355277808352
  0.7777728921275752  0.8888749092264412  0.1251430627504631
  0.9444369664965507  0.3889058512657769  0.1251485246307300
  0.1111032683187989  0.5555661892350008  0.6248824361944397
  0.2777687014037031  0.0555343840306449  0.6248316285840010
  0.7777419417156718  0.5555376375245042  0.6245778449538879
  0.6111084136292109  0.0555498458351179  0.6248881835599389
  0.9444476439685263  0.0555470308516129  0.6248730950498623
  0.0590467443648823  0.1131403784632453  0.3750000000000000
  0.5552498578265874  0.6168765956527487  0.3750000000000000
  0.3889379628946555  0.1084916468174828  0.3750000000000000
  0.8855661313176419  0.6094497323254919  0.3750000000000000
  0.7241786783575774  0.1115574621968878  0.3750000000000000
  0.0555414211124113  0.7777729559764892  0.8750000000000000
  0.3888814471450426  0.7777721884555888  0.8750000000000000
  0.2222105540158107  0.2777719436745730  0.8750000000000000
  0.7222137325492153  0.7777722310004257  0.8750000000000000
  0.5555458718599131  0.2777775166494317  0.8750000000000000
  0.8888829058565523  0.2777741653499228  0.8750000000000000
  0.2212267724149709  0.7772800528741538  0.3750000000000000
  0.0590467443648823  0.2792396992349728  0.3750000000000000
  0.3969473326411397  0.2793033400477345  0.3750000000000000
  0.5562827746747409  0.7806359305440526  0.3750000000000000
  0.8877762710773706  0.7772794340315140  0.3750000000000000
  0.7232272672534280  0.2769756060512636  0.3750000000000000
  0.0555436349011173  0.9444418108435065  0.8750000000000000
  0.3888814471450426  0.9444425920227892  0.8750000000000000
  0.2222094983872155  0.4444339308086937  0.8750000000000000
  0.5555480579853567  0.4444406956593426  0.8750000000000000
  0.7222142719934170  0.9444398083802019  0.8750000000000000
  0.8888788066994162  0.4444373839955671  0.8750000000000000
  0.0569248872083405  0.4447218119974445  0.3750000000000000
  0.2218575956622570  0.9438244198212052  0.3750000000000000
  0.5564211215162255  0.9448772274247770  0.3750000000000000
  0.3969473326411397  0.4509773259267412  0.3750000000000000
  0.8909786370957524  0.9459673676186044  0.3750000000000000
  0.7173758802036010  0.4424282260381757  0.3750000000000000
  0.2222091640832440  0.6111008338367658  0.8750000000000000
  0.0555457598916652  0.1111071440037062  0.8750000000000000
  0.5555458718599131  0.6111016885438171  0.8750000000000000
  0.3888789179554718  0.1111106758030591  0.8750000000000000
  0.8888760355941626  0.6111046844637528  0.8750000000000000
  0.0540502934610871  0.6104397595203962  0.3750000000000000
  0.7222142719934170  0.1111077969465515  0.8750000000000000
  0.2265627832237280  0.1140198389823449  0.3750000000000000
  0.3889379628946555  0.6137796494105155  0.3750000000000000
  0.7173758802036010  0.6082809874987617  0.3750000000000000
  0.5562827746747409  0.1089801774640241  0.3750000000000000
  0.3888789179554718  0.6111015754857547  0.8750000000000000
  0.8917405867378754  0.1125369600356093  0.3750000000000000
  0.2222099956131252  0.7777716644732311  0.8750000000000000
  0.0555457598916652  0.2777719492212944  0.8750000000000000
  0.3888771381440883  0.2777720076165395  0.8750000000000000
  0.5555473038380560  0.7777710356065787  0.8750000000000000
  0.8888788066994162  0.7777747560371846  0.8750000000000000
  0.7222137325492153  0.2777748348821253  0.8750000000000000
  0.0540502934610871  0.7769438672740269  0.3750000000000000
  0.3887027330373620  0.7785307318400618  0.3750000000000000
  0.2274876145462246  0.2804104739397804  0.3750000000000000
  0.7232272672534280  0.7795849945355006  0.3750000000000000
  0.5552498578265874  0.2717065955071745  0.3750000000000000
  0.8909786370957524  0.2783446028104840  0.3750000000000000
  0.0555436349011173  0.4444351573909394  0.8750000000000000
  0.2222091640832440  0.9444416635798145  0.8750000000000000
  0.5555467635272676  0.9444400484302981  0.8750000000000000
  0.3888771381440883  0.4444384638608843  0.8750000000000000
  0.8888829058565523  0.9444420738399649  0.8750000000000000
  0.0569248872083405  0.9455364085442246  0.3750000000000000
  0.7222097379414482  0.4444389053937873  0.8750000000000000
  0.3887027330373620  0.9435053345306370  0.3750000000000000
  0.2265627832237280  0.4458762775747186  0.3750000000000000
  0.2218575956622570  0.6113665091743877  0.3750000000000000
  0.7241786783575774  0.9459545494940264  0.3750000000000000
  0.8877762710773706  0.4438301703791916  0.3750000000000000
  0.0555414211124113  0.6111017984692573  0.8750000000000000
  0.2222094983872155  0.1111089009118575  0.8750000000000000
  0.7222097379414482  0.6111041658809954  0.8750000000000000
  0.5555473038380560  0.1111096015648116  0.8750000000000000
  0.8888823594765768  0.1111078464049600  0.8750000000000000
  0.1142256178922417  0.0574684506173834  0.3750000000000000
  0.6092278955271887  0.5646759321653346  0.3750000000000000
  0.4449326974474621  0.0536063653658902  0.3750000000000000
  0.9429616735563588  0.5549169219706783  0.3750000000000000
  0.7805207652322245  0.0569270492827801  0.3750000000000000
  0.1111074075618802  0.7222203704476050  0.8750000000000000
  0.4444287272731549  0.7222276461192363  0.8750000000000000
  0.2777399157402732  0.2221995335792481  0.8750000000000000
  0.7777906692121779  0.7222491714611607  0.8750000000000000
  0.6111081390610217  0.2221972929075146  0.8750000000000000
  0.9444341595499044  0.2222095949616854  0.8750000000000000
  0.2773352300580783  0.7224442607034246  0.3750000000000000
  0.1151520578065507  0.2242426955699398  0.3750000000000000
  0.4448606806246074  0.2176148591461191  0.3750000000000000
  0.6130515486148792  0.7281344875912847  0.3750000000000000
  0.9429616735563588  0.7213780849190176  0.3750000000000000
  0.7801340248552350  0.2222527864890933  0.3750000000000000
  0.1111006246873094  0.8888873228115177  0.8750000000000000
  0.4444343530827611  0.8888838432080449  0.8750000000000000
  0.2777399157402732  0.3888737154943533  0.8750000000000000
  0.6111030905543651  0.3888764307104889  0.8750000000000000
  0.7777840770469650  0.8889125568213621  0.8750000000000000
  0.9444462183592160  0.3888748278283520  0.8750000000000000
  0.1142256178922417  0.3900905006081874  0.3750000000000000
  0.2773352300580783  0.8882243026879815  0.3750000000000000
  0.6129817957289386  0.8912435491075557  0.3750000000000000
  0.9454753815398015  0.8896787473748317  0.3750000000000000
  0.7769711790038478  0.3874613888639316  0.3750000000000000
  0.2777504513843978  0.5555486967379137  0.8750000000000000
  0.1110867851843561  0.0555453915872191  0.8750000000000000
  0.6111030905543651  0.5555599931772057  0.8750000000000000
  0.4444287272731549  0.0555344144872539  0.8750000000000000
  0.9444548116527197  0.5555526255424250  0.8750000000000000
  0.1107573830809234  0.5556773556508622  0.3750000000000000
  0.7777779194449256  0.0555556263891307  0.8750000000000000
  0.2781390074399844  0.0546276925705723  0.3750000000000000
  0.4448606806246074  0.5605791548118235  0.3750000000000000
  0.7748067272726369  0.5540700303029862  0.3750000000000000
  0.6129817957289386  0.0550715799547119  0.3750000000000000
  0.4444141608249654  0.5555532107200999  0.8750000000000000
  0.9475410790742587  0.0573559065834600  0.3750000000000000
  0.2777631445546579  0.7222178930281721  0.8750000000000000
  0.1110805869111571  0.2222069601222428  0.8750000000000000
  0.4444141608249654  0.2221942834382019  0.8750000000000000
  0.6111081390610217  0.7222441794868358  0.8750000000000000
  0.9444548116527197  0.7222355194436316  0.8750000000000000
  0.7777840770469650  0.2222048535589312  0.8750000000000000
  0.1099887594020359  0.7216610463676824  0.3750000000000000
  0.4449326974474621  0.7246596654149070  0.3750000000000000
  0.2835090517480757  0.2261238736700954  0.3750000000000000
  0.7769711790038478  0.7228431234732448  0.3750000000000000
  0.6130515486148792  0.2182503943569236  0.3750000000000000
  0.9475410790742587  0.2235185058241347  0.3750000000000000
  0.1110867851843561  0.3888747269304652  0.8750000000000000
  0.2777631445546579  0.8888785848598160  0.8750000000000000
  0.6111094094738514  0.8888997994231763  0.8750000000000000
  0.4444114650042489  0.3888723991687885  0.8750000000000000
  0.9444462183592160  0.8889047238641927  0.8750000000000000
  0.1107573830809234  0.8884133607633887  0.3750000000000000
  0.7777906692121779  0.3888748310843451  0.8750000000000000
  0.4449808359887721  0.8891570846610504  0.3750000000000000
  0.2835090517480757  0.3907185114113094  0.3750000000000000
  0.2781390074399844  0.5568446482027474  0.3750000000000000
  0.6092278955271887  0.3778852966951836  0.3750000000000000
  0.7801340248552350  0.8912145716994695  0.3750000000000000
  0.9454753815398015  0.3891299674982994  0.3750000000000000
  0.1111006246873094  0.5555466352091203  0.8750000000000000
  0.2777504513843978  0.0555350879798197  0.8750000000000000
  0.7777922564840903  0.5555627949087129  0.8750000000000000
  0.6111094094738514  0.0555429433840034  0.8750000000000000
  0.9444341595499044  0.0555578979215546  0.8750000000000000
  0.0555418567481236  0.1110898912498109  0.1249340335989190
  0.5554727780547395  0.6111674023234389  0.1246359471559871
  0.3888156950628998  0.1109861801681501  0.1248399909113305
  0.8889915018859101  0.6111624176096256  0.1248797747297636
  0.7222244639271533  0.1110818870019901  0.1248646096823979
  0.0556115681490352  0.7777956572728345  0.6251039222061968
  0.3888451713804923  0.7777988764608309  0.6250934224272680
  0.2221503436846308  0.2777418385089833  0.6252019982388297
  0.7222431475516795  0.7778533393304130  0.6251550828965388
  0.5554727780547395  0.2776387090646362  0.6253640528440138
  0.8889200163109776  0.2777840744632984  0.6251106872496374
  0.2222216152240022  0.7777774742786692  0.1249130898906934
  0.0555418567481236  0.2777852988316487  0.1249340335989190
  0.3887814565342200  0.2777025502268569  0.1242617421150089
  0.5555113278014639  0.7778447548247536  0.1248472878368620
  0.8889625214715740  0.7778254205306089  0.1248908112611490
  0.7222431475516795  0.2777231415546023  0.1248449171034615
  0.0555740161408165  0.9444279185452900  0.6250737227891338
  0.3888451713804923  0.9443796282529971  0.6250934224272680
  0.2221681929287011  0.4444675438145386  0.6250817059083007
  0.5553764357573250  0.4443548845453268  0.6256835546157327
  0.7222244639271533  0.9444759102584986  0.6251353903176020
  0.8889625214715740  0.4444704342743008  0.6251091887388510
  0.0555740161408165  0.4444794309288544  0.1249262772108665
  0.2222032989169251  0.9443888705829290  0.1249115873889665
  0.5555246478486040  0.9444289905909653  0.1248719365104640
  0.3887814565342200  0.4444122396406990  0.1242617421150089
  0.8889200163109776  0.9444692751810146  0.1248893127503625
  0.7222525571921645  0.4444346910976771  0.1248160717977601
  0.2222032989169251  0.6111477616673312  0.6250884126110333
  0.0555418567481236  0.1110898912498109  0.6250659664010815
  0.5554727780547395  0.6111674023234389  0.6253640528440138
  0.3888156950628998  0.1109861801681501  0.6251600090886692
  0.8889915018859101  0.6111624176096256  0.6251202252702371
  0.0556115681490352  0.6111492442095358  0.1248960777938029
  0.7222244639271533  0.1110818870019901  0.6251353903176020
  0.2221681929287011  0.1110339824474982  0.1249182940916984
  0.3888156950628998  0.6111628482280934  0.1248399909113305
  0.7222525571921645  0.6111511994278225  0.1248160717977601
  0.5555113278014639  0.1109999063100463  0.1248472878368620
  0.3888156950628998  0.6111628482280934  0.6251600090886692
  0.8889006332140359  0.1111169832736889  0.1248971762497478
  0.2222216152240022  0.7777774742786692  0.6250869101093059
  0.0555418567481236  0.2777852988316487  0.6250659664010815
  0.3887814565342200  0.2777025502268569  0.6257382578849914
  0.5555113278014639  0.7778447548247536  0.6251527121631378
  0.8889625214715740  0.7778254205306089  0.6251091887388510
  0.7222431475516795  0.2777231415546023  0.6251550828965388
  0.0556115681490352  0.7777956572728345  0.1248960777938029
  0.3888451713804923  0.7777988764608309  0.1249065775727320
  0.2221503436846308  0.2777418385089833  0.1247980017611701
  0.7222431475516795  0.7778533393304130  0.1248449171034615
  0.5554727780547395  0.2776387090646362  0.1246359471559871
  0.8889200163109776  0.2777840744632984  0.1248893127503625
  0.0555740161408165  0.4444794309288544  0.6250737227891338
  0.2222032989169251  0.9443888705829290  0.6250884126110333
  0.5555246478486040  0.9444289905909653  0.6251280634895358
  0.3887814565342200  0.4444122396406990  0.6257382578849914
  0.8889200163109776  0.9444692751810146  0.6251106872496374
  0.0555740161408165  0.9444279185452900  0.1249262772108665
  0.7222525571921645  0.4444346910976771  0.6251839282022400
  0.3888451713804923  0.9443796282529971  0.1249065775727320
  0.2221681929287011  0.4444675438145386  0.1249182940916984
  0.2222032989169251  0.6111477616673312  0.1249115873889665
  0.5553764357573250  0.4443548845453268  0.1243164453842674
  0.7222244639271533  0.9444759102584986  0.1248646096823979
  0.8889625214715740  0.4444704342743008  0.1248908112611490
  0.0556115681490352  0.6111492442095358  0.6251039222061968
  0.2221681929287011  0.1110339824474982  0.6250817059083007
  0.7222525571921645  0.6111511994278225  0.6251839282022400
  0.5555113278014639  0.1109999063100463  0.6251527121631378
  0.8889006332140359  0.1111169832736889  0.6251028237502515
 
  0.00000000E+00  0.00000000E+00  0.00000000E+00
  0.00000000E+00  0.00000000E+00  0.00000000E+00
  0.00000000E+00  0.00000000E+00  0.00000000E+00
  0.00000000E+00  0.00000000E+00  0.00000000E+00
  0.00000000E+00  0.00000000E+00  0.00000000E+00
  0.00000000E+00  0.00000000E+00  0.00000000E+00
  0.00000000E+00  0.00000000E+00  0.00000000E+00
  0.00000000E+00  0.00000000E+00  0.00000000E+00
  0.00000000E+00  0.00000000E+00  0.00000000E+00
  0.00000000E+00  0.00000000E+00  0.00000000E+00
  0.00000000E+00  0.00000000E+00  0.00000000E+00
  0.00000000E+00  0.00000000E+00  0.00000000E+00
  0.00000000E+00  0.00000000E+00  0.00000000E+00
  0.00000000E+00  0.00000000E+00  0.00000000E+00
  0.00000000E+00  0.00000000E+00  0.00000000E+00
  0.00000000E+00  0.00000000E+00  0.00000000E+00
  0.00000000E+00  0.00000000E+00  0.00000000E+00
  0.00000000E+00  0.00000000E+00  0.00000000E+00
  0.00000000E+00  0.00000000E+00  0.00000000E+00
  0.00000000E+00  0.00000000E+00  0.00000000E+00
  0.00000000E+00  0.00000000E+00  0.00000000E+00
  0.00000000E+00  0.00000000E+00  0.00000000E+00
  0.00000000E+00  0.00000000E+00  0.00000000E+00
  0.00000000E+00  0.00000000E+00  0.00000000E+00
  0.00000000E+00  0.00000000E+00  0.00000000E+00
  0.00000000E+00  0.00000000E+00  0.00000000E+00
  0.00000000E+00  0.00000000E+00  0.00000000E+00
  0.00000000E+00  0.00000000E+00  0.00000000E+00
  0.00000000E+00  0.00000000E+00  0.00000000E+00
  0.00000000E+00  0.00000000E+00  0.00000000E+00
  0.00000000E+00  0.00000000E+00  0.00000000E+00
  0.00000000E+00  0.00000000E+00  0.00000000E+00
  0.00000000E+00  0.00000000E+00  0.00000000E+00
  0.00000000E+00  0.00000000E+00  0.00000000E+00
  0.00000000E+00  0.00000000E+00  0.00000000E+00
  0.00000000E+00  0.00000000E+00  0.00000000E+00
  0.00000000E+00  0.00000000E+00  0.00000000E+00
  0.00000000E+00  0.00000000E+00  0.00000000E+00
  0.00000000E+00  0.00000000E+00  0.00000000E+00
  0.00000000E+00  0.00000000E+00  0.00000000E+00
  0.00000000E+00  0.00000000E+00  0.00000000E+00
  0.00000000E+00  0.00000000E+00  0.00000000E+00
  0.00000000E+00  0.00000000E+00  0.00000000E+00
  0.00000000E+00  0.00000000E+00  0.00000000E+00
  0.00000000E+00  0.00000000E+00  0.00000000E+00
  0.00000000E+00  0.00000000E+00  0.00000000E+00
  0.00000000E+00  0.00000000E+00  0.00000000E+00
  0.00000000E+00  0.00000000E+00  0.00000000E+00
  0.00000000E+00  0.00000000E+00  0.00000000E+00
  0.00000000E+00  0.00000000E+00  0.00000000E+00
  0.00000000E+00  0.00000000E+00  0.00000000E+00
  0.00000000E+00  0.00000000E+00  0.00000000E+00
  0.00000000E+00  0.00000000E+00  0.00000000E+00
  0.00000000E+00  0.00000000E+00  0.00000000E+00
  0.00000000E+00  0.00000000E+00  0.00000000E+00
  0.00000000E+00  0.00000000E+00  0.00000000E+00
  0.00000000E+00  0.00000000E+00  0.00000000E+00
  0.00000000E+00  0.00000000E+00  0.00000000E+00
  0.00000000E+00  0.00000000E+00  0.00000000E+00
  0.00000000E+00  0.00000000E+00  0.00000000E+00
  0.00000000E+00  0.00000000E+00  0.00000000E+00
  0.00000000E+00  0.00000000E+00  0.00000000E+00
  0.00000000E+00  0.00000000E+00  0.00000000E+00
  0.00000000E+00  0.00000000E+00  0.00000000E+00
  0.00000000E+00  0.00000000E+00  0.00000000E+00
  0.00000000E+00  0.00000000E+00  0.00000000E+00
  0.00000000E+00  0.00000000E+00  0.00000000E+00
  0.00000000E+00  0.00000000E+00  0.00000000E+00
  0.00000000E+00  0.00000000E+00  0.00000000E+00
  0.00000000E+00  0.00000000E+00  0.00000000E+00
  0.00000000E+00  0.00000000E+00  0.00000000E+00
  0.00000000E+00  0.00000000E+00  0.00000000E+00
  0.00000000E+00  0.00000000E+00  0.00000000E+00
  0.00000000E+00  0.00000000E+00  0.00000000E+00
  0.00000000E+00  0.00000000E+00  0.00000000E+00
  0.00000000E+00  0.00000000E+00  0.00000000E+00
  0.00000000E+00  0.00000000E+00  0.00000000E+00
  0.00000000E+00  0.00000000E+00  0.00000000E+00
  0.00000000E+00  0.00000000E+00  0.00000000E+00
  0.00000000E+00  0.00000000E+00  0.00000000E+00
  0.00000000E+00  0.00000000E+00  0.00000000E+00
  0.00000000E+00  0.00000000E+00  0.00000000E+00
  0.00000000E+00  0.00000000E+00  0.00000000E+00
  0.00000000E+00  0.00000000E+00  0.00000000E+00
  0.00000000E+00  0.00000000E+00  0.00000000E+00
  0.00000000E+00  0.00000000E+00  0.00000000E+00
  0.00000000E+00  0.00000000E+00  0.00000000E+00
  0.00000000E+00  0.00000000E+00  0.00000000E+00
  0.00000000E+00  0.00000000E+00  0.00000000E+00
  0.00000000E+00  0.00000000E+00  0.00000000E+00
  0.00000000E+00  0.00000000E+00  0.00000000E+00
  0.00000000E+00  0.00000000E+00  0.00000000E+00
  0.00000000E+00  0.00000000E+00  0.00000000E+00
  0.00000000E+00  0.00000000E+00  0.00000000E+00
  0.00000000E+00  0.00000000E+00  0.00000000E+00
  0.00000000E+00  0.00000000E+00  0.00000000E+00
  0.00000000E+00  0.00000000E+00  0.00000000E+00
  0.00000000E+00  0.00000000E+00  0.00000000E+00
  0.00000000E+00  0.00000000E+00  0.00000000E+00
  0.00000000E+00  0.00000000E+00  0.00000000E+00
  0.00000000E+00  0.00000000E+00  0.00000000E+00
  0.00000000E+00  0.00000000E+00  0.00000000E+00
  0.00000000E+00  0.00000000E+00  0.00000000E+00
  0.00000000E+00  0.00000000E+00  0.00000000E+00
  0.00000000E+00  0.00000000E+00  0.00000000E+00
  0.00000000E+00  0.00000000E+00  0.00000000E+00
  0.00000000E+00  0.00000000E+00  0.00000000E+00
  0.00000000E+00  0.00000000E+00  0.00000000E+00
  0.00000000E+00  0.00000000E+00  0.00000000E+00
  0.00000000E+00  0.00000000E+00  0.00000000E+00
  0.00000000E+00  0.00000000E+00  0.00000000E+00
  0.00000000E+00  0.00000000E+00  0.00000000E+00
  0.00000000E+00  0.00000000E+00  0.00000000E+00
  0.00000000E+00  0.00000000E+00  0.00000000E+00
  0.00000000E+00  0.00000000E+00  0.00000000E+00
  0.00000000E+00  0.00000000E+00  0.00000000E+00
  0.00000000E+00  0.00000000E+00  0.00000000E+00
  0.00000000E+00  0.00000000E+00  0.00000000E+00
  0.00000000E+00  0.00000000E+00  0.00000000E+00
  0.00000000E+00  0.00000000E+00  0.00000000E+00
  0.00000000E+00  0.00000000E+00  0.00000000E+00
  0.00000000E+00  0.00000000E+00  0.00000000E+00
  0.00000000E+00  0.00000000E+00  0.00000000E+00
  0.00000000E+00  0.00000000E+00  0.00000000E+00
  0.00000000E+00  0.00000000E+00  0.00000000E+00
  0.00000000E+00  0.00000000E+00  0.00000000E+00
  0.00000000E+00  0.00000000E+00  0.00000000E+00
  0.00000000E+00  0.00000000E+00  0.00000000E+00
  0.00000000E+00  0.00000000E+00  0.00000000E+00
  0.00000000E+00  0.00000000E+00  0.00000000E+00
  0.00000000E+00  0.00000000E+00  0.00000000E+00
  0.00000000E+00  0.00000000E+00  0.00000000E+00
  0.00000000E+00  0.00000000E+00  0.00000000E+00
  0.00000000E+00  0.00000000E+00  0.00000000E+00
  0.00000000E+00  0.00000000E+00  0.00000000E+00
  0.00000000E+00  0.00000000E+00  0.00000000E+00
  0.00000000E+00  0.00000000E+00  0.00000000E+00
  0.00000000E+00  0.00000000E+00  0.00000000E+00
  0.00000000E+00  0.00000000E+00  0.00000000E+00
  0.00000000E+00  0.00000000E+00  0.00000000E+00
  0.00000000E+00  0.00000000E+00  0.00000000E+00
  0.00000000E+00  0.00000000E+00  0.00000000E+00
  0.00000000E+00  0.00000000E+00  0.00000000E+00
  0.00000000E+00  0.00000000E+00  0.00000000E+00
  0.00000000E+00  0.00000000E+00  0.00000000E+00
  0.00000000E+00  0.00000000E+00  0.00000000E+00
  0.00000000E+00  0.00000000E+00  0.00000000E+00
  0.00000000E+00  0.00000000E+00  0.00000000E+00
  0.00000000E+00  0.00000000E+00  0.00000000E+00
  0.00000000E+00  0.00000000E+00  0.00000000E+00
  0.00000000E+00  0.00000000E+00  0.00000000E+00
  0.00000000E+00  0.00000000E+00  0.00000000E+00
  0.00000000E+00  0.00000000E+00  0.00000000E+00
  0.00000000E+00  0.00000000E+00  0.00000000E+00
  0.00000000E+00  0.00000000E+00  0.00000000E+00
  0.00000000E+00  0.00000000E+00  0.00000000E+00
  0.00000000E+00  0.00000000E+00  0.00000000E+00
  0.00000000E+00  0.00000000E+00  0.00000000E+00
  0.00000000E+00  0.00000000E+00  0.00000000E+00
  0.00000000E+00  0.00000000E+00  0.00000000E+00
  0.00000000E+00  0.00000000E+00  0.00000000E+00
  0.00000000E+00  0.00000000E+00  0.00000000E+00
  0.00000000E+00  0.00000000E+00  0.00000000E+00
  0.00000000E+00  0.00000000E+00  0.00000000E+00
  0.00000000E+00  0.00000000E+00  0.00000000E+00
  0.00000000E+00  0.00000000E+00  0.00000000E+00
  0.00000000E+00  0.00000000E+00  0.00000000E+00
  0.00000000E+00  0.00000000E+00  0.00000000E+00
  0.00000000E+00  0.00000000E+00  0.00000000E+00
  0.00000000E+00  0.00000000E+00  0.00000000E+00
  0.00000000E+00  0.00000000E+00  0.00000000E+00
  0.00000000E+00  0.00000000E+00  0.00000000E+00
  0.00000000E+00  0.00000000E+00  0.00000000E+00
  0.00000000E+00  0.00000000E+00  0.00000000E+00
  0.00000000E+00  0.00000000E+00  0.00000000E+00
  0.00000000E+00  0.00000000E+00  0.00000000E+00
  0.00000000E+00  0.00000000E+00  0.00000000E+00
  0.00000000E+00  0.00000000E+00  0.00000000E+00
  0.00000000E+00  0.00000000E+00  0.00000000E+00
  0.00000000E+00  0.00000000E+00  0.00000000E+00
  0.00000000E+00  0.00000000E+00  0.00000000E+00
  0.00000000E+00  0.00000000E+00  0.00000000E+00
  0.00000000E+00  0.00000000E+00  0.00000000E+00
  0.00000000E+00  0.00000000E+00  0.00000000E+00
  0.00000000E+00  0.00000000E+00  0.00000000E+00
  0.00000000E+00  0.00000000E+00  0.00000000E+00
  0.00000000E+00  0.00000000E+00  0.00000000E+00
  0.00000000E+00  0.00000000E+00  0.00000000E+00
  0.00000000E+00  0.00000000E+00  0.00000000E+00
  0.00000000E+00  0.00000000E+00  0.00000000E+00
  0.00000000E+00  0.00000000E+00  0.00000000E+00
  0.00000000E+00  0.00000000E+00  0.00000000E+00
  0.00000000E+00  0.00000000E+00  0.00000000E+00
  0.00000000E+00  0.00000000E+00  0.00000000E+00
  0.00000000E+00  0.00000000E+00  0.00000000E+00
  0.00000000E+00  0.00000000E+00  0.00000000E+00
  0.00000000E+00  0.00000000E+00  0.00000000E+00
  0.00000000E+00  0.00000000E+00  0.00000000E+00
  0.00000000E+00  0.00000000E+00  0.00000000E+00
  0.00000000E+00  0.00000000E+00  0.00000000E+00
  0.00000000E+00  0.00000000E+00  0.00000000E+00
  0.00000000E+00  0.00000000E+00  0.00000000E+00
  0.00000000E+00  0.00000000E+00  0.00000000E+00
  0.00000000E+00  0.00000000E+00  0.00000000E+00
  0.00000000E+00  0.00000000E+00  0.00000000E+00
  0.00000000E+00  0.00000000E+00  0.00000000E+00
  0.00000000E+00  0.00000000E+00  0.00000000E+00
  0.00000000E+00  0.00000000E+00  0.00000000E+00
  0.00000000E+00  0.00000000E+00  0.00000000E+00
  0.00000000E+00  0.00000000E+00  0.00000000E+00
  0.00000000E+00  0.00000000E+00  0.00000000E+00
  0.00000000E+00  0.00000000E+00  0.00000000E+00
  0.00000000E+00  0.00000000E+00  0.00000000E+00
  0.00000000E+00  0.00000000E+00  0.00000000E+00
  0.00000000E+00  0.00000000E+00  0.00000000E+00
  0.00000000E+00  0.00000000E+00  0.00000000E+00
  0.00000000E+00  0.00000000E+00  0.00000000E+00
  0.00000000E+00  0.00000000E+00  0.00000000E+00
  0.00000000E+00  0.00000000E+00  0.00000000E+00
  0.00000000E+00  0.00000000E+00  0.00000000E+00
  0.00000000E+00  0.00000000E+00  0.00000000E+00
  0.00000000E+00  0.00000000E+00  0.00000000E+00
  0.00000000E+00  0.00000000E+00  0.00000000E+00
  0.00000000E+00  0.00000000E+00  0.00000000E+00
  0.00000000E+00  0.00000000E+00  0.00000000E+00
  0.00000000E+00  0.00000000E+00  0.00000000E+00
  0.00000000E+00  0.00000000E+00  0.00000000E+00
  0.00000000E+00  0.00000000E+00  0.00000000E+00
  0.00000000E+00  0.00000000E+00  0.00000000E+00
  0.00000000E+00  0.00000000E+00  0.00000000E+00
  0.00000000E+00  0.00000000E+00  0.00000000E+00
  0.00000000E+00  0.00000000E+00  0.00000000E+00
  0.00000000E+00  0.00000000E+00  0.00000000E+00
  0.00000000E+00  0.00000000E+00  0.00000000E+00
  0.00000000E+00  0.00000000E+00  0.00000000E+00
  0.00000000E+00  0.00000000E+00  0.00000000E+00
  0.00000000E+00  0.00000000E+00  0.00000000E+00
  0.00000000E+00  0.00000000E+00  0.00000000E+00
  0.00000000E+00  0.00000000E+00  0.00000000E+00
  0.00000000E+00  0.00000000E+00  0.00000000E+00
  0.00000000E+00  0.00000000E+00  0.00000000E+00
  0.00000000E+00  0.00000000E+00  0.00000000E+00
  0.00000000E+00  0.00000000E+00  0.00000000E+00
  0.00000000E+00  0.00000000E+00  0.00000000E+00
  0.00000000E+00  0.00000000E+00  0.00000000E+00
  0.00000000E+00  0.00000000E+00  0.00000000E+00
  0.00000000E+00  0.00000000E+00  0.00000000E+00
  0.00000000E+00  0.00000000E+00  0.00000000E+00