 N C B 
 1.0
 17.527899999999772   0.000000000000000   0.000000000000000
 -8.763949999999658  15.179606674993195   0.000000000000000
  0.000000000000001   0.000000000000002  15.000000000000000
 N C B 
  48   2  46
Cartesian
  8.763135783096041  13.727673588774715   1.663139042872770 
 16.298970129174329   0.718184090902768   1.660696823092650 
 15.055960801421945   2.889031171339574   1.659866725415685 
 13.794602540563186   5.059868891664398   1.658822917819950 
 12.516162828349433   7.230099477536066   1.658270933106765 
 11.245840443004667   9.397392797525482   1.657690874419185 
  9.992777094102987  11.559867800192370   1.659265140978045 
 -6.270924836218415  13.764419507470025   1.658581591203765 
  1.284955615109120   0.782563721621886   1.663195420626450 
  0.037610578391665   2.925330747899215   1.661297032483650 
 -1.239194343136573   5.079014994275501   1.653315134352960 
 -2.520862447366085   7.245670481663730   1.654967351987730 
 -3.790335652702274   9.414958762956269   1.656231731244795 
 -5.039434272330691  11.587113528385958   1.657222745534460 
 -3.780074557891544  13.773508343156976   1.664921514314850 
  3.761176989247538   0.787294087998792   1.663815506116215 
  2.587559781474991   3.048178129500137   1.673584013154210 
  1.265777696506209   5.119131701579120   1.683154822630125 
 -0.033015791781542   7.265269563942864   1.643149684488120 
 -1.303991776521185   9.429554147309476   1.666044237309675 
 -2.547053270277078  11.597259106343207   1.681965055944840 
 -1.277579642786954  13.766036108035451   1.687720383081105 
  6.255148808381665   0.763083175011798   1.664586389698050 
  5.027928547713302   2.972320169912783   1.671137051925660 
  3.877986655969279   5.431649907044233   1.689563012965995 
  2.412746524261820   7.299194596747117   1.699358879251350 
  1.168370521986039   9.448570258698220   1.623776645067225 
 -0.058617110129067  11.598364229020506   1.724308715783250 
  1.242099254085829  13.742426092846127   1.685663894270475 
  8.784315493767332   0.717796115240236   1.667633097741570 
  7.572608980637624   2.866091323030059   1.660917955542840 
  6.485684054445574   4.950494471994885   1.656897855804345 
  3.839404590714311   9.140741431436050   1.520495122173765 
  2.464782572381599  11.677371881041228   1.619035030007580 
  3.767813428664045  13.697793677833992   1.665411346817430 
 11.297597030421178   0.699521473574606   1.664703914602245 
 10.067336305558014   2.865783225546795   1.659217775326800 
  8.845174941801982   5.023951378975306   1.660653062735190 
  7.510403202318850   7.171846935005626   1.682164960404060 
  6.214019686018559   9.222419386550380   1.671141062148810 
  4.988074468014547  11.456022413130629   1.668299677725330 
  6.261502813225968  13.683864688022743   1.668300530585145 
 13.798851791933895   0.697946072928716   1.664168704656225 
 12.559144197042409   2.873619831538509   1.661198218662270 
 11.311105949762908   5.044491145750660   1.659711610803165 
 10.020299339883294   7.211843781276619   1.661811655756905 
  8.744491602051154   9.358898300247739   1.667215532069490 
  7.482543930454814  11.492579816550363   1.670192835874080 
  3.683689283463514   7.834663792483068   1.685544435327525 
  4.711398231031005   6.855944420374477   1.714826512277070 
  7.509878159240220  14.438227971234161   1.664181966708645 
 15.047094161065935   1.435904715293136   1.662085658148570 
 13.803133476704208   3.607724936206976   1.660290433897095 
 12.544945333293663   5.780771256723700   1.659573652454790 
 11.260436050110988   7.948769225441633   1.658988961747200 
  9.990301679292985  10.109447009035536   1.661021591733630 
  8.734656955823052  12.263359047786512   1.664458523971965 
 -7.513233155194937  14.493001589252298   1.661663640765285 
  0.020578715338286   1.472312372000768   1.661317321402980 
 -1.225564389278931   3.629274139796602   1.658544839558655 
 -2.495265792016401   5.794935311575413   1.655110723286925 
 -3.775264150565893   7.966991876705957   1.656969129883770 
 -5.039929988225191  10.136455372011081   1.656919431304620 
 -6.288275907371704  12.308419047951876   1.657463876232375 
 -5.023528007081239  14.506532783645438   1.661136780612585 
  2.541708343265105   1.555915200022900   1.666754948451885 
  1.287691682702466   3.679930917695745   1.673143942511010 
  0.000177779902567   5.817959582668362   1.656334006416540 
 -1.288351087726360   7.983335691867017   1.651651031453370 
 -2.550645981439273  10.150860259273923   1.666082186706645 
 -3.793664074790025  12.323469461720407   1.667496797043285 
 -2.526706803020847  14.496122341991246   1.671575711000910 
  5.009392222173921   1.511364287238178   1.666309381916955 
  3.871791905745807   3.851088201989434   1.677162104883450 
  2.497593091475520   5.877364620853371   1.698438123644970 
  1.188098748951555   8.027468263728956   1.671997211399265 
 -0.060871434414013  10.169376613202184   1.700047829374950 
 -1.298169065058467  12.325593137915284   1.703703068464350 
 -0.003534905770881  14.461323607536498   1.683072695669055 
  7.537707841563750   1.436907466491656   1.664077901329605 
  6.317373514560238   3.580220226762270   1.664792005452720 
  1.210943980326260  12.292135447145188   1.681483448760090 
  2.517267565918704  14.429928763887542   1.670213288489130 
 10.050214907228661   1.423365966282506   1.663807044038190 
  8.823627129898778   3.585068472839189   1.659789924060450 
  7.608786426570987   5.756329711900085   1.668801664802820 
  6.173575967349794   7.717306891797498   1.684492214092980 
  4.994280727133630   9.992660780605826   1.645321960567500 
  3.754127641244029  12.225196337335680   1.653029186897115 
  5.017975355986406  14.421955986184825   1.666248491799975 
 12.549921259643574   1.423080001994293   1.663296621376185 
 11.311634874101198   3.595565085241040   1.659999168172965 
 10.067248452464295   5.765925066683499   1.660812743758965 
  8.754250397478078   7.918531211502422   1.670847149696700 
  7.467227842607892  10.023359272494350   1.670969133916455 
  6.234579869382265  12.218336549391550   1.672388192691060 
