 O B N 
 1.0
 14.936314146199660   0.000000000000000   0.000000000000000
 -7.468157073099825  12.935227489513863   0.000000000000000
  0.000000000000001   0.000000000000001  13.341276283792837
 O B N 
   1 143 144
Cartesian
  3.734078536549917   5.030366245922021   5.002978606422314 
  1.232904746117100   0.697520135217031   5.002978606422314 
  5.011387329452358   7.220531205774672   5.002978606422314 
  6.235252326982716   0.697520135217031   5.002978606422314 
  9.963591984095542   7.189008722100716   5.002978606422314 
 11.202235609649751   0.718623749417456   5.002978606422314 
 -3.734078536549858   9.342108742426666  11.673616748318732 
  1.244832811034926   9.341593284753911  11.673616748318732 
  2.489816348872569   2.875058347359712  11.673616748318732 
  6.223324262064974   9.341593284753911  11.673616748318732 
  7.467499390161152   2.874874711091556  11.673616748318732 
 12.447186402980970   2.874718510079106  11.673616748318732 
 -1.250117409281715   9.345961906624177   5.002978606422314 
 -0.001622064665351   2.873558498198561   5.002978606422314 
  4.992162633809455   2.829101902864938   5.002978606422314 
  3.734078536549941   9.343981741369083   5.002978606422314 
  8.718274482381510   9.345961906624177   5.002978606422314 
  9.959245948451496   2.872535018928507   5.002978606422314 
 -4.978699260979432  11.498156052036915  11.673616748318732 
 -0.000137359040241  11.497900686400119  11.673616748318732 
  1.245396049579033   5.030457531706198  11.673616748318732 
  6.222761023520757   5.030457531706198  11.673616748318732 
  4.978835975584042  11.497644845113975  11.673616748318732 
 11.202235609649726   5.030524854479731  11.673616748318732 
 -1.268863161225598   5.030709259479882   5.002978606422314 
 -2.488761034835817  11.491355598555215   5.002978606422314 
  2.490231490254997  11.500434980936451   5.002978606422314 
  7.467038615516825  11.498625732465580   5.002978606422314 
  8.737020234325463   5.030709259479882   5.002978606422314 
  0.000434496235821   7.185986637655733  11.673616748318732 
  1.245069262196698   0.719002691948267  11.673616748318732 
  4.978498835843327   7.185582858700323  11.673616748318732 
  6.223087810903164   0.719002691948267  11.673616748318732 
  9.957354229980918   7.186211922188944  11.673616748318732 
 -2.495434910995869   7.189008722100716   5.002978606422314 
 11.202235609649751   0.718623749417457  11.673616748318732 
  3.734078536549923   0.698567229322939   5.002978606422314 
  2.456769743647328   7.220531205774672   5.002978606422314 
  7.485526529013218   7.196265754221570   5.002978606422314 
  8.715398902156393   0.718128737901105   5.002978606422314 
  2.489658237256285   7.185582858700323  11.673616748318732 
 13.689072317143141   0.718128737901105   5.002978606422314 
 -1.244576432451492   9.341958253054138  11.673616748318732 
  0.000657682938982   2.874874711091556  11.673616748318732 
  4.978340724227251   2.875058347359712  11.673616748318732 
  3.734078536550212   9.341349315582917  11.673616748318732 
  8.712733505551359   9.341958253054138  11.673616748318732 
  9.957284816318701   2.874718510079106  11.673616748318732 
 -3.734078536549858   9.342108742426664   5.002978606422314 
  1.232310629207107   9.362869343069345   5.002978606422314 
  2.475994439290422   2.829101902864938   5.002978606422314 
  6.235846443892552   9.362869343069345   5.002978606422314 
  7.469779137765228   2.873558498198561   5.002978606422314 
 12.445225270848159   2.872535018928507   5.002978606422314 
 -1.244176463318279   5.030502761063888  11.673616748318732 
 -2.489457812120269  11.498156052036915  11.673616748318732 
  2.489321097516008  11.497644845113975  11.673616748318732 
  3.734078536549918   5.030366245922021  11.673616748318732 
  7.468294432140037  11.497900686400119  11.673616748318732 
 -4.979396038264003  11.491355598555215   5.002978606422314 
  8.712333536418233   5.030502761063888  11.673616748318732 
  0.001118457582804  11.498625732465580   5.002978606422314 
  1.198685646387907   5.041465629126583   5.002978606422314 
 -0.017369455913311   7.196265754221570   5.002978606422314 
  6.269471426711970   5.041465629126583   5.002978606422314 
  4.977925582845082  11.500434980936451   5.002978606422314 
 11.202235609649641   5.029074762348948   5.002978606422314 
 -2.489197156881096   7.186211922188944  11.673616748318732 
  3.734078536549908   0.719125462454948  11.673616748318732 
  7.467722576863911   7.185986637655733  11.673616748318732 
  8.712527377284609   0.718735382572985  11.673616748318732 
 13.691943842014911   0.718735382572985  11.673616748318732 
  0.000412553001848   1.438162738569350   1.669159055339646 
  3.734078536549896   7.902972490641460   1.671970160326725 
  4.978429513959301   1.439765127318760   1.670703260625742 
  8.711392287833394   7.904019680067045   1.669066581591317 
  9.957386978442056   1.437337441745613   1.668700576263139 
 -4.979208389944629  10.060984798460128   8.337303887915596 
  0.000999798641450  10.060363767565429   8.337094565503888 
  1.246328553553016   3.594063123562386   8.333987052517902 
  4.978185037706826  10.059917590596918   8.336798157504955 
  6.221828519546684   3.594063123562386   8.333987052517902 
 11.202235609649785   3.592829069438518   8.337183342582890 
 -2.488948683155088  10.060984798460128   1.668653324929019 
 -1.243693948155086   3.593018408599923   1.669159055339646 
  3.734078536549886   3.595854021031661   1.678817775924997 
  2.489972035393090  10.059917590596918   1.669159055339646 
  7.467157274458315  10.060363767565429   1.668862647340780 
  8.711851021254933   3.593018408599923   1.669159055339646 
 -6.223644802311537  12.217653953257939   8.337094565503888 
 -1.244512270788250  12.217653953257939   8.337094565503888 
  0.002351264277894   5.748027247563121   8.335253952218899 
  4.976402565344341   5.747622358367227   8.327139436919763 
  3.734078536550002  12.216423854275030   8.337256636581502 
  9.956723540220009   5.748308506456623   8.337094565503888 
 -2.488566467120144   5.748308506456622   1.668862647340780 
 -3.734078536549918  12.218286867146235   1.669066581591317 
  1.244943713719395  12.216748578920660   1.668773870261698 
  2.491754507755493   5.747622358367226   1.678817775924997 
  6.223213359380639  12.216748578920660   1.668773870261698 
  7.465805808821838   5.748027247563120   1.670703260625742 
 -1.243235214733795   7.904019680067046   8.336890631253377 
  0.000412553001849   1.438162738569351   8.336798157504955 
  3.734078536549897   7.902972490641461   8.333987052517902 
  4.978429513959302   1.439765127318761   8.335253952218899 
  8.711392287833394   7.904019680067046   8.336890631253377 
 -3.734078536549934   7.904356630359711   1.668653324929019 
  9.957386978442056   1.437337441745614   8.337256636581502 
  2.489727559140426   1.439765127318760   1.670703260625742 
  1.246702241687243   7.903306362884427   1.670703260625742 
  6.221454831412311   7.903306362884427   1.670703260625742 
  7.467744520098133   1.438162738569350   1.669159055339646 
  1.246702241687243   7.903306362884428   8.335253952218899 
 12.447084240857405   1.437337441745613   1.668700576263139 
 -2.488948683155087  10.060984798460128   8.337303887915596 
 -1.243693948155086   3.593018408599924   8.336798157504955 
  3.734078536549887   3.595854021031662   8.327139436919763 
  2.489972035393091  10.059917590596918   8.336798157504955 
  7.467157274458316  10.060363767565429   8.337094565503888 
  8.711851021254933   3.593018408599924   8.336798157504955 
 -4.979208389944630  10.060984798460128   1.668653324929019 
  0.000999798641449  10.060363767565429   1.668862647340780 
  1.246328553553016   3.594063123562385   1.671970160326725 
  4.978185037706825  10.059917590596918   1.669159055339646 
  6.221828519546683   3.594063123562385   1.671970160326725 
 11.202235609649785   3.592829069438517   1.668773870261698 
 -2.488566467120144   5.748308506456623   8.337094565503888 
 -3.734078536549917  12.218286867146235   8.336890631253377 
  1.244943713719395  12.216748578920660   8.337183342582890 
  2.491754507755493   5.747622358367227   8.327139436919763 
  6.223213359380640  12.216748578920660   8.337183342582890 
 -6.223644802311538  12.217653953257939   1.668862647340780 
  7.465805808821838   5.748027247563121   8.335253952218899 
 -1.244512270788251  12.217653953257939   1.668862647340780 
  0.002351264277894   5.748027247563120   1.670703260625742 
 -1.243235214733796   7.904019680067045   1.669066581591317 
  4.976402565344340   5.747622358367226   1.678817775924997 
  3.734078536550002  12.216423854275030   1.668700576263139 
  9.956723540220009   5.748308506456622   1.668862647340780 
 -3.734078536549934   7.904356630359712   8.337303887915596 
  2.489727559140426   1.439765127318761   8.335253952218899 
  6.221454831412312   7.903306362884428   8.335253952218899 
  7.467744520098134   1.438162738569351   8.336798157504955 
 12.447084240857405   1.437337441745614   8.337256636581502 
  1.244442701084725   0.718718242873667   1.665851240741263 
  4.978589137114546   7.186500187006081   1.664901238699046 
  6.223714372015166   0.718718242873667   1.665851240741263 
  9.957462938199207   7.186075743608824   1.666420118840449 
 11.202235609649751   0.718623749417456   1.666300866673451 
 -3.734078536549858   9.342108742426664   8.339461558338979 
  1.244899751466256   9.342278127131198   8.340105972103338 
  2.489067069891630   2.874521480012143   8.341055974145554 
  6.223257321633676   9.342278127131198   8.340105972103338 
  7.468476229415910   2.874310732684831   8.340500914951857 
 12.446769374686765   2.874316799227515   8.339750177361962 
 -1.244512852450984   9.342120486423040   1.666420118840449 
 -0.000319156315897   2.874310732684830   1.665456297892757 
  4.979090003208247   2.874521480012143   1.664901238699046 
  3.734078536550099   9.342477272396454   1.665456297892757 
  8.712669925550550   9.342120486423040   1.666420118840449 
  9.957701844612787   2.874316799227514   1.666207035482679 
 -4.978871549198536  11.498129997248345   8.339537094004179 
  0.000192576991917  11.498091175057098   8.339587473695191 
  1.244556469327145   5.030077070747903   8.341055974145554 
  6.223600603772930   5.030077070747903   8.341055974145554 
  4.978696597928579  11.498206857636635   8.339750177361962 
 11.202235609649717   5.030143877165757   8.339587473695191 
 -1.244736083998945   5.030102367761184   1.665851240741263 
 -2.489285523901358  11.498129997248345   1.666420118840449 
  2.489460475171531  11.498206857636635   1.666207035482679 
  3.734078536549917   5.030366245922020   1.660508444215931 
  7.467964496107864  11.498091175057098   1.666369739149450 
  8.712893157098915   5.030102367761184   1.665851240741263 
  0.000203276519943   7.186120132420869   8.340080514687736 
  1.244442701084726   0.718718242873667   8.340105972103338 
  4.978589137114547   7.186500187006082   8.341055974145554 
  6.223714372015166   0.718718242873667   8.340105972103338 
  9.957462938199207   7.186075743608825   8.339537094004179 
 -2.489305865099507   7.186075743608824   1.666420118840449 
 11.202235609649751   0.718623749417456   8.339656346171189 
  3.734078536549886   0.718858472924508   1.665876698156932 
  2.489567935985380   7.186500187006081   1.664901238699046 
  7.467953796579923   7.186120132420868   1.665876698156932 
  8.713083783234286   0.718575080901979   1.666207035482679 
  2.489567935985380   7.186500187006082   8.341055974145554 
 13.691387436065311   0.718575080901979   1.666207035482679 
 -1.244512852450983   9.342120486423040   8.339537094004179 
 -0.000319156315896   2.874310732684831   8.340500914951857 
  4.979090003208248   2.874521480012143   8.341055974145554 
  3.734078536550099   9.342477272396454   8.340500914951857 
  8.712669925550550   9.342120486423040   8.339537094004179 
  9.957701844612787   2.874316799227515   8.339750177361962 
 -3.734078536549859   9.342108742426664   1.666495654505689 
  1.244899751466256   9.342278127131198   1.665851240741263 
  2.489067069891629   2.874521480012143   1.664901238699046 
  6.223257321633675   9.342278127131198   1.665851240741263 
  7.468476229415909   2.874310732684830   1.665456297892757 
 12.446769374686765   2.874316799227514   1.666207035482679 
 -1.244736083998944   5.030102367761184   8.340105972103338 
 -2.489285523901357  11.498129997248345   8.339537094004179 
  2.489460475171531  11.498206857636635   8.339750177361962 
  3.734078536549917   5.030366245922021   8.345448768628644 
  7.467964496107864  11.498091175057098   8.339587473695191 
 -4.978871549198537  11.498129997248345   1.666420118840449 
  8.712893157098915   5.030102367761184   8.340105972103338 
  0.000192576991917  11.498091175057098   1.666369739149450 
  1.244556469327144   5.030077070747902   1.664901238699046 
  0.000203276519942   7.186120132420868   1.665876698156932 
  6.223600603772929   5.030077070747902   1.664901238699046 
  4.978696597928578  11.498206857636635   1.666207035482679 
 11.202235609649717   5.030143877165756   1.666369739149450 
 -2.489305865099507   7.186075743608825   8.339537094004179 
  3.734078536549886   0.718858472924509   8.340080514687736 
  7.467953796579924   7.186120132420869   8.340080514687736 
  8.713083783234286   0.718575080901979   8.339750177361962 
 13.691387436065311   0.718575080901979   8.339750177361962 
 -0.007334606441113   1.429959941485013   5.002978606422314 
  3.734078536549851   7.919864891082229   5.002978606422314 
  4.997101107779717   1.386539105793275   5.002978606422314 
  8.728757842291266   7.914045687607694   5.002978606422314 
  9.960335518901203   1.435635101117757   5.002978606422314 
 -4.978749012523410  10.060719576782327  11.673616748318732 
 -0.000068388872847  10.060728580899291  11.673616748318732 
  1.244685907655375   3.593114741511131  11.673616748318732 
  4.978815707396734  10.060720127917756  11.673616748318732 
  6.223471165444459   3.593114741511131  11.673616748318732 
 11.202235609649627   3.593205288531157  11.673616748318732 
 -2.492757022181443  10.058786052898197   5.002978606422314 
 -1.254671358533700   3.590410570257333   5.002978606422314 
  3.734078536549835   3.387099716173563   5.002978606422314 
  2.486741784457207  10.070728226023963   5.002978606422314 
  7.478695506413306  10.071823886375261   5.002978606422314 
  8.722828431633413   3.590410570257333   5.002978606422314 
 -6.223426646169160  12.216546469067742  11.673616748318732 
 -1.244730426930705  12.216546469067742  11.673616748318732 
 -0.000051649847398   5.749031431891050  11.673616748318732 
  4.978803193048768   5.749008361418594  11.673616748318732 
  3.734078536549876  12.216573876896369  11.673616748318732 
  9.957573571591778   5.749051177313066  11.673616748318732 
 -2.504260337117343   5.752570849039436   5.002978606422314 
 -3.734078536549827  12.198234852064578   5.002978606422314 
  1.246138857880698  12.217438595723941   5.002978606422314 
  2.310967976598949   5.851999510796309   5.002978606422314 
  6.222018215219292  12.217438595723941   5.002978606422314 
  7.521236692515679   5.758470183748225   5.002978606422314 
 -1.244758053088561   7.904898891201051  11.673616748318732 
  0.000032870139428   1.437215293936076  11.673616748318732 
  3.734078536549911   7.904869254743972  11.673616748318732 
  4.978761321883857   1.437182050479195  11.673616748318732 
  8.712915126188324   7.904898891201051  11.673616748318732 
 -3.734078536549866   7.908754121483635   5.002978606422314 
  9.957516901843174   1.437262430434900  11.673616748318732 
  2.471055965319994   1.386539105793275   5.002978606422314 
  1.209942951814026   7.946089448224757   5.002978606422314 
  6.258214121285750   7.946089448224757   5.002978606422314 
  7.475491679540916   1.429959941485013   5.002978606422314 
  1.244631135486513   7.904885255396080  11.673616748318732 
 12.444135700398274   1.435635101117757   5.002978606422314 
 -2.489408060576277  10.060719576782327  11.673616748318732 
 -1.244704300707459   3.593163315912442  11.673616748318732 
  3.734078536549797   3.593082014929060  11.673616748318732 
  2.489341365703076  10.060720127917756  11.673616748318732 
  7.468225461972463  10.060728580899291  11.673616748318732 
  8.712861373807174   3.593163315912442  11.673616748318732 
 -4.975400050918347  10.058786052898197   5.002978606422314 
 -0.010538433313498  10.071823886375261   5.002978606422314 
  1.231699305640486   3.585616923342002   5.002978606422314 
  4.981415288642290  10.070728226023963   5.002978606422314 
  6.236457767459241   3.585616923342002   5.002978606422314 
 11.202235609649732   3.591449035832068   5.002978606422314 
 -2.489416498491986   5.749051177313066  11.673616748318732 
 -3.734078536549872  12.216528444877994  11.673616748318732 
  1.244617898427809  12.216560469374476  11.673616748318732 
  2.489353880051068   5.749008361418594  11.673616748318732 
  6.223539174672017  12.216560469374476  11.673616748318732 
 -6.227800440353775  12.201931491865242   5.002978606422314 
  7.468208722947220   5.749031431891050  11.673616748318732 
 -1.240356632745999  12.201931491865242   5.002978606422314 
 -0.053079619415769   5.758470183748225   5.002978606422314 
 -1.260600769191384   7.914045687607694   5.002978606422314 
  5.157189096500888   5.851999510796309   5.002978606422314 
  3.734078536549966  12.219828535530652   5.002978606422314 
  9.972417410217236   5.752570849039436   5.002978606422314 
 -3.734078536549934   7.904887073715313  11.673616748318732 
  2.489395751215842   1.437182050479195  11.673616748318732 
  6.223525937613116   7.904885255396080  11.673616748318732 
  7.468124202960404   1.437215293936076  11.673616748318732 
 12.446954317456212   1.437262430434900  11.673616748318732 
Generated by cif2cell 2.0.0.  :  Failed to get author information, No journal information. Species order: O B N 
 1.0
 14.936314146199660   0.000000000000000   0.000000000000000
 -7.468157073099825  12.935227489513863   0.000000000000000
  0.000000000000001   0.000000000000001  13.341276283792837
 O B N 
   1 143 144
Cartesian
  3.734078536549917   5.030366245922021   5.002978606422314 
  1.232904746117100   0.697520135217031   5.002978606422314 
  5.011387329452358   7.220531205774672   5.002978606422314 
  6.235252326982716   0.697520135217031   5.002978606422314 
  9.963591984095542   7.189008722100716   5.002978606422314 
 11.202235609649751   0.718623749417456   5.002978606422314 
 -3.734078536549858   9.342108742426666  11.673616748318732 
  1.244832811034926   9.341593284753911  11.673616748318732 
  2.489816348872569   2.875058347359712  11.673616748318732 
  6.223324262064974   9.341593284753911  11.673616748318732 
  7.467499390161152   2.874874711091556  11.673616748318732 
 12.447186402980970   2.874718510079106  11.673616748318732 
 -1.250117409281715   9.345961906624177   5.002978606422314 
 -0.001622064665351   2.873558498198561   5.002978606422314 
  4.992162633809455   2.829101902864938   5.002978606422314 
  3.734078536549941   9.343981741369083   5.002978606422314 
  8.718274482381510   9.345961906624177   5.002978606422314 
  9.959245948451496   2.872535018928507   5.002978606422314 
 -4.978699260979432  11.498156052036915  11.673616748318732 
 -0.000137359040241  11.497900686400119  11.673616748318732 
  1.245396049579033   5.030457531706198  11.673616748318732 
  6.222761023520757   5.030457531706198  11.673616748318732 
  4.978835975584042  11.497644845113975  11.673616748318732 
 11.202235609649726   5.030524854479731  11.673616748318732 
 -1.268863161225598   5.030709259479882   5.002978606422314 
 -2.488761034835817  11.491355598555215   5.002978606422314 
  2.490231490254997  11.500434980936451   5.002978606422314 
  7.467038615516825  11.498625732465580   5.002978606422314 
  8.737020234325463   5.030709259479882   5.002978606422314 
  0.000434496235821   7.185986637655733  11.673616748318732 
  1.245069262196698   0.719002691948267  11.673616748318732 
  4.978498835843327   7.185582858700323  11.673616748318732 
  6.223087810903164   0.719002691948267  11.673616748318732 
  9.957354229980918   7.186211922188944  11.673616748318732 
 -2.495434910995869   7.189008722100716   5.002978606422314 
 11.202235609649751   0.718623749417457  11.673616748318732 
  3.734078536549923   0.698567229322939   5.002978606422314 
  2.456769743647328   7.220531205774672   5.002978606422314 
  7.485526529013218   7.196265754221570   5.002978606422314 
  8.715398902156393   0.718128737901105   5.002978606422314 
  2.489658237256285   7.185582858700323  11.673616748318732 
 13.689072317143141   0.718128737901105   5.002978606422314 
 -1.244576432451492   9.341958253054138  11.673616748318732 
  0.000657682938982   2.874874711091556  11.673616748318732 
  4.978340724227251   2.875058347359712  11.673616748318732 
  3.734078536550212   9.341349315582917  11.673616748318732 
  8.712733505551359   9.341958253054138  11.673616748318732 
  9.957284816318701   2.874718510079106  11.673616748318732 
 -3.734078536549858   9.342108742426664   5.002978606422314 
  1.232310629207107   9.362869343069345   5.002978606422314 
  2.475994439290422   2.829101902864938   5.002978606422314 
  6.235846443892552   9.362869343069345   5.002978606422314 
  7.469779137765228   2.873558498198561   5.002978606422314 
 12.445225270848159   2.872535018928507   5.002978606422314 
 -1.244176463318279   5.030502761063888  11.673616748318732 
 -2.489457812120269  11.498156052036915  11.673616748318732 
  2.489321097516008  11.497644845113975  11.673616748318732 
  3.734078536549918   5.030366245922021  11.673616748318732 
  7.468294432140037  11.497900686400119  11.673616748318732 
 -4.979396038264003  11.491355598555215   5.002978606422314 
  8.712333536418233   5.030502761063888  11.673616748318732 
  0.001118457582804  11.498625732465580   5.002978606422314 
  1.198685646387907   5.041465629126583   5.002978606422314 
 -0.017369455913311   7.196265754221570   5.002978606422314 
  6.269471426711970   5.041465629126583   5.002978606422314 
  4.977925582845082  11.500434980936451   5.002978606422314 
 11.202235609649641   5.029074762348948   5.002978606422314 
 -2.489197156881096   7.186211922188944  11.673616748318732 
  3.734078536549908   0.719125462454948  11.673616748318732 
  7.467722576863911   7.185986637655733  11.673616748318732 
  8.712527377284609   0.718735382572985  11.673616748318732 
 13.691943842014911   0.718735382572985  11.673616748318732 
  0.000412553001848   1.438162738569350   1.669159055339646 
  3.734078536549896   7.902972490641460   1.671970160326725 
  4.978429513959301   1.439765127318760   1.670703260625742 
  8.711392287833394   7.904019680067045   1.669066581591317 
  9.957386978442056   1.437337441745613   1.668700576263139 
 -4.979208389944629  10.060984798460128   8.337303887915596 
  0.000999798641450  10.060363767565429   8.337094565503888 
  1.246328553553016   3.594063123562386   8.333987052517902 
  4.978185037706826  10.059917590596918   8.336798157504955 
  6.221828519546684   3.594063123562386   8.333987052517902 
 11.202235609649785   3.592829069438518   8.337183342582890 
 -2.488948683155088  10.060984798460128   1.668653324929019 
 -1.243693948155086   3.593018408599923   1.669159055339646 
  3.734078536549886   3.595854021031661   1.678817775924997 
  2.489972035393090  10.059917590596918   1.669159055339646 
  7.467157274458315  10.060363767565429   1.668862647340780 
  8.711851021254933   3.593018408599923   1.669159055339646 
 -6.223644802311537  12.217653953257939   8.337094565503888 
 -1.244512270788250  12.217653953257939   8.337094565503888 
  0.002351264277894   5.748027247563121   8.335253952218899 
  4.976402565344341   5.747622358367227   8.327139436919763 
  3.734078536550002  12.216423854275030   8.337256636581502 
  9.956723540220009   5.748308506456623   8.337094565503888 
 -2.488566467120144   5.748308506456622   1.668862647340780 
 -3.734078536549918  12.218286867146235   1.669066581591317 
  1.244943713719395  12.216748578920660   1.668773870261698 
  2.491754507755493   5.747622358367226   1.678817775924997 
  6.223213359380639  12.216748578920660   1.668773870261698 
  7.465805808821838   5.748027247563120   1.670703260625742 
 -1.243235214733795   7.904019680067046   8.336890631253377 
  0.000412553001849   1.438162738569351   8.336798157504955 
  3.734078536549897   7.902972490641461   8.333987052517902 
  4.978429513959302   1.439765127318761   8.335253952218899 
  8.711392287833394   7.904019680067046   8.336890631253377 
 -3.734078536549934   7.904356630359711   1.668653324929019 
  9.957386978442056   1.437337441745614   8.337256636581502 
  2.489727559140426   1.439765127318760   1.670703260625742 
  1.246702241687243   7.903306362884427   1.670703260625742 
  6.221454831412311   7.903306362884427   1.670703260625742 
  7.467744520098133   1.438162738569350   1.669159055339646 
  1.246702241687243   7.903306362884428   8.335253952218899 
 12.447084240857405   1.437337441745613   1.668700576263139 
 -2.488948683155087  10.060984798460128   8.337303887915596 
 -1.243693948155086   3.593018408599924   8.336798157504955 
  3.734078536549887   3.595854021031662   8.327139436919763 
  2.489972035393091  10.059917590596918   8.336798157504955 
  7.467157274458316  10.060363767565429   8.337094565503888 
  8.711851021254933   3.593018408599924   8.336798157504955 
 -4.979208389944630  10.060984798460128   1.668653324929019 
  0.000999798641449  10.060363767565429   1.668862647340780 
  1.246328553553016   3.594063123562385   1.671970160326725 
  4.978185037706825  10.059917590596918   1.669159055339646 
  6.221828519546683   3.594063123562385   1.671970160326725 
 11.202235609649785   3.592829069438517   1.668773870261698 
 -2.488566467120144   5.748308506456623   8.337094565503888 
 -3.734078536549917  12.218286867146235   8.336890631253377 
  1.244943713719395  12.216748578920660   8.337183342582890 
  2.491754507755493   5.747622358367227   8.327139436919763 
  6.223213359380640  12.216748578920660   8.337183342582890 
 -6.223644802311538  12.217653953257939   1.668862647340780 
  7.465805808821838   5.748027247563121   8.335253952218899 
 -1.244512270788251  12.217653953257939   1.668862647340780 
  0.002351264277894   5.748027247563120   1.670703260625742 
 -1.243235214733796   7.904019680067045   1.669066581591317 
  4.976402565344340   5.747622358367226   1.678817775924997 
  3.734078536550002  12.216423854275030   1.668700576263139 
  9.956723540220009   5.748308506456622   1.668862647340780 
 -3.734078536549934   7.904356630359712   8.337303887915596 
  2.489727559140426   1.439765127318761   8.335253952218899 
  6.221454831412312   7.903306362884428   8.335253952218899 
  7.467744520098134   1.438162738569351   8.336798157504955 
 12.447084240857405   1.437337441745614   8.337256636581502 
  1.244442701084725   0.718718242873667   1.665851240741263 
  4.978589137114546   7.186500187006081   1.664901238699046 
  6.223714372015166   0.718718242873667   1.665851240741263 
  9.957462938199207   7.186075743608824   1.666420118840449 
 11.202235609649751   0.718623749417456   1.666300866673451 
 -3.734078536549858   9.342108742426664   8.339461558338979 
  1.244899751466256   9.342278127131198   8.340105972103338 
  2.489067069891630   2.874521480012143   8.341055974145554 
  6.223257321633676   9.342278127131198   8.340105972103338 
  7.468476229415910   2.874310732684831   8.340500914951857 
 12.446769374686765   2.874316799227515   8.339750177361962 
 -1.244512852450984   9.342120486423040   1.666420118840449 
 -0.000319156315897   2.874310732684830   1.665456297892757 
  4.979090003208247   2.874521480012143   1.664901238699046 
  3.734078536550099   9.342477272396454   1.665456297892757 
  8.712669925550550   9.342120486423040   1.666420118840449 
  9.957701844612787   2.874316799227514   1.666207035482679 
 -4.978871549198536  11.498129997248345   8.339537094004179 
  0.000192576991917  11.498091175057098   8.339587473695191 
  1.244556469327145   5.030077070747903   8.341055974145554 
  6.223600603772930   5.030077070747903   8.341055974145554 
  4.978696597928579  11.498206857636635   8.339750177361962 
 11.202235609649717   5.030143877165757   8.339587473695191 
 -1.244736083998945   5.030102367761184   1.665851240741263 
 -2.489285523901358  11.498129997248345   1.666420118840449 
  2.489460475171531  11.498206857636635   1.666207035482679 
  3.734078536549917   5.030366245922020   1.660508444215931 
  7.467964496107864  11.498091175057098   1.666369739149450 
  8.712893157098915   5.030102367761184   1.665851240741263 
  0.000203276519943   7.186120132420869   8.340080514687736 
  1.244442701084726   0.718718242873667   8.340105972103338 
  4.978589137114547   7.186500187006082   8.341055974145554 
  6.223714372015166   0.718718242873667   8.340105972103338 
  9.957462938199207   7.186075743608825   8.339537094004179 
 -2.489305865099507   7.186075743608824   1.666420118840449 
 11.202235609649751   0.718623749417456   8.339656346171189 
  3.734078536549886   0.718858472924508   1.665876698156932 
  2.489567935985380   7.186500187006081   1.664901238699046 
  7.467953796579923   7.186120132420868   1.665876698156932 
  8.713083783234286   0.718575080901979   1.666207035482679 
  2.489567935985380   7.186500187006082   8.341055974145554 
 13.691387436065311   0.718575080901979   1.666207035482679 
 -1.244512852450983   9.342120486423040   8.339537094004179 
 -0.000319156315896   2.874310732684831   8.340500914951857 
  4.979090003208248   2.874521480012143   8.341055974145554 
  3.734078536550099   9.342477272396454   8.340500914951857 
  8.712669925550550   9.342120486423040   8.339537094004179 
  9.957701844612787   2.874316799227515   8.339750177361962 
 -3.734078536549859   9.342108742426664   1.666495654505689 
  1.244899751466256   9.342278127131198   1.665851240741263 