 B N 
 1.0
 14.936314146199660   0.000000000000000   0.000000000000000
 -7.468157073099825  12.935227489513863   0.000000000000000
  0.000000000000001   0.000000000000001  13.341276283792837
 B N 
 143 144
Cartesian
  1.209814715315086   0.698679653224471   5.002978606422314 
  5.237193918061842   6.928809390813229   5.002978606422314 
  6.207516964616485   0.781469879739755   5.002978606422314 
 10.017552234202487   7.215486751110983   5.002978606422314 
 11.164264849447438   0.696701320793323   5.002978606422314 
 -3.734363630343619   9.341944143448041  11.673616748318732 
  1.244833853846647   9.342413102762599  11.673616748318732 
  2.489870417833520   2.874519505105565  11.673616748318732 
  6.223315257188856   9.341471441403758  11.673616748318732 
  7.468092299472620   2.874726237720552  11.673616748318732 
 12.446272909387144   2.874365129484608  11.673616748318732 
 -1.202949184088314   9.348461934799305   5.002978606422314 
 -0.090585215137603   2.822195599325414   5.002978606422314 
  4.964370351407831   2.988626587776516   5.002978606422314 
  3.800172264896538   9.208062543340230   5.002978606422314 
  8.768185253200073   9.379453839506118   5.002978606422314 
  9.907806989498916   2.890294618377746   5.002978606422314 
 -4.978898151950512  11.497554297889572  11.673616748318732 
  0.000108963441459  11.498042900751271  11.673616748318732 
  1.244956432978792   5.030773777926998  11.673616748318732 
  6.223585072161042   5.030672099288130  11.673616748318732 
  4.978559536699185  11.497434387472648  11.673616748318732 
 11.201505040579812   5.030436378194744  11.673616748318732 
 -1.279404004576002   5.010132947227427   5.002978606422314 
 -2.463011834329249  11.530954465736510   5.002978606422314 
  2.496561067767782  11.452434316210157   5.002978606422314 
  7.470443431405196  11.486648228584853   5.002978606422314 
  8.713263416178521   5.080513312203467   5.002978606422314 
  0.000002654709436   7.186683346866253  11.673616748318732 
  1.244576631732869   0.718167784587765  11.673616748318732 
  4.979096681140311   7.186189221965694  11.673616748318732 
  6.223798315530999   0.718593686045417  11.673616748318732 
  9.956936086939036   7.186152092648208  11.673616748318732 
 -2.451173750285542   7.193636109107090   5.002978606422314 
 11.201820859809683   0.718384293485585  11.673616748318732 
  3.732169010437650   0.759839918981248   5.002978606422314 
  2.581026032110664   7.116700040729900   5.002978606422314 
  7.574387989125383   7.247569942137997   5.002978606422314 
  8.676993895861195   0.747610645185689   5.002978606422314 
  2.489962474825384   7.186832519677255  11.673616748318732 
 13.645557974306108   0.679476780182676   5.002978606422314 
 -1.244736093512755   9.342287237686952  11.673616748318732 
 -0.000308700592675   2.874316769299422  11.673616748318732 
  4.979575081163933   2.874696994334883  11.673616748318732 
  3.734246409494722   9.341937026794549  11.673616748318732 
  8.712472620128306   9.341626045327715  11.673616748318732 
  9.956964335212373   2.874584335803045  11.673616748318732 
 -3.685580819972150   9.370108912147886   5.002978606422314 
  1.291145559421943   9.296874942415556   5.002978606422314 
  2.369740254054250   2.832317134407626   5.002978606422314 
  6.267099609689162   9.317393308679147   5.002978606422314 
  7.385116523583562   2.998756944991915   5.002978606422314 
 12.389994522139428   2.854176471461955   5.002978606422314 
 -1.245145829534210   5.030493584247811  11.673616748318732 
 -2.489252733601376  11.497853289185368  11.673616748318732 
  2.489327764414703  11.497861390111817  11.673616748318732 
  3.735139754693268   5.030978940502736  11.673616748318732 
  7.467852524894679  11.497312233168797  11.673616748318732 
 -4.953258023208103  11.527373194628026   5.002978606422314 
  8.712223514543684   5.030555884287450  11.673616748318732 
  0.013691203184269  11.505884610522855   5.002978606422314 
  1.148343025964815   4.947839189682336   5.002978606422314 
  0.034739486832798   7.163975711270086   5.002978606422314 
  6.129736218422076   5.382880778684891   5.002978606422314 
  4.967586367652787  11.447007736014813   5.002978606422314 
 11.193565194959348   5.038012171343578   5.002978606422314 
 -2.489817736745067   7.186340554629075  11.673616748318732 
  3.734465983662070   0.718403122117442  11.673616748318732 
  7.467762098555883   7.186009455515110  11.673616748318732 
  8.712718244203186   0.718632883777634  11.673616748318732 
 13.691181058645906   0.718120964211879  11.673616748318732 
 -0.001134999638153   1.435889943601862   1.666740782804947 
  3.738062838042636   7.904649277636943   1.667105393871763 
  4.979137957819669   1.437861719662585   1.668004419355466 
  8.710627552155010   7.903578159717126   1.670226990113354 
  9.957152592017342   1.437652319569924   1.667928093069917 
 -4.980347622842154  10.059285231804301   8.337838740551744 
 -0.000003085474064  10.060516228962296   8.338283253319430 
  1.243783689868815   3.592593845829132   8.339578081373864 
  4.979632302138449  10.059792006559681   8.337280787793688 
  6.225272810427885   3.596675236373680   8.338851818972865 
 11.200955857976286   3.593262800247750   8.338196797490211 
 -2.490449318068974  10.060118406488751   1.667527893458964 
 -1.246436022654562   3.592814586183797   1.666740782804947 
  3.736194498285311   3.595009602574810   1.667287825756790 
  2.490841333031672  10.060228226060167   1.668445850953394 
  7.467179150800980  10.059242720746276   1.669244018259265 
  8.712465894504241   3.594334568382231   1.668676425050940 
 -6.224466489292434  12.214927580823028   8.338431307964276 
 -1.244881677403240  12.216709199438446   8.338283253319430 
 -0.001367665938511   5.749369070876027   8.338674596007028 
  4.983869121250368   5.751933176429430   8.321449699463532 
  3.734234035532543  12.216063430764848   8.338029119774710 
  9.955763623367101   5.748887975334729   8.336713194585363 
 -2.491338418399417   5.748960090874689   1.667525904880364 
 -3.734779740952005  12.215429166424949   1.667682852151796 
  1.244812078978746  12.216672579567753   1.668081015489207 
  2.492081200788125   5.749877044212004   1.667287825756790 
  6.222949105442992  12.215423416056426   1.667760415354417 
  7.467237871354083   5.749264851320724   1.670007354129836 
 -1.246060658355818   7.904841269602120   8.338274360692832 
 -0.001134999638153   1.435889943601863   8.339216430039681 
  3.738062838042637   7.904649277636944   8.338851818972865 
  4.979137957819670   1.437861719662586   8.337952793489162 
  8.710627552155010   7.903578159717127   8.335730222731259 
 -3.736120020898149   7.904219809057683   1.668118472292884 
  9.957152592017342   1.437652319569924   8.338029119774710 
  2.489030147108589   1.435873527619999   1.667282616837600 
  1.245408064233451   7.904871597092697   1.668004419355466 
  6.223242658972419   7.903927763538217   1.670007354129836 
  7.468448187119846   1.438760254676306   1.668445850953394 
  1.245408064233451   7.904871597092698   8.337952793489162 
 12.446035641321904   1.436732032521502   1.667206795662697 
 -2.490449318068973  10.060118406488751   8.338429319385664 
 -1.246436022654562   3.592814586183798   8.339216430039681 
  3.736194498285311   3.595009602574811   8.338669387087837 
  2.490841333031673  10.060228226060167   8.337511361891233 
  7.467179150800981  10.059242720746276   8.336713194585363 
  8.712465894504241   3.594334568382232   8.337280787793688 
 -4.980347622842155  10.059285231804301   1.668118472292884 
 -0.000003085474065  10.060516228962296   1.667673959525196 
  1.243783689868814   3.592593845829131   1.666379131470765 
  4.979632302138448  10.059792006559681   1.668676425050940 
  6.225272810427884   3.596675236373680   1.667105393871763 
 11.200955857976286   3.593262800247749   1.667760415354417 
 -2.491338418399416   5.748960090874689   8.338431307964276 
 -3.734779740952004  12.215429166424949   8.338274360692832 
  1.244812078978746  12.216672579567753   8.337876197355314 
  2.492081200788126   5.749877044212005   8.338669387087837 
  6.222949105442993  12.215423416056426   8.338196797490211 
 -6.224466489292435  12.214927580823028   1.667525904880364 
  7.467237871354084   5.749264851320725   8.335949858714791 
 -1.244881677403241  12.216709199438446   1.667673959525196 
 -0.001367665938512   5.749369070876026   1.667282616837600 
 -1.246060658355818   7.904841269602120   1.667682852151796 
  4.983869121250367   5.751933176429429   1.684507513381095 
  3.734234035532543  12.216063430764848   1.667928093069917 
  9.955763623367101   5.748887975334728   1.669244018259265 
 -3.736120020898148   7.904219809057684   8.337838740551744 
  2.489030147108589   1.435873527619999   8.338674596007028 
  6.223242658972420   7.903927763538218   8.335949858714791 
  7.468448187119847   1.438760254676307   8.337511361891233 
 12.446035641321904   1.436732032521503   8.338750417181931 
  3.550110915836814   4.924152490581136   5.002978606422314 
  1.244319901341494   0.718623407891270   1.669047456566556 
  4.978316277959087   7.187856497854013   1.653776316093273 
  6.222846231008074   0.718821134028435   1.668811368956996 
  9.957228148093167   7.186019192166928   1.667892717136014 
 11.202055055390938   0.718519506367473   1.667693876715667 
 -3.734499906301675   9.341865464487023   8.338159532509245 
  1.244554787316505   9.341474849387708   8.337145843887631 
  2.489327477520269   2.874812327175710   8.330898924479575 
  6.223441586178023   9.342542725892386   8.339215824750019 
  7.468388377992276   2.874437487316694   8.339071754878560 
 12.446838297973542   2.874329324637079   8.337954300892699 
 -1.245048882078796   9.341708269348620   1.668228868173638 
 -0.000178449774630   2.874391969644229   1.670009521701176 
  4.977977128015534   2.874830544638348   1.671713671227759 
  3.734144383569403   9.342337813516103   1.666885457966068 
  8.712503555512399   9.341945427947303   1.667892717136014 
  9.957737790408396   2.874293908669481   1.667658964487091 
 -4.979242863648729  11.497846477832995   8.337623404278958 
 -0.000480541987316  11.497702549633276   8.338067024208572 
  1.244938554173702   5.030157166787913   8.330898924479575 
  6.224638773844892   5.029162612363733   8.352180896751355 
  4.978694747021590  11.498249432887860   8.338298248357537 
 11.202240382265074   5.030104047492999   8.338057318754469 
 -1.244879613374513   5.030043437555216   1.669047456566556 
 -2.489910529173503  11.497871890510545   1.668228868173638 
  2.489071334152737  11.497719568776285   1.668424893935392 
  3.734455980851851   5.030584163491338   1.681641911009000 
  7.467932388907141  11.498115223099568   1.667899894090173 
  8.713214438620048   5.030129646157078   1.666741388094610 
 -0.000234079069001   7.185672160203037   8.335513151379731 
  1.244319901341494   0.718623407891271   8.336909756277979 
  4.978316277959088   7.187856497854014   8.352180896751355 
  6.222846231008075   0.718821134028436   8.337145843887631 
  9.957228148093167   7.186019192166929   8.338064495708615 
 -2.489737057340635   7.185895935569621   1.668333808565670 
 11.202055055390938   0.718519506367474   8.338263336128975 
  3.733471903434596   0.718703697982885   1.670444061464896 
  2.489279156206735   7.185381876504835   1.671713671227759 
  7.467852842622765   7.186061846626552   1.666467013887648 
  8.712467208192777   0.718481719324339   1.668424893935392 
  2.489279156206736   7.185381876504835   8.334243541616868 
 13.691432745031566   0.718628507514472   1.668002911951915 
 -1.245048882078796   9.341708269348620   8.337728344670989 
 -0.000178449774629   2.874391969644230   8.335947691143451 
  4.977977128015535   2.874830544638349   8.334243541616868 
  3.734144383569403   9.342337813516103   8.339071754878560 
  8.712503555512399   9.341945427947303   8.338064495708615 
  9.957737790408396   2.874293908669482   8.338298248357537 
 -3.734499906301676   9.341865464487023   1.667797680335382 
  1.244554787316504   9.341474849387708   1.668811368956996 
  2.489327477520269   2.874812327175709   1.675058288365052 
  6.223441586178022   9.342542725892386   1.666741388094610 
  7.468388377992275   2.874437487316693   1.666885457966068 
 12.446838297973542   2.874329324637078   1.668002911951915 
 -1.244879613374512   5.030043437555217   8.336909756277979 
 -2.489910529173503  11.497871890510545   8.337728344670989 
  2.489071334152737  11.497719568776285   8.337532318909236 
  3.734455980851852   5.030584163491339   8.324315301835627 
  7.467932388907141  11.498115223099568   8.338057318754469 
 -4.979242863648730  11.497846477832995   1.668333808565670 
  8.713214438620048   5.030129646157079   8.339215824750019 
 -0.000480541987317  11.497702549633276   1.667890188636043 
  1.244938554173701   5.030157166787912   1.675058288365052 
 -0.000234079069002   7.185672160203036   1.670444061464896 
  6.224638773844891   5.029162612363733   1.653776316093273 
  4.978694747021589  11.498249432887860   1.667658964487091 
 11.202240382265074   5.030104047492999   1.667899894090173 
 -2.489737057340635   7.185895935569622   8.337623404278958 
  3.733471903434597   0.718703697982886   8.335513151379731 
  7.467852842622766   7.186061846626552   8.339490198956980 
  8.712467208192777   0.718481719324340   8.337532318909236 
 13.691432745031566   0.718628507514472   8.337954300892699 
 -0.046653931646226   1.400930962708884   5.002978606422314 
  3.857557113365700   7.719435312778002   5.002978606422314 
  4.952018462693442   1.533522226211547   5.002978606422314 
  8.805601799688207   7.958411567096483   5.002978606422314 
  9.926385318505988   1.444213853064668   5.002978606422314 
 -4.978782673982928  10.060755469464112  11.673616748318732 
 -0.000091126818914  10.060767435176963  11.673616748318732 
  1.244687166253641   3.593115468163135  11.673616748318732 
  4.978629659255777  10.060703873393299  11.673616748318732 
  6.223347698750403   3.592828618119648  11.673616748318732 
 11.202169457268957   3.593073098192521  11.673616748318732 
 -2.441946612323741  10.088121456707187   5.002978606422314 
 -1.299470854202273   3.570873525158056   5.002978606422314 
  3.582525131917137   3.636072721807631   5.002978606422314 
  2.539982687173031   9.985417171710312   5.002978606422314 
  7.504291037270484  10.065158570461877   5.002978606422314 
  8.676221912209444   3.636673827739253   5.002978606422314 
 -6.223508521502899  12.216611629054372  11.673616748318732 
 -1.244708147112175  12.216507350289891  11.673616748318732 
 -0.000010604514404   5.748991895710482  11.673616748318732 
  4.978598257549908   5.748890041853168  11.673616748318732 
  3.733925419004869  12.216547606868151  11.673616748318732 
  9.957518510907162   5.748946103000881  11.673616748318732 
 -2.490474911026122   5.751693315208929   5.002978606422314 
 -3.711594228446220  12.260340016408618   5.002978606422314 
  1.249521624272737  12.219391636811139   5.002978606422314 
  2.450808222018298   5.596263909537283   5.002978606422314 
  6.206925033710945  12.183965549278103   5.002978606422314 
  7.519186283433970   5.829582102427472   5.002978606422314 
 -1.244719841524871   7.904860611040542  11.673616748318732 
 -0.000045333416546   1.437219414095897  11.673616748318732 
  3.733769013077295   7.904905391146048  11.673616748318732 
  4.978772227556380   1.437098604704863  11.673616748318732 
  8.712827447442789   7.904848269853698  11.673616748318732 
 -3.674255686515018   7.931836040543073   5.002978606422314 
  9.957417592558876   1.437142961765269  11.673616748318732 
  2.452547029958347   1.430308073148988   5.002978606422314 
  1.314692745480692   7.833555172100981   5.002978606422314 
  6.318773644832947   7.908757782532275   5.002978606422314 
  7.428230590639601   1.518723442914109   5.002978606422314 
  1.244564322162418   7.904936422872606  11.673616748318732 
 12.408116751245444   1.414839551128503   5.002978606422314 
 -2.489394358760951  10.060727487529164  11.673616748318732 
 -1.244739834322343   3.593093529566339  11.673616748318732 
  3.734069487038687   3.593077891404449  11.673616748318732 
  2.489177488122116  10.060753963584471  11.673616748318732 
  7.468106934606570  10.060733434103666  11.673616748318732 
  8.712754272905693   3.593010320758093  11.673616748318732 
 -4.925499097627400  10.099053201225523   5.002978606422314 
  0.045186071401070  10.050619156259859   5.002978606422314 
  1.152139235228190   3.539682895272699   5.002978606422314 
  4.998177185171543  10.007234167479742   5.002978606422314 
  6.124619949385934   3.792767296839737   5.002978606422314 
 11.165700510331323   3.595114480444973   5.002978606422314 
 -2.489401005955102   5.748947691200750  11.673616748318732 
 -3.734092582359571  12.216580677143265  11.673616748318732 
  1.244570763608640  12.216533256073873  11.673616748318732 
  2.489345784218507   5.749002586074281  11.673616748318732 
  6.223391618290393  12.216569274901433  11.673616748318732 
 -6.221667693898087  12.214308787977524   5.002978606422314 
  7.468074063872392   5.748918825012382  11.673616748318732 
 -1.230858215349083  12.260792693619130   5.002978606422314 
 -0.024429049469134   5.720556491850178   5.002978606422314 
 -1.195573965111526   7.902465087440071   5.002978606422314 
  3.724532853471103  12.186137423551447   5.002978606422314 
  9.979442842740550   5.778069886941857   5.002978606422314 
 -3.734064283305486   7.904839975695403  11.673616748318732 
  2.489382034545613   1.437237364870533  11.673616748318732 
  6.223361087658126   7.904824940655776  11.673616748318732 
  7.468071566716838   1.437056453954521  11.673616748318732 
 12.446847337436150   1.437200665491512  11.673616748318732 
Generated by cif2cell 2.0.0.  :  Failed to get author information, No journal information. Species order: B N 
 1.0
 14.936314146199660   0.000000000000000   0.000000000000000
 -7.468157073099825  12.935227489513863   0.000000000000000
  0.000000000000001   0.000000000000001  13.341276283792837
 B N 
 143 144
Cartesian
  1.209814715315086   0.698679653224471   5.002978606422314 
  5.237193918061842   6.928809390813229   5.002978606422314 
  6.207516964616485   0.781469879739755   5.002978606422314 
 10.017552234202487   7.215486751110983   5.002978606422314 
 11.164264849447438   0.696701320793323   5.002978606422314 
 -3.734363630343619   9.341944143448041  11.673616748318732 
  1.244833853846647   9.342413102762599  11.673616748318732 
  2.489870417833520   2.874519505105565  11.673616748318732 
  6.223315257188856   9.341471441403758  11.673616748318732 
  7.468092299472620   2.874726237720552  11.673616748318732 
 12.446272909387144   2.874365129484608  11.673616748318732 
 -1.202949184088314   9.348461934799305   5.002978606422314 
 -0.090585215137603   2.822195599325414   5.002978606422314 
  4.964370351407831   2.988626587776516   5.002978606422314 
  3.800172264896538   9.208062543340230   5.002978606422314 
  8.768185253200073   9.379453839506118   5.002978606422314 
  9.907806989498916   2.890294618377746   5.002978606422314 
 -4.978898151950512  11.497554297889572  11.673616748318732 
  0.000108963441459  11.498042900751271  11.673616748318732 
  1.244956432978792   5.030773777926998  11.673616748318732 
  6.223585072161042   5.030672099288130  11.673616748318732 
  4.978559536699185  11.497434387472648  11.673616748318732 
 11.201505040579812   5.030436378194744  11.673616748318732 
 -1.279404004576002   5.010132947227427   5.002978606422314 
 -2.463011834329249  11.530954465736510   5.002978606422314 
  2.496561067767782  11.452434316210157   5.002978606422314 
  7.470443431405196  11.486648228584853   5.002978606422314 
  8.713263416178521   5.080513312203467   5.002978606422314 
  0.000002654709436   7.186683346866253  11.673616748318732 
  1.244576631732869   0.718167784587765  11.673616748318732 
  4.979096681140311   7.186189221965694  11.673616748318732 
  6.223798315530999   0.718593686045417  11.673616748318732 
  9.956936086939036   7.186152092648208  11.673616748318732 
 -2.451173750285542   7.193636109107090   5.002978606422314 
 11.201820859809683   0.718384293485585  11.673616748318732 
  3.732169010437650   0.759839918981248   5.002978606422314 
  2.581026032110664   7.116700040729900   5.002978606422314 
  7.574387989125383   7.247569942137997   5.002978606422314 
  8.676993895861195   0.747610645185689   5.002978606422314 
  2.489962474825384   7.186832519677255  11.673616748318732 
 13.645557974306108   0.679476780182676   5.002978606422314 
 -1.244736093512755   9.342287237686952  11.673616748318732 
 -0.000308700592675   2.874316769299422  11.673616748318732 
  4.979575081163933   2.874696994334883  11.673616748318732 
  3.734246409494722   9.341937026794549  11.673616748318732 
  8.712472620128306   9.341626045327715  11.673616748318732 
  9.956964335212373   2.874584335803045  11.673616748318732 
 -3.685580819972150   9.370108912147886   5.002978606422314 
  1.291145559421943   9.296874942415556   5.002978606422314 
  2.369740254054250   2.832317134407626   5.002978606422314 
  6.267099609689162   9.317393308679147   5.002978606422314 
  7.385116523583562   2.998756944991915   5.002978606422314 
 12.389994522139428   2.854176471461955   5.002978606422314 
 -1.245145829534210   5.030493584247811  11.673616748318732 
 -2.489252733601376  11.497853289185368  11.673616748318732 
  2.489327764414703  11.497861390111817  11.673616748318732 
  3.735139754693268   5.030978940502736  11.673616748318732 
  7.467852524894679  11.497312233168797  11.673616748318732 
 -4.953258023208103  11.527373194628026   5.002978606422314 
  8.712223514543684   5.030555884287450  11.673616748318732 
  0.013691203184269  11.505884610522855   5.002978606422314 
  1.148343025964815   4.947839189682336   5.002978606422314 
  0.034739486832798   7.163975711270086   5.002978606422314 
  6.129736218422076   5.382880778684891   5.002978606422314 
  4.967586367652787  11.447007736014813   5.002978606422314 
 11.193565194959348   5.038012171343578   5.002978606422314 
 -2.489817736745067   7.186340554629075  11.673616748318732 
  3.734465983662070   0.718403122117442  11.673616748318732 
  7.467762098555883   7.186009455515110  11.673616748318732 
  8.712718244203186   0.718632883777634  11.673616748318732 
 13.691181058645906   0.718120964211879  11.673616748318732 
 -0.001134999638153   1.435889943601862   1.666740782804947 
  3.738062838042636   7.904649277636943   1.667105393871763 
  4.979137957819669   1.437861719662585   1.668004419355466 
  8.710627552155010   7.903578159717126   1.670226990113354 
  9.957152592017342   1.437652319569924   1.667928093069917 
 -4.980347622842154  10.059285231804301   8.337838740551744 
 -0.000003085474064  10.060516228962296   8.338283253319430 
  1.243783689868815   3.592593845829132   8.339578081373864 
  4.979632302138449  10.059792006559681   8.337280787793688 
  6.225272810427885   3.596675236373680   8.338851818972865 
 11.200955857976286   3.593262800247750   8.338196797490211 
 -2.490449318068974  10.060118406488751   1.667527893458964 
 -1.246436022654562   3.592814586183797   1.666740782804947 
  3.736194498285311   3.595009602574810   1.667287825756790 
  2.490841333031672  10.060228226060167   1.668445850953394 
  7.467179150800980  10.059242720746276   1.669244018259265 
  8.712465894504241   3.594334568382231   1.668676425050940 
 -6.224466489292434  12.214927580823028   8.338431307964276 
 -1.244881677403240  12.216709199438446   8.338283253319430 
 -0.001367665938511   5.749369070876027   8.338674596007028 
  4.983869121250368   5.751933176429430   8.321449699463532 
  3.734234035532543  12.216063430764848   8.338029119774710 
  9.955763623367101   5.748887975334729   8.336713194585363 
 -2.491338418399417   5.748960090874689   1.667525904880364 
 -3.734779740952005  12.215429166424949   1.667682852151796 
  1.244812078978746  12.216672579567753   1.668081015489207 
  2.492081200788125   5.749877044212004   1.667287825756790 
  6.222949105442992  12.215423416056426   1.667760415354417 
  7.467237871354083   5.749264851320724   1.670007354129836 
 -1.246060658355818   7.904841269602120   8.338274360692832 
 -0.001134999638153   1.435889943601863   8.339216430039681 
  3.738062838042637   7.904649277636944   8.338851818972865 
  4.979137957819670   1.437861719662586   8.337952793489162 
  8.710627552155010   7.903578159717127   8.335730222731259 
 -3.736120020898149   7.904219809057683   1.668118472292884 
  9.957152592017342   1.437652319569924   8.338029119774710 
  2.489030147108589   1.435873527619999   1.667282616837600 
  1.245408064233451   7.904871597092697   1.668004419355466 
  6.223242658972419   7.903927763538217   1.670007354129836 
  7.468448187119846   1.438760254676306   1.668445850953394 
  1.245408064233451   7.904871597092698   8.337952793489162 
 12.446035641321904   1.436732032521502   1.667206795662697 
 -2.490449318068973  10.060118406488751   8.338429319385664 
 -1.246436022654562   3.592814586183798   8.339216430039681 
  3.736194498285311   3.595009602574811   8.338669387087837 
  2.490841333031673  10.060228226060167   8.337511361891233 
  7.467179150800981  10.059242720746276   8.336713194585363 
  8.712465894504241   3.594334568382232   8.337280787793688 
 -4.980347622842155  10.059285231804301   1.668118472292884 
 -0.000003085474065  10.060516228962296   1.667673959525196 
  1.243783689868814   3.592593845829131   1.666379131470765 
  4.979632302138448  10.059792006559681   1.668676425050940 
  6.225272810427884   3.596675236373680   1.667105393871763 
 11.200955857976286   3.593262800247749   1.667760415354417 
 -2.491338418399416   5.748960090874689   8.338431307964276 
 -3.734779740952004  12.215429166424949   8.338274360692832 
  1.244812078978746  12.216672579567753   8.337876197355314 
  2.492081200788126   5.749877044212005   8.338669387087837 
  6.222949105442993  12.215423416056426   8.338196797490211 
 -6.224466489292435  12.214927580823028   1.667525904880364 
  7.467237871354084   5.749264851320725   8.335949858714791 
 -1.244881677403241  12.216709199438446   1.667673959525196 
 -0.001367665938512   5.749369070876026   1.667282616837600 
 -1.246060658355818   7.904841269602120   1.667682852151796 
  4.983869121250367   5.751933176429429   1.684507513381095 
  3.734234035532543  12.216063430764848   1.667928093069917 
  9.955763623367101   5.748887975334728   1.669244018259265 
 -3.736120020898148   7.904219809057684   8.337838740551744 
  2.489030147108589   1.435873527619999   8.338674596007028 
  6.223242658972420   7.903927763538218   8.335949858714791 
  7.468448187119847   1.438760254676307   8.337511361891233 
 12.446035641321904   1.436732032521503   8.338750417181931 
  3.550110915836814   4.924152490581136   5.002978606422314 
  1.244319901341494   0.718623407891270   1.669047456566556 
  4.978316277959087   7.187856497854013   1.653776316093273 
  6.222846231008074   0.718821134028435   1.668811368956996 
  9.957228148093167   7.186019192166928   1.667892717136014 
 11.202055055390938   0.718519506367473   1.667693876715667 
 -3.734499906301675   9.341865464487023   8.338159532509245 
  1.244554787316505   9.341474849387708   8.337145843887631 
  2.489327477520269   2.874812327175710   8.330898924479575 
  6.223441586178023   9.342542725892386   8.339215824750019 
  7.468388377992276   2.874437487316694   8.339071754878560 
 12.446838297973542   2.874329324637079   8.337954300892699 
 -1.245048882078796   9.341708269348620   1.668228868173638 
 -0.000178449774630   2.874391969644229   1.670009521701176 
  4.977977128015534   2.874830544638348   1.671713671227759 
  3.734144383569403   9.342337813516103   1.666885457966068 
  8.712503555512399   9.341945427947303   1.667892717136014 
  9.957737790408396   2.874293908669481   1.667658964487091 
 -4.979242863648729  11.497846477832995   8.337623404278958 
 -0.000480541987316  11.497702549633276   8.338067024208572 
  1.244938554173702   5.030157166787913   8.330898924479575 
  6.224638773844892   5.029162612363733   8.352180896751355 
  4.978694747021590  11.498249432887860   8.338298248357537 
 11.202240382265074   5.030104047492999   8.338057318754469 
 -1.244879613374513   5.030043437555216   1.669047456566556 
 -2.489910529173503  11.497871890510545   1.668228868173638 
  2.489071334152737  11.497719568776285   1.668424893935392 
  3.734455980851851   5.030584163491338   1.681641911009000 
  7.467932388907141  11.498115223099568   1.667899894090173 
  8.713214438620048   5.030129646157078   1.666741388094610 
 -0.000234079069001   7.185672160203037   8.335513151379731 
  1.244319901341494   0.718623407891271   8.336909756277979 
  4.978316277959088   7.187856497854014   8.352180896751355 
  6.222846231008075   0.718821134028436   8.337145843887631 
  9.957228148093167   7.186019192166929   8.338064495708615 
 -2.489737057340635   7.185895935569621   1.668333808565670 
 11.202055055390938   0.718519506367474   8.338263336128975 
  3.733471903434596   0.718703697982885   1.670444061464896 
  2.489279156206735   7.185381876504835   1.671713671227759 
  7.467852842622765   7.186061846626552   1.666467013887648 
  8.712467208192777   0.718481719324339   1.668424893935392 
  2.489279156206736   7.185381876504835   8.334243541616868 
 13.691432745031566   0.718628507514472   1.668002911951915 
 -1.245048882078796   9.341708269348620   8.337728344670989 
 -0.000178449774629   2.874391969644230   8.335947691143451 
  4.977977128015535   2.874830544638349   8.334243541616868 
  3.734144383569403   9.342337813516103   8.339071754878560 
  8.712503555512399   9.341945427947303   8.338064495708615 
  9.957737790408396   2.874293908669482   8.338298248357537 
 -3.734499906301676   9.341865464487023   1.667797680335382 
  1.244554787316504   9.341474849387708   1.668811368956996 
  2.489327477520269   2.874812327175709   1.675058288365052 
  6.223441586178022   9.342542725892386   1.666741388094610 