Species order:  N B                     
   2.51242800000000     
     5.9449720136058266    0.0000000000000000    0.0000000000000000
    -2.9724860068029120    5.1484967885702053   -0.0000000000000001
     0.0000000000000000    0.0000000000000009    5.3101128803662583
   N    B 
   144   143
Direct
  0.4280220420665972  0.3806776876999630  0.3750000000000000
  0.1110861289534173  0.0555555291527596  0.1251040321077928
  0.6111432226547016  0.5556807179217345  0.1239593784668339
  0.4444106987350351  0.0555708150174519  0.1250863360789768
  0.9444149423357994  0.5555386790060227  0.1250174782125000
  0.7777616600790331  0.0555474967061808  0.1250025740596946
  0.1110734963200582  0.7222034148266933  0.6249896453039172
  0.4444106987350351  0.7221732170509191  0.6249136639210230
  0.2777861464262583  0.2222467544158940  0.6244454239059616
  0.7777930371693078  0.7222557727311762  0.6250688200558903
  0.6111243741740515  0.2222177761965839  0.6250580212486101
  0.9444320043898883  0.2222094143274402  0.6249742620967803
  0.2777384608622503  0.7221912623432107  0.1250426745303395
  0.1110951812752379  0.2222142573042796  0.1251761440342804
  0.4444042386806596  0.2222481627763315  0.1253038791542435
  0.6111243741740515  0.7222399313108031  0.1249419787513902
  0.9444149423357994  0.7222095966631044  0.1250174782125000
  0.7777830620457759  0.2222066763804175  0.1249999572014699
  0.1110743841613171  0.8888785672423544  0.6249494596261089
  0.4444015474724423  0.8888674404028892  0.6249827113120933
  0.2777861464262583  0.3888727253436926  0.6244454239059616
  0.6111432226547016  0.3887958380662956  0.6260406215331659
  0.7777830620457759  0.8889097189986872  0.6250000427985303
  0.9444346289225671  0.3888686187831433  0.6249819838364080
  0.1110861289534173  0.3888639331339863  0.1251040321077928
  0.2777384608622503  0.8888805318523753  0.1250426745303395
  0.6110799982454053  0.8888687561233137  0.1250573677094306
  0.4444781381030197  0.3889057357181740  0.1260480538171506
  0.9444346289225671  0.8888993434727519  0.1250180161635925
  0.7777930371693078  0.3888705977714599  0.1249311799441101
  0.2777402534739868  0.5555118505668498  0.6247912848867263
  0.1110861289534173  0.0555555291527596  0.6248959678921999
  0.6111432226547016  0.5556807179217345  0.6260406215331659
  0.4444106987350351  0.0555708150174519  0.6249136639210230
  0.9444149423357994  0.5555386790060227  0.6249825217875004
  0.1110743841613171  0.5555291502522836  0.1250505403738906
  0.7777616600790331  0.0555474967061808  0.6249974259403062
  0.2777402534739868  0.0555617362404726  0.1252087151132737
  0.4444042386806596  0.5554894092376631  0.1253038791542435
  0.7777506197632834  0.5555419765483088  0.1249106141300808
  0.6110799982454053  0.0555445754554206  0.1250573677094306
  0.4444042386806596  0.5554894092376631  0.6246961208457559
  0.9444320043898883  0.0555559233957842  0.1250257379032194
  0.2777384608622503  0.7221912623432107  0.6249573254696611
  0.1110951812752379  0.2222142573042796  0.6248238559657197
  0.4444042386806596  0.2222481627763315  0.6246961208457559
  0.6111243741740515  0.7222399313108031  0.6250580212486101
  0.9444149423357994  0.7222095966631044  0.6249825217875004
  0.7777830620457759  0.2222066763804175  0.6250000427985303
  0.1110734963200582  0.7222034148266933  0.1250103546960828
  0.4444106987350351  0.7221732170509191  0.1250863360789768
  0.2777861464262583  0.2222467544158940  0.1255545760940384
  0.7777930371693078  0.7222557727311762  0.1249311799441101
  0.6111243741740515  0.2222177761965839  0.1249419787513902
  0.9444320043898883  0.2222094143274402  0.1250257379032194
  0.1110861289534173  0.3888639331339863  0.6248959678921999
  0.2777384608622503  0.8888805318523753  0.6249573254696611
  0.6110799982454053  0.8888687561233137  0.6249426322905690
  0.4444781381030197  0.3889057357181740  0.6239519461828494
  0.9444346289225671  0.8888993434727519  0.6249819838364080
  0.1110743841613171  0.8888785672423544  0.1250505403738906
  0.7777930371693078  0.3888705977714599  0.6250688200558903
  0.4444015474724423  0.8888674404028892  0.1250172886879063
  0.2777861464262583  0.3888727253436926  0.1255545760940384
  0.2777402534739868  0.5555118505668498  0.1252087151132737
  0.6111432226547016  0.3887958380662956  0.1239593784668339
  0.7777830620457759  0.8889097189986872  0.1249999572014699
  0.9444346289225671  0.3888686187831433  0.1250180161635925
  0.1110743841613171  0.5555291502522836  0.6249494596261089
  0.2777402534739868  0.0555617362404726  0.6247912848867263
  0.7777506197632834  0.5555419765483088  0.6250893858699191
  0.6110799982454053  0.0555445754554206  0.6249426322905690
  0.9444320043898883  0.0555559233957842  0.6249742620967803
  0.0510282476204982  0.1083035426972253  0.3750000000000000
  0.5566550815554067  0.5967761540364002  0.3750000000000000
  0.3908191723652380  0.1185539432881812  0.3750000000000000
  0.8971686541343066  0.6152509937338242  0.3750000000000000
  0.7204054808982472  0.1116496678729032  0.3750000000000000
  0.0555556877313185  0.7777795541377234  0.8750000000000000
  0.3888841385685889  0.7777804791862276  0.8750000000000000
  0.2222217152463639  0.2777775242898466  0.8750000000000000
  0.7222116275280077  0.7777755653349865  0.8750000000000000
  0.5555365391591730  0.2777553484105503  0.8750000000000000
  0.8888826954075851  0.2777742487409126  0.8750000000000000
  0.2264570089525308  0.7798951711429333  0.3750000000000000
  0.0510282476204982  0.2760580382566011  0.3750000000000000
  0.3804025973898971  0.2810984750562195  0.3750000000000000
  0.5560318227066587  0.7719552810188408  0.3750000000000000
  0.8914791773277483  0.7781199502383203  0.3750000000000000
  0.7214535272981871  0.2811449455131252  0.3750000000000000
  0.0555528949776290  0.9444450543260994  0.8750000000000000
  0.3888841385685889  0.9444369927156970  0.8750000000000000
  0.2222215856973998  0.4444445913588293  0.8750000000000000
  0.5555401010942588  0.4444367172137937  0.8750000000000000
  0.7222098010801862  0.9444401048819340  0.8750000000000000
  0.8888855684927740  0.4444410512038813  0.8750000000000000
  0.0555871257580066  0.4446534334144199  0.3750000000000000
  0.2254181552039902  0.9478256201019769  0.3750000000000000
  0.5559866104739101  0.9446599719036228  0.3750000000000000
  0.3804025973898971  0.4326374556670130  0.3750000000000000
  0.8865199736544650  0.9419212425259020  0.3750000000000000
  0.7287538928941844  0.4506748804497882  0.3750000000000000
  0.2222203903638660  0.6111110622096700  0.8750000000000000
  0.0555514348503033  0.1111089399286560  0.8750000000000000
  0.5555365391591730  0.6111145240819522  0.8750000000000000
  0.3888831901217512  0.1110996003641888  0.8750000000000000
  0.8888868829345027  0.6111101081339224  0.8750000000000000
  0.0606034378897145  0.6131964858734131  0.3750000000000000
  0.7222098010801862  0.1111030295315875  0.8750000000000000
  0.2194876024249353  0.1105746361483393  0.3750000000000000
  0.3908191723652380  0.6055985624103924  0.3750000000000000
  0.7287538928941844  0.6114123457777320  0.3750000000000000
  0.5560318227066587  0.1174098750211610  0.3750000000000000
  0.3888831901217512  0.6111169230909053  0.8750000000000000
  0.8854242497513704  0.1093787915423570  0.3750000000000000
  0.2222214484724103  0.7777773909028691  0.8750000000000000
  0.0555514348503033  0.2777758282549829  0.8750000000000000
  0.3888867037747884  0.2777746192958135  0.8750000000000000
  0.5555424461502383  0.7777794377207802  0.8750000000000000
  0.8888855684927740  0.7777778506222286  0.8750000000000000
  0.7222116275280077  0.2777693955263500  0.8750000000000000
  0.0606034378897145  0.7807402853496374  0.3750000000000000
  0.3915232158047496  0.7769959333461701  0.3750000000000000
  0.2139601561924104  0.2736467447628733  0.3750000000000000
  0.7214535272981871  0.7736419151184047  0.3750000000000000
  0.5566550815554067  0.2932122608523426  0.3750000000000000
  0.8865199736544650  0.2779320644619050  0.3750000000000000
  0.0555528949776290  0.4444411739848582  0.8750000000000000
  0.2222203903638660  0.9444426614875395  0.8750000000000000
  0.5555446575605205  0.9444389954469206  0.8750000000000000
  0.3888867037747884  0.4444454178123105  0.8750000000000000
  0.8888826954075851  0.9444417800000019  0.8750000000000000
  0.0555871257580066  0.9442670256769150  0.3750000000000000
  0.7222139136506600  0.4444389423899065  0.8750000000000000
  0.3915232158047496  0.9478606157919157  0.3750000000000000
  0.2194876024249353  0.4422462996099318  0.3750000000000000
  0.2254181552039902  0.6109258684353496  0.3750000000000000
  0.7204054808982472  0.9420891463586797  0.3750000000000000
  0.8914791773277483  0.4466925604227632  0.3750000000000000
  0.0555556877313185  0.6111094669269312  0.8750000000000000
  0.2222215856973998  0.1111103276719061  0.8750000000000000
  0.7222139136506600  0.6111083045940967  0.8750000000000000
  0.5555424461502383  0.1110963417627936  0.8750000000000000
  0.8888816476798084  0.1111074905065723  0.8750000000000000
  0.1080050664033472  0.0540137120735503  0.3750000000000000
  0.6184620780329402  0.5356542354148914  0.3750000000000000
  0.4458060231507674  0.0604140808789995  0.3750000000000000
  0.9495927384400475  0.5578167648740875  0.3750000000000000
  0.7743882079164203  0.0538607706248778  0.3750000000000000
  0.1110856613880659  0.7222094973606943  0.8750000000000000
  0.4444656498669316  0.7222457517918540  0.8750000000000000
  0.2778111779975390  0.2222241168495748  0.8750000000000000
  0.7777431697542441  0.7221729535855913  0.8750000000000000
  0.6111157128406736  0.2222400989894449  0.8750000000000000
  0.9443955351081958  0.2222121823380961  0.8750000000000000
  0.2808181315297386  0.7227133765044156  0.3750000000000000
  0.1030247595743166  0.2181790464538226  0.3750000000000000
  0.4478919397976114  0.2310455374827608  0.3750000000000000
  0.6103547075788072  0.7118593430849891  0.3750000000000000
  0.9495927384400475  0.7251093068992963  0.3750000000000000
  0.7750586424564525  0.2234436634934178  0.3750000000000000
  0.1110861689649513  0.8888559793177383  0.8750000000000000
  0.4444541713815722  0.8888937523574536  0.8750000000000000
  0.2778111779975390  0.3889203944812928  0.8750000000000000
  0.6111310242635906  0.3889125338820918  0.8750000000000000
  0.7777425047164145  0.8888467092514001  0.8750000000000000
  0.9443982430739681  0.3888943106932401  0.8750000000000000
  0.1080050664033472  0.3873246876631253  0.3750000000000000
  0.2808181315297386  0.8914380883586511  0.3750000000000000
  0.6098309806523283  0.8853678317984164  0.3750000000000000
  0.9441594988046824  0.8880128500172626  0.3750000000000000
  0.7797438531757142  0.3927656715989001  0.3750000000000000
  0.2777951895621422  0.5555900236537968  0.8750000000000000
  0.1110857055661278  0.0555203057054825  0.8750000000000000
  0.6111310242635906  0.5555518237148348  0.8750000000000000
  0.4444656498669316  0.0555532314084125  0.8750000000000000
  0.9444005257251555  0.5555489533117042  0.8750000000000000
  0.1139554228104324  0.5561275296424987  0.3750000000000000
  0.7777407539323120  0.0555370436328200  0.8750000000000000
  0.2792431085324827  0.0587419061317026  0.3750000000000000
  0.4478919397976114  0.5501797356481867  0.3750000000000000
  0.7872607881095769  0.5602970607214558  0.3750000000000000
  0.6098309806523283  0.0577964821872476  0.3750000000000000
  0.4445060608457436  0.5556015559450630  0.8750000000000000
  0.9398472701395624  0.0525291712676485  0.3750000000000000
  0.2777817818640511  0.7222360213811794  0.8750000000000000
  0.1110835540588003  0.2222084436960644  0.8750000000000000
  0.4445060608457436  0.2222378382340237  0.8750000000000000
  0.6111157128406736  0.7222089471845574  0.8750000000000000
  0.9444005257251555  0.7221849057467794  0.8750000000000000
  0.7777425047164145  0.2222291287983426  0.8750000000000000
  0.1154404002162218  0.7243868667747753  0.3750000000000000
  0.4458060231507674  0.7187252756051035  0.3750000000000000
  0.2681370567620176  0.2189615247743946  0.3750000000000000
  0.7797438531757142  0.7203115149101501  0.3750000000000000
  0.6103547075788072  0.2318286978271475  0.3750000000000000
  0.9398472701395624  0.2206514322052497  0.3750000000000000
  0.1110857055661278  0.3888987331939737  0.8750000000000000
  0.2777817818640511  0.8888790938161912  0.8750000000000000
  0.6111026484685389  0.8888797200847631  0.8750000000000000
  0.4445391771549766  0.3889362552441525  0.8750000000000000
  0.9443982430739681  0.8888372657140557  0.8750000000000000
  0.1139554228104324  0.8911612265012628  0.3750000000000000
  0.7777431697542441  0.3889035495019736  0.8750000000000000
  0.4456666293422901  0.8894999813378059  0.3750000000000000
  0.2681370567620176  0.3825088653209515  0.3750000000000000
  0.2792431085324827  0.5538345357341159  0.3750000000000000
  0.6184620780329402  0.4161411759513781  0.3750000000000000
  0.7750586424564525  0.8849483122963625  0.3750000000000000
  0.9441594988046824  0.3894799821207415  0.3750000000000000
  0.1110861689649513  0.5555635229805416  0.8750000000000000
  0.2777951895621422  0.0555384992416885  0.8750000000000000
  0.7777425192313846  0.5555379262823601  0.8750000000000000
  0.6111026484685389  0.0555562617170981  0.8750000000000000
  0.9443955351081958  0.0555166861034356  0.8750000000000000
  0.0554270911634308  0.1110061608708377  0.1249311345744132
  0.5558141148529708  0.6110947243908126  0.1249584641236300
  0.3889371736468475  0.1111585954578849  0.1250258508911760
  0.8886905029114047  0.6110119181223739  0.1251924444546865
  0.7222117478338375  0.1111424070999427  0.1250201298279187
  0.0553940822010474  0.7776658926144907  0.6249656002312658
  0.3888803228594220  0.7777610588695097  0.6249989188402376
  0.2221410638106764  0.2777371985720021  0.6250959731270164
  0.7222435079716136  0.7777050704917875  0.6249237786883953
  0.5558141148529708  0.2780527237954944  0.6250415358763698
  0.8888087765846940  0.2777889142777486  0.6249924385135150
  0.2221272744749366  0.7777303039041358  0.1249901327270088
  0.0554270911634308  0.2777542636259289  0.1249311345744132
  0.3891036438564653  0.2779239565356821  0.1249721383689678
  0.5556335201725877  0.7777387938647113  0.1250589385499979
  0.8887658302798355  0.7776626061583337  0.1251187654577758
  0.7222435079716136  0.2778717708131556  0.1250762213116050
  0.0554236627272666  0.9443148634784537  0.6250100163275916
  0.3888803228594220  0.9444525973232478  0.6249989188402376
  0.2221453085630554  0.4444737501166358  0.6250282520673801
  0.5560106200053138  0.4446719766693176  0.6237371539612400
  0.7222117478338375  0.9444026740672307  0.6249798701720808
  0.8887658302798355  0.4444365574548377  0.6248812345422236
  0.0554236627272666  0.4444421325821420  0.1249899836724086
  0.2221298738145759  0.9443536401912971  0.1250017477096790
  0.5555661992758103  0.9444497663045649  0.1250315921809985
  0.3891036438564653  0.4445130206541186  0.1249721383689678
  0.8888087765846940  0.9443531956402809  0.1250075614864852
  0.7221713051376221  0.4444656930835925  0.1251759815632167
  0.2221298738145759  0.6111095669566150  0.6249982522903212
  0.0554270911634308  0.1110061608708377  0.6250688654255870
  0.5558141148529708  0.6110947243908126  0.6250415358763698
  0.3889371736468475  0.1111585954578849  0.6249741491088235
  0.8886905029114047  0.6110119181223739  0.6248075555453132
  0.0553940822010474  0.6110615229198995  0.1250343997687342
  0.7222117478338375  0.1111424070999427  0.6249798701720808
  0.2221453085630554  0.1110048917797550  0.1249717479326203
  0.3889371736468475  0.6111119115223057  0.1250258508911760
  0.7221713051376221  0.6110389453873659  0.1251759815632167
  0.5556335201725877  0.1112280596412132  0.1250589385499979
  0.3889371736468475  0.6111119115223057  0.6249741491088235
  0.8888091892757438  0.1110712613045432  0.1249660647301068
  0.2221272744749366  0.7777303039041358  0.6250098672729911
  0.0554270911634308  0.2777542636259289  0.6250688654255870
  0.3891036438564653  0.2779239565356821  0.6250278616310320
  0.5556335201725877  0.7777387938647113  0.6249410614500019
  0.8887658302798355  0.7776626061583337  0.6248812345422236
  0.7222435079716136  0.2778717708131556  0.6249237786883953
  0.0553940822010474  0.7776658926144907  0.1250343997687342
  0.3888803228594220  0.7777610588695097  0.1250010811597621
  0.2221410638106764  0.2777371985720021  0.1249040268729837
  0.7222435079716136  0.7777050704917875  0.1250762213116050
  0.5558141148529708  0.2780527237954944  0.1249584641236300
  0.8888087765846940  0.2777889142777486  0.1250075614864852
  0.0554236627272666  0.4444421325821420  0.6250100163275916
  0.2221298738145759  0.9443536401912971  0.6249982522903212
  0.5555661992758103  0.9444497663045649  0.6249684078189944
  0.3891036438564653  0.4445130206541186  0.6250278616310320
  0.8888087765846940  0.9443531956402809  0.6249924385135150
  0.0554236627272666  0.9443148634784537  0.1249899836724086
  0.7221713051376221  0.4444656930835925  0.6248240184367835
  0.3888803228594220  0.9444525973232478  0.1250010811597621
  0.2221453085630554  0.4444737501166358  0.1249717479326203
  0.2221298738145759  0.6111095669566150  0.1250017477096790
  0.5560106200053138  0.4446719766693176  0.1262628460387601
  0.7222117478338375  0.9444026740672307  0.1250201298279187
  0.8887658302798355  0.4444365574548377  0.1251187654577758
  0.0553940822010474  0.6110615229198995  0.6249656002312658
  0.2221453085630554  0.1110048917797550  0.6250282520673801
  0.7221713051376221  0.6110389453873659  0.6248240184367835
  0.5556335201725877  0.1112280596412132  0.6249410614500019
  0.8888091892757438  0.1110712613045432  0.6250339352698930
 
  0.00000000E+00  0.00000000E+00  0.00000000E+00
  0.00000000E+00  0.00000000E+00  0.00000000E+00
  0.00000000E+00  0.00000000E+00  0.00000000E+00
  0.00000000E+00  0.00000000E+00  0.00000000E+00
  0.00000000E+00  0.00000000E+00  0.00000000E+00
  0.00000000E+00  0.00000000E+00  0.00000000E+00
  0.00000000E+00  0.00000000E+00  0.00000000E+00
  0.00000000E+00  0.00000000E+00  0.00000000E+00
  0.00000000E+00  0.00000000E+00  0.00000000E+00
  0.00000000E+00  0.00000000E+00  0.00000000E+00
  0.00000000E+00  0.00000000E+00  0.00000000E+00
  0.00000000E+00  0.00000000E+00  0.00000000E+00
  0.00000000E+00  0.00000000E+00  0.00000000E+00
  0.00000000E+00  0.00000000E+00  0.00000000E+00
  0.00000000E+00  0.00000000E+00  0.00000000E+00
  0.00000000E+00  0.00000000E+00  0.00000000E+00
  0.00000000E+00  0.00000000E+00  0.00000000E+00
  0.00000000E+00  0.00000000E+00  0.00000000E+00
  0.00000000E+00  0.00000000E+00  0.00000000E+00
  0.00000000E+00  0.00000000E+00  0.00000000E+00
  0.00000000E+00  0.00000000E+00  0.00000000E+00
  0.00000000E+00  0.00000000E+00  0.00000000E+00
  0.00000000E+00  0.00000000E+00  0.00000000E+00
  0.00000000E+00  0.00000000E+00  0.00000000E+00
  0.00000000E+00  0.00000000E+00  0.00000000E+00
  0.00000000E+00  0.00000000E+00  0.00000000E+00
  0.00000000E+00  0.00000000E+00  0.00000000E+00
  0.00000000E+00  0.00000000E+00  0.00000000E+00
  0.00000000E+00  0.00000000E+00  0.00000000E+00
  0.00000000E+00  0.00000000E+00  0.00000000E+00
  0.00000000E+00  0.00000000E+00  0.00000000E+00
  0.00000000E+00  0.00000000E+00  0.00000000E+00
  0.00000000E+00  0.00000000E+00  0.00000000E+00
  0.00000000E+00  0.00000000E+00  0.00000000E+00
  0.00000000E+00  0.00000000E+00  0.00000000E+00
  0.00000000E+00  0.00000000E+00  0.00000000E+00
  0.00000000E+00  0.00000000E+00  0.00000000E+00
  0.00000000E+00  0.00000000E+00  0.00000000E+00
  0.00000000E+00  0.00000000E+00  0.00000000E+00
  0.00000000E+00  0.00000000E+00  0.00000000E+00
  0.00000000E+00  0.00000000E+00  0.00000000E+00
  0.00000000E+00  0.00000000E+00  0.00000000E+00
  0.00000000E+00  0.00000000E+00  0.00000000E+00
  0.00000000E+00  0.00000000E+00  0.00000000E+00
  0.00000000E+00  0.00000000E+00  0.00000000E+00
  0.00000000E+00  0.00000000E+00  0.00000000E+00
  0.00000000E+00  0.00000000E+00  0.00000000E+00
  0.00000000E+00  0.00000000E+00  0.00000000E+00
  0.00000000E+00  0.00000000E+00  0.00000000E+00
  0.00000000E+00  0.00000000E+00  0.00000000E+00
  0.00000000E+00  0.00000000E+00  0.00000000E+00
  0.00000000E+00  0.00000000E+00  0.00000000E+00
  0.00000000E+00  0.00000000E+00  0.00000000E+00
  0.00000000E+00  0.00000000E+00  0.00000000E+00
  0.00000000E+00  0.00000000E+00  0.00000000E+00
  0.00000000E+00  0.00000000E+00  0.00000000E+00
  0.00000000E+00  0.00000000E+00  0.00000000E+00
  0.00000000E+00  0.00000000E+00  0.00000000E+00
  0.00000000E+00  0.00000000E+00  0.00000000E+00
  0.00000000E+00  0.00000000E+00  0.00000000E+00
  0.00000000E+00  0.00000000E+00  0.00000000E+00
  0.00000000E+00  0.00000000E+00  0.00000000E+00
  0.00000000E+00  0.00000000E+00  0.00000000E+00
  0.00000000E+00  0.00000000E+00  0.00000000E+00
  0.00000000E+00  0.00000000E+00  0.00000000E+00
  0.00000000E+00  0.00000000E+00  0.00000000E+00
  0.00000000E+00  0.00000000E+00  0.00000000E+00
  0.00000000E+00  0.00000000E+00  0.00000000E+00
  0.00000000E+00  0.00000000E+00  0.00000000E+00
  0.00000000E+00  0.00000000E+00  0.00000000E+00
  0.00000000E+00  0.00000000E+00  0.00000000E+00
  0.00000000E+00  0.00000000E+00  0.00000000E+00
  0.00000000E+00  0.00000000E+00  0.00000000E+00
  0.00000000E+00  0.00000000E+00  0.00000000E+00
  0.00000000E+00  0.00000000E+00  0.00000000E+00
  0.00000000E+00  0.00000000E+00  0.00000000E+00
  0.00000000E+00  0.00000000E+00  0.00000000E+00
  0.00000000E+00  0.00000000E+00  0.00000000E+00
  0.00000000E+00  0.00000000E+00  0.00000000E+00
  0.00000000E+00  0.00000000E+00  0.00000000E+00
  0.00000000E+00  0.00000000E+00  0.00000000E+00
  0.00000000E+00  0.00000000E+00  0.00000000E+00
  0.00000000E+00  0.00000000E+00  0.00000000E+00
  0.00000000E+00  0.00000000E+00  0.00000000E+00
  0.00000000E+00  0.00000000E+00  0.00000000E+00
  0.00000000E+00  0.00000000E+00  0.00000000E+00
  0.00000000E+00  0.00000000E+00  0.00000000E+00
  0.00000000E+00  0.00000000E+00  0.00000000E+00
  0.00000000E+00  0.00000000E+00  0.00000000E+00
  0.00000000E+00  0.00000000E+00  0.00000000E+00
  0.00000000E+00  0.00000000E+00  0.00000000E+00
  0.00000000E+00  0.00000000E+00  0.00000000E+00
  0.00000000E+00  0.00000000E+00  0.00000000E+00
  0.00000000E+00  0.00000000E+00  0.00000000E+00
  0.00000000E+00  0.00000000E+00  0.00000000E+00
  0.00000000E+00  0.00000000E+00  0.00000000E+00
  0.00000000E+00  0.00000000E+00  0.00000000E+00
  0.00000000E+00  0.00000000E+00  0.00000000E+00
  0.00000000E+00  0.00000000E+00  0.00000000E+00
  0.00000000E+00  0.00000000E+00  0.00000000E+00
  0.00000000E+00  0.00000000E+00  0.00000000E+00
  0.00000000E+00  0.00000000E+00  0.00000000E+00
  0.00000000E+00  0.00000000E+00  0.00000000E+00
  0.00000000E+00  0.00000000E+00  0.00000000E+00
  0.00000000E+00  0.00000000E+00  0.00000000E+00
  0.00000000E+00  0.00000000E+00  0.00000000E+00
  0.00000000E+00  0.00000000E+00  0.00000000E+00
  0.00000000E+00  0.00000000E+00  0.00000000E+00
  0.00000000E+00  0.00000000E+00  0.00000000E+00
  0.00000000E+00  0.00000000E+00  0.00000000E+00
  0.00000000E+00  0.00000000E+00  0.00000000E+00
  0.00000000E+00  0.00000000E+00  0.00000000E+00
  0.00000000E+00  0.00000000E+00  0.00000000E+00
  0.00000000E+00  0.00000000E+00  0.00000000E+00
  0.00000000E+00  0.00000000E+00  0.00000000E+00
  0.00000000E+00  0.00000000E+00  0.00000000E+00
  0.00000000E+00  0.00000000E+00  0.00000000E+00
  0.00000000E+00  0.00000000E+00  0.00000000E+00
  0.00000000E+00  0.00000000E+00  0.00000000E+00
  0.00000000E+00  0.00000000E+00  0.00000000E+00
  0.00000000E+00  0.00000000E+00  0.00000000E+00
  0.00000000E+00  0.00000000E+00  0.00000000E+00
  0.00000000E+00  0.00000000E+00  0.00000000E+00
  0.00000000E+00  0.00000000E+00  0.00000000E+00
  0.00000000E+00  0.00000000E+00  0.00000000E+00
  0.00000000E+00  0.00000000E+00  0.00000000E+00
  0.00000000E+00  0.00000000E+00  0.00000000E+00
  0.00000000E+00  0.00000000E+00  0.00000000E+00
  0.00000000E+00  0.00000000E+00  0.00000000E+00
  0.00000000E+00  0.00000000E+00  0.00000000E+00
  0.00000000E+00  0.00000000E+00  0.00000000E+00
  0.00000000E+00  0.00000000E+00  0.00000000E+00
  0.00000000E+00  0.00000000E+00  0.00000000E+00
  0.00000000E+00  0.00000000E+00  0.00000000E+00
  0.00000000E+00  0.00000000E+00  0.00000000E+00
  0.00000000E+00  0.00000000E+00  0.00000000E+00
  0.00000000E+00  0.00000000E+00  0.00000000E+00
  0.00000000E+00  0.00000000E+00  0.00000000E+00
  0.00000000E+00  0.00000000E+00  0.00000000E+00
  0.00000000E+00  0.00000000E+00  0.00000000E+00
  0.00000000E+00  0.00000000E+00  0.00000000E+00
  0.00000000E+00  0.00000000E+00  0.00000000E+00
  0.00000000E+00  0.00000000E+00  0.00000000E+00
  0.00000000E+00  0.00000000E+00  0.00000000E+00
  0.00000000E+00  0.00000000E+00  0.00000000E+00
  0.00000000E+00  0.00000000E+00  0.00000000E+00
  0.00000000E+00  0.00000000E+00  0.00000000E+00
  0.00000000E+00  0.00000000E+00  0.00000000E+00
  0.00000000E+00  0.00000000E+00  0.00000000E+00
  0.00000000E+00  0.00000000E+00  0.00000000E+00
  0.00000000E+00  0.00000000E+00  0.00000000E+00
  0.00000000E+00  0.00000000E+00  0.00000000E+00
  0.00000000E+00  0.00000000E+00  0.00000000E+00
  0.00000000E+00  0.00000000E+00  0.00000000E+00
  0.00000000E+00  0.00000000E+00  0.00000000E+00
  0.00000000E+00  0.00000000E+00  0.00000000E+00
  0.00000000E+00  0.00000000E+00  0.00000000E+00
  0.00000000E+00  0.00000000E+00  0.00000000E+00
  0.00000000E+00  0.00000000E+00  0.00000000E+00
  0.00000000E+00  0.00000000E+00  0.00000000E+00
  0.00000000E+00  0.00000000E+00  0.00000000E+00
  0.00000000E+00  0.00000000E+00  0.00000000E+00
  0.00000000E+00  0.00000000E+00  0.00000000E+00
  0.00000000E+00  0.00000000E+00  0.00000000E+00
  0.00000000E+00  0.00000000E+00  0.00000000E+00
  0.00000000E+00  0.00000000E+00  0.00000000E+00
  0.00000000E+00  0.00000000E+00  0.00000000E+00
  0.00000000E+00  0.00000000E+00  0.00000000E+00
  0.00000000E+00  0.00000000E+00  0.00000000E+00
  0.00000000E+00  0.00000000E+00  0.00000000E+00
  0.00000000E+00  0.00000000E+00  0.00000000E+00
  0.00000000E+00  0.00000000E+00  0.00000000E+00
  0.00000000E+00  0.00000000E+00  0.00000000E+00
  0.00000000E+00  0.00000000E+00  0.00000000E+00
  0.00000000E+00  0.00000000E+00  0.00000000E+00
  0.00000000E+00  0.00000000E+00  0.00000000E+00
  0.00000000E+00  0.00000000E+00  0.00000000E+00
  0.00000000E+00  0.00000000E+00  0.00000000E+00
  0.00000000E+00  0.00000000E+00  0.00000000E+00
  0.00000000E+00  0.00000000E+00  0.00000000E+00
  0.00000000E+00  0.00000000E+00  0.00000000E+00
  0.00000000E+00  0.00000000E+00  0.00000000E+00
  0.00000000E+00  0.00000000E+00  0.00000000E+00
  0.00000000E+00  0.00000000E+00  0.00000000E+00
  0.00000000E+00  0.00000000E+00  0.00000000E+00
  0.00000000E+00  0.00000000E+00  0.00000000E+00
  0.00000000E+00  0.00000000E+00  0.00000000E+00
  0.00000000E+00  0.00000000E+00  0.00000000E+00
  0.00000000E+00  0.00000000E+00  0.00000000E+00
  0.00000000E+00  0.00000000E+00  0.00000000E+00
  0.00000000E+00  0.00000000E+00  0.00000000E+00
  0.00000000E+00  0.00000000E+00  0.00000000E+00
  0.00000000E+00  0.00000000E+00  0.00000000E+00
  0.00000000E+00  0.00000000E+00  0.00000000E+00
  0.00000000E+00  0.00000000E+00  0.00000000E+00
  0.00000000E+00  0.00000000E+00  0.00000000E+00
  0.00000000E+00  0.00000000E+00  0.00000000E+00
  0.00000000E+00  0.00000000E+00  0.00000000E+00
  0.00000000E+00  0.00000000E+00  0.00000000E+00
  0.00000000E+00  0.00000000E+00  0.00000000E+00
  0.00000000E+00  0.00000000E+00  0.00000000E+00
  0.00000000E+00  0.00000000E+00  0.00000000E+00
  0.00000000E+00  0.00000000E+00  0.00000000E+00
  0.00000000E+00  0.00000000E+00  0.00000000E+00
  0.00000000E+00  0.00000000E+00  0.00000000E+00
  0.00000000E+00  0.00000000E+00  0.00000000E+00
  0.00000000E+00  0.00000000E+00  0.00000000E+00
  0.00000000E+00  0.00000000E+00  0.00000000E+00
  0.00000000E+00  0.00000000E+00  0.00000000E+00
  0.00000000E+00  0.00000000E+00  0.00000000E+00
  0.00000000E+00  0.00000000E+00  0.00000000E+00
  0.00000000E+00  0.00000000E+00  0.00000000E+00
  0.00000000E+00  0.00000000E+00  0.00000000E+00
  0.00000000E+00  0.00000000E+00  0.00000000E+00
  0.00000000E+00  0.00000000E+00  0.00000000E+00
  0.00000000E+00  0.00000000E+00  0.00000000E+00
  0.00000000E+00  0.00000000E+00  0.00000000E+00
  0.00000000E+00  0.00000000E+00  0.00000000E+00
  0.00000000E+00  0.00000000E+00  0.00000000E+00
  0.00000000E+00  0.00000000E+00  0.00000000E+00
  0.00000000E+00  0.00000000E+00  0.00000000E+00
  0.00000000E+00  0.00000000E+00  0.00000000E+00
  0.00000000E+00  0.00000000E+00  0.00000000E+00
  0.00000000E+00  0.00000000E+00  0.00000000E+00
  0.00000000E+00  0.00000000E+00  0.00000000E+00
  0.00000000E+00  0.00000000E+00  0.00000000E+00
  0.00000000E+00  0.00000000E+00  0.00000000E+00
  0.00000000E+00  0.00000000E+00  0.00000000E+00
  0.00000000E+00  0.00000000E+00  0.00000000E+00
  0.00000000E+00  0.00000000E+00  0.00000000E+00
  0.00000000E+00  0.00000000E+00  0.00000000E+00
  0.00000000E+00  0.00000000E+00  0.00000000E+00
  0.00000000E+00  0.00000000E+00  0.00000000E+00
  0.00000000E+00  0.00000000E+00  0.00000000E+00
  0.00000000E+00  0.00000000E+00  0.00000000E+00
  0.00000000E+00  0.00000000E+00  0.00000000E+00
  0.00000000E+00  0.00000000E+00  0.00000000E+00
  0.00000000E+00  0.00000000E+00  0.00000000E+00
  0.00000000E+00  0.00000000E+00  0.00000000E+00
  0.00000000E+00  0.00000000E+00  0.00000000E+00
  0.00000000E+00  0.00000000E+00  0.00000000E+00
  0.00000000E+00  0.00000000E+00  0.00000000E+00
  0.00000000E+00  0.00000000E+00  0.00000000E+00
  0.00000000E+00  0.00000000E+00  0.00000000E+00
  0.00000000E+00  0.00000000E+00  0.00000000E+00
  0.00000000E+00  0.00000000E+00  0.00000000E+00
  0.00000000E+00  0.00000000E+00  0.00000000E+00
  0.00000000E+00  0.00000000E+00  0.00000000E+00