B C N                                   
   1.0000000000000000     
     8.7639499999999995  -15.1796066749929999    0.0000000000000000
     8.7639499999999995   15.1796066749929999    0.0000000000000000
     0.0000000000000000    0.0000000000000000   15.0000000000000000
   B    C    N 
    46     4    47
Selective dynamics
Direct
  0.9051307974630308  0.9530186879413465  0.1110066535770744   T   T   T
  0.9049991376930174  0.0956528392410199  0.1110238235513543   T   T   T
  0.9048479270042133  0.2383032129364892  0.1110494120083213   T   T   T
  0.9042953914540309  0.3808431872225260  0.1109810306544196   T   T   T
  0.9032296055391897  0.5233141905645101  0.1110133381453445   T   T   T
  0.9044962987182956  0.6662651574955107  0.1110573266422217   T   T   T
  0.9052669180478686  0.8101806678030081  0.1109943272082834   T   T   T
  0.0479316345892844  0.9528257782373867  0.1110116888374692   T   T   T
  0.0480877240752259  0.0958208391258660  0.1110122238240375   T   T   T
  0.0480702002960048  0.2384716666369722  0.1109912722768617   T   T   T
  0.0478422281939898  0.3809400336331187  0.1109914684474323   T   T   T
  0.0471521188508249  0.5234506122706493  0.1109708971909311   T   T   T
  0.0471507313483354  0.6662673955787839  0.1110061268867869   T   T   T
  0.0474223790703592  0.8093786699156867  0.1109848783848169   T   T   T
  0.1902948181905141  0.9522064850563607  0.1109688437795011   T   T   T
  0.1908593058220975  0.0956267169614008  0.1110919051948370   T   T   T
  0.1913371882888011  0.2387055616761233  0.1108952143762454   T   T   T
  0.1916083071743667  0.3812362174395440  0.1111564010871160   T   T   T
  0.1908866251467328  0.5235647793747606  0.1110383245690708   T   T   T
  0.1899753792038051  0.6663109404946735  0.1110684285202489   T   T   T
  0.1902460612066394  0.8092661595128416  0.1109785442038570   T   T   T
  0.3332354764076076  0.9521242960229088  0.1110278680570606   T   T   T
  0.3330305396172618  0.0946278087323456  0.1110557496973615   T   T   T
  0.3340332207818393  0.2378254160487370  0.1093375310568444   T   T   T
  0.3357278330301907  0.3814840393438448  0.1106744957233888   T   T   T
  0.3352742478886281  0.5244933494021021  0.1124960668855725   T   T   T
  0.3326615657455477  0.6663688023231644  0.1111594900624010   T   T   T
  0.3332727212903582  0.8093137207004916  0.1110346846568434   T   T   T
  0.4761949077192385  0.9523873862931385  0.1109997811608872   T   T   T
  0.4761011548043434  0.0951889822634377  0.1109501455015870   T   T   T
  0.4752808591617673  0.2371816009478414  0.1117527289292842   T   T   T
  0.4752240413076403  0.6658695415269011  0.1099967948842563   T   T   T
  0.4763896052160276  0.8094941325970429  0.1111000431773965   T   T   T
  0.6191187856020376  0.9525817137677450  0.1110191632397209   T   T   T
  0.6190400073960083  0.0953558368918550  0.1109708577582315   T   T   T
  0.6187673225395059  0.2380570514612500  0.1110332182932760   T   T   T
  0.6170105069771772  0.3808580978349273  0.1117376566057625   T   T   T
  0.6193992496735188  0.6668997047373788  0.1098350598949362   T   T   T
  0.6188295965077685  0.8095845167332334  0.1109616943911186   T   T   T
  0.7619896537574239  0.9527609734263013  0.1110012428234155   T   T   T
  0.7619765666544804  0.0955183102694969  0.1110430424252289   T   T   T
  0.7617504212859384  0.2382624992448709  0.1110390335416798   T   T   T
  0.7606748946352718  0.3808634333399437  0.1109879444946931   T   T   T
  0.7581329204184576  0.5236546857353140  0.1108465666336036   T   T   T
  0.7639126335419394  0.6672562175731707  0.1113289753906380   T   T   T
  0.7622249451989878  0.8103032573207025  0.1110420816999569   T   T   T
  0.4770233820101880  0.3788687372891896  0.1106790503926814   T   T   T
  0.4789999013460991  0.5232511319670612  0.1116861509841249   T   T   T
  0.5150758246224827  0.4684520066412310  0.1140699485342533   T   T   T
  0.5220122411790372  0.6155271089135335  0.1083286913863615   T   T   T
  0.9531454039181095  0.9057093543474420  0.1109715754944922   T   T   T
  0.9529910427055335  0.0484375261801835  0.1109839952951343   T   T   T
  0.9527583851540329  0.1909288907026926  0.1110075905465321   T   T   T
  0.9524245728612286  0.3334241706429990  0.1110024351242056   T   T   T
  0.9516995586974637  0.4759278062270541  0.1109651462884841   T   T   T
  0.9521730065196358  0.6186520011971328  0.1110064208313572   T   T   T
  0.9526451085007112  0.7620024241785097  0.1110204670511297   T   T   T
  0.0952656494968643  0.9048371993967361  0.1109525138449491   T   T   T
  0.0957137400984304  0.0482054599845373  0.1110762648000189   T   T   T
  0.0959068717639934  0.1910784879535995  0.1109879197489759   T   T   T
  0.0958725998418658  0.3335326936009739  0.1109837471273558   T   T   T
  0.0951969476272691  0.4759572071193696  0.1109127860418724   T   T   T
  0.0947293300491403  0.6186739780484638  0.1109978848150353   T   T   T
  0.0950578777224703  0.7616965933509614  0.1109608277805438   T   T   T
  0.2378985353871769  0.9045972514372677  0.1109535614097438   T   T   T
  0.2378390005101965  0.0473618302348266  0.1110073419934894   T   T   T
  0.2386351222125933  0.1908935874317047  0.1107641610269172   T   T   T
  0.2397518478105647  0.3337722987538948  0.1109462212354960   T   T   T
  0.2389072075768026  0.4759482222130306  0.1113377239916669   T   T   T
  0.2371500439702785  0.6186740375897487  0.1111049581060654   T   T   T
  0.2377229446259443  0.7617032780768734  0.1110214202990114   T   T   T
  0.3808043448077154  0.9047379970814747  0.1110015420428269   T   T   T
  0.3807625822694099  0.0472229403908574  0.1110624221081645   T   T   T
  0.3802311761692158  0.1891042854336364  0.1108465041649531   T   T   T
  0.3827200622655993  0.3325014059260145  0.1069640272658206   T   T   T
  0.3830167377059564  0.4759774048063398  0.1140672759137512   T   T   T
  0.3790920316053541  0.6190313900172620  0.1113206921851283   T   T   T
  0.3805566526111717  0.7620350064599604  0.1110156312056137   T   T   T
  0.5238407360152169  0.9052325062103775  0.1110720814572836   T   T   T
  0.5237625792448225  0.0477322730820785  0.1108963052108669   T   T   T
  0.5235279191962626  0.1902126304108363  0.1110892447473980   T   T   T
  0.5211611937152242  0.3313345901979051  0.1130527358291523   T   T   T
  0.5236455288875773  0.7626610093715726  0.1108781239065513   T   T   T
  0.6669761340223608  0.9056377859276944  0.1109983945546376   T   T   T
  0.6668162846224780  0.0480510041385253  0.1109896852748281   T   T   T
  0.6665810567173199  0.1904719461421251  0.1109740560803727   T   T   T
  0.6654492919555313  0.3326130992495742  0.1111437658979182   T   T   T
  0.6639878141129770  0.4728361372979958  0.1100974900825187   T   T   T
  0.6731999926521984  0.6290947966898880  0.1120829073562280   T   T   T
  0.6679406999142994  0.7640764994854304  0.1108456897935315   T   T   T
  0.8103714668726402  0.9060465179085405  0.1110186610508731   T   T   T
  0.8098920853833377  0.0483020044850929  0.1110099778970223   T   T   T
  0.8096526815242456  0.1907890770437102  0.1110523096334878   T   T   T
  0.8090697484607987  0.3333237601529331  0.1109636691308636   T   T   T
  0.8077859712389761  0.4758114228470591  0.1110055836527731   T   T   T
  0.8101688249028488  0.6188647869162960  0.1110610666017921   T   T   T
  0.8111781434927474  0.7637511543161282  0.1109765062284017   T   T   T

  0.00000000E+00  0.00000000E+00  0.00000000E+00
  0.00000000E+00  0.00000000E+00  0.00000000E+00
  0.00000000E+00  0.00000000E+00  0.00000000E+00
  0.00000000E+00  0.00000000E+00  0.00000000E+00
  0.00000000E+00  0.00000000E+00  0.00000000E+00
  0.00000000E+00  0.00000000E+00  0.00000000E+00
  0.00000000E+00  0.00000000E+00  0.00000000E+00
  0.00000000E+00  0.00000000E+00  0.00000000E+00
  0.00000000E+00  0.00000000E+00  0.00000000E+00
  0.00000000E+00  0.00000000E+00  0.00000000E+00
  0.00000000E+00  0.00000000E+00  0.00000000E+00
  0.00000000E+00  0.00000000E+00  0.00000000E+00
  0.00000000E+00  0.00000000E+00  0.00000000E+00
  0.00000000E+00  0.00000000E+00  0.00000000E+00
  0.00000000E+00  0.00000000E+00  0.00000000E+00
  0.00000000E+00  0.00000000E+00  0.00000000E+00
  0.00000000E+00  0.00000000E+00  0.00000000E+00
  0.00000000E+00  0.00000000E+00  0.00000000E+00
  0.00000000E+00  0.00000000E+00  0.00000000E+00
  0.00000000E+00  0.00000000E+00  0.00000000E+00
  0.00000000E+00  0.00000000E+00  0.00000000E+00
  0.00000000E+00  0.00000000E+00  0.00000000E+00
  0.00000000E+00  0.00000000E+00  0.00000000E+00
  0.00000000E+00  0.00000000E+00  0.00000000E+00
  0.00000000E+00  0.00000000E+00  0.00000000E+00
  0.00000000E+00  0.00000000E+00  0.00000000E+00
  0.00000000E+00  0.00000000E+00  0.00000000E+00
  0.00000000E+00  0.00000000E+00  0.00000000E+00
  0.00000000E+00  0.00000000E+00  0.00000000E+00
  0.00000000E+00  0.00000000E+00  0.00000000E+00
  0.00000000E+00  0.00000000E+00  0.00000000E+00
  0.00000000E+00  0.00000000E+00  0.00000000E+00
  0.00000000E+00  0.00000000E+00  0.00000000E+00
  0.00000000E+00  0.00000000E+00  0.00000000E+00
  0.00000000E+00  0.00000000E+00  0.00000000E+00
  0.00000000E+00  0.00000000E+00  0.00000000E+00
  0.00000000E+00  0.00000000E+00  0.00000000E+00
  0.00000000E+00  0.00000000E+00  0.00000000E+00
  0.00000000E+00  0.00000000E+00  0.00000000E+00
  0.00000000E+00  0.00000000E+00  0.00000000E+00
  0.00000000E+00  0.00000000E+00  0.00000000E+00
  0.00000000E+00  0.00000000E+00  0.00000000E+00
  0.00000000E+00  0.00000000E+00  0.00000000E+00
  0.00000000E+00  0.00000000E+00  0.00000000E+00
  0.00000000E+00  0.00000000E+00  0.00000000E+00
  0.00000000E+00  0.00000000E+00  0.00000000E+00
  0.00000000E+00  0.00000000E+00  0.00000000E+00
  0.00000000E+00  0.00000000E+00  0.00000000E+00
  0.00000000E+00  0.00000000E+00  0.00000000E+00
  0.00000000E+00  0.00000000E+00  0.00000000E+00
  0.00000000E+00  0.00000000E+00  0.00000000E+00
  0.00000000E+00  0.00000000E+00  0.00000000E+00
  0.00000000E+00  0.00000000E+00  0.00000000E+00
  0.00000000E+00  0.00000000E+00  0.00000000E+00
  0.00000000E+00  0.00000000E+00  0.00000000E+00
  0.00000000E+00  0.00000000E+00  0.00000000E+00
  0.00000000E+00  0.00000000E+00  0.00000000E+00
  0.00000000E+00  0.00000000E+00  0.00000000E+00
  0.00000000E+00  0.00000000E+00  0.00000000E+00
  0.00000000E+00  0.00000000E+00  0.00000000E+00
  0.00000000E+00  0.00000000E+00  0.00000000E+00
  0.00000000E+00  0.00000000E+00  0.00000000E+00
  0.00000000E+00  0.00000000E+00  0.00000000E+00
  0.00000000E+00  0.00000000E+00  0.00000000E+00
  0.00000000E+00  0.00000000E+00  0.00000000E+00
  0.00000000E+00  0.00000000E+00  0.00000000E+00
  0.00000000E+00  0.00000000E+00  0.00000000E+00
  0.00000000E+00  0.00000000E+00  0.00000000E+00
  0.00000000E+00  0.00000000E+00  0.00000000E+00
  0.00000000E+00  0.00000000E+00  0.00000000E+00
  0.00000000E+00  0.00000000E+00  0.00000000E+00
  0.00000000E+00  0.00000000E+00  0.00000000E+00
  0.00000000E+00  0.00000000E+00  0.00000000E+00
  0.00000000E+00  0.00000000E+00  0.00000000E+00
  0.00000000E+00  0.00000000E+00  0.00000000E+00
  0.00000000E+00  0.00000000E+00  0.00000000E+00
  0.00000000E+00  0.00000000E+00  0.00000000E+00
  0.00000000E+00  0.00000000E+00  0.00000000E+00
  0.00000000E+00  0.00000000E+00  0.00000000E+00
  0.00000000E+00  0.00000000E+00  0.00000000E+00
  0.00000000E+00  0.00000000E+00  0.00000000E+00
  0.00000000E+00  0.00000000E+00  0.00000000E+00
  0.00000000E+00  0.00000000E+00  0.00000000E+00
  0.00000000E+00  0.00000000E+00  0.00000000E+00
  0.00000000E+00  0.00000000E+00  0.00000000E+00
  0.00000000E+00  0.00000000E+00  0.00000000E+00
  0.00000000E+00  0.00000000E+00  0.00000000E+00
  0.00000000E+00  0.00000000E+00  0.00000000E+00
  0.00000000E+00  0.00000000E+00  0.00000000E+00
  0.00000000E+00  0.00000000E+00  0.00000000E+00
  0.00000000E+00  0.00000000E+00  0.00000000E+00
  0.00000000E+00  0.00000000E+00  0.00000000E+00
  0.00000000E+00  0.00000000E+00  0.00000000E+00
  0.00000000E+00  0.00000000E+00  0.00000000E+00
  0.00000000E+00  0.00000000E+00  0.00000000E+00
  0.00000000E+00  0.00000000E+00  0.00000000E+00
  0.00000000E+00  0.00000000E+00  0.00000000E+00
