Species order: X N B                    
   2.51242800000000     
     5.9449720136058266    0.0000000000000000    0.0000000000000000
    -2.9724860068029120    5.1484967885702053   -0.0000000000000001
     0.0000000000000000    0.0000000000000009    5.3101128803662583
   Pb   N    B 
     1   143   143
Direct
  0.4930423414450933  0.4131878373892073  0.3750000000000000
  0.1111154649732853  0.0555365155673431  0.1251111268076957
  0.6111388796792118  0.5556104256647223  0.1238465250281589
  0.4444533987174555  0.0555338510499114  0.1251130061091102
  0.9444548351707405  0.5555646774406832  0.1252227383244068
  0.7777971496356906  0.0555652414845096  0.1250648776052143
  0.1111199945631727  0.7222266639482545  0.6248648136318696
  0.4444533987174555  0.7222528810008798  0.6248869938908899
  0.2777654126795130  0.2221961315797528  0.6254078123417490
  0.7777839391587433  0.7222252942040064  0.6248872792802779
  0.6111206747908664  0.2221990359176138  0.6250839074354895
  0.9444642087247597  0.2222388134303040  0.6248825953934086
  0.2777857503569592  0.7222380979247345  0.1251446040417563
  0.1111274896400909  0.2222304114867062  0.1250700048350349
  0.4444673207562124  0.2222081517147728  0.1245807380909344
  0.6111206747908664  0.7222549722065810  0.1249160925645104
  0.9444548351707405  0.7222234910633927  0.1252227383244068
  0.7777921873239676  0.2222282351467468  0.1251132928343715
  0.1111192778499982  0.8888785040883892  0.6248514011599118
  0.4444547545753905  0.8888940439543599  0.6248723710667362
  0.2777654126795130  0.3889026144330818  0.6254078123417490
  0.6111388796792118  0.3888617873478111  0.6261534749718413
  0.7777921873239676  0.8888972855105495  0.6248867071656284
  0.9444564024723329  0.3889060104295663  0.6248100949377382
  0.1111154649732853  0.3889122827392708  0.1251111268076957
  0.2777857503569592  0.8888809857655533  0.1251446040417563
  0.6111224036043916  0.8889074737854338  0.1251019525318923
  0.4444205877217456  0.3888769605275336  0.1246332050968764
  0.9444564024723329  0.8888837253761021  0.1251899050622620
  0.7777839391587433  0.3888919782880662  0.1251127207197226
  0.2777876586831815  0.5555865146088693  0.6248980677122408
  0.1111154649732853  0.0555365155673431  0.6248888731923041
  0.6111388796792118  0.5556104256647223  0.6261534749718413
  0.4444533987174555  0.0555338510499114  0.6248869938908899
  0.9444548351707405  0.5555646774406832  0.6247772616755932
  0.1111192778499982  0.5555741070949375  0.1251485988400884
  0.7777971496356906  0.0555652414845096  0.6249351223947855
  0.2777876586831815  0.0555344774076550  0.1251019322877593
  0.4444673207562124  0.5555925023747683  0.1245807380909344
  0.7777832881244879  0.5555583107289117  0.1249508293843350
  0.6111224036043916  0.0555482631522864  0.1251019525318923
  0.4444673207562124  0.5555925023747683  0.6254192619090659
  0.9444642087247597  0.0555587286277912  0.1251174046065913
  0.2777857503569592  0.7222380979247345  0.6248553959582439
  0.1111274896400909  0.2222304114867062  0.6249299951649648
  0.4444673207562124  0.2222081517147728  0.6254192619090659
  0.6111206747908664  0.7222549722065810  0.6250839074354895
  0.9444548351707405  0.7222234910633927  0.6247772616755932
  0.7777921873239676  0.2222282351467468  0.6248867071656284
  0.1111199945631727  0.7222266639482545  0.1251351863681301
  0.4444533987174555  0.7222528810008798  0.1251130061091102
  0.2777654126795130  0.2221961315797528  0.1245921876582511
  0.7777839391587433  0.7222252942040064  0.1251127207197226
  0.6111206747908664  0.2221990359176138  0.1249160925645104
  0.9444642087247597  0.2222388134303040  0.1251174046065913
  0.1111154649732853  0.3889122827392708  0.6248888731923041
  0.2777857503569592  0.8888809857655533  0.6248553959582439
  0.6111224036043916  0.8889074737854338  0.6248980474681077
  0.4444205877217456  0.3888769605275336  0.6253667949031237
  0.9444564024723329  0.8888837253761021  0.6248100949377382
  0.1111192778499982  0.8888785040883892  0.1251485988400884
  0.7777839391587433  0.3888919782880662  0.6248872792802779
  0.4444547545753905  0.8888940439543599  0.1251276289332637
  0.2777654126795130  0.3889026144330818  0.1245921876582511
  0.2777876586831815  0.5555865146088693  0.1251019322877593
  0.6111388796792118  0.3888617873478111  0.1238465250281589
  0.7777921873239676  0.8888972855105495  0.1251132928343715
  0.9444564024723329  0.3889060104295663  0.1251899050622620
  0.1111192778499982  0.5555741070949375  0.6248514011599118
  0.2777876586831815  0.0555344774076550  0.6248980677122408
  0.7777832881244879  0.5555583107289117  0.6250491706156649
  0.6111224036043916  0.0555482631522864  0.6248980474681077
  0.9444642087247597  0.0555587286277912  0.6248825953934086
  0.0561422357901488  0.1115080088830870  0.3750000000000000
  0.5536549471553056  0.6181828635003231  0.3750000000000000
  0.3859814292106754  0.1025733795472046  0.3750000000000000
  0.8871331566292122  0.6102332449812813  0.3750000000000000
  0.7226505229407235  0.1105477398805453  0.3750000000000000
  0.0555568016806613  0.7777820912672408  0.8750000000000000
  0.3888985567340466  0.7777819237672517  0.8750000000000000
  0.2222221582384703  0.2777777457859065  0.8750000000000000
  0.7222312760813298  0.7777860535084571  0.8750000000000000
  0.5555631963359083  0.2777798354853110  0.8750000000000000
  0.8888956668503220  0.2777780330035212  0.8750000000000000
  0.2195501045358828  0.7764417189346094  0.3750000000000000
  0.0561422357901488  0.2779675602403977  0.3750000000000000
  0.3847316293871016  0.2621676428483903  0.3750000000000000
  0.5547325736002620  0.7810555590696774  0.3750000000000000
  0.8884954430581757  0.7781870694295235  0.3750000000000000
  0.7225152686405124  0.2759779503026489  0.3750000000000000
  0.0555558965378425  0.9444484179163380  0.8750000000000000
  0.3888985567340466  0.9444499663001306  0.8750000000000000
  0.2222218240125199  0.4444421097758182  0.8750000000000000
  0.5555604636532001  0.4444468984932679  0.8750000000000000
  0.7222285477220115  0.9444492073731797  0.8750000000000000
  0.8888954523571051  0.4444429608997544  0.8750000000000000
  0.0543242795991231  0.4442239415208489  0.3750000000000000
  0.2194439279617896  0.9413589211492834  0.3750000000000000
  0.5549053749881544  0.9441193541607449  0.3750000000000000
  0.3847316293871016  0.4558973198720472  0.3750000000000000
  0.8892754319700195  0.9452974679852777  0.3750000000000000
  0.7231018898773131  0.4438196035057057  0.3750000000000000
  0.2222251712094296  0.6111081322896393  0.8750000000000000
  0.0555563955862529  0.1111123995975947  0.8750000000000000
  0.5555631963359083  0.6111166941839329  0.8750000000000000
  0.3888964968998050  0.1111163680805711  0.8750000000000000
  0.8888960631213464  0.6111146982273411  0.8750000000000000
  0.0532496362280246  0.6102595365827190  0.3750000000000000
  0.7222285477220115  0.1111126736821605  0.8750000000000000
  0.2202152288264457  0.1079446628293276  0.3750000000000000
  0.3859814292106754  0.6167413829968136  0.3750000000000000
  0.7231018898773131  0.6126156197049430  0.3750000000000000
  0.5547325736002620  0.1070103478639199  0.3750000000000000
  0.3888964968998050  0.6111134621525693  0.8750000000000000
  0.8896003654470053  0.1114668493901740  0.3750000000000000
  0.2222257444073738  0.7777795388703548  0.8750000000000000
  0.0555563955862530  0.2777773293219938  0.8750000000000000
  0.3888970095954135  0.2777830125112400  0.8750000000000000
  0.5555641395406579  0.7777839147445080  0.8750000000000000
  0.8888954523571051  0.7777858247906860  0.8750000000000000
  0.7222312760813298  0.2777785559062153  0.8750000000000000
  0.0532496362280246  0.7763234329786481  0.3750000000000000
  0.3867477359472312  0.7788080292856618  0.3750000000000000
  0.2239099768557907  0.2786216550945669  0.3750000000000000
  0.7225152686405124  0.7798706516712064  0.3750000000000000
  0.5536549471553056  0.2688054169883109  0.3750000000000000
  0.8892754319700195  0.2773112973180703  0.3750000000000000
  0.0555558965378425  0.4444408119548330  0.8750000000000000
  0.2222251712094296  0.9444503722531186  0.8750000000000000
  0.5555636589245543  0.9444484961289447  0.8750000000000000
  0.3888970095954135  0.4444473304175090  0.8750000000000000
  0.8888956668503220  0.9444509671801437  0.8750000000000000
  0.0543242795991231  0.9434336714116031  0.3750000000000000
  0.7222325333908410  0.4444485028793723  0.8750000000000000
  0.3867477359472312  0.9412730399949117  0.3750000000000000
  0.2202152288264457  0.4456038993304537  0.3750000000000000
  0.2194439279617896  0.6114183401458417  0.3750000000000000
  0.7226505229407235  0.9454361163935138  0.3750000000000000
  0.8884954430581757  0.4436417069619953  0.3750000000000000
  0.0555568016806613  0.6111080437467562  0.8750000000000000
  0.2222218240125199  0.1111130475700375  0.8750000000000000
  0.7222325333908410  0.6111173638448044  0.8750000000000000
  0.5555641395406579  0.1111135581294859  0.8750000000000000
  0.8888944751975778  0.1111139042654567  0.8750000000000000
  0.1098445637162735  0.0542372342249499  0.3750000000000000
  0.6181792944255972  0.5759033961026330  0.3750000000000000
  0.4432640681430253  0.0503624647997604  0.3750000000000000
  0.9430831350658569  0.5547113775840953  0.3750000000000000
  0.7788151651318276  0.0560742492325819  0.3750000000000000
  0.1111251482021364  0.7222292407677360  0.8750000000000000
  0.4444436714799638  0.7222483111834309  0.8750000000000000
  0.2777132311673938  0.2221817191016416  0.8750000000000000
  0.7778254403532038  0.7222883045285544  0.8750000000000000
  0.6111339829039021  0.2221824945444134  0.8750000000000000
  0.9444507935360980  0.2222123591285892  0.8750000000000000
  0.2755316653407882  0.7221087195341557  0.3750000000000000
  0.1122679998437829  0.2228006665885522  0.3750000000000000
  0.4408711576214824  0.2103495972156299  0.3750000000000000
  0.6118703613909677  0.7290517035884900  0.3750000000000000
  0.9430831350658569  0.7217050908151049  0.3750000000000000
  0.7787518547674996  0.2210604192552845  0.3750000000000000
  0.1111159702994984  0.8889012285569267  0.8750000000000000
  0.4444519902801541  0.8888926618067451  0.8750000000000000
  0.2777132311673938  0.3888648453990808  0.8750000000000000
  0.6111375782220496  0.3888671968611872  0.8750000000000000
  0.7778093839424219  0.8889414421119505  0.8750000000000000
  0.9444670835168838  0.3888720283980748  0.8750000000000000
  0.1098445637162735  0.3889406628246522  0.3750000000000000
  0.2755316653407882  0.8867562791399610  0.3750000000000000
  0.6116640983096451  0.8910788946073973  0.3750000000000000
  0.9441404853144774  0.8894236594074865  0.3750000000000000
  0.7790986501551007  0.3868297231464701  0.3750000000000000
  0.2777520919309475  0.5555522424043833  0.8750000000000000
  0.1110894714555440  0.0555504212765548  0.8750000000000000
  0.6111375782220496  0.5556037146941980  0.8750000000000000
  0.4444436714799638  0.0555286936298688  0.8750000000000000
  0.9444840878545806  0.5555595444821125  0.8750000000000000
  0.1089001419331608  0.5551031107006008  0.3750000000000000
  0.7778003482802081  0.0555668408067718  0.8750000000000000
  0.2749103550601338  0.0513908159832332  0.3750000000000000
  0.4408711576214824  0.5638548937391883  0.3750000000000000
  0.7776492019458561  0.5554912676395923  0.3750000000000000
  0.6116640983096451  0.0539185370355762  0.3750000000000000
  0.4444221118761585  0.5555828151773857  0.8750000000000000
  0.9452984973673015  0.0564064698161922  0.3750000000000000
  0.2777767756653399  0.7222254469872786  0.8750000000000000
  0.1110743980431757  0.2222038656882521  0.8750000000000000
  0.4444221118761585  0.2221726300321012  0.8750000000000000
  0.6111339829039021  0.7222848216928176  0.8750000000000000
  0.9444840878545806  0.7222578767057967  0.8750000000000000
  0.7778093839424219  0.2222012751638002  0.8750000000000000
  0.1088615552088831  0.7210974442711061  0.3750000000000000
  0.4432640681430253  0.7262349366766007  0.3750000000000000
  0.2760045375333126  0.2188889998813310  0.3750000000000000
  0.7790986501551007  0.7256022603419519  0.3750000000000000
  0.6118703613909677  0.2161519911358134  0.3750000000000000
  0.9452984973673015  0.2222253608844376  0.3750000000000000
  0.1110894714555440  0.3888723835123248  0.8750000000000000
  0.2777767756653399  0.8888846620113828  0.8750000000000000
  0.6111304589990296  0.8889197179308431  0.8750000000000000
  0.4444015526022465  0.3888674429677876  0.8750000000000000
  0.9444670835168838  0.8889283884521377  0.8750000000000000
  0.1089001419331608  0.8871303645658885  0.3750000000000000
  0.7778254403532038  0.3888704691579704  0.8750000000000000
  0.4435572924087198  0.8884453128710279  0.3750000000000000
  0.2760045375333126  0.3904488709853102  0.3750000000000000
  0.2749103550601338  0.5568528724102360  0.3750000000000000
  0.6181792944255972  0.3756092316562925  0.3750000000000000
  0.7787518547674996  0.8910247688455437  0.3750000000000000
  0.9441404853144774  0.3880501592403194  0.3750000000000000
  0.1111159702994984  0.5555480750759002  0.8750000000000000
  0.2777520919309475  0.0555331828599074  0.8750000000000000
  0.7778344124561288  0.5555838728947287  0.8750000000000000
  0.6111304589990296  0.0555440744015153  0.8750000000000000
  0.9444507935360980  0.0555717677408442  0.8750000000000000
  0.0555583825111574  0.1111009240522923  0.1249669006618361
  0.5555143957712700  0.6113125507674951  0.1238110337479686
  0.3887795845730544  0.1108882732335761  0.1247210104748822
  0.8890862825955388  0.6112098079644370  0.1248161445035369
  0.7222443703024517  0.1110738773890769  0.1248854728001239
  0.0556569804379561  0.7778251033436125  0.6250414571734814
  0.3888476816034880  0.7778182735109297  0.6250515390233049
  0.2221127065977538  0.2777230199655447  0.6254098378486509
  0.7222898662917282  0.7779282662601820  0.6253245932686700
  0.5555143957712700  0.2775351783371109  0.6261889662520314
  0.8889535464050095  0.2777755971442651  0.6250541958282932
  0.2222391997397737  0.7777862665365548  0.1249611189263528
  0.0555583825111574  0.2777907917922007  0.1249669006618361
  0.3885979543519401  0.2773940845230693  0.1240766740982380
  0.5555183886512638  0.7778960537885015  0.1247904168568441
  0.8890369451516543  0.7778933418717108  0.1249018627554227
  0.7222898662917282  0.2776949333648818  0.1246754067313303
  0.0555990277331493  0.9444520940321752  0.6250135001265079
  0.3888476816034880  0.9443627414258938  0.6250515390233049
  0.2221367290257227  0.4444925088283865  0.6251937058563353
  0.5557043887306752  0.4445188610320019  0.6267758846504152
  0.7222443703024517  0.9445038262467105  0.6251145271998758
  0.8890369451516543  0.4444769366132791  0.6250981372445769
  0.0555990277331493  0.4444802670343028  0.1249864998734922
  0.2222109263152549  0.9443804457318239  0.1249744099141447
  0.5555339314498668  0.9444336323915976  0.1249226227382170
  0.3885979543519401  0.4445372031622066  0.1240766740982380
  0.8889535464050095  0.9445112825940798  0.1249458041717140
  0.7224267720108380  0.4444770911828835  0.1240112318685600
  0.2222109263152549  0.6111638139167666  0.6250255900858555
  0.0555583825111574  0.1111009240522923  0.6250330993381568
  0.5555143957712700  0.6113125507674951  0.6261889662520314
  0.3887795845730544  0.1108882732335761  0.6252789895251177
  0.8890862825955388  0.6112098079644370  0.6251838554964633
  0.0556569804379561  0.6111652104276794  0.1249585428265186
  0.7222443703024517  0.1110738773890769  0.6251145271998758
  0.2221367290257227  0.1109775535306718  0.1248062941436646
  0.3887795845730544  0.6112246446728210  0.1247210104748822
  0.7224267720108380  0.6112830141612977  0.1240112318685600
  0.5555183886512638  0.1109556681960977  0.1247904168568441
  0.3887795845730544  0.6112246446728210  0.6252789895251177
  0.8889260986948949  0.1111297160141153  0.1249374443830276
  0.2222391997397737  0.7777862665365548  0.6250388810736544
  0.0555583825111574  0.2777907917922007  0.6250330993381568
  0.3885979543519401  0.2773940845230693  0.6259233259017623
  0.5555183886512638  0.7778960537885015  0.6252095831431561
  0.8890369451516543  0.7778933418717108  0.6250981372445769
  0.7222898662917282  0.2776949333648818  0.6253245932686700
  0.0556569804379561  0.7778251033436125  0.1249585428265186
  0.3888476816034880  0.7778182735109297  0.1249484609766949
  0.2221127065977538  0.2777230199655447  0.1245901621513494
  0.7222898662917282  0.7779282662601820  0.1246754067313303
  0.5555143957712700  0.2775351783371109  0.1238110337479686
  0.8889535464050095  0.2777755971442651  0.1249458041717140
  0.0555990277331493  0.4444802670343028  0.6250135001265079
  0.2222109263152549  0.9443804457318239  0.6250255900858555
  0.5555339314498668  0.9444336323915976  0.6250773772617828
  0.3885979543519401  0.4445372031622066  0.6259233259017623
  0.8889535464050095  0.9445112825940798  0.6250541958282932
  0.0555990277331493  0.9444520940321752  0.1249864998734922
  0.7224267720108380  0.4444770911828835  0.6259887681314400
  0.3888476816034880  0.9443627414258938  0.1249484609766949
  0.2221367290257227  0.4444925088283865  0.1248062941436646
  0.2222109263152549  0.6111638139167666  0.1249744099141447
  0.5557043887306752  0.4445188610320019  0.1232241153495775
  0.7222443703024517  0.9445038262467105  0.1248854728001239
  0.8890369451516543  0.4444769366132791  0.1249018627554227
  0.0556569804379561  0.6111652104276794  0.6250414571734814
  0.2221367290257227  0.1109775535306718  0.6251937058563353
  0.7224267720108380  0.6112830141612977  0.6259887681314400
  0.5555183886512638  0.1109556681960977  0.6252095831431561
  0.8889260986948949  0.1111297160141153  0.6250625556169722
 
  0.00000000E+00  0.00000000E+00  0.00000000E+00
  0.00000000E+00  0.00000000E+00  0.00000000E+00
  0.00000000E+00  0.00000000E+00  0.00000000E+00
  0.00000000E+00  0.00000000E+00  0.00000000E+00
  0.00000000E+00  0.00000000E+00  0.00000000E+00
  0.00000000E+00  0.00000000E+00  0.00000000E+00
  0.00000000E+00  0.00000000E+00  0.00000000E+00
  0.00000000E+00  0.00000000E+00  0.00000000E+00
  0.00000000E+00  0.00000000E+00  0.00000000E+00
  0.00000000E+00  0.00000000E+00  0.00000000E+00
  0.00000000E+00  0.00000000E+00  0.00000000E+00
  0.00000000E+00  0.00000000E+00  0.00000000E+00
  0.00000000E+00  0.00000000E+00  0.00000000E+00
  0.00000000E+00  0.00000000E+00  0.00000000E+00
  0.00000000E+00  0.00000000E+00  0.00000000E+00
  0.00000000E+00  0.00000000E+00  0.00000000E+00
  0.00000000E+00  0.00000000E+00  0.00000000E+00
  0.00000000E+00  0.00000000E+00  0.00000000E+00
  0.00000000E+00  0.00000000E+00  0.00000000E+00
  0.00000000E+00  0.00000000E+00  0.00000000E+00
  0.00000000E+00  0.00000000E+00  0.00000000E+00
  0.00000000E+00  0.00000000E+00  0.00000000E+00
  0.00000000E+00  0.00000000E+00  0.00000000E+00
  0.00000000E+00  0.00000000E+00  0.00000000E+00
  0.00000000E+00  0.00000000E+00  0.00000000E+00
  0.00000000E+00  0.00000000E+00  0.00000000E+00
  0.00000000E+00  0.00000000E+00  0.00000000E+00
  0.00000000E+00  0.00000000E+00  0.00000000E+00
  0.00000000E+00  0.00000000E+00  0.00000000E+00
  0.00000000E+00  0.00000000E+00  0.00000000E+00
  0.00000000E+00  0.00000000E+00  0.00000000E+00
  0.00000000E+00  0.00000000E+00  0.00000000E+00
  0.00000000E+00  0.00000000E+00  0.00000000E+00
  0.00000000E+00  0.00000000E+00  0.00000000E+00
  0.00000000E+00  0.00000000E+00  0.00000000E+00
  0.00000000E+00  0.00000000E+00  0.00000000E+00
  0.00000000E+00  0.00000000E+00  0.00000000E+00
  0.00000000E+00  0.00000000E+00  0.00000000E+00
  0.00000000E+00  0.00000000E+00  0.00000000E+00
  0.00000000E+00  0.00000000E+00  0.00000000E+00
  0.00000000E+00  0.00000000E+00  0.00000000E+00
  0.00000000E+00  0.00000000E+00  0.00000000E+00
  0.00000000E+00  0.00000000E+00  0.00000000E+00
  0.00000000E+00  0.00000000E+00  0.00000000E+00
  0.00000000E+00  0.00000000E+00  0.00000000E+00
  0.00000000E+00  0.00000000E+00  0.00000000E+00
  0.00000000E+00  0.00000000E+00  0.00000000E+00
  0.00000000E+00  0.00000000E+00  0.00000000E+00
  0.00000000E+00  0.00000000E+00  0.00000000E+00
  0.00000000E+00  0.00000000E+00  0.00000000E+00
  0.00000000E+00  0.00000000E+00  0.00000000E+00
  0.00000000E+00  0.00000000E+00  0.00000000E+00
  0.00000000E+00  0.00000000E+00  0.00000000E+00
  0.00000000E+00  0.00000000E+00  0.00000000E+00
  0.00000000E+00  0.00000000E+00  0.00000000E+00
  0.00000000E+00  0.00000000E+00  0.00000000E+00
  0.00000000E+00  0.00000000E+00  0.00000000E+00
  0.00000000E+00  0.00000000E+00  0.00000000E+00
  0.00000000E+00  0.00000000E+00  0.00000000E+00
  0.00000000E+00  0.00000000E+00  0.00000000E+00
  0.00000000E+00  0.00000000E+00  0.00000000E+00
  0.00000000E+00  0.00000000E+00  0.00000000E+00
  0.00000000E+00  0.00000000E+00  0.00000000E+00
  0.00000000E+00  0.00000000E+00  0.00000000E+00
  0.00000000E+00  0.00000000E+00  0.00000000E+00
  0.00000000E+00  0.00000000E+00  0.00000000E+00
  0.00000000E+00  0.00000000E+00  0.00000000E+00
  0.00000000E+00  0.00000000E+00  0.00000000E+00
  0.00000000E+00  0.00000000E+00  0.00000000E+00
  0.00000000E+00  0.00000000E+00  0.00000000E+00
  0.00000000E+00  0.00000000E+00  0.00000000E+00
  0.00000000E+00  0.00000000E+00  0.00000000E+00
  0.00000000E+00  0.00000000E+00  0.00000000E+00
  0.00000000E+00  0.00000000E+00  0.00000000E+00
  0.00000000E+00  0.00000000E+00  0.00000000E+00
  0.00000000E+00  0.00000000E+00  0.00000000E+00
  0.00000000E+00  0.00000000E+00  0.00000000E+00
  0.00000000E+00  0.00000000E+00  0.00000000E+00
  0.00000000E+00  0.00000000E+00  0.00000000E+00
  0.00000000E+00  0.00000000E+00  0.00000000E+00
  0.00000000E+00  0.00000000E+00  0.00000000E+00
  0.00000000E+00  0.00000000E+00  0.00000000E+00
  0.00000000E+00  0.00000000E+00  0.00000000E+00
  0.00000000E+00  0.00000000E+00  0.00000000E+00
  0.00000000E+00  0.00000000E+00  0.00000000E+00
  0.00000000E+00  0.00000000E+00  0.00000000E+00
  0.00000000E+00  0.00000000E+00  0.00000000E+00
  0.00000000E+00  0.00000000E+00  0.00000000E+00
  0.00000000E+00  0.00000000E+00  0.00000000E+00
  0.00000000E+00  0.00000000E+00  0.00000000E+00
  0.00000000E+00  0.00000000E+00  0.00000000E+00
  0.00000000E+00  0.00000000E+00  0.00000000E+00
  0.00000000E+00  0.00000000E+00  0.00000000E+00
  0.00000000E+00  0.00000000E+00  0.00000000E+00
  0.00000000E+00  0.00000000E+00  0.00000000E+00
  0.00000000E+00  0.00000000E+00  0.00000000E+00
  0.00000000E+00  0.00000000E+00  0.00000000E+00
  0.00000000E+00  0.00000000E+00  0.00000000E+00
  0.00000000E+00  0.00000000E+00  0.00000000E+00
  0.00000000E+00  0.00000000E+00  0.00000000E+00
  0.00000000E+00  0.00000000E+00  0.00000000E+00
  0.00000000E+00  0.00000000E+00  0.00000000E+00
  0.00000000E+00  0.00000000E+00  0.00000000E+00
  0.00000000E+00  0.00000000E+00  0.00000000E+00
  0.00000000E+00  0.00000000E+00  0.00000000E+00
  0.00000000E+00  0.00000000E+00  0.00000000E+00
  0.00000000E+00  0.00000000E+00  0.00000000E+00
  0.00000000E+00  0.00000000E+00  0.00000000E+00
  0.00000000E+00  0.00000000E+00  0.00000000E+00
  0.00000000E+00  0.00000000E+00  0.00000000E+00
  0.00000000E+00  0.00000000E+00  0.00000000E+00
  0.00000000E+00  0.00000000E+00  0.00000000E+00
  0.00000000E+00  0.00000000E+00  0.00000000E+00
  0.00000000E+00  0.00000000E+00  0.00000000E+00
  0.00000000E+00  0.00000000E+00  0.00000000E+00
  0.00000000E+00  0.00000000E+00  0.00000000E+00
  0.00000000E+00  0.00000000E+00  0.00000000E+00
  0.00000000E+00  0.00000000E+00  0.00000000E+00
  0.00000000E+00  0.00000000E+00  0.00000000E+00
  0.00000000E+00  0.00000000E+00  0.00000000E+00
  0.00000000E+00  0.00000000E+00  0.00000000E+00
  0.00000000E+00  0.00000000E+00  0.00000000E+00
  0.00000000E+00  0.00000000E+00  0.00000000E+00
  0.00000000E+00  0.00000000E+00  0.00000000E+00
  0.00000000E+00  0.00000000E+00  0.00000000E+00
  0.00000000E+00  0.00000000E+00  0.00000000E+00
  0.00000000E+00  0.00000000E+00  0.00000000E+00
  0.00000000E+00  0.00000000E+00  0.00000000E+00
  0.00000000E+00  0.00000000E+00  0.00000000E+00
  0.00000000E+00  0.00000000E+00  0.00000000E+00
  0.00000000E+00  0.00000000E+00  0.00000000E+00
  0.00000000E+00  0.00000000E+00  0.00000000E+00
  0.00000000E+00  0.00000000E+00  0.00000000E+00
  0.00000000E+00  0.00000000E+00  0.00000000E+00
  0.00000000E+00  0.00000000E+00  0.00000000E+00
  0.00000000E+00  0.00000000E+00  0.00000000E+00
  0.00000000E+00  0.00000000E+00  0.00000000E+00
  0.00000000E+00  0.00000000E+00  0.00000000E+00
  0.00000000E+00  0.00000000E+00  0.00000000E+00
  0.00000000E+00  0.00000000E+00  0.00000000E+00
  0.00000000E+00  0.00000000E+00  0.00000000E+00
  0.00000000E+00  0.00000000E+00  0.00000000E+00
  0.00000000E+00  0.00000000E+00  0.00000000E+00
  0.00000000E+00  0.00000000E+00  0.00000000E+00
  0.00000000E+00  0.00000000E+00  0.00000000E+00
  0.00000000E+00  0.00000000E+00  0.00000000E+00
  0.00000000E+00  0.00000000E+00  0.00000000E+00
  0.00000000E+00  0.00000000E+00  0.00000000E+00
  0.00000000E+00  0.00000000E+00  0.00000000E+00
  0.00000000E+00  0.00000000E+00  0.00000000E+00
  0.00000000E+00  0.00000000E+00  0.00000000E+00
  0.00000000E+00  0.00000000E+00  0.00000000E+00
  0.00000000E+00  0.00000000E+00  0.00000000E+00
  0.00000000E+00  0.00000000E+00  0.00000000E+00
  0.00000000E+00  0.00000000E+00  0.00000000E+00
  0.00000000E+00  0.00000000E+00  0.00000000E+00
  0.00000000E+00  0.00000000E+00  0.00000000E+00
  0.00000000E+00  0.00000000E+00  0.00000000E+00
  0.00000000E+00  0.00000000E+00  0.00000000E+00
  0.00000000E+00  0.00000000E+00  0.00000000E+00
  0.00000000E+00  0.00000000E+00  0.00000000E+00
  0.00000000E+00  0.00000000E+00  0.00000000E+00
  0.00000000E+00  0.00000000E+00  0.00000000E+00
  0.00000000E+00  0.00000000E+00  0.00000000E+00
  0.00000000E+00  0.00000000E+00  0.00000000E+00
  0.00000000E+00  0.00000000E+00  0.00000000E+00
  0.00000000E+00  0.00000000E+00  0.00000000E+00
  0.00000000E+00  0.00000000E+00  0.00000000E+00
  0.00000000E+00  0.00000000E+00  0.00000000E+00
  0.00000000E+00  0.00000000E+00  0.00000000E+00
  0.00000000E+00  0.00000000E+00  0.00000000E+00
  0.00000000E+00  0.00000000E+00  0.00000000E+00
  0.00000000E+00  0.00000000E+00  0.00000000E+00
  0.00000000E+00  0.00000000E+00  0.00000000E+00
  0.00000000E+00  0.00000000E+00  0.00000000E+00
  0.00000000E+00  0.00000000E+00  0.00000000E+00
  0.00000000E+00  0.00000000E+00  0.00000000E+00
  0.00000000E+00  0.00000000E+00  0.00000000E+00
  0.00000000E+00  0.00000000E+00  0.00000000E+00
  0.00000000E+00  0.00000000E+00  0.00000000E+00
  0.00000000E+00  0.00000000E+00  0.00000000E+00
  0.00000000E+00  0.00000000E+00  0.00000000E+00
  0.00000000E+00  0.00000000E+00  0.00000000E+00
  0.00000000E+00  0.00000000E+00  0.00000000E+00
  0.00000000E+00  0.00000000E+00  0.00000000E+00
  0.00000000E+00  0.00000000E+00  0.00000000E+00
  0.00000000E+00  0.00000000E+00  0.00000000E+00
  0.00000000E+00  0.00000000E+00  0.00000000E+00
  0.00000000E+00  0.00000000E+00  0.00000000E+00
  0.00000000E+00  0.00000000E+00  0.00000000E+00
  0.00000000E+00  0.00000000E+00  0.00000000E+00
  0.00000000E+00  0.00000000E+00  0.00000000E+00
  0.00000000E+00  0.00000000E+00  0.00000000E+00
  0.00000000E+00  0.00000000E+00  0.00000000E+00
  0.00000000E+00  0.00000000E+00  0.00000000E+00
  0.00000000E+00  0.00000000E+00  0.00000000E+00
  0.00000000E+00  0.00000000E+00  0.00000000E+00
  0.00000000E+00  0.00000000E+00  0.00000000E+00
  0.00000000E+00  0.00000000E+00  0.00000000E+00
  0.00000000E+00  0.00000000E+00  0.00000000E+00
  0.00000000E+00  0.00000000E+00  0.00000000E+00
  0.00000000E+00  0.00000000E+00  0.00000000E+00
  0.00000000E+00  0.00000000E+00  0.00000000E+00
  0.00000000E+00  0.00000000E+00  0.00000000E+00
  0.00000000E+00  0.00000000E+00  0.00000000E+00
  0.00000000E+00  0.00000000E+00  0.00000000E+00
  0.00000000E+00  0.00000000E+00  0.00000000E+00
  0.00000000E+00  0.00000000E+00  0.00000000E+00
  0.00000000E+00  0.00000000E+00  0.00000000E+00
  0.00000000E+00  0.00000000E+00  0.00000000E+00
  0.00000000E+00  0.00000000E+00  0.00000000E+00
  0.00000000E+00  0.00000000E+00  0.00000000E+00
  0.00000000E+00  0.00000000E+00  0.00000000E+00
  0.00000000E+00  0.00000000E+00  0.00000000E+00
  0.00000000E+00  0.00000000E+00  0.00000000E+00
  0.00000000E+00  0.00000000E+00  0.00000000E+00
  0.00000000E+00  0.00000000E+00  0.00000000E+00
  0.00000000E+00  0.00000000E+00  0.00000000E+00
  0.00000000E+00  0.00000000E+00  0.00000000E+00
  0.00000000E+00  0.00000000E+00  0.00000000E+00
  0.00000000E+00  0.00000000E+00  0.00000000E+00
  0.00000000E+00  0.00000000E+00  0.00000000E+00
  0.00000000E+00  0.00000000E+00  0.00000000E+00
  0.00000000E+00  0.00000000E+00  0.00000000E+00
  0.00000000E+00  0.00000000E+00  0.00000000E+00
  0.00000000E+00  0.00000000E+00  0.00000000E+00
  0.00000000E+00  0.00000000E+00  0.00000000E+00
  0.00000000E+00  0.00000000E+00  0.00000000E+00
  0.00000000E+00  0.00000000E+00  0.00000000E+00
  0.00000000E+00  0.00000000E+00  0.00000000E+00
  0.00000000E+00  0.00000000E+00  0.00000000E+00
  0.00000000E+00  0.00000000E+00  0.00000000E+00
  0.00000000E+00  0.00000000E+00  0.00000000E+00
  0.00000000E+00  0.00000000E+00  0.00000000E+00
  0.00000000E+00  0.00000000E+00  0.00000000E+00
  0.00000000E+00  0.00000000E+00  0.00000000E+00
  0.00000000E+00  0.00000000E+00  0.00000000E+00
  0.00000000E+00  0.00000000E+00  0.00000000E+00
  0.00000000E+00  0.00000000E+00  0.00000000E+00
  0.00000000E+00  0.00000000E+00  0.00000000E+00
  0.00000000E+00  0.00000000E+00  0.00000000E+00
  0.00000000E+00  0.00000000E+00  0.00000000E+00
  0.00000000E+00  0.00000000E+00  0.00000000E+00
  0.00000000E+00  0.00000000E+00  0.00000000E+00
  0.00000000E+00  0.00000000E+00  0.00000000E+00
  0.00000000E+00  0.00000000E+00  0.00000000E+00
  0.00000000E+00  0.00000000E+00  0.00000000E+00
  0.00000000E+00  0.00000000E+00  0.00000000E+00