 N B C 
 1.0
 14.936314146199660   0.000000000000000   0.000000000000000
 -7.468157073099825  12.935227489513863   0.000000000000000
  0.000000000000001   0.000000000000001  13.341276283792837
 N B C 
 142 143   2
Cartesian
  1.243964736059407   0.718930636476385   1.664752989711695 
  4.978519725244174   7.189689679845277   1.668111138112331 
  6.223393949938493   0.718966539208816   1.663751896737123 
  9.957388922871022   7.185774988911182   1.665646116725993 
 11.202081044340698   0.718471850553582   1.667276616683695 
 -3.734358782749698   9.341933672038254   8.339529770270085 
  1.244610373972264   9.342506981146787   8.343883897551493 
  2.488316784688549   2.874694183004092   8.337970826194912 
  6.223325907415226   9.343499279315235   8.342578129619957 
  7.469557000887993   2.873752166658836   8.342007049141866 
 12.446494285385896   2.873686257435645   8.340429200144214 
 -1.244818374301040   9.341973025535808   1.665394782899905 
 -0.001376121533052   2.873815506957011   1.663144782927764 
  4.978591563562757   2.874723526316332   1.668754718644532 
  3.734042537419487   9.343341926642125   1.662467470565411 
  8.712478798853915   9.342166464837247   1.665504462357685 
  9.958319461947710   2.873601615947316   1.665715431294119 
 -4.979270712177510  11.498282184214556   8.340733715420777 
 -0.000144123684714  11.498256028883064   8.340768594547699 
  1.242988101374358   5.029181055059587   8.345497787305368 
  6.227067174332794   5.028100526996442   8.338979440539845 
  4.978510037998768  11.498865557855256   8.340383024510277 
 11.202487823428557   5.029587961676531   8.340264119350183 
 -1.245328599039704   5.029538721273858   1.663224042638536 
 -2.489655281222877  11.498236290530318   1.665569173452137 
  2.489206499565469  11.498363089444975   1.665990472359880 
  3.732960336333970   5.029863589610332   1.685332056062077 
  7.467751744605248  11.498668663458743   1.665087077610462 
  8.714296204117781   5.029331830499560   1.664164871818458 
 -0.000336294991323   7.185798258304815   8.343292780193581 
  1.243964736059407   0.718930636476385   8.341204223132932 
  4.978519725244174   7.189689679845278   8.337846074732298 
  6.223393949938494   0.718966539208816   8.342205316107504 
  9.957388922871022   7.185774988911183   8.340311096118622 
 -2.489618977382960   7.185655840597438   1.665087087177705 
 11.202081044340698   0.718471850553583   8.338680596160959 
  3.733556041444980   0.719133255997044   1.664682767752498 
  2.488771737983833   7.187281749959905   1.662069953362514 
  7.467973108477703   7.186102077338304   1.668877407993127 
  8.713002736513511   0.718441385941225   1.666280894453858 
  2.488771737983833   7.187281749959906   8.343887259482113 
 13.690923934495892   0.718679711720498   1.665793896369272 
 -1.244818374301040   9.341973025535808   8.340562429944724 
 -0.001376121533051   2.873815506957012   8.342812429916878 
  4.978591563562758   2.874723526316333   8.337202494200096 
  3.734042537419488   9.343341926642125   8.343489742279244 
  8.712478798853915   9.342166464837247   8.340452750486929 
  9.958319461947710   2.873601615947317   8.340241781550523 
 -3.734358782749698   9.341933672038254   1.666427442574570 
  1.244610373972264   9.342506981146787   1.662073315293149 
  2.488316784688548   2.874694183004091   1.667986386649715 
  6.223325907415225   9.343499279315235   1.663379083224685 
  7.469557000887992   2.873752166658835   1.663950163702734 
 12.446494285385896   2.873686257435644   1.665528012700413 
 -1.245328599039703   5.029538721273859   8.342733170206065 
 -2.489655281222876  11.498236290530318   8.340388039392504 
  2.489206499565470  11.498363089444975   8.339966740484734 
  3.732960336333971   5.029863589610333   8.320625156782564 
  7.467751744605249  11.498668663458743   8.340870135234166 
 -4.979270712177511  11.498282184214556   1.665223497423837 
  8.714296204117781   5.029331830499561   8.341792341026157 
 -0.000144123684715  11.498256028883064   1.665188618296930 
  1.242988101374357   5.029181055059586   1.660459425539274 
 -0.000336294991324   7.185798258304814   1.662664432651034 
  6.227067174332793   5.028100526996441   1.666977772304770 
  4.978510037998767  11.498865557855256   1.665574188334337 
 11.202487823428557   5.029587961676530   1.665693093494472 
 -2.489618977382959   7.185655840597439   8.340870125666909 
  3.733556041444981   0.719133255997045   8.341274445092129 
  7.467973108477704   7.186102077338305   8.337079804851500 
  8.713002736513511   0.718441385941225   8.339676318390769 
 13.690923934495892   0.718679711720499   8.340163316475357 
 -0.024279802016074   1.410009501705345   5.002978606422314 
  3.846715980127255   7.799786773160314   5.002978606422314 
  4.970943439383145   1.454713580784587   5.002978606422314 
  8.767547832507432   7.936482397270782   5.002978606422314 
  9.931388615908745   1.450564684011477   5.002978606422314 
 -4.979089870991159  10.061493102150665  11.673616748318732 
 -0.000785511992373  10.061512142863313  11.673616748318732 
  1.244357389864745   3.593817235655663  11.673616748318732 
  4.978294015922886  10.061237681652816  11.673616748318732 
  6.222769608116245   3.593605426132730  11.673616748318732 
 11.201698958949072   3.593924945869158  11.673616748318732 
 -2.461100010969403  10.068226773822746   5.002978606422314 
 -1.274611026680630   3.580513968639984   5.002978606422314 
  3.697899510685513   3.569000525028233   5.002978606422314 
  2.529114038307017  10.018622175182221   5.002978606422314 
  7.491724804249548  10.060481930722403   5.002978606422314 
  8.669361769088894   3.629878132313049   5.002978606422314 
 -6.223860431577564  12.217210266039082  11.673616748318732 
 -1.245213605127123  12.217098518846123  11.673616748318732 
 -0.000575845555409   5.749901726064995  11.673616748318732 
  4.978197027165479   5.749665089715141  11.673616748318732 
  3.733563355699398  12.217168281824556  11.673616748318732 
  9.957084039022810   5.749883176759313  11.673616748318732 
 -2.496734803733108   5.750276437479453   5.002978606422314 
 -3.719579452618383  12.223347491431882   5.002978606422314 
  1.247044149300258  12.223959972550196   5.002978606422314 
  6.216890477318060  12.200372463795352   5.002978606422314 
  7.443824710081933   5.807200000048795   5.002978606422314 
 -1.245523477705024   7.905741030901769  11.673616748318732 
 -0.000359211284715   1.437848527778349  11.673616748318732 
  3.733311307118866   7.905535993058864  11.673616748318732 
  4.978288402260574   1.437548505687430  11.673616748318732 
  8.712675432754480   7.905724758026015  11.673616748318732 
 -3.700305753797229   7.916536180653156   5.002978606422314 
  9.956935550556254   1.437927388681423  11.673616748318732 
  2.477418149950048   1.418864073792596   5.002978606422314 
  1.281848462421039   7.890368421250665   5.002978606422314 
  6.280825807475963   7.900829548667540   5.002978606422314 
  7.432580083451573   1.496741616146852   5.002978606422314 
  1.243698152925064   7.905774840548965  11.673616748318732 
 12.422230562204376   1.428969986096138   5.002978606422314 
 -2.489974336779937  10.061460604348246  11.673616748318732 
 -1.245096595911220   3.593877269453381  11.673616748318732 
  3.733635078709605   3.593732783414345  11.673616748318732 
  2.488694513260439  10.061354513415424  11.673616748318732 
  7.467871921280794  10.061381412206540  11.673616748318732 
  8.712174478262718   3.593922860015088  11.673616748318732 
 -4.946565522515568  10.076182274831808   5.002978606422314 
  0.025155996334286  10.059887552321316   5.002978606422314 
  1.200888268527605   3.543232573220402   5.002978606422314 
  5.000487678004790  10.038379371254981   5.002978606422314 
  6.124708081857371   3.737041321352702   5.002978606422314 
 11.171283644874034   3.599719483698062   5.002978606422314 
 -2.489918894648462   5.749827100181750  11.673616748318732 
 -3.734522297445623  12.217112838740277  11.673616748318732 
  1.244084493672153  12.217226562245681  11.673616748318732 
  2.488858039608222   5.749771374111170  11.673616748318732 
  6.223076908663892  12.217154283101507  11.673616748318732 
 -6.219541256505458  12.208827940963719   5.002978606422314 
  7.467708323319155   5.749927839129970  11.673616748318732 
 -1.233564410947450  12.230499373626708   5.002978606422314 
 -0.009315143854343   5.731157050404134   5.002978606422314 
 -1.216086054674372   7.901919565247830   5.002978606422314 
  3.729239792131132  12.205784842517669   5.002978606422314 
  9.947182298405789   5.768359769116081   5.002978606422314 
 -3.734507112843456   7.905688275667514  11.673616748318732 
  2.488998561390784   1.437794544442396  11.673616748318732 
  6.223198377144114   7.905562379170672  11.673616748318732 
  7.467532636121040   1.437793544047282  11.673616748318732 
 12.446499049026723   1.437876756064240  11.673616748318732 
  1.233687055815172   0.706730112600295   5.002978606422314 
  5.134094834634556   6.946621675162420   5.002978606422314 
  6.213492519381431   0.744499815313423   5.002978606422314 
  9.986100863557979   7.202622286020889   5.002978606422314 
 11.175469243588578   0.713652551924929   5.002978606422314 
 -3.734669892885637   9.342598988637469  11.673616748318732 
  1.244428582771487   9.341776099447639  11.673616748318732 
  2.489997623044169   2.876506959263649  11.673616748318732 
  6.222647373591029   9.341060609517370  11.673616748318732 
  7.466283351477631   2.876289298112812  11.673616748318732 
 12.446613669144440   2.875640719461953  11.673616748318732 
 -1.215428327835779   9.338895771505269   5.002978606422314 
 -0.032237052014694   2.847736284787338   5.002978606422314 
  4.965886043272088   2.911062600321546   5.002978606422314 
  3.794524170360920   9.244282814829564   5.002978606422314 
  8.744209387008542   9.358391351795348   5.002978606422314 
  9.908081190770764   2.898801216543224   5.002978606422314 
 -4.979113113904591  11.498532216252679  11.673616748318732 
 -0.000610795238300  11.498343565900001  11.673616748318732 
  1.245812216568502   5.031987185433090  11.673616748318732 
  6.221550899607631   5.031931038026748  11.673616748318732 
  4.978263391856873  11.497343554527774  11.673616748318732 
 11.201305467505806   5.031642246408758  11.673616748318732 
 -1.251037734507785   5.026418652269229   5.002978606422314 
 -2.471732816443296  11.506939525268120   5.002978606422314 
  2.496487260193667  11.467400160760777   5.002978606422314 
  7.471577868773548  11.486872350946198   5.002978606422314 
  8.658101741958159   5.077230297173856   5.002978606422314 
  0.000323114501711   7.186986194045588  11.673616748318732 
  1.244839294831291   0.719651962664337  11.673616748318732 
  4.977964168212851   7.185696959189181  11.673616748318732 
  6.222538996735507   0.719872629647625  11.673616748318732 
  9.956330036974359   7.187028801043627  11.673616748318732 
 -2.463209946374640   7.189276151666045   5.002978606422314 
 11.201517508724601   0.719083477570997  11.673616748318732 
  3.736825921881567   0.728162704701808   5.002978606422314 
  2.563512348187885   7.154647904542977   5.002978606422314 
  7.521015245834184   7.220530910838008   5.002978606422314 
  8.679432349172160   0.747441704474972   5.002978606422314 
  2.489597089504985   7.186255834863723  11.673616748318732 
 13.668871898052426   0.699401225480471   5.002978606422314 
 -1.244980248319160   9.342516924287382  11.673616748318732 
  0.000636666359617   2.875976753660348  11.673616748318732 
  4.978106933168081   2.876502359259198  11.673616748318732 
  3.733638173199789   9.340881260317552  11.673616748318732 
  8.712027410354340   9.342042336312801  11.673616748318732 
  9.956082820741820   2.875858156592292  11.673616748318732 
 -3.704994980066604   9.351464030346545   5.002978606422314 
  1.274559062844995   9.315288625697574   5.002978606422314 
  2.453815144302218   2.856925608879373   5.002978606422314 
  6.248037201877158   9.311175117308697   5.002978606422314 
  7.374271729397836   2.982504822982702   5.002978606422314 
 12.414924137428539   2.873021333654880   5.002978606422314 
 -1.244338421834624   5.031708515218960  11.673616748318732 
 -2.489811290411146  11.498733272603666  11.673616748318732 
  2.488782207134005  11.497674913168412  11.673616748318732 
  3.734326516406931   5.032131952555733  11.673616748318732 
  7.467762844289358  11.497869151297257  11.673616748318732 
 -4.962319678011339  11.506311009855850   5.002978606422314 
  8.710767236939155   5.031826912981315  11.673616748318732 
  0.009668236496236  11.499422163644216   5.002978606422314 
  1.242861344484407   4.988291116474832   5.002978606422314 
  0.039271992041129   7.169835707329230   5.002978606422314 
  5.985603124938253   5.329410530344306   5.002978606422314 
  4.975503225954746  11.468820289721199   5.002978606422314 
 11.182094289035605   5.042276060855445   5.002978606422314 
 -2.489757637878244   7.187119550510479  11.673616748318732 
  3.733962635923594   0.719975370686634  11.673616748318732 
  7.466541008327215   7.186430807389556  11.673616748318732 
  8.711700557771414   0.719497169086298  11.673616748318732 
 13.691491455001145   0.719122980280850  11.673616748318732 
 -0.000437123902611   1.438453149624399   1.669098801866887 
  3.736672394761673   7.901128442605478   1.679800774661224 
  4.978582488192846   1.442445735352362   1.671376292663693 
  8.708536926845202   7.902114795435630   1.673805377565995 
  9.957145996943900   1.437601025277463   1.671199760388857 
 -4.980543330675753  10.059802588636584   8.335803967791300 
  0.001897449508789  10.059529053146353   8.336555642976755 
  1.245430695405782   3.595851282268092   8.333629338378033 
  4.978191838217282  10.058490226902745   8.334728950906767 
  6.223371212152254   3.598462372534415   8.325647114283894 
 11.201663492001835   3.592773876634127   8.335351646868711 
 -2.489099943919653  10.060288278259616   1.670091152566614 
 -1.244374726953100   3.593186134389332   1.669062980306099 
  3.734629317152135   3.599968408546355   1.686475959932062 
  2.490988473152681  10.058508287092137   1.670090618202218 
  7.465742561976698  10.059082181957416   1.670586644155750 
  8.711602408730112   3.593962776638714   1.672030154574297 
 -6.224462165902205  12.217360452137648   8.336759958943940 
 -1.244470351348023  12.218374294561370   8.336704239593111 
  0.003215148781462   5.747565580174569   8.335800554366621 
  4.980035960823224   5.749397180875666   8.258409392848597 
  3.733967293163383  12.215810787428545   8.334797383754839 
  9.955430727917399   5.747630983291993   8.334333857727598 
 -2.488959953837344   5.747799170950048   1.669903200610122 
 -3.734514982856347  12.218534209522677   1.669200563663757 
  1.245097328837739  12.216658347991672   1.670705556208496 
  2.493120986616423   5.747825049475845   1.700510529885265 
  6.222577891377407  12.216183166443006   1.670117705258640 
  7.463939338183113   5.746786232889716   1.682119592438707 
 -1.242566137133184   7.902907452592711   8.336053196295858 
 -0.000437123902611   1.438453149624400   8.336858410977754 
  3.736672394761673   7.901128442605479   8.326156438183377 
  4.978582488192846   1.442445735352363   8.334580920180935 
  8.708536926845202   7.902114795435631   8.332151835278593 
 -3.735269742900157   7.903178873175355   1.670594205155050 
  9.957145996943900   1.437601025277463   8.334757452455744 
  2.489320963157151   1.440968731504872   1.670504807099712 
  1.249215482653521   7.901702776974112   1.671425553092868 
  6.218907622423498   7.901620344955253   1.681591932387664 
  7.467889994806274   1.439879878988663   1.670444867189704 
  1.249215482653522   7.901702776974113   8.334531659751747 
 12.446484427881158   1.437199242342144   1.670512011566891 
 -2.489099943919653  10.060288278259616   8.335866060278013 
 -1.244374726953100   3.593186134389333   8.336894232538501 
  3.734629317152135   3.599968408546356   8.319481252912565 
  2.490988473152682  10.058508287092137   8.335866594642383 
  7.465742561976699  10.059082181957416   8.335370568688864 
  8.711602408730112   3.593962776638715   8.333927058270318 
 -4.980543330675754  10.059802588636584   1.670153245053328 
  0.001897449508789  10.059529053146353   1.669401569867846 
  1.245430695405781   3.595851282268091   1.672327874466607 
  4.978191838217281  10.058490226902745   1.671228261937848 
  6.223371212152253   3.598462372534414   1.680310098560748 
 11.201663492001835   3.592773876634126   1.670605565975903 
 -2.488959953837344   5.747799170950049   8.336054012234532 
 -3.734514982856346  12.218534209522677   8.336756649180884 
  1.245097328837739  12.216658347991672   8.335251656636119 
  2.493120986616423   5.747825049475846   8.305446682959362 
  6.222577891377408  12.216183166443006   8.335839507585973 
 -6.224462165902206  12.217360452137648   1.669197253900661 
  7.463939338183113   5.746786232889717   8.323837620405905 
 -1.244470351348023  12.218374294561370   1.669252973251515 
  0.003215148781461   5.747565580174568   1.670156658478007 
 -1.242566137133185   7.902907452592710   1.669904016548784 
  4.980035960823223   5.749397180875665   1.747547819996018 
  3.733967293163382  12.215810787428545   1.671159829089802 
  9.955430727917399   5.747630983291992   1.671623355117016 
 -3.735269742900157   7.903178873175356   8.335363007689578 
  2.489320963157151   1.440968731504872   8.335452405744901 
  6.218907622423499   7.901620344955254   8.324365280456950 
  7.467889994806275   1.439879878988664   8.335512345654911 
 12.446484427881158   1.437199242342145   8.335445201277736 
  2.552641207699765   5.677405460675581   5.002978606422314 
  3.721963310360789   4.943225587075926   5.002978606422314 
Generated by cif2cell 2.0.0.  :  Failed to get author information, No journal information. Species order: N B C 
 1.0
 14.936314146199660   0.000000000000000   0.000000000000000
 -7.468157073099825  12.935227489513863   0.000000000000000
  0.000000000000001   0.000000000000001  13.341276283792837
 N B C 
 142 143   2
Cartesian
  1.243964736059407   0.718930636476385   1.664752989711695 
  4.978519725244174   7.189689679845277   1.668111138112331 
  6.223393949938493   0.718966539208816   1.663751896737123 
  9.957388922871022   7.185774988911182   1.665646116725993 
 11.202081044340698   0.718471850553582   1.667276616683695 
 -3.734358782749698   9.341933672038254   8.339529770270085 
  1.244610373972264   9.342506981146787   8.343883897551493 
  2.488316784688549   2.874694183004092   8.337970826194912 
  6.223325907415226   9.343499279315235   8.342578129619957 
  7.469557000887993   2.873752166658836   8.342007049141866 
 12.446494285385896   2.873686257435645   8.340429200144214 
 -1.244818374301040   9.341973025535808   1.665394782899905 
 -0.001376121533052   2.873815506957011   1.663144782927764 
  4.978591563562757   2.874723526316332   1.668754718644532 
  3.734042537419487   9.343341926642125   1.662467470565411 
  8.712478798853915   9.342166464837247   1.665504462357685 
  9.958319461947710   2.873601615947316   1.665715431294119 
 -4.979270712177510  11.498282184214556   8.340733715420777 
 -0.000144123684714  11.498256028883064   8.340768594547699 
  1.242988101374358   5.029181055059587   8.345497787305368 
  6.227067174332794   5.028100526996442   8.338979440539845 
  4.978510037998768  11.498865557855256   8.340383024510277 
 11.202487823428557   5.029587961676531   8.340264119350183 
 -1.245328599039704   5.029538721273858   1.663224042638536 
 -2.489655281222877  11.498236290530318   1.665569173452137 
  2.489206499565469  11.498363089444975   1.665990472359880 
  3.732960336333970   5.029863589610332   1.685332056062077 
  7.467751744605248  11.498668663458743   1.665087077610462 
  8.714296204117781   5.029331830499560   1.664164871818458 
 -0.000336294991323   7.185798258304815   8.343292780193581 
  1.243964736059407   0.718930636476385   8.341204223132932 
  4.978519725244174   7.189689679845278   8.337846074732298 
  6.223393949938494   0.718966539208816   8.342205316107504 
  9.957388922871022   7.185774988911183   8.340311096118622 
 -2.489618977382960   7.185655840597438   1.665087087177705 
 11.202081044340698   0.718471850553583   8.338680596160959 
  3.733556041444980   0.719133255997044   1.664682767752498 
  2.488771737983833   7.187281749959905   1.662069953362514 
  7.467973108477703   7.186102077338304   1.668877407993127 
  8.713002736513511   0.718441385941225   1.666280894453858 
  2.488771737983833   7.187281749959906   8.343887259482113 
 13.690923934495892   0.718679711720498   1.665793896369272 
 -1.244818374301040   9.341973025535808   8.340562429944724 
 -0.001376121533051   2.873815506957012   8.342812429916878 
  4.978591563562758   2.874723526316333   8.337202494200096 
  3.734042537419488   9.343341926642125   8.343489742279244 
  8.712478798853915   9.342166464837247   8.340452750486929 
  9.958319461947710   2.873601615947317   8.340241781550523 
 -3.734358782749698   9.341933672038254   1.666427442574570 
  1.244610373972264   9.342506981146787   1.662073315293149 
  2.488316784688548   2.874694183004091   1.667986386649715 
  6.223325907415225   9.343499279315235   1.663379083224685 
  7.469557000887992   2.873752166658835   1.663950163702734 
 12.446494285385896   2.873686257435644   1.665528012700413 
 -1.245328599039703   5.029538721273859   8.342733170206065 
 -2.489655281222876  11.498236290530318   8.340388039392504 
  2.489206499565470  11.498363089444975   8.339966740484734 
  3.732960336333971   5.029863589610333   8.320625156782564 
  7.467751744605249  11.498668663458743   8.340870135234166 
 -4.979270712177511  11.498282184214556   1.665223497423837 
  8.714296204117781   5.029331830499561   8.341792341026157 
 -0.000144123684715  11.498256028883064   1.665188618296930 
  1.242988101374357   5.029181055059586   1.660459425539274 
 -0.000336294991324   7.185798258304814   1.662664432651034 
  6.227067174332793   5.028100526996441   1.666977772304770 
  4.978510037998767  11.498865557855256   1.665574188334337 
 11.202487823428557   5.029587961676530   1.665693093494472 
 -2.489618977382959   7.185655840597439   8.340870125666909 
  3.733556041444981   0.719133255997045   8.341274445092129 
  7.467973108477704   7.186102077338305   8.337079804851500 
  8.713002736513511   0.718441385941225   8.339676318390769 
 13.690923934495892   0.718679711720499   8.340163316475357 
 -0.024279802016074   1.410009501705345   5.002978606422314 
  3.846715980127255   7.799786773160314   5.002978606422314 
  4.970943439383145   1.454713580784587   5.002978606422314 
  8.767547832507432   7.936482397270782   5.002978606422314 
  9.931388615908745   1.450564684011477   5.002978606422314 
 -4.979089870991159  10.061493102150665  11.673616748318732 
 -0.000785511992373  10.061512142863313  11.673616748318732 
  1.244357389864745   3.593817235655663  11.673616748318732 
  4.978294015922886  10.061237681652816  11.673616748318732 
  6.222769608116245   3.593605426132730  11.673616748318732 
 11.201698958949072   3.593924945869158  11.673616748318732 
 -2.461100010969403  10.068226773822746   5.002978606422314 
 -1.274611026680630   3.580513968639984   5.002978606422314 
  3.697899510685513   3.569000525028233   5.002978606422314 
  2.529114038307017  10.018622175182221   5.002978606422314 
  7.491724804249548  10.060481930722403   5.002978606422314 
  8.669361769088894   3.629878132313049   5.002978606422314 
 -6.223860431577564  12.217210266039082  11.673616748318732 
 -1.245213605127123  12.217098518846123  11.673616748318732 
 -0.000575845555409   5.749901726064995  11.673616748318732 
  4.978197027165479   5.749665089715141  11.673616748318732 
  3.733563355699398  12.217168281824556  11.673616748318732 
  9.957084039022810   5.749883176759313  11.673616748318732 
 -2.496734803733108   5.750276437479453   5.002978606422314 
 -3.719579452618383  12.223347491431882   5.002978606422314 
  1.247044149300258  12.223959972550196   5.002978606422314 
  6.216890477318060  12.200372463795352   5.002978606422314 
  7.443824710081933   5.807200000048795   5.002978606422314 
 -1.245523477705024   7.905741030901769  11.673616748318732 
 -0.000359211284715   1.437848527778349  11.673616748318732 
  3.733311307118866   7.905535993058864  11.673616748318732 
  4.978288402260574   1.437548505687430  11.673616748318732 
  8.712675432754480   7.905724758026015  11.673616748318732 
 -3.700305753797229   7.916536180653156   5.002978606422314 
  9.956935550556254   1.437927388681423  11.673616748318732 
  2.477418149950048   1.418864073792596   5.002978606422314 
  1.281848462421039   7.890368421250665   5.002978606422314 
  6.280825807475963   7.900829548667540   5.002978606422314 
  7.432580083451573   1.496741616146852   5.002978606422314 
  1.243698152925064   7.905774840548965  11.673616748318732 
 12.422230562204376   1.428969986096138   5.002978606422314 
 -2.489974336779937  10.061460604348246  11.673616748318732 
 -1.245096595911220   3.593877269453381  11.673616748318732 
  3.733635078709605   3.593732783414345  11.673616748318732 
  2.488694513260439  10.061354513415424  11.673616748318732 
  7.467871921280794  10.061381412206540  11.673616748318732 
  8.712174478262718   3.593922860015088  11.673616748318732 
 -4.946565522515568  10.076182274831808   5.002978606422314 
  0.025155996334286  10.059887552321316   5.002978606422314 
  1.200888268527605   3.543232573220402   5.002978606422314 
  5.000487678004790  10.038379371254981   5.002978606422314 
  6.124708081857371   3.737041321352702   5.002978606422314 
 11.171283644874034   3.599719483698062   5.002978606422314 
 -2.489918894648462   5.749827100181750  11.673616748318732 
 -3.734522297445623  12.217112838740277  11.673616748318732 
  1.244084493672153  12.217226562245681  11.673616748318732 
  2.488858039608222   5.749771374111170  11.673616748318732 
  6.223076908663892  12.217154283101507  11.673616748318732 
 -6.219541256505458  12.208827940963719   5.002978606422314 
  7.467708323319155   5.749927839129970  11.673616748318732 
 -1.233564410947450  12.230499373626708   5.002978606422314 
 -0.009315143854343   5.731157050404134   5.002978606422314 
 -1.216086054674372   7.901919565247830   5.002978606422314 
  3.729239792131132  12.205784842517669   5.002978606422314 
  9.947182298405789   5.768359769116081   5.002978606422314 
 -3.734507112843456   7.905688275667514  11.673616748318732 
  2.488998561390784   1.437794544442396  11.673616748318732 
  6.223198377144114   7.905562379170672  11.673616748318732 
  7.467532636121040   1.437793544047282  11.673616748318732 
 12.446499049026723   1.437876756064240  11.673616748318732 
  1.233687055815172   0.706730112600295   5.002978606422314 
  5.134094834634556   6.946621675162420   5.002978606422314 
  6.213492519381431   0.744499815313423   5.002978606422314 
  9.986100863557979   7.202622286020889   5.002978606422314 
 11.175469243588578   0.713652551924929   5.002978606422314 
 -3.734669892885637   9.342598988637469  11.673616748318732 
  1.244428582771487   9.341776099447639  11.673616748318732 
  2.489997623044169   2.876506959263649  11.673616748318732 
  6.222647373591029   9.341060609517370  11.673616748318732 
  7.466283351477631   2.876289298112812  11.673616748318732 
 12.446613669144440   2.875640719461953  11.673616748318732 
 -1.215428327835779   9.338895771505269   5.002978606422314 
 -0.032237052014694   2.847736284787338   5.002978606422314 
  4.965886043272088   2.911062600321546   5.002978606422314 
  3.794524170360920   9.244282814829564   5.002978606422314 
  8.744209387008542   9.358391351795348   5.002978606422314 
  9.908081190770764   2.898801216543224   5.002978606422314 
 -4.979113113904591  11.498532216252679  11.673616748318732 
 -0.000610795238300  11.498343565900001  11.673616748318732 
  1.245812216568502   5.031987185433090  11.673616748318732 
  6.221550899607631   5.031931038026748  11.673616748318732 
  4.978263391856873  11.497343554527774  11.673616748318732 
 11.201305467505806   5.031642246408758  11.673616748318732 
 -1.251037734507785   5.026418652269229   5.002978606422314 
 -2.471732816443296  11.506939525268120   5.002978606422314 
  2.496487260193667  11.467400160760777   5.002978606422314 
  7.471577868773548  11.486872350946198   5.002978606422314 
  8.658101741958159   5.077230297173856   5.002978606422314 
  0.000323114501711   7.186986194045588  11.673616748318732 
  1.244839294831291   0.719651962664337  11.673616748318732 
  4.977964168212851   7.185696959189181  11.673616748318732 
  6.222538996735507   0.719872629647625  11.673616748318732 
  9.956330036974359   7.187028801043627  11.673616748318732 
 -2.463209946374640   7.189276151666045   5.002978606422314 
 11.201517508724601   0.719083477570997  11.673616748318732 
  3.736825921881567   0.728162704701808   5.002978606422314 
  2.563512348187885   7.154647904542977   5.002978606422314 
  7.521015245834184   7.220530910838008   5.002978606422314 
  8.679432349172160   0.747441704474972   5.002978606422314 
  2.489597089504985   7.186255834863723  11.673616748318732 
 13.668871898052426   0.699401225480471   5.002978606422314 
 -1.244980248319160   9.342516924287382  11.673616748318732 
  0.000636666359617   2.875976753660348  11.673616748318732 
  4.978106933168081   2.876502359259198  11.673616748318732 
  3.733638173199789   9.340881260317552  11.673616748318732 
  8.712027410354340   9.342042336312801  11.673616748318732 
  9.956082820741820   2.875858156592292  11.673616748318732 
 -3.704994980066604   9.351464030346545   5.002978606422314 
  1.274559062844995   9.315288625697574   5.002978606422314 
  2.453815144302218   2.856925608879373   5.002978606422314 
  6.248037201877158   9.311175117308697   5.002978606422314 
  7.374271729397836   2.982504822982702   5.002978606422314 
 12.414924137428539   2.873021333654880   5.002978606422314 