 N S B 
 1.0
 14.936314146199660   0.000000000000000   0.000000000000000
 -7.468157073099825  12.935227489513863   0.000000000000000
  0.000000000000001   0.000000000000001  13.341276283792837
 N S B 
 144   1 143
Cartesian
  1.244897094116931   0.718332263421163   1.650108497665949 
  4.978950914472485   7.186229536873176   1.656101331622451 
  6.223259978983199   0.718332263421163   1.650108497665949 
  9.957654627687686   7.186440148013732   1.656822569260834 
 11.202235609649751   0.718623749417456   1.659610853415217 
 -3.734078536549858   9.342108742426664   8.344381267530451 
  1.244338286939998   9.342077600946849   8.355848715175931 
  2.489482348461545   2.874343496697842   8.349855881223911 
  6.223818786160288   9.342077600946849   8.355848715175904 
  7.468012930136297   2.874578218649846   8.356827118843473 
 12.447068024170223   2.874768507734817   8.350813235599263 
 -1.244924280667346   9.342104292193973   1.656822569260834 
  0.000144142963895   2.874578218649845   1.649130094002542 
  4.978674724637496   2.874343496697815   1.656101331622411 
  3.734078536552376   9.341942300466124   1.649130094002595 
  8.713081353762808   9.342104292193973   1.656822569260834 
  9.957403195127730   2.874768507734816   1.655143977247234 
 -4.978651810477671  11.497781787079232   8.349134643581593 
 -0.000276070715336  11.497820601181058   8.351803872524410 
  1.244609970540041   5.030525704196986   8.349855881223911 
  6.223547102561183   5.030525704196986   8.349855881223911 
  4.978938464227673  11.497722365343494   8.350813235599048 
 11.202235609646349   5.030685024923694   8.351803872524410 
 -1.244843155493959   5.030688873396421   1.650108497665949 
 -2.489505262626047  11.497781787080422   1.656822569260834 
  2.489218608872615  11.497722365343494   1.655143977247234 
  3.734078536549917   5.030366245922020   1.694810496611353 
  7.468433143808380  11.497820601181058   1.654153340319682 
  8.713000228592747   5.030688873396421   1.650108497665963 
 -0.000348584288218   7.186438749407343   8.354996445703462 
  1.244897094116886   0.718332263421164   8.355848715175904 
  4.978950914472425   7.186229536873177   8.349855881223897 
  6.223259978983200   0.718332263421164   8.355848715175931 
  9.957654627687686   7.186440148013733   8.349134643581593 
 -2.489497554594780   7.186440148013732   1.656822569260834 
 11.202235609649751   0.718623749417456   8.346346359428731 
  3.734078536548228   0.718221238955414   1.650960767143541 
  2.489206158627279   7.186229536873176   1.656101331622438 
  7.468505657387502   7.186438749407342   1.650960767143541 
  8.712543267451695   0.718607864688218   1.655143977247234 
  2.489206158627279   7.186229536873177   8.349855881223911 
 13.691927951849244   0.718607864688218   1.655143977247234 
 -1.244924280667346   9.342104292193973   8.349134643581593 
  0.000144142963896   2.874578218649846   8.356827118843473 
  4.978674724637481   2.874343496697842   8.349855881223911 
  3.734078536552377   9.341942300466124   8.356827118843473 
  8.713081353762808   9.342104292193973   8.349134643581593 
  9.957403195127730   2.874768507734817   8.350813235599263 
 -3.734078536549859   9.342108742426664   1.661575945313589 
  1.244338286939998   9.342077600946849   1.650108497665870 
  2.489482348461552   2.874343496697828   1.656101331622438 
  6.223818786160287   9.342077600946849   1.650108497665949 
  7.468012930136296   2.874578218649845   1.649130094002595 
 12.447068024170282   2.874768507734712   1.655143977247234 
 -1.244843155493959   5.030688873396421   8.355848715175931 
 -2.489505262625360  11.497781787079232   8.349134643581593 
  2.489218608872615  11.497722365343494   8.350813235599263 
  3.734078536549917   5.030366245922021   8.311146716230406 
  7.468433143808381  11.497820601181058   8.351803872524410 
 -4.978651810478359  11.497781787080422   1.656822569260847 
  8.713000228592627   5.030688873396421   8.355848715175904 
 -0.000276070715336  11.497820601181058   1.654153340319682 
  1.244609970540041   5.030525704196985   1.656101331622424 
 -0.000348584288218   7.186438749407342   1.650960767143501 
  6.223547102561122   5.030525704196985   1.656101331622464 
  4.978938464227672  11.497722365343494   1.655143977247234 
 11.202235609646349   5.030685024923693   1.654153340319682 
 -2.489497554594780   7.186440148013733   8.349134643581593 
  3.734078536548228   0.718221238955415   8.354996445703435 
  7.468505657387503   7.186438749407343   8.354996445703462 
  8.712543267451695   0.718607864688219   8.350813235599263 
 13.691927951849244   0.718607864688219   8.350813235599263 
 -0.006473366643761   1.431117870003692   5.002978606422314 
  3.734078536551264   7.921072954595673   5.002978606422314 
  4.987467583466910   1.411649958276508   5.002978606422314 
  8.719225494279925   7.908542183918468   5.002978606422314 
  9.959928495236541   1.435870096339261   5.002978606422314 
 -4.978828546254774  10.060765495602402  11.673616748318732 
  0.000075908606456  10.060784635690439  11.673616748318732 
  1.244654536146189   3.593096629160408  11.673616748318732 
  4.978747593283892  10.060835069354289  11.673616748318732 
  6.223502536955781   3.593096629160408  11.673616748318732 
 11.202235609647357   3.593062010648280  11.673616748318732 
 -2.490356790020906  10.060171827583916   5.002978606422314 
 -1.253237943122006   3.590577461541121   5.002978606422314 
  3.734078536549028   3.483211615369680   5.002978606422314 
  2.487313960072816  10.069403406222841   5.002978606422314 
  7.472520510329534  10.066983988402937   5.002978606422314 
  8.721395016224767   3.590577461541121   5.002978606422314 
 -6.223547339781478  12.216643406952759  11.673616748318732 
 -1.244609733316653  12.216643406952759  11.673616748318732 
  0.000041096675770   5.748897829750073  11.673616748318732 
  4.978663792938902   5.748927878727637  11.673616748318732 
  3.734078536552303  12.216661615239873  11.673616748318732 
  9.957549967727795   5.748898184634728  11.673616748318732 
 -2.496981364477128   5.749643094550798   5.002978606422314 
 -3.734078536550649  12.209241859444765   5.002978606422314 
  1.246123997352453  12.217430015996168   5.002978606422314 
  2.394203322907538   5.803943561198961   5.002978606422314 
  6.222033075743696  12.217430015996168   5.002978606422314 
  7.494673294194521   5.754257634289436   5.002978606422314 
 -1.244613875662856   7.904815650328381  11.673616748318732 
 -0.000100729121417   1.437216811768889  11.673616748318732 
  3.734078536549537   7.904905479445416  11.673616748318732 
  4.978830651470410   1.437329172394769  11.673616748318732 
  8.712770948762305   7.904815650328381  11.673616748318732 
 -3.734078536548484   7.905982572112364   5.002978606422314 
  9.957592885479579   1.437218561263814  11.673616748318732 
  2.480689489632241   1.411649958276521   5.002978606422314 
  1.226872825818211   7.925191145201375   5.002978606422314 
  6.241284247276742   7.925191145201375   5.002978606422314 
  7.474630439745757   1.431117870003692   5.002978606422314 
  1.244793211597796   7.904871735618597  11.673616748318732 
 12.444542724060081   1.435870096339313   5.002978606422314 
 -2.489328526843627  10.060765495602402  11.673616748318732 
 -1.244769785857092   3.593046856643923  11.673616748318732 
  3.734078536550290   3.593242980310118  11.673616748318732 
  2.489409479814049  10.060835069354289  11.673616748318732 
  7.468081164495699  10.060784635690439  11.673616748318732 
  8.712926858953685   3.593046856643923  11.673616748318732 
 -4.977800283080319  10.060171827583813   5.002978606422314 
 -0.004363437232038  10.066983988402937   5.002978606422314 
  1.230653091947977   3.585012891585286   5.002978606422314 
  4.980843113030391  10.069403406222285   5.002978606422314 
  6.237503981152678   3.585012891585286   5.002978606422314 
 11.202235609649941   3.591466195287229   5.002978606422314 
 -2.489392894626272   5.748898184634728  11.673616748318732 
 -3.734078536547549  12.216694926627925  11.673616748318732 
  1.244741980711448  12.216632108317881  11.673616748318732 
  2.489493280160934   5.748927878727637  11.673616748318732 
  6.223415092382241  12.216632108317881  11.673616748318732 
 -6.226696463796163  12.209699144328210   5.002978606422314 
  7.468115976424051   5.748897829750073  11.673616748318732 
 -1.241460609302178  12.209699144328210   5.002978606422314 
 -0.026516221098733   5.754257634289436   5.002978606422314 
 -1.251068421181821   7.908542183918468   5.002978606422314 
  5.073953750192296   5.803943561198961   5.002978606422314 
  3.734078536547814  12.219358545088809   5.002978606422314 
  9.965138437578428   5.749643094550798   5.002978606422314 
 -3.734078536549777   7.904795236071478  11.673616748318732 
  2.489326421629392   1.437329172394769  11.673616748318732 
  6.223363861505059   7.904871735618597  11.673616748318732 
  7.468257802219516   1.437216811768889  11.673616748318732 
 12.446878333821452   1.437218561263814  11.673616748318732 
  3.734078536549917   5.030366245922021   5.002978606422314 
  1.223640869450510   0.695305995601509   5.002978606422314 
  5.003065077233547   7.282186575209369   5.002978606422314 
  6.244516203653249   0.695305995601509   5.002978606422314 
  9.965047452151737   7.187226355801431   5.002978606422314 
 11.202235609649751   0.718623749417456   5.002978606422314 
 -3.734078536549858   9.342108742426666  11.673616748318732 
  1.244520475548732   9.343028449369328  11.673616748318732 
  2.488688860253295   2.873667786279523  11.673616748318732 
  6.223636597548986   9.343028449369328  11.673616748318732 
  7.469295747563582   2.873837583664073  11.673616748318732 
 12.446422869751355   2.874084337424979  11.673616748318732 
 -1.249301568817986   9.348113562084222   5.002978606422314 
 -0.032685460437213   2.855624038287793   5.002978606422314 
  5.049718876125147   2.805481499984011   5.002978606422314 
  3.734078536545698   9.379850661193258   5.002978606422314 
  8.717458641915957   9.348113562084222   5.002978606422314 
  9.967043227848620   2.867532782591427   5.002978606422314 
 -4.978926914539666  11.497717733565572  11.673616748318732 
  0.000258104409281  11.498129007331336  11.673616748318732 
  1.243628044050097   5.030176378456653  11.673616748318732 
  6.224529029057101   5.030176378456653  11.673616748318732 
  4.978668532567495  11.498623170614518  11.673616748318732 
 11.202235609647836   5.030068212620570  11.673616748318732 
 -1.275412600711459   5.023793576753435   5.002978606422314 
 -2.486489726316272  11.490986309393795   5.002978606422314 
  2.490664914292902  11.509688741144251   5.002978606422314 
  7.464101802710587  11.500321302129812   5.002978606422314 
  8.743569673815522   5.023793576753435   5.002978606422314 
 -0.000671741837086   7.186625324503008  11.673616748318732 
  1.243982540924462   0.718014619176991  11.673616748318732 
  4.979139352759129   7.187254573026513  11.673616748318732 
  6.224174532174488   0.718014619176991  11.673616748318732 
  9.957847651691276   7.186233927657891  11.673616748318732 
 -2.496890379050526   7.187226355801431   5.002978606422314 
 11.202235609649751   0.718623749417457  11.673616748318732 
  3.734078536549923   0.691346337379386   5.002978606422314 
  2.465091995861241   7.282186575209369   5.002978606422314 
  7.491780004876232   7.199876200190060   5.002978606422314 
  8.723629605592752   0.713877214029972   5.002978606422314 
  2.489017720348670   7.187254573026513  11.673616748318732 
 13.680841613700643   0.713877214029972   5.002978606422314 
 -1.244842200603900   9.342374566054618  11.673616748318732 
 -0.001138674459267   2.873837583664073  11.673616748318732 
  4.979468212849841   2.873667786279523  11.673616748318732 
  3.734078536556492   9.343423570434117  11.673616748318732 
  8.712999273703305   9.342374566054618  11.673616748318732 
  9.958048349545820   2.874084337424979  11.673616748318732 
 -3.734078536549858   9.342108742426664   5.002978606422314 
  1.235025066387500   9.371999165411843   5.002978606422314 
  2.418438196971474   2.805481499984011   5.002978606422314 
  6.233132006711770   9.371999165411843   5.002978606422314 
  7.500842533534266   2.855624038287793   5.002978606422314 
 12.437427991449960   2.867532782591427   5.002978606422314 
 -1.245575520075573   5.030055669221739  11.673616748318732 
 -2.489230158562362  11.497717733565572  11.673616748318732 
  2.489488540526445  11.498623170614518  11.673616748318732 
  3.734078536549918   5.030366245922021  11.673616748318732 
  7.467898968686738  11.498129007331336  11.673616748318732 
 -4.981667346784592  11.490986309393795   5.002978606422314 
  8.713732593174706   5.030055669221739  11.673616748318732 
  0.004055270388013  11.500321302129812   5.002978606422314 
  1.149451656284098   5.003430662575272   5.002978606422314 
 -0.023622931772512   7.199876200190060   5.002978606422314 
  6.318705416810285   5.003430662575272   5.002978606422314 
  4.977492158799453  11.509688741144251   5.002978606422314 
 11.202235609649126   5.025683623021349   5.002978606422314 
 -2.489690578592172   7.186233927657891  11.673616748318732 
  3.734078536549534   0.717848088755329  11.673616748318732 
  7.468828814940133   7.186625324503008  11.673616748318732 
  8.713458353524629   0.718391229726828  11.673616748318732 
 13.691012865771096   0.718391229726828  11.673616748318732 
 -0.001227736104455   1.435518552916186   1.644082294836241 
  3.734078536553532   7.908442339700436   1.640107532190232 
  4.979521043022549   1.432859308488391   1.640742381634448 
  8.715320218655716   7.906287471983646   1.648345334833641 
  9.958036537968153   1.436962418378341   1.652003932431044 
 -4.978085576932035  10.060336542065080   8.352008597803220 
 -0.001617426121661  10.061601387311168   8.358317682236803 
  1.241591525309385   3.591328199032905   8.365849680655144 
  4.979654825101772  10.062660215459937   8.361874918010734 
  6.226565547790254   3.591328199032905   8.365849680655144 
 11.202235609646527   3.593376073292005   8.356311412551419 
 -2.490071496168340  10.060336542065080   1.653948615042128 
 -1.246804024656462   3.592919969391349   1.644082294836241 
  3.734078536551440   3.588039480515114   1.647653545152309 
  2.488502247997126  10.062660215459937   1.644082294836241 
  7.469774499220185  10.061601387311168   1.647639530607677 
  8.714961097756341   3.592919969391453   1.644082294836241 
 -6.223408000068808  12.214768560253864   8.358317682236803 
 -1.244749073030383  12.214768560253864   8.358317682236803 
 -0.004175114794181   5.750534865080565   8.365214831212407 
  4.983170155948245   5.751529628624155   8.358303667691878 
  3.734078536549615  12.217173901010170   8.353953280414490 
  9.959103962740368   5.749956279716008   8.358317682236803 
 -2.490946889639890   5.749956279716007   1.647639530607677 
 -3.734078536549029  12.213751283311471   1.648345334833641 
  1.244469994486495  12.216475076996748   1.649645800293609 
  2.484986917151591   5.751529628624154   1.647653545152296 
  6.223687078608834  12.216475076996748   1.649645800293609 
  7.472332187896166   5.750534865080564   1.640742381634394 
 -1.247163145554354   7.906287471983647   8.357611878010987 
 -0.001227736104439   1.435518552916186   8.361874918010734 
  3.734078536553532   7.908442339700437   8.365849680655144 
  4.979521043022221   1.432859308488391   8.365214831212407 
  8.715320218655716   7.906287471983647   8.357611878010987 
 -3.734078536550196   7.905653143150333   1.653948615042128 
  9.958036537967899   1.436962418378341   8.353953280414490 
  2.488636030077759   1.432859308488391   1.640742381634434 
  1.241267391677743   7.907704564197510   1.640742381634434 
  6.226889681423302   7.907704564197510   1.640742381634421 
  7.469384809203747   1.435518552916212   1.644082294836241 
  1.241267391677415   7.907704564197511   8.365214831212407 
 12.446434681330578   1.436962418378341   1.652003932431044 
 -2.490071496168339  10.060336542065080   8.352008597803220 
 -1.246804024656454   3.592919969391337   8.361874918010734 
  3.734078536551440   3.588039480515115   8.358303667691878 
  2.488502247997127  10.062660215459937   8.361874918010734 
  7.469774499220186  10.061601387311168   8.358317682236803 
  8.714961097756401   3.592919969391350   8.361874918010734 
 -4.978085576932036  10.060336542065080   1.653948615042128 
 -0.001617426121661  10.061601387311168   1.647639530607677 
  1.241591525309384   3.591328199032904   1.640107532190352 
  4.979654825101771  10.062660215459937   1.644082294836241 
  6.226565547790253   3.591328199032904   1.640107532190352 
 11.202235609646527   3.593376073292005   1.649645800293609 
 -2.490946889639905   5.749956279716008   8.358317682236803 
 -3.734078536549036  12.213751283311483   8.357611878010987 
  1.244469994486495  12.216475076996748   8.356311412551419 
  2.484986917151591   5.751529628624155   8.358303667691878 
  6.223687078608835  12.216475076996748   8.356311412551419 
 -6.223408000068801  12.214768560253876   1.647639530607677 
  7.472332187896167   5.750534865080565   8.365214831212407 
 -1.244749073030383  12.214768560253864   1.647639530607677 
 -0.004175114794182   5.750534865080564   1.640742381634434 
 -1.247163145554355   7.906287471983646   1.648345334833641 
  4.983170155948244   5.751529628624154   1.647653545152376 
  3.734078536549615  12.217173901010170   1.652003932431044 
  9.959103962740368   5.749956279716007   1.647639530607677 
 -3.734078536550196   7.905653143150333   8.352008597803220 
  2.488636030077760   1.432859308488391   8.365214831212407 
  6.226889681423303   7.907704564197511   8.365214831212407 
  7.469384809203748   1.435518552916212   8.361874918010734 
 12.446434681330578   1.436962418378341   8.353953280414490 
Generated by cif2cell 2.0.0.  :  Failed to get author information, No journal information. Species order: N S B 
 1.0
 14.936314146199660   0.000000000000000   0.000000000000000
 -7.468157073099825  12.935227489513863   0.000000000000000
  0.000000000000001   0.000000000000001  13.341276283792837
 N S B 
 144   1 143
Cartesian
  1.244897094116931   0.718332263421163   1.650108497665949 
  4.978950914472485   7.186229536873176   1.656101331622451 
  6.223259978983199   0.718332263421163   1.650108497665949 
  9.957654627687686   7.186440148013732   1.656822569260834 
 11.202235609649751   0.718623749417456   1.659610853415217 
 -3.734078536549858   9.342108742426664   8.344381267530451 
  1.244338286939998   9.342077600946849   8.355848715175931 
  2.489482348461545   2.874343496697842   8.349855881223911 
  6.223818786160288   9.342077600946849   8.355848715175904 
  7.468012930136297   2.874578218649846   8.356827118843473 
 12.447068024170223   2.874768507734817   8.350813235599263 
 -1.244924280667346   9.342104292193973   1.656822569260834 
  0.000144142963895   2.874578218649845   1.649130094002542 
  4.978674724637496   2.874343496697815   1.656101331622411 
  3.734078536552376   9.341942300466124   1.649130094002595 
  8.713081353762808   9.342104292193973   1.656822569260834 
  9.957403195127730   2.874768507734816   1.655143977247234 
 -4.978651810477671  11.497781787079232   8.349134643581593 
 -0.000276070715336  11.497820601181058   8.351803872524410 
  1.244609970540041   5.030525704196986   8.349855881223911 
  6.223547102561183   5.030525704196986   8.349855881223911 
  4.978938464227673  11.497722365343494   8.350813235599048 
 11.202235609646349   5.030685024923694   8.351803872524410 
 -1.244843155493959   5.030688873396421   1.650108497665949 
 -2.489505262626047  11.497781787080422   1.656822569260834 
  2.489218608872615  11.497722365343494   1.655143977247234 
  3.734078536549917   5.030366245922020   1.694810496611353 
  7.468433143808380  11.497820601181058   1.654153340319682 
  8.713000228592747   5.030688873396421   1.650108497665963 
 -0.000348584288218   7.186438749407343   8.354996445703462 
  1.244897094116886   0.718332263421164   8.355848715175904 
  4.978950914472425   7.186229536873177   8.349855881223897 
  6.223259978983200   0.718332263421164   8.355848715175931 
  9.957654627687686   7.186440148013733   8.349134643581593 
 -2.489497554594780   7.186440148013732   1.656822569260834 
 11.202235609649751   0.718623749417456   8.346346359428731 
  3.734078536548228   0.718221238955414   1.650960767143541 
  2.489206158627279   7.186229536873176   1.656101331622438 
  7.468505657387502   7.186438749407342   1.650960767143541 
  8.712543267451695   0.718607864688218   1.655143977247234 
  2.489206158627279   7.186229536873177   8.349855881223911 
 13.691927951849244   0.718607864688218   1.655143977247234 
 -1.244924280667346   9.342104292193973   8.349134643581593 
  0.000144142963896   2.874578218649846   8.356827118843473 
  4.978674724637481   2.874343496697842   8.349855881223911 
  3.734078536552377   9.341942300466124   8.356827118843473 
  8.713081353762808   9.342104292193973   8.349134643581593 
  9.957403195127730   2.874768507734817   8.350813235599263 
 -3.734078536549859   9.342108742426664   1.661575945313589 
  1.244338286939998   9.342077600946849   1.650108497665870 
  2.489482348461552   2.874343496697828   1.656101331622438 
  6.223818786160287   9.342077600946849   1.650108497665949 
  7.468012930136296   2.874578218649845   1.649130094002595 
 12.447068024170282   2.874768507734712   1.655143977247234 
 -1.244843155493959   5.030688873396421   8.355848715175931 
 -2.489505262625360  11.497781787079232   8.349134643581593 
  2.489218608872615  11.497722365343494   8.350813235599263 
  3.734078536549917   5.030366245922021   8.311146716230406 
  7.468433143808381  11.497820601181058   8.351803872524410 
 -4.978651810478359  11.497781787080422   1.656822569260847 
  8.713000228592627   5.030688873396421   8.355848715175904 
 -0.000276070715336  11.497820601181058   1.654153340319682 
  1.244609970540041   5.030525704196985   1.656101331622424 
 -0.000348584288218   7.186438749407342   1.650960767143501 
  6.223547102561122   5.030525704196985   1.656101331622464 
  4.978938464227672  11.497722365343494   1.655143977247234 
 11.202235609646349   5.030685024923693   1.654153340319682 
 -2.489497554594780   7.186440148013733   8.349134643581593 
  3.734078536548228   0.718221238955415   8.354996445703435 
  7.468505657387503   7.186438749407343   8.354996445703462 
  8.712543267451695   0.718607864688219   8.350813235599263 
 13.691927951849244   0.718607864688219   8.350813235599263 
 -0.006473366643761   1.431117870003692   5.002978606422314 
  3.734078536551264   7.921072954595673   5.002978606422314 
  4.987467583466910   1.411649958276508   5.002978606422314 
  8.719225494279925   7.908542183918468   5.002978606422314 
  9.959928495236541   1.435870096339261   5.002978606422314 
 -4.978828546254774  10.060765495602402  11.673616748318732 
  0.000075908606456  10.060784635690439  11.673616748318732 
  1.244654536146189   3.593096629160408  11.673616748318732 
  4.978747593283892  10.060835069354289  11.673616748318732 
  6.223502536955781   3.593096629160408  11.673616748318732 
 11.202235609647357   3.593062010648280  11.673616748318732 
 -2.490356790020906  10.060171827583916   5.002978606422314 
 -1.253237943122006   3.590577461541121   5.002978606422314 
  3.734078536549028   3.483211615369680   5.002978606422314 
  2.487313960072816  10.069403406222841   5.002978606422314 
  7.472520510329534  10.066983988402937   5.002978606422314 
  8.721395016224767   3.590577461541121   5.002978606422314 
 -6.223547339781478  12.216643406952759  11.673616748318732 
 -1.244609733316653  12.216643406952759  11.673616748318732 
  0.000041096675770   5.748897829750073  11.673616748318732 
  4.978663792938902   5.748927878727637  11.673616748318732 
  3.734078536552303  12.216661615239873  11.673616748318732 
  9.957549967727795   5.748898184634728  11.673616748318732 
 -2.496981364477128   5.749643094550798   5.002978606422314 
 -3.734078536550649  12.209241859444765   5.002978606422314 
  1.246123997352453  12.217430015996168   5.002978606422314 
  2.394203322907538   5.803943561198961   5.002978606422314 
  6.222033075743696  12.217430015996168   5.002978606422314 
  7.494673294194521   5.754257634289436   5.002978606422314 
 -1.244613875662856   7.904815650328381  11.673616748318732 
 -0.000100729121417   1.437216811768889  11.673616748318732 
  3.734078536549537   7.904905479445416  11.673616748318732 
  4.978830651470410   1.437329172394769  11.673616748318732 
  8.712770948762305   7.904815650328381  11.673616748318732 
 -3.734078536548484   7.905982572112364   5.002978606422314 
  9.957592885479579   1.437218561263814  11.673616748318732 
  2.480689489632241   1.411649958276521   5.002978606422314 
  1.226872825818211   7.925191145201375   5.002978606422314 
  6.241284247276742   7.925191145201375   5.002978606422314 
  7.474630439745757   1.431117870003692   5.002978606422314 
  1.244793211597796   7.904871735618597  11.673616748318732 
 12.444542724060081   1.435870096339313   5.002978606422314 
 -2.489328526843627  10.060765495602402  11.673616748318732 
 -1.244769785857092   3.593046856643923  11.673616748318732 
  3.734078536550290   3.593242980310118  11.673616748318732 
  2.489409479814049  10.060835069354289  11.673616748318732 
  7.468081164495699  10.060784635690439  11.673616748318732 
  8.712926858953685   3.593046856643923  11.673616748318732 
 -4.977800283080319  10.060171827583813   5.002978606422314 
 -0.004363437232038  10.066983988402937   5.002978606422314 
  1.230653091947977   3.585012891585286   5.002978606422314 
  4.980843113030391  10.069403406222285   5.002978606422314 
  6.237503981152678   3.585012891585286   5.002978606422314 
 11.202235609649941   3.591466195287229   5.002978606422314 
 -2.489392894626272   5.748898184634728  11.673616748318732 
 -3.734078536547549  12.216694926627925  11.673616748318732 
  1.244741980711448  12.216632108317881  11.673616748318732 
  2.489493280160934   5.748927878727637  11.673616748318732 
  6.223415092382241  12.216632108317881  11.673616748318732 
 -6.226696463796163  12.209699144328210   5.002978606422314 
  7.468115976424051   5.748897829750073  11.673616748318732 
 -1.241460609302178  12.209699144328210   5.002978606422314 
 -0.026516221098733   5.754257634289436   5.002978606422314 
 -1.251068421181821   7.908542183918468   5.002978606422314 
  5.073953750192296   5.803943561198961   5.002978606422314 
  3.734078536547814  12.219358545088809   5.002978606422314 
  9.965138437578428   5.749643094550798   5.002978606422314 
 -3.734078536549777   7.904795236071478  11.673616748318732 
  2.489326421629392   1.437329172394769  11.673616748318732 
  6.223363861505059   7.904871735618597  11.673616748318732 
  7.468257802219516   1.437216811768889  11.673616748318732 
 12.446878333821452   1.437218561263814  11.673616748318732 
  3.734078536549917   5.030366245922021   5.002978606422314 
  1.223640869450510   0.695305995601509   5.002978606422314 
  5.003065077233547   7.282186575209369   5.002978606422314 
  6.244516203653249   0.695305995601509   5.002978606422314 
  9.965047452151737   7.187226355801431   5.002978606422314 
 11.202235609649751   0.718623749417456   5.002978606422314 
 -3.734078536549858   9.342108742426666  11.673616748318732 
  1.244520475548732   9.343028449369328  11.673616748318732 
  2.488688860253295   2.873667786279523  11.673616748318732 
  6.223636597548986   9.343028449369328  11.673616748318732 
  7.469295747563582   2.873837583664073  11.673616748318732 
 12.446422869751355   2.874084337424979  11.673616748318732 
 -1.249301568817986   9.348113562084222   5.002978606422314 
 -0.032685460437213   2.855624038287793   5.002978606422314 
  5.049718876125147   2.805481499984011   5.002978606422314 
  3.734078536545698   9.379850661193258   5.002978606422314 
  8.717458641915957   9.348113562084222   5.002978606422314 
  9.967043227848620   2.867532782591427   5.002978606422314 
 -4.978926914539666  11.497717733565572  11.673616748318732 
  0.000258104409281  11.498129007331336  11.673616748318732 
  1.243628044050097   5.030176378456653  11.673616748318732 
  6.224529029057101   5.030176378456653  11.673616748318732 
  4.978668532567495  11.498623170614518  11.673616748318732 
 11.202235609647836   5.030068212620570  11.673616748318732 
 -1.275412600711459   5.023793576753435   5.002978606422314 
 -2.486489726316272  11.490986309393795   5.002978606422314 
  2.490664914292902  11.509688741144251   5.002978606422314 
  7.464101802710587  11.500321302129812   5.002978606422314 
  8.743569673815522   5.023793576753435   5.002978606422314 
 -0.000671741837086   7.186625324503008  11.673616748318732 
  1.243982540924462   0.718014619176991  11.673616748318732 
  4.979139352759129   7.187254573026513  11.673616748318732 
  6.224174532174488   0.718014619176991  11.673616748318732 
  9.957847651691276   7.186233927657891  11.673616748318732 
 -2.496890379050526   7.187226355801431   5.002978606422314 
 11.202235609649751   0.718623749417457  11.673616748318732 
  3.734078536549923   0.691346337379386   5.002978606422314 
  2.465091995861241   7.282186575209369   5.002978606422314 
  7.491780004876232   7.199876200190060   5.002978606422314 
  8.723629605592752   0.713877214029972   5.002978606422314 
  2.489017720348670   7.187254573026513  11.673616748318732 
 13.680841613700643   0.713877214029972   5.002978606422314 
 -1.244842200603900   9.342374566054618  11.673616748318732 
 -0.001138674459267   2.873837583664073  11.673616748318732 
  4.979468212849841   2.873667786279523  11.673616748318732 
  3.734078536556492   9.343423570434117  11.673616748318732 
  8.712999273703305   9.342374566054618  11.673616748318732 
  9.958048349545820   2.874084337424979  11.673616748318732 
 -3.734078536549858   9.342108742426664   5.002978606422314 
  1.235025066387500   9.371999165411843   5.002978606422314 