Species order: X N B                    
   2.51242800000000     
     5.9449720136058266    0.0000000000000000    0.0000000000000000
    -2.9724860068029120    5.1484967885702053   -0.0000000000000001
     0.0000000000000000    0.0000000000000009    5.3101128803662583
   S    N    B 
     1   144   143
Direct
  0.4444444444444429  0.3888888888888857  0.3750000000000000
  0.1111135186047887  0.0555330212787897  0.1236844558620319
  0.6111228233886002  0.5555549403904025  0.1241336508137756
  0.4444195026740209  0.0555330212787897  0.1236844558620320
  0.9444597672209371  0.5555712223723575  0.1241877114315943
  0.7777777777777786  0.0555555555555571  0.1243967082393261
  0.1111111111111143  0.7222222222222214  0.6254559976145099
  0.4444195026740209  0.7222198147284344  0.6263155441377624
  0.2777783929430228  0.2222105099448745  0.6258663491863536
  0.7778003120544429  0.7222198147284344  0.6263155441377596
  0.6111046774416439  0.2222286558918403  0.6263888807246623
  0.9444643610122548  0.2222433668109271  0.6259381080162429
  0.2777621109612215  0.7222218781824506  0.1241877114315943
  0.1111239784502202  0.2222286558918403  0.1236111192754416
  0.4444321170017983  0.2222105099448734  0.1241336508137733
  0.6111046774416439  0.7222093548829589  0.1236111192754461
  0.9444597672209371  0.7222218781824506  0.1241877114315941
  0.7777790057985687  0.2222433668109271  0.1240618919838968
  0.1111114551509557  0.8888735661123915  0.6258122885682407
  0.4444198001927719  0.8888765667632780  0.6260123615512183
  0.2777783929430228  0.3889012163315303  0.6258663491863536
  0.6111228233886002  0.3889012163315303  0.6258663491863536
  0.7777790057985687  0.8888689723210738  0.6259381080162267
  0.9444567665700506  0.3889135331405567  0.6260123615512183
  0.1111135186047873  0.3889138306593077  0.1236844558620320
  0.2777621109612215  0.8888735661124845  0.1241877114315943
  0.6110899665225346  0.8888689723210738  0.1240618919838968
  0.4444444444444429  0.3888888888888857  0.1270351097271130
  0.9444567665700506  0.8888765667632780  0.1239876384487417
  0.7778003120544512  0.3889138306593077  0.1236844558620332
  0.2777622190848495  0.5555711142485233  0.6262516619832863
  0.1111135186047856  0.0555330212787897  0.6263155441377596
  0.6111228233885960  0.5555549403904025  0.6258663491863532
  0.4444195026740209  0.0555330212787898  0.6263155441377624
  0.9444597672209371  0.5555712223723575  0.6258122885682407
  0.1111114551509557  0.5555712223723575  0.1241877114315941
  0.7777777777777786  0.0555555555555571  0.6256032917606230
  0.2777622190848495  0.0555244381699239  0.1237483380168916
  0.4444321170017983  0.5555549403904025  0.1241336508137753
  0.7778088951636367  0.5555711142485233  0.1237483380168916
  0.6110899665225346  0.0555543275346926  0.1240618919838968
  0.4444321170017983  0.5555549403904025  0.6258663491863536
  0.9444643610122548  0.0555543275346926  0.1240618919838968
  0.2777621109612215  0.7222218781824506  0.6258122885682407
  0.1111239784502202  0.2222286558918403  0.6263888807246623
  0.4444321170017983  0.2222105099448745  0.6258663491863536
  0.6111046774416439  0.7222093548829589  0.6263888807246623
  0.9444597672209371  0.7222218781824506  0.6258122885682407
  0.7777790057985687  0.2222433668109271  0.6259381080162429
  0.1111111111111143  0.7222222222222214  0.1245440023854461
  0.4444195026740209  0.7222198147284344  0.1236844558620262
  0.2777783929430228  0.2222105099448738  0.1241336508137752
  0.7778003120544429  0.7222198147284344  0.1236844558620320
  0.6111046774416439  0.2222286558918403  0.1236111192754461
  0.9444643610122548  0.2222433668109187  0.1240618919838968
  0.1111135186047870  0.3889138306593077  0.6263155441377624
  0.2777621109612215  0.8888735661123915  0.6258122885682407
  0.6110899665225346  0.8888689723210738  0.6259381080162429
  0.4444444444444429  0.3888888888888857  0.6229648902726721
  0.9444567665700506  0.8888765667632780  0.6260123615512183
  0.1111114551509557  0.8888735661124845  0.1241877114315947
  0.7778003120544429  0.3889138306593077  0.6263155441377596
  0.4444198001927719  0.8888765667632780  0.1239876384487417
  0.2777783929430228  0.3889012163315303  0.1241336508137736
  0.2777622190848495  0.5555711142485233  0.1237483380168892
  0.6111228233885960  0.3889012163315303  0.1241336508137771
  0.7777790057985687  0.8888689723210738  0.1240618919838968
  0.9444567665700506  0.3889135331405567  0.1239876384487417
  0.1111114551509557  0.5555712223723575  0.6258122885682407
  0.2777622190848495  0.0555244381699239  0.6262516619832844
  0.7778088951636367  0.5555711142485233  0.6262516619832863
  0.6110899665225346  0.0555543275346926  0.6259381080162429
  0.9444643610122548  0.0555543275346926  0.6259381080162429
  0.0548852222054752  0.1106372401385174  0.3750000000000000
  0.5561822051842276  0.6123644103682757  0.3750000000000000
  0.3884816568588130  0.1091322096515803  0.3750000000000000
  0.8894580231122802  0.6113956782228722  0.3750000000000000
  0.7223287068198437  0.1110046265133931  0.3750000000000000
  0.0555530040921135  0.7777803292410833  0.8750000000000000
  0.3888959866152170  0.7777818089280889  0.8750000000000000
  0.2222188024252806  0.2777760678792243  0.8750000000000000
  0.7222245945859864  0.7777857078671596  0.8750000000000000
  0.5555572654540863  0.2777760678792243  0.8750000000000000
  0.8888866957908904  0.2777733915821000  0.8750000000000000
  0.2221355342591473  0.7777344337963403  0.3750000000000000
  0.0548852222054752  0.2775813154002799  0.3750000000000000
  0.3846405240337616  0.2692810480676434  0.3750000000000000
  0.5557520179331865  0.7784481111279835  0.3750000000000000
  0.8894226712111363  0.7782610701330063  0.3750000000000000
  0.7226960931950013  0.2775813154002799  0.3750000000000000
  0.0555515244051982  0.9444475110203018  0.8750000000000000
  0.3888959866152170  0.9444475110203018  0.8750000000000000
  0.2222214111016216  0.4444373192825953  0.8750000000000000
  0.5555459513005282  0.4444396423169284  0.8750000000000000
  0.7222244593358567  0.9444489186713951  0.8750000000000000
  0.8888858223130268  0.4444373467181116  0.8750000000000000
  0.0550722632005782  0.4444949344116159  0.3750000000000000
  0.2219376551104759  0.9438753102210512  0.3750000000000000
  0.5556833114684450  0.9445083224010101  0.3750000000000000
  0.3846405240337616  0.4486928092995670  0.3750000000000000
  0.8888250109323185  0.9445083224010101  0.3750000000000000
  0.7242011236815186  0.4448516764745116  0.3750000000000000
  0.2222257469586701  0.6111075863750014  0.8750000000000000
  0.0555476254661060  0.1111087387472691  0.8750000000000000
  0.5555572654540863  0.6111145309082228  0.8750000000000000
  0.3888960140507333  0.1111174251523574  0.8750000000000000
  0.8888818394163051  0.6111075863750014  0.8750000000000000
  0.0555988995370948  0.6111977990739992  0.3750000000000000
  0.7222244593358567  0.1111088739976867  0.8750000000000000
  0.2206505527927224  0.1091322096515806  0.3750000000000000
  0.3884816568588170  0.6126827805406627  0.3750000000000000
  0.7242011236815186  0.6126827805406627  0.3750000000000000
  0.5557520179331865  0.1106372401385174  0.3750000000000000
  0.3888960140507333  0.6111119222315029  0.8750000000000000
  0.8886759196933586  0.1110046265133965  0.3750000000000000
  0.2222273251490642  0.7777803292410833  0.8750000000000000
  0.0555476254661060  0.2777722200523089  0.8750000000000000
  0.3888936910164002  0.2777873820327501  0.8750000000000000
  0.5555611132810467  0.7777857078671596  0.8750000000000000
  0.8888858223130268  0.7777818089280889  0.8750000000000000
  0.7222245945859864  0.2777722200523088  0.8750000000000000
  0.0555988995370948  0.7777344337963321  0.3750000000000000
  0.3888383989217127  0.7782610701330063  0.3750000000000000
  0.2209689229650250  0.2771511281491978  0.3750000000000000
  0.7226960931950013  0.7784481111279414  0.3750000000000000
  0.5561822051842276  0.2771511281491978  0.3750000000000000
  0.8888250109323185  0.2776500218646100  0.3750000000000000
  0.0555515244051982  0.4444373467181116  0.8750000000000000
  0.2222257469586701  0.9444514939170235  0.8750000000000000
  0.5555599417511355  0.9444466375424382  0.8750000000000000
  0.3888936910164002  0.4444396423169284  0.8750000000000000
  0.8888866957908904  0.9444466375424382  0.8750000000000000
  0.0550722632005782  0.9439106621221923  0.3750000000000000
  0.7222159081809720  0.4444373192825953  0.8750000000000000
  0.3888383989217127  0.9439106621221923  0.3750000000000000
  0.2206505527927224  0.4448516764745116  0.3750000000000000
  0.2219376551104759  0.6113956782228722  0.3750000000000000
  0.5640522852658053  0.4486928092995670  0.3750000000000000
  0.7223287068198437  0.9446574136399700  0.3750000000000000
  0.8894226712111363  0.4444949344116159  0.3750000000000000
  0.0555530040921135  0.6111060081842096  0.8750000000000000
  0.2222214111016216  0.1111174251523574  0.8750000000000000
  0.7222159081809720  0.6111119222315029  0.8750000000000000
  0.5555611132810467  0.1111087387472690  0.8750000000000000
  0.8888844146619335  0.1111088739976867  0.8750000000000000
  0.1088003343578363  0.0537529004546053  0.3750000000000000
  0.6164464249074748  0.5629732125788115  0.3750000000000000
  0.4449525660970320  0.0537529004546053  0.3750000000000000
  0.9449851138134840  0.5556320027326824  0.3750000000000000
  0.7777777777777786  0.0555555555555571  0.3750000000000000
  0.1111111111111143  0.7222222222222214  0.8750000000000000
  0.4444684545904209  0.7222933231706506  0.8750000000000000
  0.2776991491758808  0.2221582719445101  0.8750000000000000
  0.7778248685800881  0.7222933231706506  0.8750000000000000
  0.6111619346478403  0.2221713986857816  0.8750000000000000
  0.9443947213192728  0.2221904747910234  0.8750000000000000
  0.2777013306004854  0.7226864444140941  0.3750000000000000
  0.1081933488379244  0.2207633410856318  0.3750000000000000
  0.4465267876709983  0.2168869084257174  0.3750000000000000
  0.6125699922475224  0.7251399844956092  0.3750000000000000
  0.9449851138134840  0.7226864444140941  0.3750000000000000
  0.7781447241952296  0.2216839854510507  0.3750000000000000
  0.1110905607474038  0.8888686142463572  0.8750000000000000
  0.4444674848820149  0.8889004091077998  0.8750000000000000
  0.2776991491758808  0.3888742105644788  0.8750000000000000
  0.6111750613890908  0.3888742105644788  0.8750000000000000
  0.7777957534715946  0.8889386120140558  0.8750000000000000
  0.9444329242255288  0.3888658484513137  0.8750000000000000
  0.1088003343578378  0.3883807672362966  0.3750000000000000
  0.2777013306004854  0.8883482195198446  0.3750000000000000
  0.6116493478818379  0.8897940720775690  0.3750000000000000
  0.9442634417173734  0.8890698916159552  0.3750000000000000
  0.7795804328787418  0.3883807672362966  0.3750000000000000
  0.2777477952875817  0.5555855380455390  0.8750000000000000
  0.1110400101627728  0.0555084647532526  0.8750000000000000
  0.6111750613890912  0.5556341841574076  0.8750000000000000
  0.4444684545904209  0.0555084647532527  0.8750000000000000
  0.9444647190869003  0.5555552798343533  0.8750000000000000
  0.1106468889192898  0.5556320027326824  0.3750000000000000
  0.7777777777777786  0.0555555555555571  0.8750000000000000
  0.2767233930729027  0.0534467861458052  0.3750000000000000
  0.4465267876709984  0.5629732125788115  0.3750000000000000
  0.7798865471875304  0.5566099402601726  0.3750000000000000
  0.6116493478818379  0.0551886091380064  0.3750000000000000
  0.4444591227688498  0.5556341841574076  0.8750000000000000
  0.9435392612557596  0.0551886091380064  0.3750000000000000
  0.2777780534988048  0.7222427725858052  0.8750000000000000
  0.1110094640382419  0.2221713986857816  0.8750000000000000
  0.4444591227688498  0.2221582719445101  0.8750000000000000
  0.6111619346478403  0.7223238692948002  0.8750000000000000
  0.9444647190869714  0.7222427725858052  0.8750000000000000
  0.7777957534715946  0.2221904747910234  0.8750000000000000
  0.1111111111111143  0.7222222222222214  0.3750000000000000
  0.4449525660970320  0.7245329989758116  0.3750000000000000
  0.2703601207545042  0.2168869084257174  0.3750000000000000
  0.7795804328787418  0.7245329989758116  0.3750000000000000
  0.6125699922475224  0.2207633410856318  0.3750000000000000
  0.9435392612557596  0.2216839854510506  0.3750000000000000
  0.1110400101627731  0.3888648787429077  0.8750000000000000
  0.2777780534988048  0.8888686142463572  0.8750000000000000
  0.6111428585420663  0.8889386120140558  0.8750000000000000
  0.4444444444444429  0.3888888888888857  0.8750000000000000
  0.9444329242255288  0.8889004091077998  0.8750000000000000
  0.1106468889192896  0.8883482195198446  0.3750000000000000
  0.7778248685800881  0.3888648787429077  0.8750000000000000
  0.4448064498984995  0.8890698916159552  0.3750000000000000
  0.2703601207544896  0.3868065456623302  0.3750000000000000
  0.2767233930729027  0.5566099402601726  0.3750000000000000
  0.6164464249074748  0.3868065456623302  0.3750000000000000
  0.7781447241952296  0.8897940720775690  0.3750000000000000
  0.9442634417173734  0.3885268834348291  0.3750000000000000
  0.1110905607474038  0.5555552798343533  0.8750000000000000
  0.2777477952875817  0.0554955905752149  0.8750000000000000
  0.7778377427581723  0.5555855380455390  0.8750000000000000
  0.6111428585420737  0.0555375798615991  0.8750000000000000
  0.9443947213192728  0.0555375798615991  0.8750000000000000
  0.0554065265866786  0.1109774493011359  0.1232327597348012
  0.5556939797200239  0.6113879594395644  0.1229348300194232
  0.3887694576889058  0.1107718677271006  0.1229824153801266
  0.8891094073751075  0.6112213703541740  0.1235522973792297
  0.7222442612978275  0.1110890720355119  0.1238265288335214
  0.0555861657461645  0.7777471675871677  0.6260277068056338
  0.3888141871198353  0.7778449505791648  0.6265006064217860
  0.2219453738935167  0.2776393536135535  0.6270651699806331
  0.7223558840322374  0.7779268067467215  0.6267672402653754
  0.5556939797200239  0.2776393536135535  0.6270651699806331
  0.8888988356099440  0.2777976712203185  0.6263502257803306
  0.2221610018409666  0.7777471675871677  0.1239722931944195
  0.0554065265866791  0.2777624106189087  0.1232327597348010
  0.3886925542448497  0.2773851084894959  0.1235004440432660
  0.5555709227144217  0.7779268067467215  0.1232327597348012
  0.8890307634592419  0.7778449505791648  0.1234993935782031
  0.7223558840322374  0.2777624106189168  0.1232327597348012
  0.0554883827542931  0.9443025698740862  0.6265006064217860
  0.3888141871198353  0.9443025698740862  0.6265006064217860
  0.2220024100382275  0.4445638756444228  0.6270175846200396
  0.5559482248436293  0.4446407790884789  0.6264995559567007
  0.7222442612978275  0.9444885225956949  0.6261734711665473
  0.8890307634592424  0.4445191462134933  0.6265006064217860
  0.0554883827542938  0.4445191462134933  0.1234993935782031
  0.2221119629791693  0.9442239259582200  0.1235522973792297
  0.5555356621131393  0.9444344977233846  0.1236497742196994
  0.3886925542448497  0.4446407790884789  0.1235004440432653
  0.8888988356099440  0.9444344977233846  0.1236497742196994
  0.7225614656063396  0.4445638756444228  0.1229824153801227
  0.2221119629791693  0.6112213703541740  0.6264477026207701
  0.0554065265866795  0.1109774493011361  0.6267672402653754
  0.5556939797200239  0.6113879594395644  0.6270651699806331
  0.3887694576888838  0.1107718677271009  0.6270175846200396
  0.8891094073751075  0.6112213703541740  0.6264477026207701
  0.0555861657461645  0.6111723314923664  0.1239722931944195
  0.7222442612978097  0.1110890720355119  0.6261734711665473
  0.2220024100382275  0.1107718677271006  0.1229824153801262
  0.3887694576889058  0.6113309232951653  0.1229824153801262
  0.7225614656063396  0.6113309232951653  0.1229824153801250
  0.5555709227144217  0.1109774493011378  0.1232327597348012
  0.3887694576888838  0.6113309232951653  0.6270175846200396
  0.8888448107376337  0.1110890720355119  0.1238265288335214
  0.2221610018409670  0.7777471675871677  0.6260277068056338
  0.0554065265866785  0.2777624106189085  0.6267672402653754
  0.3886925542448497  0.2773851084894959  0.6264995559567007
  0.5555709227144217  0.7779268067467215  0.6267672402653754
  0.8890307634592424  0.7778449505791648  0.6265006064217860
  0.7223558840322374  0.2777624106189087  0.6267672402653754
  0.0555861657461645  0.7777471675871677  0.1239722931944195
  0.3888141871198353  0.7778449505791648  0.1234993935782034
  0.2219453738935167  0.2776393536135535  0.1229348300194319
  0.7223558840322374  0.7779268067467215  0.1232327597348012
  0.5556939797200239  0.2776393536135535  0.1229348300194318
  0.8888988356099440  0.2777976712203185  0.1236497742196991
  0.0554883827542932  0.4445191462134933  0.6265006064217860
  0.2221119629791693  0.9442239259582211  0.6264477026207701
  0.5555356621131393  0.9444344977233846  0.6263502257803306
  0.3886925542448497  0.4446407790884789  0.6264995559567007
  0.8888988356099440  0.9444344977233846  0.6263502257803306
  0.0554883827542938  0.9443025698740867  0.1234993935782033
  0.7225614656063396  0.4445638756444228  0.6270175846200396
  0.3888141871198353  0.9443025698740862  0.1234993935782034
  0.2220024100382275  0.4445638756444228  0.1229824153801262
  0.2221119629791693  0.6112213703541740  0.1235522973792297
  0.5559482248436293  0.4446407790884789  0.1235004440432712
  0.7222442612978275  0.9444885225956949  0.1238265288335214
  0.8890307634592419  0.4445191462134933  0.1234993935782031
  0.0555861657461645  0.6111723314923664  0.6260277068056338
  0.2220024100382275  0.1107718677271009  0.6270175846200396
  0.7225614656063396  0.6113309232951653  0.6270175846200396
  0.5555709227144217  0.1109774493011381  0.6267672402653754
  0.8888448107376337  0.1110890720355119  0.6261734711665473
 
  0.00000000E+00  0.00000000E+00  0.00000000E+00
  0.00000000E+00  0.00000000E+00  0.00000000E+00
  0.00000000E+00  0.00000000E+00  0.00000000E+00
  0.00000000E+00  0.00000000E+00  0.00000000E+00
  0.00000000E+00  0.00000000E+00  0.00000000E+00
  0.00000000E+00  0.00000000E+00  0.00000000E+00
  0.00000000E+00  0.00000000E+00  0.00000000E+00
  0.00000000E+00  0.00000000E+00  0.00000000E+00
  0.00000000E+00  0.00000000E+00  0.00000000E+00
  0.00000000E+00  0.00000000E+00  0.00000000E+00
  0.00000000E+00  0.00000000E+00  0.00000000E+00
  0.00000000E+00  0.00000000E+00  0.00000000E+00
  0.00000000E+00  0.00000000E+00  0.00000000E+00
  0.00000000E+00  0.00000000E+00  0.00000000E+00
  0.00000000E+00  0.00000000E+00  0.00000000E+00
  0.00000000E+00  0.00000000E+00  0.00000000E+00
  0.00000000E+00  0.00000000E+00  0.00000000E+00
  0.00000000E+00  0.00000000E+00  0.00000000E+00
  0.00000000E+00  0.00000000E+00  0.00000000E+00
  0.00000000E+00  0.00000000E+00  0.00000000E+00
  0.00000000E+00  0.00000000E+00  0.00000000E+00
  0.00000000E+00  0.00000000E+00  0.00000000E+00
  0.00000000E+00  0.00000000E+00  0.00000000E+00
  0.00000000E+00  0.00000000E+00  0.00000000E+00
  0.00000000E+00  0.00000000E+00  0.00000000E+00
  0.00000000E+00  0.00000000E+00  0.00000000E+00
  0.00000000E+00  0.00000000E+00  0.00000000E+00
  0.00000000E+00  0.00000000E+00  0.00000000E+00
  0.00000000E+00  0.00000000E+00  0.00000000E+00
  0.00000000E+00  0.00000000E+00  0.00000000E+00
  0.00000000E+00  0.00000000E+00  0.00000000E+00
  0.00000000E+00  0.00000000E+00  0.00000000E+00
  0.00000000E+00  0.00000000E+00  0.00000000E+00
  0.00000000E+00  0.00000000E+00  0.00000000E+00
  0.00000000E+00  0.00000000E+00  0.00000000E+00
  0.00000000E+00  0.00000000E+00  0.00000000E+00
  0.00000000E+00  0.00000000E+00  0.00000000E+00
  0.00000000E+00  0.00000000E+00  0.00000000E+00
  0.00000000E+00  0.00000000E+00  0.00000000E+00
  0.00000000E+00  0.00000000E+00  0.00000000E+00
  0.00000000E+00  0.00000000E+00  0.00000000E+00
  0.00000000E+00  0.00000000E+00  0.00000000E+00
  0.00000000E+00  0.00000000E+00  0.00000000E+00
  0.00000000E+00  0.00000000E+00  0.00000000E+00
  0.00000000E+00  0.00000000E+00  0.00000000E+00
  0.00000000E+00  0.00000000E+00  0.00000000E+00
  0.00000000E+00  0.00000000E+00  0.00000000E+00
  0.00000000E+00  0.00000000E+00  0.00000000E+00
  0.00000000E+00  0.00000000E+00  0.00000000E+00
  0.00000000E+00  0.00000000E+00  0.00000000E+00
  0.00000000E+00  0.00000000E+00  0.00000000E+00
  0.00000000E+00  0.00000000E+00  0.00000000E+00
  0.00000000E+00  0.00000000E+00  0.00000000E+00
  0.00000000E+00  0.00000000E+00  0.00000000E+00
  0.00000000E+00  0.00000000E+00  0.00000000E+00
  0.00000000E+00  0.00000000E+00  0.00000000E+00
  0.00000000E+00  0.00000000E+00  0.00000000E+00
  0.00000000E+00  0.00000000E+00  0.00000000E+00
  0.00000000E+00  0.00000000E+00  0.00000000E+00
  0.00000000E+00  0.00000000E+00  0.00000000E+00
  0.00000000E+00  0.00000000E+00  0.00000000E+00
  0.00000000E+00  0.00000000E+00  0.00000000E+00
  0.00000000E+00  0.00000000E+00  0.00000000E+00
  0.00000000E+00  0.00000000E+00  0.00000000E+00
  0.00000000E+00  0.00000000E+00  0.00000000E+00
  0.00000000E+00  0.00000000E+00  0.00000000E+00
  0.00000000E+00  0.00000000E+00  0.00000000E+00
  0.00000000E+00  0.00000000E+00  0.00000000E+00
  0.00000000E+00  0.00000000E+00  0.00000000E+00
  0.00000000E+00  0.00000000E+00  0.00000000E+00
  0.00000000E+00  0.00000000E+00  0.00000000E+00
  0.00000000E+00  0.00000000E+00  0.00000000E+00
  0.00000000E+00  0.00000000E+00  0.00000000E+00
  0.00000000E+00  0.00000000E+00  0.00000000E+00
  0.00000000E+00  0.00000000E+00  0.00000000E+00
  0.00000000E+00  0.00000000E+00  0.00000000E+00
  0.00000000E+00  0.00000000E+00  0.00000000E+00
  0.00000000E+00  0.00000000E+00  0.00000000E+00
  0.00000000E+00  0.00000000E+00  0.00000000E+00
  0.00000000E+00  0.00000000E+00  0.00000000E+00
  0.00000000E+00  0.00000000E+00  0.00000000E+00
  0.00000000E+00  0.00000000E+00  0.00000000E+00
  0.00000000E+00  0.00000000E+00  0.00000000E+00
  0.00000000E+00  0.00000000E+00  0.00000000E+00
  0.00000000E+00  0.00000000E+00  0.00000000E+00
  0.00000000E+00  0.00000000E+00  0.00000000E+00
  0.00000000E+00  0.00000000E+00  0.00000000E+00
  0.00000000E+00  0.00000000E+00  0.00000000E+00
  0.00000000E+00  0.00000000E+00  0.00000000E+00
  0.00000000E+00  0.00000000E+00  0.00000000E+00
  0.00000000E+00  0.00000000E+00  0.00000000E+00
  0.00000000E+00  0.00000000E+00  0.00000000E+00
  0.00000000E+00  0.00000000E+00  0.00000000E+00
  0.00000000E+00  0.00000000E+00  0.00000000E+00
  0.00000000E+00  0.00000000E+00  0.00000000E+00
  0.00000000E+00  0.00000000E+00  0.00000000E+00
  0.00000000E+00  0.00000000E+00  0.00000000E+00
  0.00000000E+00  0.00000000E+00  0.00000000E+00
  0.00000000E+00  0.00000000E+00  0.00000000E+00
  0.00000000E+00  0.00000000E+00  0.00000000E+00
  0.00000000E+00  0.00000000E+00  0.00000000E+00
  0.00000000E+00  0.00000000E+00  0.00000000E+00
  0.00000000E+00  0.00000000E+00  0.00000000E+00
  0.00000000E+00  0.00000000E+00  0.00000000E+00
  0.00000000E+00  0.00000000E+00  0.00000000E+00
  0.00000000E+00  0.00000000E+00  0.00000000E+00
  0.00000000E+00  0.00000000E+00  0.00000000E+00
  0.00000000E+00  0.00000000E+00  0.00000000E+00
  0.00000000E+00  0.00000000E+00  0.00000000E+00
  0.00000000E+00  0.00000000E+00  0.00000000E+00
  0.00000000E+00  0.00000000E+00  0.00000000E+00
  0.00000000E+00  0.00000000E+00  0.00000000E+00
  0.00000000E+00  0.00000000E+00  0.00000000E+00
  0.00000000E+00  0.00000000E+00  0.00000000E+00
  0.00000000E+00  0.00000000E+00  0.00000000E+00
  0.00000000E+00  0.00000000E+00  0.00000000E+00
  0.00000000E+00  0.00000000E+00  0.00000000E+00
  0.00000000E+00  0.00000000E+00  0.00000000E+00
  0.00000000E+00  0.00000000E+00  0.00000000E+00
  0.00000000E+00  0.00000000E+00  0.00000000E+00
  0.00000000E+00  0.00000000E+00  0.00000000E+00
  0.00000000E+00  0.00000000E+00  0.00000000E+00
  0.00000000E+00  0.00000000E+00  0.00000000E+00
  0.00000000E+00  0.00000000E+00  0.00000000E+00
  0.00000000E+00  0.00000000E+00  0.00000000E+00
  0.00000000E+00  0.00000000E+00  0.00000000E+00
  0.00000000E+00  0.00000000E+00  0.00000000E+00
  0.00000000E+00  0.00000000E+00  0.00000000E+00
  0.00000000E+00  0.00000000E+00  0.00000000E+00
  0.00000000E+00  0.00000000E+00  0.00000000E+00
  0.00000000E+00  0.00000000E+00  0.00000000E+00
  0.00000000E+00  0.00000000E+00  0.00000000E+00
  0.00000000E+00  0.00000000E+00  0.00000000E+00
  0.00000000E+00  0.00000000E+00  0.00000000E+00
  0.00000000E+00  0.00000000E+00  0.00000000E+00
  0.00000000E+00  0.00000000E+00  0.00000000E+00
  0.00000000E+00  0.00000000E+00  0.00000000E+00
  0.00000000E+00  0.00000000E+00  0.00000000E+00
  0.00000000E+00  0.00000000E+00  0.00000000E+00
  0.00000000E+00  0.00000000E+00  0.00000000E+00
  0.00000000E+00  0.00000000E+00  0.00000000E+00
  0.00000000E+00  0.00000000E+00  0.00000000E+00
  0.00000000E+00  0.00000000E+00  0.00000000E+00
  0.00000000E+00  0.00000000E+00  0.00000000E+00
  0.00000000E+00  0.00000000E+00  0.00000000E+00
  0.00000000E+00  0.00000000E+00  0.00000000E+00
  0.00000000E+00  0.00000000E+00  0.00000000E+00
  0.00000000E+00  0.00000000E+00  0.00000000E+00
  0.00000000E+00  0.00000000E+00  0.00000000E+00
  0.00000000E+00  0.00000000E+00  0.00000000E+00
  0.00000000E+00  0.00000000E+00  0.00000000E+00
  0.00000000E+00  0.00000000E+00  0.00000000E+00
  0.00000000E+00  0.00000000E+00  0.00000000E+00
  0.00000000E+00  0.00000000E+00  0.00000000E+00
  0.00000000E+00  0.00000000E+00  0.00000000E+00
  0.00000000E+00  0.00000000E+00  0.00000000E+00
  0.00000000E+00  0.00000000E+00  0.00000000E+00
  0.00000000E+00  0.00000000E+00  0.00000000E+00
  0.00000000E+00  0.00000000E+00  0.00000000E+00
  0.00000000E+00  0.00000000E+00  0.00000000E+00
  0.00000000E+00  0.00000000E+00  0.00000000E+00
  0.00000000E+00  0.00000000E+00  0.00000000E+00
  0.00000000E+00  0.00000000E+00  0.00000000E+00
  0.00000000E+00  0.00000000E+00  0.00000000E+00
  0.00000000E+00  0.00000000E+00  0.00000000E+00
  0.00000000E+00  0.00000000E+00  0.00000000E+00
  0.00000000E+00  0.00000000E+00  0.00000000E+00
  0.00000000E+00  0.00000000E+00  0.00000000E+00
  0.00000000E+00  0.00000000E+00  0.00000000E+00
  0.00000000E+00  0.00000000E+00  0.00000000E+00
  0.00000000E+00  0.00000000E+00  0.00000000E+00
  0.00000000E+00  0.00000000E+00  0.00000000E+00
  0.00000000E+00  0.00000000E+00  0.00000000E+00
  0.00000000E+00  0.00000000E+00  0.00000000E+00
  0.00000000E+00  0.00000000E+00  0.00000000E+00
  0.00000000E+00  0.00000000E+00  0.00000000E+00
  0.00000000E+00  0.00000000E+00  0.00000000E+00
  0.00000000E+00  0.00000000E+00  0.00000000E+00
  0.00000000E+00  0.00000000E+00  0.00000000E+00
  0.00000000E+00  0.00000000E+00  0.00000000E+00
  0.00000000E+00  0.00000000E+00  0.00000000E+00
  0.00000000E+00  0.00000000E+00  0.00000000E+00
  0.00000000E+00  0.00000000E+00  0.00000000E+00
  0.00000000E+00  0.00000000E+00  0.00000000E+00
  0.00000000E+00  0.00000000E+00  0.00000000E+00
  0.00000000E+00  0.00000000E+00  0.00000000E+00
  0.00000000E+00  0.00000000E+00  0.00000000E+00
  0.00000000E+00  0.00000000E+00  0.00000000E+00
  0.00000000E+00  0.00000000E+00  0.00000000E+00
  0.00000000E+00  0.00000000E+00  0.00000000E+00
  0.00000000E+00  0.00000000E+00  0.00000000E+00
  0.00000000E+00  0.00000000E+00  0.00000000E+00
  0.00000000E+00  0.00000000E+00  0.00000000E+00
  0.00000000E+00  0.00000000E+00  0.00000000E+00
  0.00000000E+00  0.00000000E+00  0.00000000E+00
  0.00000000E+00  0.00000000E+00  0.00000000E+00
  0.00000000E+00  0.00000000E+00  0.00000000E+00
  0.00000000E+00  0.00000000E+00  0.00000000E+00
  0.00000000E+00  0.00000000E+00  0.00000000E+00
  0.00000000E+00  0.00000000E+00  0.00000000E+00
  0.00000000E+00  0.00000000E+00  0.00000000E+00
  0.00000000E+00  0.00000000E+00  0.00000000E+00
  0.00000000E+00  0.00000000E+00  0.00000000E+00
  0.00000000E+00  0.00000000E+00  0.00000000E+00
  0.00000000E+00  0.00000000E+00  0.00000000E+00
  0.00000000E+00  0.00000000E+00  0.00000000E+00
  0.00000000E+00  0.00000000E+00  0.00000000E+00
  0.00000000E+00  0.00000000E+00  0.00000000E+00
  0.00000000E+00  0.00000000E+00  0.00000000E+00
  0.00000000E+00  0.00000000E+00  0.00000000E+00
  0.00000000E+00  0.00000000E+00  0.00000000E+00
  0.00000000E+00  0.00000000E+00  0.00000000E+00
  0.00000000E+00  0.00000000E+00  0.00000000E+00
  0.00000000E+00  0.00000000E+00  0.00000000E+00
  0.00000000E+00  0.00000000E+00  0.00000000E+00
  0.00000000E+00  0.00000000E+00  0.00000000E+00
  0.00000000E+00  0.00000000E+00  0.00000000E+00
  0.00000000E+00  0.00000000E+00  0.00000000E+00
  0.00000000E+00  0.00000000E+00  0.00000000E+00
  0.00000000E+00  0.00000000E+00  0.00000000E+00
  0.00000000E+00  0.00000000E+00  0.00000000E+00
  0.00000000E+00  0.00000000E+00  0.00000000E+00
  0.00000000E+00  0.00000000E+00  0.00000000E+00
  0.00000000E+00  0.00000000E+00  0.00000000E+00
  0.00000000E+00  0.00000000E+00  0.00000000E+00
  0.00000000E+00  0.00000000E+00  0.00000000E+00
  0.00000000E+00  0.00000000E+00  0.00000000E+00
  0.00000000E+00  0.00000000E+00  0.00000000E+00
  0.00000000E+00  0.00000000E+00  0.00000000E+00
  0.00000000E+00  0.00000000E+00  0.00000000E+00
  0.00000000E+00  0.00000000E+00  0.00000000E+00
  0.00000000E+00  0.00000000E+00  0.00000000E+00
  0.00000000E+00  0.00000000E+00  0.00000000E+00
  0.00000000E+00  0.00000000E+00  0.00000000E+00
  0.00000000E+00  0.00000000E+00  0.00000000E+00
  0.00000000E+00  0.00000000E+00  0.00000000E+00
  0.00000000E+00  0.00000000E+00  0.00000000E+00
  0.00000000E+00  0.00000000E+00  0.00000000E+00
  0.00000000E+00  0.00000000E+00  0.00000000E+00
  0.00000000E+00  0.00000000E+00  0.00000000E+00
  0.00000000E+00  0.00000000E+00  0.00000000E+00
  0.00000000E+00  0.00000000E+00  0.00000000E+00
  0.00000000E+00  0.00000000E+00  0.00000000E+00
  0.00000000E+00  0.00000000E+00  0.00000000E+00
  0.00000000E+00  0.00000000E+00  0.00000000E+00
  0.00000000E+00  0.00000000E+00  0.00000000E+00
  0.00000000E+00  0.00000000E+00  0.00000000E+00