 B N O 
 1.0
 14.936314146199660   0.000000000000000   0.000000000000000
 -7.468157073099825  12.935227489513863   0.000000000000000
  0.000000000000001   0.000000000000001  13.341276283792837
 B N O 
 144 143   1
Cartesian
  1.243377648517268   0.718117612152980   5.002978606422314 
  4.978771382066603   7.232653175739197   5.002978606422314 
  6.222402569143593   0.714895567800613   5.002978606422314 
  9.960240634903380   7.189021008161603   5.002978606422314 
 11.202377292961284   0.718705550315508   5.002978606422314 
 -3.734151864048082   9.342066406775784  11.673616748318732 
  1.244534664491107   9.342225697412360  11.673616748318732 
  2.489017868285555   2.874299077125518  11.673616748318732 
  6.223449988377693   9.342525246542454  11.673616748318732 
  7.468524895847604   2.874299077125518  11.673616748318732 
 12.446928455166402   2.874548498743617  11.673616748318732 
 -1.244868876625958   9.342210374035025   5.002978606422314 
 -0.002147373262931   2.873255211138306   5.002978606422314 
  4.978771382066534   2.863833178459333   5.002978606422314 
  3.734204115800186   9.347545872665465   5.002978606422314 
  8.716609447826308   9.343053410056305   5.002978606422314 
  9.959690137396075   2.873255211138306   5.002978606422314 
 -4.978787811709247  11.497989476337610  11.673616748318732 
  0.000016429642934  11.497989476337610  11.673616748318732 
  1.244339261974377   5.030145662350513  11.673616748318732 
  6.223858184670630   5.030138794691562  11.673616748318732 
  4.978771382066673  11.498318462784757  11.673616748318732 
 11.202515626399361   5.030244828527035  11.673616748318732 
 -1.245788771745119   5.029480320541808   5.002978606422314 
 -2.489385691033231  11.497776727462204   5.002978606422314 
  2.489604961804201  11.499372053323643   5.002978606422314 
  3.693881377180855   5.007158405139566   5.002978606422314 
  7.467937802328994  11.499372053323643   5.002978606422314 
  8.717495821901915   5.027538925981760   5.002978606422314 
 -0.000180376501446   7.186316005468014  11.673616748318732 
  1.244447686593344   0.718441956496298  11.673616748318732 
  4.978771382066515   7.186692396635385  11.673616748318732 
  6.223486423059161   0.718428283138019  11.673616748318732 
  9.957723140634624   7.186316005468014  11.673616748318732 
 -2.489385691033309   7.186512779657072   5.002978606422314 
 11.202189276360638   0.718596998880515  11.673616748318732 
  3.735140194989460   0.714895567800613   5.002978606422314 
  2.480152284746481   7.191568403779582   5.002978606422314 
  7.477390479386592   7.191568403779582   5.002978606422314 
  8.714165115615888   0.718117612152980   5.002978606422314 
  2.489144071581023   7.186376993230197  11.673616748318732 
 13.691479617371460   0.718705550315508   5.002978606422314 
 -1.244619518018278   9.342066406775784  11.673616748318732 
 -0.000293125442089   2.874325761616805  11.673616748318732 
  4.978771382066557   2.874215999558167  11.673616748318732 
  3.734092775755380   9.342525246542454  11.673616748318732 
  8.713008099642042   9.342225697412360  11.673616748318732 
  9.957835889575321   2.874325761616805  11.673616748318732 
 -3.733902505440493   9.342210374035025   5.002978606422314 
  1.240933316306724   9.343053410056305   5.002978606422314 
  2.484614208497704   2.871885187371190   5.002978606422314 
  6.223338648333041   9.347545872665465   5.002978606422314 
  7.472928555635487   2.871885187371190   5.002978606422314 
 12.446928455166379   2.874331395873616   5.002978606422314 
 -1.244972862266186   5.030244828527035  11.673616748318732 
 -2.489385691033239  11.498064661980782  11.673616748318732 
  2.489350833207066  11.498283200995086  11.673616748318732 
  3.733684579462444   5.030138794691562  11.673616748318732 
  7.468191930926130  11.498283200995086  11.673616748318732 
 -4.978532977845280  11.497842347937656   5.002978606422314 
  8.713203502158738   5.030145662350513  11.673616748318732 
 -0.000238404221288  11.497842347937656   5.002978606422314 
  1.240046942231276   5.027538925981760   5.002978606422314 
 -0.002697870770337   7.189021008161603   5.002978606422314 
  6.263661386952396   5.007158405139566   5.002978606422314 
  4.978771382066569  11.500459563741805   5.002978606422314 
 11.203331535878295   5.029480320541808   5.002978606422314 
 -2.489385691033165   7.186218522856896  11.673616748318732 
  3.734056341074028   0.718428283138019  11.673616748318732 
  7.468398692552020   7.186376993230197  11.673616748318732 
  8.713095077539828   0.718441956496298  11.673616748318732 
 13.691667633972132   0.718596998880515  11.673616748318732 
 -0.000078672905620   1.436800478002414   1.667740471277807 
  3.733071435894333   7.906266897781994   1.668917842740212 
  4.978771382066533   1.435313114448382   1.668190229169252 
  8.714525144635839   7.905828435785082   1.668190229169252 
  9.957621437038704   1.436800478002414   1.667740471277807 
 -4.978253318849574  10.060736222889764   8.337921954808561 
 -0.000518063216965  10.060736222889764   8.337921954808561 
  1.244309335303549   3.592897327362512   8.338086799989904 
  4.978771382066515  10.061175331293589   8.338086799989904 
  6.224178009493029   3.591543745240207   8.337039370104430 
 11.202662077499440   3.593274124768592   8.338216741566795 
 -2.489385691033300  10.060732491844131   1.668054410177266 
 -1.245119313366398   3.593274124768592   1.667740471277807 
  3.733364754640057   3.591543745240207   1.668917842740212 
  2.488711461562009  10.061326494068444   1.667880832608950 
  7.468831302571171  10.061326494068444   1.667880832608950 
  8.713233428829431   3.592897327362511   1.667870412854749 
 -6.223579842957906  12.216670490664153   8.338124185054763 
 -1.244948645944809  12.216153218666950   8.337921954808561 
 -0.000851535751866   5.749276894077512   8.338076380235771 
  4.978771382066590   5.748989995339477   8.344535829245377 
  3.733730741605783  12.216895383247500   8.338216741566795 
  9.958394299884938   5.749276894077512   8.338076380235771 
 -2.489385691033302   5.748856494204116   1.667833027789877 
 -3.733822736121759  12.216153218666950   1.668035258036053 
  1.244808460891325  12.216670490664153   1.667833027789877 
  2.487664808467839   5.749159342996317   1.668917842740212 
  6.223812022527296  12.216895383247500   1.667740471277807 
  7.469877955665233   5.749159342996317   1.668917842740212 
 -1.244955108305455   7.905308033975658   8.337921954808561 
 -0.000078672905620   1.436800478002415   8.338216741566795 
  3.733071435894333   7.906266897781995   8.337039370104430 
  4.978771382066534   1.435313114448383   8.337766983675349 
  8.714525144635839   7.905828435785083   8.337766983675349 
 -3.733816273761116   7.905308033975657   1.668035258036053 
  9.957621437038704   1.436800478002415   8.338216741566795 
  2.489208384752758   1.436366597872551   1.667880832608950 
  1.243017619497218   7.905828435785082   1.668190229169252 
  6.224471328238755   7.906266897781994   1.668917842740212 
  7.468334379380400   1.436366597872551   1.667880832608950 
  1.243017619497218   7.905828435785083   8.337766983675349 
 12.446928455166319   1.437247498834911   1.667787134612692 
 -2.489385691033300  10.060732491844131   8.337902802667362 
 -1.245119313366398   3.593274124768592   8.338216741566795 
  3.733364754640057   3.591543745240207   8.337039370104430 
  2.488711461562009  10.061326494068444   8.338076380235771 
  7.468831302571172  10.061326494068444   8.338076380235771 
  8.713233428829431   3.592897327362512   8.338086799989904 
 -4.978253318849575  10.060736222889764   1.668035258036053 
 -0.000518063216965  10.060736222889764   1.668035258036053 
  1.244309335303549   3.592897327362511   1.667870412854749 
  4.978771382066514  10.061175331293589   1.667870412854749 
  6.224178009493028   3.591543745240207   1.668917842740212 
 11.202662077499440   3.593274124768592   1.667740471277807 
 -2.489385691033301   5.748856494204117   8.338124185054763 
 -3.733822736121758  12.216153218666950   8.337921954808561 
  1.244808460891325  12.216670490664153   8.338124185054763 
  2.487664808467840   5.749159342996318   8.337039370104430 
  6.223812022527297  12.216895383247500   8.338216741566795 
 -6.223579842957907  12.216670490664153   1.667833027789877 
  7.469877955665233   5.749159342996318   8.337039370104430 
 -1.244948645944810  12.216153218666950   1.668035258036053 
 -0.000851535751867   5.749276894077511   1.667880832608950 
 -1.244955108305456   7.905308033975657   1.668035258036053 
  4.978771382066589   5.748989995339476   1.661421383599238 
  3.733730741605783  12.216895383247500   1.667740471277807 
  9.958394299884938   5.749276894077511   1.667880832608950 
 -3.733816273761116   7.905308033975658   8.337921954808561 
  2.489208384752758   1.436366597872552   8.338076380235771 
  6.224471328238756   7.906266897781995   8.337039370104430 
  7.468334379380401   1.436366597872552   8.338076380235771 
 12.446928455166319   1.437247498834912   8.338170078231924 
  1.244838778634208   0.718643275944106   1.668651682118771 
  4.978771382066566   7.185376202310250   1.677674251592443 
  6.223589954145116   0.718656313597850   1.668954911752024 
  9.957577426006573   7.186112329687645   1.668954911752024 
 11.202231111767018   0.718621152563640   1.668407069022554 
 -3.734051116332849   9.342124573496308   8.337523126566849 
  1.244783910205136   9.342201342732960   8.337002301092618 
  2.489551139660134   2.874497185656050   8.335554175074391 
  6.223545057044919   9.341964365719674   8.335554175074391 
  7.467991624473041   2.874497185656050   8.335554175074391 
 12.446928455166365   2.874500191377376   8.337550143822073 
 -1.244720265733555   9.342124573496308   1.668434086277766 
  0.000137134020201   2.874574172033248   1.669047160202404 
  4.978771382066542   2.874465918544649   1.671852287996835 
  3.733997707088262   9.341964365719674   1.670403037770238 
  8.712758853928074   9.342201342732960   1.668954911752024 
  9.957405630112898   2.874574172033248   1.669047160202404 
 -4.978764874640164  11.497976233614615   8.337158975929491 
 -0.000006507426420  11.497976233614615   8.337158975929491 
  1.244777464681829   5.030508434642718   8.335554175074391 
  6.222718326948825   5.030796891854084   8.328282961252185 
  4.978771382066568  11.497821641952024   8.336910052642210 
 11.202145732622853   5.030482864445736   8.337305530725816 
 -1.244602968489676   5.030482864445736   1.668651682118771 
 -2.489385691033179  11.497948328539596   1.668434086277766 
  2.489329634942705  11.497843845628587   1.668651682118771 
  3.734824437184307   5.030796891854083   1.677674251592443 
  7.468213129190477  11.497843845628587   1.668651682118771 
  8.712765299451391   5.030508434642717   1.670403037770238 
 -0.000034661873411   7.186112329687646   8.337002301092618 
  1.244838778634208   0.718643275944107   8.337305530725816 
  4.978771382066567   7.185376202310251   8.328282961252185 
  6.223589954145117   0.718656313597850   8.337002301092618 
  9.957577426006573   7.186112329687646   8.337002301092618 
 -2.489385691033309   7.186245008303179   1.668798236915150 
 11.202231111767018   0.718621152563641   8.337550143822073 
  3.733952809988071   0.718656313597850   1.668954911752024 
  2.489360507772205   7.186252033736928   1.671852287996835 
  7.468182256360867   7.186252033736928   1.671852287996835 
  8.712703985498964   0.718643275944106   1.668651682118771 
  2.489360507772206   7.186252033736929   8.334104924847793 
 13.691625798565736   0.718621152563640   1.668407069022554 
 -1.244720265733555   9.342124573496308   8.337523126566849 
  0.000137134020202   2.874574172033248   8.336910052642210 
  4.978771382066543   2.874465918544650   8.334104924847793 
  3.733997707088263   9.341964365719674   8.335554175074391 
  8.712758853928074   9.342201342732960   8.337002301092618 
  9.957405630112898   2.874574172033248   8.336910052642210 
 -3.734051116332850   9.342124573496308   1.668434086277766 
  1.244783910205135   9.342201342732960   1.668954911752024 
  2.489551139660133   2.874497185656050   1.670403037770238 
  6.223545057044918   9.341964365719674   1.670403037770238 
  7.467991624473040   2.874497185656050   1.670403037770238 
 12.446928455166365   2.874500191377375   1.668407069022554 
 -1.244602968489676   5.030482864445736   8.337305530725816 
 -2.489385691033178  11.497948328539596   8.337523126566849 
  2.489329634942706  11.497843845628587   8.337305530725816 
  3.734824437184308   5.030796891854084   8.328282961252185 
  7.468213129190477  11.497843845628587   8.337305530725816 
 -4.978764874640165  11.497976233614615   1.668798236915150 
  8.712765299451391   5.030508434642718   8.335554175074391 
 -0.000006507426421  11.497976233614615   1.668798236915150 
  1.244777464681828   5.030508434642717   1.670403037770238 
 -0.000034661873411   7.186112329687645   1.668954911752024 
  6.222718326948824   5.030796891854083   1.677674251592443 
  4.978771382066567  11.497821641952024   1.669047160202404 
 11.202145732622853   5.030482864445736   1.668651682118771 
 -2.489385691033309   7.186245008303180   8.337158975929491 
  3.733952809988071   0.718656313597850   8.337002301092618 
  7.468182256360868   7.186252033736929   8.334104924847793 
  8.712703985498964   0.718643275944107   8.337305530725816 
 13.691625798565736   0.718621152563641   8.337550143822073 
  0.000679511698985   1.438058314382747   5.002978606422314 
  3.736548653937777   7.893474958602394   5.002978606422314 
  4.978771382066482   1.437461023998796   5.002978606422314 
  8.712665000400136   7.904754481009921   5.002978606422314 
  9.956863252434188   1.438058314382747   5.002978606422314 
 -4.978831284250766  10.060758949795142  11.673616748318732 
  0.000059902184213  10.060758949795142  11.673616748318732 
  1.244580002895970   3.593053597369771  11.673616748318732 
  4.978771382066538  10.060862791278980  11.673616748318732 
  6.223406729309278   3.593172275073577  11.673616748318732 
 11.202238469160273   3.593095024628314  11.673616748318732 
 -2.489385691033300  10.060732491844131   5.002978606422314 
 -1.243650902804864   3.593301813706669   5.002978606422314 
  3.742704289911477   3.600951073990255   5.002978606422314 
  2.491027677591120  10.057324520899332   5.002978606422314 
  7.466515086542093  10.057324520899332   5.002978606422314 
  8.709507986618531   3.595048212425799   5.002978606422314 
 -6.223369939914228  12.216549303085383  11.673616748318732 
 -1.244639981166807  12.216642387934177  11.673616748318732 
  0.000002759630082   5.748941954231790  11.673616748318732 
  4.978771382066590   5.748989995339477  11.673616748318732 
  3.734097651046646  12.216618077734681  11.673616748318732 
  9.957540004503006   5.748941954231790  11.673616748318732 
 -2.489385691033234   5.748366841792018   5.002978606422314 
 -3.734652446113290  12.216717381189925   5.002978606422314 
  1.245232512319208  12.216915316870104   5.002978606422314 
  2.500481561782799   5.752543953425962   5.002978606422314 
  6.223101796570471  12.215609857928987   5.002978606422314 
  7.457061202350168   5.752543953425962   5.002978606422314 
 -1.244685807682272   7.904796137803014  11.673616748318732 
 -0.000021974007339   1.437256883655527  11.673616748318732 
  3.734096144008984   7.904784684632734  11.673616748318732 
  4.978771382066468   1.437458321696128  11.673616748318732 
  8.712667340662907   7.904755832161243  11.673616748318732 
 -3.733889997842116   7.904307402783767   5.002978606422314 
  9.957564738140407   1.437256883655527  11.673616748318732 
  2.491516087167941   1.440373486378956   5.002978606422314 
  1.244877763732829   7.904754481009921   5.002978606422314 
  6.220994110195147   7.893474958602394   5.002978606422314 
  7.466026676965248   1.440373486378956   5.002978606422314 
  1.244875423470063   7.904755832161243  11.673616748318732 
 12.446928455166319   1.437247498834912   5.002978606422314 
 -2.489385691033299  10.060732491844133  11.673616748318732 
 -1.244695705027231   3.593095024628314  11.673616748318732 
  3.734136034823810   3.593172275073577  11.673616748318732 
  2.489428675668027  10.060754122488204  11.673616748318732 
  7.468114088465081  10.060754122488204  11.673616748318732 
  8.712962761237129   3.593053597369771  11.673616748318732 
 -4.979156752922064  10.061172691558705   5.002978606422314 
  0.000385370855509  10.061172691558705   5.002978606422314 
  1.248034777514538   3.595048212425799   5.002978606422314 
  4.978771382066530  10.056873561166908   5.002978606422314 
  6.214838474221476   3.600951073990255   5.002978606422314 
 11.201193666938067   3.593301813706669   5.002978606422314 
 -2.489385691033286   5.749098869361633  11.673616748318732 
 -3.734131400899759  12.216642387934177  11.673616748318732 
  1.244598557847617  12.216549303085383  11.673616748318732 
  2.489460796766242   5.749013026312186  11.673616748318732 
  6.223445113086404  12.216618077734681  11.673616748318732 
 -6.224003894385684  12.216915316870104   5.002978606422314 
  7.468081967366877   5.749013026312186  11.673616748318732 
 -1.244118935953336  12.216717381189925   5.002978606422314 
  0.003772382692455   5.749271978740142   5.002978606422314 
 -1.244881384224483   7.904307402783767   5.002978606422314 
  3.734440967562742  12.215609857928987   5.002978606422314 
  9.953770381440735   5.749271978740142   5.002978606422314 
 -3.734085574384298   7.904796137803014  11.673616748318732 
  2.489345466028606   1.437273909298502  11.673616748318732 
  6.223446620124151   7.904784684632734  11.673616748318732 
  7.468197298104478   1.437273909298502  11.673616748318732 
 12.446928455166319   1.437247498834912  11.673616748318732 
  4.978771382066589   5.748989995339477   5.002978606422314 
Generated by cif2cell 2.0.0.  :  Failed to get author information, No journal information. Species order: B N O 
 1.0
 14.936314146199660   0.000000000000000   0.000000000000000
 -7.468157073099825  12.935227489513863   0.000000000000000
  0.000000000000001   0.000000000000001  13.341276283792837
 B N O 
 144 143   1
Cartesian
  1.243377648517268   0.718117612152980   5.002978606422314 
  4.978771382066603   7.232653175739197   5.002978606422314 
  6.222402569143593   0.714895567800613   5.002978606422314 
  9.960240634903380   7.189021008161603   5.002978606422314 
 11.202377292961284   0.718705550315508   5.002978606422314 
 -3.734151864048082   9.342066406775784  11.673616748318732 
  1.244534664491107   9.342225697412360  11.673616748318732 
  2.489017868285555   2.874299077125518  11.673616748318732 
  6.223449988377693   9.342525246542454  11.673616748318732 
  7.468524895847604   2.874299077125518  11.673616748318732 
 12.446928455166402   2.874548498743617  11.673616748318732 
 -1.244868876625958   9.342210374035025   5.002978606422314 
 -0.002147373262931   2.873255211138306   5.002978606422314 
  4.978771382066534   2.863833178459333   5.002978606422314 
  3.734204115800186   9.347545872665465   5.002978606422314 
  8.716609447826308   9.343053410056305   5.002978606422314 
  9.959690137396075   2.873255211138306   5.002978606422314 
 -4.978787811709247  11.497989476337610  11.673616748318732 
  0.000016429642934  11.497989476337610  11.673616748318732 
  1.244339261974377   5.030145662350513  11.673616748318732 
  6.223858184670630   5.030138794691562  11.673616748318732 
  4.978771382066673  11.498318462784757  11.673616748318732 
 11.202515626399361   5.030244828527035  11.673616748318732 
 -1.245788771745119   5.029480320541808   5.002978606422314 
 -2.489385691033231  11.497776727462204   5.002978606422314 
  2.489604961804201  11.499372053323643   5.002978606422314 
  3.693881377180855   5.007158405139566   5.002978606422314 
  7.467937802328994  11.499372053323643   5.002978606422314 
  8.717495821901915   5.027538925981760   5.002978606422314 
 -0.000180376501446   7.186316005468014  11.673616748318732 
  1.244447686593344   0.718441956496298  11.673616748318732 
  4.978771382066515   7.186692396635385  11.673616748318732 
  6.223486423059161   0.718428283138019  11.673616748318732 
  9.957723140634624   7.186316005468014  11.673616748318732 
 -2.489385691033309   7.186512779657072   5.002978606422314 
 11.202189276360638   0.718596998880515  11.673616748318732 
  3.735140194989460   0.714895567800613   5.002978606422314 
  2.480152284746481   7.191568403779582   5.002978606422314 
  7.477390479386592   7.191568403779582   5.002978606422314 
  8.714165115615888   0.718117612152980   5.002978606422314 
  2.489144071581023   7.186376993230197  11.673616748318732 
 13.691479617371460   0.718705550315508   5.002978606422314 
 -1.244619518018278   9.342066406775784  11.673616748318732 
 -0.000293125442089   2.874325761616805  11.673616748318732 
  4.978771382066557   2.874215999558167  11.673616748318732 
  3.734092775755380   9.342525246542454  11.673616748318732 
  8.713008099642042   9.342225697412360  11.673616748318732 
  9.957835889575321   2.874325761616805  11.673616748318732 
 -3.733902505440493   9.342210374035025   5.002978606422314 
  1.240933316306724   9.343053410056305   5.002978606422314 
  2.484614208497704   2.871885187371190   5.002978606422314 
  6.223338648333041   9.347545872665465   5.002978606422314 
  7.472928555635487   2.871885187371190   5.002978606422314 
 12.446928455166379   2.874331395873616   5.002978606422314 
 -1.244972862266186   5.030244828527035  11.673616748318732 
 -2.489385691033239  11.498064661980782  11.673616748318732 
  2.489350833207066  11.498283200995086  11.673616748318732 
  3.733684579462444   5.030138794691562  11.673616748318732 
  7.468191930926130  11.498283200995086  11.673616748318732 
 -4.978532977845280  11.497842347937656   5.002978606422314 
  8.713203502158738   5.030145662350513  11.673616748318732 
 -0.000238404221288  11.497842347937656   5.002978606422314 
  1.240046942231276   5.027538925981760   5.002978606422314 
 -0.002697870770337   7.189021008161603   5.002978606422314 
  6.263661386952396   5.007158405139566   5.002978606422314 
  4.978771382066569  11.500459563741805   5.002978606422314 
 11.203331535878295   5.029480320541808   5.002978606422314 
 -2.489385691033165   7.186218522856896  11.673616748318732 
  3.734056341074028   0.718428283138019  11.673616748318732 
  7.468398692552020   7.186376993230197  11.673616748318732 
  8.713095077539828   0.718441956496298  11.673616748318732 
 13.691667633972132   0.718596998880515  11.673616748318732 
 -0.000078672905620   1.436800478002414   1.667740471277807 
  3.733071435894333   7.906266897781994   1.668917842740212 
  4.978771382066533   1.435313114448382   1.668190229169252 
  8.714525144635839   7.905828435785082   1.668190229169252 
  9.957621437038704   1.436800478002414   1.667740471277807 
 -4.978253318849574  10.060736222889764   8.337921954808561 
 -0.000518063216965  10.060736222889764   8.337921954808561 
  1.244309335303549   3.592897327362512   8.338086799989904 
  4.978771382066515  10.061175331293589   8.338086799989904 
  6.224178009493029   3.591543745240207   8.337039370104430 
 11.202662077499440   3.593274124768592   8.338216741566795 
 -2.489385691033300  10.060732491844131   1.668054410177266 
 -1.245119313366398   3.593274124768592   1.667740471277807 
  3.733364754640057   3.591543745240207   1.668917842740212 
  2.488711461562009  10.061326494068444   1.667880832608950 
  7.468831302571171  10.061326494068444   1.667880832608950 
  8.713233428829431   3.592897327362511   1.667870412854749 
 -6.223579842957906  12.216670490664153   8.338124185054763 
 -1.244948645944809  12.216153218666950   8.337921954808561 
 -0.000851535751866   5.749276894077512   8.338076380235771 
  4.978771382066590   5.748989995339477   8.344535829245377 
  3.733730741605783  12.216895383247500   8.338216741566795 
  9.958394299884938   5.749276894077512   8.338076380235771 
 -2.489385691033302   5.748856494204116   1.667833027789877 
 -3.733822736121759  12.216153218666950   1.668035258036053 
  1.244808460891325  12.216670490664153   1.667833027789877 
  2.487664808467839   5.749159342996317   1.668917842740212 
  6.223812022527296  12.216895383247500   1.667740471277807 
  7.469877955665233   5.749159342996317   1.668917842740212 
 -1.244955108305455   7.905308033975658   8.337921954808561 
 -0.000078672905620   1.436800478002415   8.338216741566795 
  3.733071435894333   7.906266897781995   8.337039370104430 
  4.978771382066534   1.435313114448383   8.337766983675349 
  8.714525144635839   7.905828435785083   8.337766983675349 
 -3.733816273761116   7.905308033975657   1.668035258036053 
  9.957621437038704   1.436800478002415   8.338216741566795 
  2.489208384752758   1.436366597872551   1.667880832608950 
  1.243017619497218   7.905828435785082   1.668190229169252 
  6.224471328238755   7.906266897781994   1.668917842740212 
  7.468334379380400   1.436366597872551   1.667880832608950 
  1.243017619497218   7.905828435785083   8.337766983675349 
 12.446928455166319   1.437247498834911   1.667787134612692 
 -2.489385691033300  10.060732491844131   8.337902802667362 
 -1.245119313366398   3.593274124768592   8.338216741566795 
  3.733364754640057   3.591543745240207   8.337039370104430 
  2.488711461562009  10.061326494068444   8.338076380235771 
  7.468831302571172  10.061326494068444   8.338076380235771 
  8.713233428829431   3.592897327362512   8.338086799989904 
 -4.978253318849575  10.060736222889764   1.668035258036053 
 -0.000518063216965  10.060736222889764   1.668035258036053 
  1.244309335303549   3.592897327362511   1.667870412854749 
  4.978771382066514  10.061175331293589   1.667870412854749 
  6.224178009493028   3.591543745240207   1.668917842740212 
 11.202662077499440   3.593274124768592   1.667740471277807 
 -2.489385691033301   5.748856494204117   8.338124185054763 
 -3.733822736121758  12.216153218666950   8.337921954808561 
  1.244808460891325  12.216670490664153   8.338124185054763 
  2.487664808467840   5.749159342996318   8.337039370104430 
  6.223812022527297  12.216895383247500   8.338216741566795 
 -6.223579842957907  12.216670490664153   1.667833027789877 
  7.469877955665233   5.749159342996318   8.337039370104430 
 -1.244948645944810  12.216153218666950   1.668035258036053 
 -0.000851535751867   5.749276894077511   1.667880832608950 
 -1.244955108305456   7.905308033975657   1.668035258036053 
  4.978771382066589   5.748989995339476   1.661421383599238 
  3.733730741605783  12.216895383247500   1.667740471277807 
  9.958394299884938   5.749276894077511   1.667880832608950 
 -3.733816273761116   7.905308033975658   8.337921954808561 
  2.489208384752758   1.436366597872552   8.338076380235771 
  6.224471328238756   7.906266897781995   8.337039370104430 
  7.468334379380401   1.436366597872552   8.338076380235771 
 12.446928455166319   1.437247498834912   8.338170078231924 
  1.244838778634208   0.718643275944106   1.668651682118771 
  4.978771382066566   7.185376202310250   1.677674251592443 
  6.223589954145116   0.718656313597850   1.668954911752024 
  9.957577426006573   7.186112329687645   1.668954911752024 
 11.202231111767018   0.718621152563640   1.668407069022554 
 -3.734051116332849   9.342124573496308   8.337523126566849 
  1.244783910205136   9.342201342732960   8.337002301092618 
  2.489551139660134   2.874497185656050   8.335554175074391 
  6.223545057044919   9.341964365719674   8.335554175074391 
  7.467991624473041   2.874497185656050   8.335554175074391 
 12.446928455166365   2.874500191377376   8.337550143822073 
 -1.244720265733555   9.342124573496308   1.668434086277766 
  0.000137134020201   2.874574172033248   1.669047160202404 
  4.978771382066542   2.874465918544649   1.671852287996835 
  3.733997707088262   9.341964365719674   1.670403037770238 
  8.712758853928074   9.342201342732960   1.668954911752024 
  9.957405630112898   2.874574172033248   1.669047160202404 
 -4.978764874640164  11.497976233614615   8.337158975929491 
 -0.000006507426420  11.497976233614615   8.337158975929491 
  1.244777464681829   5.030508434642718   8.335554175074391 
  6.222718326948825   5.030796891854084   8.328282961252185 
  4.978771382066568  11.497821641952024   8.336910052642210 
 11.202145732622853   5.030482864445736   8.337305530725816 
 -1.244602968489676   5.030482864445736   1.668651682118771 
 -2.489385691033179  11.497948328539596   1.668434086277766 
  2.489329634942705  11.497843845628587   1.668651682118771 
  3.734824437184307   5.030796891854083   1.677674251592443 
  7.468213129190477  11.497843845628587   1.668651682118771 
  8.712765299451391   5.030508434642717   1.670403037770238 
 -0.000034661873411   7.186112329687646   8.337002301092618 
  1.244838778634208   0.718643275944107   8.337305530725816 
  4.978771382066567   7.185376202310251   8.328282961252185 
  6.223589954145117   0.718656313597850   8.337002301092618 
  9.957577426006573   7.186112329687646   8.337002301092618 
 -2.489385691033309   7.186245008303179   1.668798236915150 
 11.202231111767018   0.718621152563641   8.337550143822073 
  3.733952809988071   0.718656313597850   1.668954911752024 
  2.489360507772205   7.186252033736928   1.671852287996835 
  7.468182256360867   7.186252033736928   1.671852287996835 
  8.712703985498964   0.718643275944106   1.668651682118771 
  2.489360507772206   7.186252033736929   8.334104924847793 
 13.691625798565736   0.718621152563640   1.668407069022554 
 -1.244720265733555   9.342124573496308   8.337523126566849 
  0.000137134020202   2.874574172033248   8.336910052642210 
  4.978771382066543   2.874465918544650   8.334104924847793 
  3.733997707088263   9.341964365719674   8.335554175074391 
  8.712758853928074   9.342201342732960   8.337002301092618 
  9.957405630112898   2.874574172033248   8.336910052642210 
 -3.734051116332850   9.342124573496308   1.668434086277766 
  1.244783910205135   9.342201342732960   1.668954911752024 