 As N B 
 1.0
 14.936314146199660   0.000000000000000   0.000000000000000
 -7.468157073099825  12.935227489513863   0.000000000000000
  0.000000000000001   0.000000000000001  13.341276283792837
 As N B 
   1 143 143
Cartesian
  4.230885395386143   5.317197819606423   5.002978606422314 
  1.244119790739355   0.718051114427449   1.668331555394461 
  4.977825254740007   7.185972818288124   1.652526354826242 
  6.223293796868854   0.718370095367465   1.667925025170953 
  9.956906690142258   7.185940973959815   1.668593101995015 
 11.202025901317981   0.718502674255733   1.667734607354329 
 -3.734512406648905   9.341858247408256   8.337972423952964 
  1.244387959308404   9.342087972123498   8.338032187673662 
  2.488345376645533   2.873663321779354   8.349079304871079 
  6.222815624285321   9.341645099405529   8.339366588850384 
  7.467756249855038   2.874075374626289   8.341168284271841 
 12.446438539386884   2.874311825890203   8.338031270497218 
 -1.244992622303850   9.342015387604459   1.668067637034481 
 -0.000724625559763   2.874076634907727   1.666871395806835 
  4.978270243116506   2.874076721532928   1.655342283603737 
  3.733514720711912   9.341971430835923   1.664788928572786 
  8.712275087582540   9.341706146299137   1.668593101995015 
  9.957186136063255   2.874306106412438   1.667964490579726 
 -4.979177345226730  11.497600455622157   8.337683285814531 
 -0.000126835582627  11.497906762121108   8.337744177513535 
  1.243452435874004   5.029881145179491   8.349079304871079 
  6.222761947878703   5.029679213565108   8.353430858018386 
  4.978429483404289  11.497765587339382   8.337992722264902 
 11.201618564776531   5.030195080980052   8.337437982233329 
 -1.245475289353723   5.030156283422199   1.668331555394461 
 -2.489616427074441  11.497767053776823   1.668067637034481 
  2.489179758034621  11.497986063999683   1.668066935244846 
  3.731415494851443   5.028828738080543   1.623620204414541 
  7.467700317475244  11.497531196614457   1.668519230611312 
  8.712124090332999   5.030036360499574   1.666590623994259 
 -0.000504538920271   7.186121433263804   8.339047749714126 
  1.244119790739356   0.718051114427450   8.337625657450166 
  4.977825254740008   7.185972818288125   8.353430858018386 
  6.223293796868854   0.718370095367466   8.338032187673662 
  9.956906690142258   7.185940973959815   8.337364110849613 
 -2.489917359614167   7.186075687292997   1.668273927030004 
 11.202025901317981   0.718502674255733   8.338222605490300 
  3.733725755392786   0.718244836350662   1.666909463130501 
  2.488772883798013   7.186012633181141   1.655342283603737 
  7.467370212739112   7.185783200133392   1.664885373165250 
  8.712752211767183   0.718442369548703   1.668066935244846 
  2.488772883798013   7.186012633181142   8.350614929240891 
 13.691217711378917   0.718291055796470   1.667925942347315 
 -1.244992622303850   9.342015387604459   8.337889575810147 
 -0.000724625559762   2.874076634907728   8.339085817037780 
  4.978270243116507   2.874076721532929   8.350614929240891 
  3.733514720711912   9.341971430835923   8.341168284271841 
  8.712275087582540   9.341706146299137   8.337364110849613 
  9.957186136063255   2.874306106412439   8.337992722264902 
 -3.734512406648905   9.341858247408256   1.667984788891650 
  1.244387959308404   9.342087972123498   1.667925025170953 
  2.488345376645533   2.873663321779353   1.656877907973549 
  6.222815624285320   9.341645099405529   1.666590623994259 
  7.467756249855038   2.874075374626288   1.664788928572786 
 12.446438539386884   2.874311825890202   1.667925942347315 
 -1.245475289353723   5.030156283422200   8.337625657450166 
 -2.489616427074440  11.497767053776823   8.337889575810147 
  2.489179758034621  11.497986063999683   8.337890277599783 
  3.731415494851444   5.028828738080544   8.382337008430099 
  7.467700317475245  11.497531196614457   8.337437982233329 
 -4.979177345226731  11.497600455622157   1.668273927030004 
  8.712124090332999   5.030036360499575   8.339366588850384 
 -0.000126835582628  11.497906762121108   1.668213035331092 
  1.243452435874004   5.029881145179490   1.656877907973549 
 -0.000504538920271   7.186121433263803   1.666909463130501 
  6.222761947878702   5.029679213565107   1.652526354826242 
  4.978429483404288  11.497765587339382   1.667964490579726 
 11.201618564776531   5.030195080980051   1.668519230611312 
 -2.489917359614167   7.186075687292997   8.337683285814531 
  3.733725755392786   0.718244836350663   8.339047749714126 
  7.467370212739113   7.185783200133393   8.341071839679390 
  8.712752211767183   0.718442369548704   8.337890277599783 
 13.691217711378917   0.718291055796471   8.338031270497218 
  0.027044211289135   1.454523472948581   5.002978606422314 
  3.701566182857480   7.990217948100179   5.002978606422314 
  5.014705570878511   1.370893037928852   5.002978606422314 
  8.705057356105280   7.900362205528333   5.002978606422314 
  9.986281736154133   1.442240304183752   5.002978606422314 
 -4.979112317852908  10.060522197306504  11.673616748318732 
 -0.000318934006281  10.060595894265701  11.673616748318732 
  1.244347080022240   3.592919119285949  11.673616748318732 
  4.978477057375374  10.060571109134631  11.673616748318732 
  6.223174774768652   3.592907745250608  11.673616748318732 
 11.201935472886809   3.592965032575270  11.673616748318732 
 -2.495592345630121  10.057149078141942   5.002978606422314 
 -1.216209307414498   3.607901734032070   5.002978606422314 
  3.800031026340023   3.466113249057049   5.002978606422314 
  2.481429359157266  10.105400405693992   5.002978606422314 
  7.475520766001826  10.074671865905366   5.002978606422314 
  8.748005611794257   3.583684467987798   5.002978606422314 
 -6.223799276768930  12.216364004086982  11.673616748318732 
 -1.244970609492801  12.216395833934097  11.673616748318732 
 -0.000424063903847   5.748855826979743  11.673616748318732 
  4.978536293976271   5.748854267167240  11.673616748318732 
  3.733777910270804  12.216438958989045  11.673616748318732 
  9.957267569282996   5.748822784673255  11.673616748318732 
 -2.482625368817699   5.757519174028700   5.002978606422314 
 -3.729623093840201  12.197885202074930   5.002978606422314 
  1.257855383375400  12.224203134872353   5.002978606422314 
  2.412371948213877   5.869609275955741   5.002978606422314 
  6.243246275901019  12.238245554391094   5.002978606422314 
  7.492089912743779   5.737240555828254   5.002978606422314 
 -1.245100464013862   7.904706768317933  11.673616748318732 
 -0.000315886467332   1.437026495010708  11.673616748318732 
  3.733751077191855   7.904716071019631  11.673616748318732 
  4.978481331420221   1.436964473793725  11.673616748318732 
  8.712577509634407   7.904703968192825  11.673616748318732 
 -3.741130463948251   7.904868486099213   5.002978606422314 
  9.957249746368463   1.437069539393854  11.673616748318732 
  2.506552181281361   1.420772668539839   5.002978606422314 
  1.205195291123520   7.969158394420471   5.002978606422314 
  6.225255334308184   7.931462410463818   5.002978606422314 
  7.502862455289850   1.408023156384402   5.002978606422314 
  1.244302713317868   7.904751564884384  11.673616748318732 
 12.474837884768640   1.453361015528818   5.002978606422314 
 -2.489721638567036  10.060538532445019  11.673616748318732 
 -1.245042183676385   3.592955683293882  11.673616748318732 
  3.733791337138992   3.592796767296613  11.673616748318732 
  2.489056657713951  10.060589186436607  11.673616748318732 
  7.467874666990002  10.060577771446097  11.673616748318732 
  8.712562994744712   3.592944545782435  11.673616748318732 
 -4.982291073570278  10.054621722317737   5.002978606422314 
 -0.011234999044029  10.080597640540649   5.002978606422314 
  1.282925932559724   3.615192630183475   5.002978606422314 
  4.988178903288955  10.095895354773486   5.002978606422314 
  6.281129125224586   3.522283870598451   5.002978606422314 
 11.230868994771797   3.599429596322024   5.002978606422314 
 -2.489760833100532   5.748819702237856  11.673616748318732 
 -3.734416125310018  12.216327969759826  11.673616748318732 
  1.244392422224182  12.216430290627617  11.673616748318732 
  2.488963248649664   5.748902263248991  11.673616748318732 
  6.223181038529460  12.216420671291107  11.673616748318732 
 -6.212697581057091  12.218193761528211   5.002978606422314 
  7.467916124683621   5.748845278346727  11.673616748318732 
 -1.233106621617517  12.196941371164566   5.002978606422314 
 -0.005684376434513   5.772094027135706   5.002978606422314 
 -1.258675853610113   7.918079039174289   5.002978606422314 
  3.752771918828693  12.238996017270884   5.002978606422314 
  9.973296462633988   5.748397453427685   5.002978606422314 
 -3.734431124854954   7.904671131808588  11.673616748318732 
  2.489057465873351   1.436947332901314  11.673616748318732 
  6.223218424782972   7.904724934638783  11.673616748318732 
  7.467868450316741   1.437034200325434  11.673616748318732 
 12.446643301280202   1.437082865162003  11.673616748318732 
  1.261906942985412   0.719419166024628   5.002978606422314 
  4.950589891121581   7.325091351952385   5.002978606422314 
  6.257596254804559   0.682718200166121   5.002978606422314 
  9.956045978493073   7.184818851206172   5.002978606422314 
 11.231623925969425   0.735591101755666   5.002978606422314 
 -3.734358069262858   9.341947354139609  11.673616748318732 
  1.244334623662384   9.341805006483632  11.673616748318732 
  2.489157944597449   2.874397579190787  11.673616748318732 
  6.223153659970860   9.341857829480125  11.673616748318732 
  7.467651718257541   2.874347052640205  11.673616748318732 
 12.446767355283978   2.874397643441264  11.673616748318732 
 -1.250970339756375   9.350904061006075   5.002978606422314 
  0.036982760308261   2.895847004289120   5.002978606422314 
  5.027195487219070   2.784831989413583   5.002978606422314 
  3.725731171191976   9.413824809161058   5.002978606422314 
  8.710872944947081   9.341521809522508   5.002978606422314 
  9.994100710127988   2.874944149712897   5.002978606422314 
 -4.979056482701950  11.497837002117819  11.673616748318732 
 -0.000356750799095  11.497774020509103  11.673616748318732 
  1.244494605421179   5.030217720962434  11.673616748318732 
  6.222892618127710   5.030205366746492  11.673616748318732 
  4.978500322931914  11.497785290807478  11.673616748318732 
 11.202009685889303   5.030237851908065  11.673616748318732 
 -1.235396945793798   5.044876383329587   5.002978606422314 
 -2.484907468828969  11.488145861905496   5.002978606422314 
  2.502365546196906  11.529168916109263   5.002978606422314 
  7.480172172787688  11.511444464294515   5.002978606422314 
  8.745307846484742   5.019893595197113   5.002978606422314 
 -0.000295634145254   7.185997362780459  11.673616748318732 
  1.244498934912793   0.718538174635107  11.673616748318732 
  4.978346251885866   7.185822905452604  11.673616748318732 
  6.223022073613327   0.718465388163006  11.673616748318732 
  9.957271542544722   7.186075953109154  11.673616748318732 
 -2.494465013799139   7.192396308354571   5.002978606422314 
 11.201983394339663   0.718478132840353  11.673616748318732 
  3.747242954721430   0.693526168728222   5.002978606422314 
  2.435947300679953   7.273005503520082   5.002978606422314 
  7.463549925527617   7.183577556283447   5.002978606422314 
  8.746350247937684   0.714270171011360   5.002978606422314 
  2.489006979733696   7.185832415786770  11.673616748318732 
 13.719496070049724   0.740035309488964   5.002978606422314 
 -1.244995773766159   9.341897388736944  11.673616748318732 
 -0.000109982377153   2.874431499314654  11.673616748318732 
  4.978231218242506   2.874369563257531  11.673616748318732 
  3.733697734974857   9.341745064810048  11.673616748318732 
  8.712574409156028   9.341954628173724  11.673616748318732 
  9.957238619530980   2.874357603508907  11.673616748318732 
 -3.738515309293428   9.339547170488778   5.002978606422314 
  1.230663741338826   9.389620719708752   5.002978606422314 
  2.521072156055552   2.863839537820565   5.002978606422314 
  6.230623609944590   9.375454457877236   5.002978606422314 
  7.526091326072311   2.831407933847943   5.002978606422314 
 12.479408794806313   2.887929476030215   5.002978606422314 
 -1.244863910753949   5.030241101804175  11.673616748318732 
 -2.489720192822505  11.497823323964205  11.673616748318732 
  2.489041449380975  11.497741514725817  11.673616748318732 
  3.733659047494112   5.030124053802720  11.673616748318732 
  7.467932918741834  11.497848531970069  11.673616748318732 
 -4.975977353912207  11.490501761039573   5.002978606422314 
  8.712477337824485   5.030222742953392  11.673616748318732 
  0.010438103410237  11.504006432492730   5.002978606422314 
  1.251308179109412   5.063135259512011   5.002978606422314 
 -0.015152933364604   7.210187005081507   5.002978606422314 
  6.329624450359978   4.936533429958113   5.002978606422314 
  4.997439332143559  11.529415524599106   5.002978606422314 
 11.219903735693343   5.034039390672910   5.002978606422314 
 -2.489652073077361   7.186062084061994  11.673616748318732 
  3.733722759589903   0.718487788434395  11.673616748318732 
  7.467781782308198   7.186020819934817  11.673616748318732 
  8.712471271556707   0.718444865378030  11.673616748318732 
 13.691456439506773   0.718532909940992  11.673616748318732 
 -0.000225518662198   1.437206977484522   1.667896095431778 
  3.732927441592031   7.904081019166124   1.656265716250597 
  4.978133624152634   1.437253464118009   1.664386082033887 
  8.712128721589416   7.904444860294171   1.666709476823625 
  9.957361727509070   1.436996893819752   1.667594179055435 
 -4.979097103355027  10.060625908073725   8.338139643120542 
 -0.000224163893482  10.060567857545390   8.338076455790528 
  1.244334083993210   3.592911616025012   8.344706151795949 
  4.978005184592292  10.060520507006206   8.340317205458158 
  6.222212985930990   3.592511981824270   8.349691496594030 
 11.202039015759190   3.592879512251430   8.338163110146544 
 -2.489563017369008  10.060630112436391   1.667695049972705 
 -1.244840697366549   3.592943702871891   1.667896095431778 
  3.732528474300263   3.592548029608590   1.646334874909608 
  2.488836024004069  10.060607304811509   1.666704402401390 
  7.467544796604423  10.060488081932204   1.667381850924235 
  8.712283235624529   3.592561193029041   1.665640007386483 
 -6.223812818912935  12.216572044706378   8.337598411946010 
 -1.244947504948383  12.216491925619376   8.338076455790528 
 -0.000232207875385   5.748501295675479   8.340117453533505 
  4.976108522948237   5.747452592910622   8.355065240194712 
  3.733770987928507  12.216572260288528   8.338363033789205 
  9.957024960692731   5.748581953296321   8.338575361920393 
 -2.489587435711134   5.748703954087452   1.668358800898511 
 -3.734376222588015  12.216668940635378   1.667874912058585 
  1.244468836679911  12.216474408534202   1.667817453669939 
  2.488116404073586   5.747932960793179   1.646334874909608 
  6.223158747192620  12.216553102210966   1.667794102698070 
  7.466680310538196   5.748200959673518   1.660581099853391 
 -1.244785223212636   7.904570839651015   8.338082300786136 
 -0.000225518662197   1.437206977484523   8.338061117412849 
  3.732927441592031   7.904081019166125   8.349691496594030 
  4.978133624152635   1.437253464118010   8.341571130810740 
  8.712128721589416   7.904444860294172   8.339247736021003 
 -3.734333701447014   7.904632452566752   1.667817569724087 
  9.957361727509070   1.436996893819753   8.338363033789205 
  2.488846360771704   1.437290750747872   1.665839759311123 
  1.244379132646345   7.904305946395445   1.664386082033887 
  6.222042521371078   7.903976847531183   1.660581099853391 
  7.467773824434794   1.436834066740203   1.666704402401390 
  1.244379132646345   7.904305946395445   8.341571130810740 
 12.446795211024028   1.437170570293560   1.667641933522437 
 -2.489563017369007  10.060630112436391   8.338262162871908 
 -1.244840697366548   3.592943702871892   8.338061117412849 
  3.732528474300263   3.592548029608591   8.359622337935020 
  2.488836024004069  10.060607304811509   8.339252810443238 
  7.467544796604424  10.060488081932204   8.338575361920393 
  8.712283235624529   3.592561193029042   8.340317205458158 
 -4.979097103355028  10.060625908073725   1.667817569724087 
 -0.000224163893483  10.060567857545390   1.667880757054114 
  1.244334083993210   3.592911616025011   1.661251061048692 
  4.978005184592291  10.060520507006206   1.665640007386483 
  6.222212985930989   3.592511981824269   1.656265716250597 
 11.202039015759190   3.592879512251429   1.667794102698070 
 -2.489587435711134   5.748703954087452   8.337598411946010 
 -3.734376222588015  12.216668940635378   8.338082300786136 
  1.244468836679911  12.216474408534202   8.338139759174688 
  2.488116404073587   5.747932960793180   8.359622337935020 
  6.223158747192620  12.216553102210966   8.338163110146544 
 -6.223812818912936  12.216572044706378   1.668358800898511 
  7.466680310538197   5.748200959673519   8.345376112991209 
 -1.244947504948383  12.216491925619376   1.667880757054114 
 -0.000232207875386   5.748501295675478   1.665839759311123 
 -1.244785223212637   7.904570839651014   1.667874912058585 
  4.976108522948236   5.747452592910621   1.650891972649916 
  3.733770987928507  12.216572260288528   1.667594179055435 
  9.957024960692731   5.748581953296320   1.667381850924235 
 -3.734333701447014   7.904632452566752   8.338139643120542 
  2.488846360771704   1.437290750747873   8.340117453533505 
  6.222042521371079   7.903976847531184   8.345376112991209 
  7.467773824434794   1.436834066740204   8.339252810443238 
 12.446795211024028   1.437170570293561   8.338315279322272 
Generated by cif2cell 2.0.0.  :  Failed to get author information, No journal information. Species order: As N B 
 1.0
 14.936314146199660   0.000000000000000   0.000000000000000
 -7.468157073099825  12.935227489513863   0.000000000000000
  0.000000000000001   0.000000000000001  13.341276283792837
 As N B 
   1 143 143
Cartesian
  4.230885395386143   5.317197819606423   5.002978606422314 
  1.244119790739355   0.718051114427449   1.668331555394461 
  4.977825254740007   7.185972818288124   1.652526354826242 
  6.223293796868854   0.718370095367465   1.667925025170953 
  9.956906690142258   7.185940973959815   1.668593101995015 
 11.202025901317981   0.718502674255733   1.667734607354329 
 -3.734512406648905   9.341858247408256   8.337972423952964 
  1.244387959308404   9.342087972123498   8.338032187673662 
  2.488345376645533   2.873663321779354   8.349079304871079 
  6.222815624285321   9.341645099405529   8.339366588850384 
  7.467756249855038   2.874075374626289   8.341168284271841 
 12.446438539386884   2.874311825890203   8.338031270497218 
 -1.244992622303850   9.342015387604459   1.668067637034481 
 -0.000724625559763   2.874076634907727   1.666871395806835 
  4.978270243116506   2.874076721532928   1.655342283603737 
  3.733514720711912   9.341971430835923   1.664788928572786 
  8.712275087582540   9.341706146299137   1.668593101995015 
  9.957186136063255   2.874306106412438   1.667964490579726 
 -4.979177345226730  11.497600455622157   8.337683285814531 
 -0.000126835582627  11.497906762121108   8.337744177513535 
  1.243452435874004   5.029881145179491   8.349079304871079 
  6.222761947878703   5.029679213565108   8.353430858018386 
  4.978429483404289  11.497765587339382   8.337992722264902 
 11.201618564776531   5.030195080980052   8.337437982233329 
 -1.245475289353723   5.030156283422199   1.668331555394461 
 -2.489616427074441  11.497767053776823   1.668067637034481 
  2.489179758034621  11.497986063999683   1.668066935244846 
  3.731415494851443   5.028828738080543   1.623620204414541 
  7.467700317475244  11.497531196614457   1.668519230611312 
  8.712124090332999   5.030036360499574   1.666590623994259 
 -0.000504538920271   7.186121433263804   8.339047749714126 
  1.244119790739356   0.718051114427450   8.337625657450166 
  4.977825254740008   7.185972818288125   8.353430858018386 
  6.223293796868854   0.718370095367466   8.338032187673662 
  9.956906690142258   7.185940973959815   8.337364110849613 
 -2.489917359614167   7.186075687292997   1.668273927030004 
 11.202025901317981   0.718502674255733   8.338222605490300 
  3.733725755392786   0.718244836350662   1.666909463130501 
  2.488772883798013   7.186012633181141   1.655342283603737 
  7.467370212739112   7.185783200133392   1.664885373165250 
  8.712752211767183   0.718442369548703   1.668066935244846 
  2.488772883798013   7.186012633181142   8.350614929240891 
 13.691217711378917   0.718291055796470   1.667925942347315 
 -1.244992622303850   9.342015387604459   8.337889575810147 
 -0.000724625559762   2.874076634907728   8.339085817037780 
  4.978270243116507   2.874076721532929   8.350614929240891 
  3.733514720711912   9.341971430835923   8.341168284271841 
  8.712275087582540   9.341706146299137   8.337364110849613 
  9.957186136063255   2.874306106412439   8.337992722264902 
 -3.734512406648905   9.341858247408256   1.667984788891650 
  1.244387959308404   9.342087972123498   1.667925025170953 
  2.488345376645533   2.873663321779353   1.656877907973549 
  6.222815624285320   9.341645099405529   1.666590623994259 
  7.467756249855038   2.874075374626288   1.664788928572786 
 12.446438539386884   2.874311825890202   1.667925942347315 
 -1.245475289353723   5.030156283422200   8.337625657450166 
 -2.489616427074440  11.497767053776823   8.337889575810147 
  2.489179758034621  11.497986063999683   8.337890277599783 
  3.731415494851444   5.028828738080544   8.382337008430099 
  7.467700317475245  11.497531196614457   8.337437982233329 
 -4.979177345226731  11.497600455622157   1.668273927030004 
  8.712124090332999   5.030036360499575   8.339366588850384 
 -0.000126835582628  11.497906762121108   1.668213035331092 
  1.243452435874004   5.029881145179490   1.656877907973549 
 -0.000504538920271   7.186121433263803   1.666909463130501 
  6.222761947878702   5.029679213565107   1.652526354826242 
  4.978429483404288  11.497765587339382   1.667964490579726 
 11.201618564776531   5.030195080980051   1.668519230611312 
 -2.489917359614167   7.186075687292997   8.337683285814531 
  3.733725755392786   0.718244836350663   8.339047749714126 
  7.467370212739113   7.185783200133393   8.341071839679390 
  8.712752211767183   0.718442369548704   8.337890277599783 
 13.691217711378917   0.718291055796471   8.338031270497218 
  0.027044211289135   1.454523472948581   5.002978606422314 
  3.701566182857480   7.990217948100179   5.002978606422314 
  5.014705570878511   1.370893037928852   5.002978606422314 
  8.705057356105280   7.900362205528333   5.002978606422314 
  9.986281736154133   1.442240304183752   5.002978606422314 
 -4.979112317852908  10.060522197306504  11.673616748318732 
 -0.000318934006281  10.060595894265701  11.673616748318732 
  1.244347080022240   3.592919119285949  11.673616748318732 
  4.978477057375374  10.060571109134631  11.673616748318732 
  6.223174774768652   3.592907745250608  11.673616748318732 
 11.201935472886809   3.592965032575270  11.673616748318732 
 -2.495592345630121  10.057149078141942   5.002978606422314 
 -1.216209307414498   3.607901734032070   5.002978606422314 
  3.800031026340023   3.466113249057049   5.002978606422314 
  2.481429359157266  10.105400405693992   5.002978606422314 
  7.475520766001826  10.074671865905366   5.002978606422314 
  8.748005611794257   3.583684467987798   5.002978606422314 
 -6.223799276768930  12.216364004086982  11.673616748318732 
 -1.244970609492801  12.216395833934097  11.673616748318732 
 -0.000424063903847   5.748855826979743  11.673616748318732 
  4.978536293976271   5.748854267167240  11.673616748318732 
  3.733777910270804  12.216438958989045  11.673616748318732 
  9.957267569282996   5.748822784673255  11.673616748318732 
 -2.482625368817699   5.757519174028700   5.002978606422314 
 -3.729623093840201  12.197885202074930   5.002978606422314 
  1.257855383375400  12.224203134872353   5.002978606422314 
  2.412371948213877   5.869609275955741   5.002978606422314 
  6.243246275901019  12.238245554391094   5.002978606422314 
  7.492089912743779   5.737240555828254   5.002978606422314 
 -1.245100464013862   7.904706768317933  11.673616748318732 
 -0.000315886467332   1.437026495010708  11.673616748318732 
  3.733751077191855   7.904716071019631  11.673616748318732 
  4.978481331420221   1.436964473793725  11.673616748318732 
  8.712577509634407   7.904703968192825  11.673616748318732 
 -3.741130463948251   7.904868486099213   5.002978606422314 
  9.957249746368463   1.437069539393854  11.673616748318732 
  2.506552181281361   1.420772668539839   5.002978606422314 
  1.205195291123520   7.969158394420471   5.002978606422314 
  6.225255334308184   7.931462410463818   5.002978606422314 
  7.502862455289850   1.408023156384402   5.002978606422314 
  1.244302713317868   7.904751564884384  11.673616748318732 
 12.474837884768640   1.453361015528818   5.002978606422314 
 -2.489721638567036  10.060538532445019  11.673616748318732 
 -1.245042183676385   3.592955683293882  11.673616748318732 
  3.733791337138992   3.592796767296613  11.673616748318732 
  2.489056657713951  10.060589186436607  11.673616748318732 
  7.467874666990002  10.060577771446097  11.673616748318732 
  8.712562994744712   3.592944545782435  11.673616748318732 
 -4.982291073570278  10.054621722317737   5.002978606422314 
 -0.011234999044029  10.080597640540649   5.002978606422314 
  1.282925932559724   3.615192630183475   5.002978606422314 
  4.988178903288955  10.095895354773486   5.002978606422314 
  6.281129125224586   3.522283870598451   5.002978606422314 
 11.230868994771797   3.599429596322024   5.002978606422314 
 -2.489760833100532   5.748819702237856  11.673616748318732 
 -3.734416125310018  12.216327969759826  11.673616748318732 
  1.244392422224182  12.216430290627617  11.673616748318732 
  2.488963248649664   5.748902263248991  11.673616748318732 
  6.223181038529460  12.216420671291107  11.673616748318732 
 -6.212697581057091  12.218193761528211   5.002978606422314 
  7.467916124683621   5.748845278346727  11.673616748318732 
 -1.233106621617517  12.196941371164566   5.002978606422314 
 -0.005684376434513   5.772094027135706   5.002978606422314 
 -1.258675853610113   7.918079039174289   5.002978606422314 
  3.752771918828693  12.238996017270884   5.002978606422314 
  9.973296462633988   5.748397453427685   5.002978606422314 
 -3.734431124854954   7.904671131808588  11.673616748318732 
  2.489057465873351   1.436947332901314  11.673616748318732 
  6.223218424782972   7.904724934638783  11.673616748318732 
  7.467868450316741   1.437034200325434  11.673616748318732 
 12.446643301280202   1.437082865162003  11.673616748318732 
  1.261906942985412   0.719419166024628   5.002978606422314 
  4.950589891121581   7.325091351952385   5.002978606422314 
  6.257596254804559   0.682718200166121   5.002978606422314 
  9.956045978493073   7.184818851206172   5.002978606422314 
 11.231623925969425   0.735591101755666   5.002978606422314 
 -3.734358069262858   9.341947354139609  11.673616748318732 
  1.244334623662384   9.341805006483632  11.673616748318732 
  2.489157944597449   2.874397579190787  11.673616748318732 
  6.223153659970860   9.341857829480125  11.673616748318732 
  7.467651718257541   2.874347052640205  11.673616748318732 
 12.446767355283978   2.874397643441264  11.673616748318732 
 -1.250970339756375   9.350904061006075   5.002978606422314 
  0.036982760308261   2.895847004289120   5.002978606422314 
  5.027195487219070   2.784831989413583   5.002978606422314 
  3.725731171191976   9.413824809161058   5.002978606422314 
  8.710872944947081   9.341521809522508   5.002978606422314 
  9.994100710127988   2.874944149712897   5.002978606422314 
 -4.979056482701950  11.497837002117819  11.673616748318732 
 -0.000356750799095  11.497774020509103  11.673616748318732 
  1.244494605421179   5.030217720962434  11.673616748318732 
  6.222892618127710   5.030205366746492  11.673616748318732 
  4.978500322931914  11.497785290807478  11.673616748318732 
 11.202009685889303   5.030237851908065  11.673616748318732 
 -1.235396945793798   5.044876383329587   5.002978606422314 
 -2.484907468828969  11.488145861905496   5.002978606422314 
  2.502365546196906  11.529168916109263   5.002978606422314 
  7.480172172787688  11.511444464294515   5.002978606422314 
  8.745307846484742   5.019893595197113   5.002978606422314 
 -0.000295634145254   7.185997362780459  11.673616748318732 
  1.244498934912793   0.718538174635107  11.673616748318732 
  4.978346251885866   7.185822905452604  11.673616748318732 
  6.223022073613327   0.718465388163006  11.673616748318732 
  9.957271542544722   7.186075953109154  11.673616748318732 
 -2.494465013799139   7.192396308354571   5.002978606422314 
 11.201983394339663   0.718478132840353  11.673616748318732 
  3.747242954721430   0.693526168728222   5.002978606422314 
  2.435947300679953   7.273005503520082   5.002978606422314 
  7.463549925527617   7.183577556283447   5.002978606422314 
  8.746350247937684   0.714270171011360   5.002978606422314 
  2.489006979733696   7.185832415786770  11.673616748318732 
 13.719496070049724   0.740035309488964   5.002978606422314 
 -1.244995773766159   9.341897388736944  11.673616748318732 
 -0.000109982377153   2.874431499314654  11.673616748318732 
  4.978231218242506   2.874369563257531  11.673616748318732 
  3.733697734974857   9.341745064810048  11.673616748318732 
  8.712574409156028   9.341954628173724  11.673616748318732 
  9.957238619530980   2.874357603508907  11.673616748318732 
 -3.738515309293428   9.339547170488778   5.002978606422314 
  1.230663741338826   9.389620719708752   5.002978606422314 
  2.521072156055552   2.863839537820565   5.002978606422314 
  6.230623609944590   9.375454457877236   5.002978606422314 