B C N                                   
   1.0000000000000000     
     8.7639499999999995  -15.1796066749929999    0.0000000000000000
     8.7639499999999995   15.1796066749929999    0.0000000000000000
     0.0000000000000000    0.0000000000000000   15.0000000000000000
   B    C    N 
    47     3    48
Selective dynamics
Direct
  0.9047411079756384  0.9523134908734279  0.1110050655191448   T   T   T
  0.9048170790313210  0.0952284513741935  0.1110343484672338   T   T   T
  0.9048101053242505  0.2381530818753726  0.1110373715636526   T   T   T
  0.9047216038608454  0.3810039536854313  0.1109870723280166   T   T   T
  0.9052504686051682  0.5239316702353727  0.1109910752956695   T   T   T
  0.9055032918283342  0.6670302842400747  0.1110527666727994   T   T   T
  0.9052569667266299  0.8098912395148663  0.1110368173810333   T   T   T
  0.0477827601402009  0.9524816138271671  0.1109984262641605   T   T   T
  0.0478093420246194  0.0953268869503144  0.1110024509751867   T   T   T
  0.0478877128680780  0.2382198496300579  0.1109875889825132   T   T   T
  0.0478172613079834  0.3810406949496144  0.1110067083468384   T   T   T
  0.0477759434027097  0.5238666465132686  0.1109971445513082   T   T   T
  0.0478696224722172  0.6667839016904007  0.1110093300780589   T   T   T
  0.0478767978579847  0.8096530264230318  0.1109861569267027   T   T   T
  0.1903772963015272  0.9521470292969078  0.1109844289967658   T   T   T
  0.1904707764247959  0.0950703152680923  0.1110276361786357   T   T   T
  0.1909850461000961  0.2381887080475063  0.1109895505306083   T   T   T
  0.1909949979250176  0.3813479941571098  0.1109844385366707   T   T   T
  0.1904660593401537  0.5239415346807461  0.1110505633979059   T   T   T
  0.1903786395400895  0.6667779115656363  0.1110548085025596   T   T   T
  0.1905038808394206  0.8095326832623907  0.1109894468154119   T   T   T
  0.3332609305860040  0.9521763301862611  0.1110089627498875   T   T   T
  0.3329124127096866  0.0943811493038704  0.1110557462798212   T   T   T
  0.3331698301874698  0.2370284845181520  0.1110586860172638   T   T   T
  0.3346887522224196  0.3816333543261415  0.1110506053755210   T   T   T
  0.3331581551632654  0.5247125301895595  0.1110626141185868   T   T   T
  0.3329200384706622  0.6670783742464089  0.1110760759721309   T   T   T
  0.3332662546062310  0.8096447500289454  0.1110551394065965   T   T   T
  0.4761400637373625  0.9523533435134739  0.1109995479970948   T   T   T
  0.4760547168666116  0.0953715019832082  0.1109801250918943   T   T   T
  0.4752375400420349  0.2378478204679726  0.1110306546399007   T   T   T
  0.4752496310859192  0.6659818332870547  0.1110496190055845   T   T   T
  0.4760720648873592  0.8092554103581874  0.1110438699707063   T   T   T
  0.6189203221344368  0.9522246013330093  0.1110068033697075   T   T   T
  0.6189052922573601  0.0952613718515715  0.1109907214308884   T   T   T
  0.6186978700964469  0.2381668346306349  0.1109959399703046   T   T   T
  0.6186334576646717  0.3817567102929590  0.1110184779809208   T   T   T
  0.6222682859303909  0.5254438854225730  0.1110961660191671   T   T   T
  0.6186431082677378  0.6654714315463552  0.1110309202963475   T   T   T
  0.6187285907253258  0.8091296496162470  0.1109865176029862   T   T   T
  0.7617784909303702  0.9521827712801463  0.1109921781765779   T   T   T
  0.7618205635486295  0.0951965575839578  0.1110386403749204   T   T   T
  0.7617565465998675  0.2381636535469448  0.1110426669054746   T   T   T
  0.7616530866318965  0.3811484976685455  0.1109987248207112   T   T   T
  0.7632064639361293  0.5243253307441803  0.1110165299882019   T   T   T
  0.7632188924157018  0.6674588645084240  0.1110277921336807   T   T   T
  0.7616716842959580  0.8091068308154699  0.1109965172195093   T   T   T
  0.4744238418215408  0.3794401792138330  0.1112961165122912   T   T   T
  0.4743942481861377  0.5236147075109232  0.1111759811724769   T   T   T
  0.5195841360713037  0.4741429970082294  0.1112915169327729   T   T   T
  0.9525278397155863  0.9049159131615288  0.1109988375698747   T   T   T
  0.9525433953984794  0.0476753403352618  0.1109972651611905   T   T   T
  0.9527159357415552  0.1906425000596614  0.1110078818312072   T   T   T
  0.9525381752904936  0.3334393767034811  0.1109970522531567   T   T   T
  0.9525190796430554  0.4761805734638542  0.1109517299896773   T   T   T
  0.9525594323835366  0.6190791281593784  0.1110048622505319   T   T   T
  0.9525608463644715  0.7620395695011406  0.1110201940179450   T   T   T
  0.0953199868071301  0.9048519144816571  0.1109576401629030   T   T   T
  0.0955435082222579  0.0478970870721643  0.1109926028971538   T   T   T
  0.0961232429927140  0.1910375016640052  0.1109721952968320   T   T   T
  0.0961296702958908  0.3336400502353349  0.1109679123329885   T   T   T
  0.0955395561750987  0.4762029513484693  0.1110021773756188   T   T   T
  0.0953172603589891  0.6190257647738600  0.1110050816919868   T   T   T
  0.0953365783801436  0.7619490200982670  0.1109703548168506   T   T   T
  0.2381613375887612  0.9048041705209411  0.1109670461576765   T   T   T
  0.2381027709145276  0.0476146455405123  0.1110185183427815   T   T   T
  0.2387084143593496  0.1909220732992729  0.1110037520518496   T   T   T
  0.2405268577504474  0.3345404476648720  0.1109621818008578   T   T   T
  0.2387026415542811  0.4763353373881792  0.1110169286259359   T   T   T
  0.2381028719498777  0.6190308779300482  0.1110570814138133   T   T   T
  0.2381621070527983  0.7619109012502443  0.1110200156450211   T   T   T
  0.3809970417720862  0.9047774423729217  0.1110067992973897   T   T   T
  0.3809535306699800  0.0476484048129038  0.1109996575635354   T   T   T
  0.3807420968669861  0.1902187690652784  0.1110421946920035   T   T   T
  0.3828501881747421  0.3332337754590398  0.1111024544102455   T   T   T
  0.3828426001950147  0.4782038632932888  0.1110760288201132   T   T   T
  0.3807453286268274  0.6190876943311052  0.1110484787645429   T   T   T
  0.3809618109895563  0.7618618941029250  0.1110512909866849   T   T   T
  0.5236956829197104  0.9044034713380650  0.1109972037033359   T   T   T
  0.5236853209766194  0.0478543492954414  0.1109557831397132   T   T   T
  0.5234712187183982  0.1913710884387535  0.1109676252656793   T   T   T
  0.5213568143275876  0.3347586161571023  0.1110840680434696   T   T   T
  0.5213631712453136  0.6152165774653414  0.1110679012912543   T   T   T
  0.5234947518027225  0.7606910859576941  0.1110008910276124   T   T   T
  0.6663177284571969  0.9041095035419974  0.1109736184998940   T   T   T
  0.6664692282169208  0.0475227870432833  0.1109962299564629   T   T   T
  0.6662950515276793  0.1907746031356032  0.1110011513414806   T   T   T
  0.6653468780635565  0.3338005405314924  0.1109729121137098   T   T   T
  0.6672652664130644  0.4767745754237829  0.1110057685554123   T   T   T
  0.6672834564479873  0.6190965737565137  0.1110101400231397   T   T   T
  0.6653684042663858  0.7601397549976739  0.1109707537722261   T   T   T
  0.8091055543109622  0.9041841226865358  0.1109788005139854   T   T   T
  0.8094366691495259  0.0474450466371279  0.1110117840370243   T   T   T
  0.8094288917972966  0.1905641608341252  0.1110353874359977   T   T   T
  0.8090839615147052  0.3334938911947193  0.1109953510355647   T   T   T
  0.8096983062293812  0.4762820556295925  0.1109908494728089   T   T   T
  0.8098429667040075  0.6192041888187949  0.1110248161003493   T   T   T
  0.8097084049982629  0.7619991602775773  0.1110136945997474   T   T   T

  0.00000000E+00  0.00000000E+00  0.00000000E+00
  0.00000000E+00  0.00000000E+00  0.00000000E+00
  0.00000000E+00  0.00000000E+00  0.00000000E+00
  0.00000000E+00  0.00000000E+00  0.00000000E+00
  0.00000000E+00  0.00000000E+00  0.00000000E+00
  0.00000000E+00  0.00000000E+00  0.00000000E+00
  0.00000000E+00  0.00000000E+00  0.00000000E+00
  0.00000000E+00  0.00000000E+00  0.00000000E+00
  0.00000000E+00  0.00000000E+00  0.00000000E+00
  0.00000000E+00  0.00000000E+00  0.00000000E+00
  0.00000000E+00  0.00000000E+00  0.00000000E+00
  0.00000000E+00  0.00000000E+00  0.00000000E+00
  0.00000000E+00  0.00000000E+00  0.00000000E+00
  0.00000000E+00  0.00000000E+00  0.00000000E+00
  0.00000000E+00  0.00000000E+00  0.00000000E+00
  0.00000000E+00  0.00000000E+00  0.00000000E+00
  0.00000000E+00  0.00000000E+00  0.00000000E+00
  0.00000000E+00  0.00000000E+00  0.00000000E+00
  0.00000000E+00  0.00000000E+00  0.00000000E+00
  0.00000000E+00  0.00000000E+00  0.00000000E+00
  0.00000000E+00  0.00000000E+00  0.00000000E+00
  0.00000000E+00  0.00000000E+00  0.00000000E+00
  0.00000000E+00  0.00000000E+00  0.00000000E+00
  0.00000000E+00  0.00000000E+00  0.00000000E+00
  0.00000000E+00  0.00000000E+00  0.00000000E+00
  0.00000000E+00  0.00000000E+00  0.00000000E+00
  0.00000000E+00  0.00000000E+00  0.00000000E+00
  0.00000000E+00  0.00000000E+00  0.00000000E+00
  0.00000000E+00  0.00000000E+00  0.00000000E+00
  0.00000000E+00  0.00000000E+00  0.00000000E+00
  0.00000000E+00  0.00000000E+00  0.00000000E+00
  0.00000000E+00  0.00000000E+00  0.00000000E+00
  0.00000000E+00  0.00000000E+00  0.00000000E+00
  0.00000000E+00  0.00000000E+00  0.00000000E+00
  0.00000000E+00  0.00000000E+00  0.00000000E+00
  0.00000000E+00  0.00000000E+00  0.00000000E+00
  0.00000000E+00  0.00000000E+00  0.00000000E+00
  0.00000000E+00  0.00000000E+00  0.00000000E+00
  0.00000000E+00  0.00000000E+00  0.00000000E+00
  0.00000000E+00  0.00000000E+00  0.00000000E+00
  0.00000000E+00  0.00000000E+00  0.00000000E+00
  0.00000000E+00  0.00000000E+00  0.00000000E+00
  0.00000000E+00  0.00000000E+00  0.00000000E+00
  0.00000000E+00  0.00000000E+00  0.00000000E+00
  0.00000000E+00  0.00000000E+00  0.00000000E+00
  0.00000000E+00  0.00000000E+00  0.00000000E+00
  0.00000000E+00  0.00000000E+00  0.00000000E+00
  0.00000000E+00  0.00000000E+00  0.00000000E+00
  0.00000000E+00  0.00000000E+00  0.00000000E+00
  0.00000000E+00  0.00000000E+00  0.00000000E+00
  0.00000000E+00  0.00000000E+00  0.00000000E+00
  0.00000000E+00  0.00000000E+00  0.00000000E+00
  0.00000000E+00  0.00000000E+00  0.00000000E+00
  0.00000000E+00  0.00000000E+00  0.00000000E+00
  0.00000000E+00  0.00000000E+00  0.00000000E+00
  0.00000000E+00  0.00000000E+00  0.00000000E+00
  0.00000000E+00  0.00000000E+00  0.00000000E+00
  0.00000000E+00  0.00000000E+00  0.00000000E+00
  0.00000000E+00  0.00000000E+00  0.00000000E+00
  0.00000000E+00  0.00000000E+00  0.00000000E+00
  0.00000000E+00  0.00000000E+00  0.00000000E+00
  0.00000000E+00  0.00000000E+00  0.00000000E+00
  0.00000000E+00  0.00000000E+00  0.00000000E+00
  0.00000000E+00  0.00000000E+00  0.00000000E+00
  0.00000000E+00  0.00000000E+00  0.00000000E+00
  0.00000000E+00  0.00000000E+00  0.00000000E+00
  0.00000000E+00  0.00000000E+00  0.00000000E+00
  0.00000000E+00  0.00000000E+00  0.00000000E+00
  0.00000000E+00  0.00000000E+00  0.00000000E+00
  0.00000000E+00  0.00000000E+00  0.00000000E+00
  0.00000000E+00  0.00000000E+00  0.00000000E+00
  0.00000000E+00  0.00000000E+00  0.00000000E+00
  0.00000000E+00  0.00000000E+00  0.00000000E+00
  0.00000000E+00  0.00000000E+00  0.00000000E+00
  0.00000000E+00  0.00000000E+00  0.00000000E+00
  0.00000000E+00  0.00000000E+00  0.00000000E+00
  0.00000000E+00  0.00000000E+00  0.00000000E+00
  0.00000000E+00  0.00000000E+00  0.00000000E+00
  0.00000000E+00  0.00000000E+00  0.00000000E+00
  0.00000000E+00  0.00000000E+00  0.00000000E+00
  0.00000000E+00  0.00000000E+00  0.00000000E+00
  0.00000000E+00  0.00000000E+00  0.00000000E+00
  0.00000000E+00  0.00000000E+00  0.00000000E+00
  0.00000000E+00  0.00000000E+00  0.00000000E+00
  0.00000000E+00  0.00000000E+00  0.00000000E+00
  0.00000000E+00  0.00000000E+00  0.00000000E+00
  0.00000000E+00  0.00000000E+00  0.00000000E+00
  0.00000000E+00  0.00000000E+00  0.00000000E+00
  0.00000000E+00  0.00000000E+00  0.00000000E+00
  0.00000000E+00  0.00000000E+00  0.00000000E+00
  0.00000000E+00  0.00000000E+00  0.00000000E+00
  0.00000000E+00  0.00000000E+00  0.00000000E+00
  0.00000000E+00  0.00000000E+00  0.00000000E+00
  0.00000000E+00  0.00000000E+00  0.00000000E+00
  0.00000000E+00  0.00000000E+00  0.00000000E+00
  0.00000000E+00  0.00000000E+00  0.00000000E+00
  0.00000000E+00  0.00000000E+00  0.00000000E+00
  0.00000000E+00  0.00000000E+00  0.00000000E+00
