Species order:X N B                     
   2.51242800000000     
     5.9449720136058266    0.0000000000000000    0.0000000000000000
    -2.9724860068029120    5.1484967885702053   -0.0000000000000001
     0.0000000000000000    0.0000000000000009    5.3101128803662583
   C    N    B 
     2   142   143
Direct
  0.3882701733925653  0.4386059981134995  0.3750000000000000
  0.4337209243005535  0.3801151969767632  0.3750000000000000
  0.1110943934383219  0.0555712367683718  0.1249176583361164
  0.6111442875133301  0.5556270547656232  0.1238525515519931
  0.4444479894801083  0.0555702988596560  0.1249034639673263
  0.9444346409186326  0.5555398633327594  0.1249137279927423
  0.7777595034783770  0.0555514513256723  0.1249120534586962
  0.1111016120699138  0.7222123074806972  0.6251037193272112
  0.4444498377366967  0.7222121344440903  0.6251478930134833
  0.2777694037261800  0.2222370277985893  0.6251279457907758
  0.7777830918111663  0.7222451427350849  0.6251755414536546
  0.6111280686411364  0.2222193109155281  0.6251403094584355
  0.9444168026888210  0.2222022075270356  0.6251220007631578
  0.2777766914257437  0.7222063455738047  0.1249059941571987
  0.1110774585693786  0.2222101368409924  0.1248667274730792
  0.4444441233897531  0.2222313356407106  0.1247349476801587
  0.6111173141420292  0.7222248813196711  0.1248272773392123
  0.9444319823824111  0.7222226082489872  0.1249125047875318
  0.7777739891920824  0.2222066719479078  0.1249177752143276
  0.1111000692535698  0.8889010223729789  0.6251093367497421
  0.4444443736542916  0.8888911094753379  0.6251058753250466
  0.2777342424704617  0.3888541978643419  0.6256173025580123
  0.6111601299756636  0.3888338565604733  0.6261869543466354
  0.7777724409989248  0.8889029703378910  0.6250719535342958
  0.9444370130582571  0.3888675967629787  0.6250748919456360
  0.1110857026536728  0.3888594172346816  0.1248571428755191
  0.2777765735835928  0.8888965115868265  0.1248861009583151
  0.6111045444642691  0.8888893133850047  0.1249451042107700
  0.4444513210882537  0.3888565063247422  0.1240078503029296
  0.9444363820364663  0.8889089409033337  0.1249065642035665
  0.7777937355686478  0.3888706778175161  0.1248316955775261
  0.2777691111437382  0.5555252373467963  0.6251448229263228
  0.1110943934383219  0.0555712367683718  0.6250823416638835
  0.6111442875133301  0.5556270547656232  0.6261474484480070
  0.4444479894801083  0.0555702988596560  0.6250965360326739
  0.9444346409186326  0.5555398633327594  0.6250862720072567
  0.1111000251676809  0.5555300169521894  0.1249100971693704
  0.7777595034783770  0.0555514513256723  0.6250879465413038
  0.2777726093434292  0.0555783743330242  0.1249221040128287
  0.4444463988647063  0.5555589651580081  0.1243607561102001
  0.7777694877019793  0.5555493079955269  0.1247688703871463
  0.6111035540235795  0.0555563327208085  0.1249446992541691
  0.4444463988647063  0.5555589651580081  0.6256392438898000
  0.9444225614196184  0.0555596321941932  0.1248896361645325
  0.2777766914257437  0.7222063455738047  0.6250940058428016
  0.1110774585693786  0.2222101368409924  0.6251332725269209
  0.4444441233897531  0.2222313356407106  0.6252650523198419
  0.6111173141420292  0.7222248813196711  0.6251727226607882
  0.9444319823824111  0.7222226082489872  0.6250874952124681
  0.7777739891920824  0.2222066719479078  0.6250822247856712
  0.1111016120699138  0.7222123074806972  0.1248962806727890
  0.4444498377366967  0.7222121344440903  0.1248521069865156
  0.2777694037261800  0.2222370277985893  0.1248720542092239
  0.7777830918111663  0.7222451427350849  0.1248244585463462
  0.6111280686411364  0.2222193109155281  0.1248596905415636
  0.9444168026888210  0.2222022075270356  0.1248779992368426
  0.1110857026536728  0.3888594172346816  0.6251428571244815
  0.2777765735835928  0.8888965115868265  0.6251138990416850
  0.6111045444642691  0.8888893133850047  0.6250548957892302
  0.4444513210882537  0.3888565063247422  0.6259921496970704
  0.9444363820364663  0.8889089409033337  0.6250934357964335
  0.1111000692535698  0.8889010223729789  0.1248906632502584
  0.7777937355686478  0.3888706778175161  0.6251683044224735
  0.4444443736542916  0.8888911094753379  0.1248941246749545
  0.2777342424704617  0.3888541978643419  0.1243826974419883
  0.2777691111437382  0.5555252373467963  0.1248551770736772
  0.6111601299756636  0.3888338565604733  0.1238130456533651
  0.7777724409989248  0.8889029703378910  0.1249280464657037
  0.9444370130582571  0.3888675967629787  0.1249251080543636
  0.1111000251676809  0.5555300169521894  0.6250899028306297
  0.2777726093434292  0.0555783743330242  0.6250778959871718
  0.7777694877019793  0.5555493079955269  0.6252311296128542
  0.6111035540235795  0.0555563327208085  0.6250553007458309
  0.9444225614196184  0.0555596321941932  0.6251103638354676
  0.0524388209143495  0.1088019938534507  0.3750000000000000
  0.5593488717855987  0.6031202086025563  0.3750000000000000
  0.3894993571734550  0.1136282833988920  0.3750000000000000
  0.8940684589320633  0.6137265524741197  0.3750000000000000
  0.7209647797463460  0.1121489612001574  0.3750000000000000
  0.0555617004622680  0.7777797997133746  0.8750000000000000
  0.3888861215441983  0.7777833442008867  0.8750000000000000
  0.2222259937914329  0.2777772242846829  0.8750000000000000
  0.7222226319124841  0.7777747739614034  0.8750000000000000
  0.5555470251968899  0.2777671674893438  0.8750000000000000
  0.8888927426866001  0.2777829114963172  0.8750000000000000
  0.2246967882540043  0.7785744631042436  0.3750000000000000
  0.0526044357286730  0.2765988682299771  0.3750000000000000
  0.3839904264722329  0.2756170708468282  0.3750000000000000
  0.5567507275408429  0.7746247759009744  0.3750000000000000
  0.8905394457527139  0.7778486592957595  0.3750000000000000
  0.7209991450089631  0.2806887973260515  0.3750000000000000
  0.0555575221672865  0.9444422285260227  0.8750000000000000
  0.3888868544846313  0.9444402957949044  0.8750000000000000
  0.2222247247989072  0.4444520604551375  0.8750000000000000
  0.5555554269754303  0.4444467638159544  0.8750000000000000
  0.7222211452220426  0.9444416766884175  0.8750000000000000
  0.8888978513765209  0.4444513245918887  0.8750000000000000
  0.0549794875020405  0.4445311583462185  0.3750000000000000
  0.2237401211850784  0.9453853411360923  0.3750000000000000
  0.5560770868162055  0.9451749508829608  0.3750000000000000
  0.8876705726592650  0.9431209410637329  0.3750000000000000
  0.7242233268280865  0.4490890491589870  0.3750000000000000
  0.2222196043793397  0.6111179698178691  0.8750000000000000
  0.0555580837617766  0.1111071658388441  0.8750000000000000
  0.5555509816851858  0.6111133306663640  0.8750000000000000
  0.3888833242949414  0.1110971960675858  0.8750000000000000
  0.8889026983433203  0.6111165441449563  0.8750000000000000
  0.0585080837766538  0.6121254192528278  0.3750000000000000
  0.7222190792216582  0.1111086563497410  0.8750000000000000
  0.2200522424377972  0.1093415135545244  0.3750000000000000
  0.3911574036133085  0.6098777942623498  0.3750000000000000
  0.7263207594656829  0.6110662923341017  0.3750000000000000
  0.5556890964844287  0.1160585040850213  0.3750000000000000
  0.3888837765859113  0.6111180516388710  0.8750000000000000
  0.8866806396212173  0.1103559922776043  0.3750000000000000
  0.2222217944284711  0.7777800687171963  0.8750000000000000
  0.0555597964511199  0.2777803932567567  0.8750000000000000
  0.3888865972449622  0.2777725153850494  0.8750000000000000
  0.5555518840488674  0.7777775017439507  0.8750000000000000
  0.8888970600778009  0.7777803986512759  0.8750000000000000
  0.7222215970509548  0.2777788510734506  0.8750000000000000
  0.0585323655656940  0.7791468385367516  0.3750000000000000
  0.3907794808993387  0.7778474522962276  0.3750000000000000
  0.2165333461733764  0.2736487159297693  0.3750000000000000
  0.7228966256171085  0.7760987902131330  0.3750000000000000
  0.5553612640348277  0.2897403488264021  0.3750000000000000
  0.8869854508497497  0.2782112464793723  0.3750000000000000
  0.0555599825247017  0.4444524447497246  0.8750000000000000
  0.2222210258941081  0.9444388823150173  0.8750000000000000
  0.5555512653638021  0.9444428493079412  0.8750000000000000
  0.3888916992769671  0.4444511960607113  0.8750000000000000
  0.8888933537106475  0.9444426842837120  0.8750000000000000
  0.0553413953783182  0.9437240396102539  0.3750000000000000
  0.7222314763560664  0.4444510252363835  0.8750000000000000
  0.3904208662842246  0.9460504338399457  0.3750000000000000
  0.2200448908553165  0.4428403858652225  0.3750000000000000
  0.2242840708079220  0.6108867627959311  0.3750000000000000
  0.7214428883335692  0.9436116751400253  0.3750000000000000
  0.8893784072507027  0.4459863419241039  0.3750000000000000
  0.0555608339047760  0.6111153462971851  0.8750000000000000
  0.2222201840347847  0.1111039020791197  0.8750000000000000
  0.7222317301325564  0.6111138679152598  0.8750000000000000
  0.5555499497312931  0.1111028165082703  0.8750000000000000
  0.8888919576300156  0.1111090717592034  0.8750000000000000
  0.1092180057456049  0.0542189710198469  0.3750000000000000
  0.6143731063982455  0.5401472937571143  0.3750000000000000
  0.4449638470462337  0.0580049658204757  0.3750000000000000
  0.9474508125673470  0.5569668505124522  0.3750000000000000
  0.7757032811606307  0.0551276216612767  0.3750000000000000
  0.1111049506872437  0.7222130918685278  0.8750000000000000
  0.4444397691279242  0.7221834146417255  0.8750000000000000
  0.2778353997110402  0.2222721120043983  0.8750000000000000
  0.7777338901138960  0.7221590024535356  0.8750000000000000
  0.6110910520319116  0.2222603929443546  0.8750000000000000
  0.9444606587473794  0.2222404377121426  0.8750000000000000
  0.2798265590183791  0.7221494164272826  0.3750000000000000
  0.1066711977230556  0.2195511983637518  0.3750000000000000
  0.4452617375734184  0.2259118412452185  0.3750000000000000
  0.6118278004192264  0.7155979070453096  0.3750000000000000
  0.9475969825322108  0.7238462885281008  0.3750000000000000
  0.7756111679188906  0.2237935923953800  0.3750000000000000
  0.1111100220252060  0.8888810868389031  0.8750000000000000
  0.4444382484517016  0.8888750506926921  0.8750000000000000
  0.2778538866981536  0.3889312608534274  0.8750000000000000
  0.6110864610620051  0.3889246783500986  0.8750000000000000
  0.7777512806118320  0.8888373776070357  0.8750000000000000
  0.9444471804394535  0.3889133256775962  0.8750000000000000
  0.1095947532354565  0.3882244299582921  0.3750000000000000
  0.2795134587313495  0.8898454072454876  0.3750000000000000
  0.6105257546254714  0.8868392972912938  0.3750000000000000
  0.9442327745910625  0.8881900555610169  0.3750000000000000
  0.7772454518051262  0.3920850320399582  0.3750000000000000
  0.2778116460879305  0.5555567220810769  0.8750000000000000
  0.1111332820983112  0.0555651142113246  0.8750000000000000
  0.6110808599440786  0.5555166077793918  0.8750000000000000
  0.4444460781393645  0.0555738023361222  0.8750000000000000
  0.9444245338630832  0.5555567753811296  0.8750000000000000
  0.1131069558651414  0.5558040939001693  0.3750000000000000
  0.7777644884472238  0.0555419000772039  0.8750000000000000
  0.2783395849989012  0.0565477023959870  0.3750000000000000
  0.4485727131713609  0.5537636017391724  0.3750000000000000
  0.7835852117255812  0.5587633566063511  0.3750000000000000
  0.6101018182096855  0.0578099784581165  0.3750000000000000
  0.4444614959098597  0.5555334625052231  0.8750000000000000
  0.9417623955459763  0.0539200945756548  0.3750000000000000
  0.2777852806447943  0.7222113810325873  0.8750000000000000
  0.1111620185766461  0.2222535974630521  0.8750000000000000
  0.4444654619812129  0.2222718707968016  0.8750000000000000
  0.6110787907690953  0.7221513686857953  0.8750000000000000
  0.9444162132982536  0.7221950916353908  0.8750000000000000
  0.7777624432584079  0.2222452166197740  0.8750000000000000
  0.1137210857530750  0.7231484816231294  0.3750000000000000
  0.4456717314864652  0.7205138136732339  0.3750000000000000
  0.2726833298171610  0.2196611721731410  0.3750000000000000
  0.7788661455150749  0.7208003016661899  0.3750000000000000
  0.6096637194085611  0.2302325880309797  0.3750000000000000
  0.9417932117762323  0.2217779367606563  0.3750000000000000
  0.1111559702813993  0.3889179347030981  0.8750000000000000
  0.2777821402706328  0.8888883098876107  0.8750000000000000
  0.6110886250036881  0.8888476906697710  0.8750000000000000
  0.4444890753587892  0.3889372259000187  0.8750000000000000
  0.9444292880455780  0.8888581108315496  0.8750000000000000
  0.1126967702871294  0.8897454240821759  0.3750000000000000
  0.7777458565961440  0.3889176946546140  0.8750000000000000
  0.4452975060320600  0.8892937020539072  0.3750000000000000
  0.2731572224853675  0.3846393036255996  0.3750000000000000
  0.2796736542488953  0.5542670131817115  0.3750000000000000
  0.6114032833320397  0.4101753402966672  0.3750000000000000
  0.7765425486719642  0.8869930198433666  0.3750000000000000
  0.9436991354758234  0.3896295084713273  0.3750000000000000
  0.1111234782745512  0.5555634338115051  0.8750000000000000
  0.2777992172668045  0.0555784965826287  0.8750000000000000
  0.7777331483296055  0.5555381053601848  0.8750000000000000
  0.6110945386943641  0.0555566281198076  0.8750000000000000
  0.9444514622995130  0.0555468407096001  0.8750000000000000
  0.0555652306178760  0.1111638885877027  0.1250414468368459
  0.5555368120041698  0.6109135890828769  0.1250538301951918
  0.3889857158671070  0.1113004083903103  0.1250939410579164
  0.8886895966602546  0.6110015343891605  0.1251872954646314
  0.7222062548964925  0.1111349500186019  0.1250900349390823
  0.0554732571544664  0.7777297874971959  0.6249375090242533
  0.3889378005703002  0.7777086286719402  0.6248966537395600
  0.2223390642364938  0.2779257033894176  0.6249958840888685
  0.7221305857648547  0.7776461153960094  0.6248368134355776
  0.5556507749849430  0.2780159790028409  0.6249802098308862
  0.8888596527592272  0.2777822887078301  0.6249192786941797
  0.2222287649257232  0.7777448120010837  0.1250506281148777
  0.0555791938521105  0.2778002693271474  0.1250461540882565
  0.3890817970513301  0.2780726215114969  0.1249027825036095
  0.5555592233290291  0.7776545969653921  0.1251816830738089
  0.8887498379785845  0.7776876318863024  0.1251383027648675
  0.7221894307927756  0.2778422351901976  0.1251451205908122
  0.0555218961844310  0.9444600709414543  0.6249501159029524
  0.3889353090079008  0.9444973952453635  0.6249368063093983
  0.2223349985108792  0.4443961729498103  0.6249357856487625
  0.5555805867033263  0.4444675076990094  0.6241565351633813
  0.7221869005870050  0.9443943217854197  0.6248936246053854
  0.8887854499640148  0.4444034231124737  0.6248368008440734
  0.0555545729380958  0.4444027208802396  0.1251041890168657
  0.2222412351663118  0.9445026634137675  0.1250450136543402
  0.5555686403710317  0.9444354674534681  0.1251150037409674
  0.3890384667728746  0.4444154855834860  0.1255060350389266
  0.8888316196799333  0.9444106517249209  0.1250701692033077
  0.7220368166111190  0.4443979230582569  0.1251261242643597
  0.2222703262090618  0.6110226664881113  0.6248676448176774
  0.0555652306178760  0.1111638885877027  0.6249585531631546
  0.5555368120041698  0.6109135890828769  0.6249461698048075
  0.3889857158671070  0.1113004083903103  0.6249060589420838
  0.8886895966602546  0.6110015343891605  0.6248127045353682
  0.0554890775370116  0.6110394935451956  0.1250921092865956
  0.7222062548964925  0.1111349500186019  0.6249099650609182
  0.2222954666393224  0.1112575123759057  0.1250725084348464
  0.3889893895454331  0.6109612180981349  0.1251387727868145
  0.7219912039836803  0.6109492045594432  0.1251342200407346
  0.5555982776479980  0.1112283075625524  0.1251451452366042
  0.3889893895454331  0.6109612180981349  0.6248612272131860
  0.8888652215220343  0.1111138616698766  0.1250333861568718
  0.2222287649257232  0.7777448120010837  0.6249493718851236
  0.0555791938521105  0.2778002693271474  0.6249538459117434
  0.3890817970513301  0.2780726215114969  0.6250972174963899
  0.5555592233290291  0.7776545969653921  0.6248183169261907
  0.8887498379785845  0.7776876318863024  0.6248616972351320
  0.7221894307927756  0.2778422351901976  0.6248548794091884
  0.0554732571544664  0.7777297874971959  0.1250624909757474
  0.3889378005703002  0.7777086286719402  0.1251033462604405
  0.2223390642364938  0.2779257033894176  0.1250041159111313
  0.7221305857648547  0.7776461153960094  0.1251631865644215
  0.5556507749849430  0.2780159790028409  0.1250197901691129
  0.8888596527592272  0.2777822887078301  0.1250807213058200
  0.0555545729380958  0.4444027208802396  0.6248958109831340
  0.2222412351663118  0.9445026634137675  0.6249549863456607
  0.5555686403710317  0.9444354674534681  0.6248849962590323
  0.3890384667728746  0.4444154855834860  0.6244939649610738
  0.8888316196799333  0.9444106517249209  0.6249298307966922
  0.0555218961844310  0.9444600709414543  0.1250498840970472
  0.7220368166111190  0.4443979230582569  0.6248738757356399
  0.3889353090079008  0.9444973952453635  0.1250631936906018
  0.2223349985108792  0.4443961729498103  0.1250642143512372
  0.2222703262090618  0.6110226664881113  0.1251323551823233
  0.5555805867033263  0.4444675076990094  0.1258434648366190
  0.7221869005870050  0.9443943217854197  0.1251063753946135
  0.8887854499640148  0.4444034231124737  0.1251631991559281
  0.0554890775370116  0.6110394935451956  0.6249078907134046
  0.2222954666393224  0.1112575123759057  0.6249274915651534
  0.7219912039836803  0.6109492045594432  0.6248657799592658
  0.5555982776479980  0.1112283075625524  0.6248548547633953
  0.8888652215220343  0.1111138616698766  0.6249666138431281
 
  0.00000000E+00  0.00000000E+00  0.00000000E+00
  0.00000000E+00  0.00000000E+00  0.00000000E+00
  0.00000000E+00  0.00000000E+00  0.00000000E+00
  0.00000000E+00  0.00000000E+00  0.00000000E+00
  0.00000000E+00  0.00000000E+00  0.00000000E+00
  0.00000000E+00  0.00000000E+00  0.00000000E+00
  0.00000000E+00  0.00000000E+00  0.00000000E+00
  0.00000000E+00  0.00000000E+00  0.00000000E+00
  0.00000000E+00  0.00000000E+00  0.00000000E+00
  0.00000000E+00  0.00000000E+00  0.00000000E+00
  0.00000000E+00  0.00000000E+00  0.00000000E+00
  0.00000000E+00  0.00000000E+00  0.00000000E+00
  0.00000000E+00  0.00000000E+00  0.00000000E+00
  0.00000000E+00  0.00000000E+00  0.00000000E+00
  0.00000000E+00  0.00000000E+00  0.00000000E+00
  0.00000000E+00  0.00000000E+00  0.00000000E+00
  0.00000000E+00  0.00000000E+00  0.00000000E+00
  0.00000000E+00  0.00000000E+00  0.00000000E+00
  0.00000000E+00  0.00000000E+00  0.00000000E+00
  0.00000000E+00  0.00000000E+00  0.00000000E+00
  0.00000000E+00  0.00000000E+00  0.00000000E+00
  0.00000000E+00  0.00000000E+00  0.00000000E+00
  0.00000000E+00  0.00000000E+00  0.00000000E+00
  0.00000000E+00  0.00000000E+00  0.00000000E+00
  0.00000000E+00  0.00000000E+00  0.00000000E+00
  0.00000000E+00  0.00000000E+00  0.00000000E+00
  0.00000000E+00  0.00000000E+00  0.00000000E+00
  0.00000000E+00  0.00000000E+00  0.00000000E+00
  0.00000000E+00  0.00000000E+00  0.00000000E+00
  0.00000000E+00  0.00000000E+00  0.00000000E+00
  0.00000000E+00  0.00000000E+00  0.00000000E+00
  0.00000000E+00  0.00000000E+00  0.00000000E+00
  0.00000000E+00  0.00000000E+00  0.00000000E+00
  0.00000000E+00  0.00000000E+00  0.00000000E+00
  0.00000000E+00  0.00000000E+00  0.00000000E+00
  0.00000000E+00  0.00000000E+00  0.00000000E+00
  0.00000000E+00  0.00000000E+00  0.00000000E+00
  0.00000000E+00  0.00000000E+00  0.00000000E+00
  0.00000000E+00  0.00000000E+00  0.00000000E+00
  0.00000000E+00  0.00000000E+00  0.00000000E+00
  0.00000000E+00  0.00000000E+00  0.00000000E+00
  0.00000000E+00  0.00000000E+00  0.00000000E+00
  0.00000000E+00  0.00000000E+00  0.00000000E+00
  0.00000000E+00  0.00000000E+00  0.00000000E+00
  0.00000000E+00  0.00000000E+00  0.00000000E+00
  0.00000000E+00  0.00000000E+00  0.00000000E+00
  0.00000000E+00  0.00000000E+00  0.00000000E+00
  0.00000000E+00  0.00000000E+00  0.00000000E+00
  0.00000000E+00  0.00000000E+00  0.00000000E+00
  0.00000000E+00  0.00000000E+00  0.00000000E+00
  0.00000000E+00  0.00000000E+00  0.00000000E+00
  0.00000000E+00  0.00000000E+00  0.00000000E+00
  0.00000000E+00  0.00000000E+00  0.00000000E+00
  0.00000000E+00  0.00000000E+00  0.00000000E+00
  0.00000000E+00  0.00000000E+00  0.00000000E+00
  0.00000000E+00  0.00000000E+00  0.00000000E+00
  0.00000000E+00  0.00000000E+00  0.00000000E+00
  0.00000000E+00  0.00000000E+00  0.00000000E+00
  0.00000000E+00  0.00000000E+00  0.00000000E+00
  0.00000000E+00  0.00000000E+00  0.00000000E+00
  0.00000000E+00  0.00000000E+00  0.00000000E+00
  0.00000000E+00  0.00000000E+00  0.00000000E+00
  0.00000000E+00  0.00000000E+00  0.00000000E+00
  0.00000000E+00  0.00000000E+00  0.00000000E+00
  0.00000000E+00  0.00000000E+00  0.00000000E+00
  0.00000000E+00  0.00000000E+00  0.00000000E+00
  0.00000000E+00  0.00000000E+00  0.00000000E+00
  0.00000000E+00  0.00000000E+00  0.00000000E+00
  0.00000000E+00  0.00000000E+00  0.00000000E+00
  0.00000000E+00  0.00000000E+00  0.00000000E+00
  0.00000000E+00  0.00000000E+00  0.00000000E+00
  0.00000000E+00  0.00000000E+00  0.00000000E+00
  0.00000000E+00  0.00000000E+00  0.00000000E+00
  0.00000000E+00  0.00000000E+00  0.00000000E+00
  0.00000000E+00  0.00000000E+00  0.00000000E+00
  0.00000000E+00  0.00000000E+00  0.00000000E+00
  0.00000000E+00  0.00000000E+00  0.00000000E+00
  0.00000000E+00  0.00000000E+00  0.00000000E+00
  0.00000000E+00  0.00000000E+00  0.00000000E+00
  0.00000000E+00  0.00000000E+00  0.00000000E+00
  0.00000000E+00  0.00000000E+00  0.00000000E+00
  0.00000000E+00  0.00000000E+00  0.00000000E+00
  0.00000000E+00  0.00000000E+00  0.00000000E+00
  0.00000000E+00  0.00000000E+00  0.00000000E+00
  0.00000000E+00  0.00000000E+00  0.00000000E+00
  0.00000000E+00  0.00000000E+00  0.00000000E+00
  0.00000000E+00  0.00000000E+00  0.00000000E+00
  0.00000000E+00  0.00000000E+00  0.00000000E+00
  0.00000000E+00  0.00000000E+00  0.00000000E+00
  0.00000000E+00  0.00000000E+00  0.00000000E+00
  0.00000000E+00  0.00000000E+00  0.00000000E+00
  0.00000000E+00  0.00000000E+00  0.00000000E+00
  0.00000000E+00  0.00000000E+00  0.00000000E+00
  0.00000000E+00  0.00000000E+00  0.00000000E+00
  0.00000000E+00  0.00000000E+00  0.00000000E+00
  0.00000000E+00  0.00000000E+00  0.00000000E+00
  0.00000000E+00  0.00000000E+00  0.00000000E+00
  0.00000000E+00  0.00000000E+00  0.00000000E+00
  0.00000000E+00  0.00000000E+00  0.00000000E+00
  0.00000000E+00  0.00000000E+00  0.00000000E+00
  0.00000000E+00  0.00000000E+00  0.00000000E+00
  0.00000000E+00  0.00000000E+00  0.00000000E+00
  0.00000000E+00  0.00000000E+00  0.00000000E+00
  0.00000000E+00  0.00000000E+00  0.00000000E+00
  0.00000000E+00  0.00000000E+00  0.00000000E+00
  0.00000000E+00  0.00000000E+00  0.00000000E+00
  0.00000000E+00  0.00000000E+00  0.00000000E+00
  0.00000000E+00  0.00000000E+00  0.00000000E+00
  0.00000000E+00  0.00000000E+00  0.00000000E+00
  0.00000000E+00  0.00000000E+00  0.00000000E+00
  0.00000000E+00  0.00000000E+00  0.00000000E+00
  0.00000000E+00  0.00000000E+00  0.00000000E+00
  0.00000000E+00  0.00000000E+00  0.00000000E+00
  0.00000000E+00  0.00000000E+00  0.00000000E+00
  0.00000000E+00  0.00000000E+00  0.00000000E+00
  0.00000000E+00  0.00000000E+00  0.00000000E+00
  0.00000000E+00  0.00000000E+00  0.00000000E+00
  0.00000000E+00  0.00000000E+00  0.00000000E+00
  0.00000000E+00  0.00000000E+00  0.00000000E+00
  0.00000000E+00  0.00000000E+00  0.00000000E+00
  0.00000000E+00  0.00000000E+00  0.00000000E+00
  0.00000000E+00  0.00000000E+00  0.00000000E+00
  0.00000000E+00  0.00000000E+00  0.00000000E+00
  0.00000000E+00  0.00000000E+00  0.00000000E+00
  0.00000000E+00  0.00000000E+00  0.00000000E+00
  0.00000000E+00  0.00000000E+00  0.00000000E+00
  0.00000000E+00  0.00000000E+00  0.00000000E+00
  0.00000000E+00  0.00000000E+00  0.00000000E+00
  0.00000000E+00  0.00000000E+00  0.00000000E+00
  0.00000000E+00  0.00000000E+00  0.00000000E+00
  0.00000000E+00  0.00000000E+00  0.00000000E+00
  0.00000000E+00  0.00000000E+00  0.00000000E+00
  0.00000000E+00  0.00000000E+00  0.00000000E+00
  0.00000000E+00  0.00000000E+00  0.00000000E+00
  0.00000000E+00  0.00000000E+00  0.00000000E+00
  0.00000000E+00  0.00000000E+00  0.00000000E+00
  0.00000000E+00  0.00000000E+00  0.00000000E+00
  0.00000000E+00  0.00000000E+00  0.00000000E+00
  0.00000000E+00  0.00000000E+00  0.00000000E+00
  0.00000000E+00  0.00000000E+00  0.00000000E+00
  0.00000000E+00  0.00000000E+00  0.00000000E+00
  0.00000000E+00  0.00000000E+00  0.00000000E+00
  0.00000000E+00  0.00000000E+00  0.00000000E+00
  0.00000000E+00  0.00000000E+00  0.00000000E+00
  0.00000000E+00  0.00000000E+00  0.00000000E+00
  0.00000000E+00  0.00000000E+00  0.00000000E+00
  0.00000000E+00  0.00000000E+00  0.00000000E+00
  0.00000000E+00  0.00000000E+00  0.00000000E+00
  0.00000000E+00  0.00000000E+00  0.00000000E+00
  0.00000000E+00  0.00000000E+00  0.00000000E+00
  0.00000000E+00  0.00000000E+00  0.00000000E+00
  0.00000000E+00  0.00000000E+00  0.00000000E+00
  0.00000000E+00  0.00000000E+00  0.00000000E+00
  0.00000000E+00  0.00000000E+00  0.00000000E+00
  0.00000000E+00  0.00000000E+00  0.00000000E+00
  0.00000000E+00  0.00000000E+00  0.00000000E+00
  0.00000000E+00  0.00000000E+00  0.00000000E+00
  0.00000000E+00  0.00000000E+00  0.00000000E+00
  0.00000000E+00  0.00000000E+00  0.00000000E+00
  0.00000000E+00  0.00000000E+00  0.00000000E+00
  0.00000000E+00  0.00000000E+00  0.00000000E+00
  0.00000000E+00  0.00000000E+00  0.00000000E+00
  0.00000000E+00  0.00000000E+00  0.00000000E+00
  0.00000000E+00  0.00000000E+00  0.00000000E+00
  0.00000000E+00  0.00000000E+00  0.00000000E+00
  0.00000000E+00  0.00000000E+00  0.00000000E+00
  0.00000000E+00  0.00000000E+00  0.00000000E+00
  0.00000000E+00  0.00000000E+00  0.00000000E+00
  0.00000000E+00  0.00000000E+00  0.00000000E+00
  0.00000000E+00  0.00000000E+00  0.00000000E+00
  0.00000000E+00  0.00000000E+00  0.00000000E+00
  0.00000000E+00  0.00000000E+00  0.00000000E+00
  0.00000000E+00  0.00000000E+00  0.00000000E+00
  0.00000000E+00  0.00000000E+00  0.00000000E+00
  0.00000000E+00  0.00000000E+00  0.00000000E+00
  0.00000000E+00  0.00000000E+00  0.00000000E+00
  0.00000000E+00  0.00000000E+00  0.00000000E+00
  0.00000000E+00  0.00000000E+00  0.00000000E+00
  0.00000000E+00  0.00000000E+00  0.00000000E+00
  0.00000000E+00  0.00000000E+00  0.00000000E+00
  0.00000000E+00  0.00000000E+00  0.00000000E+00
  0.00000000E+00  0.00000000E+00  0.00000000E+00
  0.00000000E+00  0.00000000E+00  0.00000000E+00
  0.00000000E+00  0.00000000E+00  0.00000000E+00
  0.00000000E+00  0.00000000E+00  0.00000000E+00
  0.00000000E+00  0.00000000E+00  0.00000000E+00
  0.00000000E+00  0.00000000E+00  0.00000000E+00
  0.00000000E+00  0.00000000E+00  0.00000000E+00
  0.00000000E+00  0.00000000E+00  0.00000000E+00
  0.00000000E+00  0.00000000E+00  0.00000000E+00
  0.00000000E+00  0.00000000E+00  0.00000000E+00
  0.00000000E+00  0.00000000E+00  0.00000000E+00
  0.00000000E+00  0.00000000E+00  0.00000000E+00
  0.00000000E+00  0.00000000E+00  0.00000000E+00
  0.00000000E+00  0.00000000E+00  0.00000000E+00
  0.00000000E+00  0.00000000E+00  0.00000000E+00
  0.00000000E+00  0.00000000E+00  0.00000000E+00
  0.00000000E+00  0.00000000E+00  0.00000000E+00
  0.00000000E+00  0.00000000E+00  0.00000000E+00
  0.00000000E+00  0.00000000E+00  0.00000000E+00
  0.00000000E+00  0.00000000E+00  0.00000000E+00
  0.00000000E+00  0.00000000E+00  0.00000000E+00
  0.00000000E+00  0.00000000E+00  0.00000000E+00
  0.00000000E+00  0.00000000E+00  0.00000000E+00
  0.00000000E+00  0.00000000E+00  0.00000000E+00
  0.00000000E+00  0.00000000E+00  0.00000000E+00
  0.00000000E+00  0.00000000E+00  0.00000000E+00
  0.00000000E+00  0.00000000E+00  0.00000000E+00
  0.00000000E+00  0.00000000E+00  0.00000000E+00
  0.00000000E+00  0.00000000E+00  0.00000000E+00
  0.00000000E+00  0.00000000E+00  0.00000000E+00
  0.00000000E+00  0.00000000E+00  0.00000000E+00
  0.00000000E+00  0.00000000E+00  0.00000000E+00
  0.00000000E+00  0.00000000E+00  0.00000000E+00
  0.00000000E+00  0.00000000E+00  0.00000000E+00
  0.00000000E+00  0.00000000E+00  0.00000000E+00
  0.00000000E+00  0.00000000E+00  0.00000000E+00
  0.00000000E+00  0.00000000E+00  0.00000000E+00
  0.00000000E+00  0.00000000E+00  0.00000000E+00
  0.00000000E+00  0.00000000E+00  0.00000000E+00
  0.00000000E+00  0.00000000E+00  0.00000000E+00
  0.00000000E+00  0.00000000E+00  0.00000000E+00
  0.00000000E+00  0.00000000E+00  0.00000000E+00
  0.00000000E+00  0.00000000E+00  0.00000000E+00
  0.00000000E+00  0.00000000E+00  0.00000000E+00
  0.00000000E+00  0.00000000E+00  0.00000000E+00
  0.00000000E+00  0.00000000E+00  0.00000000E+00
  0.00000000E+00  0.00000000E+00  0.00000000E+00
  0.00000000E+00  0.00000000E+00  0.00000000E+00
  0.00000000E+00  0.00000000E+00  0.00000000E+00
  0.00000000E+00  0.00000000E+00  0.00000000E+00
  0.00000000E+00  0.00000000E+00  0.00000000E+00
  0.00000000E+00  0.00000000E+00  0.00000000E+00
  0.00000000E+00  0.00000000E+00  0.00000000E+00
  0.00000000E+00  0.00000000E+00  0.00000000E+00
  0.00000000E+00  0.00000000E+00  0.00000000E+00
  0.00000000E+00  0.00000000E+00  0.00000000E+00
  0.00000000E+00  0.00000000E+00  0.00000000E+00
  0.00000000E+00  0.00000000E+00  0.00000000E+00
  0.00000000E+00  0.00000000E+00  0.00000000E+00
  0.00000000E+00  0.00000000E+00  0.00000000E+00
  0.00000000E+00  0.00000000E+00  0.00000000E+00
  0.00000000E+00  0.00000000E+00  0.00000000E+00
  0.00000000E+00  0.00000000E+00  0.00000000E+00
  0.00000000E+00  0.00000000E+00  0.00000000E+00
  0.00000000E+00  0.00000000E+00  0.00000000E+00
  0.00000000E+00  0.00000000E+00  0.00000000E+00
  0.00000000E+00  0.00000000E+00  0.00000000E+00