 In N B 
 1.0
 17.527899999999772   0.000000000000000   0.000000000000000
 -8.763949999999658  15.179606674993195   0.000000000000000
  0.000000000000001   0.000000000000002  15.000000000000000
 In N B 
   1  47  49
Cartesian
  4.312747021879488   7.491465956323863   0.284524171205475 
  8.782238477188795  13.730611954959597   1.800520273738980 
 16.279042836116489   0.709634296230088   1.806066857592150 
 15.019025558593414   2.870904368467964   1.799880632906400 
 13.765085383492140   5.037054157633909   1.784995822835460 
 12.521683630138208   7.204813316348657   1.781190563914095 
 11.287734353132912   9.375461117125326   1.798735705107120 
 10.040511331236710  11.552969195344598   1.799965776218325 
 -6.245002098012433  13.713162007733178   1.820184472621905 
  1.256965718480195   0.699615827251290   1.851130774706055 
 -0.008150852313510   2.861167349654729   1.866128128638555 
 -1.260401610575681   5.034074898337911   1.823490839782410 
 -2.503375177634033   7.201682543830997   1.777795886586420 
 -3.744042185381623   9.370833692911537   1.783942678977855 
 -4.990668164331424  11.541820798079236   1.802610477197235 
 -3.742592827444382  13.706720821236189   1.797496422974355 
  3.764800663195154   0.691850273180038   1.843566716919930 
  2.497640473234988   2.847779607925139   1.902281096582505 
  1.231444772811290   5.010009026627325   1.831469391797220 
 -0.001673859346530   7.199864945089358   1.666618533894495 
 -1.246588033021798   9.368602494476079   1.685432609276220 
 -2.491571898345883  11.538451130597103   1.748423793120480 
 -1.240648087355127  13.706561086112618   1.755170254458900 
  6.271194748784678   0.691571064019079   1.796482392721680 
  5.014371770386099   2.847944135004142   1.766313229656945 
  3.734008587956663   4.973910692648605   1.619805987669360 
  2.452504234659475   7.118690726183070   1.344327055527405 
  1.228348755465744   9.369157518351171   1.288175319256605 
  0.006101028997136  11.539834344922202   1.605547557412275 
  1.257602190287335  13.716376418097100   1.704254011846515 
  8.770677833477102   0.699924955407169   1.772637670325685 
  7.518180811936177   2.862545657730049   1.746367717221300 
  6.254822259473517   4.997475864592384   1.406765932851090 
  2.495521718992904  11.566651292530372   1.394123637672000 
  3.764960310140833  13.718373021013692   1.656811771074345 
 11.269606402280473   0.705634542461639   1.742017178934735 
 10.012776193851479   2.875571570956728   1.743291888676500 
  8.743221935814876   5.049362962631416   1.671415035044205 
  7.501479265000272   7.233806793992368   1.585778739705045 
  6.374179775137379   9.464952162585867   1.332587323861725 
  5.053941110642821  11.602165870317249   1.458731722938555 
  6.275126072322367  13.739888860822248   1.745833692477120 
 13.771849803851177   0.708230161003388   1.752312404841435 
 12.515786674423548   2.873347284491172   1.757071667182455 
 11.258119174264998   5.041430363597755   1.751198237688690 
 10.016987762443321   7.210903630758176   1.739047041994215 
  8.800433040364808   9.388853856496020   1.745737574229195 
  7.553114386835257  11.587679904647990   1.694009406609690 
  7.523737071970956  14.448959824385202   1.787219762620305 
 15.023698582769878   1.427602246217026   1.786133431041540 
 13.768721222210937   3.593517827919487   1.779027344407380 
 12.515015066481958   5.760530730167394   1.771804334714445 
 11.272888277619009   7.929716723491444   1.774952556492360 
 10.044160544422432  10.106170059399091   1.790635102594560 
  8.792567964152674  12.290383926671934   1.772809580377560 
 -7.497259763532242  14.440852205103203   1.824384793520865 
  0.002436225663083   1.424288770062290   1.843586858001675 
 -1.254740011587094   3.592879814002117   1.832753771333445 
 -2.505452395629093   5.758364959569371   1.795045325448765 
 -3.748464052925407   7.925140928824268   1.782486154488045 
 -4.988913015789553  10.095608369946458   1.797173523270660 
 -6.239395554140796  12.269148711914264   1.809260900147685 
 -4.993724708567470  14.430801664382836   1.821753339161115 
  2.508817430553033   1.414982345933584   1.871417797696335 
  1.244470728271509   3.581439165832638   1.879233558135240 
 -0.000538837582927   5.759950386160461   1.780470322514775 
 -1.240585645492482   7.921087423241402   1.710942832379925 
 -2.486870847235148  10.090537132578143   1.744561128613305 
 -3.737879616524524  12.261146501053146   1.784849405890740 
 -2.486746327552325  14.426908768185154   1.786418853275820 
  5.017809721070755   1.412608461480139   1.809425271380250 
  3.748081415820968   3.562006053750639   1.804608036612135 
  2.469332376683908   5.739637683895333   1.608929043378180 
  1.274517267891510   7.900661816466531   1.410250195284810 
  0.012685774805604  10.082709942236971   1.538696181775500 
 -1.233810190689131  12.256759720498954   1.708235895809850 
  0.010391996709462  14.431211078432510   1.749174840979245 
  7.519854909576400   1.418402876382644   1.779179742819480 
  6.264330547869244   3.574464956081689   1.661114195067990 
  4.944333996432610   5.508253054582143   1.043940889215240 
  3.818481898934692   9.712000814574028   0.234763727925450 
  2.420283885019098  10.147522941226747   0.958838045456760 
  1.262318845262767  12.267249292901560   1.584299285230215 
  2.509284695409525  14.434604662787905   1.701310742837700 
 10.018118354348479   1.426680144594312   1.754558292832260 
  8.758610669121532   3.600077291150958   1.715207338136670 
  7.478535138536792   5.770942957742767   1.539916129323735 
  6.311562062307693   8.044037760945436   1.395182961908505 
  5.170585908745990  10.223916531102008   0.990858153114885 
  3.764301710635154  12.269852662381345   1.486140381570015 
  5.010927304877823  14.440416631457744   1.717906822725180 
 12.519349247403884   1.427096374721307   1.748006423905215 
 11.263868448474447   3.596187761456980   1.747928638788405 
 10.002262040158898   5.765488964445562   1.722701655219630 
  8.767202739668127   7.940957457913078   1.698218050215210 
  7.582128245692196  10.151232100033900   1.612329420286800 
  6.284392738304843  12.300697576346854   1.653255188726790 
