B In N                                  
   1.0000000000000000     
     8.7639499999999995  -15.1796066749929999    0.0000000000000000
     8.7639499999999995   15.1796066749929999    0.0000000000000000
     0.0000000000000000    0.0000000000000000   15.0000000000000000
   B    In   N 
    49     1    47
Selective dynamics
Direct
  0.9051767705252629  0.9518665492293907  0.1191479841746866   T   T   T
  0.9041542411765913  0.0940473805931249  0.1190755620694362   T   T   T
  0.9038983396469692  0.2367332635725954  0.1186018229604924   T   T   T
  0.9037511073328410  0.3794914356810875  0.1181202889809635   T   T   T
  0.9043360791951305  0.5223927663787769  0.1183301704328241   T   T   T
  0.9059248711307476  0.6657728540521373  0.1193756735063042   T   T   T
  0.9064648036935700  0.8096641889225659  0.1181873053585039   T   T   T
  0.0479333031573326  0.9513324366232085  0.1216256529013911   T   T   T
  0.0470535392409984  0.0938290958756297  0.1229057905334454   T   T   T
  0.0467603144810812  0.2366912325812106  0.1221835847555630   T   T   T
  0.0467335598600106  0.3793487593493227  0.1196696883632511   T   T   T
  0.0471886646829832  0.5220913228193257  0.1188324102992030   T   T   T
  0.0479115692257418  0.6650770725553722  0.1198115682180444   T   T   T
  0.0481632572875368  0.8082652584224331  0.1206173933431793   T   T   T
  0.1904336809877857  0.9506703285109531  0.1214502226107413   T   T   T
  0.1897408057369321  0.0932160085718568  0.1247611865130890   T   T   T
  0.1889681932662342  0.2359375471653484  0.1252822372090157   T   T   T
  0.1896958602220248  0.3794532038599774  0.1186980215009850   T   T   T
  0.1901343749445391  0.5218242865469340  0.1140628554919950   T   T   T
  0.1904907879738356  0.6647429902911276  0.1163040752408870   T   T   T
  0.1906159104303284  0.8077380898974206  0.1189899603927160   T   T   T
  0.3331858118539677  0.9504138728411168  0.1190945902183881   T   T   T
  0.3328053900676012  0.0930596221447067  0.1206283514253505   T   T   T
  0.3311638342191011  0.2346573353325857  0.1203072024408089   T   T   T
  0.3299376273559164  0.3781150465084697  0.1072619362252120   T   T   T
  0.3329529775046968  0.5204786912879659  0.0940166796856540   T   T   T
  0.3328374234287568  0.6642273517433872  0.1025797454517003   T   T   T
  0.3333060007953511  0.8074490981832012  0.1138823930539901   T   T   T
  0.4759415330743897  0.9506972998323077  0.1166116560652830   T   T   T
  0.4757426840679906  0.0934413457971418  0.1186119828546324   T   T   T
  0.4751310112718544  0.2354781011533217  0.1107409463378657   T   T   T
  0.4635196104644699  0.3628719223441022  0.0695960592810160   T   T   T
  0.5377545617899924  0.6398058278132814  0.0156509151950301   T   T   T
  0.4723303411557675  0.6684970934025396  0.0639225363637837   T   T   T
  0.4760877530528807  0.8081401287630571  0.1056199523486805   T   T   T
  0.6186198907522181  0.9509208619066127  0.1134207161891798   T   T   T
  0.6185460049337118  0.0939866345117244  0.1169705528554843   T   T   T
  0.6182780745138358  0.2371653869715681  0.1143471558757782   T   T   T
  0.6167533251939810  0.3801773709492608  0.1026610752882489   T   T   T
  0.6250486041659888  0.5299239916536932  0.0930121974605671   T   T   T
  0.6317566205963030  0.6735297396041776  0.0660572102076589   T   T   T
  0.6189163817786478  0.8083116331725932  0.0990760254380010   T   T   T
  0.7615347950558928  0.9513037419636714  0.1145271215150118   T   T   T
  0.7612596901801648  0.0940140548616654  0.1165337615936810   T   T   T
  0.7610796741542438  0.2369091530797915  0.1165285759192268   T   T   T
  0.7605570915963357  0.3798180735436050  0.1148467770146418   T   T   T
  0.7617522159310370  0.5231332819047924  0.1132145366810137   T   T   T
  0.7669455457443906  0.6687414448463267  0.1074886280191203   T   T   T
  0.7637083618247936  0.8103436300896355  0.1102170125817860   T   T   T
  0.4928112842033526  0.4935217437922990  0.0189682780803653   T   T   T
  0.9533150568820541  0.9045433290165106  0.1200346849159321   T   T   T
  0.9521249201599353  0.0467491886597521  0.1204044571728105   T   T   T
  0.9514284636805450  0.1891290354181225  0.1199920421937596   T   T   T
  0.9512394500952722  0.3318303474840307  0.1189997215223644   T   T   T
  0.9517046844056148  0.4746376813714042  0.1187460375942732   T   T   T
  0.9528043492307763  0.6176353128154770  0.1199157136738080   T   T   T
  0.9533726918859854  0.7610848846549431  0.1199977184145553   T   T   T
  0.0954076460153825  0.9033937638400192  0.1213456315081269   T   T   T
  0.0947568792994630  0.0460891933651903  0.1234087183137367   T   T   T
  0.0937787691170180  0.1884875814581016  0.1244085419092367   T   T   T
  0.0939087333394398  0.3316340802578915  0.1215660559854937   T   T   T
  0.0943934058081635  0.4744314327784931  0.1185197257724283   T   T   T
  0.0950605132247390  0.6173304680119941  0.1189295119318566   T   T   T
  0.0954481244403398  0.7603504521031614  0.1201740318131491   T   T   T
  0.2379626839725898  0.9029694322591751  0.1198330948649571   T   T   T
  0.2375778390254744  0.0455776152829960  0.1229044477946620   T   T   T
  0.2362979476413769  0.1876056256857142  0.1268187397721669   T   T   T
  0.2352806002417281  0.3300486721359381  0.1220979594531476   T   T   T
  0.2370603497754817  0.4743116932634609  0.1111079022596332   T   T   T
  0.2374715247744698  0.6171834814343292  0.1123621739517485   T   T   T
  0.2379153217405125  0.7601284656212794  0.1165615862080317   T   T   T
  0.3806981238697084  0.9029589092511034  0.1170113502972599   T   T   T
  0.3805631871907028  0.0455592215810418  0.1197654928481116   T   T   T
  0.3798876695649670  0.1876164643775543  0.1177542153104633   T   T   T
  0.3768675805591360  0.3276705911519174  0.1079870658446240   T   T   T
  0.3744020813502423  0.4689641094528732  0.0896218037018269   T   T   T
  0.3786896531110802  0.6172200452193449  0.0858783546171068   T   T   T
  0.3804578697072393  0.7602195888206290  0.1070365038274850   T   T   T
  0.5235513557004419  0.9036055223152376  0.1136169341231013   T   T   T
  0.5234386147167698  0.0461095580664959  0.1181758446883792   T   T   T
  0.5232156914401768  0.1885783814442171  0.1164245144814197   T   T   T
  0.5214610018978094  0.3292230142448423  0.0937843955234055   T   T   T
  0.5233673718105274  0.7619862319347982  0.0929415758448001   T   T   T
  0.6664701044515500  0.9037370542422066  0.1104541180716229   T   T   T
  0.6661953055026753  0.0464856934418533  0.1161344785956494   T   T   T
  0.6659661576353966  0.1894365007292268  0.1162194592451003   T   T   T
  0.6651380371594033  0.3326412252136750  0.1114276690029475   T   T   T
  0.6662475005435629  0.4765477096260540  0.1057185826470035   T   T   T
  0.6754244635166351  0.6235307913595930  0.0888391549241152   T   T   T
  0.6704998715792023  0.7643258563102685  0.0972487815292373   T   T   T
  0.8105851017380035  0.9051544717200923  0.1163889128318077   T   T   T
  0.8090385430060004  0.0466566872361799  0.1168208269894291   T   T   T
  0.8086943959401828  0.1892899694973456  0.1171381111454971   T   T   T
  0.8083564118798602  0.3321186425668705  0.1167465491792460   T   T   T
  0.8090076343864383  0.4750388982500699  0.1159364694662810   T   T   T
  0.8113402256856120  0.6185175978217651  0.1163825049486131   T   T   T
  0.8126053034914017  0.7633715518951802  0.1129339604406462   T   T   T

  0.00000000E+00  0.00000000E+00  0.00000000E+00
  0.00000000E+00  0.00000000E+00  0.00000000E+00
  0.00000000E+00  0.00000000E+00  0.00000000E+00
  0.00000000E+00  0.00000000E+00  0.00000000E+00
  0.00000000E+00  0.00000000E+00  0.00000000E+00
  0.00000000E+00  0.00000000E+00  0.00000000E+00
  0.00000000E+00  0.00000000E+00  0.00000000E+00
  0.00000000E+00  0.00000000E+00  0.00000000E+00
  0.00000000E+00  0.00000000E+00  0.00000000E+00
  0.00000000E+00  0.00000000E+00  0.00000000E+00
  0.00000000E+00  0.00000000E+00  0.00000000E+00
  0.00000000E+00  0.00000000E+00  0.00000000E+00
  0.00000000E+00  0.00000000E+00  0.00000000E+00
  0.00000000E+00  0.00000000E+00  0.00000000E+00
  0.00000000E+00  0.00000000E+00  0.00000000E+00
  0.00000000E+00  0.00000000E+00  0.00000000E+00
  0.00000000E+00  0.00000000E+00  0.00000000E+00
  0.00000000E+00  0.00000000E+00  0.00000000E+00
  0.00000000E+00  0.00000000E+00  0.00000000E+00
  0.00000000E+00  0.00000000E+00  0.00000000E+00
  0.00000000E+00  0.00000000E+00  0.00000000E+00
  0.00000000E+00  0.00000000E+00  0.00000000E+00
  0.00000000E+00  0.00000000E+00  0.00000000E+00
  0.00000000E+00  0.00000000E+00  0.00000000E+00
  0.00000000E+00  0.00000000E+00  0.00000000E+00
  0.00000000E+00  0.00000000E+00  0.00000000E+00
  0.00000000E+00  0.00000000E+00  0.00000000E+00
  0.00000000E+00  0.00000000E+00  0.00000000E+00
  0.00000000E+00  0.00000000E+00  0.00000000E+00
  0.00000000E+00  0.00000000E+00  0.00000000E+00
  0.00000000E+00  0.00000000E+00  0.00000000E+00
  0.00000000E+00  0.00000000E+00  0.00000000E+00
  0.00000000E+00  0.00000000E+00  0.00000000E+00
  0.00000000E+00  0.00000000E+00  0.00000000E+00
  0.00000000E+00  0.00000000E+00  0.00000000E+00
  0.00000000E+00  0.00000000E+00  0.00000000E+00
  0.00000000E+00  0.00000000E+00  0.00000000E+00
  0.00000000E+00  0.00000000E+00  0.00000000E+00
  0.00000000E+00  0.00000000E+00  0.00000000E+00
  0.00000000E+00  0.00000000E+00  0.00000000E+00
  0.00000000E+00  0.00000000E+00  0.00000000E+00
  0.00000000E+00  0.00000000E+00  0.00000000E+00
  0.00000000E+00  0.00000000E+00  0.00000000E+00
  0.00000000E+00  0.00000000E+00  0.00000000E+00
  0.00000000E+00  0.00000000E+00  0.00000000E+00
  0.00000000E+00  0.00000000E+00  0.00000000E+00
  0.00000000E+00  0.00000000E+00  0.00000000E+00
  0.00000000E+00  0.00000000E+00  0.00000000E+00
  0.00000000E+00  0.00000000E+00  0.00000000E+00
  0.00000000E+00  0.00000000E+00  0.00000000E+00
  0.00000000E+00  0.00000000E+00  0.00000000E+00
  0.00000000E+00  0.00000000E+00  0.00000000E+00
  0.00000000E+00  0.00000000E+00  0.00000000E+00
  0.00000000E+00  0.00000000E+00  0.00000000E+00
  0.00000000E+00  0.00000000E+00  0.00000000E+00
  0.00000000E+00  0.00000000E+00  0.00000000E+00
  0.00000000E+00  0.00000000E+00  0.00000000E+00
  0.00000000E+00  0.00000000E+00  0.00000000E+00
  0.00000000E+00  0.00000000E+00  0.00000000E+00
  0.00000000E+00  0.00000000E+00  0.00000000E+00
  0.00000000E+00  0.00000000E+00  0.00000000E+00
  0.00000000E+00  0.00000000E+00  0.00000000E+00
  0.00000000E+00  0.00000000E+00  0.00000000E+00
  0.00000000E+00  0.00000000E+00  0.00000000E+00
  0.00000000E+00  0.00000000E+00  0.00000000E+00
  0.00000000E+00  0.00000000E+00  0.00000000E+00
  0.00000000E+00  0.00000000E+00  0.00000000E+00
  0.00000000E+00  0.00000000E+00  0.00000000E+00
  0.00000000E+00  0.00000000E+00  0.00000000E+00
  0.00000000E+00  0.00000000E+00  0.00000000E+00
  0.00000000E+00  0.00000000E+00  0.00000000E+00
  0.00000000E+00  0.00000000E+00  0.00000000E+00
  0.00000000E+00  0.00000000E+00  0.00000000E+00
  0.00000000E+00  0.00000000E+00  0.00000000E+00
  0.00000000E+00  0.00000000E+00  0.00000000E+00
  0.00000000E+00  0.00000000E+00  0.00000000E+00
  0.00000000E+00  0.00000000E+00  0.00000000E+00
  0.00000000E+00  0.00000000E+00  0.00000000E+00
  0.00000000E+00  0.00000000E+00  0.00000000E+00
  0.00000000E+00  0.00000000E+00  0.00000000E+00
  0.00000000E+00  0.00000000E+00  0.00000000E+00
  0.00000000E+00  0.00000000E+00  0.00000000E+00
  0.00000000E+00  0.00000000E+00  0.00000000E+00
  0.00000000E+00  0.00000000E+00  0.00000000E+00
  0.00000000E+00  0.00000000E+00  0.00000000E+00
  0.00000000E+00  0.00000000E+00  0.00000000E+00
  0.00000000E+00  0.00000000E+00  0.00000000E+00
  0.00000000E+00  0.00000000E+00  0.00000000E+00
  0.00000000E+00  0.00000000E+00  0.00000000E+00
  0.00000000E+00  0.00000000E+00  0.00000000E+00
  0.00000000E+00  0.00000000E+00  0.00000000E+00
  0.00000000E+00  0.00000000E+00  0.00000000E+00
  0.00000000E+00  0.00000000E+00  0.00000000E+00
  0.00000000E+00  0.00000000E+00  0.00000000E+00
  0.00000000E+00  0.00000000E+00  0.00000000E+00
  0.00000000E+00  0.00000000E+00  0.00000000E+00
  0.00000000E+00  0.00000000E+00  0.00000000E+00
