 N B O 
 1.0
 14.936314146199660   0.000000000000000   0.000000000000000
 -7.468157073099825  12.935227489513863   0.000000000000000
  0.000000000000001   0.000000000000001  13.341276283792837
 N B O 
 143 143   1
Cartesian
  1.244238124223885   0.718573306963445   1.668928071284559 
  4.978307894068281   7.187801425040957   1.652225734364069 
  6.222863690094863   0.718767611843406   1.668607553669459 
  9.957234118441967   7.186015455581383   1.667808498061002 
 11.201995077330514   0.718484878018247   1.667981807847235 
 -3.734491070753803   9.341870565692966   8.338134745458156 
  1.244517165287997   9.341516730492913   8.337349659175155 
  2.489048689419041   2.874688387993577   8.331355762804808 
  6.223419227335033   9.342513964561782   8.339556698856679 
  7.468294007497485   2.874440962584461   8.339095024726157 
 12.446745189638396   2.874279817273780   8.337874555660932 
 -1.245046566850427   9.341713905748852   1.668203441402721 
 -0.000355548811787   2.874289721467566   1.669814767839189 
  4.978031763846835   2.874700972655238   1.670836878201306 
  3.734100207992283   9.342254348636182   1.666862188118471 
  8.712503304708667   9.341952466714025   1.667808498061002 
  9.957654922665251   2.874284064157670   1.667815491456783 
 -4.979257188546566  11.497849397611905   8.337727345341088 
 -0.000468588910782  11.497709450745093   8.337977542861925 
  1.244691825642843   5.029977698801030   8.331355762804808 
  6.224586887444324   5.029182888107841   8.353731478480558 
  4.978644787552649  11.498182589573137   8.338141721387858 
 11.202199914679301   5.030088264453807   8.337994152518680 
 -1.244963890609560   5.029997666957818   1.668928071284559 
 -2.489904490293473  11.497871077356910   1.668203441402721 
  2.489057446686418  11.497691913530492   1.668559008593742 
  3.734210400665437   5.030442377704595   1.685151916195696 
  7.467898486601364  11.498088068661854   1.667963060325934 
  8.713178351155596   5.030124663496363   1.666400513987948 
 -0.000270563270336   7.185657501415456   8.335825857827990 
  1.244238124223885   0.718573306963446   8.337029141560070 
  4.978307894068282   7.187801425040958   8.353731478480558 
  6.222863690094864   0.718767611843406   8.337349659175155 
  9.957234118441967   7.186015455581384   8.338148714783639 
 -2.489741691186836   7.185882069954720   1.668229867503539 
 11.201995077330514   0.718484878018247   8.337975404997392 
  3.733440966451495   0.718679431131484   1.670131355016637 
  2.489194261493387   7.185493978514266   1.670836878201306 
  7.467864175314853   7.186068389559373   1.665944007183732 
  8.712436314314219   0.718483520048599   1.668559008593742 
  2.489194261493388   7.185493978514267   8.335120334643323 
 13.691343316229695   0.718572627012592   1.668082657183696 
 -1.245046566850427   9.341713905748852   8.337753771441919 
 -0.000355548811786   2.874289721467567   8.336142445005425 
  4.978031763846836   2.874700972655239   8.335120334643323 
  3.734100207992283   9.342254348636182   8.339095024726157 
  8.712503304708667   9.341952466714025   8.338148714783639 
  9.957654922665251   2.874284064157671   8.338141721387858 
 -3.734491070753803   9.341870565692966   1.667822467386579 
  1.244517165287997   9.341516730492913   1.668607553669459 
  2.489048689419040   2.874688387993576   1.674601450039833 
  6.223419227335032   9.342513964561782   1.666400513987948 
  7.468294007497484   2.874440962584460   1.666862188118471 
 12.446745189638396   2.874279817273779   1.668082657183696 
 -1.244963890609559   5.029997666957819   8.337029141560070 
 -2.489904490293473  11.497871077356910   8.337753771441919 
  2.489057446686419  11.497691913530492   8.337398204250887 
  3.734210400665438   5.030442377704595   8.320805296648945 
  7.467898486601364  11.498088068661854   8.337994152518680 
 -4.979257188546566  11.497849397611905   1.668229867503539 
  8.713178351155596   5.030124663496364   8.339556698856679 
 -0.000468588910783  11.497709450745093   1.667979669982702 
  1.244691825642843   5.029977698801029   1.674601450039833 
 -0.000270563270336   7.185657501415455   1.670131355016637 
  6.224586887444323   5.029182888107840   1.652225734364069 
  4.978644787552648  11.498182589573137   1.667815491456783 
 11.202199914679301   5.030088264453807   1.667963060325934 
 -2.489741691186836   7.185882069954721   8.337727345341088 
  3.733440966451496   0.718679431131484   8.335825857827990 
  7.467864175314854   7.186068389559374   8.340013205660897 
  8.712436314314219   0.718483520048599   8.337398204250887 
 13.691343316229695   0.718572627012593   8.337874555660932 
 -0.042138374130502   1.404099190451209   5.002978606422314 
  3.855224844001380   7.722524921272280   5.002978606422314 
  4.953850820828091   1.525930824852731   5.002978606422314 
  8.801028945368063   7.955771428423862   5.002978606422314 
  9.928204846035444   1.444627220560049   5.002978606422314 
 -4.978697520176827  10.060809807626317  11.673616748318732 
 -0.000015901519620  10.060813481225518  11.673616748318732 
  1.244772050101382   3.593164475875590  11.673616748318732 
  4.978710032580621  10.060753526066817  11.673616748318732 
  6.223435981352110   3.592885628889275  11.673616748318732 
 11.202261361970930   3.593119392303527  11.673616748318732 
 -2.444727994936358  10.086515624707088   5.002978606422314 
 -1.294469309734694   3.573199998807953   5.002978606422314 
  3.599839987360334   3.596093323003941   5.002978606422314 
  2.538994699274384   9.987330090489586   5.002978606422314 
  7.501518956640096  10.062947222499728   5.002978606422314 
  8.676691039178202   3.635993143461231   5.002978606422314 
 -6.223414629840897  12.216666599803347  11.673616748318732 
 -1.244630657414730  12.216549474285797  11.673616748318732 
  0.000082260378121   5.749043925200914  11.673616748318732 
  4.978681414193296   5.748938052363544  11.673616748318732 
  3.734003597568289  12.216593858658987  11.673616748318732 
  9.957616257349294   5.748995290417044  11.673616748318732 
 -2.490348761156350   5.751866608757446   5.002978606422314 
 -3.712586390979424  12.256646517551818   5.002978606422314 
  1.249793906518297  12.219548839038900   5.002978606422314 
  2.424842474747812   5.631248713615896   5.002978606422314 
  6.208393633693739  12.185591214418288   5.002978606422314 
  7.511322163122794   5.827658041384504   5.002978606422314 
 -1.244640189737141   7.904916588878868  11.673616748318732 
  0.000040060587495   1.437268619492893  11.673616748318732 
  3.733862527152898   7.904953340737090  11.673616748318732 
  4.978852075631445   1.437139596391792  11.673616748318732 
  8.712935226263950   7.904910495985135  11.673616748318732 
 -3.677868369075417   7.930246681641979   5.002978606422314 
  9.957496737066421   1.437187540491804  11.673616748318732 
  2.457406093112558   1.430503960705735   5.002978606422314 
  1.309034578120891   7.838937741473941   5.002978606422314 
  6.313175298935724   7.902909285085851   5.002978606422314 
  7.429393232948604   1.516911360905442   5.002978606422314 
  1.244639746042115   7.904985077490693  11.673616748318732 
 12.411316169357772   1.416686736036897   5.002978606422314 
 -2.489320170387671  10.060770320206473  11.673616748318732 
 -1.244654524196521   3.593142880244671  11.673616748318732 
  3.734159958475808   3.593142834036726  11.673616748318732 
  2.489257506878737  10.060794633897755  11.673616748318732 
  7.468198405379580  10.060793491297600  11.673616748318732 
  8.712837460044694   3.593055099762528  11.673616748318732 
 -4.928681864091661  10.096719205802929   5.002978606422314 
  0.042829042667139  10.051568050939625   5.002978606422314 
  1.160587231692405   3.544560348305357   5.002978606422314 
  4.997822258779259  10.007980785491196   5.002978606422314 
  6.126129494147524   3.789202688074706   5.002978606422314 
 11.167842677632159   3.595573492767992   5.002978606422314 
 -2.489306454059023   5.749001518390760  11.673616748318732 
 -3.734004278235546  12.216621668695526  11.673616748318732 
  1.244645158405605  12.216576207930055  11.673616748318732 
  2.489447261906415   5.749048465320993  11.673616748318732 
  6.223477662517511  12.216625719652642  11.673616748318732 
 -6.221454542347880  12.214331390195186   5.002978606422314 
  7.468177147535665   5.748982119835302  11.673616748318732 
 -1.231214962817855  12.258276999518211   5.002978606422314 
 -0.021829874291593   5.724666620201932   5.002978606422314 
 -1.199268710216904   7.903452598909928   5.002978606422314 
  3.725800603987936  12.187506496867138   5.002978606422314 
  9.976141718913468   5.776774868675779   5.002978606422314 
 -3.733974648173566   7.904886551973600  11.673616748318732 
  2.489473525852321   1.437291773481388  11.673616748318732 
  6.223467444414445   7.904882566315243  11.673616748318732 
  7.468146797619685   1.437105417073801  11.673616748318732 
 12.446927650666005   1.437247034356440  11.673616748318732 
  1.213265324305944   0.699753421099993   5.002978606422314 
  5.224890294938186   6.924848471887604   5.002978606422314 
  6.208954464587648   0.777845785862062   5.002978606422314 
 10.013502391417298   7.214140138233804   5.002978606422314 
 11.166960252536272   0.698257512492228   5.002978606422314 
 -3.734289471858614   9.341986958869356  11.673616748318732 
  1.244911315704058   9.342418951829986  11.673616748318732 
  2.489986454208682   2.874605519570397  11.673616748318732 
  6.223415267921255   9.341495535920028  11.673616748318732 
  7.468138002092008   2.874802543339533  11.673616748318732 
 12.446379964802897   2.874424606283112  11.673616748318732 
 -1.205600284701186   9.348504231819387   5.002978606422314 
 -0.083814342800729   2.826104764291817   5.002978606422314 
  4.972308469553215   2.981783080143442   5.002978606422314 
  3.799164045491597   9.212007699458097   5.002978606422314 
  8.764994130846773   9.376619879211409   5.002978606422314 
  9.909815502368694   2.890767855141723   5.002978606422314 
 -4.978794893401835  11.497608945728599  11.673616748318732 
  0.000137253085825  11.498059233784991  11.673616748318732 
  1.245088941878011   5.030831261143236  11.673616748318732 
  6.223630933882362   5.030754075606324  11.673616748318732 
  4.978653707836338  11.497469654162996  11.673616748318732 
 11.201610610580907   5.030508645073813  11.673616748318732 
 -1.276748789822603   5.012584378334276   5.002978606422314 
 -2.464300754341744  11.528637396747655   5.002978606422314 
  2.497151078052069  11.454145571706578   5.002978606422314 
  7.470324241066348  11.485610050687765   5.002978606422314 
  8.708079670285350   5.080347900466483   5.002978606422314 
  0.000098868743421   7.186718296969007  11.673616748318732 
  1.244704284219645   0.718241610997014  11.673616748318732 
  4.979190605575082   7.186187951222243  11.673616748318732 
  6.223842111900635   0.718657845448091  11.673616748318732 
  9.957026903187392   7.186202025474978  11.673616748318732 
 -2.453995578205546   7.193760254929301   5.002978606422314 
 11.201899296330813   0.718429578832244  11.673616748318732 
  3.733851677901402   0.755734667330335   5.002978606422314 
  2.579068439722136   7.126996406518557   5.002978606422314 
  7.568723740437542   7.244299686633306   5.002978606422314 
  8.678770891735601   0.747265981332168   5.002978606422314 
  2.490052617852800   7.186836444579907  11.673616748318732 
 13.649272556661419   0.681672067258833   5.002978606422314 
 -1.244663483883907   9.342320269522734  11.673616748318732 
 -0.000185132342534   2.874388111461844  11.673616748318732 
  4.979623551743097   2.874773098035182  11.673616748318732 
  3.734335343408898   9.341938453614482  11.673616748318732 
  8.712561271348882   9.341679728092600  11.673616748318732 
  9.957041962630701   2.874648257054948  11.673616748318732 
 -3.688716654643618   9.368298437156197   5.002978606422314 
  1.288725752043743   9.299931900847369   5.002978606422314 
  2.378107784272202   2.835604378079571   5.002978606422314 
  6.264364485976332   9.312986758917274   5.002978606422314 
  7.388029019301119   2.995911223315613   5.002978606422314 
 12.393752987693697   2.856295750607922   5.002978606422314 
 -1.245018067744950   5.030567221339605  11.673616748318732 
 -2.489187822378105  11.497899655050746  11.673616748318732 
  2.489401370054296  11.497888532467186  11.673616748318732 
  3.735242205220262   5.031038090342075  11.673616748318732 
  7.467967894848361  11.497367526032075  11.673616748318732 
 -4.954561423732282  11.524867347053064   5.002978606422314 
  8.712294386373005   5.030630448864327  11.673616748318732 
  0.013231464070725  11.505619180021940   5.002978606422314 
  1.155373627602125   4.953442061582042   5.002978606422314 
  0.032025568346054   7.167485569865275   5.002978606422314 
  6.120154150448326   5.374205987964029   5.002978606422314 
  4.969000459147284  11.448510540801884   5.002978606422314 
 11.192606511357345   5.038428038430884   5.002978606422314 
 -2.489718781053862   7.186402655235860  11.673616748318732 
  3.734544358355978   0.718468970863581  11.673616748318732 
  7.467851415467308   7.186061022658034  11.673616748318732 
  8.712778552992209   0.718683056953775  11.673616748318732 
 13.691286094772224   0.718183938522280  11.673616748318732 
 -0.001172421137717   1.435838539881128   1.666546806145561 
  3.737969631125917   7.904447855698269   1.666180567292656 
  4.979115214129601   1.437958617966906   1.667639108583082 
  8.710564333614490   7.903541660475722   1.670082109910572 
  9.957085618085966   1.437657789566343   1.667998007031409 
 -4.980356546894895  10.059291210798959   8.337910699186645 
 -0.000019301714673  10.060493581540813   8.338308802730404 
  1.243769741175544   3.592585792547369   8.340063301122555 
  4.979652037259513  10.059663866505270   8.337480420919999 
  6.225051770453805   3.596695227785241   8.339776645552066 
 11.200891724514845   3.593282200217726   8.338202100481356 
 -2.490448230386502  10.060119034462588   1.667480794649025 
 -1.246499250332342   3.592807880074881   1.666546806145561 
  3.736029487234198   3.594992000764258   1.669351135925387 
  2.490761667194211  10.060148233243865   1.668322163037205 
  7.467158368154541  10.059170808288455   1.669093066517105 
  8.712364789522358   3.594415729525715   1.668476791924628 
 -6.224469486075841  12.214921164964100   8.338535628331927 
 -1.244909398765877  12.216706479472863   8.338308802730404 
 -0.001330044458131   5.749295724853278   8.338997119301242 
  4.983700569413928   5.751835862981401   8.320332748711442 
  3.734205285722719  12.216002694640663   8.337959205813219 
  9.955690954028551   5.748905933263852   8.336864146327537 
 -2.491345473087933   5.748960703513579   1.667421584512700 
 -3.734786808794342  12.215501217647814   1.667570302020459 
  1.244771542990323  12.216649176103942   1.668060934839672 
  2.491983451647426   5.749742941355201   1.669351135925387 
  6.222933839579162  12.215358174864495   1.667755112363273 
  7.467028582407962   5.749228919955572   1.669117108237623 
 -1.246001794087611   7.904799123059671   8.338386910824156 
 -0.001172421137717   1.435838539881128   8.339410406699066 
  3.737969631125918   7.904447855698270   8.339776645552066 
  4.979115214129602   1.437958617966907   8.338318104261546 
  8.710564333614490   7.903541660475723   8.335875102934041 
 -3.736119304963189   7.904209091103858   1.668046513657981 
  9.957085618085966   1.437657789566343   8.337959205813219 
  2.488985438329820   1.435942781789098   1.666960093543385 
  1.245480608781558   7.904803451327137   1.667639108583082 
  6.223106897024351   7.903764479676708   1.669117108237623 
  7.468339078390088   1.438731258445387   1.668322163037205 
  1.245480608781559   7.904803451327138   8.338318104261546 
 12.445982879189152   1.436701570289964   1.667232359285745 
 -2.490448230386501  10.060119034462588   8.338476418195603 
 -1.246499250332342   3.592807880074882   8.339410406699066 
  3.736029487234198   3.594992000764258   8.336606076919240 
  2.490761667194211  10.060148233243865   8.337635049807435 
  7.467158368154542  10.059170808288455   8.336864146327537 
  8.712364789522358   3.594415729525716   8.337480420919999 
 -4.980356546894896  10.059291210798959   1.668046513657981 
 -0.000019301714674  10.060493581540813   1.667648410114237 
  1.243769741175544   3.592585792547368   1.665893911722073 
  4.979652037259512  10.059663866505270   1.668476791924628 
  6.225051770453804   3.596695227785240   1.666180567292656 
 11.200891724514845   3.593282200217725   1.667755112363273 
 -2.491345473087933   5.748960703513580   8.338535628331927 
 -3.734786808794342  12.215501217647814   8.338386910824156 
  1.244771542990323  12.216649176103942   8.337896278004955 
  2.491983451647426   5.749742941355202   8.336606076919240 
  6.222933839579163  12.215358174864495   8.338202100481356 
 -6.224469486075842  12.214921164964100   1.667421584512700 
  7.467028582407963   5.749228919955573   8.336840104607004 
 -1.244909398765878  12.216706479472863   1.667648410114237 
 -0.001330044458131   5.749295724853277   1.666960093543385 
 -1.246001794087611   7.904799123059671   1.667570302020459 
  4.983700569413927   5.751835862981400   1.685624464133200 
  3.734205285722719  12.216002694640663   1.667998007031409 
  9.955690954028569   5.748905933263851   1.669093066517105 
 -3.736119304963189   7.904209091103859   8.337910699186645 
  2.488985438329820   1.435942781789098   8.338997119301242 
  6.223106897024352   7.903764479676709   8.336840104607004 
  7.468339078390088   1.438731258445388   8.337635049807435 
 12.445982879189152   1.436701570289965   8.338724853558883 
  3.575003464919998   4.938524210495136   5.002978606422314 
Generated by cif2cell 2.0.0.  :  Failed to get author information, No journal information. Species order: N B O 
 1.0
 14.936314146199660   0.000000000000000   0.000000000000000
 -7.468157073099825  12.935227489513863   0.000000000000000
  0.000000000000001   0.000000000000001  13.341276283792837
 N B O 
 143 143   1
Cartesian
  1.244238124223885   0.718573306963445   1.668928071284559 
  4.978307894068281   7.187801425040957   1.652225734364069 
  6.222863690094863   0.718767611843406   1.668607553669459 
  9.957234118441967   7.186015455581383   1.667808498061002 
 11.201995077330514   0.718484878018247   1.667981807847235 
 -3.734491070753803   9.341870565692966   8.338134745458156 
  1.244517165287997   9.341516730492913   8.337349659175155 
  2.489048689419041   2.874688387993577   8.331355762804808 
  6.223419227335033   9.342513964561782   8.339556698856679 
  7.468294007497485   2.874440962584461   8.339095024726157 
 12.446745189638396   2.874279817273780   8.337874555660932 
 -1.245046566850427   9.341713905748852   1.668203441402721 
 -0.000355548811787   2.874289721467566   1.669814767839189 
  4.978031763846835   2.874700972655238   1.670836878201306 
  3.734100207992283   9.342254348636182   1.666862188118471 
  8.712503304708667   9.341952466714025   1.667808498061002 
  9.957654922665251   2.874284064157670   1.667815491456783 
 -4.979257188546566  11.497849397611905   8.337727345341088 
 -0.000468588910782  11.497709450745093   8.337977542861925 
  1.244691825642843   5.029977698801030   8.331355762804808 
  6.224586887444324   5.029182888107841   8.353731478480558 
  4.978644787552649  11.498182589573137   8.338141721387858 
 11.202199914679301   5.030088264453807   8.337994152518680 
 -1.244963890609560   5.029997666957818   1.668928071284559 
 -2.489904490293473  11.497871077356910   1.668203441402721 
  2.489057446686418  11.497691913530492   1.668559008593742 
  3.734210400665437   5.030442377704595   1.685151916195696 
  7.467898486601364  11.498088068661854   1.667963060325934 
  8.713178351155596   5.030124663496363   1.666400513987948 
 -0.000270563270336   7.185657501415456   8.335825857827990 
  1.244238124223885   0.718573306963446   8.337029141560070 
  4.978307894068282   7.187801425040958   8.353731478480558 
  6.222863690094864   0.718767611843406   8.337349659175155 
  9.957234118441967   7.186015455581384   8.338148714783639 
 -2.489741691186836   7.185882069954720   1.668229867503539 
 11.201995077330514   0.718484878018247   8.337975404997392 
  3.733440966451495   0.718679431131484   1.670131355016637 
  2.489194261493387   7.185493978514266   1.670836878201306 
  7.467864175314853   7.186068389559373   1.665944007183732 
  8.712436314314219   0.718483520048599   1.668559008593742 
  2.489194261493388   7.185493978514267   8.335120334643323 
 13.691343316229695   0.718572627012592   1.668082657183696 
 -1.245046566850427   9.341713905748852   8.337753771441919 
 -0.000355548811786   2.874289721467567   8.336142445005425 
  4.978031763846836   2.874700972655239   8.335120334643323 
  3.734100207992283   9.342254348636182   8.339095024726157 
  8.712503304708667   9.341952466714025   8.338148714783639 
  9.957654922665251   2.874284064157671   8.338141721387858 
 -3.734491070753803   9.341870565692966   1.667822467386579 
  1.244517165287997   9.341516730492913   1.668607553669459 
  2.489048689419040   2.874688387993576   1.674601450039833 
  6.223419227335032   9.342513964561782   1.666400513987948 
  7.468294007497484   2.874440962584460   1.666862188118471 
 12.446745189638396   2.874279817273779   1.668082657183696 
 -1.244963890609559   5.029997666957819   8.337029141560070 
 -2.489904490293473  11.497871077356910   8.337753771441919 
  2.489057446686419  11.497691913530492   8.337398204250887 
  3.734210400665438   5.030442377704595   8.320805296648945 
  7.467898486601364  11.498088068661854   8.337994152518680 
 -4.979257188546566  11.497849397611905   1.668229867503539 
  8.713178351155596   5.030124663496364   8.339556698856679 
 -0.000468588910783  11.497709450745093   1.667979669982702 
  1.244691825642843   5.029977698801029   1.674601450039833 
 -0.000270563270336   7.185657501415455   1.670131355016637 
  6.224586887444323   5.029182888107840   1.652225734364069 
  4.978644787552648  11.498182589573137   1.667815491456783 
 11.202199914679301   5.030088264453807   1.667963060325934 
 -2.489741691186836   7.185882069954721   8.337727345341088 
  3.733440966451496   0.718679431131484   8.335825857827990 
  7.467864175314854   7.186068389559374   8.340013205660897 
  8.712436314314219   0.718483520048599   8.337398204250887 
 13.691343316229695   0.718572627012593   8.337874555660932 
 -0.042138374130502   1.404099190451209   5.002978606422314 
  3.855224844001380   7.722524921272280   5.002978606422314 
  4.953850820828091   1.525930824852731   5.002978606422314 
  8.801028945368063   7.955771428423862   5.002978606422314 
  9.928204846035444   1.444627220560049   5.002978606422314 
 -4.978697520176827  10.060809807626317  11.673616748318732 
 -0.000015901519620  10.060813481225518  11.673616748318732 
  1.244772050101382   3.593164475875590  11.673616748318732 
  4.978710032580621  10.060753526066817  11.673616748318732 
  6.223435981352110   3.592885628889275  11.673616748318732 
 11.202261361970930   3.593119392303527  11.673616748318732 
 -2.444727994936358  10.086515624707088   5.002978606422314 
 -1.294469309734694   3.573199998807953   5.002978606422314 
  3.599839987360334   3.596093323003941   5.002978606422314 
  2.538994699274384   9.987330090489586   5.002978606422314 
  7.501518956640096  10.062947222499728   5.002978606422314 
  8.676691039178202   3.635993143461231   5.002978606422314 
 -6.223414629840897  12.216666599803347  11.673616748318732 
 -1.244630657414730  12.216549474285797  11.673616748318732 
  0.000082260378121   5.749043925200914  11.673616748318732 
  4.978681414193296   5.748938052363544  11.673616748318732 
  3.734003597568289  12.216593858658987  11.673616748318732 
  9.957616257349294   5.748995290417044  11.673616748318732 
 -2.490348761156350   5.751866608757446   5.002978606422314 
 -3.712586390979424  12.256646517551818   5.002978606422314 
  1.249793906518297  12.219548839038900   5.002978606422314 
  2.424842474747812   5.631248713615896   5.002978606422314 
  6.208393633693739  12.185591214418288   5.002978606422314 
  7.511322163122794   5.827658041384504   5.002978606422314 
 -1.244640189737141   7.904916588878868  11.673616748318732 
  0.000040060587495   1.437268619492893  11.673616748318732 
  3.733862527152898   7.904953340737090  11.673616748318732 
  4.978852075631445   1.437139596391792  11.673616748318732 
  8.712935226263950   7.904910495985135  11.673616748318732 
 -3.677868369075417   7.930246681641979   5.002978606422314 
  9.957496737066421   1.437187540491804  11.673616748318732 
  2.457406093112558   1.430503960705735   5.002978606422314 
  1.309034578120891   7.838937741473941   5.002978606422314 
  6.313175298935724   7.902909285085851   5.002978606422314 
  7.429393232948604   1.516911360905442   5.002978606422314 
  1.244639746042115   7.904985077490693  11.673616748318732 
 12.411316169357772   1.416686736036897   5.002978606422314 
 -2.489320170387671  10.060770320206473  11.673616748318732 
 -1.244654524196521   3.593142880244671  11.673616748318732 
  3.734159958475808   3.593142834036726  11.673616748318732 
  2.489257506878737  10.060794633897755  11.673616748318732 
  7.468198405379580  10.060793491297600  11.673616748318732 
  8.712837460044694   3.593055099762528  11.673616748318732 
 -4.928681864091661  10.096719205802929   5.002978606422314 
  0.042829042667139  10.051568050939625   5.002978606422314 
  1.160587231692405   3.544560348305357   5.002978606422314 
  4.997822258779259  10.007980785491196   5.002978606422314 
  6.126129494147524   3.789202688074706   5.002978606422314 
 11.167842677632159   3.595573492767992   5.002978606422314 
 -2.489306454059023   5.749001518390760  11.673616748318732 
 -3.734004278235546  12.216621668695526  11.673616748318732 
  1.244645158405605  12.216576207930055  11.673616748318732 
  2.489447261906415   5.749048465320993  11.673616748318732 
  6.223477662517511  12.216625719652642  11.673616748318732 
 -6.221454542347880  12.214331390195186   5.002978606422314 
  7.468177147535665   5.748982119835302  11.673616748318732 
 -1.231214962817855  12.258276999518211   5.002978606422314 
 -0.021829874291593   5.724666620201932   5.002978606422314 
 -1.199268710216904   7.903452598909928   5.002978606422314 
  3.725800603987936  12.187506496867138   5.002978606422314 
  9.976141718913468   5.776774868675779   5.002978606422314 
 -3.733974648173566   7.904886551973600  11.673616748318732 
  2.489473525852321   1.437291773481388  11.673616748318732 
  6.223467444414445   7.904882566315243  11.673616748318732 
  7.468146797619685   1.437105417073801  11.673616748318732 
 12.446927650666005   1.437247034356440  11.673616748318732 
  1.213265324305944   0.699753421099993   5.002978606422314 
  5.224890294938186   6.924848471887604   5.002978606422314 
  6.208954464587648   0.777845785862062   5.002978606422314 
 10.013502391417298   7.214140138233804   5.002978606422314 
 11.166960252536272   0.698257512492228   5.002978606422314 
 -3.734289471858614   9.341986958869356  11.673616748318732 
  1.244911315704058   9.342418951829986  11.673616748318732 
  2.489986454208682   2.874605519570397  11.673616748318732 
  6.223415267921255   9.341495535920028  11.673616748318732 
  7.468138002092008   2.874802543339533  11.673616748318732 
 12.446379964802897   2.874424606283112  11.673616748318732 
 -1.205600284701186   9.348504231819387   5.002978606422314 
 -0.083814342800729   2.826104764291817   5.002978606422314 
  4.972308469553215   2.981783080143442   5.002978606422314 
  3.799164045491597   9.212007699458097   5.002978606422314 
  8.764994130846773   9.376619879211409   5.002978606422314 
  9.909815502368694   2.890767855141723   5.002978606422314 
 -4.978794893401835  11.497608945728599  11.673616748318732 
  0.000137253085825  11.498059233784991  11.673616748318732 
  1.245088941878011   5.030831261143236  11.673616748318732 
  6.223630933882362   5.030754075606324  11.673616748318732 
  4.978653707836338  11.497469654162996  11.673616748318732 
 11.201610610580907   5.030508645073813  11.673616748318732 
 -1.276748789822603   5.012584378334276   5.002978606422314 
 -2.464300754341744  11.528637396747655   5.002978606422314 
  2.497151078052069  11.454145571706578   5.002978606422314 
  7.470324241066348  11.485610050687765   5.002978606422314 
  8.708079670285350   5.080347900466483   5.002978606422314 
  0.000098868743421   7.186718296969007  11.673616748318732 
  1.244704284219645   0.718241610997014  11.673616748318732 
  4.979190605575082   7.186187951222243  11.673616748318732 
  6.223842111900635   0.718657845448091  11.673616748318732 
  9.957026903187392   7.186202025474978  11.673616748318732 
 -2.453995578205546   7.193760254929301   5.002978606422314 
 11.201899296330813   0.718429578832244  11.673616748318732 
  3.733851677901402   0.755734667330335   5.002978606422314 
  2.579068439722136   7.126996406518557   5.002978606422314 
  7.568723740437542   7.244299686633306   5.002978606422314 
  8.678770891735601   0.747265981332168   5.002978606422314 
  2.490052617852800   7.186836444579907  11.673616748318732 
 13.649272556661419   0.681672067258833   5.002978606422314 
 -1.244663483883907   9.342320269522734  11.673616748318732 
 -0.000185132342534   2.874388111461844  11.673616748318732 
  4.979623551743097   2.874773098035182  11.673616748318732 
  3.734335343408898   9.341938453614482  11.673616748318732 
  8.712561271348882   9.341679728092600  11.673616748318732 
  9.957041962630701   2.874648257054948  11.673616748318732 
 -3.688716654643618   9.368298437156197   5.002978606422314 
  1.288725752043743   9.299931900847369   5.002978606422314 
  2.378107784272202   2.835604378079571   5.002978606422314 
  6.264364485976332   9.312986758917274   5.002978606422314 
  7.388029019301119   2.995911223315613   5.002978606422314 