 N As B 
 1.0
 14.936314146199660   0.000000000000000   0.000000000000000
 -7.468157073099825  12.935227489513863   0.000000000000000
  0.000000000000001   0.000000000000001  13.341276283792837
 N As B 
 143   1 144
Cartesian
  1.244461636172180   0.718463885756175   1.669200644602959 
  4.978771382067031   7.187438670830273   1.661827063250878 
  6.223446556594685   0.718668233741317   1.670255361689243 
  9.957495404084373   7.186230555536830   1.670255361689243 
 11.202339589725987   0.718683782342020   1.668537287460224 
 -3.734089871936436   9.342102197938759   8.332815508269240 
  1.244722534576980   9.342071196739713   8.335701851155878 
  2.488901678318198   2.873971190073027   8.343407839812688 
  6.223675851910507   9.342789813532713   8.343407839812688 
  7.468641085816262   2.873971190073027   8.343407839812688 
 12.446928455166475   2.874374931820837   8.337419925384284 
 -1.244681510131121   9.342102197938759   1.673141704574842 
 -0.000232335814970   2.874360858524299   1.666508431583268 
  4.978771382066467   2.874956994594549   1.665479799306728 
  3.733866912222973   9.342789813532713   1.662549373031952 
  8.712820229555962   9.342071196739713   1.670255361689243 
  9.957775099948158   2.874360858524299   1.666508431583268 
 -4.978779554724797  11.497984709165559   8.332330855518746 
  0.000008172657439  11.497984709165559   8.332330855518746 
  1.243997208473662   5.030208982413376   8.343407839812688 
  6.224504477082106   5.029765657594123   8.344130149592589 
  4.978771382066121  11.498248268970386   8.339448781261375 
 11.202489660314097   5.030245944586572   8.336756568242016 
 -1.244946896180531   5.030245944586571   1.669200644602959 
 -2.489385691033240  11.497993079654647   1.673141704574842 
  2.489362849712951  11.498260155676277   1.669200644602959 
  3.733038287052401   5.029765657594123   1.661827063250878 
  7.468179914419155  11.498260155676277   1.669200644602959 
  8.713545555659259   5.030208982413375   1.662549373031952 
  0.000047360049296   7.186230555536831   8.335701851155878 
  1.244461636172181   0.718463885756175   8.336756568242016 
  4.978771382067509   7.187438670829446   8.344130149592589 
  6.223446556594686   0.718668233741318   8.335701851155878 
  9.957495404084373   7.186230555536831   8.335701851155878 
 -2.489385691033391   7.186228057201819   1.673626357325548 
 11.202339589725987   0.718683782342020   8.337419925384284 
  3.734096207538590   0.718668233741317   1.670255361689243 
  2.489785792107094   7.186006495711009   1.665479799306728 
  7.467756972027292   7.186006495711009   1.665479799306728 
  8.713081127960603   0.718463885756175   1.669200644602959 
  2.489785792107094   7.186006495711010   8.340477413537194 
 13.691517320607757   0.718683782342020   1.668537287460224 
 -1.244681510131121   9.342102197938759   8.332815508269240 
 -0.000232335814969   2.874360858524300   8.339448781261375 
  4.978771382066468   2.874956994594549   8.340477413537194 
  3.733866912222973   9.342789813532713   8.343407839812688 
  8.712820229555962   9.342071196739713   8.335701851155878 
  9.957775099948158   2.874360858524300   8.339448781261375 
 -3.734089871936437   9.342102197938759   1.673141704574842 
  1.244722534576979   9.342071196739713   1.670255361689243 
  2.488901678318197   2.873971190073026   1.662549373031952 
  6.223675851911776   9.342789813532713   1.662549373031952 
  7.468641085816262   2.873971190073026   1.662549373031952 
 12.446928455166475   2.874374931820836   1.668537287460224 
 -1.244946896180531   5.030245944586572   8.336756568242016 
 -2.489385691033239  11.497993079654647   8.332815508269240 
  2.489362849712951  11.498260155676277   8.336756568242016 
  3.733038287052402   5.029765657594123   8.344130149592589 
  7.468179914419156  11.498260155676277   8.336756568242016 
 -4.978779554724798  11.497984709165559   1.673626357325548 
  8.713545555659259   5.030208982413376   8.343407839812688 
  0.000008172657439  11.497984709165559   1.673626357325548 
  1.243997208473662   5.030208982413375   1.662549373031952 
  0.000047360049296   7.186230555536830   1.670255361689243 
  6.224504477082105   5.029765657594123   1.661827063250878 
  4.978771382066120  11.498248268970386   1.666508431583268 
 11.202489660314097   5.030245944586571   1.669200644602959 
 -2.489385691033390   7.186228057201820   8.332330855518746 
  3.734096207538591   0.718668233741318   8.335701851155878 
  7.467756972027293   7.186006495711010   8.340477413537194 
  8.713081127960603   0.718463885756175   8.336756568242016 
 13.691517320607757   0.718683782342020   8.337419925384284 
 -0.011080514629257   1.427461430394550   5.002978606422314 
  3.671392037660392   8.026614045182836   5.002978606422314 
  4.978771382066668   1.406342505438702   5.002978606422314 
  8.739614428001623   7.920313740288797   5.002978606422314 
  9.968623278762641   1.427461430394550   5.002978606422314 
 -4.978769169481860  10.060770977907803  11.673616748318732 
 -0.000002212584065  10.060770977907803  11.673616748318732 
  1.244726914716500   3.593138416949703  11.673616748318732 
  4.978771382067667  10.060693152119105  11.673616748318732 
  6.223330568023273   3.593048550229315  11.673616748318732 
 11.202210905894155   3.593127318552302  11.673616748318732 
 -2.489385691033300  10.060732491844131   5.002978606422314 
 -1.258708086703562   3.588415774151063   5.002978606422314 
  3.659980766834239   3.477954245777735   5.002978606422314 
  2.456580641967494  10.108467633852007   5.002978606422314 
  7.500962122163072  10.108467633852007   5.002978606422314 
  8.753515590550451   3.569640410449600   5.002978606422314 
 -6.223395352655238  12.216563975137600  11.673616748318732 
 -1.244660621899808  12.216582580910543  11.673616748318732 
 -0.000039803860824   5.749020183803536  11.673616748318732 
  4.978771382066590   5.748989995339477  11.673616748318732 
  3.734083465321845  12.216578060284279  11.673616748318732 
  9.957582567992954   5.749020183803536  11.673616748318732 
 -2.489385691033227   5.753143649466682   5.002978606422314 
 -3.732405954175251  12.203794208002135   5.002978606422314 
  1.241095675522639  12.214526913032753   5.002978606422314 
  2.352601422427219   5.742401695056799   5.002978606422314 
  6.226398954141442  12.231092781472181   5.002978606422314 
  7.604941341703626   5.742401695056799   5.002978606422314 
 -1.244727281717646   7.904843916713588  11.673616748318732 
  0.000019774983518   1.437264607181967  11.673616748318732 
  3.733950914509078   7.904780589444136  11.673616748318732 
  4.978771382066086   1.437265825385150  11.673616748318732 
  8.712834047359957   7.904852080315496  11.673616748318732 
 -3.723821447532481   7.912714508465015   5.002978606422314 
  9.957522989149776   1.437264607181967  11.673616748318732 
  2.464448369933067   1.384969921969059   5.002978606422314 
  1.217928336132514   7.920313740288797   5.002978606422314 
  6.286150726472099   8.026614045182836   5.002978606422314 
  7.493094394198163   1.384969921969059   5.002978606422314 
  1.244708716774954   7.904852080315496  11.673616748318732 
 12.446928455166319   1.437247498834912   5.002978606422314 
 -2.489385691033299  10.060732491844133  11.673616748318732 
 -1.244668141762013   3.593127318552302  11.673616748318732 
  3.734212196111337   3.593048550229315  11.673616748318732 
  2.489339645126496  10.060751868767751  11.673616748318732 
  7.468203119005445  10.060751868767751  11.673616748318732 
  8.712815849416334   3.593138416949703  11.673616748318732 
 -4.966841710675134  10.065688759065740   5.002978606422314 
 -0.011929671392555  10.065688759065740   5.002978606422314 
  1.204027173582694   3.569640410449600   5.002978606422314 
  4.978771382066957  10.107689165119425   5.002978606422314 
  6.297561997298937   3.477954245777735   5.002978606422314 
 11.216250850837245   3.588415774151063   5.002978606422314 
 -2.489385691033465   5.749069525255570  11.673616748318732 
 -3.734110760167058  12.216582580910543  11.673616748318732 
  1.244623970589614  12.216563975137600  11.673616748318732 
  2.489391728551885   5.749140846343946  11.673616748318732 
  6.223459298811756  12.216578060284279  11.673616748318732 
 -6.219867057590416  12.214526913032753   5.002978606422314 
  7.468151035580725   5.749140846343946  11.673616748318732 
 -1.246365427891780  12.203794208002135   5.002978606422314 
 -0.057742370163973   5.753532430196912   5.002978606422314 
 -1.254949934533374   7.912714508465015   5.002978606422314 
  3.731143809992532  12.231092781472181   5.002978606422314 
 10.015285134296702   5.753532430196912   5.002978606422314 
 -3.734044100348192   7.904843916713588  11.673616748318732 
  2.489391933079732   1.437197933448025  11.673616748318732 
  6.223591849625983   7.904780589444136  11.673616748318732 
  7.468150831054562   1.437197933448025  11.673616748318732 
 12.446928455166319   1.437247498834912  11.673616748318732 
  4.978771382066589   5.748989995339477   5.002978606422314 
  1.223252462165437   0.695997235538302   5.002978606422314 
  4.978771382066633   7.548767207355223   5.002978606422314 
  6.228164150283557   0.693035104441230   5.002978606422314 
  9.982053142080460   7.194961564207862   5.002978606422314 
 11.207637359917742   0.721742451390017   5.002978606422314 
 -3.734137797089128   9.342074528338538  11.673616748318732 
  1.244526242485166   9.342165720858352  11.673616748318732 
  2.489247741550510   2.874379349804751  11.673616748318732 
  6.223495406831809   9.342286034114609  11.673616748318732 
  7.468295022582651   2.874379349804751  11.673616748318732 
 12.446928455166454   2.874531937978787  11.673616748318732 
 -1.250617697177308   9.345529457127576   5.002978606422314 
 -0.029862853656229   2.857253671072256   5.002978606422314 
  4.978771382066773   2.828470859412271   5.002978606422314 
  3.697898374413042   9.443764005095245   5.002978606422314 
  8.732660373862988   9.358973317369660   5.002978606422314 
  9.987405617790570   2.857253671072256   5.002978606422314 
 -4.978779827428108  11.497984866611754  11.673616748318732 
  0.000008445359689  11.497984866611754  11.673616748318732 
  1.244523716785919   5.030304602098657  11.673616748318732 
  6.223721089847530   5.030217946424211  11.673616748318732 
  4.978771382066487  11.498148856925564  11.673616748318732 
 11.202426100818785   5.030296656940107  11.673616748318732 
 -1.275008173010288   5.023111586211984   5.002978606422314 
 -2.489385691033186  11.491138561276143   5.002978606422314 
  2.480510746891066  11.527861164266838   5.002978606422314 
  3.420118595308256   4.849101389331553   5.002978606422314 
  7.477032017242252  11.527861164266838   5.002978606422314 
  8.818976039584847   5.010871554112348   5.002978606422314 
 -0.000132646285449   7.186353287417228  11.673616748318732 
  1.244537334107029   0.718493573717619  11.673616748318732 
  4.978771382065969   7.186534093169916  11.673616748318732 
  6.223430270836737   0.718450977744017  11.673616748318732 
  9.957675410415820   7.186353287417228  11.673616748318732 
 -2.489385691032725   7.190116368463911   5.002978606422314 
 11.202203618403161   0.718605279262936  11.673616748318732 
  3.729378613850064   0.693035104441230   5.002978606422314 
  2.449527618115258   7.209249563303072   5.002978606422314 
  7.508015146017637   7.209249563303072   5.002978606422314 
  8.734290301967841   0.695997235538302   5.002978606422314 
  2.489186900301736   7.186352266057110  11.673616748318732 
 13.686219550412012   0.721742451390017   5.002978606422314 
 -1.244633584977515   9.342074528338538  11.673616748318732 
 -0.000146242460356   2.874410564545659  11.673616748318732 
  4.978771382066939   2.874265453904715  11.673616748318732 
  3.734047357303000   9.342286034114609  11.673616748318732 
  8.713016521646253   9.342165720858352  11.673616748318732 
  9.957689006592872   2.874410564545659  11.673616748318732 
 -3.728153684887709   9.345529457127576   5.002978606422314 
  1.224882390268698   9.358973317369660   5.002978606422314 
  2.419439732203430   2.792334426811691   5.002978606422314 
  6.259644389721227   9.443764005095245   5.002978606422314 
  7.538103031930864   2.792334426811691   5.002978606422314 
 12.446928455165178   2.868257593725231   5.002978606422314 
 -1.244883336684116   5.030296656940107  11.673616748318732 
 -2.489385691033291  11.498048418855520  11.673616748318732 
  2.489350711275004  11.498179755360175  11.673616748318732 
  3.733821674285557   5.030217946424211  11.673616748318732 
  7.468192052858956  11.498179755360175  11.673616748318732 
 -4.975412178393144  11.496040553534172   5.002978606422314 
  8.713019047346869   5.030304602098657  11.673616748318732 
 -0.003359203672483  11.496040553534172   5.002978606422314 
  1.138566724549226   5.010871554112348   5.002978606422314 
 -0.024510377947326   7.194961564207862   5.002978606422314 
  6.537424168824620   4.849101389331553   5.002978606422314 
  4.978771382067854  11.532462643872972   5.002978606422314 
 11.232550937143301   5.023111586211984   5.002978606422314 
 -2.489385691033300   7.186227742311869  11.673616748318732 
  3.734112493296556   0.718450977744017  11.673616748318732 
  7.468355863830697   7.186352266057110  11.673616748318732 
  8.713005430025978   0.718493573717619  11.673616748318732 
 13.691653291929132   0.718605279262936  11.673616748318732 
 -0.000285192345727   1.436626485901100   1.667701606449265 
  3.733772136007824   7.906722056083618   1.659105057903310 
  4.978771382066691   1.436005610292024   1.667899080618472 
  8.713925425642833   7.905482187863255   1.667899080618472 
  9.957827956478257   1.436626485901100   1.667701606449265 
 -4.978508573377511  10.060570497701756   8.333602805753275 
 -0.000262808690357  10.060570497701756   8.333602805753275 
  1.243938338460344   3.592683132234727   8.343847748617851 
  4.978771382065574  10.061603721549080   8.343847748617851 
  6.224922538201484   3.591922990188527   8.346852154942171 
 11.202916018798845   3.593182269737599   8.338255606395469 
 -2.489385691033300  10.060732491844131   1.672834830259480 
 -1.245373254666165   3.593182269737598   1.667701606449265 
  3.732620225930795   3.591922990188526   1.659105057903310 
  2.488923274502952  10.061538865562403   1.666455276871847 
  7.468619489630854  10.061538865562403   1.666455276871847 
  8.713604425672502   3.592683132234726   1.662109464224709 
 -6.223786852617052  12.216790007746965   8.335296146467932 
 -1.244964540904465  12.216457138165596   8.333602805753275 
 -0.000929548390887   5.748987272942255   8.339501935970633 
  4.978771382066590   5.748989995339477   8.344878375865530 
  3.733683319745562  12.217161230379537   8.338255606395469 
  9.958472312524229   5.748987272942255   8.339501935970633 
 -2.489385691033003   5.748617460039113   1.670661066375575 
 -3.733806841161492  12.216457138165596   1.672354407091220 
  1.245015470549411  12.216790007746965   1.670661066375575 
  2.487620979872388   5.748324939746649   1.659105057903310 
  6.223859444386588  12.217161230379537   1.667701606449265 
  7.469921784260084   5.748324939746649   1.659105057903310 
 -1.244683958817511   7.905169839663506   8.333602805753275 
 -0.000285192345727   1.436626485901101   8.338255606395469 
  3.733772136007824   7.906722056083619   8.346852154942171 
  4.978771382066692   1.436005610292024   8.338058132226596 
  8.713925425642833   7.905482187863256   8.338058132226596 
 -3.734087423247640   7.905169839663505   1.672354407091220 
  9.957827956478257   1.436626485901101   8.338255606395469 
  2.488918559172829   1.436443847512648   1.666455276871847 
  1.243617338489988   7.905482187863255   1.667899080618472 
  6.223770628124832   7.906722056083618   1.659105057903310 
  7.468624204960044   1.436443847512648   1.666455276871847 
  1.243617338489988   7.905482187863256   8.338058132226596 
 12.446928455166319   1.437247498834911   1.668108393437803 
 -2.489385691033300  10.060732491844131   8.333122382585108 
 -1.245373254666165   3.593182269737599   8.338255606395469 
  3.732620225930796   3.591922990188527   8.346852154942171 
  2.488923274502952  10.061538865562403   8.339501935970633 
  7.468619489630854  10.061538865562403   8.339501935970633 
  8.713604425672502   3.592683132234727   8.343847748617851 
 -4.978508573377512  10.060570497701756   1.672354407091220 
 -0.000262808690357  10.060570497701756   1.672354407091220 
  1.243938338460343   3.592683132234726   1.662109464224709 
  4.978771382065573  10.061603721549080   1.662109464224709 
  6.224922538201483   3.591922990188526   1.659105057903310 
 11.202916018798845   3.593182269737598   1.667701606449265 
 -2.489385691033002   5.748617460039114   8.335296146467932 
 -3.733806841161491  12.216457138165596   8.333602805753275 
  1.245015470549411  12.216790007746965   8.335296146467932 
  2.487620979872388   5.748324939746650   8.346852154942171 
  6.223859444386589  12.217161230379537   8.338255606395469 
 -6.223786852617053  12.216790007746965   1.670661066375575 
  7.469921784260085   5.748324939746650   8.346852154942171 
 -1.244964540904466  12.216457138165596   1.672354407091220 
 -0.000929548390887   5.748987272942254   1.666455276871847 
 -1.244683958817511   7.905169839663505   1.672354407091220 
  4.978771382066589   5.748989995339476   1.661078836978257 
  3.733683319745562  12.217161230379537   1.667701606449265 
  9.958472312524229   5.748987272942254   1.666455276871847 
 -3.734087423247640   7.905169839663506   8.333602805753275 
  2.488918559172830   1.436443847512648   8.339501935970633 
  6.223770628124833   7.906722056083619   8.346852154942171 
  7.468624204960045   1.436443847512648   8.339501935970633 
 12.446928455166319   1.437247498834912   8.337848819407025 
Generated by cif2cell 2.0.0.  :  Failed to get author information, No journal information. Species order: N As B 
 1.0
 14.936314146199660   0.000000000000000   0.000000000000000
 -7.468157073099825  12.935227489513863   0.000000000000000
  0.000000000000001   0.000000000000001  13.341276283792837
 N As B 
 143   1 144
Cartesian
  1.244461636172180   0.718463885756175   1.669200644602959 
  4.978771382067031   7.187438670830273   1.661827063250878 
  6.223446556594685   0.718668233741317   1.670255361689243 
  9.957495404084373   7.186230555536830   1.670255361689243 
 11.202339589725987   0.718683782342020   1.668537287460224 
 -3.734089871936436   9.342102197938759   8.332815508269240 
  1.244722534576980   9.342071196739713   8.335701851155878 
  2.488901678318198   2.873971190073027   8.343407839812688 
  6.223675851910507   9.342789813532713   8.343407839812688 
  7.468641085816262   2.873971190073027   8.343407839812688 
 12.446928455166475   2.874374931820837   8.337419925384284 
 -1.244681510131121   9.342102197938759   1.673141704574842 
 -0.000232335814970   2.874360858524299   1.666508431583268 
  4.978771382066467   2.874956994594549   1.665479799306728 
  3.733866912222973   9.342789813532713   1.662549373031952 
  8.712820229555962   9.342071196739713   1.670255361689243 
  9.957775099948158   2.874360858524299   1.666508431583268 
 -4.978779554724797  11.497984709165559   8.332330855518746 
  0.000008172657439  11.497984709165559   8.332330855518746 
  1.243997208473662   5.030208982413376   8.343407839812688 
  6.224504477082106   5.029765657594123   8.344130149592589 
  4.978771382066121  11.498248268970386   8.339448781261375 
 11.202489660314097   5.030245944586572   8.336756568242016 
 -1.244946896180531   5.030245944586571   1.669200644602959 
 -2.489385691033240  11.497993079654647   1.673141704574842 
  2.489362849712951  11.498260155676277   1.669200644602959 
  3.733038287052401   5.029765657594123   1.661827063250878 
  7.468179914419155  11.498260155676277   1.669200644602959 
  8.713545555659259   5.030208982413375   1.662549373031952 
  0.000047360049296   7.186230555536831   8.335701851155878 
  1.244461636172181   0.718463885756175   8.336756568242016 
  4.978771382067509   7.187438670829446   8.344130149592589 
  6.223446556594686   0.718668233741318   8.335701851155878 
  9.957495404084373   7.186230555536831   8.335701851155878 
 -2.489385691033391   7.186228057201819   1.673626357325548 
 11.202339589725987   0.718683782342020   8.337419925384284 
  3.734096207538590   0.718668233741317   1.670255361689243 
  2.489785792107094   7.186006495711009   1.665479799306728 
  7.467756972027292   7.186006495711009   1.665479799306728 
  8.713081127960603   0.718463885756175   1.669200644602959 
  2.489785792107094   7.186006495711010   8.340477413537194 
 13.691517320607757   0.718683782342020   1.668537287460224 
 -1.244681510131121   9.342102197938759   8.332815508269240 
 -0.000232335814969   2.874360858524300   8.339448781261375 
  4.978771382066468   2.874956994594549   8.340477413537194 
  3.733866912222973   9.342789813532713   8.343407839812688 
  8.712820229555962   9.342071196739713   8.335701851155878 
  9.957775099948158   2.874360858524300   8.339448781261375 
 -3.734089871936437   9.342102197938759   1.673141704574842 
  1.244722534576979   9.342071196739713   1.670255361689243 
  2.488901678318197   2.873971190073026   1.662549373031952 
  6.223675851911776   9.342789813532713   1.662549373031952 
  7.468641085816262   2.873971190073026   1.662549373031952 
 12.446928455166475   2.874374931820836   1.668537287460224 
 -1.244946896180531   5.030245944586572   8.336756568242016 
 -2.489385691033239  11.497993079654647   8.332815508269240 
  2.489362849712951  11.498260155676277   8.336756568242016 
  3.733038287052402   5.029765657594123   8.344130149592589 
  7.468179914419156  11.498260155676277   8.336756568242016 
 -4.978779554724798  11.497984709165559   1.673626357325548 
  8.713545555659259   5.030208982413376   8.343407839812688 
  0.000008172657439  11.497984709165559   1.673626357325548 
  1.243997208473662   5.030208982413375   1.662549373031952 
  0.000047360049296   7.186230555536830   1.670255361689243 
  6.224504477082105   5.029765657594123   1.661827063250878 
  4.978771382066120  11.498248268970386   1.666508431583268 
 11.202489660314097   5.030245944586571   1.669200644602959 
 -2.489385691033390   7.186228057201820   8.332330855518746 
  3.734096207538591   0.718668233741318   8.335701851155878 
  7.467756972027293   7.186006495711010   8.340477413537194 
  8.713081127960603   0.718463885756175   8.336756568242016 
 13.691517320607757   0.718683782342020   8.337419925384284 
 -0.011080514629257   1.427461430394550   5.002978606422314 
  3.671392037660392   8.026614045182836   5.002978606422314 
  4.978771382066668   1.406342505438702   5.002978606422314 
  8.739614428001623   7.920313740288797   5.002978606422314 
  9.968623278762641   1.427461430394550   5.002978606422314 
 -4.978769169481860  10.060770977907803  11.673616748318732 
 -0.000002212584065  10.060770977907803  11.673616748318732 
  1.244726914716500   3.593138416949703  11.673616748318732 
  4.978771382067667  10.060693152119105  11.673616748318732 
  6.223330568023273   3.593048550229315  11.673616748318732 
 11.202210905894155   3.593127318552302  11.673616748318732 
 -2.489385691033300  10.060732491844131   5.002978606422314 
 -1.258708086703562   3.588415774151063   5.002978606422314 
  3.659980766834239   3.477954245777735   5.002978606422314 
  2.456580641967494  10.108467633852007   5.002978606422314 
  7.500962122163072  10.108467633852007   5.002978606422314 
  8.753515590550451   3.569640410449600   5.002978606422314 
 -6.223395352655238  12.216563975137600  11.673616748318732 
 -1.244660621899808  12.216582580910543  11.673616748318732 
 -0.000039803860824   5.749020183803536  11.673616748318732 
  4.978771382066590   5.748989995339477  11.673616748318732 
  3.734083465321845  12.216578060284279  11.673616748318732 
  9.957582567992954   5.749020183803536  11.673616748318732 
 -2.489385691033227   5.753143649466682   5.002978606422314 
 -3.732405954175251  12.203794208002135   5.002978606422314 
  1.241095675522639  12.214526913032753   5.002978606422314 
  2.352601422427219   5.742401695056799   5.002978606422314 
  6.226398954141442  12.231092781472181   5.002978606422314 
  7.604941341703626   5.742401695056799   5.002978606422314 
 -1.244727281717646   7.904843916713588  11.673616748318732 
  0.000019774983518   1.437264607181967  11.673616748318732 
  3.733950914509078   7.904780589444136  11.673616748318732 
  4.978771382066086   1.437265825385150  11.673616748318732 
  8.712834047359957   7.904852080315496  11.673616748318732 
 -3.723821447532481   7.912714508465015   5.002978606422314 
  9.957522989149776   1.437264607181967  11.673616748318732 
  2.464448369933067   1.384969921969059   5.002978606422314 
  1.217928336132514   7.920313740288797   5.002978606422314 
  6.286150726472099   8.026614045182836   5.002978606422314 
  7.493094394198163   1.384969921969059   5.002978606422314 
  1.244708716774954   7.904852080315496  11.673616748318732 
 12.446928455166319   1.437247498834912   5.002978606422314 
 -2.489385691033299  10.060732491844133  11.673616748318732 
 -1.244668141762013   3.593127318552302  11.673616748318732 
  3.734212196111337   3.593048550229315  11.673616748318732 
  2.489339645126496  10.060751868767751  11.673616748318732 
  7.468203119005445  10.060751868767751  11.673616748318732 
  8.712815849416334   3.593138416949703  11.673616748318732 
 -4.966841710675134  10.065688759065740   5.002978606422314 
 -0.011929671392555  10.065688759065740   5.002978606422314 
  1.204027173582694   3.569640410449600   5.002978606422314 
  4.978771382066957  10.107689165119425   5.002978606422314 
  6.297561997298937   3.477954245777735   5.002978606422314 
 11.216250850837245   3.588415774151063   5.002978606422314 
 -2.489385691033465   5.749069525255570  11.673616748318732 
 -3.734110760167058  12.216582580910543  11.673616748318732 
  1.244623970589614  12.216563975137600  11.673616748318732 
  2.489391728551885   5.749140846343946  11.673616748318732 
  6.223459298811756  12.216578060284279  11.673616748318732 
 -6.219867057590416  12.214526913032753   5.002978606422314 
  7.468151035580725   5.749140846343946  11.673616748318732 
 -1.246365427891780  12.203794208002135   5.002978606422314 
 -0.057742370163973   5.753532430196912   5.002978606422314 
 -1.254949934533374   7.912714508465015   5.002978606422314 
  3.731143809992532  12.231092781472181   5.002978606422314 
 10.015285134296702   5.753532430196912   5.002978606422314 
 -3.734044100348192   7.904843916713588  11.673616748318732 
  2.489391933079732   1.437197933448025  11.673616748318732 
  6.223591849625983   7.904780589444136  11.673616748318732 
  7.468150831054562   1.437197933448025  11.673616748318732 
 12.446928455166319   1.437247498834912  11.673616748318732 
  4.978771382066589   5.748989995339477   5.002978606422314 
  1.223252462165437   0.695997235538302   5.002978606422314 
  4.978771382066633   7.548767207355223   5.002978606422314 
  6.228164150283557   0.693035104441230   5.002978606422314 
  9.982053142080460   7.194961564207862   5.002978606422314 
 11.207637359917742   0.721742451390017   5.002978606422314 
 -3.734137797089128   9.342074528338538  11.673616748318732 
  1.244526242485166   9.342165720858352  11.673616748318732 
  2.489247741550510   2.874379349804751  11.673616748318732 
  6.223495406831809   9.342286034114609  11.673616748318732 
  7.468295022582651   2.874379349804751  11.673616748318732 
 12.446928455166454   2.874531937978787  11.673616748318732 
 -1.250617697177308   9.345529457127576   5.002978606422314 
 -0.029862853656229   2.857253671072256   5.002978606422314 
  4.978771382066773   2.828470859412271   5.002978606422314 
  3.697898374413042   9.443764005095245   5.002978606422314 
  8.732660373862988   9.358973317369660   5.002978606422314 
  9.987405617790570   2.857253671072256   5.002978606422314 
 -4.978779827428108  11.497984866611754  11.673616748318732 
  0.000008445359689  11.497984866611754  11.673616748318732 
  1.244523716785919   5.030304602098657  11.673616748318732 
  6.223721089847530   5.030217946424211  11.673616748318732 
  4.978771382066487  11.498148856925564  11.673616748318732 
 11.202426100818785   5.030296656940107  11.673616748318732 
 -1.275008173010288   5.023111586211984   5.002978606422314 
 -2.489385691033186  11.491138561276143   5.002978606422314 
  2.480510746891066  11.527861164266838   5.002978606422314 
  3.420118595308256   4.849101389331553   5.002978606422314 
  7.477032017242252  11.527861164266838   5.002978606422314 
  8.818976039584847   5.010871554112348   5.002978606422314 
 -0.000132646285449   7.186353287417228  11.673616748318732 
  1.244537334107029   0.718493573717619  11.673616748318732 
  4.978771382065969   7.186534093169916  11.673616748318732 
  6.223430270836737   0.718450977744017  11.673616748318732 
  9.957675410415820   7.186353287417228  11.673616748318732 
 -2.489385691032725   7.190116368463911   5.002978606422314 
 11.202203618403161   0.718605279262936  11.673616748318732 
  3.729378613850064   0.693035104441230   5.002978606422314 
  2.449527618115258   7.209249563303072   5.002978606422314 
  7.508015146017637   7.209249563303072   5.002978606422314 
  8.734290301967841   0.695997235538302   5.002978606422314 
  2.489186900301736   7.186352266057110  11.673616748318732 
 13.686219550412012   0.721742451390017   5.002978606422314 
 -1.244633584977515   9.342074528338538  11.673616748318732 
 -0.000146242460356   2.874410564545659  11.673616748318732 
  4.978771382066939   2.874265453904715  11.673616748318732 
  3.734047357303000   9.342286034114609  11.673616748318732 
  8.713016521646253   9.342165720858352  11.673616748318732 
  9.957689006592872   2.874410564545659  11.673616748318732 
 -3.728153684887709   9.345529457127576   5.002978606422314 
  1.224882390268698   9.358973317369660   5.002978606422314 