Se B N                                  
   1.0000000000000000     
     8.7639499999999995  -15.1796066749929999    0.0000000000000000
     8.7639499999999995   15.1796066749929999    0.0000000000000000
     0.0000000000000000    0.0000000000000000   15.0000000000000000
   Se   B    N 
     1    49    47
Selective dynamics
Direct
  0.5237960806226433  0.4921217222166067  0.1110736979584036   T   T   T
  0.9071957651623617  0.9537909048779026  0.1109686269075751   T   T   T
  0.9033088342033356  0.0936254501015337  0.1110525562603994   T   T   T
  0.9024322568555391  0.2359273728997416  0.1110402739412740   T   T   T
  0.9033173922976180  0.3794851102086869  0.1109506722548679   T   T   T
  0.9067488678780472  0.5239397691316203  0.1109473330573182   T   T   T
  0.9109510488203660  0.6690160458415528  0.1109423542324108   T   T   T
  0.9117490100373444  0.8138192089872127  0.1109400717078903   T   T   T
  0.0505958453331158  0.9544115145493279  0.1109171707664142   T   T   T
  0.0475848665623458  0.0954241996996291  0.1109379160533383   T   T   T
  0.0445925693842786  0.2361132134930964  0.1109466651253650   T   T   T
  0.0441284536384771  0.3790416468445675  0.1109117882575700   T   T   T
  0.0458209217044731  0.5232881957795971  0.1109342303523174   T   T   T
  0.0494316155770153  0.6677148433505784  0.1110016884171385   T   T   T
  0.0513578500027080  0.8116651954065699  0.1110146372742960   T   T   T
  0.1925629732944073  0.9538545610916689  0.1109807263475858   T   T   T
  0.1905378593400275  0.0954768777861566  0.1110195082040461   T   T   T
  0.1881023916344828  0.2376006750359707  0.1110555256509127   T   T   T
  0.1849303602570982  0.3782719511908835  0.1109744924532514   T   T   T
  0.1846266238504030  0.5228241782782851  0.1109173673773869   T   T   T
  0.1886240141549254  0.6670107685943112  0.1110369939929035   T   T   T
  0.1919755131229700  0.8106705573177909  0.1110128710546670   T   T   T
  0.3343726071384880  0.9528124686048988  0.1110141719042626   T   T   T
  0.3342635135277692  0.0961127372686842  0.1110828717469313   T   T   T
  0.3299514105931665  0.2365051303538449  0.1111243307570585   T   T   T
  0.3286879276416386  0.3800766045319434  0.1112081036670385   T   T   T
  0.3211050082884526  0.5219895309724664  0.1111381603015045   T   T   T
  0.3276660908737313  0.6665949403484175  0.1110013547986653   T   T   T
  0.3332097129324307  0.8095544571561506  0.1110304572086571   T   T   T
  0.4761350877790899  0.9497059493643386  0.1109680366345233   T   T   T
  0.4766010328950016  0.0938982378902430  0.1110399628848674   T   T   T
  0.4770107483650874  0.2371654733540089  0.1110766847598632   T   T   T
  0.4674119725170398  0.3693967605512173  0.1110959139586149   T   T   T
  0.4587542258303645  0.5507246464839255  0.1115120475751569   T   T   T
  0.4647962425972741  0.6547076819317326  0.1112835800096927   T   T   T
  0.4748229590013660  0.8040281091269977  0.1110253641079302   T   T   T
  0.6178295938538304  0.9487675020401228  0.1110320061266719   T   T   T
  0.6183848938257629  0.0928940687890967  0.1110115906539107   T   T   T
  0.6190845501515446  0.2368104242559111  0.1109792272249761   T   T   T
  0.6199186985056770  0.3804481636655851  0.1110148978572977   T   T   T
  0.6422124315723818  0.5372213906806836  0.1111904101710847   T   T   T
  0.6352272985461276  0.6723992203540026  0.1111237416623882   T   T   T
  0.6179105359955620  0.8046550109121022  0.1110984333000011   T   T   T
  0.7611684039692745  0.9502647795519028  0.1110858229104443   T   T   T
  0.7603076552694303  0.0927192589521725  0.1111160215884479   T   T   T
  0.7607212039225183  0.2360910578137811  0.1110264546195242   T   T   T
  0.7623102526416675  0.3800475652001845  0.1109335563669277   T   T   T
  0.7686231348426895  0.5254107623134886  0.1109345750194274   T   T   T
  0.7766831234588544  0.6744724481329152  0.1110027090601555   T   T   T
  0.7680095965876566  0.8125502853172963  0.1110299266168764   T   T   T
  0.9563358381337788  0.9077636917564167  0.1109072463190301   T   T   T
  0.9526880452136691  0.0479717817567208  0.1109590674540947   T   T   T
  0.9498114434034084  0.1884183060127706  0.1110057203258568   T   T   T
  0.9496479008889821  0.3311209884929858  0.1109479715343742   T   T   T
  0.9517037577722078  0.4748931916126170  0.1109222890147061   T   T   T
  0.9554565359138025  0.6195203981343733  0.1109484685029528   T   T   T
  0.9572158396250694  0.7643341295692534  0.1109651169189655   T   T   T
  0.0979003698101321  0.9065758066663497  0.1109432867489154   T   T   T
  0.0960405318201971  0.0486264900309812  0.1109036117087795   T   T   T
  0.0932958069382495  0.1898857761200634  0.1109413616424622   T   T   T
  0.0907790876743855  0.3309187284537403  0.1108977236832318   T   T   T
  0.0909661019492473  0.4744153732610955  0.1108801593562759   T   T   T
  0.0944693115482635  0.6187432765657278  0.1109865389281927   T   T   T
  0.0974221820544962  0.7629988681518080  0.1110048853712004   T   T   T
  0.2395447995359891  0.9056657513986668  0.1109749343374042   T   T   T
  0.2391289361996878  0.0486489896753041  0.1110087606843383   T   T   T
  0.2357626934967531  0.1897619068320249  0.1110838224899528   T   T   T
  0.2337609370807870  0.3324887304058013  0.1110711628533839   T   T   T
  0.2291367937413172  0.4734916426883090  0.1109287160543486   T   T   T
  0.2335339533344147  0.6181538019097453  0.1109685408702761   T   T   T
  0.2382326583054930  0.7621853195506708  0.1110309991663184   T   T   T
  0.3812573558772094  0.9042541862490147  0.1109858409521385   T   T   T
  0.3816087130288181  0.0477182280406320  0.1110443116095262   T   T   T
  0.3808547238879748  0.1909968510025021  0.1110935295871546   T   T   T
  0.3739077036597014  0.3307473824917863  0.1111089913961457   T   T   T
  0.3714259929215333  0.4784110063799885  0.1113708249013950   T   T   T
  0.3713914654179261  0.6172735987029632  0.1110474038606071   T   T   T
  0.3795932942170710  0.7608228927493094  0.1109929261438510   T   T   T
  0.5227328003281477  0.9001262365657575  0.1109555925653803   T   T   T
  0.5235092803812472  0.0451412351651882  0.1109728392617210   T   T   T
  0.5241368145140577  0.1889665449477080  0.1110182258389356   T   T   T
  0.5249497162496533  0.3318093393921873  0.1110349850187776   T   T   T
  0.5207460389691416  0.7520737178665741  0.1111352725077589   T   T   T
  0.6650190065686407  0.9004188277183943  0.1110531737436771   T   T   T
  0.6652290634462492  0.0443017539650150  0.1110373370386028   T   T   T
  0.6659126030664149  0.1883403854970443  0.1109803216620359   T   T   T
  0.6671498114542040  0.3325413898132340  0.1109417152660763   T   T   T
  0.6744116498734906  0.4780791141452868  0.1110035113817803   T   T   T
  0.6849181875793884  0.6294767033800052  0.1111837192987697   T   T   T
  0.6724766601347520  0.7639041516246646  0.1110617171618973   T   T   T
  0.8121964038488956  0.9062245632017093  0.1110202885149206   T   T   T
  0.8079670905402175  0.0452807781847911  0.1110946849631147   T   T   T
  0.8075935551681953  0.1879557480592174  0.1110787653387688   T   T   T
  0.8085173717721301  0.3314972047235189  0.1109526282304941   T   T   T
  0.8125663900047896  0.4757288734483665  0.1109044185922199   T   T   T
  0.8175711187661913  0.6215006343839112  0.1108999783828261   T   T   T
  0.8182460041436909  0.7677426508395472  0.1109331853540921   T   T   T

  0.00000000E+00  0.00000000E+00  0.00000000E+00
  0.00000000E+00  0.00000000E+00  0.00000000E+00
  0.00000000E+00  0.00000000E+00  0.00000000E+00
  0.00000000E+00  0.00000000E+00  0.00000000E+00
  0.00000000E+00  0.00000000E+00  0.00000000E+00
  0.00000000E+00  0.00000000E+00  0.00000000E+00
  0.00000000E+00  0.00000000E+00  0.00000000E+00
  0.00000000E+00  0.00000000E+00  0.00000000E+00
  0.00000000E+00  0.00000000E+00  0.00000000E+00
  0.00000000E+00  0.00000000E+00  0.00000000E+00
  0.00000000E+00  0.00000000E+00  0.00000000E+00
  0.00000000E+00  0.00000000E+00  0.00000000E+00
  0.00000000E+00  0.00000000E+00  0.00000000E+00
  0.00000000E+00  0.00000000E+00  0.00000000E+00
  0.00000000E+00  0.00000000E+00  0.00000000E+00
  0.00000000E+00  0.00000000E+00  0.00000000E+00
  0.00000000E+00  0.00000000E+00  0.00000000E+00
  0.00000000E+00  0.00000000E+00  0.00000000E+00
  0.00000000E+00  0.00000000E+00  0.00000000E+00
  0.00000000E+00  0.00000000E+00  0.00000000E+00
  0.00000000E+00  0.00000000E+00  0.00000000E+00
  0.00000000E+00  0.00000000E+00  0.00000000E+00
  0.00000000E+00  0.00000000E+00  0.00000000E+00
  0.00000000E+00  0.00000000E+00  0.00000000E+00
  0.00000000E+00  0.00000000E+00  0.00000000E+00
  0.00000000E+00  0.00000000E+00  0.00000000E+00
  0.00000000E+00  0.00000000E+00  0.00000000E+00
  0.00000000E+00  0.00000000E+00  0.00000000E+00
  0.00000000E+00  0.00000000E+00  0.00000000E+00
  0.00000000E+00  0.00000000E+00  0.00000000E+00
  0.00000000E+00  0.00000000E+00  0.00000000E+00
  0.00000000E+00  0.00000000E+00  0.00000000E+00
  0.00000000E+00  0.00000000E+00  0.00000000E+00
  0.00000000E+00  0.00000000E+00  0.00000000E+00
  0.00000000E+00  0.00000000E+00  0.00000000E+00
  0.00000000E+00  0.00000000E+00  0.00000000E+00
  0.00000000E+00  0.00000000E+00  0.00000000E+00
  0.00000000E+00  0.00000000E+00  0.00000000E+00
  0.00000000E+00  0.00000000E+00  0.00000000E+00
  0.00000000E+00  0.00000000E+00  0.00000000E+00
  0.00000000E+00  0.00000000E+00  0.00000000E+00
  0.00000000E+00  0.00000000E+00  0.00000000E+00
  0.00000000E+00  0.00000000E+00  0.00000000E+00
  0.00000000E+00  0.00000000E+00  0.00000000E+00
  0.00000000E+00  0.00000000E+00  0.00000000E+00
  0.00000000E+00  0.00000000E+00  0.00000000E+00
  0.00000000E+00  0.00000000E+00  0.00000000E+00
  0.00000000E+00  0.00000000E+00  0.00000000E+00
  0.00000000E+00  0.00000000E+00  0.00000000E+00
  0.00000000E+00  0.00000000E+00  0.00000000E+00
  0.00000000E+00  0.00000000E+00  0.00000000E+00
  0.00000000E+00  0.00000000E+00  0.00000000E+00
  0.00000000E+00  0.00000000E+00  0.00000000E+00
  0.00000000E+00  0.00000000E+00  0.00000000E+00
  0.00000000E+00  0.00000000E+00  0.00000000E+00
  0.00000000E+00  0.00000000E+00  0.00000000E+00
  0.00000000E+00  0.00000000E+00  0.00000000E+00
  0.00000000E+00  0.00000000E+00  0.00000000E+00
  0.00000000E+00  0.00000000E+00  0.00000000E+00
  0.00000000E+00  0.00000000E+00  0.00000000E+00
  0.00000000E+00  0.00000000E+00  0.00000000E+00
  0.00000000E+00  0.00000000E+00  0.00000000E+00
  0.00000000E+00  0.00000000E+00  0.00000000E+00
  0.00000000E+00  0.00000000E+00  0.00000000E+00
  0.00000000E+00  0.00000000E+00  0.00000000E+00
  0.00000000E+00  0.00000000E+00  0.00000000E+00
  0.00000000E+00  0.00000000E+00  0.00000000E+00
  0.00000000E+00  0.00000000E+00  0.00000000E+00
  0.00000000E+00  0.00000000E+00  0.00000000E+00
  0.00000000E+00  0.00000000E+00  0.00000000E+00
  0.00000000E+00  0.00000000E+00  0.00000000E+00
  0.00000000E+00  0.00000000E+00  0.00000000E+00
  0.00000000E+00  0.00000000E+00  0.00000000E+00
  0.00000000E+00  0.00000000E+00  0.00000000E+00
  0.00000000E+00  0.00000000E+00  0.00000000E+00
  0.00000000E+00  0.00000000E+00  0.00000000E+00
  0.00000000E+00  0.00000000E+00  0.00000000E+00
  0.00000000E+00  0.00000000E+00  0.00000000E+00
  0.00000000E+00  0.00000000E+00  0.00000000E+00
  0.00000000E+00  0.00000000E+00  0.00000000E+00
  0.00000000E+00  0.00000000E+00  0.00000000E+00
  0.00000000E+00  0.00000000E+00  0.00000000E+00
  0.00000000E+00  0.00000000E+00  0.00000000E+00
  0.00000000E+00  0.00000000E+00  0.00000000E+00
  0.00000000E+00  0.00000000E+00  0.00000000E+00
  0.00000000E+00  0.00000000E+00  0.00000000E+00
  0.00000000E+00  0.00000000E+00  0.00000000E+00
  0.00000000E+00  0.00000000E+00  0.00000000E+00
  0.00000000E+00  0.00000000E+00  0.00000000E+00
  0.00000000E+00  0.00000000E+00  0.00000000E+00
  0.00000000E+00  0.00000000E+00  0.00000000E+00
  0.00000000E+00  0.00000000E+00  0.00000000E+00
  0.00000000E+00  0.00000000E+00  0.00000000E+00
  0.00000000E+00  0.00000000E+00  0.00000000E+00
  0.00000000E+00  0.00000000E+00  0.00000000E+00
  0.00000000E+00  0.00000000E+00  0.00000000E+00
  0.00000000E+00  0.00000000E+00  0.00000000E+00
