 N B Se 
 1.0
 17.527899999999772   0.000000000000000   0.000000000000000
 -8.763949999999658  15.179606674993195   0.000000000000000
  0.000000000000001   0.000000000000002  15.000000000000000
 N B Se 
  47  49   1
Cartesian
  8.806963330856505  13.779495794702173   1.663608694785450 
 16.278198490973654   0.728192778565639   1.664386011811425 
 14.996911385849819   2.860115775642369   1.665085804887855 
 13.743405654888779   5.026286367158475   1.664219573015610 
 12.519428109222032   7.208691861311704   1.663834335220590 
 11.317700822613801   9.404075970814970   1.664227027544295 
 10.079397420525835  11.602291455134546   1.664476753784490 
 -6.229197148838258  13.761464166259866   1.664149301233725 
  1.257228710384210   0.738130992655769   1.663554175631700 
 -0.028869873194430   2.882391394678372   1.664120424636930 
 -1.308988419384192   5.023216139316652   1.663465855248480 
 -2.563307872135235   7.201438766673522   1.663202390344140 
 -3.766786492771206   9.392279571064286   1.664798083922895 
 -4.979277665705799  11.582022712009437   1.665073280568000 
 -3.738492070183231  13.747649885243934   1.664624015061060 
  3.765070767749593   0.738472528406920   1.665131410265070 
  2.469361051961222   2.880511107606844   1.666257337349295 
  1.183423720218467   5.047048151427910   1.666067442800760 
 -0.133370274919666   7.187416899904949   1.663930740815235 
 -1.324109231596458   9.383331577641586   1.664528113054140 
 -2.504035819763047  11.569673364233187   1.665464987494770 
 -1.242197667496701  13.726222881476088   1.664787614282070 
  6.270599196461051   0.724343932884425   1.665664674142890 
  5.001696662492638   2.899257074380260   1.666402943807325 
  3.655163316188013   5.020615175008842   1.666634870942190 
  2.317547521965512   7.262090905835893   1.670562373520925 
  1.099957511346159   9.369970439168567   1.665711057909105 
 -0.014340489202734  11.548992261265044   1.664893892157765 
  1.273746919921458  13.663562228910084   1.664333888480700 
  8.780402787668406   0.685226194630925   1.664592588925815 
  7.530924319526437   2.868437827038630   1.665273387584040 
  6.293305671486131   5.036735263062724   1.665524775281670 
  2.536448036750601  11.416183227814395   1.667029087616385 
  3.765161060052020  13.668003647523681   1.665797606155155 
 11.271810144517678   0.672483200201248   1.665560055579045 
 10.021443793810908   2.858932972861720   1.664704824930540 
  8.779359066934413   5.047847500520481   1.664125728991140 
  7.631158505403985   7.257052912254632   1.665052670726700 
  6.488475145485619   9.555208768379837   1.667755789481550 
  5.092285861545046  11.595764559056779   1.665925757428455 
  6.293990586351571  13.756132428619454   1.665304327723815 
 13.765127890307118   0.687344402782740   1.666420274446725 
 12.508184297428908   2.853094327843030   1.666181480081535 
 11.266386713347963   5.031997181562715   1.664289423457410 
 10.073318366907120   7.221377182883825   1.663566278883300 
  8.883504327913069   9.434135178206521   1.663499675742390 
  7.613675931205028  11.654031467360957   1.663997780311380 
  7.542260851384786  14.478170786232416   1.664529403613625 
 15.012578151615138   1.421197507310488   1.665788343905985 
 13.750086655213382   3.581284724482532   1.665604109119110 
 12.507468388839920   5.760434711984314   1.664260083823020 
 11.301621541598530   7.953199616804732   1.664209995859770 
 10.103835713665436  10.155400435133993   1.664135313486165 
  8.848774616430145  12.353455496979981   1.664101075618350 
 -7.477575875519944  14.487591396943346   1.663757561496210 
 -0.002230132339397   1.448501818716372   1.664068740800070 
 -1.287670300482044   3.584105711593893   1.664199976880475 
 -2.548422918333463   5.753703112542202   1.663676823863550 
 -3.782927049858598   7.943308989601116   1.664013455284755 
 -4.985387086709720  10.135648693116469   1.665025326257085 
 -6.213197930220678  12.320758418053225   1.665219559114440 
 -4.984309141072015  14.479137062519802   1.664710895213790 
  2.502973961652076   1.449301451350259   1.665292623060690 
  1.214719474348595   3.606684792758914   1.665832884763695 
 -0.073715605088873   5.742019435259843   1.664617386798765 
 -1.345887957034361   7.936265386440887   1.663760510660805 
 -2.539466167715817  10.124961115246544   1.665554909893545 
 -3.739748634336915  12.305660203081594   1.665193065820005 
 -2.489551213566951  14.463318508451669   1.665212578563945 
  5.016610214977455   1.458953548195583   1.666243076203965 
  3.710636192571398   3.590054855389361   1.666864961355885 
  2.430236768622217   5.769413363161831   1.668121555005570 
  1.053606324813137   7.923595768626212   1.667072404522575 
 -0.099334859107510  10.119737783328796   1.665020321979975 
 -1.252261451460116  12.288718241618003   1.665456858129855 
  0.022472750151730  14.416162768251670   1.664520549517845 
  7.530895782522034   1.425338318648832   1.665599443273005 
  6.282490346067513   3.600078602402436   1.666150271397945 
  4.955375573448606   5.607297532184116   1.666438709379225 
  3.214474929379343   8.359783519850657   1.672680713627355 
  2.409076671555265   9.938205098820257   1.669253700145395 
  1.276187196096656  12.204830452186336   1.665380461618950 
  2.514304388606194  14.401917506984871   1.665480091900080 
 10.024869606324275   1.410095426658254   1.665173859808665 
  8.775857368943612   3.594689096742997   1.664688408374640 
  7.531644271580642   5.775053484667017   1.665223467859470 
  6.548453872501611   8.154809407925638   1.667856152566275 
  5.241327418965297  10.206755693545844   1.666856124935820 
  3.778717800993629  12.214346574708067   1.666476499500015 
  5.013610653179304  14.424645590697004   1.666287343656660 
 12.514009601303004   1.407441882090828   1.666740323826720 
 11.264754964106324   3.583769397096275   1.665396819292860 
 10.030980018241687   5.768972557527640   1.664003345503920 
  8.867675794831888   7.975528714727101   1.664018625291405 
  7.702581307860041  10.238226475777397   1.665040635902325 
  6.340445335022380  12.334193734770052   1.665448899253140 
  4.868115154125441   7.470214179468354   1.666105469376060 
