 B N C O 
 1.0
 17.527899999999772   0.000000000000000   0.000000000000000
 -8.763949999999658  15.179606674993195   0.000000000000000
  0.000000000000001   0.000000000000002  15.000000000000000
 B N C O 
  48  48   1   1
Cartesian
  7.510145559142654  14.454187705865955   1.662100659636420 
 15.025051218956936   1.445040871449613   1.665423315235215 
 13.774118066490502   3.614170339804156   1.672951408385235 
 12.521695055224470   5.782826282380423   1.671867216535170 
 11.267342988946293   7.951253328309437   1.665795076386930 
 10.016540004851763  10.119737783328796   1.665495277609800 
  8.762017578414039  12.287047755854331   1.667692242715050 
 -7.513279947403570  14.457552437432927   1.663591216979640 
  0.001346748883400   1.448566662684140   1.662100659636420 
 -1.248664512519496   3.616693641938083   1.661732553529470 
 -2.500551778337126   5.784278836380270   1.664948809035180 
 -3.754157003894500   7.951842563497914   1.667989994966535 
 -5.008696821015008  10.119737783328796   1.667050207788900 
 -6.261219432923016  12.289131645287101   1.667244864881340 
 -5.009342198070421  14.457446620890227   1.667244864881340 
  2.504081008785287   1.447983666714080   1.667692242715050 
  1.256632820678479   3.623359314770545   1.659478860974775 
  0.004199830766375   5.787170724874962   1.654387013431680 
 -1.246184801498370   7.953629004453025   1.659768397709175 
 -2.506036823144317  10.119737783328796   1.669869804409860 
 -3.758041363431594  12.289464430105511   1.669008469233900 
 -2.504366124168119  14.457427151142738   1.667050207788900 
  5.008252288765187   1.445190362064341   1.665495277609800 
  3.756600748739795   3.613114422760223   1.662724572457005 
  2.511919080564524   5.795885034718379   1.682993859733410 
  1.258082865978961   7.964427892748923   1.674107703754680 
 -0.006998079030143  10.123798580124447   1.673731612757775 
 -1.253036125232716  12.290060015951438   1.669869804409860 
  0.000391544847522  14.454911409372713   1.667989994966535 
  7.511651833909627   1.446205430218797   1.665795076386945 
  6.258377550937126   3.612918328020719   1.646926301511375 
  5.004967408567906   5.748259975969798   1.617437657895525 
  2.495612264928885  10.107891687590481   1.674107703754680 
  1.252830542795956  12.282050549634775   1.659768397709175 
  2.504359409614313  14.453039301281919   1.664948809035180 
 10.016740775059338   1.444118198496847   1.671867216535170 
  8.765834569734437   3.613096011842866   1.663535161562310 
  7.519492185966362   5.778377399565352   1.618697665231695 
  6.288312251188924   7.971078447050694   1.617437657895525 
  5.000543576454024  10.106309102589883   1.682993859733410 
  3.754230765264470  12.282414833380823   1.654387013431680 
  5.007486885776990  14.452665723630634   1.661732553529470 
 12.521063419031268   1.443816025744340   1.672951408385235 
 11.269339467298952   3.613402062267916   1.675849589691315 
 10.017852065959616   5.781653927270287   1.663535161562325 
  8.764277435256339   7.953264246372549   1.646926301511375 
  7.513236924801196  10.119737783328796   1.662724572457005 
  6.254362910369839  12.279681752631472   1.659478860974760 
  8.762186514441971  13.731688519993865   1.663495005053505 
 16.277539245399883   0.721910305295027   1.662735667613985 
 15.027715518669375   2.892156874312714   1.666822139368155 
 13.776318995446616   5.059868891664398   1.671134668919700 
 12.520121930634492   7.229434474653223   1.670153540779590 
 11.265279001810056   9.396647802473785   1.665731786290380 
 10.012978925648998  11.564129256561090   1.666207588344630 
 -6.261527528305242  13.734846574376846   1.666842365526870 
  1.253064448390267   0.725507581356080   1.663495005053505 
  0.006673993351681   2.898149114469367   1.658573617742595 
 -1.244955505136786   5.064644549398913   1.659112491263160 
 -2.497262934100109   7.230563995767301   1.662775135773300 
 -3.756824449171282   9.397369552678500   1.667572370601495 
 -5.009973429196235  11.565877116565050   1.667890260488295 
 -3.757367828253234  13.735453659243637   1.667890260488295 
  3.755622040334866   0.726069210106383   1.666207588344645 
  2.508140280381507   2.899442690805998   1.667862571111440 
  1.264898052033233   5.078148738713807   1.657292002489440 
  0.017921339288411   7.232987569810937   1.652058914176290 
 -1.251820745289582   9.397782730916427   1.669040965357920 
 -2.505376808556228  11.566231945212978   1.670046990461190 
 -1.252810699616027  13.734448589758630   1.667572370601495 
  6.258866079886373   0.725286258033367   1.665731786290380 
  5.007299907669982   2.897436604604806   1.659344491617900 
  3.761345470636038   5.075339554568399   1.664583153744570 
  2.544982988770007   7.257109474962265   1.703042372619255 
  1.249502588530899   9.398351314529846   1.684883596883640 
 -0.000666670525958  11.564845156504303   1.669040965357920 
  1.253478715248278  13.727039098533401   1.662775135773300 
  8.763149341594223   0.722167067822245   1.670153540779590 
  7.507902977702802   2.896245395598411   1.658257301989800 
  6.252400136647880   5.075683339527227   1.618294786648095 
  3.751612617344695   9.347053297601851   1.703042372619255 
  2.508971975252580  11.547613835558048   1.652058914176290 
  3.755373692835569  13.725468774887464   1.659112491263160 
 11.270122211383976   0.719051289029888   1.671134668919700 
 10.016519615097620   2.890354678298188   1.673758303836720 
  8.763949999999962   5.059868891664398   1.650403092386070 
  7.494491641058525   7.227048932815785   1.618294786648110 
  6.249262034551437   9.384537448292491   1.664583153744570 
  4.998605500416288  11.545119739942068   1.657292002489440 
  6.257428525929358  13.724773550535136   1.658573617742595 
 13.773138720789065   0.719166118387409   1.666822139368155 
 12.521713058052228   2.890337565589536   1.677425654456430 
 11.269113802873907   5.059868891664398   1.673758303836720 
 10.009691687017419   7.229470549903088   1.658257301989785 
  8.758358534731574   9.394460728844930   1.659344491617900 
  7.507041399474947  11.557793411088696   1.667862571111440 
  3.712029723558869   7.976616877175821   1.943239841629545 
  4.988379574773652   7.239709680045579   1.539318695660280 
