 B As N 
 1.0
 14.936314146199660   0.000000000000000   0.000000000000000
 -7.468157073099825  12.935227489513863   0.000000000000000
  0.000000000000001   0.000000000000001  13.341276283792837
 B As N 
 143   1 144
Cartesian
  1.216943537727723   0.680283493517322   5.002978606422314 
  5.038449081501918   7.292350948649641   5.002978606422314 
  6.251213535372092   0.680283493517322   5.002978606422314 
  9.969847792139467   7.189319990644473   5.002978606422314 
 11.202235609649751   0.718623749417456   5.002978606422314 
 -3.734078536549858   9.342108742426666  11.673616748318732 
  1.244619512684641   9.342580405056617  11.673616748318732 
  2.489028943818369   2.874064298005718  11.673616748318732 
  6.223537560415198   9.342580405056617  11.673616748318732 
  7.468731024112666   2.874163626898011  11.673616748318732 
 12.446678025133213   2.874288594736311  11.673616748318732 
 -1.253514879769994   9.351223961039446   5.002978606422314 
 -0.022205602610777   2.861674587024860   5.002978606422314 
  5.040829479607762   2.769755866681712   5.002978606422314 
  3.734078536549972   9.367749563716435   5.002978606422314 
  8.721671952869816   9.351223961039446   5.002978606422314 
  9.965336098346430   2.867253842675269   5.002978606422314 
 -4.978866295262569  11.497853814915441  11.673616748318732 
  0.000162179641162  11.498073625138424  11.673616748318732 
  1.244141475058775   5.030272643603164  11.673616748318732 
  6.224015598041166   5.030272643603164  11.673616748318732 
  4.978717846899404  11.498300070916251  11.673616748318732 
 11.202235609649740   5.030178977003068  11.673616748318732 
 -1.291771135008158   5.025504768389426   5.002978606422314 
 -2.485902697280214  11.485782275596085   5.002978606422314 
  2.491760048104631  11.508349793585104   5.002978606422314 
  7.463456544163281  11.500693842325797   5.002978606422314 
  8.759928208108095   5.025504768389426   5.002978606422314 
 -0.000336170846058   7.186431582502860  11.673616748318732 
  1.244321040113120   0.718324410007060  11.673616748318732 
  4.978966005309558   7.186761796157261  11.673616748318732 
  6.223836032986712   0.718324410007060  11.673616748318732 
  9.957699492147672   7.186218384817168  11.673616748318732 
 -2.501690719039615   7.189319990644473   5.002978606422314 
 11.202235609649751   0.718623749417457  11.673616748318732 
  3.734078536549908   0.674883835182879   5.002978606422314 
  2.429707991597920   7.292350948649641   5.002978606422314 
  7.506036949986335   7.208107451291677   5.002978606422314 
  8.723017609901103   0.715495101505779   5.002978606422314 
  2.489191067790265   7.186761796157261  11.673616748318732 
 13.681453609398373   0.715495101505779   5.002978606422314 
 -1.244754660335115   9.342254027547400  11.673616748318732 
 -0.000573951012726   2.874163626898011  11.673616748318732 
  4.979128129281466   2.874064298005718  11.673616748318732 
  3.734078536549974   9.342771483970134  11.673616748318732 
  8.712911733434954   9.342254027547400  11.673616748318732 
  9.957793194166278   2.874288594736311  11.673616748318732 
 -3.734078536549858   9.342108742426664   5.002978606422314 
  1.225363863813977   9.385310475859393   5.002978606422314 
  2.427327593492070   2.769755866681712   5.002978606422314 
  6.242793209285860   9.385310475859393   5.002978606422314 
  7.490362675710714   2.861674587024860   5.002978606422314 
 12.439135120953047   2.867253842675269   5.002978606422314 
 -1.245137983752097   5.030193922702467  11.673616748318732 
 -2.489290777837145  11.497853814915441  11.673616748318732 
  2.489439226200543  11.498300070916251  11.673616748318732 
  3.734078536549918   5.030366245922021  11.673616748318732 
  7.467994893458679  11.498073625138424  11.673616748318732 
 -4.982254375819487  11.485782275596085   5.002978606422314 
  8.713295056852051   5.030193922702467  11.673616748318732 
  0.004700528936559  11.500693842325797   5.002978606422314 
  1.122957048540125   5.028991922434802   5.002978606422314 
 -0.037879876886500   7.208107451291677   5.002978606422314 
  6.345200024559815   5.028991922434802   5.002978606422314 
  4.976397024995284  11.508349793585104   5.002978606422314 
 11.202235609649748   5.024938542628306   5.002978606422314 
 -2.489542419047821   7.186218384817168  11.673616748318732 
  3.734078536549916   0.718235572760526  11.673616748318732 
  7.468493243945894   7.186431582502860  11.673616748318732 
  8.713153883816847   0.718510072113594  11.673616748318732 
 13.691317335482642   0.718510072113594  11.673616748318732 
 -0.000754010179532   1.436246375259164   1.666023106173270 
  3.734078536549926   7.906945764951026   1.664074229633354 
  4.979251007118258   1.434771283181239   1.665587861868489 
  8.714189964013070   7.905634919162348   1.666299371023991 
  9.957834335269157   1.437079160161011   1.666499513436821 
 -4.978405743067442  10.060521390069571   8.339486558085140 
 -0.000851237455957  10.061239894942208   8.339725336649792 
  1.242887597064833   3.592076486407603   8.341882983211274 
  4.979261375425697  10.061886045602181   8.339934106671357 
  6.225269476035002   3.592076486407603   8.341882983211274 
 11.202235609649694   3.593186397574348   8.339564796081163 
 -2.489751330032378  10.060521390069571   1.666470654759502 
 -1.245936849055316   3.592966316904886   1.666023106173270 
  3.734078536549856   3.590190657350464   1.658615142046753 
  2.488895697674141  10.061886045602181   1.666023106173270 
  7.469008310555690  10.061239894942208   1.666231876194837 
  8.714093922155135   3.592966316904886   1.666023106173270 
 -6.223478032828107  12.215612845285898   8.339725336649792 
 -1.244679040271726  12.215612845285898   8.339725336649792 
 -0.002384278187210   5.749812735687177   8.340369350976138 
  4.981307182163166   5.750454040207839   8.347342070797874 
  3.734078536549914  12.216940417444235   8.339457699407806 
  9.958407806833932   5.749473487051896   8.339725336649792 
 -2.490250733734098   5.749473487051895   1.666231876194837 
 -3.734078536549910  12.215056388955409   1.666299371023991 
  1.244634258476228  12.216569914852835   1.666392416763451 
  2.486849890936668   5.750454040207838   1.658615142046753 
  6.223522814623611  12.216569914852835   1.666392416763451 
  7.470541351287045   5.749812735687176   1.665587861868489 
 -1.246032890913350   7.905634919162349   8.339657841820637 
 -0.000754010179532   1.436246375259164   8.339934106671357 
  3.734078536549927   7.906945764951027   8.341882983211274 
  4.979251007118259   1.434771283181240   8.340369350976138 
  8.714189964013070   7.905634919162349   8.339657841820637 
 -3.734078536549919   7.905283447140954   1.666470654759502 
  9.957834335269157   1.437079160161011   8.339457699407806 
  2.488906065981469   1.434771283181239   1.665587861868489 
  1.242788192381125   7.906514718897815   1.665587861868489 
  6.225368880718592   7.906514718897815   1.665587861868489 
  7.468911083279362   1.436246375259164   1.666023106173270 
  1.242788192381126   7.906514718897816   8.340369350976138 
 12.446636884030214   1.437079160161011   1.666499513436821 
 -2.489751330032378  10.060521390069571   8.339486558085140 
 -1.245936849055315   3.592966316904887   8.339934106671357 
  3.734078536549857   3.590190657350464   8.347342070797874 
  2.488895697674141  10.061886045602181   8.339934106671357 
  7.469008310555691  10.061239894942208   8.339725336649792 
  8.714093922155135   3.592966316904887   8.339934106671357 
 -4.978405743067443  10.060521390069571   1.666470654759502 
 -0.000851237455957  10.061239894942208   1.666231876194837 
  1.242887597064832   3.592076486407602   1.664074229633354 
  4.979261375425696  10.061886045602181   1.666023106173270 
  6.225269476035002   3.592076486407602   1.664074229633354 
 11.202235609649694   3.593186397574347   1.666392416763451 
 -2.490250733734097   5.749473487051896   8.339725336649792 
 -3.734078536549910  12.215056388955409   8.339657841820637 
  1.244634258476228  12.216569914852835   8.339564796081163 
  2.486849890936669   5.750454040207839   8.347342070797874 
  6.223522814623612  12.216569914852835   8.339564796081163 
 -6.223478032828107  12.215612845285898   1.666231876194837 
  7.470541351287046   5.749812735687177   8.340369350976138 
 -1.244679040271726  12.215612845285898   1.666231876194837 
 -0.002384278187211   5.749812735687176   1.665587861868489 
 -1.246032890913350   7.905634919162348   1.666299371023991 
  4.981307182163166   5.750454040207838   1.658615142046753 
  3.734078536549913  12.216940417444235   1.666499513436821 
  9.958407806833932   5.749473487051895   1.666231876194837 
 -3.734078536549919   7.905283447140955   8.339486558085140 
  2.488906065981469   1.434771283181240   8.340369350976138 
  6.225368880718593   7.906514718897816   8.340369350976138 
  7.468911083279363   1.436246375259164   8.339934106671357 
 12.446636884030214   1.437079160161011   8.339457699407806 
  3.734078536549917   5.030366245922021   5.002978606422314 
  1.244698060168087   0.718401294481608   1.669602744542864 
  4.978845587790309   7.186361140911826   1.671465093566559 
  6.223459012931744   0.718401294481608   1.669602744542864 
  9.957649981029174   7.186348825651306   1.669204855339344 
 11.202235609649751   0.718623749417456   1.668815100502834 
 -3.734078536549858   9.342108742426664   8.336911984670355 
  1.244497586565281   9.342215453873990   8.336354468301764 
  2.489315712679448   2.874368910259165   8.334492119278069 
  6.223659486534558   9.342215453873990   8.336354468301764 
  7.468208531019346   2.874465288426088   8.336106863209812 
 12.446897315115239   2.874575955686824   8.337081091840052 
 -1.244842869851909   9.342145929243939   1.669204855339344 
 -0.000051457919407   2.874465288426087   1.669850349634802 
  4.978841360420384   2.874368910259164   1.671465093566559 
  3.734078536549973   9.342168160913976   1.669850349634802 
  8.712999942951761   9.342145929243939   1.669204855339344 
  9.957573904184269   2.874575955686823   1.668876121004577 
 -4.978728574627271  11.497831472384744   8.336752357505283 
 -0.000107319245841  11.497918029883467   8.337053150886513 
  1.244548661439103   5.030368686595150   8.334492119278069 
  6.223608411660837   5.030368686595150   8.334492119278069 
  4.978857063791607  11.497966479745763   8.337081091840052 
 11.202235609649755   5.030490167512983   8.337053150886513 
 -1.244882889816505   5.030481989410542   1.669602744542864 
 -2.489428498472429  11.497831472384744   1.669204855339344 
  2.489300009308337  11.497966479745763   1.668876121004577 
  3.734078536549917   5.030366245922020   1.668511516022117 
  7.468264392345696  11.497918029883467   1.668904061958101 
  8.713039962916429   5.030481989410542   1.669602744542864 
 -0.000195772686542   7.186350523587669   8.335578476957625 
  1.244698060168087   0.718401294481609   8.336354468301764 
  4.978845587790310   7.186361140911827   8.334492119278069 
  6.223459012931745   0.718401294481609   8.336354468301764 
  9.957649981029174   7.186348825651307   8.336752357505283 
 -2.489492907929339   7.186348825651306   1.669204855339344 
 11.202235609649751   0.718623749417456   8.337142112341793 
  3.734078536549916   0.718397690590906   1.670378735887002 
  2.489311485309512   7.186361140911826   1.671465093566559 
  7.468352845786378   7.186350523587668   1.670378735887002 
  8.712795376942626   0.718556302333553   1.668876121004577 
  2.489311485309513   7.186361140911827   8.334492119278069 
 13.691675842356865   0.718556302333553   1.668876121004577 
 -1.244842869851909   9.342145929243939   8.336752357505283 
 -0.000051457919407   2.874465288426088   8.336106863209812 
  4.978841360420385   2.874368910259165   8.334492119278069 
  3.734078536549973   9.342168160913976   8.336106863209812 
  8.712999942951761   9.342145929243939   8.336752357505283 
  9.957573904184269   2.874575955686824   8.337081091840052 
 -3.734078536549859   9.342108742426664   1.669045228174272 
  1.244497586565281   9.342215453873990   1.669602744542864 
  2.489315712679447   2.874368910259164   1.671465093566559 
  6.223659486534557   9.342215453873990   1.669602744542864 
  7.468208531019346   2.874465288426087   1.669850349634802 
 12.446897315115239   2.874575955686823   1.668876121004577 
 -1.244882889816505   5.030481989410543   8.336354468301764 
 -2.489428498472428  11.497831472384744   8.336752357505283 
  2.489300009308338  11.497966479745763   8.337081091840052 
  3.734078536549917   5.030366245922021   8.337445696822511 
  7.468264392345697  11.497918029883467   8.337053150886513 
 -4.978728574627272  11.497831472384744   1.669204855339344 
  8.713039962916429   5.030481989410543   8.336354468301764 
 -0.000107319245841  11.497918029883467   1.668904061958101 
  1.244548661439103   5.030368686595149   1.671465093566559 
 -0.000195772686542   7.186350523587668   1.670378735887002 
  6.223608411660836   5.030368686595149   1.671465093566559 
  4.978857063791606  11.497966479745763   1.668876121004577 
 11.202235609649755   5.030490167512982   1.668904061958101 
 -2.489492907929338   7.186348825651307   8.336752357505283 
  3.734078536549916   0.718397690590906   8.335578476957625 
  7.468352845786379   7.186350523587669   8.335578476957625 
  8.712795376942626   0.718556302333554   8.337081091840052 
 13.691675842356865   0.718556302333554   8.337081091840052 
 -0.009151222192183   1.429181011146937   5.002978606422314 
  3.734078536549919   7.917078177864768   5.002978606422314 
  5.002267262405370   1.368593132108861   5.002978606422314 
  8.733661443171702   7.916876782896107   5.002978606422314 
  9.961267897778134   1.435096791922174   5.002978606422314 
 -4.978816293723281  10.060758421601246  11.673616748318732 
  0.000065688167320  10.060759093499609  11.673616748318732 
  1.244704470881483   3.593125458994721  11.673616748318732 
  4.978750440174002  10.060758339212512  11.673616748318732 
  6.223452602218367   3.593125458994721  11.673616748318732 
 11.202235609649689   3.593102259864676  11.673616748318732 
 -2.493143090964965  10.058563155982132   5.002978606422314 
 -1.256254239869816   3.589226800037081   5.002978606422314 
  3.734078536549857   3.340213717884968   5.002978606422314 
  2.486975518872284  10.072690926582226   5.002978606422314 
  7.480892608971202  10.076047426931204   5.002978606422314 
  8.724411312969650   3.589226800037081   5.002978606422314 
 -6.223520109376254  12.216647326890328  11.673616748318732 
 -1.244636963723550  12.216647326890328  11.673616748318732 
  0.000050882299749   5.748932464803060  11.673616748318732 
  4.978754008918226   5.748979964947593  11.673616748318732 
  3.734078536549921  12.216613342080013  11.673616748318732 
  9.957532957758833   5.748919806890070  11.673616748318732 
 -2.509016581811659   5.752361825391387   5.002978606422314 
 -3.734078536549917  12.192572661487906   5.002978606422314 
  1.247588891059743  12.218275772770292   5.002978606422314 
  2.270363510999266   5.875442509940587   5.002978606422314 
  6.220568182040082  12.218275772770292   5.002978606422314 
  7.539361438934780   5.762969149444738   5.002978606422314 
 -1.244630302579019   7.904825134409961  11.673616748318732 
 -0.000032855423900   1.437252711361656  11.673616748318732 
  3.734078536549926   7.904847819776792  11.673616748318732 
  4.978795763822644   1.437320329467311  11.673616748318732 
  8.712787375678751   7.904825134409961  11.673616748318732 
 -3.734078536549912   7.909199915315844   5.002978606422314 
  9.957551079694799   1.437242697843117  11.673616748318732 
  2.465889810694341   1.368593132108861   5.002978606422314 
  1.196984360020510   7.959536456212645   5.002978606422314 
  6.271172713079206   7.959536456212645   5.002978606422314 
  7.477308295292014   1.429181011146937   5.002978606422314 
  1.244768109572486   7.904845943495863  11.673616748318732 
 12.443203321521255   1.435096791922174   5.002978606422314 
 -2.489340779376539  10.060758421601246  11.673616748318732 
 -1.244704759047990   3.593087687192066  11.673616748318732 
  3.734078536549873   3.593138807870956  11.673616748318732 
  2.489406632925839  10.060758339212512  11.673616748318732 
  7.468091384932429  10.060759093499609  11.673616748318732 
  8.712861832147823   3.593087687192066  11.673616748318732 
 -4.975013982134873  10.058563155982132   5.002978606422314 
 -0.012735535871469  10.076047426931204   5.002978606422314 
  1.234112670079911   3.587010279950739   5.002978606422314 
  4.981181554227553  10.072690926582226   5.002978606422314 
  6.234044403019922   3.587010279950739   5.002978606422314 
 11.202235609649694   3.589774681739432   5.002978606422314 
 -2.489375884658981   5.748919806890070  11.673616748318732 
 -3.734078536549909  12.216675958460188  11.673616748318732 
  1.244707123870219  12.216611983707679  11.673616748318732 
  2.489403064181611   5.748979964947593  11.673616748318732 
  6.223449949229611  12.216611983707679  11.673616748318732 
 -6.230359582490157  12.197916974957414   5.002978606422314 
  7.468106190800072   5.748932464803060  11.673616748318732 
 -1.237797490609662  12.197916974957414   5.002978606422314 
 -0.071204365834945   5.762969149444738   5.002978606422314 
 -1.265504370071986   7.916876782896107   5.002978606422314 
  5.197793562100568   5.875442509940587   5.002978606422314 
  3.734078536549920  12.220905153921896   5.002978606422314 
  9.977173654911509   5.752361825391387   5.002978606422314 
 -3.734078536549911   7.904809384077621  11.673616748318732 
  2.489361309277084   1.437320329467311  11.673616748318732 
  6.223388963527248   7.904845943495863  11.673616748318732 
  7.468189928523748   1.437252711361656  11.673616748318732 
 12.446920139604572   1.437242697843117  11.673616748318732 
Generated by cif2cell 2.0.0.  :  Failed to get author information, No journal information. Species order: B As N 
 1.0
 14.936314146199660   0.000000000000000   0.000000000000000
 -7.468157073099825  12.935227489513863   0.000000000000000
  0.000000000000001   0.000000000000001  13.341276283792837
 B As N 
 143   1 144
Cartesian
  1.216943537727723   0.680283493517322   5.002978606422314 
  5.038449081501918   7.292350948649641   5.002978606422314 
  6.251213535372092   0.680283493517322   5.002978606422314 
  9.969847792139467   7.189319990644473   5.002978606422314 
 11.202235609649751   0.718623749417456   5.002978606422314 
 -3.734078536549858   9.342108742426666  11.673616748318732 
  1.244619512684641   9.342580405056617  11.673616748318732 
  2.489028943818369   2.874064298005718  11.673616748318732 
  6.223537560415198   9.342580405056617  11.673616748318732 
  7.468731024112666   2.874163626898011  11.673616748318732 
 12.446678025133213   2.874288594736311  11.673616748318732 
 -1.253514879769994   9.351223961039446   5.002978606422314 
 -0.022205602610777   2.861674587024860   5.002978606422314 
  5.040829479607762   2.769755866681712   5.002978606422314 
  3.734078536549972   9.367749563716435   5.002978606422314 
  8.721671952869816   9.351223961039446   5.002978606422314 
  9.965336098346430   2.867253842675269   5.002978606422314 
 -4.978866295262569  11.497853814915441  11.673616748318732 
  0.000162179641162  11.498073625138424  11.673616748318732 
  1.244141475058775   5.030272643603164  11.673616748318732 
  6.224015598041166   5.030272643603164  11.673616748318732 
  4.978717846899404  11.498300070916251  11.673616748318732 
 11.202235609649740   5.030178977003068  11.673616748318732 
 -1.291771135008158   5.025504768389426   5.002978606422314 
 -2.485902697280214  11.485782275596085   5.002978606422314 
  2.491760048104631  11.508349793585104   5.002978606422314 
  7.463456544163281  11.500693842325797   5.002978606422314 
  8.759928208108095   5.025504768389426   5.002978606422314 
 -0.000336170846058   7.186431582502860  11.673616748318732 
  1.244321040113120   0.718324410007060  11.673616748318732 
  4.978966005309558   7.186761796157261  11.673616748318732 
  6.223836032986712   0.718324410007060  11.673616748318732 
  9.957699492147672   7.186218384817168  11.673616748318732 
 -2.501690719039615   7.189319990644473   5.002978606422314 
 11.202235609649751   0.718623749417457  11.673616748318732 
  3.734078536549908   0.674883835182879   5.002978606422314 
  2.429707991597920   7.292350948649641   5.002978606422314 
  7.506036949986335   7.208107451291677   5.002978606422314 
  8.723017609901103   0.715495101505779   5.002978606422314 
  2.489191067790265   7.186761796157261  11.673616748318732 
 13.681453609398373   0.715495101505779   5.002978606422314 
 -1.244754660335115   9.342254027547400  11.673616748318732 
 -0.000573951012726   2.874163626898011  11.673616748318732 
  4.979128129281466   2.874064298005718  11.673616748318732 
  3.734078536549974   9.342771483970134  11.673616748318732 
  8.712911733434954   9.342254027547400  11.673616748318732 
  9.957793194166278   2.874288594736311  11.673616748318732 
 -3.734078536549858   9.342108742426664   5.002978606422314 
  1.225363863813977   9.385310475859393   5.002978606422314 
  2.427327593492070   2.769755866681712   5.002978606422314 
  6.242793209285860   9.385310475859393   5.002978606422314 
  7.490362675710714   2.861674587024860   5.002978606422314 
 12.439135120953047   2.867253842675269   5.002978606422314 
 -1.245137983752097   5.030193922702467  11.673616748318732 
 -2.489290777837145  11.497853814915441  11.673616748318732 
  2.489439226200543  11.498300070916251  11.673616748318732 
  3.734078536549918   5.030366245922021  11.673616748318732 
  7.467994893458679  11.498073625138424  11.673616748318732 
 -4.982254375819487  11.485782275596085   5.002978606422314 
  8.713295056852051   5.030193922702467  11.673616748318732 
  0.004700528936559  11.500693842325797   5.002978606422314 
  1.122957048540125   5.028991922434802   5.002978606422314 
 -0.037879876886500   7.208107451291677   5.002978606422314 
  6.345200024559815   5.028991922434802   5.002978606422314 
  4.976397024995284  11.508349793585104   5.002978606422314 
 11.202235609649748   5.024938542628306   5.002978606422314 
 -2.489542419047821   7.186218384817168  11.673616748318732 
  3.734078536549916   0.718235572760526  11.673616748318732 
  7.468493243945894   7.186431582502860  11.673616748318732 
  8.713153883816847   0.718510072113594  11.673616748318732 
 13.691317335482642   0.718510072113594  11.673616748318732 
 -0.000754010179532   1.436246375259164   1.666023106173270 
  3.734078536549926   7.906945764951026   1.664074229633354 
  4.979251007118258   1.434771283181239   1.665587861868489 
  8.714189964013070   7.905634919162348   1.666299371023991 
  9.957834335269157   1.437079160161011   1.666499513436821 
 -4.978405743067442  10.060521390069571   8.339486558085140 
 -0.000851237455957  10.061239894942208   8.339725336649792 
  1.242887597064833   3.592076486407603   8.341882983211274 
  4.979261375425697  10.061886045602181   8.339934106671357 
  6.225269476035002   3.592076486407603   8.341882983211274 
 11.202235609649694   3.593186397574348   8.339564796081163 
 -2.489751330032378  10.060521390069571   1.666470654759502 
 -1.245936849055316   3.592966316904886   1.666023106173270 
  3.734078536549856   3.590190657350464   1.658615142046753 
  2.488895697674141  10.061886045602181   1.666023106173270 
  7.469008310555690  10.061239894942208   1.666231876194837 
  8.714093922155135   3.592966316904886   1.666023106173270 
 -6.223478032828107  12.215612845285898   8.339725336649792 
 -1.244679040271726  12.215612845285898   8.339725336649792 
 -0.002384278187210   5.749812735687177   8.340369350976138 
  4.981307182163166   5.750454040207839   8.347342070797874 
  3.734078536549914  12.216940417444235   8.339457699407806 
  9.958407806833932   5.749473487051896   8.339725336649792 
 -2.490250733734098   5.749473487051895   1.666231876194837 
 -3.734078536549910  12.215056388955409   1.666299371023991 
  1.244634258476228  12.216569914852835   1.666392416763451 
  2.486849890936668   5.750454040207838   1.658615142046753 
  6.223522814623611  12.216569914852835   1.666392416763451 
  7.470541351287045   5.749812735687176   1.665587861868489 
 -1.246032890913350   7.905634919162349   8.339657841820637 
 -0.000754010179532   1.436246375259164   8.339934106671357 
  3.734078536549927   7.906945764951027   8.341882983211274 
  4.979251007118259   1.434771283181240   8.340369350976138 
  8.714189964013070   7.905634919162349   8.339657841820637 
 -3.734078536549919   7.905283447140954   1.666470654759502 
  9.957834335269157   1.437079160161011   8.339457699407806 
  2.488906065981469   1.434771283181239   1.665587861868489 
  1.242788192381125   7.906514718897815   1.665587861868489 
  6.225368880718592   7.906514718897815   1.665587861868489 
  7.468911083279362   1.436246375259164   1.666023106173270 
  1.242788192381126   7.906514718897816   8.340369350976138 
 12.446636884030214   1.437079160161011   1.666499513436821 
 -2.489751330032378  10.060521390069571   8.339486558085140 
 -1.245936849055315   3.592966316904887   8.339934106671357 
  3.734078536549857   3.590190657350464   8.347342070797874 
  2.488895697674141  10.061886045602181   8.339934106671357 
  7.469008310555691  10.061239894942208   8.339725336649792 
  8.714093922155135   3.592966316904887   8.339934106671357 
 -4.978405743067443  10.060521390069571   1.666470654759502 
 -0.000851237455957  10.061239894942208   1.666231876194837 
  1.242887597064832   3.592076486407602   1.664074229633354 
  4.979261375425696  10.061886045602181   1.666023106173270 
  6.225269476035002   3.592076486407602   1.664074229633354 
 11.202235609649694   3.593186397574347   1.666392416763451 
 -2.490250733734097   5.749473487051896   8.339725336649792 
 -3.734078536549910  12.215056388955409   8.339657841820637 
  1.244634258476228  12.216569914852835   8.339564796081163 
  2.486849890936669   5.750454040207839   8.347342070797874 
  6.223522814623612  12.216569914852835   8.339564796081163 
 -6.223478032828107  12.215612845285898   1.666231876194837 
  7.470541351287046   5.749812735687177   8.340369350976138 
 -1.244679040271726  12.215612845285898   1.666231876194837 
 -0.002384278187211   5.749812735687176   1.665587861868489 
 -1.246032890913350   7.905634919162348   1.666299371023991 
  4.981307182163166   5.750454040207838   1.658615142046753 
  3.734078536549913  12.216940417444235   1.666499513436821 
  9.958407806833932   5.749473487051895   1.666231876194837 
 -3.734078536549919   7.905283447140955   8.339486558085140 
  2.488906065981469   1.434771283181240   8.340369350976138 
  6.225368880718593   7.906514718897816   8.340369350976138 
  7.468911083279363   1.436246375259164   8.339934106671357 
 12.446636884030214   1.437079160161011   8.339457699407806 
  3.734078536549917   5.030366245922021   5.002978606422314 
  1.244698060168087   0.718401294481608   1.669602744542864 
  4.978845587790309   7.186361140911826   1.671465093566559 
  6.223459012931744   0.718401294481608   1.669602744542864 
  9.957649981029174   7.186348825651306   1.669204855339344 
 11.202235609649751   0.718623749417456   1.668815100502834 
 -3.734078536549858   9.342108742426664   8.336911984670355 
  1.244497586565281   9.342215453873990   8.336354468301764 
  2.489315712679448   2.874368910259165   8.334492119278069 
  6.223659486534558   9.342215453873990   8.336354468301764 
  7.468208531019346   2.874465288426088   8.336106863209812 
 12.446897315115239   2.874575955686824   8.337081091840052 
 -1.244842869851909   9.342145929243939   1.669204855339344 
 -0.000051457919407   2.874465288426087   1.669850349634802 
  4.978841360420384   2.874368910259164   1.671465093566559 
  3.734078536549973   9.342168160913976   1.669850349634802 
  8.712999942951761   9.342145929243939   1.669204855339344 
  9.957573904184269   2.874575955686823   1.668876121004577 
 -4.978728574627271  11.497831472384744   8.336752357505283 
 -0.000107319245841  11.497918029883467   8.337053150886513 
  1.244548661439103   5.030368686595150   8.334492119278069 
  6.223608411660837   5.030368686595150   8.334492119278069 
  4.978857063791607  11.497966479745763   8.337081091840052 
 11.202235609649755   5.030490167512983   8.337053150886513 
 -1.244882889816505   5.030481989410542   1.669602744542864 
 -2.489428498472429  11.497831472384744   1.669204855339344 
  2.489300009308337  11.497966479745763   1.668876121004577 
  3.734078536549917   5.030366245922020   1.668511516022117 
  7.468264392345696  11.497918029883467   1.668904061958101 
  8.713039962916429   5.030481989410542   1.669602744542864 
 -0.000195772686542   7.186350523587669   8.335578476957625 
  1.244698060168087   0.718401294481609   8.336354468301764 
  4.978845587790310   7.186361140911827   8.334492119278069 
  6.223459012931745   0.718401294481609   8.336354468301764 
  9.957649981029174   7.186348825651307   8.336752357505283 
 -2.489492907929339   7.186348825651306   1.669204855339344 
 11.202235609649751   0.718623749417456   8.337142112341793 
  3.734078536549916   0.718397690590906   1.670378735887002 
  2.489311485309512   7.186361140911826   1.671465093566559 
  7.468352845786378   7.186350523587668   1.670378735887002 
  8.712795376942626   0.718556302333553   1.668876121004577 
  2.489311485309513   7.186361140911827   8.334492119278069 
 13.691675842356865   0.718556302333553   1.668876121004577 
 -1.244842869851909   9.342145929243939   8.336752357505283 
 -0.000051457919407   2.874465288426088   8.336106863209812 
  4.978841360420385   2.874368910259165   8.334492119278069 
  3.734078536549973   9.342168160913976   8.336106863209812 
  8.712999942951761   9.342145929243939   8.336752357505283 
  9.957573904184269   2.874575955686824   8.337081091840052 
 -3.734078536549859   9.342108742426664   1.669045228174272 
  1.244497586565281   9.342215453873990   1.669602744542864 