 B N Ge 
 1.0
 14.936314146199660   0.000000000000000   0.000000000000000
 -7.468157073099825  12.935227489513863   0.000000000000000
  0.000000000000001   0.000000000000001  13.341276283792837
 B N Ge 
 143 143   2
Cartesian
  1.214290909039615   0.667641800525799   5.002978606422314 
  4.978357261102280   7.655780458517260   5.002978606422314 
  6.277233817070444   0.649866254469476   5.002978606422314 
  9.994225774913122   7.192537599780992   5.002978606422314 
 11.231050475828770   0.735260020160281   5.002978606422314 
 -3.739290114396923   9.339099836549931  11.673616748318732 
  1.239218894496950   9.339817837709095  11.673616748318732 
  2.483012557688983   2.870461779440303  11.673616748318732 
  6.218364513520510   9.340410839323479  11.673616748318732 
  7.464115156415716   2.870564244698852  11.673616748318732 
 12.441443690638366   2.871053380718391  11.673616748318732 
 -1.256564104880910   9.361607398856009   5.002978606422314 
 -0.011926225805016   2.867609387991509   5.002978606422314 
  5.063337921733847   2.713854045656292   5.002978606422314 
  3.695661486468822   9.500402264100837   5.002978606422314 
  8.736647475512545   9.370727108839466   5.002978606422314 
 10.019127516617310   2.853687209006568   5.002978606422314 
 -4.984192283249577  11.494870018121915  11.673616748318732 
 -0.004998856275674  11.495093899661585  11.673616748318732 
  1.238013409399402   5.026863559657852  11.673616748318732 
  6.219639827629039   5.026583538195347  11.673616748318732 
  4.973463354828886  11.495870870599857  11.673616748318732 
 11.197334887569854   5.026893431463195  11.673616748318732 
 -1.304045476630886   5.029528371056509   5.002978606422314 
 -2.478434988908808  11.477949850281444   5.002978606422314 
  2.495481810527002  11.555917330459856   5.002978606422314 
  7.482232056275039  11.538562574358632   5.002978606422314 
  8.873328561002626   5.000121608314783   5.002978606422314 
 -0.005922980867716   7.183300708734929  11.673616748318732 
  1.238701449040575   0.715201377476515  11.673616748318732 
  4.973583261102805   7.184816820523631  11.673616748318732 
  6.218743270389537   0.715028621135369  11.673616748318732 
  9.952774146423380   7.183110529249004  11.673616748318732 
 -2.497917672871316   7.197698344436023   5.002978606422314 
 11.197108472474993   0.715663595390471  11.673616748318732 
  3.742283342130077   0.648562993247065   5.002978606422314 
  2.392549815535833   7.339794741841948   5.002978606422314 
  7.536406122806525   7.225641101398195   5.002978606422314 
  8.766073186438616   0.694934473877632   5.002978606422314 
  2.483421536749166   7.184069409983312  11.673616748318732 
 13.699778324349696   0.737232814452593   5.002978606422314 
 -1.250022702942549   9.339218349436807  11.673616748318732 
 -0.006373701591597   2.870815139339860  11.673616748318732 
  4.973911688937270   2.870413930643541  11.673616748318732 
  3.728653446281188   9.340573716380026  11.673616748318732 
  8.707757578695675   9.339542480818420  11.673616748318732 
  9.953062198949942   2.870952671270923  11.673616748318732 
 -3.726877948096611   9.346266004110893   5.002978606422314 
  1.212031902933009   9.423053320350704   5.002978606422314 
  2.413020693252732   2.699453890785601   5.002978606422314 
  6.277510924280524   9.496209642300865   5.002978606422314 
  7.586034759084399   2.762078095522605   5.002978606422314 
 12.467122890060807   2.872254654866840   5.002978606422314 
 -1.250652404795561   5.026888730338121  11.673616748318732 
 -2.494553773499726  11.494809395239940  11.673616748318732 
  2.484287672967298  11.495630940607976  11.673616748318732 
  3.727826769519690   5.026756786543097  11.673616748318732 
  7.462699166517139  11.495472248088172  11.673616748318732 
 -4.973111985510678  11.484860652532950   5.002978606422314 
  8.708829634362619   5.026798715546748  11.673616748318732 
  0.012619771608035  11.505266019214314   5.002978606422314 
  1.054920301357309   5.051752771327695   5.002978606422314 
 -0.056571991862064   7.228373442325536   5.002978606422314 
  6.629893302388351   4.795236124478619   5.002978606422314 
  4.991543684732923  11.561717845142212   5.002978606422314 
 11.244418649654973   5.022264247070071   5.002978606422314 
 -2.494789456863360   7.183097842315392  11.673616748318732 
  3.728573715319487   0.714962690240535  11.673616748318732 
  7.463588958176447   7.183600091794360  11.673616748318732 
  8.708266572548242   0.715383261297075  11.673616748318732 
 13.685898390709530   0.715594612477232  11.673616748318732 
 -0.004419520954880   1.433742287316631   1.654821802432826 
  3.727583852279928   7.908437186124180   1.708987642149806 
  4.975895017639239   1.429549000602388   1.674162989080004 
  8.713790589735691   7.905404340312820   1.669023395878293 
  9.954647863248109   1.434508850985492   1.651337449272837 
 -4.980545592274527  10.059187647973410   8.351010799890311 
 -0.005133516715824  10.059703570546091   8.354530598185844 
  1.237319009183820   3.588861460695494   8.319491597340091 
  4.975604524532344  10.061728028272301   8.340388181592353 
  6.223313742523890   3.585706214253313   8.296969570696969 
 11.199380787044316   3.591095301871383   8.355315033068074 
 -2.492924827465349  10.058689170473691   1.651708678301953 
 -1.249938208213002   3.591043935424204   1.654821802432826 
  3.729233726902246   3.580645604648694   1.739776976082752 
  2.484164206462541  10.061192188268402   1.659780914124085 
  7.466940808015937  10.060783901080253   1.659071555470387 
  8.712128649687214   3.589878399797167   1.665569031254530 
 -6.226555844677194  12.213481423349961   8.354485582847614 
 -1.248150675857397  12.212672444859241   8.354530598185844 
 -0.008202033324048   5.748664523926919   8.335341172143824 
  4.979263942181633   5.749274375054481   8.242529411399497 
  3.730259347497548  12.215466006313772   8.354619763573886 
  9.956979153297262   5.747910974258237   8.346885657373134 
 -2.493635505202407   5.747873734772322   1.651471629997134 
 -3.737204262745401  12.212053865218182   1.655308840720068 
  1.240869996504150  12.214396617192490   1.649032362195661 
  2.476161227992580   5.751030838327547   1.739776976082752 
  6.220284461318073  12.215143113808809   1.650642179772871 
  7.471769782408310   5.748721755544625   1.698585567265098 
 -1.250196015842507   7.904429222739540   8.350648372124894 
 -0.004419520954879   1.433742287316632   8.351135410407078 
  3.727583852279928   7.908437186124181   8.296969570696969 
  4.975895017639240   1.429549000602389   8.331794223765119 
  8.713790589735691   7.905404340312821   8.336933816969898 
 -3.736303515692230   7.904097154417875   1.654946412955904 
  9.954647863248109   1.434508850985493   8.354619763573886 
  2.485002807859839   1.430307065319701   1.670616040700765 
  1.236587568261649   7.906219488045206   1.674162989080004 
  6.225038279760138   7.908124061527965   1.698585567265138 
  7.465944439595586   1.432495712339582   1.659780914124085 
  1.236587568261649   7.906219488045207   8.331794223765119 
 12.443194162736388   1.435091504098061   1.650294303268255 
 -2.492924827465348  10.058689170473691   8.354248534540620 
 -1.249938208213001   3.591043935424205   8.351135410407078 
  3.729233726902246   3.580645604648695   8.266180236759768 
  2.484164206462542  10.061192188268402   8.346176298716127 
  7.466940808015938  10.060783901080253   8.346885657373134 
  8.712128649687214   3.589878399797168   8.340388181592353 
 -4.980545592274513  10.059187647973410   1.654946412955904 
 -0.005133516715825  10.059703570546091   1.651426614658664 
  1.237319009183820   3.588861460695493   1.686465615504696 
  4.975604524532343  10.061728028272301   1.665569031254530 
  6.223313742523889   3.585706214253312   1.708987642149886 
 11.199380787044316   3.591095301871382   1.650642179772871 
 -2.493635505202407   5.747873734772323   8.354485582847614 
 -3.737204262745400  12.212053865218182   8.350648372124894 
  1.240869996504151  12.214396617192490   8.356924850645525 
  2.476161227992580   5.751030838327548   8.266180236759768 
  6.220284461318074  12.215143113808809   8.355315033068074 
 -6.226555844677195  12.213481423349961   1.651471629997134 
  7.471769782408311   5.748721755544626   8.307371645578529 
 -1.248150675857397  12.212672444859241   1.651426614658664 
 -0.008202033324049   5.748664523926918   1.670616040700765 
 -1.250196015842508   7.904429222739539   1.655308840720094 
  4.979263942181632   5.749274375054480   1.763427801445664 
  3.730259347497547  12.215466006313772   1.651337449272837 
  9.956979153297262   5.747910974258236   1.659071555470387 
 -3.736303515692245   7.904097154417876   8.351010799890311 
  2.485002807859839   1.430307065319702   8.335341172143824 
  6.225038279760139   7.908124061527966   8.307371645579423 
  7.465944439595573   1.432495712339583   8.346176298716127 
 12.443194162736388   1.435091504098061   8.355662909570329 
  1.241480382437630   0.716287553478978   1.660146950416472 
  4.975830811508204   7.184718384300428   1.754056946084176 
  6.219917430249327   0.716630588651927   1.664055332178853 
  9.954246985675717   7.184561878533436   1.666253589480135 
 11.198761538780388   0.716617993667474   1.654319309192595 
 -3.737366297981444   9.340210552472190   8.347064271826349 
  1.241193318995209   9.340033706212322   8.341901880667669 
  2.485913287721079   2.871933196604407   8.297956171804822 
  6.220414620533248   9.340049153396533   8.327978090863734 
  7.464370118536071   2.872663307370557   8.324356738141582 
 12.443574852829798   2.872794419741559   8.351736306176850 
 -1.248184666426777   9.340210184348086   1.656538940687011 
 -0.003123998845030   2.872691356097187   1.667279939009270 
  4.975290787829308   2.872674421735267   1.718184268113286 
  3.730598768937285   9.339744988720714   1.681600474701179 
  8.709750903678433   9.340092322373149   1.666253589480135 
  9.953829214095201   2.872778264027182   1.657923679083898 
 -4.981942151151206  11.495815346141226   8.348193950175308 
 -0.003589885391474  11.495907369378475   8.352816660627912 
  1.240738059058352   5.028639956974461   8.297956171804822 
  6.220678354563662   5.028579192051077   8.251900266758250 
  4.975427872101913  11.495622328828698   8.348033533759208 
 11.198788098155331   5.028733446987216   8.350445084425292 
 -1.248322282086643   5.028752269255418   1.660146950416472 
 -2.492775801012162  11.495905264099783   1.656538940687011 
  2.485823794603608  11.495830052445626   1.655178419544281 
  3.727905332724229   5.026802145031998   1.840344254476704 
  7.465019271994565  11.495810757614512   1.655512128419883 
  8.709541458669529   5.028755003261191   1.677979121983481 
 -0.003482147782862   7.184529873527767   8.334235486812799 
  1.241480382437630   0.716287553478979   8.345810262430904 
  4.975830811508205   7.184718384300429   8.251900266758623 
  6.219917430249328   0.716630588651928   8.341901880667669 
  9.954246985675717   7.184561878533437   8.339703623363492 
 -2.492845712739822   7.184573849873939   1.657763262671669 
 11.198761538780388   0.716617993667475   8.351637903654673 
  3.730858619798433   0.716461931301157   1.671721726030880 
  2.486068728903961   7.184133499115208   1.718184268113273 
  7.464888297224806   7.184350265539100   1.701704474073411 
  8.709207069273084   0.716614025743639   1.655178419544281 
  2.486068728903961   7.184133499115209   8.287772944737105 
 13.688471755827139   0.716569733565002   1.654220906667003 
 -1.248184666426777   9.340210184348086   8.349418272155749 
 -0.003123998845030   2.872691356097188   8.338677273835492 
  4.975290787829309   2.872674421735268   8.287772944737105 
  3.730598768937285   9.339744988720714   8.324356738141582 
  8.709750903678433   9.340092322373149   8.339703623363492 
  9.953829214095201   2.872778264027183   8.348033533759208 
 -3.737366297981445   9.340210552472190   1.658892941017438 
  1.241193318995209   9.340033706212322   1.664055332178760 
  2.485913287721079   2.871933196604406   1.708001041041140 
  6.220414620533247   9.340049153396533   1.677979121983121 
  7.464370118536070   2.872663307370556   1.681600474701165 
 12.443574852829798   2.872794419741558   1.654220906667003 
 -1.248322282086643   5.028752269255419   8.345810262430904 
 -2.492775801012162  11.495905264099783   8.349418272155749 
  2.485823794603608  11.495830052445626   8.350778793301508 
  3.727905332724230   5.026802145031999   8.165612958368524 
  7.465019271994566  11.495810757614512   8.350445084425292 
 -4.981942151151207  11.495815346141226   1.657763262671669 
  8.709541458669529   5.028755003261192   8.327978090863734 
 -0.003589885391475  11.495907369378475   1.653140552217021 
  1.240738059058352   5.028639956974460   1.708001041041140 
 -0.003482147782862   7.184529873527766   1.671721726030880 
  6.220678354563661   5.028579192051076   1.754056946084176 
  4.975427872101912  11.495622328828698   1.657923679083898 
 11.198788098155331   5.028733446987215   1.655512128419883 
 -2.492845712739822   7.184573849873940   8.348193950175308 
  3.730858619798434   0.716461931301158   8.334235486812799 
  7.464888297224807   7.184350265539101   8.304252738766934 
  8.709207069273084   0.716614025743640   8.350778793301508 
 13.688471755827139   0.716569733565003   8.351736306176850 
  0.005742543914266   1.439030090508093   5.002978606422314 
  3.656364977081394   8.083184304675884   5.002978606422314 
  5.024597492483402   1.327185620466327   5.002978606422314 
  8.747797686998579   7.925038347070616   5.002978606422314 
  9.993262603442203   1.431878480163358   5.002978606422314 
 -4.984253258368549  10.057673489014620  11.673616748318732 
 -0.005030854259366  10.057651470324448  11.673616748318732 
  1.239515762822622   3.590129757000812  11.673616748318732 
  4.973474591312709  10.057614047063955  11.673616748318732 
  6.218065458125192   3.590256310977235  11.673616748318732 
 11.197012366589480   3.590049551733387  11.673616748318732 
 -2.492264634443623  10.059070333086561   5.002978606422314 
 -1.240277803885919   3.597200640162802   5.002978606422314 
  3.722566851552193   3.225723045733671   5.002978606422314 
  2.455691682167649  10.145752598160588   5.002978606422314 
  7.516397500393214  10.128905974082670   5.002978606422314 
  8.784266847567354   3.562724849794964   5.002978606422314 
 -6.228793398107225  12.213681343706609  11.673616748318732 
 -1.249876515550089  12.213787403261673  11.673616748318732 
 -0.005051969916046   5.745747470159484  11.673616748318732 
  4.973276384892447   5.745817457241781  11.673616748318732 
  3.728850142778331  12.213563211560951  11.673616748318732 
  9.952163343181798   5.745815852916069  11.673616748318732 
 -2.498839958196036   5.763912902645456   5.002978606422314 
 -3.724224775860915  12.177534102658372   5.002978606422314 
  1.255396727013592  12.222783628961002   5.002978606422314 
  2.165455837921750   5.922718434366692   5.002978606422314 
  6.239762712523260  12.248606196396000   5.002978606422314 
  7.664873336392161   5.734557835166977   5.002978606422314 
 -1.249729846031259   7.901613958025727  11.673616748318732 
 -0.005281278018918   1.434290406827101  11.673616748318732 
  3.728900209430851   7.901616990150685  11.673616748318732 
  4.973465727937858   1.434647106086746  11.673616748318732 
  8.707192624613910   7.901595003378134  11.673616748318732 
 -3.726806341339767   7.917174672323060   5.002978606422314 
  9.952295392295840   1.434239841273381  11.673616748318732 
  2.459823220728520   1.318764118710935   5.002978606422314 
  1.172289518070503   7.999578758552261   5.002978606422314 
  6.309323741888982   8.082438605025887   5.002978606422314 
  7.524939640571491   1.365557578040270   5.002978606422314 
  1.239788012271726   7.901566608708236  11.673616748318732 
 12.466454696073207   1.448520979282507   5.002978606422314 
 -2.494635229463731  10.057701669421945  11.673616748318732 
 -1.249894401325990   3.590023572161951  11.673616748318732 
  3.728784365282980   3.590405619522752  11.673616748318732 
  2.484264201677273  10.057612780699312  11.673616748318732 
  7.462718474650264  10.057660847854342  11.673616748318732 
  8.707500870839224   3.590090814126597  11.673616748318732 
 -4.964471542375029  10.060873683276096   5.002978606422314 
 -0.022198660228299  10.090404368403265   5.002978606422314 
  1.241264223414037   3.591139231192492   5.002978606422314 
  4.988157959370517  10.137778315215735   5.002978606422314 
  6.339039748828095   3.436655299827325   5.002978606422314 
 11.238099792263588   3.591232420930240   5.002978606422314 
 -2.494581145808264   5.745835996478553  11.673616748318732 
 -3.739409268602683  12.213865212478209  11.673616748318732 
  1.239527398738791  12.213621468007316  11.673616748318732 
  2.484388968004507   5.745761672313938  11.673616748318732 
  6.218194604908255  12.213614876591686  11.673616748318732 
 -6.215267744340031  12.200954650907619   5.002978606422314 
  7.462602422695077   5.745793099038608  11.673616748318732 
 -1.230095576756443  12.182543198135807   5.002978606422314 
 -0.117390852264100   5.782629835115710   5.002978606422314 
 -1.273601263711863   7.932929669393300   5.002978606422314 
  3.747288749640775  12.250222537694290   5.002978606422314 
 10.040702945261327   5.756680689748208   5.002978606422314 
 -3.739468648861853   7.901643300869222  11.673616748318732 
  2.484051596896971   1.434493627138397  11.673616748318732 
  6.217918308969800   7.901649223384641  11.673616748318732 
  7.462894579317346   1.434372014521076  11.673616748318732 
 12.441691951517276   1.434224202043688  11.673616748318732 
  3.461471349024126   4.872976412819029   5.002978606422314 
  5.233052622839572   5.895799338153046   5.002978606422314 
Generated by cif2cell 2.0.0.  :  Failed to get author information, No journal information. Species order: B N Ge 
 1.0
 14.936314146199660   0.000000000000000   0.000000000000000
 -7.468157073099825  12.935227489513863   0.000000000000000
  0.000000000000001   0.000000000000001  13.341276283792837
 B N Ge 
 143 143   2
Cartesian
  1.214290909039615   0.667641800525799   5.002978606422314 
  4.978357261102280   7.655780458517260   5.002978606422314 
  6.277233817070444   0.649866254469476   5.002978606422314 
  9.994225774913122   7.192537599780992   5.002978606422314 
 11.231050475828770   0.735260020160281   5.002978606422314 
 -3.739290114396923   9.339099836549931  11.673616748318732 
  1.239218894496950   9.339817837709095  11.673616748318732 
  2.483012557688983   2.870461779440303  11.673616748318732 
  6.218364513520510   9.340410839323479  11.673616748318732 
  7.464115156415716   2.870564244698852  11.673616748318732 
 12.441443690638366   2.871053380718391  11.673616748318732 
 -1.256564104880910   9.361607398856009   5.002978606422314 
 -0.011926225805016   2.867609387991509   5.002978606422314 
  5.063337921733847   2.713854045656292   5.002978606422314 
  3.695661486468822   9.500402264100837   5.002978606422314 
  8.736647475512545   9.370727108839466   5.002978606422314 
 10.019127516617310   2.853687209006568   5.002978606422314 
 -4.984192283249577  11.494870018121915  11.673616748318732 
 -0.004998856275674  11.495093899661585  11.673616748318732 
  1.238013409399402   5.026863559657852  11.673616748318732 
  6.219639827629039   5.026583538195347  11.673616748318732 
  4.973463354828886  11.495870870599857  11.673616748318732 
 11.197334887569854   5.026893431463195  11.673616748318732 
 -1.304045476630886   5.029528371056509   5.002978606422314 
 -2.478434988908808  11.477949850281444   5.002978606422314 
  2.495481810527002  11.555917330459856   5.002978606422314 
  7.482232056275039  11.538562574358632   5.002978606422314 
  8.873328561002626   5.000121608314783   5.002978606422314 
 -0.005922980867716   7.183300708734929  11.673616748318732 
  1.238701449040575   0.715201377476515  11.673616748318732 
  4.973583261102805   7.184816820523631  11.673616748318732 
  6.218743270389537   0.715028621135369  11.673616748318732 
  9.952774146423380   7.183110529249004  11.673616748318732 
 -2.497917672871316   7.197698344436023   5.002978606422314 
 11.197108472474993   0.715663595390471  11.673616748318732 
  3.742283342130077   0.648562993247065   5.002978606422314 
  2.392549815535833   7.339794741841948   5.002978606422314 
  7.536406122806525   7.225641101398195   5.002978606422314 
  8.766073186438616   0.694934473877632   5.002978606422314 
  2.483421536749166   7.184069409983312  11.673616748318732 
 13.699778324349696   0.737232814452593   5.002978606422314 
 -1.250022702942549   9.339218349436807  11.673616748318732 
 -0.006373701591597   2.870815139339860  11.673616748318732 
  4.973911688937270   2.870413930643541  11.673616748318732 
  3.728653446281188   9.340573716380026  11.673616748318732 
  8.707757578695675   9.339542480818420  11.673616748318732 
  9.953062198949942   2.870952671270923  11.673616748318732 
 -3.726877948096611   9.346266004110893   5.002978606422314 
  1.212031902933009   9.423053320350704   5.002978606422314 
  2.413020693252732   2.699453890785601   5.002978606422314 
  6.277510924280524   9.496209642300865   5.002978606422314 
  7.586034759084399   2.762078095522605   5.002978606422314 
 12.467122890060807   2.872254654866840   5.002978606422314 
 -1.250652404795561   5.026888730338121  11.673616748318732 
 -2.494553773499726  11.494809395239940  11.673616748318732 
  2.484287672967298  11.495630940607976  11.673616748318732 
  3.727826769519690   5.026756786543097  11.673616748318732 
  7.462699166517139  11.495472248088172  11.673616748318732 
 -4.973111985510678  11.484860652532950   5.002978606422314 
  8.708829634362619   5.026798715546748  11.673616748318732 
  0.012619771608035  11.505266019214314   5.002978606422314 
  1.054920301357309   5.051752771327695   5.002978606422314 
 -0.056571991862064   7.228373442325536   5.002978606422314 
  6.629893302388351   4.795236124478619   5.002978606422314 
  4.991543684732923  11.561717845142212   5.002978606422314 
 11.244418649654973   5.022264247070071   5.002978606422314 
 -2.494789456863360   7.183097842315392  11.673616748318732 
  3.728573715319487   0.714962690240535  11.673616748318732 
  7.463588958176447   7.183600091794360  11.673616748318732 
  8.708266572548242   0.715383261297075  11.673616748318732 
 13.685898390709530   0.715594612477232  11.673616748318732 
 -0.004419520954880   1.433742287316631   1.654821802432826 
  3.727583852279928   7.908437186124180   1.708987642149806 
  4.975895017639239   1.429549000602388   1.674162989080004 
  8.713790589735691   7.905404340312820   1.669023395878293 
  9.954647863248109   1.434508850985492   1.651337449272837 
 -4.980545592274527  10.059187647973410   8.351010799890311 
 -0.005133516715824  10.059703570546091   8.354530598185844 
  1.237319009183820   3.588861460695494   8.319491597340091 
  4.975604524532344  10.061728028272301   8.340388181592353 
  6.223313742523890   3.585706214253313   8.296969570696969 
 11.199380787044316   3.591095301871383   8.355315033068074 
 -2.492924827465349  10.058689170473691   1.651708678301953 
 -1.249938208213002   3.591043935424204   1.654821802432826 
  3.729233726902246   3.580645604648694   1.739776976082752 
  2.484164206462541  10.061192188268402   1.659780914124085 
  7.466940808015937  10.060783901080253   1.659071555470387 
  8.712128649687214   3.589878399797167   1.665569031254530 
 -6.226555844677194  12.213481423349961   8.354485582847614 
 -1.248150675857397  12.212672444859241   8.354530598185844 
 -0.008202033324048   5.748664523926919   8.335341172143824 
  4.979263942181633   5.749274375054481   8.242529411399497 
  3.730259347497548  12.215466006313772   8.354619763573886 
  9.956979153297262   5.747910974258237   8.346885657373134 
 -2.493635505202407   5.747873734772322   1.651471629997134 
 -3.737204262745401  12.212053865218182   1.655308840720068 
  1.240869996504150  12.214396617192490   1.649032362195661 
  2.476161227992580   5.751030838327547   1.739776976082752 
  6.220284461318073  12.215143113808809   1.650642179772871 
  7.471769782408310   5.748721755544625   1.698585567265098 
 -1.250196015842507   7.904429222739540   8.350648372124894 
 -0.004419520954879   1.433742287316632   8.351135410407078 
  3.727583852279928   7.908437186124181   8.296969570696969 
  4.975895017639240   1.429549000602389   8.331794223765119 
  8.713790589735691   7.905404340312821   8.336933816969898 
 -3.736303515692230   7.904097154417875   1.654946412955904 
  9.954647863248109   1.434508850985493   8.354619763573886 
  2.485002807859839   1.430307065319701   1.670616040700765 
  1.236587568261649   7.906219488045206   1.674162989080004 
  6.225038279760138   7.908124061527965   1.698585567265138 
  7.465944439595586   1.432495712339582   1.659780914124085 
  1.236587568261649   7.906219488045207   8.331794223765119 
 12.443194162736388   1.435091504098061   1.650294303268255 
 -2.492924827465348  10.058689170473691   8.354248534540620 
 -1.249938208213001   3.591043935424205   8.351135410407078 
  3.729233726902246   3.580645604648695   8.266180236759768 
  2.484164206462542  10.061192188268402   8.346176298716127 
  7.466940808015938  10.060783901080253   8.346885657373134 
  8.712128649687214   3.589878399797168   8.340388181592353 
 -4.980545592274513  10.059187647973410   1.654946412955904 
 -0.005133516715825  10.059703570546091   1.651426614658664 
  1.237319009183820   3.588861460695493   1.686465615504696 
  4.975604524532343  10.061728028272301   1.665569031254530 
  6.223313742523889   3.585706214253312   1.708987642149886 
 11.199380787044316   3.591095301871382   1.650642179772871 
 -2.493635505202407   5.747873734772323   8.354485582847614 
 -3.737204262745400  12.212053865218182   8.350648372124894 
  1.240869996504151  12.214396617192490   8.356924850645525 
  2.476161227992580   5.751030838327548   8.266180236759768 
  6.220284461318074  12.215143113808809   8.355315033068074 
 -6.226555844677195  12.213481423349961   1.651471629997134 
  7.471769782408311   5.748721755544626   8.307371645578529 
 -1.248150675857397  12.212672444859241   1.651426614658664 
 -0.008202033324049   5.748664523926918   1.670616040700765 
 -1.250196015842508   7.904429222739539   1.655308840720094 
  4.979263942181632   5.749274375054480   1.763427801445664 
  3.730259347497547  12.215466006313772   1.651337449272837 
  9.956979153297262   5.747910974258236   1.659071555470387 
 -3.736303515692245   7.904097154417876   8.351010799890311 
  2.485002807859839   1.430307065319702   8.335341172143824 
  6.225038279760139   7.908124061527966   8.307371645579423 
  7.465944439595573   1.432495712339583   8.346176298716127 
 12.443194162736388   1.435091504098061   8.355662909570329 
  1.241480382437630   0.716287553478978   1.660146950416472 
  4.975830811508204   7.184718384300428   1.754056946084176 
  6.219917430249327   0.716630588651927   1.664055332178853 
  9.954246985675717   7.184561878533436   1.666253589480135 
 11.198761538780388   0.716617993667474   1.654319309192595 
 -3.737366297981444   9.340210552472190   8.347064271826349 
  1.241193318995209   9.340033706212322   8.341901880667669 
  2.485913287721079   2.871933196604407   8.297956171804822 
  6.220414620533248   9.340049153396533   8.327978090863734 
  7.464370118536071   2.872663307370557   8.324356738141582 
 12.443574852829798   2.872794419741559   8.351736306176850 
 -1.248184666426777   9.340210184348086   1.656538940687011 
 -0.003123998845030   2.872691356097187   1.667279939009270 
  4.975290787829308   2.872674421735267   1.718184268113286 
  3.730598768937285   9.339744988720714   1.681600474701179 
  8.709750903678433   9.340092322373149   1.666253589480135 
  9.953829214095201   2.872778264027182   1.657923679083898 
 -4.981942151151206  11.495815346141226   8.348193950175308 
 -0.003589885391474  11.495907369378475   8.352816660627912 
  1.240738059058352   5.028639956974461   8.297956171804822 
  6.220678354563662   5.028579192051077   8.251900266758250 
  4.975427872101913  11.495622328828698   8.348033533759208 
 11.198788098155331   5.028733446987216   8.350445084425292 
 -1.248322282086643   5.028752269255418   1.660146950416472 
 -2.492775801012162  11.495905264099783   1.656538940687011 
  2.485823794603608  11.495830052445626   1.655178419544281 
  3.727905332724229   5.026802145031998   1.840344254476704 
  7.465019271994565  11.495810757614512   1.655512128419883 
  8.709541458669529   5.028755003261191   1.677979121983481 
 -0.003482147782862   7.184529873527767   8.334235486812799 
  1.241480382437630   0.716287553478979   8.345810262430904 
  4.975830811508205   7.184718384300429   8.251900266758623 
  6.219917430249328   0.716630588651928   8.341901880667669 
  9.954246985675717   7.184561878533437   8.339703623363492 
 -2.492845712739822   7.184573849873939   1.657763262671669 
 11.198761538780388   0.716617993667475   8.351637903654673 
  3.730858619798433   0.716461931301157   1.671721726030880 
  2.486068728903961   7.184133499115208   1.718184268113273 
  7.464888297224806   7.184350265539100   1.701704474073411 
  8.709207069273084   0.716614025743639   1.655178419544281 
  2.486068728903961   7.184133499115209   8.287772944737105 
 13.688471755827139   0.716569733565002   1.654220906667003 
 -1.248184666426777   9.340210184348086   8.349418272155749 
 -0.003123998845030   2.872691356097188   8.338677273835492 
  4.975290787829309   2.872674421735268   8.287772944737105 
  3.730598768937285   9.339744988720714   8.324356738141582 
  8.709750903678433   9.340092322373149   8.339703623363492 
  9.953829214095201   2.872778264027183   8.348033533759208 
 -3.737366297981445   9.340210552472190   1.658892941017438 
  1.241193318995209   9.340033706212322   1.664055332178760 
  2.485913287721079   2.871933196604406   1.708001041041140 