Al B N                                  
   1.0000000000000000     
     8.7639499999999995  -15.1796066749929999    0.0000000000000000
     8.7639499999999995   15.1796066749929999    0.0000000000000000
     0.0000000000000000    0.0000000000000000   15.0000000000000000
   Al   B    N 
     1    49    48
Selective dynamics
Direct
  0.5237294721363932  0.4761156453496272  0.9729076594334199   T   T   T
  0.9047885623192544  0.9524184525066196  0.1158663529290811   T   T   T
  0.9047936295617228  0.0952645861366051  0.1155873457256045   T   T   T
  0.9047831177879480  0.2381270131190441  0.1154060931718633   T   T   T
  0.9047662935022541  0.3809768597488257  0.1155184706876566   T   T   T
  0.9047869314432369  0.5238157435496648  0.1147289143860807   T   T   T
  0.9047969400474503  0.6666822941385859  0.1134203758014566   T   T   T
  0.9048149483479363  0.8095866929601838  0.1149762306517886   T   T   T
  0.0476143295498889  0.9523873832060911  0.1157167387075755   T   T   T
  0.0476389645341637  0.0952512570159412  0.1159705827043005   T   T   T
  0.0476660322874351  0.2381195798925185  0.1155113080974075   T   T   T
  0.0476405868709189  0.3809691927153878  0.1156001584249216   T   T   T
  0.0476121050475461  0.5238062616286194  0.1153997157470464   T   T   T
  0.0476154739402334  0.6666580459012090  0.1145595185118157   T   T   T
  0.0476217714481172  0.8095313673527524  0.1146711537981904   T   T   T
  0.1904291835272123  0.9523257626757745  0.1148381912518395   T   T   T
  0.1904319684028016  0.0951690483506374  0.1151650455972280   T   T   T
  0.1904789439173810  0.2380755619684607  0.1141182944681544   T   T   T
  0.1904953319706775  0.3809557633802840  0.1139849315074729   T   T   T
  0.1904596356502247  0.5238050837430577  0.1149120991516222   T   T   T
  0.1904447764031677  0.6666543002141826  0.1146852173478424   T   T   T
  0.1904358923531946  0.8095034910430140  0.1144366983870248   T   T   T
  0.3332920778453576  0.9523250839600688  0.1149532015102597   T   T   T
  0.3332930042757664  0.0951449421260662  0.1138097470773510   T   T   T
  0.3331478359496979  0.2378379101532331  0.1102897228409749   T   T   T
  0.3330615506057599  0.3807882104469980  0.1054664159899340   T   T   T
  0.3332145597815777  0.5238289613173956  0.1102815725623030   T   T   T
  0.3333262262567576  0.6666743317637869  0.1137468497340581   T   T   T
  0.3333075092536268  0.8095209881086578  0.1149035745006934   T   T   T
  0.4761666306290191  0.9523690464441401  0.1157280825226855   T   T   T
  0.4761543384568609  0.0951640415969630  0.1152054411416748   T   T   T
  0.4761361842418365  0.2378447373269508  0.1102228555445499   T   T   T
  0.4739333267695403  0.3764332182017820  0.0844655365267944   T   T   T
  0.4740509519307404  0.5260316125034779  0.0846501327308989   T   T   T
  0.4762003826750730  0.6668560136939979  0.1102825390764824   T   T   T
  0.4761919150529703  0.8095672519709186  0.1150948134433116   T   T   T
  0.6190398863984674  0.9523983562728904  0.1154538248346918   T   T   T
  0.6190184333815656  0.0952344187461860  0.1155139160947453   T   T   T
  0.6190191805060785  0.2380642791055619  0.1137255317219744   T   T   T
  0.6191837479947330  0.3807911947065377  0.1052229601157458   T   T   T
  0.6234361298460092  0.5260463229658739  0.0845271436922560   T   T   T
  0.6192406479001732  0.6670289880821095  0.1053268904954368   T   T   T
  0.6190732125603622  0.8095862571703679  0.1137966202005141   T   T   T
  0.7619237812981975  0.9524136244335969  0.1152080759103406   T   T   T
  0.7619020741623334  0.0952614442662803  0.1151835370510766   T   T   T
  0.7618926974064657  0.2381176510460952  0.1150362467549424   T   T   T
  0.7619090624584481  0.3809664428351509  0.1136066368739676   T   T   T
  0.7620835361915408  0.5238515067816811  0.1099958776446803   T   T   T
  0.7621318135619524  0.6668759789048100  0.1101099747281484   T   T   T
  0.7619552647602429  0.8096031835131926  0.1138444286273667   T   T   T
  0.9523861309841737  0.9047939663759582  0.1158688296098338   T   T   T
  0.9524053091928768  0.0476493094459512  0.1160267548376761   T   T   T
  0.9524213066330267  0.1905130018674957  0.1155138098303342   T   T   T
  0.9523956724193271  0.3333597594035502  0.1156668252981240   T   T   T
  0.9523720571911524  0.4761899080761933  0.1155177509522635   T   T   T
  0.9523720190900936  0.6190376957372888  0.1143278755424752   T   T   T
  0.9523778325195250  0.7619184092550155  0.1144567709465479   T   T   T
  0.0952121984305822  0.9047539010630091  0.1151112622205792   T   T   T
  0.0952264562387506  0.0476173969901387  0.1159437741777999   T   T   T
  0.0952909909202944  0.1905111860260211  0.1155941208297820   T   T   T
  0.0952980395689991  0.3333586834486623  0.1153578430420081   T   T   T
  0.0952445458992621  0.4761890282872439  0.1155579660303398   T   T   T
  0.0952184650808180  0.6190301928637307  0.1149137786612561   T   T   T
  0.0952110567929102  0.7618901910506383  0.1143412488907514   T   T   T
  0.2380595151054750  0.9047277710215861  0.1145480566710402   T   T   T
  0.2380647396793157  0.0475741591694672  0.1147266446063402   T   T   T
  0.2380641373821725  0.1904393892501793  0.1142228203116717   T   T   T
  0.2382120136800809  0.3333736334784225  0.1122250932488083   T   T   T
  0.2381075357613678  0.4761733716510530  0.1140383416634678   T   T   T
  0.2380894614402796  0.6190385030377707  0.1145760699430493   T   T   T
  0.2380676348688539  0.7618904425279547  0.1144802602079968   T   T   T
  0.3809352808137502  0.9047433003023131  0.1152959382814192   T   T   T
  0.3809300173642481  0.0475675108898940  0.1148720590791683   T   T   T
  0.3809123672438863  0.1903805931801701  0.1112083030183403   T   T   T
  0.3806606855995148  0.3331051929914927  0.1029207762963098   T   T   T
  0.3807390474853335  0.4760765728811288  0.1030513011093953   T   T   T
  0.3809660417017219  0.6190680145199073  0.1112168375190787   T   T   T
  0.3809534679951900  0.7619098920007639  0.1147954962574939   T   T   T
  0.5238123079408747  0.9047754940639940  0.1157322158573980   T   T   T
  0.5237955935966043  0.0476034054306627  0.1158634387145666   T   T   T
  0.5238050768613800  0.1904330064345950  0.1141017522465945   T   T   T
  0.5238983988201017  0.3331087512817019  0.1028270105467562   T   T   T
  0.5239610162877468  0.6193565280707295  0.1029666153919808   T   T   T
  0.5238539402528585  0.7619584782383986  0.1140866628859055   T   T   T
  0.6666790805880106  0.9047766242447467  0.1150702819076031   T   T   T
  0.6666585853574395  0.0476352101631515  0.1153727136684201   T   T   T
  0.6666458651422753  0.1904968591371844  0.1150290165411438   T   T   T
  0.6666120086824159  0.3333642473127131  0.1117823787855293   T   T   T
  0.6668016938306234  0.4760871365215423  0.1028493077717320   T   T   T
  0.6668611398017347  0.6193650704177502  0.1028828275075986   T   T   T
  0.6666610768737260  0.7618830320085654  0.1119311645738074   T   T   T
  0.8095302480506358  0.9047862863407999  0.1153487880861105   T   T   T
  0.8095385225246413  0.0476484033907103  0.1152585776584161   T   T   T
  0.8095258366557895  0.1905091227652597  0.1151517247159997   T   T   T
  0.8094973706168419  0.3333560044176087  0.1150465977519357   T   T   T
  0.8095118573542813  0.4761796036386765  0.1137374007875547   T   T   T
  0.8095612555253363  0.6190810439860723  0.1109243893015070   T   T   T
  0.8095481112473917  0.7619731965942511  0.1139872797808881   T   T   T

  0.00000000E+00  0.00000000E+00  0.00000000E+00
  0.00000000E+00  0.00000000E+00  0.00000000E+00
  0.00000000E+00  0.00000000E+00  0.00000000E+00
  0.00000000E+00  0.00000000E+00  0.00000000E+00
  0.00000000E+00  0.00000000E+00  0.00000000E+00
  0.00000000E+00  0.00000000E+00  0.00000000E+00
  0.00000000E+00  0.00000000E+00  0.00000000E+00
  0.00000000E+00  0.00000000E+00  0.00000000E+00
  0.00000000E+00  0.00000000E+00  0.00000000E+00
  0.00000000E+00  0.00000000E+00  0.00000000E+00
  0.00000000E+00  0.00000000E+00  0.00000000E+00
  0.00000000E+00  0.00000000E+00  0.00000000E+00
  0.00000000E+00  0.00000000E+00  0.00000000E+00
  0.00000000E+00  0.00000000E+00  0.00000000E+00
  0.00000000E+00  0.00000000E+00  0.00000000E+00
  0.00000000E+00  0.00000000E+00  0.00000000E+00
  0.00000000E+00  0.00000000E+00  0.00000000E+00
  0.00000000E+00  0.00000000E+00  0.00000000E+00
  0.00000000E+00  0.00000000E+00  0.00000000E+00
  0.00000000E+00  0.00000000E+00  0.00000000E+00
  0.00000000E+00  0.00000000E+00  0.00000000E+00
  0.00000000E+00  0.00000000E+00  0.00000000E+00
  0.00000000E+00  0.00000000E+00  0.00000000E+00
  0.00000000E+00  0.00000000E+00  0.00000000E+00
  0.00000000E+00  0.00000000E+00  0.00000000E+00
  0.00000000E+00  0.00000000E+00  0.00000000E+00
  0.00000000E+00  0.00000000E+00  0.00000000E+00
  0.00000000E+00  0.00000000E+00  0.00000000E+00
  0.00000000E+00  0.00000000E+00  0.00000000E+00
  0.00000000E+00  0.00000000E+00  0.00000000E+00
  0.00000000E+00  0.00000000E+00  0.00000000E+00
  0.00000000E+00  0.00000000E+00  0.00000000E+00
  0.00000000E+00  0.00000000E+00  0.00000000E+00
  0.00000000E+00  0.00000000E+00  0.00000000E+00
  0.00000000E+00  0.00000000E+00  0.00000000E+00
  0.00000000E+00  0.00000000E+00  0.00000000E+00
  0.00000000E+00  0.00000000E+00  0.00000000E+00
  0.00000000E+00  0.00000000E+00  0.00000000E+00
  0.00000000E+00  0.00000000E+00  0.00000000E+00
  0.00000000E+00  0.00000000E+00  0.00000000E+00
  0.00000000E+00  0.00000000E+00  0.00000000E+00
  0.00000000E+00  0.00000000E+00  0.00000000E+00
  0.00000000E+00  0.00000000E+00  0.00000000E+00
  0.00000000E+00  0.00000000E+00  0.00000000E+00
  0.00000000E+00  0.00000000E+00  0.00000000E+00
  0.00000000E+00  0.00000000E+00  0.00000000E+00
  0.00000000E+00  0.00000000E+00  0.00000000E+00
  0.00000000E+00  0.00000000E+00  0.00000000E+00
  0.00000000E+00  0.00000000E+00  0.00000000E+00
  0.00000000E+00  0.00000000E+00  0.00000000E+00
  0.00000000E+00  0.00000000E+00  0.00000000E+00
  0.00000000E+00  0.00000000E+00  0.00000000E+00
  0.00000000E+00  0.00000000E+00  0.00000000E+00
  0.00000000E+00  0.00000000E+00  0.00000000E+00
  0.00000000E+00  0.00000000E+00  0.00000000E+00
  0.00000000E+00  0.00000000E+00  0.00000000E+00
  0.00000000E+00  0.00000000E+00  0.00000000E+00
  0.00000000E+00  0.00000000E+00  0.00000000E+00
  0.00000000E+00  0.00000000E+00  0.00000000E+00
  0.00000000E+00  0.00000000E+00  0.00000000E+00
  0.00000000E+00  0.00000000E+00  0.00000000E+00
  0.00000000E+00  0.00000000E+00  0.00000000E+00
  0.00000000E+00  0.00000000E+00  0.00000000E+00
  0.00000000E+00  0.00000000E+00  0.00000000E+00
  0.00000000E+00  0.00000000E+00  0.00000000E+00
  0.00000000E+00  0.00000000E+00  0.00000000E+00
  0.00000000E+00  0.00000000E+00  0.00000000E+00
  0.00000000E+00  0.00000000E+00  0.00000000E+00
  0.00000000E+00  0.00000000E+00  0.00000000E+00
  0.00000000E+00  0.00000000E+00  0.00000000E+00
  0.00000000E+00  0.00000000E+00  0.00000000E+00
  0.00000000E+00  0.00000000E+00  0.00000000E+00
  0.00000000E+00  0.00000000E+00  0.00000000E+00
  0.00000000E+00  0.00000000E+00  0.00000000E+00
  0.00000000E+00  0.00000000E+00  0.00000000E+00
  0.00000000E+00  0.00000000E+00  0.00000000E+00
  0.00000000E+00  0.00000000E+00  0.00000000E+00
  0.00000000E+00  0.00000000E+00  0.00000000E+00
  0.00000000E+00  0.00000000E+00  0.00000000E+00
  0.00000000E+00  0.00000000E+00  0.00000000E+00
  0.00000000E+00  0.00000000E+00  0.00000000E+00
  0.00000000E+00  0.00000000E+00  0.00000000E+00
  0.00000000E+00  0.00000000E+00  0.00000000E+00
  0.00000000E+00  0.00000000E+00  0.00000000E+00
  0.00000000E+00  0.00000000E+00  0.00000000E+00
  0.00000000E+00  0.00000000E+00  0.00000000E+00
  0.00000000E+00  0.00000000E+00  0.00000000E+00
  0.00000000E+00  0.00000000E+00  0.00000000E+00
  0.00000000E+00  0.00000000E+00  0.00000000E+00
  0.00000000E+00  0.00000000E+00  0.00000000E+00
  0.00000000E+00  0.00000000E+00  0.00000000E+00
  0.00000000E+00  0.00000000E+00  0.00000000E+00
  0.00000000E+00  0.00000000E+00  0.00000000E+00
  0.00000000E+00  0.00000000E+00  0.00000000E+00
  0.00000000E+00  0.00000000E+00  0.00000000E+00
  0.00000000E+00  0.00000000E+00  0.00000000E+00
  0.00000000E+00  0.00000000E+00  0.00000000E+00
  0.00000000E+00  0.00000000E+00  0.00000000E+00
