Species order:X N B                     
   2.51242800000000     
     5.9449720136058266    0.0000000000000000    0.0000000000000000
    -2.9724860068029120    5.1484967885702053   -0.0000000000000001
     0.0000000000000000    0.0000000000000009    5.3101128803662583
   S    N    B 
     2   143   143
Direct
  0.4052466618363386  0.3692899975848350  0.3750000000000000
  0.5519254984111003  0.4426294158722122  0.3750000000000000
  0.1118080714691484  0.0559264983564253  0.1252820312609920
  0.6119445281842774  0.5560641407476561  0.1229097323073246
  0.4451187211688004  0.0558863283289584  0.1251707199680714
  0.9450602405104621  0.5558422303546684  0.1250498361414029
  0.7784595480253423  0.0558964406793372  0.1247775372654060
  0.1117174234405842  0.7225253783869570  0.6249906260179433
  0.4451187211688004  0.7225657261731699  0.6248292800319196
  0.2785477936400686  0.2226152331323629  0.6246479070159485
  0.7784716545070902  0.7226722918242354  0.6253014070645151
  0.6118258625693238  0.2225011013142765  0.6252403398897264
  0.9451409358618108  0.2225435470366129  0.6251023718224196
  0.2784078777888702  0.7225301446148301  0.1250968795610664
  0.1118428435964589  0.2225880884648908  0.1254156732260481
  0.4452232593286012  0.2226208586664522  0.1247535519326337
  0.6118258625693238  0.7226580945883923  0.1247596601102660
  0.9450602405104621  0.7225513434891295  0.1250498361414029
  0.7784678386457285  0.2224854320664174  0.1247945563886709
  0.1117470298186792  0.8892239629209507  0.6249074463871168
  0.4450846457134253  0.8892089895233798  0.6249619942091313
  0.2785477936400686  0.3892658938410476  0.6246479070159485
  0.6119445281842774  0.3892137207699630  0.6270902676926661
  0.7784678386457285  0.8893157399126375  0.6252054436113309
  0.9451127755913774  0.3891714971974463  0.6250108985237579
  0.1118080714691493  0.3892149064460586  0.1252820312609920
  0.2784078777888702  0.8892110665073748  0.1250968795610664
  0.6117753030673950  0.8892532597656398  0.1249374959589899
  0.4454123243661925  0.3893728288497618  0.1216469300510777
  0.9451127755913774  0.8892746117272511  0.1249891014762487
  0.7784716545070902  0.3891326960161871  0.1246985929354746
  0.2784710931818529  0.5558839738279038  0.6245736003149724
  0.1118080714691493  0.0559264983564258  0.6247179687389970
  0.6119445281842774  0.5560641407476561  0.6270902676926661
  0.4451187211688004  0.0558863283289584  0.6248292800319196
  0.9450602405104621  0.5558422303546684  0.6249501638586112
  0.1117470298186792  0.5558564002310578  0.1250925536128740
  0.7784595480253423  0.0558964406793372  0.6252224627345925
  0.2784710931818529  0.0559204526872915  0.1254263996850220
  0.4452232593286012  0.5559357339954728  0.1247535519326337
  0.7784401445612532  0.5558867389472852  0.1245875956837671
  0.6117753030673950  0.0558553766350614  0.1249374959589899
  0.4452232593286012  0.5559357339954728  0.6252464480673680
  0.9451409358618108  0.0559307221585438  0.1248976281775734
  0.2784078777888702  0.7225301446148301  0.6249031204389458
  0.1118428435964589  0.2225880884648908  0.6245843267739483
  0.4452232593286012  0.2226208586664519  0.6252464480673680
  0.6118258625693238  0.7226580945883923  0.6252403398897264
  0.9450602405104621  0.7225513434891295  0.6249501638586112
  0.7784678386457285  0.2224854320664223  0.6252054436113309
  0.1117174234405842  0.7225253783869570  0.1250093739820763
  0.4451187211688004  0.7225657261731699  0.1251707199680714
  0.2785477936400686  0.2226152331323629  0.1253520929840470
  0.7784716545070902  0.7226722918242354  0.1246985929354746
  0.6118258625693238  0.2225011013142765  0.1247596601102660
  0.9451409358618108  0.2225435470366129  0.1248976281775734
  0.1118080714691493  0.3892149064460586  0.6247179687389970
  0.2784078777888702  0.8892110665073748  0.6249031204389458
  0.6117753030673950  0.8892532597656398  0.6250625040409986
  0.4454123243661925  0.3893728288497618  0.6283530699489345
  0.9451127755913774  0.8892746117272511  0.6250108985237579
  0.1117470298186791  0.8892239629209507  0.1250925536128740
  0.7784716545070902  0.3891326960161871  0.6253014070645151
  0.4450846457134253  0.8892089895233798  0.1250380057908670
  0.2785477936400686  0.3892658938410476  0.1253520929840470
  0.2784710931818529  0.5558839738278935  0.1254263996850220
  0.6119445281842774  0.3892137207699630  0.1229097323073262
  0.7784678386457285  0.8893157399126375  0.1247945563886709
  0.9451127755913774  0.3891714971974457  0.1249891014762487
  0.1117470298186792  0.5558564002310578  0.6249074463871168
  0.2784710931818529  0.0559204526872915  0.6245736003149724
  0.7784401445612532  0.5558867389472852  0.6254124043162407
  0.6117753030673950  0.0558553766350617  0.6250625040409986
  0.9451409358618108  0.0559307221585441  0.6251023718224196
  0.0569763593576722  0.1114990641291878  0.3750000000000000
  0.5551755959130612  0.6234092535642668  0.3750000000000000
  0.3857678646574324  0.0962566320899089  0.3750000000000000
  0.8863235564434434  0.6098284448883993  0.3750000000000000
  0.7241396810985482  0.1107823474015360  0.3750000000000000
  0.0554504831059511  0.7777238597401251  0.8750000000000000
  0.3887759901387847  0.7777220164379932  0.8750000000000000
  0.2221180372716410  0.2777256853024888  0.8750000000000000
  0.7221075611607086  0.7777196742246527  0.8750000000000000
  0.5554389608712746  0.2777200463495837  0.8750000000000000
  0.8887846391788060  0.2777311731353949  0.8750000000000000
  0.2185389542741163  0.7759361438037342  0.3750000000000000
  0.0569763593576727  0.2788106285618255  0.3750000000000000
  0.3827201089303497  0.2464955386429590  0.3750000000000000
  0.5557625197230824  0.7838557002950470  0.3750000000000000
  0.8887161682259660  0.7784608578398841  0.3750000000000000
  0.7238823167308786  0.2753831553181048  0.3750000000000000
  0.0554499834207833  0.9443867172348720  0.8750000000000000
  0.3887759901387847  0.9443873070341376  0.8750000000000000
  0.2221141053174782  0.4443964862094837  0.8750000000000000
  0.5554589371514659  0.4443961352423972  0.8750000000000000
  0.7221042176195657  0.9443849487900910  0.8750000000000000
  0.8887884515438299  0.4443987207918401  0.8750000000000000
  0.0533546700564883  0.4450129752179877  0.3750000000000000
  0.2184461961811189  0.9386368296645958  0.3750000000000000
  0.5558917460296117  0.9446125396814617  0.3750000000000000
  0.3827201089303498  0.4695579036207342  0.3750000000000000
  0.8903183768131682  0.9460351472047551  0.3750000000000000
  0.7244416073913177  0.4423165629104232  0.3750000000000000
  0.2221124987430712  0.6110591787983801  0.8750000000000000
  0.0554541288624747  0.1110570458860182  0.8750000000000000
  0.5554389608712746  0.6110522478550346  0.8750000000000000
  0.3887745515902778  0.1110521254717158  0.8750000000000000
  0.8887919675652870  0.6110626504493055  0.8750000000000000
  0.0522997498882608  0.6102840509923725  0.3750000000000000
  0.7221042176195657  0.1110526021628022  0.8750000000000000
  0.2173358177059280  0.1018744112774067  0.3750000000000000
  0.3857678646574324  0.6228445659008686  0.3750000000000000
  0.7244416073913177  0.6154583778142408  0.3750000000000000
  0.5557625197230824  0.1052401527613716  0.3750000000000000
  0.3887745515902778  0.6110557594518828  0.8750000000000000
  0.8910288301549913  0.1121810817441696  0.3750000000000000
  0.2221136692854277  0.7777235013093864  0.8750000000000000
  0.0554541288624746  0.2777304163097825  0.8750000000000000
  0.3887720965809045  0.2777130224567713  0.8750000000000000
  0.5554367872070708  0.7777181214042729  0.8750000000000000
  0.8887884515438299  0.7777230640853322  0.8750000000000000
  0.7221075611607086  0.2777212202693791  0.8750000000000000
  0.0522997498882602  0.7753490322292078  0.3750000000000000
  0.3864222035502329  0.7806133227885642  0.3750000000000000
  0.2246251439695119  0.2789792386514227  0.3750000000000000
  0.7238823167308786  0.7818324947461017  0.3750000000000000
  0.5551755959130600  0.2650996756821366  0.3750000000000000
  0.8903183768131682  0.2776165629417455  0.3750000000000000
  0.0554499834207833  0.4443965995192502  0.8750000000000000
  0.2221124987430712  0.9443866532780315  0.8750000000000000
  0.5554366943799011  0.9443850138566169  0.8750000000000000
  0.3887720965809045  0.4443924074574620  0.8750000000000000
  0.8887846391788060  0.9443867993767449  0.8750000000000000
  0.0533546700564883  0.9416750281718481  0.3750000000000000
  0.7221258991412801  0.4443965801280149  0.8750000000000000
  0.3864222035502329  0.9391422140949945  0.3750000000000000
  0.2173358177059281  0.4487947397618703  0.3750000000000000
  0.2184461961811188  0.6131426998498513  0.3750000000000000
  0.7241396810985482  0.9466906670303497  0.3750000000000000
  0.8887161682259660  0.4435886437194318  0.3750000000000000
  0.0554504831059511  0.6110599566991554  0.8750000000000000
  0.2221141053174782  0.1110509524413354  0.8750000000000000
  0.7221258991412801  0.6110626523465958  0.8750000000000000
  0.5554367872070708  0.1110519991361331  0.8750000000000000
  0.8887841988133339  0.1110587660733407  0.8750000000000000
  0.1084332184799106  0.0517760125201246  0.3750000000000000
  0.6141892505995409  0.5729455704887653  0.3750000000000000
  0.4442570780625256  0.0474474805912655  0.3750000000000000
  0.9418430475745541  0.5543515779286273  0.3750000000000000
  0.7802617368168216  0.0567975350750753  0.3750000000000000
  0.1110042343056287  0.7221687838194861  0.8750000000000000
  0.4443286835836892  0.7221285995139676  0.8750000000000000
  0.2777259909365044  0.2222125462606591  0.8750000000000000
  0.7776323134308695  0.7221262429719491  0.8750000000000000
  0.6109664724195908  0.2221935419366954  0.8750000000000000
  0.9443573143030274  0.2221833281433272  0.8750000000000000
  0.2753846573387229  0.7231961852850233  0.3750000000000000
  0.1135763772207732  0.2234548552770546  0.3750000000000000
  0.4439848849566402  0.2044009715664632  0.3750000000000000
  0.6125196100700780  0.7307443820677192  0.3750000000000000
  0.9418430475745541  0.7208248029792782  0.3750000000000000
  0.7796736110582649  0.2214214250839163  0.3750000000000000
  0.1110150112693027  0.8888473973532312  0.8750000000000000
  0.4443298358737595  0.8888315846035386  0.8750000000000000
  0.2777259909365044  0.3888467780091796  0.8750000000000000
  0.6109645425668454  0.3888423427797039  0.8750000000000000
  0.7776474071401437  0.8888019418588696  0.8750000000000000
  0.9443348618303516  0.3888427607319599  0.8750000000000000
  0.1084332184799106  0.3899905392931112  0.3750000000000000
  0.2753846573387229  0.8855218053870436  0.3750000000000000
  0.6129978301128637  0.8923930777243209  0.3750000000000000
  0.9436103344576228  0.8885385697739135  0.3750000000000000
  0.7787940009631006  0.3870164958164719  0.3750000000000000
  0.2776937842633385  0.5554860128484728  0.8750000000000000
  0.1110444393921669  0.0555292154912539  0.8750000000000000
  0.6109645425668454  0.5554555331204760  0.8750000000000000
  0.4443286835836892  0.0555334174030503  0.8750000000000000
  0.9443166082943562  0.5554954847239947  0.8750000000000000
  0.1081210825444581  0.5557858255879836  0.3750000000000000
  0.7776576889352416  0.0554955111342844  0.8750000000000000
  0.2752509683841563  0.0480873338092248  0.3750000000000000
  0.4439848849566397  0.5729172467235072  0.3750000000000000
  0.7755352105635814  0.5544342719484553  0.3750000000000000
  0.6129978301128637  0.0539380857218652  0.3750000000000000
  0.4443307729553858  0.5554506974436618  0.8750000000000000
  0.9463713146677046  0.0568088561632759  0.3750000000000000
  0.2776777778715300  0.7221597133308190  0.8750000000000000
  0.1110665661188141  0.2221999497260738  0.8750000000000000
  0.4443307729553858  0.2222134088450640  0.8750000000000000
  0.6109664724195908  0.7221062638162197  0.8750000000000000
  0.9443166082943562  0.7221544569036871  0.8750000000000000
  0.7776474071401437  0.2221787986146075  0.8750000000000000
  0.1079595969513238  0.7206464651423151  0.3750000000000000
  0.4442570780625262  0.7301429308046131  0.3750000000000000
  0.2747269173619669  0.2109214167143717  0.3750000000000000
  0.7787940009631006  0.7251108384799555  0.3750000000000000
  0.6125196100700780  0.2151085613356973  0.3750000000000000
  0.9463713146677046  0.2228957918377743  0.3750000000000000
  0.1110444393921669  0.3888485572342428  0.8750000000000000
  0.2776777778715300  0.8888513978740266  0.8750000000000000
  0.6109778862509676  0.8888038979496621  0.8750000000000000
  0.4443411590715375  0.3888372462024329  0.8750000000000000
  0.9443348618303516  0.8888254344316958  0.8750000000000000
  0.1081210825444581  0.8856685902898163  0.3750000000000000
  0.7776323134308695  0.3888394037922478  0.8750000000000000
  0.4444565736266397  0.8888949534799971  0.3750000000000000
  0.2747269173619669  0.3971388339809241  0.3750000000000000
  0.2752509683841563  0.5604969679082645  0.3750000000000000
  0.6141892505995414  0.3745770134441199  0.3750000000000000
  0.7796736110582649  0.8915855193076684  0.3750000000000000
  0.9436103344576228  0.3884050980170441  0.3750000000000000
  0.1110150112693027  0.5555009472493998  0.8750000000000000
  0.2776937842633385  0.0555411047482127  0.8750000000000000
  0.7776269081764932  0.5554801207549273  0.8750000000000000
  0.6109778862509676  0.0555073216345866  0.8750000000000000
  0.9443573143030274  0.0555073194930247  0.8750000000000000
  0.0563163913053403  0.1115464921249466  0.1253972244400968
  0.5562570154682602  0.6113909023724681  0.1246401144752970
  0.3896902106991780  0.1116844454526811  0.1256230312600700
  0.8894000482762863  0.6113666908048125  0.1251040192149319
  0.7228758256243838  0.1114210695795589  0.1250231123158100
  0.0561558407580971  0.7781140029513364  0.6248402020992416
  0.3895861971282746  0.7780692003688559  0.6247055160460711
  0.2231598142431974  0.2782465737882598  0.6240415961961762
  0.7228470616803419  0.7781318581546196  0.6250153543787722
  0.5562570154682602  0.2781994464291516  0.6253598855247103
  0.8895309607266234  0.2780360971106268  0.6249436719790067
  0.2228739723905100  0.7781036528619272  0.1251788117464723
  0.0563163913053404  0.2781032325137301  0.1253972244400968
  0.3898370119005883  0.2784525437904852  0.1251012947019733
  0.5562311189112671  0.7780752392943462  0.1252557185753627
  0.8894569064053633  0.7781301753556872  0.1251086949375617
  0.7228470616803419  0.2780485368590669  0.1249846456212323
  0.0562431709707952  0.9448762921838638  0.6247282517304967
  0.3895861971282746  0.9448503300927588  0.6247055160460711
  0.2230734251169651  0.4447210698918939  0.6243035387059863
  0.5562604722468883  0.4447969027901085  0.6268787568888763
  0.7228758256243838  0.9447880893781586  0.6249768876841897
  0.8894569064053633  0.4446600643830063  0.6248913050624486
  0.0562431709707952  0.4447002121202705  0.1252717482695037
  0.2229307793381415  0.9448974046623400  0.1253725234396715
  0.5562159834265105  0.9447746583799314  0.1251731047047542
  0.3898370119005883  0.4447178014434337  0.1251012947019733
  0.8895309607266234  0.9448281969493207  0.1250563280209966
  0.7227948533823628  0.4446903168908888  0.1243992111712911
  0.2229307793381415  0.6113667080091181  0.6246274765603305
  0.0563163913053401  0.1115464921249466  0.6246027755599087
  0.5562570154682602  0.6113909023724681  0.6253598855247103
  0.3896902106991780  0.1116844454526811  0.6243769687399205
  0.8894000482762863  0.6113666908048125  0.6248959807850595
  0.0561558407580983  0.6113751711401034  0.1251597979007672
  0.7228758256243838  0.1114210695795589  0.6249768876841897
  0.2230734251169651  0.1116856885584054  0.1256964612940270
  0.3896902106991780  0.6113390985798465  0.1256230312600700
  0.7227948533823628  0.6114378698248293  0.1243992111712911
  0.5562311189112671  0.1114892129502377  0.1252557185753627
  0.3896902106991780  0.6113390985798465  0.6243769687399205
  0.8895621147451600  0.1114477240392489  0.1250205031572084
  0.2228739723905100  0.7781036528619272  0.6248211882535315
  0.0563163913053403  0.2781032325137301  0.6246027755599087
  0.3898370119005883  0.2784525437904852  0.6248987052980283
  0.5562311189112671  0.7780752392943462  0.6247442814246287
  0.8894569064053633  0.7781301753556872  0.6248913050624486
  0.7228470616803419  0.2780485368590669  0.6250153543787722
  0.0561558407580983  0.7781140029513364  0.1251597979007672
  0.3895861971282742  0.7780692003688559  0.1252944839539371
  0.2231598142431974  0.2782465737882598  0.1259584038038262
  0.7228470616803419  0.7781318581546196  0.1249846456212323
  0.5562570154682602  0.2781994464291516  0.1246401144752970
  0.8895309607266234  0.2780360971106268  0.1250563280209966
  0.0562431709707952  0.4447002121202705  0.6247282517304967
  0.2229307793381415  0.9448974046623446  0.6246274765603305
  0.5562159834265105  0.9447746583799314  0.6248268952952375
  0.3898370119005883  0.4447178014434337  0.6248987052980283
  0.8895309607266234  0.9448281969493207  0.6249436719790067
  0.0562431709707952  0.9448762921838638  0.1252717482695037
  0.7227948533823628  0.4446903168908888  0.6256007888287037
  0.3895861971282742  0.9448503300927588  0.1252944839539371
  0.2230734251169651  0.4447210698918939  0.1256964612940270
  0.2229307793381415  0.6113667080091181  0.1253725234396715
  0.5562604722469005  0.4447969027901085  0.1231212431111166
  0.7228758256243838  0.9447880893781586  0.1250231123158100
  0.8894569064053633  0.4446600643830063  0.1251086949375617
  0.0561558407580980  0.6113751711401034  0.6248402020992416
  0.2230734251169651  0.1116856885584054  0.6243035387059863
  0.7227948533823628  0.6114378698248293  0.6256007888287037
  0.5562311189112671  0.1114892129502377  0.6247442814246287
  0.8895621147451600  0.1114477240392488  0.6249794968427907
 
  0.00000000E+00  0.00000000E+00  0.00000000E+00
  0.00000000E+00  0.00000000E+00  0.00000000E+00
  0.00000000E+00  0.00000000E+00  0.00000000E+00
  0.00000000E+00  0.00000000E+00  0.00000000E+00
  0.00000000E+00  0.00000000E+00  0.00000000E+00
  0.00000000E+00  0.00000000E+00  0.00000000E+00
  0.00000000E+00  0.00000000E+00  0.00000000E+00
  0.00000000E+00  0.00000000E+00  0.00000000E+00
  0.00000000E+00  0.00000000E+00  0.00000000E+00
  0.00000000E+00  0.00000000E+00  0.00000000E+00
  0.00000000E+00  0.00000000E+00  0.00000000E+00
  0.00000000E+00  0.00000000E+00  0.00000000E+00
  0.00000000E+00  0.00000000E+00  0.00000000E+00
  0.00000000E+00  0.00000000E+00  0.00000000E+00
  0.00000000E+00  0.00000000E+00  0.00000000E+00
  0.00000000E+00  0.00000000E+00  0.00000000E+00
  0.00000000E+00  0.00000000E+00  0.00000000E+00
  0.00000000E+00  0.00000000E+00  0.00000000E+00
  0.00000000E+00  0.00000000E+00  0.00000000E+00
  0.00000000E+00  0.00000000E+00  0.00000000E+00
  0.00000000E+00  0.00000000E+00  0.00000000E+00
  0.00000000E+00  0.00000000E+00  0.00000000E+00
  0.00000000E+00  0.00000000E+00  0.00000000E+00
  0.00000000E+00  0.00000000E+00  0.00000000E+00
  0.00000000E+00  0.00000000E+00  0.00000000E+00
  0.00000000E+00  0.00000000E+00  0.00000000E+00
  0.00000000E+00  0.00000000E+00  0.00000000E+00
  0.00000000E+00  0.00000000E+00  0.00000000E+00
  0.00000000E+00  0.00000000E+00  0.00000000E+00
  0.00000000E+00  0.00000000E+00  0.00000000E+00
  0.00000000E+00  0.00000000E+00  0.00000000E+00
  0.00000000E+00  0.00000000E+00  0.00000000E+00
  0.00000000E+00  0.00000000E+00  0.00000000E+00
  0.00000000E+00  0.00000000E+00  0.00000000E+00
  0.00000000E+00  0.00000000E+00  0.00000000E+00
  0.00000000E+00  0.00000000E+00  0.00000000E+00
  0.00000000E+00  0.00000000E+00  0.00000000E+00
  0.00000000E+00  0.00000000E+00  0.00000000E+00
  0.00000000E+00  0.00000000E+00  0.00000000E+00
  0.00000000E+00  0.00000000E+00  0.00000000E+00
  0.00000000E+00  0.00000000E+00  0.00000000E+00
  0.00000000E+00  0.00000000E+00  0.00000000E+00
  0.00000000E+00  0.00000000E+00  0.00000000E+00
  0.00000000E+00  0.00000000E+00  0.00000000E+00
  0.00000000E+00  0.00000000E+00  0.00000000E+00
  0.00000000E+00  0.00000000E+00  0.00000000E+00
  0.00000000E+00  0.00000000E+00  0.00000000E+00
  0.00000000E+00  0.00000000E+00  0.00000000E+00
  0.00000000E+00  0.00000000E+00  0.00000000E+00
  0.00000000E+00  0.00000000E+00  0.00000000E+00
  0.00000000E+00  0.00000000E+00  0.00000000E+00
  0.00000000E+00  0.00000000E+00  0.00000000E+00
  0.00000000E+00  0.00000000E+00  0.00000000E+00
  0.00000000E+00  0.00000000E+00  0.00000000E+00
  0.00000000E+00  0.00000000E+00  0.00000000E+00
  0.00000000E+00  0.00000000E+00  0.00000000E+00
  0.00000000E+00  0.00000000E+00  0.00000000E+00
  0.00000000E+00  0.00000000E+00  0.00000000E+00
  0.00000000E+00  0.00000000E+00  0.00000000E+00
  0.00000000E+00  0.00000000E+00  0.00000000E+00
  0.00000000E+00  0.00000000E+00  0.00000000E+00
  0.00000000E+00  0.00000000E+00  0.00000000E+00
  0.00000000E+00  0.00000000E+00  0.00000000E+00
  0.00000000E+00  0.00000000E+00  0.00000000E+00
  0.00000000E+00  0.00000000E+00  0.00000000E+00
  0.00000000E+00  0.00000000E+00  0.00000000E+00
  0.00000000E+00  0.00000000E+00  0.00000000E+00
  0.00000000E+00  0.00000000E+00  0.00000000E+00
  0.00000000E+00  0.00000000E+00  0.00000000E+00
  0.00000000E+00  0.00000000E+00  0.00000000E+00
  0.00000000E+00  0.00000000E+00  0.00000000E+00
  0.00000000E+00  0.00000000E+00  0.00000000E+00
  0.00000000E+00  0.00000000E+00  0.00000000E+00
  0.00000000E+00  0.00000000E+00  0.00000000E+00
  0.00000000E+00  0.00000000E+00  0.00000000E+00
  0.00000000E+00  0.00000000E+00  0.00000000E+00
  0.00000000E+00  0.00000000E+00  0.00000000E+00
  0.00000000E+00  0.00000000E+00  0.00000000E+00
  0.00000000E+00  0.00000000E+00  0.00000000E+00
  0.00000000E+00  0.00000000E+00  0.00000000E+00
  0.00000000E+00  0.00000000E+00  0.00000000E+00
  0.00000000E+00  0.00000000E+00  0.00000000E+00
  0.00000000E+00  0.00000000E+00  0.00000000E+00
  0.00000000E+00  0.00000000E+00  0.00000000E+00
  0.00000000E+00  0.00000000E+00  0.00000000E+00
  0.00000000E+00  0.00000000E+00  0.00000000E+00
  0.00000000E+00  0.00000000E+00  0.00000000E+00
  0.00000000E+00  0.00000000E+00  0.00000000E+00
  0.00000000E+00  0.00000000E+00  0.00000000E+00
  0.00000000E+00  0.00000000E+00  0.00000000E+00
  0.00000000E+00  0.00000000E+00  0.00000000E+00
  0.00000000E+00  0.00000000E+00  0.00000000E+00
  0.00000000E+00  0.00000000E+00  0.00000000E+00
  0.00000000E+00  0.00000000E+00  0.00000000E+00
  0.00000000E+00  0.00000000E+00  0.00000000E+00
  0.00000000E+00  0.00000000E+00  0.00000000E+00
  0.00000000E+00  0.00000000E+00  0.00000000E+00
  0.00000000E+00  0.00000000E+00  0.00000000E+00
  0.00000000E+00  0.00000000E+00  0.00000000E+00
  0.00000000E+00  0.00000000E+00  0.00000000E+00
  0.00000000E+00  0.00000000E+00  0.00000000E+00
  0.00000000E+00  0.00000000E+00  0.00000000E+00
  0.00000000E+00  0.00000000E+00  0.00000000E+00
  0.00000000E+00  0.00000000E+00  0.00000000E+00
  0.00000000E+00  0.00000000E+00  0.00000000E+00
  0.00000000E+00  0.00000000E+00  0.00000000E+00
  0.00000000E+00  0.00000000E+00  0.00000000E+00
  0.00000000E+00  0.00000000E+00  0.00000000E+00
  0.00000000E+00  0.00000000E+00  0.00000000E+00
  0.00000000E+00  0.00000000E+00  0.00000000E+00
  0.00000000E+00  0.00000000E+00  0.00000000E+00
  0.00000000E+00  0.00000000E+00  0.00000000E+00
  0.00000000E+00  0.00000000E+00  0.00000000E+00
  0.00000000E+00  0.00000000E+00  0.00000000E+00
  0.00000000E+00  0.00000000E+00  0.00000000E+00
  0.00000000E+00  0.00000000E+00  0.00000000E+00
  0.00000000E+00  0.00000000E+00  0.00000000E+00
  0.00000000E+00  0.00000000E+00  0.00000000E+00
  0.00000000E+00  0.00000000E+00  0.00000000E+00
  0.00000000E+00  0.00000000E+00  0.00000000E+00
  0.00000000E+00  0.00000000E+00  0.00000000E+00
  0.00000000E+00  0.00000000E+00  0.00000000E+00
  0.00000000E+00  0.00000000E+00  0.00000000E+00
  0.00000000E+00  0.00000000E+00  0.00000000E+00
  0.00000000E+00  0.00000000E+00  0.00000000E+00
  0.00000000E+00  0.00000000E+00  0.00000000E+00
  0.00000000E+00  0.00000000E+00  0.00000000E+00
  0.00000000E+00  0.00000000E+00  0.00000000E+00
  0.00000000E+00  0.00000000E+00  0.00000000E+00
  0.00000000E+00  0.00000000E+00  0.00000000E+00
  0.00000000E+00  0.00000000E+00  0.00000000E+00
  0.00000000E+00  0.00000000E+00  0.00000000E+00
  0.00000000E+00  0.00000000E+00  0.00000000E+00
  0.00000000E+00  0.00000000E+00  0.00000000E+00
  0.00000000E+00  0.00000000E+00  0.00000000E+00
  0.00000000E+00  0.00000000E+00  0.00000000E+00
  0.00000000E+00  0.00000000E+00  0.00000000E+00
  0.00000000E+00  0.00000000E+00  0.00000000E+00
  0.00000000E+00  0.00000000E+00  0.00000000E+00
  0.00000000E+00  0.00000000E+00  0.00000000E+00
  0.00000000E+00  0.00000000E+00  0.00000000E+00
  0.00000000E+00  0.00000000E+00  0.00000000E+00
  0.00000000E+00  0.00000000E+00  0.00000000E+00
  0.00000000E+00  0.00000000E+00  0.00000000E+00
  0.00000000E+00  0.00000000E+00  0.00000000E+00
  0.00000000E+00  0.00000000E+00  0.00000000E+00
  0.00000000E+00  0.00000000E+00  0.00000000E+00
  0.00000000E+00  0.00000000E+00  0.00000000E+00
  0.00000000E+00  0.00000000E+00  0.00000000E+00
  0.00000000E+00  0.00000000E+00  0.00000000E+00
  0.00000000E+00  0.00000000E+00  0.00000000E+00
  0.00000000E+00  0.00000000E+00  0.00000000E+00
  0.00000000E+00  0.00000000E+00  0.00000000E+00
  0.00000000E+00  0.00000000E+00  0.00000000E+00
  0.00000000E+00  0.00000000E+00  0.00000000E+00
  0.00000000E+00  0.00000000E+00  0.00000000E+00
  0.00000000E+00  0.00000000E+00  0.00000000E+00
  0.00000000E+00  0.00000000E+00  0.00000000E+00
  0.00000000E+00  0.00000000E+00  0.00000000E+00
  0.00000000E+00  0.00000000E+00  0.00000000E+00
  0.00000000E+00  0.00000000E+00  0.00000000E+00
  0.00000000E+00  0.00000000E+00  0.00000000E+00
  0.00000000E+00  0.00000000E+00  0.00000000E+00
  0.00000000E+00  0.00000000E+00  0.00000000E+00
  0.00000000E+00  0.00000000E+00  0.00000000E+00
  0.00000000E+00  0.00000000E+00  0.00000000E+00
  0.00000000E+00  0.00000000E+00  0.00000000E+00
  0.00000000E+00  0.00000000E+00  0.00000000E+00
  0.00000000E+00  0.00000000E+00  0.00000000E+00
  0.00000000E+00  0.00000000E+00  0.00000000E+00
  0.00000000E+00  0.00000000E+00  0.00000000E+00
  0.00000000E+00  0.00000000E+00  0.00000000E+00
  0.00000000E+00  0.00000000E+00  0.00000000E+00
  0.00000000E+00  0.00000000E+00  0.00000000E+00
  0.00000000E+00  0.00000000E+00  0.00000000E+00
  0.00000000E+00  0.00000000E+00  0.00000000E+00
  0.00000000E+00  0.00000000E+00  0.00000000E+00
  0.00000000E+00  0.00000000E+00  0.00000000E+00
  0.00000000E+00  0.00000000E+00  0.00000000E+00
  0.00000000E+00  0.00000000E+00  0.00000000E+00
  0.00000000E+00  0.00000000E+00  0.00000000E+00
  0.00000000E+00  0.00000000E+00  0.00000000E+00
  0.00000000E+00  0.00000000E+00  0.00000000E+00
  0.00000000E+00  0.00000000E+00  0.00000000E+00
  0.00000000E+00  0.00000000E+00  0.00000000E+00
  0.00000000E+00  0.00000000E+00  0.00000000E+00
  0.00000000E+00  0.00000000E+00  0.00000000E+00
  0.00000000E+00  0.00000000E+00  0.00000000E+00
  0.00000000E+00  0.00000000E+00  0.00000000E+00
  0.00000000E+00  0.00000000E+00  0.00000000E+00
  0.00000000E+00  0.00000000E+00  0.00000000E+00
  0.00000000E+00  0.00000000E+00  0.00000000E+00
  0.00000000E+00  0.00000000E+00  0.00000000E+00
  0.00000000E+00  0.00000000E+00  0.00000000E+00
  0.00000000E+00  0.00000000E+00  0.00000000E+00
  0.00000000E+00  0.00000000E+00  0.00000000E+00
  0.00000000E+00  0.00000000E+00  0.00000000E+00
  0.00000000E+00  0.00000000E+00  0.00000000E+00
  0.00000000E+00  0.00000000E+00  0.00000000E+00
  0.00000000E+00  0.00000000E+00  0.00000000E+00
  0.00000000E+00  0.00000000E+00  0.00000000E+00
  0.00000000E+00  0.00000000E+00  0.00000000E+00
  0.00000000E+00  0.00000000E+00  0.00000000E+00
  0.00000000E+00  0.00000000E+00  0.00000000E+00
  0.00000000E+00  0.00000000E+00  0.00000000E+00
  0.00000000E+00  0.00000000E+00  0.00000000E+00
  0.00000000E+00  0.00000000E+00  0.00000000E+00
  0.00000000E+00  0.00000000E+00  0.00000000E+00
  0.00000000E+00  0.00000000E+00  0.00000000E+00
  0.00000000E+00  0.00000000E+00  0.00000000E+00
  0.00000000E+00  0.00000000E+00  0.00000000E+00
  0.00000000E+00  0.00000000E+00  0.00000000E+00
  0.00000000E+00  0.00000000E+00  0.00000000E+00
  0.00000000E+00  0.00000000E+00  0.00000000E+00
  0.00000000E+00  0.00000000E+00  0.00000000E+00
  0.00000000E+00  0.00000000E+00  0.00000000E+00
  0.00000000E+00  0.00000000E+00  0.00000000E+00
  0.00000000E+00  0.00000000E+00  0.00000000E+00
  0.00000000E+00  0.00000000E+00  0.00000000E+00
  0.00000000E+00  0.00000000E+00  0.00000000E+00
  0.00000000E+00  0.00000000E+00  0.00000000E+00
  0.00000000E+00  0.00000000E+00  0.00000000E+00
  0.00000000E+00  0.00000000E+00  0.00000000E+00
  0.00000000E+00  0.00000000E+00  0.00000000E+00
  0.00000000E+00  0.00000000E+00  0.00000000E+00
  0.00000000E+00  0.00000000E+00  0.00000000E+00
  0.00000000E+00  0.00000000E+00  0.00000000E+00
  0.00000000E+00  0.00000000E+00  0.00000000E+00
  0.00000000E+00  0.00000000E+00  0.00000000E+00
  0.00000000E+00  0.00000000E+00  0.00000000E+00
  0.00000000E+00  0.00000000E+00  0.00000000E+00
  0.00000000E+00  0.00000000E+00  0.00000000E+00
  0.00000000E+00  0.00000000E+00  0.00000000E+00
  0.00000000E+00  0.00000000E+00  0.00000000E+00
  0.00000000E+00  0.00000000E+00  0.00000000E+00
  0.00000000E+00  0.00000000E+00  0.00000000E+00
  0.00000000E+00  0.00000000E+00  0.00000000E+00
  0.00000000E+00  0.00000000E+00  0.00000000E+00
  0.00000000E+00  0.00000000E+00  0.00000000E+00
  0.00000000E+00  0.00000000E+00  0.00000000E+00
  0.00000000E+00  0.00000000E+00  0.00000000E+00
  0.00000000E+00  0.00000000E+00  0.00000000E+00
  0.00000000E+00  0.00000000E+00  0.00000000E+00
  0.00000000E+00  0.00000000E+00  0.00000000E+00
  0.00000000E+00  0.00000000E+00  0.00000000E+00
  0.00000000E+00  0.00000000E+00  0.00000000E+00
  0.00000000E+00  0.00000000E+00  0.00000000E+00