 B N S 
 1.0
 14.936314146199660   0.000000000000000   0.000000000000000
 -7.468157073099825  12.935227489513863   0.000000000000000
  0.000000000000001   0.000000000000001  13.341276283792837
 B N S 
 143 143   2
Cartesian
  1.232921220980377   0.669734500447735   5.002978606422314 
  4.894876077426807   7.411181293381477   5.002978606422314 
  6.281218041836204   0.613743955252320   5.002978606422314 
  9.927678977295884   7.170663769677764   5.002978606422314 
 11.230061504049859   0.734689037039739   5.002978606422314 
 -3.735275795706164   9.341417504530613  11.673616748318732 
  1.243662994025416   9.340897711397229  11.673616748318732 
  2.488684448104162   2.874369836905749  11.673616748318732 
  6.222008314517494   9.340867228990124  11.673616748318732 
  7.466210893042811   2.874124011651990  11.673616748318732 
 12.445917519092975   2.873991893911244  11.673616748318732 
 -1.287710953320442   9.354707176210391   5.002978606422314 
  0.027616491800905   2.890439386645104   5.002978606422314 
  5.104999156324134   2.643973066289854   5.002978606422314 
  3.691471491147410   9.452344818730181   5.002978606422314 
  8.684430784152127   9.324032806620972   5.002978606422314 
  9.991840004391845   2.864136504512805   5.002978606422314 
 -4.979896894187696  11.497443288226368  11.673616748318732 
 -0.001283872211629  11.497238746711867  11.673616748318732 
  1.244233831650890   5.029821532113241  11.673616748318732 
  6.221622647416619   5.029764161411000  11.673616748318732 
  4.977473459344642  11.496855311066160  11.673616748318732 
 11.200943341622137   5.029769567718512  11.673616748318732 
 -1.292917989364409   5.044616344514587   5.002978606422314 
 -2.499984181230663  11.454425999606437   5.002978606422314 
  2.491396486112258  11.543307470431518   5.002978606422314 
  7.458314782480529  11.493448533232865   5.002978606422314 
  8.742011872922504   5.006146415580557   5.002978606422314 
 -0.000735197658116   7.185337943438020  11.673616748318732 
  1.243893727515343   0.718283034693609  11.673616748318732 
  4.977329171501454   7.184943681222561  11.673616748318732 
  6.221900518201335   0.718337387378581  11.673616748318732 
  9.956081981641756   7.185460464302650  11.673616748318732 
 -2.535765389782318   7.189216089427848   5.002978606422314 
 11.200890346141597   0.717847061168814  11.673616748318732 
  3.752111170717550   0.622020602186517   5.002978606422314 
  2.352861729457655   7.410814919034505   5.002978606422314 
  7.443035306795942   7.171733435636261   5.002978606422314 
  8.753110065111255   0.697701409161224   5.002978606422314 
  2.488470954813246   7.184881130642906  11.673616748318732 
 13.711041793858332   0.734835477891047   5.002978606422314 
 -1.245719649311476   9.341300175696263  11.673616748318732 
 -0.000499003498943   2.874206897865312  11.673616748318732 
  4.977139368681474   2.874380994631256  11.673616748318732 
  3.732784163205650   9.340608794065721  11.673616748318732 
  8.711446599762441   9.341232182615528  11.673616748318732 
  9.955919801656322   2.873933303426830  11.673616748318732 
 -3.769382540694891   9.321725966129867   5.002978606422314 
  1.182741186552328   9.444564909818048   5.002978606422314 
  2.528213272031700   2.728316507610954   5.002978606422314 
  6.217070216385177   9.379473650850361   5.002978606422314 
  7.542320792890893   2.782478175819287   5.002978606422314 
 12.470678470451354   2.883207773876935   5.002978606422314 
 -1.245387472123538   5.029844546794186  11.673616748318732 
 -2.490599332259760  11.497495035872941  11.673616748318732 
  2.488030528354038  11.496880613545544  11.673616748318732 
  3.732921509467594   5.029698236024582  11.673616748318732 
  7.466994200604093  11.497159192839979  11.673616748318732 
 -4.999381692284031  11.456324695715820   5.002978606422314 
  8.711046779908461   5.029726144939668  11.673616748318732 
  0.000135873956635  11.498058437544605   5.002978606422314 
  1.137512350138119   5.137081162463531   5.002978606422314 
 -0.074644462503689   7.250155787076160   5.002978606422314 
  6.376323619800379   4.845238881242386   5.002978606422314 
  4.986949283977194  11.532861518601042   5.002978606422314 
 11.193390107075569   5.024108300937395   5.002978606422314 
 -2.490413245052054   7.185531123311431  11.673616748318732 
  3.732931903931083   0.718436824937055  11.673616748318732 
  7.466466996279805   7.185261727867613  11.673616748318732 
  8.711220248751331   0.717999832676999  11.673616748318732 
 13.690680132010774   0.717999804975407  11.673616748318732 
  0.008112587974469   1.442879251293456   1.672959016476113 
  3.742466237079544   7.908480407207034   1.662858203258504 
  4.986458425438986   1.444663708970631   1.675971567648138 
  8.718576046508154   7.908167225071540   1.669047284559336 
  9.964990371346314   1.441256882136549   1.667967883264884 
 -4.972316316112138  10.065081640951794   8.336165769426939 
  0.008238825235389  10.064502109355296   8.334368885580012 
  1.255195972241366   3.599182730128949   8.325511347432270 
  4.985459852633216  10.065312602068143   8.338502524379885 
  6.230792365479048   3.598573127017907   8.343099009586217 
 11.209896626969833   3.596460166422529   8.337546189679937 
 -2.482084632089524  10.064947760190750   1.670045112386575 
 -1.235759310832472   3.597328578134266   1.672959016476113 
  3.743200741131408   3.601846998963745   1.669010936079211 
  2.497254628210913  10.064580224230301   1.671071147638920 
  7.474009400702429  10.065290834681125   1.669109664666769 
  8.720160645705851   3.596621077398512   1.667454688464795 
 -6.216418894479048  12.222189788846652   8.334672208627440 
 -1.237308848371758  12.221853963292103   8.334368885580012 
  0.010647951546066   5.752568208431645   8.329005994826113 
  4.986668024928057   5.753549124221231   8.363362692095096 
  3.741274567949278  12.221048865489642   8.337989329579743 
  9.964416568630440   5.751779088296065   8.336847548178007 
 -2.481025364356776   5.752298408410763   1.671285004217200 
 -3.726878082931116  12.222462883558604   1.672629473604958 
  1.252091114130184  12.220875132472154   1.669968973166252 
  2.501505681179772   5.752525930307275   1.669010936079211 
  6.230188490272407  12.221567666046676   1.668411023164745 
  7.474873857947603   5.752170411367659   1.659644245722082 
 -1.236018451624443   7.908167447613139   8.333327739239698 
  0.008112587974469   1.442879251293457   8.332998196368594 
  3.742466237079544   7.908480407207035   8.343099009586217 
  4.986458425438987   1.444663708970632   8.329985645196370 
  8.718576046508154   7.908167225071541   8.336909928285172 
 -3.727084529960662   7.908276920137703   1.669791443417807 
  9.964990371346314   1.441256882136549   8.337989329579743 
  2.497808490244259   1.444679788825964   1.676951218018687 
  1.254958993580110   7.907810313364650   1.675971567648138 
  6.229576941081913   7.909087941887926   1.659644245722082 
  7.475423775682169   1.442138332138184   1.671071147638920 
  1.254958993580110   7.907810313364651   8.329985645196370 
 12.454470089826824   1.441601663636249   1.667933073759107 
 -2.482084632089523  10.064947760190750   8.335912100458104 
 -1.235759310832472   3.597328578134267   8.332998196368594 
  3.743200741131409   3.601846998963746   8.336946276765431 
  2.497254628210914  10.064580224230301   8.334886065205600 
  7.474009400702430  10.065290834681125   8.336847548178007 
  8.720160645705851   3.596621077398513   8.338502524379885 
 -4.972316316112123  10.065081640951794   1.669791443417807 
  0.008238825235373  10.064502109355296   1.671588327264722 
  1.255195972241365   3.599182730128948   1.680445865412385 
  4.985459852633215  10.065312602068143   1.667454688464795 
  6.230792365479047   3.598573127017906   1.662858203258504 
 11.209896626969833   3.596460166422528   1.668411023164745 
 -2.481025364356775   5.752298408410764   8.334672208627440 
 -3.726878082931153  12.222462883558670   8.333327739239698 
  1.252091114130185  12.220875132472154   8.335988239678256 
  2.501505681179773   5.752525930307276   8.336946276765431 
  6.230188490272408  12.221567666046676   8.337546189679937 
 -6.216418894479049  12.222189788846652   1.671285004217200 
  7.474873857947604   5.752170411367659   8.346312967122479 
 -1.237308848371773  12.221853963292103   1.671588327264722 
  0.010647951546065   5.752568208431644   1.676951218018687 
 -1.236018451624444   7.908167447613138   1.672629473604958 
  4.986668024928235   5.753549124221230   1.642594520749437 
  3.741274567949278  12.221048865489642   1.667967883264884 
  9.964416568630440   5.751779088296064   1.669109664666769 
 -3.727084529960661   7.908276920137704   8.336165769426939 
  2.497808490244259   1.444679788825965   8.329005994826113 
  6.229576941081914   7.909087941887927   8.346312967122479 
  7.475423775682170   1.442138332138184   8.334886065205600 
 12.454470089826824   1.441601663636250   8.338024139085507 
  1.252332605269697   0.723421978932281   1.671422192447665 
  4.987421367186509   7.192816159331985   1.639772696679041 
  6.231065173532363   0.722902370488735   1.669937157735300 
  9.964599555196470   7.189945697916398   1.668324413205480 
 11.209872960594614   0.723033176041341   1.664691598669038 
 -3.727286482982107   9.346030136382371   8.338172616486021 
  1.252198713032179   9.346552044175736   8.336020055109207 
  2.497951822641643   2.879578683198280   8.333600307592713 
  6.230466997909281   9.347930495114829   8.342318832292104 
  7.476750112552287   2.878102362167546   8.341504118241374 
 12.454931765590949   2.878651407241919   8.339663448137104 
 -1.237581086601756   9.346091788624177   1.668952032464539 
  0.008197039704142   2.879227560749402   1.673205146826586 
  4.987426926257482   2.879651450761471   1.664371603717768 
  3.741499125571862   9.347746850639478   1.664453094603147 
  8.719589712791139   9.346366000885768   1.668324413205480 
  9.965884037577194   2.877899676881886   1.664918655494624 
 -4.971775485981425  11.502314249509542   8.337062894049989 
  0.007171685452715  11.502120565205670   8.337790631614157 
  1.253378512133318   5.035242890742910   8.333600307592713 
  6.233486511292594   5.034568020199599   8.366184516165466 
  4.985890557478114  11.503501405775303   8.341038557350030 
 11.210107450375554   5.034021848683672   8.338443077587064 
 -1.236717576987069   5.034583357189629   1.671422192447665 
 -2.482380392384366  11.502147431466138   1.668952032464539 
  2.496585091805276  11.502693210860318   1.666825651794137 
  3.744920955475187   5.036626119407218   1.622925302886653 
  7.475258838320539  11.502969403341105   1.667514135257657 
  8.721393089502012   5.033519946577224   1.663638380552390 
  0.007902897434096   7.190485659238909   8.332608961365242 
  1.252332605269705   0.723421978932294   8.334535020396816 
  4.987421367186510   7.192816159331986   8.366184516165466 
  6.231065173532364   0.722902370488736   8.336020055109207 
  9.964599555196470   7.189945697916399   8.337632799639335 
 -2.482134164736852   7.190128988491002   1.668894318794520 
 11.209872960594614   0.723033176041342   8.341265614175564 
  3.741709004132258   0.723343776826706   1.673348251479305 
  2.498179082499669   7.191155188781310   1.664371603717768 
  7.475577061868389   7.190521426687138   1.662157535550612 
  8.720531387413331   0.722502003286992   1.666825651794137 
  2.498179082499669   7.191155188781311   8.341585609126886 
 13.699222512173241   0.723476614773561   1.666293764707431 
 -1.237581086601756   9.346091788624177   8.337005180380249 
  0.008197039704142   2.879227560749403   8.332752066017989 
  4.987426926257483   2.879651450761472   8.341585609126886 
  3.741499125571863   9.347746850639478   8.341504118241374 
  8.719589712791139   9.346366000885768   8.337632799639335 
  9.965884037577156   2.877899676881952   8.341038557350030 
 -3.727286482982107   9.346030136382371   1.667784596358860 
  1.252198713032179   9.346552044175736   1.669937157735300 
  2.497951822641642   2.879578683198279   1.672356905251861 
  6.230466997909280   9.347930495114829   1.663638380552390 
  7.476750112552286   2.878102362167545   1.664453094603147 
 12.454931765590949   2.878651407241918   1.666293764707431 
 -1.236717576987068   5.034583357189629   8.334535020396816 
 -2.482380392384365  11.502147431466138   8.337005180380249 
  2.496585091805276  11.502693210860318   8.339131561050344 
  3.744920955475188   5.036626119407219   8.383031909958135 
  7.475258838320540  11.502969403341105   8.338443077587064 
 -4.971775485981426  11.502314249509542   1.668894318794520 
  8.721393089502012   5.033519946577225   8.342318832292104 
  0.007171685452715  11.502120565205670   1.668166581230445 
  1.253378512133318   5.035242890742909   1.672356905251861 
  0.007902897434177   7.190485659238766   1.673348251479305 
  6.233486511292593   5.034568020199599   1.639772696679055 
  4.985890557478113  11.503501405775303   1.664918655494624 
 11.210107450375554   5.034021848683671   1.667514135257657 
 -2.482134164736852   7.190128988491002   8.337062894049989 
  3.741709004132259   0.723343776826707   8.332608961365242 
  7.475577061868390   7.190521426687138   8.343799677294124 
  8.720531387413322   0.722502003287005   8.339131561050344 
 13.699222512173241   0.723476614773561   8.339663448137104 
  0.018324277852546   1.442265759378942   5.002978606422314 
  3.636558880419216   8.063940513921825   5.002978606422314 
  5.043090366257016   1.245101433457414   5.002978606422314 
  8.684112460145425   7.888269664207910   5.002978606422314 
  9.988637791295369   1.432994865461224   5.002978606422314 
 -4.979938108807689  10.060035049761291  11.673616748318732 
 -0.001269856754140  10.060011206228882  11.673616748318732 
  1.243525741153237   3.592444919068833  11.673616748318732 
  4.977492694892700  10.059980909166500  11.673616748318732 
  6.222153880124806   3.592371977930205  11.673616748318732 
 11.201026554019947   3.592515905435897  11.673616748318732 
 -2.530646526401499  10.036910537437443   5.002978606422314 
 -1.231184765476434   3.606478906941558   5.002978606422314 
  3.875560376647497   3.188475867496931   5.002978606422314 
  2.447086092819365  10.139351802268633   5.002978606422314 
  7.460475913821566  10.069568287841010   5.002978606422314 
  8.755529028369757   3.562143760819818   5.002978606422314 
 -6.224609970284754  12.215857025508274  11.673616748318732 
 -1.245952425559979  12.215864654695952  11.673616748318732 
 -0.001256708422138   5.748369644660287  11.673616748318732 
  4.977689039939736   5.748365104821175  11.673616748318732 
  3.732760305625829  12.215834150272730  11.673616748318732 
  9.956384071814904   5.748398549491406  11.673616748318732 
 -2.526504685364876   5.756344070230071   5.002978606422314 
 -3.747106268328094  12.141480921747625   5.002978606422314 
  1.248458930416823  12.218778090227152   5.002978606422314 
  2.209695597896352   6.073838302833421   5.002978606422314 
  6.232935890217817  12.237179842169242   5.002978606422314 
  7.517197860725885   5.721465363626193   5.002978606422314 
 -1.245943871201806   7.904189487312573  11.673616748318732 
 -0.001111173357472   1.436548152849024  11.673616748318732 
  3.732776641759937   7.904099833983688  11.673616748318732 
  4.977504118275935   1.436484506170685  11.673616748318732 
  8.711764183113916   7.904234393907064  11.673616748318732 
 -3.776531657919960   7.894163032808412   5.002978606422314 
  9.956217164333291   1.436490672278324  11.673616748318732 
  2.485381943327675   1.317768685233557   5.002978606422314 
  1.110448963757673   8.056636150535249   5.002978606422314 
  6.224147591102597   7.961094127354380   5.002978606422314 
  7.515093594048490   1.361305316999538   5.002978606422314 
  1.243398442591335   7.904145257287768  11.673616748318732 
 12.470900581420013   1.451087812380590   5.002978606422314 
 -2.490601726607399  10.060030413378142  11.673616748318732 
 -1.245854083585100   3.592506115724436  11.673616748318732 
  3.732817692856608   3.592281122278806  11.673616748318732 
  2.488057252837437  10.059960823081633  11.673616748318732 
  7.467065519811260  10.060024757785540  11.673616748318732 
  8.711559685337756   3.592387162849807  11.673616748318732 
 -5.009262865064942  10.029316115659222   5.002978606422314 
 -0.058019482646381  10.097410911615391   5.002978606422314 
  1.271610941081329   3.608659916807536   5.002978606422314 
  4.973285811953827  10.113181178234981   5.002978606422314 
  6.312471088839043   3.429124612344789   5.002978606422314 
 11.224790868072979   3.591033396508430   5.002978606422314 
 -2.490605236186819   5.748371110347887  11.673616748318732 
 -3.735285807395520  12.215856198211998  11.673616748318732 
  1.243361334622123  12.215834991923044  11.673616748318732 
  2.488029864823769   5.748316885075009  11.673616748318732 
  6.222337623583818  12.215858088032087  11.673616748318732 
 -6.235654909072526  12.180780710597229   5.002978606422314 
  7.467075819536642   5.748370859517850  11.673616748318732 
 -1.241938143547178  12.148018184324494   5.002978606422314 
 -0.105473561645682   5.805262054916962   5.002978606422314 
 -1.316264980499634   7.931140306092542   5.002978606422314 
  3.745943161596454  12.245659140237199   5.002978606422314 
  9.961354208289817   5.737920018275769   5.002978606422314 
 -3.735265902481845   7.904199549636062  11.673616748318732 
  2.488220097374700   1.436469332755855  11.673616748318732 
  6.222387413451680   7.904234418448942  11.673616748318732 
  7.466824569250279   1.436482871991179  11.673616748318732 
 12.445755692273972   1.436570403863372  11.673616748318732 
  3.294975740398098   4.776850128361867   5.002978606422314 
  4.938106626657905   5.725512187857701   5.002978606422314 
Generated by cif2cell 2.0.0.  :  Failed to get author information, No journal information. Species order: B N S 
 1.0
 14.936314146199660   0.000000000000000   0.000000000000000
 -7.468157073099825  12.935227489513863   0.000000000000000
  0.000000000000001   0.000000000000001  13.341276283792837
 B N S 
 143 143   2
Cartesian
  1.232921220980377   0.669734500447735   5.002978606422314 
  4.894876077426807   7.411181293381477   5.002978606422314 
  6.281218041836204   0.613743955252320   5.002978606422314 
  9.927678977295884   7.170663769677764   5.002978606422314 
 11.230061504049859   0.734689037039739   5.002978606422314 
 -3.735275795706164   9.341417504530613  11.673616748318732 
  1.243662994025416   9.340897711397229  11.673616748318732 
  2.488684448104162   2.874369836905749  11.673616748318732 
  6.222008314517494   9.340867228990124  11.673616748318732 
  7.466210893042811   2.874124011651990  11.673616748318732 
 12.445917519092975   2.873991893911244  11.673616748318732 
 -1.287710953320442   9.354707176210391   5.002978606422314 
  0.027616491800905   2.890439386645104   5.002978606422314 
  5.104999156324134   2.643973066289854   5.002978606422314 
  3.691471491147410   9.452344818730181   5.002978606422314 
  8.684430784152127   9.324032806620972   5.002978606422314 
  9.991840004391845   2.864136504512805   5.002978606422314 
 -4.979896894187696  11.497443288226368  11.673616748318732 
 -0.001283872211629  11.497238746711867  11.673616748318732 
  1.244233831650890   5.029821532113241  11.673616748318732 
  6.221622647416619   5.029764161411000  11.673616748318732 
  4.977473459344642  11.496855311066160  11.673616748318732 
 11.200943341622137   5.029769567718512  11.673616748318732 
 -1.292917989364409   5.044616344514587   5.002978606422314 
 -2.499984181230663  11.454425999606437   5.002978606422314 
  2.491396486112258  11.543307470431518   5.002978606422314 
  7.458314782480529  11.493448533232865   5.002978606422314 
  8.742011872922504   5.006146415580557   5.002978606422314 
 -0.000735197658116   7.185337943438020  11.673616748318732 
  1.243893727515343   0.718283034693609  11.673616748318732 
  4.977329171501454   7.184943681222561  11.673616748318732 
  6.221900518201335   0.718337387378581  11.673616748318732 
  9.956081981641756   7.185460464302650  11.673616748318732 
 -2.535765389782318   7.189216089427848   5.002978606422314 
 11.200890346141597   0.717847061168814  11.673616748318732 
  3.752111170717550   0.622020602186517   5.002978606422314 
  2.352861729457655   7.410814919034505   5.002978606422314 
  7.443035306795942   7.171733435636261   5.002978606422314 
  8.753110065111255   0.697701409161224   5.002978606422314 
  2.488470954813246   7.184881130642906  11.673616748318732 
 13.711041793858332   0.734835477891047   5.002978606422314 
 -1.245719649311476   9.341300175696263  11.673616748318732 
 -0.000499003498943   2.874206897865312  11.673616748318732 
  4.977139368681474   2.874380994631256  11.673616748318732 
  3.732784163205650   9.340608794065721  11.673616748318732 
  8.711446599762441   9.341232182615528  11.673616748318732 
  9.955919801656322   2.873933303426830  11.673616748318732 
 -3.769382540694891   9.321725966129867   5.002978606422314 
  1.182741186552328   9.444564909818048   5.002978606422314 
  2.528213272031700   2.728316507610954   5.002978606422314 
  6.217070216385177   9.379473650850361   5.002978606422314 
  7.542320792890893   2.782478175819287   5.002978606422314 
 12.470678470451354   2.883207773876935   5.002978606422314 
 -1.245387472123538   5.029844546794186  11.673616748318732 
 -2.490599332259760  11.497495035872941  11.673616748318732 
  2.488030528354038  11.496880613545544  11.673616748318732 
  3.732921509467594   5.029698236024582  11.673616748318732 
  7.466994200604093  11.497159192839979  11.673616748318732 
 -4.999381692284031  11.456324695715820   5.002978606422314 
  8.711046779908461   5.029726144939668  11.673616748318732 
  0.000135873956635  11.498058437544605   5.002978606422314 
  1.137512350138119   5.137081162463531   5.002978606422314 
 -0.074644462503689   7.250155787076160   5.002978606422314 
  6.376323619800379   4.845238881242386   5.002978606422314 
  4.986949283977194  11.532861518601042   5.002978606422314 
 11.193390107075569   5.024108300937395   5.002978606422314 
 -2.490413245052054   7.185531123311431  11.673616748318732 
  3.732931903931083   0.718436824937055  11.673616748318732 
  7.466466996279805   7.185261727867613  11.673616748318732 
  8.711220248751331   0.717999832676999  11.673616748318732 
 13.690680132010774   0.717999804975407  11.673616748318732 
  0.008112587974469   1.442879251293456   1.672959016476113 
  3.742466237079544   7.908480407207034   1.662858203258504 
  4.986458425438986   1.444663708970631   1.675971567648138 
  8.718576046508154   7.908167225071540   1.669047284559336 
  9.964990371346314   1.441256882136549   1.667967883264884 
 -4.972316316112138  10.065081640951794   8.336165769426939 
  0.008238825235389  10.064502109355296   8.334368885580012 
  1.255195972241366   3.599182730128949   8.325511347432270 
  4.985459852633216  10.065312602068143   8.338502524379885 
  6.230792365479048   3.598573127017907   8.343099009586217 
 11.209896626969833   3.596460166422529   8.337546189679937 
 -2.482084632089524  10.064947760190750   1.670045112386575 
 -1.235759310832472   3.597328578134266   1.672959016476113 
  3.743200741131408   3.601846998963745   1.669010936079211 
  2.497254628210913  10.064580224230301   1.671071147638920 
  7.474009400702429  10.065290834681125   1.669109664666769 
  8.720160645705851   3.596621077398512   1.667454688464795 
 -6.216418894479048  12.222189788846652   8.334672208627440 
 -1.237308848371758  12.221853963292103   8.334368885580012 
  0.010647951546066   5.752568208431645   8.329005994826113 
  4.986668024928057   5.753549124221231   8.363362692095096 
  3.741274567949278  12.221048865489642   8.337989329579743 
  9.964416568630440   5.751779088296065   8.336847548178007 
 -2.481025364356776   5.752298408410763   1.671285004217200 
 -3.726878082931116  12.222462883558604   1.672629473604958 
  1.252091114130184  12.220875132472154   1.669968973166252 
  2.501505681179772   5.752525930307275   1.669010936079211 
  6.230188490272407  12.221567666046676   1.668411023164745 
  7.474873857947603   5.752170411367659   1.659644245722082 
 -1.236018451624443   7.908167447613139   8.333327739239698 
  0.008112587974469   1.442879251293457   8.332998196368594 
  3.742466237079544   7.908480407207035   8.343099009586217 
  4.986458425438987   1.444663708970632   8.329985645196370 
  8.718576046508154   7.908167225071541   8.336909928285172 
 -3.727084529960662   7.908276920137703   1.669791443417807 
  9.964990371346314   1.441256882136549   8.337989329579743 
  2.497808490244259   1.444679788825964   1.676951218018687 
  1.254958993580110   7.907810313364650   1.675971567648138 
  6.229576941081913   7.909087941887926   1.659644245722082 
  7.475423775682169   1.442138332138184   1.671071147638920 
  1.254958993580110   7.907810313364651   8.329985645196370 
 12.454470089826824   1.441601663636249   1.667933073759107 
 -2.482084632089523  10.064947760190750   8.335912100458104 
 -1.235759310832472   3.597328578134267   8.332998196368594 
  3.743200741131409   3.601846998963746   8.336946276765431 
  2.497254628210914  10.064580224230301   8.334886065205600 
  7.474009400702430  10.065290834681125   8.336847548178007 
  8.720160645705851   3.596621077398513   8.338502524379885 
 -4.972316316112123  10.065081640951794   1.669791443417807 
  0.008238825235373  10.064502109355296   1.671588327264722 
  1.255195972241365   3.599182730128948   1.680445865412385 
  4.985459852633215  10.065312602068143   1.667454688464795 
  6.230792365479047   3.598573127017906   1.662858203258504 
 11.209896626969833   3.596460166422528   1.668411023164745 
 -2.481025364356775   5.752298408410764   8.334672208627440 
 -3.726878082931153  12.222462883558670   8.333327739239698 
  1.252091114130185  12.220875132472154   8.335988239678256 
  2.501505681179773   5.752525930307276   8.336946276765431 
  6.230188490272408  12.221567666046676   8.337546189679937 
 -6.216418894479049  12.222189788846652   1.671285004217200 
  7.474873857947604   5.752170411367659   8.346312967122479 
 -1.237308848371773  12.221853963292103   1.671588327264722 
  0.010647951546065   5.752568208431644   1.676951218018687 
 -1.236018451624444   7.908167447613138   1.672629473604958 
  4.986668024928235   5.753549124221230   1.642594520749437 
  3.741274567949278  12.221048865489642   1.667967883264884 
  9.964416568630440   5.751779088296064   1.669109664666769 
 -3.727084529960661   7.908276920137704   8.336165769426939 
  2.497808490244259   1.444679788825965   8.329005994826113 
  6.229576941081914   7.909087941887927   8.346312967122479 
  7.475423775682170   1.442138332138184   8.334886065205600 
 12.454470089826824   1.441601663636250   8.338024139085507 
  1.252332605269697   0.723421978932281   1.671422192447665 
  4.987421367186509   7.192816159331985   1.639772696679041 
  6.231065173532363   0.722902370488735   1.669937157735300 
  9.964599555196470   7.189945697916398   1.668324413205480 
 11.209872960594614   0.723033176041341   1.664691598669038 
 -3.727286482982107   9.346030136382371   8.338172616486021 
  1.252198713032179   9.346552044175736   8.336020055109207 
  2.497951822641643   2.879578683198280   8.333600307592713 
  6.230466997909281   9.347930495114829   8.342318832292104 
  7.476750112552287   2.878102362167546   8.341504118241374 
 12.454931765590949   2.878651407241919   8.339663448137104 
 -1.237581086601756   9.346091788624177   1.668952032464539 
  0.008197039704142   2.879227560749402   1.673205146826586 
  4.987426926257482   2.879651450761471   1.664371603717768 
  3.741499125571862   9.347746850639478   1.664453094603147 
  8.719589712791139   9.346366000885768   1.668324413205480 
  9.965884037577194   2.877899676881886   1.664918655494624 
 -4.971775485981425  11.502314249509542   8.337062894049989 
  0.007171685452715  11.502120565205670   8.337790631614157 
  1.253378512133318   5.035242890742910   8.333600307592713 
  6.233486511292594   5.034568020199599   8.366184516165466 
  4.985890557478114  11.503501405775303   8.341038557350030 
 11.210107450375554   5.034021848683672   8.338443077587064 
 -1.236717576987069   5.034583357189629   1.671422192447665 
 -2.482380392384366  11.502147431466138   1.668952032464539 
  2.496585091805276  11.502693210860318   1.666825651794137 
  3.744920955475187   5.036626119407218   1.622925302886653 
  7.475258838320539  11.502969403341105   1.667514135257657 
  8.721393089502012   5.033519946577224   1.663638380552390 
  0.007902897434096   7.190485659238909   8.332608961365242 
  1.252332605269705   0.723421978932294   8.334535020396816 
  4.987421367186510   7.192816159331986   8.366184516165466 
  6.231065173532364   0.722902370488736   8.336020055109207 
  9.964599555196470   7.189945697916399   8.337632799639335 
 -2.482134164736852   7.190128988491002   1.668894318794520 
 11.209872960594614   0.723033176041342   8.341265614175564 
  3.741709004132258   0.723343776826706   1.673348251479305 
  2.498179082499669   7.191155188781310   1.664371603717768 
  7.475577061868389   7.190521426687138   1.662157535550612 
  8.720531387413331   0.722502003286992   1.666825651794137 
  2.498179082499669   7.191155188781311   8.341585609126886 
 13.699222512173241   0.723476614773561   1.666293764707431 
 -1.237581086601756   9.346091788624177   8.337005180380249 
  0.008197039704142   2.879227560749403   8.332752066017989 
  4.987426926257483   2.879651450761472   8.341585609126886 
  3.741499125571863   9.347746850639478   8.341504118241374 
  8.719589712791139   9.346366000885768   8.337632799639335 
  9.965884037577156   2.877899676881952   8.341038557350030 
 -3.727286482982107   9.346030136382371   1.667784596358860 
  1.252198713032179   9.346552044175736   1.669937157735300 
  2.497951822641642   2.879578683198279   1.672356905251861 