 B Se N 
 1.0
 17.527899999999772   0.000000000000000   0.000000000000000
 -8.763949999999658  15.179606674993195   0.000000000000000
  0.000000000000001   0.000000000000002  15.000000000000000
 B Se N 
  49   1  48
Cartesian
  7.516326305799369  14.468715239405730   1.665347617737750 
 15.021626136332991   1.447018343824454   1.665563666854635 
 13.771940213584777   3.611537855528029   1.665563666854635 
 12.532445610281050   5.780541747216101   1.665347617737750 
 11.310749840647556   7.957661700533767   1.665622720979520 
 10.051575156407830  10.140326184317651   1.665969561818130 
  8.790919607632796  12.322135690563606   1.665622720979520 
 -7.507292487794150  14.454095576015737   1.665331974643740 
 -0.008144090888053   1.435950212295212   1.665347617737750 
 -1.266114223003071   3.606055174500070   1.665238872146400 
 -2.516495183093512   5.780541747216101   1.665347617737750 
 -3.755989786406099   7.956648702641027   1.665331974643740 
 -4.996302862954177  10.127822304403857   1.665612722718000 
 -6.247157530915351  12.294366142197383   1.665612722718000 
 -5.006844454367085  14.442651408071011   1.665612722718000 
  2.488144980570211   1.405409807834988   1.665622720979520 
  1.226299866952271   3.583321836610233   1.665298969435350 
 -0.039594826150780   5.775915762096606   1.665298969435350 
 -1.294799413477533   7.957661700533767   1.665622720979520 
 -2.515676709857707  10.127822304403857   1.665612722718000 
 -3.755989786406033  12.288279951557490   1.665126240597405 
 -2.505135118427233  14.442651408071011   1.665612722718000 
  5.007975213602424   1.404554830296936   1.665969561818130 
  3.710422570135978   3.517879896688626   1.665159836519475 
  2.448661347184056   5.750781849916513   1.664994184286010 
  1.145792142996069   7.959950099132175   1.665159836519475 
 -0.035624729220284  10.140326184317651   1.665969561818130 
 -1.264822041879029  12.294366142197383   1.665612722718000 
 -0.004687085000412  14.454095576015737   1.665331974643740 
  7.527805446617179   1.405409807834988   1.665622720979520 
  6.305527857068933   3.517879896688626   1.665159836519475 
  5.007975213602475   5.437335831795839   1.665661738773390 
  3.456866065976944   8.123935683568208   1.665661738773390 
  2.443344786462579  10.207377203111436   1.665159836519475 
  1.225030819554673  12.322135690563606   1.665622720979520 
  2.499624121388427  14.468715239405730   1.665347617737750 
 10.024094518075566   1.435950212295212   1.665347617737750 
  8.789650560235183   3.583321836610233   1.665298969435350 
  7.567289080021029   5.750781849916513   1.664994184286010 
  6.559084361210522   8.123935683568208   1.665661738773390 
  5.007975213593889  10.183643499084017   1.664994184286010 
  3.742080520490774  12.325969600210311   1.665298969435350 
  5.007975213593900  14.473096849917026   1.665238872146400 
 12.522254290836518   1.447018343824454   1.665563666854635 
 11.282064650190545   3.606055174500070   1.665238872146400 
 10.055545253338320   5.775915762096606   1.665298969435350 
  8.870158284191536   7.959950099132175   1.665159836519475 
  7.572605640725091  10.207377203111436   1.665159836519475 
  6.273869906696961  12.325969600210311   1.665298969435350 
  5.007984786403784   7.228390605833453   1.666545171506490 
  8.770649024572453  13.750712299930749   1.665149656212870 
 16.271355171514809   0.725480682017243   1.665201285532350 
 15.018595151412399   2.888264090996993   1.665261851366565 
 13.771949786403644   5.054577797741189   1.665201285532350 
 12.537813184230627   7.225792574950053   1.665149656212870 
 11.287470382300695   9.403358632482620   1.665643553129355 
 10.031305147840577  11.579100641269289   1.665643553129355 
 -6.257278427300034  13.732393354767604   1.665136642008855 
  1.240820626754127   0.708666942634888   1.665149656212870 
 -0.017090270320484   2.879232377702038   1.665017082168405 
 -1.271034252598310   5.051127064852556   1.665017082168405 
 -2.521843611405514   7.225792574950053   1.665149656212870 
 -3.755980213587294   9.400017763735711   1.665136642008855 
 -5.002768400138676  11.568434662629071   1.665140027610525 
 -3.755980213587114  13.727935148012788   1.665140027610525 
  3.751819551943588   0.702712543778992   1.665643553129355 
  2.466875755187436   2.838248093962985   1.665128622122565 
  1.216824575496527   5.039563237525232   1.664982441031440 
 -0.064544670718185   7.222796886949319   1.665128622122565 
 -1.271500809492942   9.403358632482620   1.665643553129355 
 -2.509192027035741  11.568434662629071   1.665140027610525 
 -1.254681999874425  13.732393354767604   1.665136642008855 
  6.264150020863783   0.702712543778992   1.665643553129355 
  5.007984786403718   2.849530343199024   1.665301564010490 
  3.681232938312125   4.945908430142536   1.664748745251450 
  2.367921314524460   7.220630888713633   1.664748745251450 
  1.215780559331444   9.417820737165894   1.665301564010490 
 -0.015335575032865  11.579100641269289   1.665643553129355 
  1.245320548235308  13.750712299930749   1.665149656212870 
  8.775148946053122   0.708666942634888   1.665149656212870 
  7.549093817619998   2.838248093962985   1.665128622122565 
  6.334736634495355   4.945908430142536   1.664748745251450 
  3.694673162607275   9.518632498659535   1.664748745251450 
  2.476564360489319  11.624126836603402   1.665128622122565 
  3.754040804117189  13.754812374961096   1.665017082168405 
 11.272544401274677   0.725480682017243   1.665201285532350 
 10.033059843127798   2.879232377702038   1.665017082168405 
  8.799144997310851   5.039563237525232   1.664982441031440 
  7.648048258283090   7.220630888713633   1.664748745251450 
  6.321296410182676   9.518632498659535   1.664748745251450 
  5.007984786394953  11.606045342465334   1.664982441031440 
  6.261928768690469  13.754812374961096   1.665017082168405 
 13.771949786403525   0.729010979781598   1.665261851366565 
 12.525304421394823   2.888264090996993   1.665261851366565 
 11.287003825423252   5.051127064852556   1.665017082168405 
 10.080514243543313   7.222796886949319   1.665128622122565 
  8.800189013476189   9.417820737165894   1.665301564010490 
  7.539405212318255  11.624126836603402   1.665128622122565 
