Species order: N B                      
   2.51242800000000     
     5.9449720136058266    0.0000000000000000    0.0000000000000000
    -2.9724860068029120    5.1484967885702053   -0.0000000000000001
     0.0000000000000000    0.0000000000000009    5.3101128803662583
   N    B 
   143   143
Direct
  0.1110892271112453  0.0555526960214507  0.1249535568843208
  0.6110838601922030  0.5555203769782432  0.1256788651769755
  0.4444398742800745  0.0555532503908002  0.1249924541039261
  0.9444410433949358  0.5555525581691394  0.1250964844899599
  0.7777354350694091  0.0555343842013716  0.1250573564938897
  0.1111135061687998  0.7222234197510664  0.6249692639089105
  0.4444398742800745  0.7222199572226135  0.6250075458960717
  0.2777461906792342  0.2222153753627281  0.6250349884300013
  0.7777530987114371  0.7221989588267413  0.6247975571632616
  0.6110811034548254  0.2222148540130685  0.6248231357798444
  0.9443990158839524  0.2222019270754522  0.6250074857685973
  0.2777803166296992  0.7222203012329252  0.1249899135505712
  0.1110639792201365  0.2221986562767335  0.1249275100465441
  0.4444523948157622  0.2222207251061557  0.1250675623349545
  0.6110811034548254  0.7221995827750811  0.1251768642201539
  0.9444410433949358  0.7222218185591377  0.1250964844899599
  0.7777402301496970  0.2222118046321931  0.1250826300749103
  0.1111100094478107  0.8888955713809368  0.6249969224710261
  0.4444380482186977  0.8888856907760128  0.6249797615806849
  0.2777461906792342  0.3888641486498356  0.6250349884300013
  0.6110838601922030  0.3888968165472826  0.6243211348230281
  0.7777402301496970  0.8888617588508243  0.6249173699250867
  0.9444262211351303  0.3888797656052632  0.6249654685487043
  0.1110892271112453  0.3888698644231240  0.1249535568843208
  0.2777803166296992  0.8888933487301013  0.1249899135505712
  0.6110860673299041  0.8888782467527466  0.1250406369929989
  0.4444413501899117  0.3888873417616195  0.1243493644311581
  0.9444262211351303  0.8888797888632033  0.1250345314513044
  0.7777530987114371  0.3888874732180265  0.1252024428367416
  0.2777750642183906  0.5555449252207459  0.6250569939146806
  0.1110892271112453  0.0555526960214507  0.6250464431156755
  0.6110838601922030  0.5555203769782432  0.6243211348230281
  0.4444398742800745  0.0555532503908002  0.6250075458960717
  0.9444410433949358  0.5555525581691394  0.6249035155100454
  0.1111100094478107  0.5555477714002006  0.1250030775289771
  0.7777354350694091  0.0555343842013716  0.6249426435061174
  0.2777750642183906  0.0555634723309800  0.1249430060853189
  0.4444523948157622  0.5555650030429418  0.1250675623349545
  0.7777632416208993  0.5555482874771099  0.1253389504332308
  0.6110860673299041  0.0555411539104824  0.1250406369929989
  0.4444523948157622  0.5555650030429418  0.6249324376650400
  0.9443990158839524  0.0555304221418386  0.1249925142313963
  0.2777803166296992  0.7222203012329252  0.6250100864494265
  0.1110639792201365  0.2221986562767335  0.6250724899534528
  0.4444523948157622  0.2222207251061557  0.6249324376650400
  0.6110811034548254  0.7221995827750811  0.6248231357798444
  0.9444410433949358  0.7222218185591377  0.6249035155100454
  0.7777402301496970  0.2222118046321931  0.6249173699250867
  0.1111135061687998  0.7222234197510664  0.1250307360910812
  0.4444398742800745  0.7222199572226135  0.1249924541039261
  0.2777461906792342  0.2222153753627281  0.1249650115699958
  0.7777530987114371  0.7221989588267413  0.1252024428367416
  0.6110811034548254  0.2222148540130685  0.1251768642201539
  0.9443990158839524  0.2222019270754522  0.1249925142313963
  0.1110892271112453  0.3888698644231240  0.6250464431156755
  0.2777803166296992  0.8888933487301013  0.6250100864494265
  0.6110860673299041  0.8888782467527466  0.6249593630069995
  0.4444413501899117  0.3888873417616195  0.6256506355688435
  0.9444262211351303  0.8888797888632033  0.6249654685487043
  0.1111100094478107  0.8888955713809368  0.1250030775289771
  0.7777530987114371  0.3888874732180265  0.6247975571632616
  0.4444380482186977  0.8888856907760128  0.1250202384193153
  0.2777461906792342  0.3888641486498356  0.1249650115699958
  0.2777750642183906  0.5555449252207459  0.1249430060853189
  0.6110838601922030  0.3888968165472826  0.1256788651769755
  0.7777402301496970  0.8888617588508243  0.1250826300749103
  0.9444262211351303  0.3888797656052632  0.1250345314513044
  0.1111100094478107  0.5555477714002006  0.6249969224710261
  0.2777750642183906  0.0555634723309800  0.6250569939146806
  0.7777632416208993  0.5555482874771099  0.6246610495667690
  0.6110860673299041  0.0555411539104824  0.6249593630069995
  0.9443990158839524  0.0555304221418386  0.6250074857685973
  0.0542001443759365  0.1102464206502071  0.3750000000000000
  0.5560564656860375  0.6064541237490828  0.3750000000000000
  0.3893812248704440  0.1126902442987091  0.3750000000000000
  0.8905703188318990  0.6119518260826253  0.3750000000000000
  0.7217000032686305  0.1112603056534705  0.3750000000000000
  0.0555429509446117  0.7777716191935580  0.8750000000000000
  0.3888801307054442  0.7777739451608741  0.8750000000000000
  0.2222121247356657  0.2777727290345046  0.8750000000000000
  0.7222170728635555  0.7777734422530875  0.8750000000000000
  0.5555503985005054  0.2777785335399475  0.8750000000000000
  0.8888843031772347  0.2777769609693467  0.8750000000000000
  0.2229851014666235  0.7781592173999827  0.3750000000000000
  0.0542001443759365  0.2772870570590658  0.3750000000000000
  0.3851467067989813  0.2741119207289144  0.3750000000000000
  0.5557379678777850  0.7760264602147500  0.3750000000000000
  0.8892414434900132  0.7776476099490501  0.3750000000000000
  0.7219844994391325  0.2787510372439032  0.3750000000000000
  0.0555442182158885  0.9444370708116299  0.8750000000000000
  0.3888801307054442  0.9444395188779042  0.8750000000000000
  0.2222097413007394  0.4444406087064641  0.8750000000000000
  0.5555542628967900  0.4444437981150593  0.8750000000000000
  0.7222164984693680  0.9444409074906012  0.8750000000000000
  0.8888829937138821  0.4444417779814162  0.8750000000000000
  0.0553760227403621  0.4444497584760522  0.3750000000000000
  0.2227645940080029  0.9450550989127989  0.3750000000000000
  0.5556385729795177  0.9444859531564193  0.3750000000000000
  0.3851467067989813  0.4443681194034053  0.3750000000000000
  0.8881750716187597  0.9437161610432283  0.3750000000000000
  0.7233152268880466  0.4463513588556629  0.3750000000000000
  0.2222088576389153  0.6111065561245862  0.8750000000000000
  0.0555465361675741  0.1111050761014285  0.8750000000000000
  0.5555503985005054  0.6111051982938950  0.8750000000000000
  0.3888798066128150  0.1111072701056545  0.8750000000000000
  0.8888812860420996  0.6111073096877139  0.8750000000000000
  0.0564520663924667  0.6114762050084936  0.3750000000000000
  0.7222164984693680  0.1111089243121004  0.8750000000000000
  0.2213853898076354  0.1108144272984150  0.3750000000000000
  0.3893812248704440  0.6100243139050791  0.3750000000000000
  0.7233152268880466  0.6102972013657207  0.3750000000000000
  0.5557379678777850  0.1130448409963712  0.3750000000000000
  0.3888798066128150  0.6111058698405084  0.8750000000000000
  0.8878936427961294  0.1106134880647365  0.3750000000000000
  0.2222082812247386  0.7777708072790384  0.8750000000000000
  0.0555465361675741  0.2777747933994830  0.8750000000000000
  0.3888800375413761  0.2777720934529652  0.8750000000000000
  0.5555482554796372  0.7777733900599179  0.8750000000000000
  0.8888829937138821  0.7777745490657990  0.8750000000000000
  0.7222170728635555  0.2777769639437969  0.8750000000000000
  0.0564520663924667  0.7783091947173116  0.3750000000000000
  0.3894366682187393  0.7775385176031878  0.3750000000000000
  0.2195067050898702  0.2764200192116044  0.3750000000000000
  0.7219844994391325  0.7765667955285704  0.3750000000000000
  0.5560564656860375  0.2829356752702916  0.3750000000000000
  0.8881750716187597  0.2777922439088674  0.3750000000000000
  0.0555442182158885  0.4444404807375874  0.8750000000000000
  0.2222088576389153  0.9444356348476640  0.8750000000000000
  0.5555477780329935  0.9444405556831629  0.8750000000000000
  0.3888800375413761  0.4444412774217466  0.8750000000000000
  0.8888843031772347  0.9444406755412270  0.8750000000000000
  0.0553760227403621  0.9442595975976382  0.3750000000000000
  0.7222162774136741  0.4444425641919184  0.8750000000000000
  0.3894366682187393  0.9452314839488902  0.3750000000000000
  0.2213853898076354  0.4439042958425548  0.3750000000000000
  0.2227645940080029  0.6110428284285397  0.3750000000000000
  0.7217000032686305  0.9437730309484980  0.3750000000000000
  0.8892414434900132  0.4449271668742975  0.3750000000000000
  0.0555429509446117  0.6111046650843847  0.8750000000000000
  0.2222097413007394  0.1111024659276099  0.8750000000000000
  0.7222162774136741  0.6111070465550827  0.8750000000000000
  0.5555482554796372  0.1111081987530403  0.8750000000000000
  0.8888842074476455  0.1111087703904918  0.8750000000000000
  0.1107613034119861  0.0555859936146660  0.3750000000000000
  0.6147836957143762  0.5564942962144980  0.3750000000000000
  0.4443205192473303  0.0568029988262845  0.3750000000000000
  0.9459102611117937  0.5560353381761522  0.3750000000000000
  0.7770634048311581  0.0551983690822469  0.3750000000000000
  0.1111144963117551  0.7222239148225428  0.8750000000000000
  0.4444118892295217  0.7221894097976732  0.8750000000000000
  0.2777766132059293  0.2222339435656540  0.8750000000000000
  0.7777737493649046  0.7222265200211871  0.8750000000000000
  0.6110791206360602  0.2222139599070994  0.8750000000000000
  0.9444722795897609  0.2222296710435853  0.8750000000000000
  0.2782833645590022  0.7221107958388888  0.3750000000000000
  0.1096501983133583  0.2214917658233427  0.3750000000000000
  0.4436327805632940  0.2254907154173420  0.3750000000000000
  0.6110730477453371  0.7200230818661505  0.3750000000000000
  0.9459102611117937  0.7232082562689771  0.3750000000000000
  0.7773409829744313  0.2223108809439028  0.3750000000000000
  0.1111193839785699  0.8889074735366502  0.8750000000000000
  0.4444215258865464  0.8888774296099377  0.8750000000000000
  0.2777766132059293  0.3888760029736085  0.8750000000000000
  0.6110624807153401  0.3888711713159171  0.8750000000000000
  0.7777838688359729  0.8888980401470195  0.8750000000000000
  0.9444626454469882  0.3888843625192577  0.8750000000000000
  0.1107613034119861  0.3885086431306508  0.3750000000000000
  0.2782833645590022  0.8895059020534340  0.3750000000000000
  0.6106977578370284  0.8879118605650901  0.3750000000000000
  0.9446100153225510  0.8890480424355134  0.3750000000000000
  0.7787368252368634  0.3892154999115017  0.3750000000000000
  0.2777639879276931  0.5555264739083641  0.8750000000000000
  0.1111296870825715  0.0555801729831646  0.8750000000000000
  0.6110624807153401  0.5555246427327558  0.8750000000000000
  0.4444118892295217  0.0555558127651818  0.8750000000000000
  0.9444559773616806  0.5555535599209112  0.8750000000000000
  0.1118417835675525  0.5555708751952994  0.3750000000000000
  0.7777885942362075  0.0555609637847701  0.8750000000000000
  0.2780323695088474  0.0566805436144826  0.3750000000000000
  0.4436327805632940  0.5514753984792813  0.3750000000000000
  0.7810249939203036  0.5571791636268247  0.3750000000000000
  0.6106977578370284  0.0561192306052755  0.3750000000000000
  0.4443919004164888  0.5555010548058090  0.8750000000000000
  0.9436099852952202  0.0550572852171750  0.3750000000000000
  0.2777647705734131  0.7222071942363644  0.8750000000000000
  0.1111400806437204  0.2222367069885260  0.8750000000000000
  0.4443919004164888  0.2222241789440136  0.8750000000000000
  0.6110791206360602  0.7221984940622921  0.8750000000000000
  0.9444559773616806  0.7222357507741054  0.8750000000000000
  0.7777838688359729  0.2222191620222846  0.8750000000000000
  0.1120959272140582  0.7227146302736910  0.3750000000000000
  0.4443205192473303  0.7208508537543807  0.3750000000000000
  0.2771039631905298  0.2233551675130688  0.3750000000000000
  0.7787368252368634  0.7228546586586825  0.3750000000000000
  0.6110730477453371  0.2243832992125156  0.3750000000000000
  0.9436099852952202  0.2218860334113795  0.3750000000000000
  0.1111296870825715  0.3888828474327364  0.8750000000000000
  0.2777647705734131  0.8888909096703839  0.8750000000000000
  0.6110940168694565  0.8888779044089378  0.8750000000000000
  0.4443831105621026  0.3888582219477155  0.8750000000000000
  0.9444626454469882  0.8889116162610583  0.8750000000000000
  0.1118417835675525  0.8896042417055725  0.3750000000000000
  0.7777737493649046  0.3888805626770557  0.8750000000000000
  0.4445113345204339  0.8889223339268784  0.3750000000000000
  0.2771039631905298  0.3870821290107911  0.3750000000000000
  0.2780323695088474  0.5546851592277000  0.3750000000000000
  0.6147836957143755  0.3916227328332131  0.3750000000000000
  0.7773409829744313  0.8883634353638501  0.3750000000000000
  0.9446100153225510  0.3888953062203690  0.3750000000000000
  0.1111193839785699  0.5555452437752462  0.8750000000000000
  0.2777639879276931  0.0555708473526665  0.8750000000000000
  0.7777676422789127  0.5555504878061340  0.8750000000000000
  0.6110940168694565  0.0555494457938447  0.8750000000000000
  0.9444722795897609  0.0555759418795164  0.8750000000000000
  0.0556058599643938  0.1111689053940402  0.1250059927366858
  0.5553436239732894  0.6110147941564269  0.1251538077460390
  0.3888593570423790  0.1111726606003626  0.1250855452682844
  0.8889496799009033  0.6111415066171265  0.1249631617965728
  0.7221778602184585  0.1110720021728279  0.1249970320895007
  0.0556414795454005  0.7778494625484477  0.6250149603829523
  0.3888787903626482  0.7777556699463535  0.6250014248311788
  0.2222981958709978  0.2778157646021670  0.6247775853158121
  0.7221562085575752  0.7777809923744611  0.6250112879493230
  0.5553436239732894  0.2776621631501973  0.6248461922539574
  0.8889022838707752  0.2777514567073803  0.6250151349924554
  0.2222776620226627  0.7778054976779954  0.1249966756014321
  0.0556058599643938  0.2777702879036902  0.1250059927366858
  0.3888478646918929  0.2778807157008225  0.1256347055861721
  0.5554726222031550  0.7777504490059785  0.1249912975772276
  0.8889242611653532  0.7778342557423622  0.1249733156578485
  0.7221562085575752  0.2777085495164591  0.1249887120506814
  0.0556256602810441  0.9445409505171225  0.6250132391156857
  0.3888787903626482  0.9444564537496345  0.6250014248311788
  0.2222930587979164  0.4443708735866775  0.6248841283674629
  0.5551616251102576  0.4442474792217931  0.6247775043569868
  0.7221778602184585  0.9444391913789619  0.6250029679105029
  0.8889242611653532  0.4444233387563346  0.6250266843421565
  0.0556256602810441  0.4444180430972493  0.1249867608843230
  0.2222802824834756  0.9445391261438222  0.1249997458311196
  0.5555052994209692  0.9444193163771506  0.1249948880489223
  0.3888478646918929  0.4443004823244104  0.1256347055861721
  0.8889022838707752  0.9444841604967300  0.1249848650075391
  0.7221339639181852  0.4443840986243884  0.1250610964803463
  0.2222802824834756  0.6110744896729829  0.6250002541688838
  0.0556058599643938  0.1111689053940402  0.6249940072633161
  0.5553436239732894  0.6110147941564269  0.6248461922539574
  0.3888593570423790  0.1111726606003626  0.6249144547317182
  0.8889496799009033  0.6111415066171265  0.6250368382034325
  0.0556414795454005  0.6111253503302960  0.1249850396170479
  0.7221778602184585  0.1110720021728279  0.6250029679105029
  0.2222930587979164  0.1112555185445745  0.1251158716325342
  0.3888593570423790  0.6110200297753584  0.1250855452682844
  0.7221339639181852  0.6110831986271290  0.1250610964803463
  0.5554726222031550  0.1110555065305190  0.1249912975772276
  0.3888593570423790  0.6110200297753584  0.6249144547317182
  0.8888937922878959  0.1111135628106192  0.1249938126273990
  0.2222776620226627  0.7778054976779954  0.6250033243985729
  0.0556058599643938  0.2777702879036902  0.6249940072633161
  0.3888478646918929  0.2778807157008225  0.6243652944138264
  0.5554726222031550  0.7777504490059785  0.6250087024227705
  0.8889242611653532  0.7778342557423622  0.6250266843421565
  0.7221562085575752  0.2777085495164591  0.6250112879493230
  0.0556414795454005  0.7778494625484477  0.1249850396170479
  0.3888787903626482  0.7777556699463535  0.1249985751688251
  0.2222981958709978  0.2778157646021670  0.1252224146841915
  0.7221562085575752  0.7777809923744611  0.1249887120506814
  0.5553436239732894  0.2776621631501973  0.1251538077460390
  0.8889022838707752  0.2777514567073803  0.1249848650075391
  0.0556256602810441  0.4444180430972493  0.6250132391156857
  0.2222802824834756  0.9445391261438222  0.6250002541688838
  0.5555052994209692  0.9444193163771506  0.6250051119510734
  0.3888478646918929  0.4443004823244104  0.6243652944138264
  0.8889022838707752  0.9444841604967300  0.6250151349924554
  0.0556256602810441  0.9445409505171225  0.1249867608843230
  0.7221339639181852  0.4443840986243884  0.6249389035196522
  0.3888787903626482  0.9444564537496345  0.1249985751688251
  0.2222930587979164  0.4443708735866775  0.1251158716325342
  0.2222802824834756  0.6110744896729829  0.1249997458311196
  0.5551616251102576  0.4442474792217931  0.1252224956430064
  0.7221778602184585  0.9444391913789619  0.1249970320895007
  0.8889242611653532  0.4444233387563346  0.1249733156578485
  0.0556414795454005  0.6111253503302960  0.6250149603829523
  0.2222930587979164  0.1112555185445745  0.6248841283674629
  0.7221339639181852  0.6110831986271290  0.6249389035196522
  0.5554726222031550  0.1110555065305190  0.6250087024227705
  0.8888937922878959  0.1111135628106192  0.6250061873725967
 
  0.00000000E+00  0.00000000E+00  0.00000000E+00
  0.00000000E+00  0.00000000E+00  0.00000000E+00
  0.00000000E+00  0.00000000E+00  0.00000000E+00
  0.00000000E+00  0.00000000E+00  0.00000000E+00
  0.00000000E+00  0.00000000E+00  0.00000000E+00
  0.00000000E+00  0.00000000E+00  0.00000000E+00
  0.00000000E+00  0.00000000E+00  0.00000000E+00
  0.00000000E+00  0.00000000E+00  0.00000000E+00
  0.00000000E+00  0.00000000E+00  0.00000000E+00
  0.00000000E+00  0.00000000E+00  0.00000000E+00
  0.00000000E+00  0.00000000E+00  0.00000000E+00
  0.00000000E+00  0.00000000E+00  0.00000000E+00
  0.00000000E+00  0.00000000E+00  0.00000000E+00
  0.00000000E+00  0.00000000E+00  0.00000000E+00
  0.00000000E+00  0.00000000E+00  0.00000000E+00
  0.00000000E+00  0.00000000E+00  0.00000000E+00
  0.00000000E+00  0.00000000E+00  0.00000000E+00
  0.00000000E+00  0.00000000E+00  0.00000000E+00
  0.00000000E+00  0.00000000E+00  0.00000000E+00
  0.00000000E+00  0.00000000E+00  0.00000000E+00
  0.00000000E+00  0.00000000E+00  0.00000000E+00
  0.00000000E+00  0.00000000E+00  0.00000000E+00
  0.00000000E+00  0.00000000E+00  0.00000000E+00
  0.00000000E+00  0.00000000E+00  0.00000000E+00
  0.00000000E+00  0.00000000E+00  0.00000000E+00
  0.00000000E+00  0.00000000E+00  0.00000000E+00
  0.00000000E+00  0.00000000E+00  0.00000000E+00
  0.00000000E+00  0.00000000E+00  0.00000000E+00
  0.00000000E+00  0.00000000E+00  0.00000000E+00
  0.00000000E+00  0.00000000E+00  0.00000000E+00
  0.00000000E+00  0.00000000E+00  0.00000000E+00
  0.00000000E+00  0.00000000E+00  0.00000000E+00
  0.00000000E+00  0.00000000E+00  0.00000000E+00
  0.00000000E+00  0.00000000E+00  0.00000000E+00
  0.00000000E+00  0.00000000E+00  0.00000000E+00
  0.00000000E+00  0.00000000E+00  0.00000000E+00
  0.00000000E+00  0.00000000E+00  0.00000000E+00
  0.00000000E+00  0.00000000E+00  0.00000000E+00
  0.00000000E+00  0.00000000E+00  0.00000000E+00
  0.00000000E+00  0.00000000E+00  0.00000000E+00
  0.00000000E+00  0.00000000E+00  0.00000000E+00
  0.00000000E+00  0.00000000E+00  0.00000000E+00
  0.00000000E+00  0.00000000E+00  0.00000000E+00
  0.00000000E+00  0.00000000E+00  0.00000000E+00
  0.00000000E+00  0.00000000E+00  0.00000000E+00
  0.00000000E+00  0.00000000E+00  0.00000000E+00
  0.00000000E+00  0.00000000E+00  0.00000000E+00
  0.00000000E+00  0.00000000E+00  0.00000000E+00
  0.00000000E+00  0.00000000E+00  0.00000000E+00
  0.00000000E+00  0.00000000E+00  0.00000000E+00
  0.00000000E+00  0.00000000E+00  0.00000000E+00
  0.00000000E+00  0.00000000E+00  0.00000000E+00
  0.00000000E+00  0.00000000E+00  0.00000000E+00
  0.00000000E+00  0.00000000E+00  0.00000000E+00
  0.00000000E+00  0.00000000E+00  0.00000000E+00
  0.00000000E+00  0.00000000E+00  0.00000000E+00
  0.00000000E+00  0.00000000E+00  0.00000000E+00
  0.00000000E+00  0.00000000E+00  0.00000000E+00
  0.00000000E+00  0.00000000E+00  0.00000000E+00
  0.00000000E+00  0.00000000E+00  0.00000000E+00
  0.00000000E+00  0.00000000E+00  0.00000000E+00
  0.00000000E+00  0.00000000E+00  0.00000000E+00
  0.00000000E+00  0.00000000E+00  0.00000000E+00
  0.00000000E+00  0.00000000E+00  0.00000000E+00
  0.00000000E+00  0.00000000E+00  0.00000000E+00
  0.00000000E+00  0.00000000E+00  0.00000000E+00
  0.00000000E+00  0.00000000E+00  0.00000000E+00
  0.00000000E+00  0.00000000E+00  0.00000000E+00
  0.00000000E+00  0.00000000E+00  0.00000000E+00
  0.00000000E+00  0.00000000E+00  0.00000000E+00
  0.00000000E+00  0.00000000E+00  0.00000000E+00
  0.00000000E+00  0.00000000E+00  0.00000000E+00
  0.00000000E+00  0.00000000E+00  0.00000000E+00
  0.00000000E+00  0.00000000E+00  0.00000000E+00
  0.00000000E+00  0.00000000E+00  0.00000000E+00
  0.00000000E+00  0.00000000E+00  0.00000000E+00
  0.00000000E+00  0.00000000E+00  0.00000000E+00
  0.00000000E+00  0.00000000E+00  0.00000000E+00
  0.00000000E+00  0.00000000E+00  0.00000000E+00
  0.00000000E+00  0.00000000E+00  0.00000000E+00
  0.00000000E+00  0.00000000E+00  0.00000000E+00
  0.00000000E+00  0.00000000E+00  0.00000000E+00
  0.00000000E+00  0.00000000E+00  0.00000000E+00
  0.00000000E+00  0.00000000E+00  0.00000000E+00
  0.00000000E+00  0.00000000E+00  0.00000000E+00
  0.00000000E+00  0.00000000E+00  0.00000000E+00
  0.00000000E+00  0.00000000E+00  0.00000000E+00
  0.00000000E+00  0.00000000E+00  0.00000000E+00
  0.00000000E+00  0.00000000E+00  0.00000000E+00
  0.00000000E+00  0.00000000E+00  0.00000000E+00
  0.00000000E+00  0.00000000E+00  0.00000000E+00
  0.00000000E+00  0.00000000E+00  0.00000000E+00
  0.00000000E+00  0.00000000E+00  0.00000000E+00
  0.00000000E+00  0.00000000E+00  0.00000000E+00
  0.00000000E+00  0.00000000E+00  0.00000000E+00
  0.00000000E+00  0.00000000E+00  0.00000000E+00
  0.00000000E+00  0.00000000E+00  0.00000000E+00
  0.00000000E+00  0.00000000E+00  0.00000000E+00
  0.00000000E+00  0.00000000E+00  0.00000000E+00
  0.00000000E+00  0.00000000E+00  0.00000000E+00
  0.00000000E+00  0.00000000E+00  0.00000000E+00
  0.00000000E+00  0.00000000E+00  0.00000000E+00
  0.00000000E+00  0.00000000E+00  0.00000000E+00
  0.00000000E+00  0.00000000E+00  0.00000000E+00
  0.00000000E+00  0.00000000E+00  0.00000000E+00
  0.00000000E+00  0.00000000E+00  0.00000000E+00
  0.00000000E+00  0.00000000E+00  0.00000000E+00
  0.00000000E+00  0.00000000E+00  0.00000000E+00
  0.00000000E+00  0.00000000E+00  0.00000000E+00
  0.00000000E+00  0.00000000E+00  0.00000000E+00
  0.00000000E+00  0.00000000E+00  0.00000000E+00
  0.00000000E+00  0.00000000E+00  0.00000000E+00
  0.00000000E+00  0.00000000E+00  0.00000000E+00
  0.00000000E+00  0.00000000E+00  0.00000000E+00
  0.00000000E+00  0.00000000E+00  0.00000000E+00
  0.00000000E+00  0.00000000E+00  0.00000000E+00
  0.00000000E+00  0.00000000E+00  0.00000000E+00
  0.00000000E+00  0.00000000E+00  0.00000000E+00
  0.00000000E+00  0.00000000E+00  0.00000000E+00
  0.00000000E+00  0.00000000E+00  0.00000000E+00
  0.00000000E+00  0.00000000E+00  0.00000000E+00
  0.00000000E+00  0.00000000E+00  0.00000000E+00
  0.00000000E+00  0.00000000E+00  0.00000000E+00
  0.00000000E+00  0.00000000E+00  0.00000000E+00
  0.00000000E+00  0.00000000E+00  0.00000000E+00
  0.00000000E+00  0.00000000E+00  0.00000000E+00
  0.00000000E+00  0.00000000E+00  0.00000000E+00
  0.00000000E+00  0.00000000E+00  0.00000000E+00
  0.00000000E+00  0.00000000E+00  0.00000000E+00
  0.00000000E+00  0.00000000E+00  0.00000000E+00
  0.00000000E+00  0.00000000E+00  0.00000000E+00
  0.00000000E+00  0.00000000E+00  0.00000000E+00
  0.00000000E+00  0.00000000E+00  0.00000000E+00
  0.00000000E+00  0.00000000E+00  0.00000000E+00
  0.00000000E+00  0.00000000E+00  0.00000000E+00
  0.00000000E+00  0.00000000E+00  0.00000000E+00
  0.00000000E+00  0.00000000E+00  0.00000000E+00
  0.00000000E+00  0.00000000E+00  0.00000000E+00
  0.00000000E+00  0.00000000E+00  0.00000000E+00
  0.00000000E+00  0.00000000E+00  0.00000000E+00
  0.00000000E+00  0.00000000E+00  0.00000000E+00
  0.00000000E+00  0.00000000E+00  0.00000000E+00
  0.00000000E+00  0.00000000E+00  0.00000000E+00
  0.00000000E+00  0.00000000E+00  0.00000000E+00
  0.00000000E+00  0.00000000E+00  0.00000000E+00
  0.00000000E+00  0.00000000E+00  0.00000000E+00
  0.00000000E+00  0.00000000E+00  0.00000000E+00
  0.00000000E+00  0.00000000E+00  0.00000000E+00
  0.00000000E+00  0.00000000E+00  0.00000000E+00
  0.00000000E+00  0.00000000E+00  0.00000000E+00
  0.00000000E+00  0.00000000E+00  0.00000000E+00
  0.00000000E+00  0.00000000E+00  0.00000000E+00
  0.00000000E+00  0.00000000E+00  0.00000000E+00
  0.00000000E+00  0.00000000E+00  0.00000000E+00
  0.00000000E+00  0.00000000E+00  0.00000000E+00
  0.00000000E+00  0.00000000E+00  0.00000000E+00
  0.00000000E+00  0.00000000E+00  0.00000000E+00
  0.00000000E+00  0.00000000E+00  0.00000000E+00
  0.00000000E+00  0.00000000E+00  0.00000000E+00
  0.00000000E+00  0.00000000E+00  0.00000000E+00
  0.00000000E+00  0.00000000E+00  0.00000000E+00
  0.00000000E+00  0.00000000E+00  0.00000000E+00
  0.00000000E+00  0.00000000E+00  0.00000000E+00
  0.00000000E+00  0.00000000E+00  0.00000000E+00
  0.00000000E+00  0.00000000E+00  0.00000000E+00
  0.00000000E+00  0.00000000E+00  0.00000000E+00
  0.00000000E+00  0.00000000E+00  0.00000000E+00
  0.00000000E+00  0.00000000E+00  0.00000000E+00
  0.00000000E+00  0.00000000E+00  0.00000000E+00
  0.00000000E+00  0.00000000E+00  0.00000000E+00
  0.00000000E+00  0.00000000E+00  0.00000000E+00
  0.00000000E+00  0.00000000E+00  0.00000000E+00
  0.00000000E+00  0.00000000E+00  0.00000000E+00
  0.00000000E+00  0.00000000E+00  0.00000000E+00
  0.00000000E+00  0.00000000E+00  0.00000000E+00
  0.00000000E+00  0.00000000E+00  0.00000000E+00
  0.00000000E+00  0.00000000E+00  0.00000000E+00
  0.00000000E+00  0.00000000E+00  0.00000000E+00
  0.00000000E+00  0.00000000E+00  0.00000000E+00
  0.00000000E+00  0.00000000E+00  0.00000000E+00
  0.00000000E+00  0.00000000E+00  0.00000000E+00
  0.00000000E+00  0.00000000E+00  0.00000000E+00
  0.00000000E+00  0.00000000E+00  0.00000000E+00
  0.00000000E+00  0.00000000E+00  0.00000000E+00
  0.00000000E+00  0.00000000E+00  0.00000000E+00
  0.00000000E+00  0.00000000E+00  0.00000000E+00
  0.00000000E+00  0.00000000E+00  0.00000000E+00
  0.00000000E+00  0.00000000E+00  0.00000000E+00
  0.00000000E+00  0.00000000E+00  0.00000000E+00
  0.00000000E+00  0.00000000E+00  0.00000000E+00
  0.00000000E+00  0.00000000E+00  0.00000000E+00
  0.00000000E+00  0.00000000E+00  0.00000000E+00
  0.00000000E+00  0.00000000E+00  0.00000000E+00
  0.00000000E+00  0.00000000E+00  0.00000000E+00
  0.00000000E+00  0.00000000E+00  0.00000000E+00
  0.00000000E+00  0.00000000E+00  0.00000000E+00
  0.00000000E+00  0.00000000E+00  0.00000000E+00
  0.00000000E+00  0.00000000E+00  0.00000000E+00
  0.00000000E+00  0.00000000E+00  0.00000000E+00
  0.00000000E+00  0.00000000E+00  0.00000000E+00
  0.00000000E+00  0.00000000E+00  0.00000000E+00
  0.00000000E+00  0.00000000E+00  0.00000000E+00
  0.00000000E+00  0.00000000E+00  0.00000000E+00
  0.00000000E+00  0.00000000E+00  0.00000000E+00
  0.00000000E+00  0.00000000E+00  0.00000000E+00
  0.00000000E+00  0.00000000E+00  0.00000000E+00
  0.00000000E+00  0.00000000E+00  0.00000000E+00
  0.00000000E+00  0.00000000E+00  0.00000000E+00
  0.00000000E+00  0.00000000E+00  0.00000000E+00
  0.00000000E+00  0.00000000E+00  0.00000000E+00
  0.00000000E+00  0.00000000E+00  0.00000000E+00
  0.00000000E+00  0.00000000E+00  0.00000000E+00
  0.00000000E+00  0.00000000E+00  0.00000000E+00
  0.00000000E+00  0.00000000E+00  0.00000000E+00
  0.00000000E+00  0.00000000E+00  0.00000000E+00
  0.00000000E+00  0.00000000E+00  0.00000000E+00
  0.00000000E+00  0.00000000E+00  0.00000000E+00
  0.00000000E+00  0.00000000E+00  0.00000000E+00
  0.00000000E+00  0.00000000E+00  0.00000000E+00
  0.00000000E+00  0.00000000E+00  0.00000000E+00
  0.00000000E+00  0.00000000E+00  0.00000000E+00
  0.00000000E+00  0.00000000E+00  0.00000000E+00
  0.00000000E+00  0.00000000E+00  0.00000000E+00
  0.00000000E+00  0.00000000E+00  0.00000000E+00
  0.00000000E+00  0.00000000E+00  0.00000000E+00
  0.00000000E+00  0.00000000E+00  0.00000000E+00
  0.00000000E+00  0.00000000E+00  0.00000000E+00
  0.00000000E+00  0.00000000E+00  0.00000000E+00
  0.00000000E+00  0.00000000E+00  0.00000000E+00
  0.00000000E+00  0.00000000E+00  0.00000000E+00
  0.00000000E+00  0.00000000E+00  0.00000000E+00
  0.00000000E+00  0.00000000E+00  0.00000000E+00
  0.00000000E+00  0.00000000E+00  0.00000000E+00
  0.00000000E+00  0.00000000E+00  0.00000000E+00
  0.00000000E+00  0.00000000E+00  0.00000000E+00
  0.00000000E+00  0.00000000E+00  0.00000000E+00
  0.00000000E+00  0.00000000E+00  0.00000000E+00
  0.00000000E+00  0.00000000E+00  0.00000000E+00
  0.00000000E+00  0.00000000E+00  0.00000000E+00
  0.00000000E+00  0.00000000E+00  0.00000000E+00
  0.00000000E+00  0.00000000E+00  0.00000000E+00
  0.00000000E+00  0.00000000E+00  0.00000000E+00
  0.00000000E+00  0.00000000E+00  0.00000000E+00
  0.00000000E+00  0.00000000E+00  0.00000000E+00
  0.00000000E+00  0.00000000E+00  0.00000000E+00
  0.00000000E+00  0.00000000E+00  0.00000000E+00
  0.00000000E+00  0.00000000E+00  0.00000000E+00
  0.00000000E+00  0.00000000E+00  0.00000000E+00
  0.00000000E+00  0.00000000E+00  0.00000000E+00
  0.00000000E+00  0.00000000E+00  0.00000000E+00