 B N 
 1.0
 14.936314146199660   0.000000000000000   0.000000000000000
 -7.468157073099825  12.935227489513863   0.000000000000000
  0.000000000000001   0.000000000000001  13.341276283792837
 B N 
 143 143
Cartesian
  1.239240691625310   0.719017472636370   5.002978606422314 
  5.026615596737528   7.198380318151446   5.002978606422314 
  6.212297139622880   0.734759711904573   5.002978606422314 
  9.975853570385821   7.192443591517300   5.002978606422314 
 11.194233035588541   0.714003461129014   5.002978606422314 
 -3.734040614734703   9.342130636596879  11.673616748318732 
  1.244451638939948   9.341684306250654  11.673616748318732 
  2.489280759788443   2.874646615913522  11.673616748318732 
  6.223371961305279   9.342164335433996  11.673616748318732 
  7.467740957581910   2.874388122744040  11.673616748318732 
 12.447288580673192   2.874591349868605  11.673616748318732 
 -1.236309092791284   9.340667416809930   5.002978606422314 
 -0.016365489365562   2.865046377979074   5.002978606422314 
  4.942238494783056   2.916773700696550   5.002978606422314 
  3.749933535766194   9.313662361639516   5.002978606422314 
  8.727379959700151   9.354863317133859   5.002978606422314 
  9.950356542473481   2.875641818403618   5.002978606422314 
 -4.978786608987920  11.498220387325594  11.673616748318732 
 -0.000256739085393  11.497831762298896  11.673616748318732 
  1.244771685145002   5.030199563676503  11.673616748318732 
  6.222870186332810   5.030137065085105  11.673616748318732 
  4.978794016992113  11.498098364284720  11.673616748318732 
 11.202541269180887   5.030307696301182  11.673616748318732 
 -1.247077948152627   5.025447680537328   5.002978606422314 
 -2.486442039269735  11.505961196326407   5.002978606422314 
  2.490508317665214  11.485341907046953   5.002978606422314 
  7.469441508063765  11.500038678010336   5.002978606422314 
  8.724735370327803   5.034591033800142   5.002978606422314 
  0.000011216776280   7.185861316452177  11.673616748318732 
  1.244786455245812   0.718942181443773  11.673616748318732 
  4.978275885014504   7.185837629779114  11.673616748318732 
  6.222976051784124   0.718627076482469  11.673616748318732 
  9.957729927120962   7.186211680186257  11.673616748318732 
 -2.478586547161789   7.186435657199508   5.002978606422314 
 11.202356778165532   0.718693706092642  11.673616748318732 
  3.729479611094758   0.733175725882651   5.002978606422314 
  2.507733678251833   7.133459734199808   5.002978606422314 
  7.504533153403823   7.207239233930050   5.002978606422314 
  8.702466330451903   0.725915014415734   5.002978606422314 
  2.489007897084940   7.185532514578049  11.673616748318732 
 13.682878717839928   0.712178509239208   5.002978606422314 
 -1.244774893848309   9.341914352010896  11.673616748318732 
  0.000324523529793   2.874682361417020  11.673616748318732 
  4.977971954852817   2.874520308311259  11.673616748318732 
  3.733777922390285   9.341801813280076  11.673616748318732 
  8.712921144540907   9.342283737322887  11.673616748318732 
  9.957656596145601   2.874455413287397  11.673616748318732 
 -3.723046394532488   9.348478152590095   5.002978606422314 
  1.253083454964847   9.324369779323206   5.002978606422314 
  2.470860371294580   2.889149902740024   5.002978606422314 
  6.233065727066974   9.350289451604944   5.002978606422314 
  7.451449284300590   2.902449020161552   5.002978606422314 
 12.436975422016994   2.870146318922062   5.002978606422314 
 -1.244370270427840   5.030288098312353  11.673616748318732 
 -2.489595062237443  11.498006129947337  11.673616748318732 
  2.489212399891485  11.497837903931973  11.673616748318732 
  3.733391459949090   5.029969562061581  11.673616748318732 
  7.468259197406384  11.498273974408237  11.673616748318732 
 -4.973200195916838  11.507233242098062   5.002978606422314 
  8.712851930434084   5.030258544477875  11.673616748318732 
  0.000749318391230  11.498412609853775   5.002978606422314 
  1.248121705728225   5.006995395879936   5.002978606422314 
  0.010302918566552   7.174978719667521   5.002978606422314 
  6.257902328956497   5.065729139262722   5.002978606422314 
  4.976171447125947  11.491183129797445   5.002978606422314 
 11.204660702659124   5.030449255564630   5.002978606422314 
 -2.489185114890962   7.186104108950243  11.673616748318732 
  3.733758365474270   0.718821552291785  11.673616748318732 
  7.468043532853449   7.186171941682742  11.673616748318732 
  8.712640222313164   0.718544718259805  11.673616748318732 
 13.691884806888297   0.718887451155541  11.673616748318732 
  0.000319745670511   1.437995081032152   1.667739486229929 
  3.731632370006066   7.903615361871870   1.669711527108598 
  4.977870623876263   1.438043655480211   1.668800818533053 
  8.713530913855937   7.905254416376780   1.667168066824386 
  9.957172231002804   1.436741615821309   1.667619939760152 
 -4.978023347488636  10.061659750660269   8.338497267972798 
  0.000014269997282  10.060446522015337   8.338316686436940 
  1.245543920230341   3.593610115302264   8.335330381619197 
  4.977761374120489  10.060774073383500   8.338448273021120 
  6.221162179091680   3.591623245578312   8.336245685735976 
 11.202632251195242   3.592778278053822   8.338499597486418 
 -2.488764641326559  10.061091055059412   1.667615183754332 
 -1.243885547507142   3.593021863861991   1.667739486229929 
  3.732697029677909   3.594450272539072   1.676127318058092 
  2.488351067989043  10.060378987963878   1.667543434047565 
  7.468263618222484  10.061463047164157   1.667303532293003 
  8.712380925312784   3.592223263778322   1.667508939823563 
 -6.223137843889428  12.217852068100642   8.338474304070642 
 -1.244933367654475  12.216759083191045   8.338316686436940 
  0.001607476069416   5.748038339557675   8.336751801907393 
  4.974358480404539   5.746442205376976   8.335329301525146 
  3.733455162443696  12.216535790499394   8.338337273084530 
  9.958228716160381   5.748716988462477   8.338653680551678 
 -2.488141415422449   5.748648487907492   1.667482908774105 
 -3.733918428051312  12.217828469416968   1.667656144536854 
  1.244129864456177  12.216278702829614   1.667591335522424 
  2.489848072464346   5.747127812566976   1.676127318058092 
  6.223367693523837  12.217117476267726   1.667457615358129 
  7.467289491407609   5.748209408429023   1.668474640498368 
 -1.243552144562954   7.904387536958625   8.338301068307828 
  0.000319745670511   1.437995081032153   8.338217726614726 
  3.731632370006067   7.903615361871871   8.336245685735976 
  4.977870623876264   1.438043655480211   8.337156394311602 
  8.713530913855937   7.905254416376780   8.338789146020309 
 -3.732901489570356   7.905045431131235   1.667459944871831 
  9.957172231002804   1.436741615821309   8.338337273084530 
  2.489365270985257   1.439115441837893   1.669205410937195 
  1.244931958301685   7.903683085793790   1.668800818533053 
  6.222354428642763   7.904500189261699   1.668474640498368 
  7.467333618237023   1.436528240935456   1.667543434047565 
  1.244931958301686   7.903683085793791   8.337156394311602 
 12.446983384197317   1.437279212125744   1.667576988026764 
 -2.488764641326559  10.061091055059412   8.338342029090363 
 -1.243885547507142   3.593021863861992   8.338217726614726 
  3.732697029677909   3.594450272539073   8.329829894786510 
  2.488351067989044  10.060378987963878   8.338413778797049 
  7.468263618222485  10.061463047164157   8.338653680551678 
  8.712380925312784   3.592223263778323   8.338448273021120 
 -4.978023347488636  10.061659750660269   1.667459944871831 
  0.000014269997282  10.060446522015337   1.667640526407741 
  1.245543920230341   3.593610115302263   1.670626831225483 
  4.977761374120488  10.060774073383500   1.667508939823563 
  6.221162179091679   3.591623245578311   1.669711527108598 
 11.202632251195242   3.592778278053821   1.667457615358129 
 -2.488141415422449   5.748648487907493   8.338474304070642 
 -3.733918428051312  12.217828469416968   8.338301068307828 
  1.244129864456177  12.216278702829614   8.338365877322138 
  2.489848072464346   5.747127812566977   8.329829894786510 
  6.223367693523838  12.217117476267726   8.338499597486418 
 -6.223137843889429  12.217852068100642   1.667482908774105 
  7.467289491407610   5.748209408429024   8.337482572346232 
 -1.244933367654475  12.216759083191045   1.667640526407741 
  0.001607476069416   5.748038339557674   1.669205410937195 
 -1.243552144562954   7.904387536958624   1.667656144536854 
  4.974358480404538   5.746442205376975   1.670627911319388 
  3.733455162443695  12.216535790499394   1.667619939760152 
  9.958228716160381   5.748716988462476   1.667303532293003 
 -3.732901489570355   7.905045431131236   8.338497267972798 
  2.489365270985257   1.439115441837894   8.336751801907393 
  6.222354428642764   7.904500189261700   8.337482572346232 
  7.467333618237024   1.436528240935457   8.338413778797049 
 12.446983384197317   1.437279212125745   8.338380224817811 
  1.244387334669712   0.718586760693281   1.667039925036351 
  4.978627072921950   7.185782451274073   1.676716463359574 
  6.223413181504929   0.718593931586923   1.667558863589772 
  9.957514349941793   7.186198722299196   1.668946761711762 
 11.201761276654242   0.718349893134812   1.668424744305761 
 -3.734051706549375   9.342124232734697   8.337887618687409 
  1.244641499478758   9.342079444141470   8.338398349254827 
  2.488965029628621   2.874406431984602   8.338764467681903 
  6.223269347987004   9.341807825113952   8.335596831553927 
  7.467763896262055   2.874399688208161   8.335938082944706 
 12.446401487259562   2.874232475329342   8.338397547077571 
 -1.244640578176961   9.342083893993115   1.667524969365550 
 -0.000527982547418   2.874190166803839   1.666692426977249 
  4.978901312008071   2.874475632132853   1.668560903251117 
  3.733799407716138   9.341815896027670   1.670019129899897 
  8.712802134091906   9.342103520952856   1.668946761711762 
  9.957059741163309   2.874360243772827   1.668761926132829 
 -4.978837742755936  11.498066430233829   8.338256619206209 
 -0.000071652027799  11.497938622361403   8.338027671026895 
  1.244405814681097   5.030046225301764   8.338764467681903 
  6.222997994299500   5.030468791986846   8.329240749485093 
  4.978413170283767  11.497629057464820   8.337195286711758 
 11.202031554692184   5.030248234172906   8.337836983738303 
 -1.244877634114848   5.030120160129522   1.667039925036351 
 -2.489381076738098  11.498037679739635   1.667524969365550 
  2.489091106394064  11.497842332227020   1.668201684825047 
  3.734043873981636   5.030346233478866   1.658979226590121 
  7.467952844448322  11.497862279776582   1.668120229106432 
  8.712491876781129   5.030347933897409   1.670360381290755 
  0.000038858434646   7.186099988375319   8.339058048932776 
  1.244387334669712   0.718586760693281   8.338917287808224 
  4.978627072921951   7.185782451274074   8.329240749485093 
  6.223413181504930   0.718593931586924   8.338398349254827 
  9.957514349941793   7.186198722299197   8.337010451132933 
 -2.489344012527538   7.186136804354043   1.667700593638458 
 11.201761276654242   0.718349893134812   8.337532468538960 
  3.733978882252078   0.718726154708536   1.666899163911850 
  2.489433884957109   7.186359699572916   1.668560903251117 
  7.467994235645665   7.186143479926264   1.672181566850351 
  8.712583410580470   0.718437460862187   1.668201684825047 
  2.489433884957110   7.186359699572917   8.337396309593444 
 13.691130465713716   0.718298642993425   1.667559665766962 
 -1.244640578176960   9.342083893993115   8.338432243479039 
 -0.000527982547417   2.874190166803840   8.339264785867339 
  4.978901312008072   2.874475632132854   8.337396309593444 
  3.733799407716138   9.341815896027670   8.335938082944706 
  8.712802134091906   9.342103520952856   8.337010451132933 
  9.957059741163309   2.874360243772828   8.337195286711758 
 -3.734051706549376   9.342124232734697   1.668069594157100 
  1.244641499478758   9.342079444141470   1.667558863589772 
  2.488965029628621   2.874406431984601   1.667192745162685 
  6.223269347987003   9.341807825113952   1.670360381290755 
  7.467763896262055   2.874399688208160   1.670019129899897 
 12.446401487259562   2.874232475329341   1.667559665766962 
 -1.244877634114847   5.030120160129523   8.338917287808224 
 -2.489381076738098  11.498037679739635   8.338432243479039 
  2.489091106394065  11.497842332227020   8.337755528019567 
  3.734043873981636   5.030346233478867   8.346977986254521 
  7.467952844448323  11.497862279776582   8.337836983738303 
 -4.978837742755937  11.498066430233829   1.667700593638458 
  8.712491876781129   5.030347933897410   8.335596831553927 
 -0.000071652027800  11.497938622361403   1.667929541817733 
  1.244405814681096   5.030046225301763   1.667192745162685 
  0.000038858434645   7.186099988375318   1.666899163911850 
  6.222997994299499   5.030468791986845   1.676716463359574 
  4.978413170283766  11.497629057464820   1.668761926132829 
 11.202031554692184   5.030248234172905   1.668120229106432 
 -2.489344012527538   7.186136804354044   8.338256619206209 
  3.733978882252079   0.718726154708536   8.339058048932776 
  7.467994235645666   7.186143479926265   8.333775645994278 
  8.712583410580470   0.718437460862188   8.337755528019567 
 13.691130465713716   0.718298642993426   8.338397547077571 
 -0.013787202994410   1.426062531015067   5.002978606422314 
  3.776339400724884   7.844622052648182   5.002978606422314 
  4.974331852268214   1.457673945852694   5.002978606422314 
  8.731685692999125   7.915736083002178   5.002978606422314 
  9.948628529512362   1.439177364180493   5.002978606422314 
 -4.978913655220990  10.060652829156222  11.673616748318732 
 -0.000102192394239  10.060682916072587  11.673616748318732 
  1.244579731093132   3.593053440444416  11.673616748318732 
  4.978726848007245  10.060676410845970  11.673616748318732 
  6.223381556038293   3.593128523042786  11.673616748318732 
 11.202173216073559   3.593108181484318  11.673616748318732 
 -2.480839737995803  10.065666500130854   5.002978606422314 
 -1.261272913286326   3.586771162956830   5.002978606422314 
  3.705561325511215   3.545700052216094   5.002978606422314 
  2.505189373427807  10.038078800759971   5.002978606422314 
  7.474395053166714  10.059048741367706   5.002978606422314 
  8.702030761882622   3.605708079687837   5.002978606422314 
 -6.223578498201970  12.216508360478549  11.673616748318732 
 -1.244786875591317  12.216540026772712  11.673616748318732 
 -0.000157773070375   5.748940379196129  11.673616748318732 
  4.978756901398522   5.748981634921862  11.673616748318732 
  3.734019459306059  12.216557988793843  11.673616748318732 
  9.957474625511985   5.748955504033630  11.673616748318732 
 -2.492106935583293   5.749058733547226   5.002978606422314 
 -3.730537964660515  12.224502694562082   5.002978606422314 
  1.245622826259627  12.217140664728614   5.002978606422314 
  2.434061291141226   5.748002713570504   5.002978606422314 
  6.218241363427585  12.207183228624855   5.002978606422314 
  7.470241397803914   5.773656367051641   5.002978606422314 
 -1.244858445776508   7.904802323804892  11.673616748318732 
 -0.000089646012054   1.437169434611736  11.673616748318732 
  3.734045667003330   7.904784759956012  11.673616748318732 
  4.978664411570025   1.437197814555499  11.673616748318732 
  8.712764749735459   7.904812071315381  11.673616748318732 
 -3.723414547626415   7.909583816209487   5.002978606422314 
  9.957473603720883   1.437219212092192  11.673616748318732 
  2.479102180515541   1.433409826225194   5.002978606422314 
  1.260162902643881   7.890803274496814   5.002978606422314 
  6.245868094457115   7.894333135879252   5.002978606422314 
  7.456440242328718   1.462260734803982   5.002978606422314 
  1.244596332420167   7.904793446564221  11.673616748318732 
 12.435779473945660   1.430810631526000   5.002978606422314 
 -2.489541861371726  10.060642326857204  11.673616748318732 
 -1.244805274123065   3.593080143475028  11.673616748318732 
  3.733988781473405   3.593045219052608  11.673616748318732 
  2.489309422972241  10.060675735715442  11.673616748318732 
  7.468093133442187  10.060690727720175  11.673616748318732 
  8.712779084017779   3.593108219959505  11.673616748318732 
 -4.969349519746714  10.067606490848773   5.002978606422314 
  0.009968636718614  10.057637607056616   5.002978606422314 
  1.214272982797973   3.575555831157891   5.002978606422314 
  4.984264485548433  10.045068160964851   5.002978606422314 
  6.192425990010048   3.659837324520450   5.002978606422314 
 11.191465775320903   3.593305869783717   5.002978606422314 
 -2.489525427514712   5.748938723889593  11.673616748318732 
 -3.734212362712112  12.216489785957982  11.673616748318732 
  1.244605719876442  12.216553438084601  11.673616748318732 
  2.489277136349169   5.748949029180440  11.673616748318732 
  6.223423880714573  12.216554988475925  11.673616748318732 
 -6.224765320824051  12.214212704082266   5.002978606422314 
  7.468082321593023   5.748965673845329  11.673616748318732 
 -1.242388776005131  12.226784275129663   5.002978606422314 
 -0.008465277230269   5.742003050295913   5.002978606422314 
 -1.236081864341364   7.903977991559154   5.002978606422314 
  3.731292731654695  12.207918853786829   5.002978606422314 
  9.959203583480331   5.755234119783943   5.002978606422314 
 -3.734218663038566   7.904777862769700  11.673616748318732 
  2.489263835657483   1.437135671419600  11.673616748318732 
  6.223405788798032   7.904808667634939  11.673616748318732 
  7.468069786820149   1.437209826820694  11.673616748318732 
 12.446876012558571   1.437217221081177  11.673616748318732 
Generated by cif2cell 2.0.0.  :  Failed to get author information, No journal information. Species order: B N 
 1.0
 14.936314146199660   0.000000000000000   0.000000000000000
 -7.468157073099825  12.935227489513863   0.000000000000000
  0.000000000000001   0.000000000000001  13.341276283792837
 B N 
 143 143
Cartesian
  1.239240691625310   0.719017472636370   5.002978606422314 
  5.026615596737528   7.198380318151446   5.002978606422314 
  6.212297139622880   0.734759711904573   5.002978606422314 
  9.975853570385821   7.192443591517300   5.002978606422314 
 11.194233035588541   0.714003461129014   5.002978606422314 
 -3.734040614734703   9.342130636596879  11.673616748318732 
  1.244451638939948   9.341684306250654  11.673616748318732 
  2.489280759788443   2.874646615913522  11.673616748318732 
  6.223371961305279   9.342164335433996  11.673616748318732 
  7.467740957581910   2.874388122744040  11.673616748318732 
 12.447288580673192   2.874591349868605  11.673616748318732 
 -1.236309092791284   9.340667416809930   5.002978606422314 
 -0.016365489365562   2.865046377979074   5.002978606422314 
  4.942238494783056   2.916773700696550   5.002978606422314 
  3.749933535766194   9.313662361639516   5.002978606422314 
  8.727379959700151   9.354863317133859   5.002978606422314 
  9.950356542473481   2.875641818403618   5.002978606422314 
 -4.978786608987920  11.498220387325594  11.673616748318732 
 -0.000256739085393  11.497831762298896  11.673616748318732 
  1.244771685145002   5.030199563676503  11.673616748318732 
  6.222870186332810   5.030137065085105  11.673616748318732 
  4.978794016992113  11.498098364284720  11.673616748318732 
 11.202541269180887   5.030307696301182  11.673616748318732 
 -1.247077948152627   5.025447680537328   5.002978606422314 
 -2.486442039269735  11.505961196326407   5.002978606422314 
  2.490508317665214  11.485341907046953   5.002978606422314 
  7.469441508063765  11.500038678010336   5.002978606422314 
  8.724735370327803   5.034591033800142   5.002978606422314 
  0.000011216776280   7.185861316452177  11.673616748318732 
  1.244786455245812   0.718942181443773  11.673616748318732 
  4.978275885014504   7.185837629779114  11.673616748318732 
  6.222976051784124   0.718627076482469  11.673616748318732 
  9.957729927120962   7.186211680186257  11.673616748318732 
 -2.478586547161789   7.186435657199508   5.002978606422314 
 11.202356778165532   0.718693706092642  11.673616748318732 
  3.729479611094758   0.733175725882651   5.002978606422314 
  2.507733678251833   7.133459734199808   5.002978606422314 
  7.504533153403823   7.207239233930050   5.002978606422314 
  8.702466330451903   0.725915014415734   5.002978606422314 
  2.489007897084940   7.185532514578049  11.673616748318732 
 13.682878717839928   0.712178509239208   5.002978606422314 
 -1.244774893848309   9.341914352010896  11.673616748318732 
  0.000324523529793   2.874682361417020  11.673616748318732 
  4.977971954852817   2.874520308311259  11.673616748318732 
  3.733777922390285   9.341801813280076  11.673616748318732 
  8.712921144540907   9.342283737322887  11.673616748318732 
  9.957656596145601   2.874455413287397  11.673616748318732 
 -3.723046394532488   9.348478152590095   5.002978606422314 
  1.253083454964847   9.324369779323206   5.002978606422314 
  2.470860371294580   2.889149902740024   5.002978606422314 
  6.233065727066974   9.350289451604944   5.002978606422314 
  7.451449284300590   2.902449020161552   5.002978606422314 
 12.436975422016994   2.870146318922062   5.002978606422314 
 -1.244370270427840   5.030288098312353  11.673616748318732 
 -2.489595062237443  11.498006129947337  11.673616748318732 
  2.489212399891485  11.497837903931973  11.673616748318732 
  3.733391459949090   5.029969562061581  11.673616748318732 
  7.468259197406384  11.498273974408237  11.673616748318732 
 -4.973200195916838  11.507233242098062   5.002978606422314 
  8.712851930434084   5.030258544477875  11.673616748318732 
  0.000749318391230  11.498412609853775   5.002978606422314 
  1.248121705728225   5.006995395879936   5.002978606422314 
  0.010302918566552   7.174978719667521   5.002978606422314 
  6.257902328956497   5.065729139262722   5.002978606422314 
  4.976171447125947  11.491183129797445   5.002978606422314 
 11.204660702659124   5.030449255564630   5.002978606422314 
 -2.489185114890962   7.186104108950243  11.673616748318732 
  3.733758365474270   0.718821552291785  11.673616748318732 
  7.468043532853449   7.186171941682742  11.673616748318732 
  8.712640222313164   0.718544718259805  11.673616748318732 
 13.691884806888297   0.718887451155541  11.673616748318732 
  0.000319745670511   1.437995081032152   1.667739486229929 
  3.731632370006066   7.903615361871870   1.669711527108598 
  4.977870623876263   1.438043655480211   1.668800818533053 
  8.713530913855937   7.905254416376780   1.667168066824386 
  9.957172231002804   1.436741615821309   1.667619939760152 
 -4.978023347488636  10.061659750660269   8.338497267972798 
  0.000014269997282  10.060446522015337   8.338316686436940 
  1.245543920230341   3.593610115302264   8.335330381619197 
  4.977761374120489  10.060774073383500   8.338448273021120 
  6.221162179091680   3.591623245578312   8.336245685735976 
 11.202632251195242   3.592778278053822   8.338499597486418 
 -2.488764641326559  10.061091055059412   1.667615183754332 
 -1.243885547507142   3.593021863861991   1.667739486229929 
  3.732697029677909   3.594450272539072   1.676127318058092 
  2.488351067989043  10.060378987963878   1.667543434047565 
  7.468263618222484  10.061463047164157   1.667303532293003 
  8.712380925312784   3.592223263778322   1.667508939823563 
 -6.223137843889428  12.217852068100642   8.338474304070642 
 -1.244933367654475  12.216759083191045   8.338316686436940 
  0.001607476069416   5.748038339557675   8.336751801907393 
  4.974358480404539   5.746442205376976   8.335329301525146 
  3.733455162443696  12.216535790499394   8.338337273084530 
  9.958228716160381   5.748716988462477   8.338653680551678 
 -2.488141415422449   5.748648487907492   1.667482908774105 
 -3.733918428051312  12.217828469416968   1.667656144536854 
  1.244129864456177  12.216278702829614   1.667591335522424 
  2.489848072464346   5.747127812566976   1.676127318058092 
  6.223367693523837  12.217117476267726   1.667457615358129 
  7.467289491407609   5.748209408429023   1.668474640498368 
 -1.243552144562954   7.904387536958625   8.338301068307828 
  0.000319745670511   1.437995081032153   8.338217726614726 
  3.731632370006067   7.903615361871871   8.336245685735976 
  4.977870623876264   1.438043655480211   8.337156394311602 
  8.713530913855937   7.905254416376780   8.338789146020309 
 -3.732901489570356   7.905045431131235   1.667459944871831 
  9.957172231002804   1.436741615821309   8.338337273084530 
  2.489365270985257   1.439115441837893   1.669205410937195 
  1.244931958301685   7.903683085793790   1.668800818533053 
  6.222354428642763   7.904500189261699   1.668474640498368 
  7.467333618237023   1.436528240935456   1.667543434047565 
  1.244931958301686   7.903683085793791   8.337156394311602 
 12.446983384197317   1.437279212125744   1.667576988026764 
 -2.488764641326559  10.061091055059412   8.338342029090363 
 -1.243885547507142   3.593021863861992   8.338217726614726 
  3.732697029677909   3.594450272539073   8.329829894786510 
  2.488351067989044  10.060378987963878   8.338413778797049 
  7.468263618222485  10.061463047164157   8.338653680551678 
  8.712380925312784   3.592223263778323   8.338448273021120 
 -4.978023347488636  10.061659750660269   1.667459944871831 
  0.000014269997282  10.060446522015337   1.667640526407741 
  1.245543920230341   3.593610115302263   1.670626831225483 
  4.977761374120488  10.060774073383500   1.667508939823563 
  6.221162179091679   3.591623245578311   1.669711527108598 
 11.202632251195242   3.592778278053821   1.667457615358129 
 -2.488141415422449   5.748648487907493   8.338474304070642 
 -3.733918428051312  12.217828469416968   8.338301068307828 
  1.244129864456177  12.216278702829614   8.338365877322138 
  2.489848072464346   5.747127812566977   8.329829894786510 
  6.223367693523838  12.217117476267726   8.338499597486418 
 -6.223137843889429  12.217852068100642   1.667482908774105 
  7.467289491407610   5.748209408429024   8.337482572346232 
 -1.244933367654475  12.216759083191045   1.667640526407741 
  0.001607476069416   5.748038339557674   1.669205410937195 
 -1.243552144562954   7.904387536958624   1.667656144536854 
  4.974358480404538   5.746442205376975   1.670627911319388 
  3.733455162443695  12.216535790499394   1.667619939760152 
  9.958228716160381   5.748716988462476   1.667303532293003 
 -3.732901489570355   7.905045431131236   8.338497267972798 
  2.489365270985257   1.439115441837894   8.336751801907393 
  6.222354428642764   7.904500189261700   8.337482572346232 
  7.467333618237024   1.436528240935457   8.338413778797049 
 12.446983384197317   1.437279212125745   8.338380224817811 
  1.244387334669712   0.718586760693281   1.667039925036351 
  4.978627072921950   7.185782451274073   1.676716463359574 
  6.223413181504929   0.718593931586923   1.667558863589772 
  9.957514349941793   7.186198722299196   1.668946761711762 
 11.201761276654242   0.718349893134812   1.668424744305761 
 -3.734051706549375   9.342124232734697   8.337887618687409 
  1.244641499478758   9.342079444141470   8.338398349254827 
  2.488965029628621   2.874406431984602   8.338764467681903 
  6.223269347987004   9.341807825113952   8.335596831553927 
  7.467763896262055   2.874399688208161   8.335938082944706 
 12.446401487259562   2.874232475329342   8.338397547077571 
 -1.244640578176961   9.342083893993115   1.667524969365550 
 -0.000527982547418   2.874190166803839   1.666692426977249 
  4.978901312008071   2.874475632132853   1.668560903251117 
  3.733799407716138   9.341815896027670   1.670019129899897 
  8.712802134091906   9.342103520952856   1.668946761711762 
  9.957059741163309   2.874360243772827   1.668761926132829 
 -4.978837742755936  11.498066430233829   8.338256619206209 
 -0.000071652027799  11.497938622361403   8.338027671026895 
  1.244405814681097   5.030046225301764   8.338764467681903 
  6.222997994299500   5.030468791986846   8.329240749485093 
  4.978413170283767  11.497629057464820   8.337195286711758 
 11.202031554692184   5.030248234172906   8.337836983738303 
 -1.244877634114848   5.030120160129522   1.667039925036351 
 -2.489381076738098  11.498037679739635   1.667524969365550 
  2.489091106394064  11.497842332227020   1.668201684825047 
  3.734043873981636   5.030346233478866   1.658979226590121 
  7.467952844448322  11.497862279776582   1.668120229106432 
  8.712491876781129   5.030347933897409   1.670360381290755 
  0.000038858434646   7.186099988375319   8.339058048932776 
  1.244387334669712   0.718586760693281   8.338917287808224 
  4.978627072921951   7.185782451274074   8.329240749485093 
  6.223413181504930   0.718593931586924   8.338398349254827 
  9.957514349941793   7.186198722299197   8.337010451132933 
 -2.489344012527538   7.186136804354043   1.667700593638458 
 11.201761276654242   0.718349893134812   8.337532468538960 
  3.733978882252078   0.718726154708536   1.666899163911850 
  2.489433884957109   7.186359699572916   1.668560903251117 
  7.467994235645665   7.186143479926264   1.672181566850351 
  8.712583410580470   0.718437460862187   1.668201684825047 
  2.489433884957110   7.186359699572917   8.337396309593444 
 13.691130465713716   0.718298642993425   1.667559665766962 
 -1.244640578176960   9.342083893993115   8.338432243479039 
 -0.000527982547417   2.874190166803840   8.339264785867339 
  4.978901312008072   2.874475632132854   8.337396309593444 
  3.733799407716138   9.341815896027670   8.335938082944706 
  8.712802134091906   9.342103520952856   8.337010451132933 
  9.957059741163309   2.874360243772828   8.337195286711758 
 -3.734051706549376   9.342124232734697   1.668069594157100 
  1.244641499478758   9.342079444141470   1.667558863589772 
  2.488965029628621   2.874406431984601   1.667192745162685 
  6.223269347987003   9.341807825113952   1.670360381290755 
  7.467763896262055   2.874399688208160   1.670019129899897 
 12.446401487259562   2.874232475329341   1.667559665766962 