 N B In 
 1.0
 17.527899999999772   0.000000000000000   0.000000000000000
 -8.763949999999658  15.179606674993195   0.000000000000000
  0.000000000000001   0.000000000000002  15.000000000000000
 N B In 
  49  47   1
Cartesian
  8.762184023203254  13.768149658766472   1.660714423693395 
 16.290036742080979   0.769457620572927   1.655642754721830 
 15.035455520141673   2.921614891468026   1.661328211791660 
 13.767057122328932   5.071744236212338   1.663088060029050 
 12.451797575080766   7.221197823432545   1.659274239501000 
 11.189576106630112   9.367513622276009   1.660266008626800 
  9.966589410931800  11.541616838929764   1.661970011545230 
 -6.286213780720679  13.712874280155031   1.660250552478780 
  1.264132230475578   0.741544650917277   1.660462831409235 
  0.013760155369361   2.903826153220654   1.672451952861105 
 -1.251249115721393   5.073071143271316   1.676054226822990 
 -2.549769923647454   7.231920108787606   1.672750569562740 
 -3.812985400841836   9.382825982608871   1.664430665185920 
 -5.058651268712910  11.536483631133482   1.661719840224795 
 -3.788985205491545  13.698959774103489   1.660585919123910 
  3.744722282223619   0.689849879375294   1.664133775744065 
  2.544068185953416   2.909163433053167   1.678230843697320 
  1.258749004042161   5.030706794630563   1.689572716025595 
 -0.045145268156464   7.234886263635858   1.669606418579310 
 -1.293245483654998   9.396971577718416   1.670425861705200 
 -2.549097141697541  11.545898152310045   1.664060429895915 
 -1.280510442013609  13.709963510324453   1.660310562538650 
  6.249972468860179   0.667867386790522   1.662856956935745 
  5.021748075890858   2.821077750607420   1.678214804781375 
  3.876369862847635   5.107561199167336   1.683840306978690 
  2.366533950601285   7.136419124954457   1.547735342118645 
  1.224520549023394   9.426067136945345   1.649515573646055 
 -0.040595127961667  11.574550988701382   1.670250542053365 
  1.223740231556137  13.770594113432212   1.662164292206220 
  8.771539494402901   0.682815982592294   1.661285293967655 
  7.564516938660550   2.769950467200112   1.662653019348945 
  6.398107508432004   4.816908084984976   1.664314966631430 
  5.939988263072926   7.006351204304532   1.722062310816495 
  3.712521109257841   9.768502944045254   1.689761537695995 
  2.440450216537396  11.693851566103458   1.680160863984540 
  3.737443587195637  13.830399000035829   1.667257627508865 
 11.273792234678700   0.743791458560540   1.660508915739900 
 10.051166729623745   2.844375959261200   1.665451585365345 
  8.840066577176559   4.940037367181698   1.651652778403800 
  7.379781960559844   6.979174300543043   1.669812786198375 
  6.174719552976388   9.705537708586453   1.639143248565165 
  4.994269312368792  11.788720597310139   1.699617590718810 
  6.270139008591918  13.834109370598986   1.665761498851095 
 13.780294968879133   0.776652167213420   1.657816541415420 
 12.533140967911349   2.906895141659797   1.664188692437220 
 11.274225392269347   5.046129741681341   1.660591699192995 
  9.897572862530463   7.188219923699564   1.658909139735735 
  8.660859490654058   9.349831799257499   1.670143826647755 
  7.493715071684576  11.639060085224976   1.672680209163900 
  7.525781453715242  14.517113909194906   1.659980512352955 
 15.036215475479146   1.485989624772529   1.657803152861595 
 13.779646196496023   3.632793210150283   1.663363822129245 
 12.507504986216183   5.780390090368629   1.660721968363770 
 11.168601534005528   7.920992380778422   1.659622954766475 
  9.932545769721704  10.080388640957155   1.664778146429580 
  8.750161567078500  12.321482445464449   1.664793051657720 
 -7.512357208338459  14.473767837095005   1.659937256172300 
  0.015938167193253   1.470063019122041   1.662181400522730 
 -1.237812487340431   3.633740169995192   1.670734267007205 
 -2.511376063464940   5.791154691103188   1.670735788077225 
 -3.815469733188571   7.941327257592447   1.665834374094780 
 -5.073621799325038  10.091456324505268   1.661803390340925 
 -6.304698682172289  12.261928232687030   1.661112312675210 
 -5.033062991821199  14.426000300685908   1.661679093045210 
  2.521728006152281   1.457210536501741   1.667090919956595 
  1.271316392806548   3.606613410961176   1.684123701946245 
  0.007100842789044   5.787177093003168   1.677911390702130 
 -1.295041089040338   7.951558961261164   1.673993878336035 
 -2.551712255486368  10.104214103719885   1.667888350522545 
 -3.801497465098616  12.257294984365867   1.662087414800910 
 -2.532373955259860  14.413527760959759   1.660775614491720 
  4.999663685530337   1.388934890757163   1.668902538719400 
  3.818227285731289   3.634206223259856   1.683409613376420 
  2.515276873720812   5.747800207282752   1.643632016225805 
  1.213170437011181   7.955448616708787   1.622325426740340 
 -0.034660304821989  10.124735280978301   1.665589423570260 
 -1.294308040318298  12.270812748842401   1.665312378795120 
 -0.027968957544274  14.440454328723828   1.660907877963000 
  7.521633601249964   1.358076258045413   1.663185267491625 
  6.314033730043571   3.435495333312629   1.667956321229880 
  5.308243582701516   5.683429685244381   1.694445230213445 
  2.426196237134757  10.260767586424473   1.673037543839805 
  1.191575638064291  12.345422776021421   1.670328373205700 
  2.478968720533956  14.499567132969085   1.662249020084760 
 10.020910012151496   1.418441204080486   1.663380082307550 
  8.803200531837286   3.514928805054956   1.659923498323995 
  7.595957885000588   5.572215839586691   1.657518541794105 
  4.939571978904251  10.389611573359891   1.688631944836665 
  3.705856908787135  12.412091505921511   1.684456494810390 
  5.004802998777185  14.527435947370620   1.663875686227635 
 12.523652182718221   1.472489738202624   1.661588487488955 
 11.279495646373039   3.604018473909767   1.664244643731855 
 10.016745079064757   5.741930943073731   1.657492930958610 
  8.575140199369873   7.879036956012370   1.667488320032055 
  7.481015555572564  10.176797749955890   1.668442464103440 
  6.267300622723683  12.412014093765832   1.679991438690435 
  4.200219448891780   7.902716600426497   1.651086541939590 
