B N S                                   
   1.0000000000000000     
     8.7639499999999995  -15.1796066749929999    0.0000000000000000
     8.7639499999999995   15.1796066749929999    0.0000000000000000
     0.0000000000000000    0.0000000000000000   15.0000000000000000
   B    N    S 
    49    47     2
Selective dynamics
Direct
  0.9057913480468858  0.9541168751105413  0.1110405018686807   T   T   T
  0.9050301631860618  0.0957722241369777  0.1110607660112281   T   T   T
  0.9050801767470970  0.2378340315867847  0.1110536953177761   T   T   T
  0.9061144040950779  0.3804886628561269  0.1110374036375203   T   T   T
  0.9103391801688131  0.5244488503795700  0.1110606900282974   T   T   T
  0.9100790234393665  0.6711528262679302  0.1110239759142645   T   T   T
  0.9080284225930465  0.8131530851306096  0.1110243634019015   T   T   T
  0.0482445509336098  0.9530000828717478  0.1110331716507384   T   T   T
  0.0472611479397887  0.0952155962908581  0.1110468510063717   T   T   T
  0.0470402455186413  0.2378340315867847  0.1110536953177761   T   T   T
  0.0475269150165799  0.3807691509101828  0.1110381944103093   T   T   T
  0.0492801676844106  0.5241754351304441  0.1110441998855188   T   T   T
  0.0493928911472910  0.6675472779193762  0.1110438557996233   T   T   T
  0.0496523250282825  0.8110085219472536  0.1110317086944740   T   T   T
  0.1900140896322448  0.9512897663947877  0.1110359838365752   T   T   T
  0.1885649512763004  0.0930688761867768  0.1110480934819622   T   T   T
  0.1884967375757491  0.2367063378442658  0.1110373367537135   T   T   T
  0.1886606494399813  0.3804886628561269  0.1110374036375152   T   T   T
  0.1891799465680730  0.5241754351304441  0.1110441998855188   T   T   T
  0.1906664169796843  0.6670481548373237  0.1110426429729630   T   T   T
  0.1907715583523708  0.8094018902795689  0.1110070275346264   T   T   T
  0.3325104788434889  0.9507362785629789  0.1110238362871044   T   T   T
  0.3305355035334109  0.0910954335206368  0.1110393074840912   T   T   T
  0.3281204016532700  0.2323826003065026  0.1110330877647454   T   T   T
  0.3294923757801044  0.3791832266296141  0.1110875350968480   T   T   T
  0.3283960608898215  0.5244488503795700  0.1110606900282974   T   T   T
  0.3324390658951936  0.6675472779193762  0.1110438557996233   T   T   T
  0.3329150110501910  0.8094018902795689  0.1110070275346264   T   T   T
  0.4755603558855040  0.9512897663947877  0.1110359838365752   T   T   T
  0.4748463206672024  0.0910954335206368  0.1110393074840912   T   T   T
  0.4708948566466754  0.2275033226133867  0.1110082559305163   T   T   T
  0.4662178061303736  0.3623724539220752  0.1111057743628849   T   T   T
  0.4654519916928051  0.5325476366991992  0.1110521293605678   T   T   T
  0.4753601935075077  0.6711528262679302  0.1110239759142645   T   T   T
  0.4756408760420157  0.8110085219472536  0.1110317086944740   T   T   T
  0.6190402110611698  0.9530000828717478  0.1110331716507384   T   T   T
  0.6187903155894738  0.0930688761867768  0.1110480934819622   T   T   T
  0.6185485893332705  0.2323826003065026  0.1110330877647454   T   T   T
  0.6104410384716231  0.3623724539220708  0.1111057743628849   T   T   T
  0.6284008317096946  0.5425152727404000  0.1107379680590010   T   T   T
  0.6208851490164777  0.6745532006056408  0.1109794856031716   T   T   T
  0.6194110532165165  0.8131530851306096  0.1110243634019015   T   T   T
  0.7626119177426921  0.9541168751105413  0.1110405018686807   T   T   T
  0.7622408390300632  0.0952155962908581  0.1110468510063717   T   T   T
  0.7624959909474642  0.2367063378442619  0.1110373367537135   T   T   T
  0.7639772415295912  0.3791832266296141  0.1110875350968480   T   T   T
  0.7813820356855954  0.5325476366991992  0.1110521293605678   T   T   T
  0.7679544422681136  0.6745532006056408  0.1109794856031716   T   T   T
  0.7639046108754909  0.8135228310719310  0.1110227556710698   T   T   T
  0.9539709031623218  0.9071763647145077  0.1110129717302542   T   T   T
  0.9526954340295438  0.0485926677960613  0.1110333173443966   T   T   T
  0.9523935657873062  0.1904979370446963  0.1110509513837508   T   T   T
  0.9528052715055715  0.3327719077107964  0.1110210759604947   T   T   T
  0.9552575820816848  0.4757332996738656  0.1110207266409098   T   T   T
  0.9550571145359674  0.6202682292640862  0.1110276019813237   T   T   T
  0.9556176212634663  0.7652990967743948  0.1110050090978319   T   T   T
  0.0957355850422020  0.9053133174903396  0.1110136886116874   T   T   T
  0.0944226355068449  0.0473058918084080  0.1110250959290565   T   T   T
  0.0941277786326105  0.1900081520782955  0.1110338185005030   T   T   T
  0.0942541191792935  0.3327719077107964  0.1110210759604947   T   T   T
  0.0950839895125471  0.4758822076071181  0.1110194834922243   T   T   T
  0.0960765377413218  0.6192940942835997  0.1110338227801759   T   T   T
  0.0962371412127030  0.7624859151166005  0.1110085278815333   T   T   T
  0.2377102565819112  0.9039614406738147  0.1109940612687797   T   T   T
  0.2361507131960987  0.0454535154788474  0.1110367005141700   T   T   T
  0.2344702943959640  0.1874478864646676  0.1110129287202443   T   T   T
  0.2353954063443410  0.3319710337934983  0.1110258781051644   T   T   T
  0.2347632005661894  0.4757332996738656  0.1110207266409098   T   T   T
  0.2375033279593103  0.6192940942835997  0.1110338227801759   T   T   T
  0.2380863955125554  0.7618870196080385  0.1109873233009221   T   T   T
  0.3805369555088908  0.9039614406738147  0.1109940612687797   T   T   T
  0.3796222389865596  0.0449569950000531  0.1110306485402425   T   T   T
  0.3763774510102862  0.1847352024309178  0.1109949725794565   T   T   T
  0.3735990368243150  0.3268007083667251  0.1110697272490075   T   T   T
  0.3729854742070747  0.4754980424490988  0.1110907466985385   T   T   T
  0.3794985977010483  0.6202682292640862  0.1110276019813237   T   T   T
  0.3805345453207982  0.7624859151166005  0.1110085278815333   T   T   T
  0.5238635038651722  0.9053133174903396  0.1110136886116874   T   T   T
  0.5235902852557599  0.0454535154788474  0.1110367005141700   T   T   T
  0.5226452343936011  0.1847352024309178  0.1109949725794565   T   T   T
  0.5169452661960265  0.3196030494188416  0.1110269272258078   T   T   T
  0.5238203507616136  0.6259112847892325  0.1109803533098761   T   T   T
  0.5239689584838808  0.7652990967743948  0.1110050090978319   T   T   T
  0.6674929445251745  0.9071763647145077  0.1110129717302542   T   T   T
  0.6671707392744820  0.0473058918084080  0.1110250959290565   T   T   T
  0.6672650750417457  0.1874478864646676  0.1110129287202443   T   T   T
  0.6674891545154711  0.3268007083666828  0.1110697272490075   T   T   T
  0.6742206357382028  0.6341537885045153  0.1109058179395860   T   T   T
  0.6684341078886438  0.7679650367545316  0.1109955163515058   T   T   T
  0.8109806171912181  0.9076737514084753  0.1110246050978042   T   T   T
  0.8101864282964329  0.0485926677960604  0.1110333173443966   T   T   T
  0.8101678564197287  0.1900081520782955  0.1110338185005030   T   T   T
  0.8108631104232018  0.3319710337934983  0.1110258781051644   T   T   T
  0.8168000512161115  0.4754980424490988  0.1110907466985385   T   T   T
  0.8163784170005614  0.6259112847892325  0.1109803533098761   T   T   T
  0.8138184118389126  0.7679650367545316  0.1109955163515058   T   T   T
  0.5190788983353245  0.4750451856214283  0.1106871920994303   T   T   T
  0.6702537702591419  0.4750451856214283  0.1106871920994303   T   T   T

  0.00000000E+00  0.00000000E+00  0.00000000E+00
  0.00000000E+00  0.00000000E+00  0.00000000E+00
  0.00000000E+00  0.00000000E+00  0.00000000E+00
  0.00000000E+00  0.00000000E+00  0.00000000E+00
  0.00000000E+00  0.00000000E+00  0.00000000E+00
  0.00000000E+00  0.00000000E+00  0.00000000E+00
  0.00000000E+00  0.00000000E+00  0.00000000E+00
  0.00000000E+00  0.00000000E+00  0.00000000E+00
  0.00000000E+00  0.00000000E+00  0.00000000E+00
  0.00000000E+00  0.00000000E+00  0.00000000E+00
  0.00000000E+00  0.00000000E+00  0.00000000E+00
  0.00000000E+00  0.00000000E+00  0.00000000E+00
  0.00000000E+00  0.00000000E+00  0.00000000E+00
  0.00000000E+00  0.00000000E+00  0.00000000E+00
  0.00000000E+00  0.00000000E+00  0.00000000E+00
  0.00000000E+00  0.00000000E+00  0.00000000E+00
  0.00000000E+00  0.00000000E+00  0.00000000E+00
  0.00000000E+00  0.00000000E+00  0.00000000E+00
  0.00000000E+00  0.00000000E+00  0.00000000E+00
  0.00000000E+00  0.00000000E+00  0.00000000E+00
  0.00000000E+00  0.00000000E+00  0.00000000E+00
  0.00000000E+00  0.00000000E+00  0.00000000E+00
  0.00000000E+00  0.00000000E+00  0.00000000E+00
  0.00000000E+00  0.00000000E+00  0.00000000E+00
  0.00000000E+00  0.00000000E+00  0.00000000E+00
  0.00000000E+00  0.00000000E+00  0.00000000E+00
  0.00000000E+00  0.00000000E+00  0.00000000E+00
  0.00000000E+00  0.00000000E+00  0.00000000E+00
  0.00000000E+00  0.00000000E+00  0.00000000E+00
  0.00000000E+00  0.00000000E+00  0.00000000E+00
  0.00000000E+00  0.00000000E+00  0.00000000E+00
  0.00000000E+00  0.00000000E+00  0.00000000E+00
  0.00000000E+00  0.00000000E+00  0.00000000E+00
  0.00000000E+00  0.00000000E+00  0.00000000E+00
  0.00000000E+00  0.00000000E+00  0.00000000E+00
  0.00000000E+00  0.00000000E+00  0.00000000E+00
  0.00000000E+00  0.00000000E+00  0.00000000E+00
  0.00000000E+00  0.00000000E+00  0.00000000E+00
  0.00000000E+00  0.00000000E+00  0.00000000E+00
  0.00000000E+00  0.00000000E+00  0.00000000E+00
  0.00000000E+00  0.00000000E+00  0.00000000E+00
  0.00000000E+00  0.00000000E+00  0.00000000E+00
  0.00000000E+00  0.00000000E+00  0.00000000E+00
  0.00000000E+00  0.00000000E+00  0.00000000E+00
  0.00000000E+00  0.00000000E+00  0.00000000E+00
  0.00000000E+00  0.00000000E+00  0.00000000E+00
  0.00000000E+00  0.00000000E+00  0.00000000E+00
  0.00000000E+00  0.00000000E+00  0.00000000E+00
  0.00000000E+00  0.00000000E+00  0.00000000E+00
  0.00000000E+00  0.00000000E+00  0.00000000E+00
  0.00000000E+00  0.00000000E+00  0.00000000E+00
  0.00000000E+00  0.00000000E+00  0.00000000E+00
  0.00000000E+00  0.00000000E+00  0.00000000E+00
  0.00000000E+00  0.00000000E+00  0.00000000E+00
  0.00000000E+00  0.00000000E+00  0.00000000E+00
  0.00000000E+00  0.00000000E+00  0.00000000E+00
  0.00000000E+00  0.00000000E+00  0.00000000E+00
  0.00000000E+00  0.00000000E+00  0.00000000E+00
  0.00000000E+00  0.00000000E+00  0.00000000E+00
  0.00000000E+00  0.00000000E+00  0.00000000E+00
  0.00000000E+00  0.00000000E+00  0.00000000E+00
  0.00000000E+00  0.00000000E+00  0.00000000E+00
  0.00000000E+00  0.00000000E+00  0.00000000E+00
  0.00000000E+00  0.00000000E+00  0.00000000E+00
  0.00000000E+00  0.00000000E+00  0.00000000E+00
  0.00000000E+00  0.00000000E+00  0.00000000E+00
  0.00000000E+00  0.00000000E+00  0.00000000E+00
  0.00000000E+00  0.00000000E+00  0.00000000E+00
  0.00000000E+00  0.00000000E+00  0.00000000E+00
  0.00000000E+00  0.00000000E+00  0.00000000E+00
  0.00000000E+00  0.00000000E+00  0.00000000E+00
  0.00000000E+00  0.00000000E+00  0.00000000E+00
  0.00000000E+00  0.00000000E+00  0.00000000E+00
  0.00000000E+00  0.00000000E+00  0.00000000E+00
  0.00000000E+00  0.00000000E+00  0.00000000E+00
  0.00000000E+00  0.00000000E+00  0.00000000E+00
  0.00000000E+00  0.00000000E+00  0.00000000E+00
  0.00000000E+00  0.00000000E+00  0.00000000E+00
  0.00000000E+00  0.00000000E+00  0.00000000E+00
  0.00000000E+00  0.00000000E+00  0.00000000E+00
  0.00000000E+00  0.00000000E+00  0.00000000E+00
  0.00000000E+00  0.00000000E+00  0.00000000E+00
  0.00000000E+00  0.00000000E+00  0.00000000E+00
  0.00000000E+00  0.00000000E+00  0.00000000E+00
  0.00000000E+00  0.00000000E+00  0.00000000E+00
  0.00000000E+00  0.00000000E+00  0.00000000E+00
  0.00000000E+00  0.00000000E+00  0.00000000E+00
  0.00000000E+00  0.00000000E+00  0.00000000E+00
  0.00000000E+00  0.00000000E+00  0.00000000E+00
  0.00000000E+00  0.00000000E+00  0.00000000E+00
  0.00000000E+00  0.00000000E+00  0.00000000E+00
  0.00000000E+00  0.00000000E+00  0.00000000E+00
  0.00000000E+00  0.00000000E+00  0.00000000E+00
  0.00000000E+00  0.00000000E+00  0.00000000E+00
  0.00000000E+00  0.00000000E+00  0.00000000E+00
  0.00000000E+00  0.00000000E+00  0.00000000E+00
  0.00000000E+00  0.00000000E+00  0.00000000E+00
  0.00000000E+00  0.00000000E+00  0.00000000E+00
