 B O N 
 1.0
 17.527899999999772   0.000000000000000   0.000000000000000
 -8.763949999999658  15.179606674993195   0.000000000000000
  0.000000000000001   0.000000000000002  15.000000000000000
 B O N 
  48   1  48
Cartesian
  7.513583250178041  14.453619778874355   1.665046540658565 
 15.028571985815784   1.443008155755812   1.665733353581685 
 13.777598569688184   3.610988484652719   1.665706663422030 
 12.525759177418983   5.779862926491132   1.665007455199845 
 11.272215326927327   7.948904133475336   1.664809739274285 
 10.013528470801642  10.119737783328796   1.665763968943170 
  8.760094085674766  12.281150219813982   1.665411589189200 
 -7.512666233705081  14.457198109663958   1.665010857275655 
  0.003557433603304   1.445873498412950   1.665046540658565 
 -1.248980731606372   3.613464518015931   1.664905783484490 
 -2.504308434810556   5.781356869618772   1.665162395098770 
 -3.761680873080869   7.953081033307327   1.665125074920345 
 -5.012813653487662  10.119737783328796   1.665276975132585 
 -6.264569346375086  12.289641737582675   1.664807016385320 
 -5.011458907682856  14.460092684892503   1.664807016385320 
  2.508226678446312   1.452598228310368   1.665411589189200 
  1.257016756904975   3.616234742425341   1.664831252920455 
 -0.002111276788623   5.784482138164867   1.664779463982105 
 -1.271670312758048   7.957352622457475   1.665757719209775 
 -2.519188284811763  10.126740402081476   1.666004986674705 
 -3.764512780472073  12.293200704475829   1.664928073644915 
 -2.506424540404401  14.460992432647103   1.665276975132585 
  5.006746521740117   1.447798427056123   1.665763968943170 
  3.771096381357218   3.627036974892693   1.666213513649145 
  2.527760711047880   5.778799249910191   1.665372790901535 
  1.211984646498975   7.985872234157303   1.665363392929725 
 -0.029781270284612  10.136952461728143   1.666251538375890 
 -1.265640874460451  12.297948206476097   1.666004986674705 
 -0.004442936062519  14.460808036318062   1.665125074920345 
  7.516122465305013   1.443160459168400   1.664809739274285 
  6.274599060513324   3.604449011948163   1.665979943598945 
  5.055602971624301   5.788649250906639   1.667298983083785 
  2.453991810761939  10.137091746025266   1.665363392929725 
  1.236863039380300  12.302259840811882   1.665757719209775 
  2.505011578821989  14.457753644601842   1.665162395098770 
 10.021339177636998   1.442080243376930   1.665007455199845 
  8.777996660542195   3.605299113019143   1.665032853507975 
  7.538925961890785   5.767157303804076   1.665895758274905 
  6.278651894581235   7.907032125640611   1.667298983083785 
  5.023261115383301  10.101132740557917   1.665372790901535 
  3.753403595878358  12.289224706204559   1.664779463982105 
  5.010125279582139  14.454554139354016   1.664905783484490 
 12.525559238022460   1.442392749132897   1.665706663422030 
 11.277795872698903   3.608519754333969   1.665800251854450 
 10.030685423815715   5.775019697079435   1.665032853507975 
  8.779722832915844   7.943450665028045   1.665979943598945 
  7.508409743608103  10.100253602147390   1.666213513649145 
  6.260724939125045  12.282911540278464   1.664831252920455 
  5.113059306937586   7.167725803118291   1.668305466972930 
  8.763815976637325  13.729216331891001   1.664933466522930 
 16.280004158580539   0.720487187006624   1.665169304512620 
 15.028440877429455   2.888601943690879   1.665345753284700 
 13.774966776463279   5.056241170983208   1.665085729334895 
 12.520431988806283   7.225777147946377   1.664377314438285 
 11.265497401296010   9.395104574999065   1.665116268449835 
 10.013198328586007  11.562543621285020   1.665280509962955 
 -6.262129000272341  13.735193834378878   1.664417086444710 
  1.256020157187939   0.725332519751861   1.664933466522930 
  0.004242377532200   2.892168928573610   1.664523856317960 
 -1.253627651294329   5.059868891664398   1.664555984227905 
 -2.514470341095308   7.227579636961436   1.665067932231420 
 -3.765686752527670   9.399466279769504   1.665163609144560 
 -5.014401833184081  11.568076705978052   1.664564359351470 
 -3.761486930556582  13.738188974888844   1.664564359351470 
  3.757104942233648   0.726672019227317   1.665280509962955 
  2.515068723715627   2.901400247854212   1.665079726232895 
  1.253635026016722   5.059868891664398   1.664499012566670 
 -0.028005619033095   7.230541976402678   1.665244609479255 
 -1.272886655349822   9.404241271191012   1.665974370928860 
 -2.515363701636812  11.571997880621351   1.665633196183725 
 -1.259057670220105  13.741075206055882   1.665163609144560 
  6.260311753826493   0.725868732267701   1.665116268449835 
  5.016902637170144   2.893931476429546   1.665739794616410 
  3.790782798303843   5.080591687148556   1.666808853816555 
  2.355460311431702   7.174557928393625   1.663153350308400 
  1.213572022238615   9.419095836650953   1.665828156623610 
 -0.016792885505145  11.579859499632894   1.665974370928860 
  1.247459542290408  13.743433329527464   1.665067932231420 
  8.766471708518029   0.723727212922366   1.664377314438285 
  7.524135537116803   2.886143258259322   1.664761472837010 
  6.287825706866768   5.046799940052306   1.666091434569045 
  3.728343015125629   9.552460524054416   1.663153350308400 
  2.488126442110672  11.588610544887242   1.665244609479255 
  3.755148888013707  13.735366902632380   1.664555984227905 
 11.272612372820923   0.722036205361637   1.665085729334895 
 10.026671438860530   2.885785593947095   1.665209458345170 
  8.783903093652331   5.048363154705441   1.664873841721920 
  7.537218183860746   7.210811188800200   1.666091434569045 
  6.259432218146922   9.356417908422580   1.666808853816555 
  5.008780226669139  11.564013730120513   1.664499012566670 
  6.261391710924645  13.729869484554929   1.664523856317960 
 13.776580060396395   0.720315404585180   1.665345753284700 
 12.527326146521611   2.887096847450805   1.665720871095015 
 11.278134371544915   5.053382977115112   1.665209458345170 
 10.026556674292650   7.220463809751683   1.664761472837010 
  8.766195429524934   9.387897085239748   1.665739794616410 
  7.508810327008853  11.550814424628577   1.665079726232895 
