B Se N                                  
   1.0000000000000000     
     8.7639499999999995  -15.1796066749929999    0.0000000000000000
     8.7639499999999995   15.1796066749929999    0.0000000000000000
     0.0000000000000000    0.0000000000000000   15.0000000000000000
   B    Se   N 
    47     1    49
Selective dynamics
Direct
  0.9106851645851114  0.9549774263004190  0.1106264680169879   T   T   T
  0.9094104469890525  0.0961126205032886  0.1107401987406245   T   T   T
  0.9088553470968583  0.2377885334619323  0.1107311369300787   T   T   T
  0.9087607131848434  0.3801706992002322  0.1106637610471714   T   T   T
  0.9080015278701575  0.5229071751402946  0.1106864356631814   T   T   T
  0.9078920282260530  0.6657212138229007  0.1107464409651054   T   T   T
  0.9058580402521350  0.8079992484080576  0.1107289408441987   T   T   T
  0.0513644944612090  0.9541747522000885  0.1106473320441485   T   T   T
  0.0531353052382655  0.0975328153463017  0.1107177555108606   T   T   T
  0.0517979333806884  0.2386553482382892  0.1108445102310487   T   T   T
  0.0503383747990119  0.3810555634640843  0.1107114348394535   T   T   T
  0.0489472116010754  0.5244774653440977  0.1106874555917971   T   T   T
  0.0493619643834861  0.6678507022945249  0.1107644294051791   T   T   T
  0.0497695261353090  0.8109451706870400  0.1107386385769598   T   T   T
  0.1938690668003074  0.9554692122781575  0.1106844659692843   T   T   T
  0.1969364602447642  0.1000152339354530  0.1107105415653142   T   T   T
  0.1960423685548064  0.2406282746061703  0.1108242471848037   T   T   T
  0.1924558885514595  0.3813371450392210  0.1107461336427811   T   T   T
  0.1887295619364539  0.5250881708007781  0.1106995358443953   T   T   T
  0.1899006744583360  0.6690211557489100  0.1107701131579034   T   T   T
  0.1921201550755138  0.8121389945428114  0.1107810088340232   T   T   T
  0.3359024814084111  0.9553185202714858  0.1107434442171610   T   T   T
  0.3381323899730761  0.0993970124073480  0.1107626243167212   T   T   T
  0.3444824779153680  0.2477000510270564  0.1108483225487183   T   T   T
  0.3380123265380970  0.3822083759441192  0.1106311944586515   T   T   T
  0.3265201297335430  0.5259738387091933  0.1105085133441350   T   T   T
  0.3290740092595311  0.6701018490497239  0.1107397534975398   T   T   T
  0.3341965558841382  0.8125735948463056  0.1108252075376084   T   T   T
  0.4782241843073388  0.9535813529287228  0.1107659444805110   T   T   T
  0.4796933092350170  0.0960772345842924  0.1107623597462463   T   T   T
  0.4822393076252016  0.2396701701188631  0.1108603717754034   T   T   T
  0.5021408182720820  0.3975988975209969  0.1109662695029031   T   T   T
  0.4658030117509641  0.6679957944155389  0.1106609369735160   T   T   T
  0.4768164476042223  0.8111840144767392  0.1107912451142261   T   T   T
  0.6215698756270550  0.9545798394355051  0.1106930541000419   T   T   T
  0.6222920997590887  0.0948477096928178  0.1106622201100525   T   T   T
  0.6234845487838925  0.2352656873077328  0.1106986762402999   T   T   T
  0.6259828706911323  0.3744532913951907  0.1107957067527119   T   T   T
  0.6076156229930887  0.4957507912878060  0.1109944525437262   T   T   T
  0.6216423281823131  0.8153422283348440  0.1107933971385150   T   T   T
  0.7662588269697059  0.9543631821370913  0.1106695109462761   T   T   T
  0.7657636201626000  0.0953609611797921  0.1106873833688540   T   T   T
  0.7661914568278881  0.2367260361602286  0.1106570679709527   T   T   T
  0.7672404495745755  0.3783045419310654  0.1106693675008657   T   T   T
  0.7653568484466033  0.5189963356383502  0.1107053698382787   T   T   T
  0.7632886765384456  0.6581540700018529  0.1108654336165650   T   T   T
  0.7699572947140408  0.8143636779294191  0.1108433892601604   T   T   T
  0.6158769011621524  0.6594465436266738  0.1108579673799422   T   T   T
  0.9553124883277349  0.9047389321535851  0.1106235384188183   T   T   T
  0.9579476360537356  0.0496650604343404  0.1106565085378496   T   T   T
  0.9568590274209041  0.1908725179838844  0.1107953778020070   T   T   T
  0.9561407844521461  0.3327616440336167  0.1106823596171335   T   T   T
  0.9551975402727882  0.4754777578843236  0.1106411693410352   T   T   T
  0.9552584696853654  0.6186306513638866  0.1107194451518176   T   T   T
  0.9543928438930679  0.7616762358686848  0.1107291636842993   T   T   T
  0.0983894755724527  0.9065284303443041  0.1106515099414971   T   T   T
  0.1005800697496986  0.0502879786388180  0.1106439570841725   T   T   T
  0.1006081081349757  0.1925305500123173  0.1108200080998520   T   T   T
  0.0982167791297632  0.3336856452126782  0.1107768004982879   T   T   T
  0.0955008557386089  0.4763881433884902  0.1106686417767014   T   T   T
  0.0960044544161771  0.6199896380604641  0.1107388088981703   T   T   T
  0.0971345863735619  0.7633962826213833  0.1107730308342382   T   T   T
  0.2406561358212251  0.9072786814592230  0.1107090328255235   T   T   T
  0.2426150230208534  0.0509157703666790  0.1106841683134489   T   T   T
  0.2464166379032249  0.1964041954331227  0.1107756577864594   T   T   T
  0.2425499299510609  0.3357881234976011  0.1107523841520859   T   T   T
  0.2347007343327140  0.4766039524031224  0.1106659483669858   T   T   T
  0.2357954714459014  0.6206371741605554  0.1107026499309067   T   T   T
  0.2391658674081141  0.7642066812294905  0.1107937259389189   T   T   T
  0.3829806497106096  0.9070507033534374  0.1107809026996813   T   T   T
  0.3843736455777299  0.0500353918838228  0.1107360120709143   T   T   T
  0.3868097068465532  0.1945354926582220  0.1108334365819522   T   T   T
  0.3953225195688964  0.3456676054290996  0.1108319442519782   T   T   T
  0.3728146764844016  0.4779846801604866  0.1103121768273144   T   T   T
  0.3736498780411923  0.6208929656495332  0.1106401163722116   T   T   T
  0.3812817944528550  0.7644637456230149  0.1107897979582013   T   T   T
  0.5257725176357697  0.9056305782967751  0.1107566060194068   T   T   T
  0.5269082193126029  0.0478807998951507  0.1106993939415054   T   T   T
  0.5284160993442769  0.1900485594808473  0.1107669113946660   T   T   T
  0.5320690470452020  0.3326727328581605  0.1108800260978761   T   T   T
  0.4587698373473127  0.5223127955432491  0.1106854166719798   T   T   T
  0.4949163990492243  0.6041046779190025  0.1107323645939639   T   T   T
  0.5241353747729374  0.7618433323650955  0.1107293220629031   T   T   T
  0.6699862573451210  0.9088399452783095  0.1106306091589200   T   T   T
  0.6702850419729277  0.0482916503126590  0.1106492620582868   T   T   T
  0.6711768634794253  0.1885781105405817  0.1106219666818644   T   T   T
  0.6733139404072217  0.3285458587572960  0.1106882227883463   T   T   T
  0.6723242731447725  0.4673391678156111  0.1107639423578185   T   T   T
  0.6693314454717137  0.5960613390685320  0.1110282182904342   T   T   T
  0.6778459703195167  0.7797470980979861  0.1110441974653114   T   T   T
  0.8160908655816762  0.9086169331610683  0.1106386702225286   T   T   T
  0.8140274373065828  0.0486636545141697  0.1106958669131798   T   T   T
  0.8139686514588459  0.1898015941576637  0.1106761701555782   T   T   T
  0.8146358276187807  0.3313727504245158  0.1106568279425548   T   T   T
  0.8142106308265012  0.4733387282680645  0.1106441087963916   T   T   T
  0.8139483911210296  0.6154218404955401  0.1107141544059097   T   T   T
  0.8088509777988111  0.7577926968298279  0.1108074295402557   T   T   T

  0.00000000E+00  0.00000000E+00  0.00000000E+00
  0.00000000E+00  0.00000000E+00  0.00000000E+00
  0.00000000E+00  0.00000000E+00  0.00000000E+00
  0.00000000E+00  0.00000000E+00  0.00000000E+00
  0.00000000E+00  0.00000000E+00  0.00000000E+00
  0.00000000E+00  0.00000000E+00  0.00000000E+00
  0.00000000E+00  0.00000000E+00  0.00000000E+00
  0.00000000E+00  0.00000000E+00  0.00000000E+00
  0.00000000E+00  0.00000000E+00  0.00000000E+00
  0.00000000E+00  0.00000000E+00  0.00000000E+00
  0.00000000E+00  0.00000000E+00  0.00000000E+00
  0.00000000E+00  0.00000000E+00  0.00000000E+00
  0.00000000E+00  0.00000000E+00  0.00000000E+00
  0.00000000E+00  0.00000000E+00  0.00000000E+00
  0.00000000E+00  0.00000000E+00  0.00000000E+00
  0.00000000E+00  0.00000000E+00  0.00000000E+00
  0.00000000E+00  0.00000000E+00  0.00000000E+00
  0.00000000E+00  0.00000000E+00  0.00000000E+00
  0.00000000E+00  0.00000000E+00  0.00000000E+00
  0.00000000E+00  0.00000000E+00  0.00000000E+00
  0.00000000E+00  0.00000000E+00  0.00000000E+00
  0.00000000E+00  0.00000000E+00  0.00000000E+00
  0.00000000E+00  0.00000000E+00  0.00000000E+00
  0.00000000E+00  0.00000000E+00  0.00000000E+00
  0.00000000E+00  0.00000000E+00  0.00000000E+00
  0.00000000E+00  0.00000000E+00  0.00000000E+00
  0.00000000E+00  0.00000000E+00  0.00000000E+00
  0.00000000E+00  0.00000000E+00  0.00000000E+00
  0.00000000E+00  0.00000000E+00  0.00000000E+00
  0.00000000E+00  0.00000000E+00  0.00000000E+00
  0.00000000E+00  0.00000000E+00  0.00000000E+00
  0.00000000E+00  0.00000000E+00  0.00000000E+00
  0.00000000E+00  0.00000000E+00  0.00000000E+00
  0.00000000E+00  0.00000000E+00  0.00000000E+00
  0.00000000E+00  0.00000000E+00  0.00000000E+00
  0.00000000E+00  0.00000000E+00  0.00000000E+00
  0.00000000E+00  0.00000000E+00  0.00000000E+00
  0.00000000E+00  0.00000000E+00  0.00000000E+00
  0.00000000E+00  0.00000000E+00  0.00000000E+00
  0.00000000E+00  0.00000000E+00  0.00000000E+00
  0.00000000E+00  0.00000000E+00  0.00000000E+00
  0.00000000E+00  0.00000000E+00  0.00000000E+00
  0.00000000E+00  0.00000000E+00  0.00000000E+00
  0.00000000E+00  0.00000000E+00  0.00000000E+00
  0.00000000E+00  0.00000000E+00  0.00000000E+00
  0.00000000E+00  0.00000000E+00  0.00000000E+00
  0.00000000E+00  0.00000000E+00  0.00000000E+00
  0.00000000E+00  0.00000000E+00  0.00000000E+00
  0.00000000E+00  0.00000000E+00  0.00000000E+00
  0.00000000E+00  0.00000000E+00  0.00000000E+00
  0.00000000E+00  0.00000000E+00  0.00000000E+00
  0.00000000E+00  0.00000000E+00  0.00000000E+00
  0.00000000E+00  0.00000000E+00  0.00000000E+00
  0.00000000E+00  0.00000000E+00  0.00000000E+00
  0.00000000E+00  0.00000000E+00  0.00000000E+00
  0.00000000E+00  0.00000000E+00  0.00000000E+00
  0.00000000E+00  0.00000000E+00  0.00000000E+00
  0.00000000E+00  0.00000000E+00  0.00000000E+00
  0.00000000E+00  0.00000000E+00  0.00000000E+00
  0.00000000E+00  0.00000000E+00  0.00000000E+00
  0.00000000E+00  0.00000000E+00  0.00000000E+00
  0.00000000E+00  0.00000000E+00  0.00000000E+00
  0.00000000E+00  0.00000000E+00  0.00000000E+00
  0.00000000E+00  0.00000000E+00  0.00000000E+00
  0.00000000E+00  0.00000000E+00  0.00000000E+00
  0.00000000E+00  0.00000000E+00  0.00000000E+00
  0.00000000E+00  0.00000000E+00  0.00000000E+00
  0.00000000E+00  0.00000000E+00  0.00000000E+00
  0.00000000E+00  0.00000000E+00  0.00000000E+00
  0.00000000E+00  0.00000000E+00  0.00000000E+00
  0.00000000E+00  0.00000000E+00  0.00000000E+00
  0.00000000E+00  0.00000000E+00  0.00000000E+00
  0.00000000E+00  0.00000000E+00  0.00000000E+00
  0.00000000E+00  0.00000000E+00  0.00000000E+00
  0.00000000E+00  0.00000000E+00  0.00000000E+00
  0.00000000E+00  0.00000000E+00  0.00000000E+00
  0.00000000E+00  0.00000000E+00  0.00000000E+00
  0.00000000E+00  0.00000000E+00  0.00000000E+00
  0.00000000E+00  0.00000000E+00  0.00000000E+00
  0.00000000E+00  0.00000000E+00  0.00000000E+00
  0.00000000E+00  0.00000000E+00  0.00000000E+00
  0.00000000E+00  0.00000000E+00  0.00000000E+00
  0.00000000E+00  0.00000000E+00  0.00000000E+00
  0.00000000E+00  0.00000000E+00  0.00000000E+00
  0.00000000E+00  0.00000000E+00  0.00000000E+00
  0.00000000E+00  0.00000000E+00  0.00000000E+00
  0.00000000E+00  0.00000000E+00  0.00000000E+00
  0.00000000E+00  0.00000000E+00  0.00000000E+00
  0.00000000E+00  0.00000000E+00  0.00000000E+00
  0.00000000E+00  0.00000000E+00  0.00000000E+00
  0.00000000E+00  0.00000000E+00  0.00000000E+00
  0.00000000E+00  0.00000000E+00  0.00000000E+00
  0.00000000E+00  0.00000000E+00  0.00000000E+00
  0.00000000E+00  0.00000000E+00  0.00000000E+00
  0.00000000E+00  0.00000000E+00  0.00000000E+00
  0.00000000E+00  0.00000000E+00  0.00000000E+00
  0.00000000E+00  0.00000000E+00  0.00000000E+00
