 Ga N B 
 1.0
 17.527899999999772   0.000000000000000   0.000000000000000
 -8.763949999999658  15.179606674993195   0.000000000000000
  0.000000000000001   0.000000000000002  15.000000000000000
 Ga N B 
   1  48  48
Cartesian
  4.134067938044084   7.732946733483294   1.667138908940085 
  8.787808957187682  13.749270514825676   1.664992320513750 
 16.272392522391332   0.724881767209449   1.665246193814670 
 15.005703368487142   2.888695433748174   1.665047680050315 
 13.754308114450417   5.059868891664398   1.664860400485050 
 12.525165183185155   7.228109573846428   1.665033336637035 
 11.299051250567278   9.398711305618633   1.665950884693815 
 10.053539584516013  11.575042032279601   1.665540462643905 
 -6.235625862689439  13.719892240761030   1.665088141167015 
  1.250649215589522   0.694526897615422   1.664992320513750 
 -0.027795479467543   2.851989514783669   1.664613878156265 
 -1.276676631854127   5.038505723955085   1.664921549808930 
 -2.498466403898598   7.216565661713364   1.665262281589920 
 -3.726342726260919   9.386668947687038   1.665486403245495 
 -4.974457046297757  11.554572170414872   1.665269227152330 
 -3.729819266249368  13.710348042478106   1.665269227152330 
  3.766451628770421   0.685486261274075   1.665540462643905 
  2.473644241983161   2.814928789674546   1.664846964690240 
  1.191003556017237   4.970954603425561   1.664816421150915 
  0.000523315822571   7.195061808748078   1.665766960923225 
 -1.215383954758729   9.377111467067014   1.665748251817380 
 -2.470393413632253  11.546034272736383   1.665151054786695 
 -1.228302842402631  13.713400945862945   1.665486403245495 
  6.273965158120975   0.695006881094245   1.665950884693815 
  5.003692673834834   2.839767194247911   1.665151558771725 
  3.677378158022839   4.924160787182136   1.664622781304910 
  2.433314634617042   7.064739520853864   1.664842712239905 
  1.310462840875132   9.363155896429156   1.665980458277850 
  0.035453564361497  11.543625602196798   1.665748251817380 
  1.264999893250254  13.735080500978594   1.665262281589920 
  8.766818365625570   0.718461933399170   1.665033336637035 
  7.503372118599599   2.881408234024359   1.665006227825655 
  6.227574704911531   5.044247162897506   1.664912945315310 
  3.862375707450884   9.539945906151344   1.664842712239905 
  2.533117636057930  11.581643846386607   1.665766960923225 
  3.762150016336323  13.766009489183169   1.664921549808930 
 11.259116770885807   0.738113271132393   1.664860400485050 
  9.996079269590695   2.905126243270246   1.664794879633950 
  8.727057541158670   5.081182949739889   1.664316364606290 
  7.509303452749379   7.264266475674286   1.664912945315310 
  6.338203031314241   9.532844657796176   1.664622781304910 
  5.054491096704567  11.662711318335862   1.664816421150915 
  6.280169175476064  13.777704789494461   1.664613878156265 
 13.765130341160612   0.739959919919367   1.665047680050315 
 12.501785250555827   2.901842890612004   1.665594187758435 
 11.246088793270427   5.070206248198118   1.664794879633950 
 10.020275616309043   7.240812969774502   1.665006227825655 
  8.806498092204325   9.426419390162005   1.665151558771725 
  7.562984565628488  11.629924807237343   1.664846964690240 
  7.533012914955910  14.475143740217973   1.665226900917405 
 15.017644188022619   1.449317322753345   1.665465585262980 
 13.756194919520910   3.615959440688134   1.665566993786790 
 12.509372264858358   5.785185101043473   1.664952263218740 
 11.287909536159837   7.957922045399616   1.665777454358670 
 10.067622887428190  10.138168256924763   1.665864125744340 
  8.816868658313098  12.322503201578522   1.665434226861420 
 -7.488296497441850  14.443128235872303   1.665273119999220 
 -0.005368031321452   1.418284934456505   1.665226900917405 
 -1.272471176672147   3.595067469797594   1.664891572934250 
 -2.519015567379081   5.773156494058190   1.665277201855725 
 -3.742920271469941   7.944837756060584   1.665434983484295 
 -4.970770557289245  10.114446603681714   1.665976512374820 
 -6.220247126789692  12.282859767738106   1.665530714198475 
 -4.983424439717053  14.425099501701739   1.665530714198475 
  2.500801232035159   1.382753515234285   1.665434226861420 
  1.215891350753787   3.537988532063776   1.664877744963120 
 -0.031827942649141   5.746688123564149   1.665555442030260 
 -1.243588790394344   7.932960750424354   1.665878155400370 
 -2.468969301702797  10.103340276185152   1.665640063930905 
 -3.721349265724801  12.268280237617331   1.665227936320245 
 -2.480785268975996  14.427227633109078   1.665976512374820 
  5.017867899054344   1.391736051256663   1.665864125744340 
  3.720821167315562   3.484539882003946   1.665091518817200 
  2.415129969775370   5.657570676642561   1.665042727020990 
  1.259508332446382   7.907912962081667   1.666087098778980 
  0.043320793335572  10.094746965618702   1.666190991173100 
 -1.220266279427999  12.266157354299640   1.665640063930905 
  0.012076252249054  14.448682517356074   1.665434983484295 
  7.516159829105742   1.425059919318614   1.665777454358670 
  6.249172811449940   3.562222797870734   1.665301348704540 
  4.915200499307178   5.528985423939018   1.665823159624770 
  2.545268363813653  10.134914662751155   1.666087098778980 
  1.272027781388685  12.290136465084547   1.665878155400370 
  2.504759746093766  14.474590582803303   1.665277201855725 
 10.008536582990965   1.453610638667856   1.664952263218740 
  8.747517655584357   3.619659829240411   1.664849470256160 
  7.485360229542879   5.798083493794479   1.664809762275960 
  6.433326129020532   8.158456146905174   1.665823159624770 
  5.071932768861332  10.259288110380815   1.665042727020990 
  3.771275839703330  12.333857101055884   1.665555442030260 
  5.014312368160951  14.484095985636364   1.664891572934250 
 12.510552438731048   1.458443375893782   1.665566993786790 
 11.252474447156350   3.623139086187237   1.665419374622670 
 10.003009176272649   5.794234931544346   1.664849470256160 
  8.803578682480840   7.986583549678617   1.665301348704540 
  7.606678238994345  10.215041761132566   1.665091518817200 
  6.307925441972449  12.357650291927129   1.664877744963120 
