 N B Al 
 1.0
 14.936314146199660   0.000000000000000   0.000000000000000
 -7.468157073099825  12.935227489513863   0.000000000000000
  0.000000000000001   0.000000000000001  13.341276283792837
 N B Al 
 143 143   2
Cartesian
  1.244314227468641   0.718162686029352   1.671794375828144 
  4.978276181341299   7.190403546460778   1.626429422273167 
  6.224112301416665   0.718661622365428   1.676406218191760 
  9.957026594196321   7.185918036587770   1.677464037788135 
 11.203028920881470   0.719081767869630   1.669167429284040 
 -3.734220314463327   9.342026886912564   8.329150104983997 
  1.245049681368316   9.342651054356240   8.329550994654669 
  2.487965956187603   2.873243694010633   8.345476409514852 
  6.223096341803041   9.343573261987981   8.342249598380665 
  7.469683751399153   2.873626871466367   8.342066036574669 
 12.447233810540043   2.874437064259174   8.337416203497490 
 -1.244490740185046   9.342292734901442   1.677108359796708 
 -0.000754009819664   2.874059669897002   1.667606021952287 
  4.979032931184252   2.874224665591693   1.661324896214031 
  3.734090056353329   9.343864947719734   1.663891176270920 
  8.712315175262415   9.341821454942460   1.677464037788135 
  9.958850474863011   2.873953625608532   1.669579454723470 
 -4.978833961471313  11.497806226368159   8.330502354881517 
  0.000502888502690  11.498270333491531   8.329128040536350 
  1.242899317337112   5.029762371308710   8.345476409514852 
  6.226824534334892   5.027854363369420   8.379527790570528 
  4.978956395474632  11.499383187420706   8.336377758120371 
 11.202479076596795   5.030125827703626   8.332880700496048 
 -1.245281447146827   5.030268884767088   1.671794375828144 
 -2.489125296208979  11.498063022790840   1.677108359796708 
  2.489869101777368  11.498925071839693   1.673591650706572 
  3.728340960473282   5.027053654828860   1.634038408870043 
  7.468070598287463  11.498311048351409   1.673076512349927 
  8.713934286870030   5.029315387711468   1.663707614465163 
 -0.000054267844011   7.186369125222699   8.330763694746667 
  1.244314227468642   0.718162686029353   8.334162837014937 
  4.978276181341299   7.190403546460779   8.379527790570608 
  6.224112301416666   0.718661622365429   8.329550994654669 
  9.957026594196321   7.185918036587771   8.328493175056293 
 -2.489567465043321   7.186270180975848   1.675454857962283 
 11.203028920881470   0.719081767869631   8.336789783561603 
  3.734165398459765   0.718510936561614   1.675193518098187 
  2.489282351145376   7.186599168393139   1.661324896214044 
  7.467072037496778   7.185611048579984   1.670768387071867 
  8.713910088282597   0.718569854821445   1.673591650706572 
  2.489282351145377   7.186599168393140   8.344632316630651 
 13.691723806564434   0.718917161633723   1.668541009347058 
 -1.244490740185046   9.342292734901442   8.328848853050161 
 -0.000754009819663   2.874059669897003   8.338351190891366 
  4.979032931184261   2.874224665591680   8.344632316630651 
  3.734090056353330   9.343864947719734   8.342066036574669 
  8.712315175262415   9.341821454942460   8.328493175056293 
  9.958850474863011   2.873953625608533   8.336377758120371 
 -3.734220314463328   9.342026886912564   1.676807107862204 
  1.245049681368315   9.342651054356240   1.676406218191760 
  2.487965956187655   2.873243694010542   1.660480803328763 
  6.223096341803040   9.343573261987981   1.663707614465203 
  7.469683751399152   2.873626871466366   1.663891176270920 
 12.447233810540043   2.874437064259173   1.668541009347058 
 -1.245281447146841   5.030268884767088   8.334162837014937 
 -2.489125296208978  11.498063022790840   8.328848853050161 
  2.489869101777369  11.498925071839693   8.332365562136507 
  3.728340960473282   5.027053654828861   8.371918803975344 
  7.468070598287464  11.498311048351409   8.332880700496048 
 -4.978833961471329  11.497806226368159   1.675454857962283 
  8.713934286870030   5.029315387711469   8.342249598380626 
  0.000502888502689  11.498270333491531   1.676829172306665 
  1.242899317337119   5.029762371308697   1.660480803328763 
 -0.000054267844011   7.186369125222698   1.675193518098187 
  6.226824534334892   5.027854363369419   1.626429422273153 
  4.978956395474631  11.499383187420706   1.669579454723577 
 11.202479076596795   5.030125827703626   1.673076512349927 
 -2.489567465043321   7.186270180975849   8.330502354881517 
  3.734165398459766   0.718510936561614   8.330763694746667 
  7.467072037496779   7.185611048579985   8.335188825772908 
  8.713910088282665   0.718569854821329   8.332365562136507 
 13.691723806564434   0.718917161633723   8.337416203497490 
  0.011493764338505   1.445786685044570   5.002978606422314 
  3.551215743590327   8.144472434080740   5.002978606422314 
  5.006122183996498   1.286563012544010   5.002978606422314 
  8.716199329613346   7.906795026933339   5.002978606422314 
  9.988871411014344   1.422619922311840   5.002978606422314 
 -4.979115467313594  10.060480087845473  11.673616748318732 
 -0.000702007503631  10.060516961251604  11.673616748318732 
  1.244321722857664   3.592904479319241  11.673616748318732 
  4.978189190312295  10.060197511278867  11.673616748318732 
  6.222674366965727   3.592414119672131  11.673616748318732 
 11.201636145058023   3.592930626875781  11.673616748318732 
 -2.523177706210471  10.041222662785684   5.002978606422314 
 -1.231550811162513   3.598803045885235   5.002978606422314 
  3.767180025761625   3.292798206251199   5.002978606422314 
  2.412572731615441  10.167742872656060   5.002978606422314 
  7.483900156278797  10.106597718252225   5.002978606422314 
  8.772958966304373   3.541605812202868   5.002978606422314 
 -6.223863459606015  12.216221479856301  11.673616748318732 
 -1.245230504237067  12.216103549061247  11.673616748318732 
 -0.000574128183550   5.748908057419932  11.673616748318732 
  4.978081048986287   5.748591431349709  11.673616748318732 
  3.733453534188811  12.216167191762986  11.673616748318732 
  9.957053014936456   5.748866190782691  11.673616748318732 
 -2.505802953234266   5.752793184509066   5.002978606422314 
 -3.749815711576064  12.159192599852581   5.002978606422314 
  1.235745495853588  12.211437985359003   5.002978606422314 
  2.245851217995615   5.927816996318812   5.002978606422314 
  6.232738877022293  12.248437313792536   5.002978606422314 
  7.595458744293566   5.708209056085253   5.002978606422314 
 -1.245340284986105   7.904730155324577  11.673616748318732 
 -0.000379911929773   1.436931123613366  11.673616748318732 
  3.733073380999375   7.904529517939451  11.673616748318732 
  4.978273552863999   1.436518255617913  11.673616748318732 
  8.712612177382223   7.904723983625582  11.673616748318732 
 -3.756313419904853   7.899676917712398   5.002978606422314 
  9.956852201005418   1.436924505080001  11.673616748318732 
  2.469359789007528   1.344848083441382   5.002978606422314 
  1.127871653398051   8.003889976021524   5.002978606422314 
  6.251797733796104   8.035498194416213   5.002978606422314 
  7.522424301640835   1.317220334235383   5.002978606422314 
  1.243812387763806   7.904794732464357  11.673616748318732 
 12.468185096333389   1.449520026334443   5.002978606422314 
 -2.489883297904647  10.060445198384320  11.673616748318732 
 -1.245156790460529   3.592947921315641  11.673616748318732 
  3.733709215568403   3.592489878785395  11.673616748318732 
  2.488608748474440  10.060374084418145  11.673616748318732 
  7.467804980610617  10.060370258876032  11.673616748318732 
  8.712095515980902   3.592882044517973  11.673616748318732 
 -4.994378581657972  10.044068680949792   5.002978606422314 
 -0.055908531574329  10.082251902956584   5.002978606422314 
  1.261867499906043   3.603034538422479   5.002978606422314 
  4.964214395675944  10.138544921584156   5.002978606422314 
  6.339542209095479   3.314949327737323   5.002978606422314 
 11.234441617882446   3.585234042266181   5.002978606422314 
 -2.489916354124673   5.748835380387823  11.673616748318732 
 -3.734515782053708  12.216108585201210  11.673616748318732 
  1.244016607720347  12.216213314021930  11.673616748318732 
  2.488656414617338   5.748984588138594  11.673616748318732 
  6.223001578406148  12.216178648635550  11.673616748318732 
 -6.228379200248099  12.200484379386010   5.002978606422314 
  7.467725335813379   5.748973081683105  11.673616748318732 
 -1.254010754605088  12.157425825907069   5.002978606422314 
 -0.090033192038360   5.777846763148059   5.002978606422314 
 -1.302280938941664   7.919938020358231   5.002978606422314 
  3.737075007125555  12.251048932423696   5.002978606422314 
 10.005134756942578   5.739691292101896   5.002978606422314 
 -3.734469167448051   7.904689459025728  11.673616748318732 
  2.489027666621569   1.436791258202357  11.673616748318732 
  6.223233711281842   7.904495804965673  11.673616748318732 
  7.467458211884325   1.436753850555124  11.673616748318732 
 12.446412375581403   1.436949540147449  11.673616748318732 
  1.229821422841050   0.684557450490409   5.002978606422314 
  4.817340231840036   7.615965709867808   5.002978606422314 
  6.254651872061649   0.629291559710265   5.002978606422314 
  9.954685066169422   7.175031915659976   5.002978606422314 
 11.228976206381539   0.734062440138319   5.002978606422314 
 -3.734682837473567   9.341759849128060  11.673616748318732 
  1.244405755163912   9.341236487253749  11.673616748318732 
  2.490057637010579   2.875088144863867  11.673616748318732 
  6.222676133527090   9.340282138438091  11.673616748318732 
  7.466266498277226   2.875043148060146  11.673616748318732 
 12.446454946826160   2.874456472610868  11.673616748318732 
 -1.284399292804629   9.345588715512113   5.002978606422314 
  0.022220135381415   2.887323798813220   5.002978606422314 
  5.034526351082945   2.693290417845386   5.002978606422314 
  3.650629014517756   9.514961434448264   5.002978606422314 
  8.701716753976289   9.345236692652319   5.002978606422314 
 10.005837993570925   2.851121645785109   5.002978606422314 
 -4.979185207593866  11.497705436463370  11.673616748318732 
 -0.000603427824336  11.497631601460176  11.673616748318732 
  1.245542499043405   5.030651594611618  11.673616748318732 
  6.221301538498964   5.030734044043222  11.673616748318732 
  4.978218387967225  11.496680125165598  11.673616748318732 
 11.201282756477458   5.030356954264434  11.673616748318732 
 -1.281630837138253   5.034520365558300   5.002978606422314 
 -2.506225169581452  11.461853212091976   5.002978606422314 
  2.475936671198717  11.558409443924589   5.002978606422314 
  7.468295880503612  11.522417712630260   5.002978606422314 
  8.805201666560729   4.993899184451826   5.002978606422314 
  0.000120821926336   7.185995988815147  11.673616748318732 
  1.244733609523875   0.718619628635917  11.673616748318732 
  4.978008560040403   7.184180651427103  11.673616748318732 
  6.222565287269115   0.718811249464168  11.673616748318732 
  9.956466409873919   7.185948222249917  11.673616748318732 
 -2.521416120710717   7.185761294604717   5.002978606422314 
 11.201500812423193   0.718199514040712  11.673616748318732 
  3.729199536253859   0.643474382040028   5.002978606422314 
  2.360335406131482   7.325125003641980   5.002978606422314 
  7.486727367894191   7.196959058872622   5.002978606422314 
  8.758458850346674   0.676761829961914   5.002978606422314 
  2.489675217951142   7.185419900038298  11.673616748318732 
 13.707715594353843   0.740626319807369   5.002978606422314 
 -1.245051257600653   9.341751287254562  11.673616748318732 
  0.000337429719784   2.874689812809157  11.673616748318732 
  4.978208088233926   2.875154532403275  11.673616748318732 
  3.733607961302679   9.340197381405819  11.673616748318732 
  8.712061224651290   9.341321228257684  11.673616748318732 
  9.956140550529359   2.874666023484780  11.673616748318732 
 -3.758805176030461   9.327832810467495   5.002978606422314 
  1.182922722093824   9.413784129682712   5.002978606422314 
  2.485726994644405   2.765299654242320   5.002978606422314 
  6.238058699921574   9.440321232963969   5.002978606422314 
  7.576127134486806   2.715799245645713   5.002978606422314 
 12.474030386908861   2.877431779648241   5.002978606422314 
 -1.244676032214144   5.030403608978033  11.673616748318732 
 -2.489874462334503  11.497848324294319  11.673616748318732 
  2.488788051706919  11.497063815100299  11.673616748318732 
  3.734822324822913   5.030795672280750  11.673616748318732 
  7.467672599701960  11.497159441454842  11.673616748318732 
 -4.995198997829619  11.470478924668599   5.002978606422314 
  8.710873986131803   5.030597038442919  11.673616748318732 
 -0.011206390903136  11.491509977874975   5.002978606422314 
  1.148297555939596   5.081795393617392   5.002978606422314 
 -0.067520761375516   7.219586839662390   5.002978606422314 
  6.514904203983597   4.675698661016315   5.002978606422314 
  4.982677080282174  11.551491562195368   5.002978606422314 
 11.223468701370759   5.018267595686575   5.002978606422314 
 -2.489830374722814   7.186016387863548  11.673616748318732 
  3.733929797736983   0.718849136954350  11.673616748318732 
  7.466655445579143   7.185370529119893  11.673616748318732 
  8.711757667626591   0.718564266369970  11.673616748318732 
 13.691351182831990   0.718232941697497  11.673616748318732 
  0.000218624823357   1.437681791608724   1.671123655087809 
  3.737676333187487   7.902397267608261   1.657339910883656 
  4.979096625547593   1.441000784609538   1.675984646354630 
  8.709106640937669   7.902700061211888   1.678291197620856 
  9.958182313012651   1.437633440979968   1.672560177797161 
 -4.980038823814932  10.060205805819049   8.328092863023299 
  0.001639508989282  10.060510094965466   8.327137865976038 
  1.245426909603813   3.593542559185013   8.339999983647404 
  4.978277090397793  10.060299158661918   8.338015069976864 
  6.223129260104043   3.597466518367983   8.348617301959438 
 11.202300262923821   3.592785984182588   8.333996364468447 
 -2.489157372072016  10.060864311859907   1.677863262556420 
 -1.244207424530540   3.593090935351904   1.671123655087809 
  3.734323180096830   3.595845848857488   1.655893456349427 
  2.491105509198096  10.060221734887673   1.674449935180625 
  7.466224861424228  10.059946690091284   1.673760534359487 
  8.712227495238361   3.592907344535627   1.667942142867324 
 -6.223976502405097  12.216850433305405   8.330665208251817 
 -1.244065692368632  12.218134794970206   8.327137865976038 
  0.001205321622914   5.748473785905359   8.333077155240495 
  4.978404318295042   5.748778070972174   8.288250548093798 
  3.734732546693418  12.216964634597613   8.333397035046413 
  9.955896134014225   5.747709551820716   8.332196678483434 
 -2.489428185857168   5.748423005723527   1.675292004591330 
 -3.734079575916123  12.217999038937068   1.677840244994372 
  1.245683347451219  12.217175606657468   1.676731165838739 
  2.491869752218145   5.747838311981497   1.655893456349387 
  6.223208373089662  12.216826112929546   1.671960848375847 
  7.463370375963086   5.745436844876117   1.656963030256087 
 -1.243485000957842   7.904162694053912   8.328116967850869 
  0.000218624823358   1.437681791608725   8.334833557756525 
  3.737676333187487   7.902397267608262   8.348617301959438 
  4.979096625547593   1.441000784609539   8.329972566491639 
  8.709106640937669   7.902700061211889   8.327666015222425 
 -3.735168380901829   7.904026949852766   1.677864349820407 
  9.958182313012651   1.437633440979969   8.333397035046413 
  2.489541301361197   1.438549442696941   1.672880057604838 
  1.248105908085312   7.903266269822112   1.675984646354630 
  6.217993760449511   7.902492417503816   1.656963030256114 
  7.468574653682703   1.438992283533881   1.674449935180625 
  1.248105908085312   7.903266269822113   8.329972566491639 
 12.447409782348961   1.437525393214120   1.669893271174267 
 -2.489157372072016  10.060864311859907   8.328093950287034 
 -1.244207424530540   3.593090935351905   8.334833557756525 
  3.734323180096830   3.595845848857489   8.350063756496414 
  2.491105509198097  10.060221734887673   8.331507277662775 
  7.466224861424229  10.059946690091284   8.332196678483434 
  8.712227495238361   3.592907344535628   8.338015069976864 
 -4.980038823814933  10.060205805819049   1.677864349820407 
  0.001639508989282  10.060510094965466   1.678819346869311 
  1.245426909603812   3.593542559185012   1.665957229196197 
  4.978277090397792  10.060299158661918   1.667942142867337 
  6.223129260104042   3.597466518367983   1.657339910883656 
 11.202300262923821   3.592785984182588   1.671960848375900 
 -2.489428185857168   5.748423005723528   8.330665208251817 
 -3.734079575916123  12.217999038937068   8.328116967850869 
  1.245683347451219  12.217175606657468   8.329226047005248 
  2.491869752218146   5.747838311981498   8.350063756495974 
  6.223208373089663  12.216826112929546   8.333996364468447 
 -6.223976502405098  12.216850433305405   1.675292004591317 
  7.463370375963087   5.745436844876118   8.348994182588887 
 -1.244065692368633  12.218134794970206   1.678819346869311 
  0.001205321622914   5.748473785905358   1.672880057604838 
 -1.243485000957842   7.904162694053911   1.677840244994372 
  4.978404318295041   5.748778070972173   1.717706664751484 
  3.734732546693418  12.216964634597613   1.672560177797161 
  9.955896134014225   5.747709551820715   1.673760534359487 
 -3.735168380901829   7.904026949852767   8.328092863023299 
  2.489541301361197   1.438549442696942   8.333077155240495 
  6.217993760449512   7.902492417503817   8.348994182588887 
  7.468574653682704   1.438992283533882   8.331507277662775 
 12.447409782348961   1.437525393214121   8.336063941670789 
  3.661887456269064   4.988686706288737   5.002978606422314 
  5.433651944422703   6.011615410464677   5.002978606422314 
Generated by cif2cell 2.0.0.  :  Failed to get author information, No journal information. Species order: N B Al 
 1.0
 14.936314146199660   0.000000000000000   0.000000000000000
 -7.468157073099825  12.935227489513863   0.000000000000000
  0.000000000000001   0.000000000000001  13.341276283792837
 N B Al 
 143 143   2
Cartesian
  1.244314227468641   0.718162686029352   1.671794375828144 
  4.978276181341299   7.190403546460778   1.626429422273167 
  6.224112301416665   0.718661622365428   1.676406218191760 
  9.957026594196321   7.185918036587770   1.677464037788135 
 11.203028920881470   0.719081767869630   1.669167429284040 
 -3.734220314463327   9.342026886912564   8.329150104983997 
  1.245049681368316   9.342651054356240   8.329550994654669 
  2.487965956187603   2.873243694010633   8.345476409514852 
  6.223096341803041   9.343573261987981   8.342249598380665 
  7.469683751399153   2.873626871466367   8.342066036574669 
 12.447233810540043   2.874437064259174   8.337416203497490 
 -1.244490740185046   9.342292734901442   1.677108359796708 
 -0.000754009819664   2.874059669897002   1.667606021952287 
  4.979032931184252   2.874224665591693   1.661324896214031 
  3.734090056353329   9.343864947719734   1.663891176270920 
  8.712315175262415   9.341821454942460   1.677464037788135 
  9.958850474863011   2.873953625608532   1.669579454723470 
 -4.978833961471313  11.497806226368159   8.330502354881517 
  0.000502888502690  11.498270333491531   8.329128040536350 
  1.242899317337112   5.029762371308710   8.345476409514852 
  6.226824534334892   5.027854363369420   8.379527790570528 
  4.978956395474632  11.499383187420706   8.336377758120371 
 11.202479076596795   5.030125827703626   8.332880700496048 
 -1.245281447146827   5.030268884767088   1.671794375828144 
 -2.489125296208979  11.498063022790840   1.677108359796708 
  2.489869101777368  11.498925071839693   1.673591650706572 
  3.728340960473282   5.027053654828860   1.634038408870043 
  7.468070598287463  11.498311048351409   1.673076512349927 
  8.713934286870030   5.029315387711468   1.663707614465163 
 -0.000054267844011   7.186369125222699   8.330763694746667 
  1.244314227468642   0.718162686029353   8.334162837014937 
  4.978276181341299   7.190403546460779   8.379527790570608 
  6.224112301416666   0.718661622365429   8.329550994654669 
  9.957026594196321   7.185918036587771   8.328493175056293 
 -2.489567465043321   7.186270180975848   1.675454857962283 
 11.203028920881470   0.719081767869631   8.336789783561603 
  3.734165398459765   0.718510936561614   1.675193518098187 
  2.489282351145376   7.186599168393139   1.661324896214044 
  7.467072037496778   7.185611048579984   1.670768387071867 
  8.713910088282597   0.718569854821445   1.673591650706572 
  2.489282351145377   7.186599168393140   8.344632316630651 
 13.691723806564434   0.718917161633723   1.668541009347058 
 -1.244490740185046   9.342292734901442   8.328848853050161 
 -0.000754009819663   2.874059669897003   8.338351190891366 
  4.979032931184261   2.874224665591680   8.344632316630651 
  3.734090056353330   9.343864947719734   8.342066036574669 
  8.712315175262415   9.341821454942460   8.328493175056293 
  9.958850474863011   2.873953625608533   8.336377758120371 
 -3.734220314463328   9.342026886912564   1.676807107862204 
  1.245049681368315   9.342651054356240   1.676406218191760 
  2.487965956187655   2.873243694010542   1.660480803328763 
  6.223096341803040   9.343573261987981   1.663707614465203 
  7.469683751399152   2.873626871466366   1.663891176270920 
 12.447233810540043   2.874437064259173   1.668541009347058 
 -1.245281447146841   5.030268884767088   8.334162837014937 
 -2.489125296208978  11.498063022790840   8.328848853050161 
  2.489869101777369  11.498925071839693   8.332365562136507 
  3.728340960473282   5.027053654828861   8.371918803975344 
  7.468070598287464  11.498311048351409   8.332880700496048 
 -4.978833961471329  11.497806226368159   1.675454857962283 
  8.713934286870030   5.029315387711469   8.342249598380626 
  0.000502888502689  11.498270333491531   1.676829172306665 
  1.242899317337119   5.029762371308697   1.660480803328763 
 -0.000054267844011   7.186369125222698   1.675193518098187 
  6.226824534334892   5.027854363369419   1.626429422273153 
  4.978956395474631  11.499383187420706   1.669579454723577 
 11.202479076596795   5.030125827703626   1.673076512349927 
 -2.489567465043321   7.186270180975849   8.330502354881517 
  3.734165398459766   0.718510936561614   8.330763694746667 
  7.467072037496779   7.185611048579985   8.335188825772908 
  8.713910088282665   0.718569854821329   8.332365562136507 
 13.691723806564434   0.718917161633723   8.337416203497490 
  0.011493764338505   1.445786685044570   5.002978606422314 
  3.551215743590327   8.144472434080740   5.002978606422314 
  5.006122183996498   1.286563012544010   5.002978606422314 
  8.716199329613346   7.906795026933339   5.002978606422314 
  9.988871411014344   1.422619922311840   5.002978606422314 
 -4.979115467313594  10.060480087845473  11.673616748318732 
 -0.000702007503631  10.060516961251604  11.673616748318732 
  1.244321722857664   3.592904479319241  11.673616748318732 
  4.978189190312295  10.060197511278867  11.673616748318732 
  6.222674366965727   3.592414119672131  11.673616748318732 
 11.201636145058023   3.592930626875781  11.673616748318732 
 -2.523177706210471  10.041222662785684   5.002978606422314 
 -1.231550811162513   3.598803045885235   5.002978606422314 
  3.767180025761625   3.292798206251199   5.002978606422314 
  2.412572731615441  10.167742872656060   5.002978606422314 
  7.483900156278797  10.106597718252225   5.002978606422314 
  8.772958966304373   3.541605812202868   5.002978606422314 
 -6.223863459606015  12.216221479856301  11.673616748318732 
 -1.245230504237067  12.216103549061247  11.673616748318732 
 -0.000574128183550   5.748908057419932  11.673616748318732 
  4.978081048986287   5.748591431349709  11.673616748318732 
  3.733453534188811  12.216167191762986  11.673616748318732 
  9.957053014936456   5.748866190782691  11.673616748318732 
 -2.505802953234266   5.752793184509066   5.002978606422314 
 -3.749815711576064  12.159192599852581   5.002978606422314 
  1.235745495853588  12.211437985359003   5.002978606422314 
  2.245851217995615   5.927816996318812   5.002978606422314 
  6.232738877022293  12.248437313792536   5.002978606422314 
  7.595458744293566   5.708209056085253   5.002978606422314 
 -1.245340284986105   7.904730155324577  11.673616748318732 
 -0.000379911929773   1.436931123613366  11.673616748318732 
  3.733073380999375   7.904529517939451  11.673616748318732 
  4.978273552863999   1.436518255617913  11.673616748318732 
  8.712612177382223   7.904723983625582  11.673616748318732 
 -3.756313419904853   7.899676917712398   5.002978606422314 
  9.956852201005418   1.436924505080001  11.673616748318732 
  2.469359789007528   1.344848083441382   5.002978606422314 
  1.127871653398051   8.003889976021524   5.002978606422314 
  6.251797733796104   8.035498194416213   5.002978606422314 
  7.522424301640835   1.317220334235383   5.002978606422314 
  1.243812387763806   7.904794732464357  11.673616748318732 
 12.468185096333389   1.449520026334443   5.002978606422314 
 -2.489883297904647  10.060445198384320  11.673616748318732 
 -1.245156790460529   3.592947921315641  11.673616748318732 
  3.733709215568403   3.592489878785395  11.673616748318732 
  2.488608748474440  10.060374084418145  11.673616748318732 
  7.467804980610617  10.060370258876032  11.673616748318732 
  8.712095515980902   3.592882044517973  11.673616748318732 
 -4.994378581657972  10.044068680949792   5.002978606422314 
 -0.055908531574329  10.082251902956584   5.002978606422314 
  1.261867499906043   3.603034538422479   5.002978606422314 
  4.964214395675944  10.138544921584156   5.002978606422314 
  6.339542209095479   3.314949327737323   5.002978606422314 
 11.234441617882446   3.585234042266181   5.002978606422314 
 -2.489916354124673   5.748835380387823  11.673616748318732 
 -3.734515782053708  12.216108585201210  11.673616748318732 
  1.244016607720347  12.216213314021930  11.673616748318732 
  2.488656414617338   5.748984588138594  11.673616748318732 
  6.223001578406148  12.216178648635550  11.673616748318732 
 -6.228379200248099  12.200484379386010   5.002978606422314 
  7.467725335813379   5.748973081683105  11.673616748318732 
 -1.254010754605088  12.157425825907069   5.002978606422314 
 -0.090033192038360   5.777846763148059   5.002978606422314 
 -1.302280938941664   7.919938020358231   5.002978606422314 
  3.737075007125555  12.251048932423696   5.002978606422314 
 10.005134756942578   5.739691292101896   5.002978606422314 
 -3.734469167448051   7.904689459025728  11.673616748318732 
  2.489027666621569   1.436791258202357  11.673616748318732 
  6.223233711281842   7.904495804965673  11.673616748318732 
  7.467458211884325   1.436753850555124  11.673616748318732 
 12.446412375581403   1.436949540147449  11.673616748318732 
  1.229821422841050   0.684557450490409   5.002978606422314 
  4.817340231840036   7.615965709867808   5.002978606422314 
  6.254651872061649   0.629291559710265   5.002978606422314 
  9.954685066169422   7.175031915659976   5.002978606422314 
 11.228976206381539   0.734062440138319   5.002978606422314 
 -3.734682837473567   9.341759849128060  11.673616748318732 
  1.244405755163912   9.341236487253749  11.673616748318732 
  2.490057637010579   2.875088144863867  11.673616748318732 
  6.222676133527090   9.340282138438091  11.673616748318732 
  7.466266498277226   2.875043148060146  11.673616748318732 
 12.446454946826160   2.874456472610868  11.673616748318732 
 -1.284399292804629   9.345588715512113   5.002978606422314 
  0.022220135381415   2.887323798813220   5.002978606422314 
  5.034526351082945   2.693290417845386   5.002978606422314 
  3.650629014517756   9.514961434448264   5.002978606422314 
  8.701716753976289   9.345236692652319   5.002978606422314 
 10.005837993570925   2.851121645785109   5.002978606422314 
 -4.979185207593866  11.497705436463370  11.673616748318732 
 -0.000603427824336  11.497631601460176  11.673616748318732 
  1.245542499043405   5.030651594611618  11.673616748318732 
  6.221301538498964   5.030734044043222  11.673616748318732 
  4.978218387967225  11.496680125165598  11.673616748318732 
 11.201282756477458   5.030356954264434  11.673616748318732 
 -1.281630837138253   5.034520365558300   5.002978606422314 
 -2.506225169581452  11.461853212091976   5.002978606422314 
  2.475936671198717  11.558409443924589   5.002978606422314 
  7.468295880503612  11.522417712630260   5.002978606422314 
  8.805201666560729   4.993899184451826   5.002978606422314 
  0.000120821926336   7.185995988815147  11.673616748318732 
  1.244733609523875   0.718619628635917  11.673616748318732 
  4.978008560040403   7.184180651427103  11.673616748318732 
  6.222565287269115   0.718811249464168  11.673616748318732 
  9.956466409873919   7.185948222249917  11.673616748318732 
 -2.521416120710717   7.185761294604717   5.002978606422314 
 11.201500812423193   0.718199514040712  11.673616748318732 
  3.729199536253859   0.643474382040028   5.002978606422314 
  2.360335406131482   7.325125003641980   5.002978606422314 
  7.486727367894191   7.196959058872622   5.002978606422314 
  8.758458850346674   0.676761829961914   5.002978606422314 
  2.489675217951142   7.185419900038298  11.673616748318732 
 13.707715594353843   0.740626319807369   5.002978606422314 
 -1.245051257600653   9.341751287254562  11.673616748318732 
  0.000337429719784   2.874689812809157  11.673616748318732 
  4.978208088233926   2.875154532403275  11.673616748318732 
  3.733607961302679   9.340197381405819  11.673616748318732 
  8.712061224651290   9.341321228257684  11.673616748318732 
  9.956140550529359   2.874666023484780  11.673616748318732 
 -3.758805176030461   9.327832810467495   5.002978606422314 
  1.182922722093824   9.413784129682712   5.002978606422314 
  2.485726994644405   2.765299654242320   5.002978606422314 
  6.238058699921574   9.440321232963969   5.002978606422314 