Species order:X N B                     
   2.51242800000000     
     5.9449720136058266    0.0000000000000000    0.0000000000000000
    -2.9724860068029120    5.1484967885702053   -0.0000000000000001
     0.0000000000000000    0.0000000000000009    5.3101128803662583
   Al   N    B 
     2   143   143
Direct
  0.4380000986195185  0.3856667159764215  0.3750000000000000
  0.5961617861515437  0.4647475597424233  0.3750000000000000
  0.1110679402784070  0.0555199115447748  0.1253099283956107
  0.6112389921040428  0.5558776258314576  0.1219095825373905
  0.4444892975309307  0.0555584834474709  0.1256556106426097
  0.9443975380354372  0.5555308588436615  0.1257348998780533
  0.7778485950020297  0.0555909641676240  0.1251130247045231
  0.1110984548952147  0.7222158941144106  0.6243143405329489
  0.4444892975309307  0.7222641474168120  0.6243443893575253
  0.2776343571634856  0.2221254861068251  0.6255380843625169
  0.7778097572191657  0.7223354416891766  0.6252962176126244
  0.6111797669650296  0.2221551088912753  0.6252824586736675
  0.9444626489024393  0.2222177434907414  0.6249339288195312
  0.2777984209855602  0.7222364463612962  0.1257082399106058
  0.1110438022411577  0.2221885677872231  0.1249959888753765
  0.4444515059469429  0.2222013233181811  0.1245251849129480
  0.6111797669650296  0.7223579914071462  0.1247175413264046
  0.9443975380354372  0.7222000125251407  0.1257348998780533
  0.7778444039490600  0.2221803696872238  0.1251439082145160
  0.1111002046535473  0.8888754554714274  0.6244156988939298
  0.4444893362428556  0.8889113347881026  0.6243126866846077
  0.2776343571634856  0.3888422043900012  0.6255380843625169
  0.6112389921040428  0.3886946996058108  0.6280904174625402
  0.7778444039490600  0.8889973675950306  0.6248560917854246
  0.9444514516232496  0.3888703025734470  0.6245939686159517
  0.1110679402784071  0.3888813620668791  0.1253099283956107
  0.2777984209855602  0.8888953079574297  0.1257082399106058
  0.6111800071986301  0.8889619514741024  0.1254446437586845
  0.4439322631016357  0.3886327982174353  0.1224799167719135
  0.9444514516232496  0.8889144823832966  0.1254060313841492
  0.7778097572191657  0.3888076488634278  0.1247037823874662
  0.2777792325796090  0.5555657317235775  0.6244352877143389
  0.1110679402784070  0.0555199115447746  0.6246900716042728
  0.6112389921040428  0.5558776258314576  0.6280904174625458
  0.4444892975309307  0.0555584834474709  0.6243443893575253
  0.9443975380354374  0.5555308588436615  0.6242651001219323
  0.1111002046535463  0.5555580825154797  0.1255843011060083
  0.7778485950020297  0.0555909641676240  0.6248869752955527
  0.2777792325796088  0.0555468341893555  0.1255647122856777
  0.4444515059469429  0.5555835159620546  0.1245251849129490
  0.7776809189328554  0.5555071261332746  0.1252330250518486
  0.6111800071986301  0.0555513890578243  0.1254446437586845
  0.4444515059469429  0.5555835159620546  0.6254748150870557
  0.9444626489024393  0.0555782387450494  0.1250660711804634
  0.2777984209855602  0.7222364463612962  0.6242917600895619
  0.1110438022411577  0.2221885677872231  0.6250040111245506
  0.4444515059469429  0.2222013233181796  0.6254748150870557
  0.6111797669650296  0.7223579914071462  0.6252824586736675
  0.9443975380354372  0.7222000125251407  0.6242651001219323
  0.7778444039490600  0.2221803696872238  0.6248560917854246
  0.1110984548952147  0.7222158941144106  0.1256856594671690
  0.4444892975309307  0.7222641474168120  0.1256556106426097
  0.2776343571634856  0.2221254861068176  0.1244619156374071
  0.7778097572191657  0.7223354416891766  0.1247037823874690
  0.6111797669650296  0.2221551088912753  0.1247175413264046
  0.9444626489024393  0.2222177434907414  0.1250660711804634
  0.1110679402784065  0.3888813620668791  0.6246900716042728
  0.2777984209855602  0.8888953079574297  0.6242917600895619
  0.6111800071986301  0.8889619514741024  0.6245553562412000
  0.4439322631016357  0.3886327982174353  0.6275200832281438
  0.9444514516232496  0.8889144823832966  0.6245939686159517
  0.1111002046535459  0.8888754554714274  0.1255843011060083
  0.7778097572191657  0.3888076488634278  0.6252962176126212
  0.4444893362428555  0.8889113347881026  0.1256873133152710
  0.2776343571634856  0.3888422043900002  0.1244619156374070
  0.2777792325796088  0.5555657317235775  0.1255647122856777
  0.6112389921040428  0.3886946996058108  0.1219095825373888
  0.7778444039490600  0.8889973675950306  0.1251439082145240
  0.9444514516232496  0.3888703025734470  0.1254060313841492
  0.1111002046535463  0.5555580825154797  0.6244156988939298
  0.2777792325796090  0.0555468341893555  0.6244352877143389
  0.7776809189328554  0.5555071261332746  0.6247669749481618
  0.6111800071986301  0.0555513890578152  0.6245553562412000
  0.9444626489024393  0.0555782387450494  0.6249339288195312
  0.0566551485096520  0.1117712607850626  0.3750000000000000
  0.5525746857643768  0.6296350366225235  0.3750000000000000
  0.3848954721591024  0.0994619548505797  0.3750000000000000
  0.8891878837604449  0.6112606085469393  0.3750000000000000
  0.7237542877247340  0.1099802785428480  0.3750000000000000
  0.0555227622734371  0.7777582648624580  0.8750000000000000
  0.3888335576913019  0.7777611154815262  0.8750000000000000
  0.2221890928833752  0.2777612131083035  0.8750000000000000
  0.7221625647378593  0.7777364193582464  0.8750000000000000
  0.5554754368975306  0.2777233042545543  0.8750000000000000
  0.8888414825582845  0.2777632345305435  0.8750000000000000
  0.2192056801359411  0.7762695067346711  0.3750000000000000
  0.0566551485096520  0.2782172210579717  0.3750000000000000
  0.3794964340630234  0.2545605176963884  0.3750000000000000
  0.5545492505794513  0.7860505647000556  0.3750000000000000
  0.8917157833675965  0.7813235388743868  0.3750000000000000
  0.7242553905506627  0.2737954021352870  0.3750000000000000
  0.0555140506655738  0.9444148925683417  0.8750000000000000
  0.3888335576913019  0.9444057755431369  0.8750000000000000
  0.2221806165718999  0.4444381099660114  0.8750000000000000
  0.5554939309741461  0.4444136321537363  0.8750000000000000
  0.7221635033408196  0.9444106956500148  0.8750000000000000
  0.8888513141709659  0.4444348733289072  0.8750000000000000
  0.0546034136970650  0.4447384624021999  0.3750000000000000
  0.2189494260141388  0.9400060887765300  0.3750000000000000
  0.5547568444790139  0.9440450889061197  0.3750000000000000
  0.3794964340629721  0.4582692497000374  0.3750000000000000
  0.8907403344002202  0.9469054428089430  0.3750000000000000
  0.7291688346141348  0.4412917407685873  0.3750000000000000
  0.2221738084496696  0.6111009769045553  0.8750000000000000
  0.0555178908918657  0.1110866526915152  0.8750000000000000
  0.5554754368975306  0.6110854659763331  0.8750000000000000
  0.3888273705008062  0.1110547345829401  0.8750000000000000
  0.8888676662291625  0.6111004997812111  0.8750000000000000
  0.0538665139988467  0.6107103198700128  0.3750000000000000
  0.7221635033408146  0.1110861410241814  0.8750000000000000
  0.2173098503573863  0.1039678725814136  0.3750000000000000
  0.3848954721591024  0.6187668506417838  0.3750000000000000
  0.7291688346141348  0.6212104271788275  0.3750000000000000
  0.5545492505794105  0.1018320192128979  0.3750000000000000
  0.3888273705008062  0.6111059692512174  0.8750000000000000
  0.8907864245154895  0.1120598789243957  0.3750000000000000
  0.2221778019039814  0.7777555676187348  0.8750000000000000
  0.0555178908918657  0.2777645715336909  0.8750000000000000
  0.3888398541499520  0.2777291610601903  0.8750000000000000
  0.5554896846068680  0.7777500699213632  0.8750000000000000
  0.8888513141709659  0.7777497741753376  0.8750000000000000
  0.7221625647378593  0.2777594787127316  0.8750000000000000
  0.0538665139988467  0.7764895274622862  0.3750000000000000
  0.3859775753378935  0.7794414061236968  0.3750000000000000
  0.2237553674789376  0.2785443504061549  0.3750000000000000
  0.7242553905506904  0.7837933217489309  0.3750000000000000
  0.5525746857643956  0.2562729824755406  0.3750000000000000
  0.8907403344002202  0.2771682249247338  0.3750000000000000
  0.0555140506655738  0.4444324914307229  0.8750000000000000
  0.2221738084496696  0.9444061648783824  0.8750000000000000
  0.5554951892304578  0.9444142612818506  0.8750000000000000
  0.3888398541499520  0.4444440264231216  0.8750000000000000
  0.8888414825582845  0.9444115813609605  0.8750000000000000
  0.0546034136970601  0.9431982846282773  0.3750000000000000
  0.7221926632302107  0.4444431368790069  0.8750000000000000
  0.3859775753378930  0.9398695025474173  0.3750000000000000
  0.2173098503573864  0.4466753111092908  0.3750000000000000
  0.2189494260141388  0.6122766705710161  0.3750000000000000
  0.7237542877247340  0.9471073425152511  0.3750000000000000
  0.8917157833675965  0.4437255778265102  0.3750000000000000
  0.0555227622734371  0.6110978307442818  0.8750000000000000
  0.2221806165718844  0.1110758399391982  0.8750000000000000
  0.7221926632302107  0.6110828596848084  0.8750000000000000
  0.5554896846068680  0.1110729480188767  0.8750000000000000
  0.8888428195503203  0.1110880764418197  0.8750000000000000
  0.1087986524152560  0.0529219490763004  0.3750000000000000
  0.6169139182785348  0.5887770985119358  0.3750000000000000
  0.4430794276741281  0.0486494389233130  0.3750000000000000
  0.9438199770126474  0.5546892717176044  0.3750000000000000
  0.7801648545777463  0.0567490939555103  0.3750000000000000
  0.1110571664393765  0.7221952498864901  0.8750000000000000
  0.4443915072134864  0.7221547896878007  0.8750000000000000
  0.2778456927706976  0.2222680774029368  0.8750000000000000
  0.7776544083612951  0.7220810106362593  0.8750000000000000
  0.6110057236619890  0.2222645987780918  0.8750000000000000
  0.9444112534718604  0.2222192439167448  0.8750000000000000
  0.2752539098729283  0.7224912529051578  0.3750000000000000
  0.1130946558387445  0.2232139945860148  0.3750000000000000
  0.4411729851375962  0.2082136104702246  0.3750000000000000
  0.6122055595859254  0.7355851640152216  0.3750000000000000
  0.9438199770126474  0.7224640386284796  0.3750000000000000
  0.7801077112603437  0.2204152689310189  0.3750000000000000
  0.1110727924555171  0.8888676635787158  0.8750000000000000
  0.4443905777122815  0.8888619555226920  0.8750000000000000
  0.2778456927706976  0.3889109487011176  0.8750000000000000
  0.6109805340007962  0.3889173227236603  0.8750000000000000
  0.7776905091390333  0.8887883985407719  0.8750000000000000
  0.9443802908852773  0.3888881705669551  0.8750000000000000
  0.1087986524152567  0.3892100366723047  0.3750000000000000
  0.2752539098729283  0.8860959903011907  0.3750000000000000
  0.6125465349415087  0.8935605850994575  0.3750000000000000
  0.9453983566754852  0.8907781267837063  0.3750000000000000
  0.7825512097965475  0.3860696836217376  0.3750000000000000
  0.2777765317369107  0.5555368851951451  0.8750000000000000
  0.1111136810137350  0.0555552369850842  0.8750000000000000
  0.6109805340007962  0.5553965446105266  0.8750000000000000
  0.4443915072134864  0.0555700508589344  0.8750000000000000
  0.9443611999792790  0.5555331924448422  0.8750000000000000
  0.1089482372380147  0.5555187413928333  0.3750000000000000
  0.7777121839755907  0.0555227586544517  0.8750000000000000
  0.2745462905910198  0.0497458883163570  0.3750000000000000
  0.4411729851375962  0.5662927080007064  0.3750000000000000
  0.7794355089165762  0.5563844211249435  0.3750000000000000
  0.6125465349415087  0.0523192831753856  0.3750000000000000
  0.4444322251462361  0.5554923487710799  0.8750000000000000
  0.9463724625168035  0.0572565361071358  0.3750000000000000
  0.2777399646387175  0.7221945879829015  0.8750000000000000
  0.1111412327521371  0.2222372830427274  0.8750000000000000
  0.4444322251462362  0.2222732097084540  0.8750000000000000
  0.6110057236619890  0.7220744582171125  0.8750000000000000
  0.9443611999792790  0.7221613408678247  0.8750000000000000
  0.7776905091390333  0.2222354439313239  0.8750000000000000
  0.1089038160370107  0.7211185746852338  0.3750000000000000
  0.4430794276741281  0.7277633220841406  0.3750000000000000
  0.2733119733860079  0.2137805196301385  0.3750000000000000
  0.7825512097965475  0.7298148595080297  0.3750000000000000
  0.6122055595859254  0.2099537289040584  0.3750000000000000
  0.9463724625168035  0.2224492597428898  0.3750000000000000
  0.1111136810137350  0.3888917773619368  0.8750000000000000
  0.2777399646387175  0.8888787099890759  0.8750000000000000
  0.6110356846349194  0.8888180609440820  0.8750000000000000
  0.4445108408583839  0.3889220870958038  0.8750000000000000
  0.9443802908852773  0.8888254536516796  0.8750000000000000
  0.1089482372380145  0.8867628291784827  0.3750000000000000
  0.7776544083612951  0.3889067310583479  0.8750000000000000
  0.4434440735101596  0.8883887034217786  0.3750000000000000
  0.2733119733860079  0.3928647870891354  0.3750000000000000
  0.2745462905910278  0.5581337356080563  0.3750000000000000
  0.6169139182785203  0.3614701530998773  0.3750000000000000
  0.7801077112603435  0.8930257756626048  0.3750000000000000
  0.9453983566754851  0.3879535632252855  0.3750000000000000
  0.1110727924555167  0.5555384622101928  0.8750000000000000
  0.2777765317369107  0.0555729798750813  0.8750000000000000
  0.7776437306488363  0.5554885319910156  0.8750000000000000
  0.6110356846349194  0.0555509570243337  0.8750000000000000
  0.9444112534718604  0.0555253428886148  0.8750000000000000
  0.0555869798995171  0.1111446855321413  0.1252596542894408
  0.5557011885021382  0.6109206254017918  0.1242264889527113
  0.3890557442461738  0.1114012711239684  0.1256240115790596
  0.8885547343673136  0.6109440338500685  0.1257968999307562
  0.7222799588681218  0.1111409476288995  0.1253673293483180
  0.0554503405706967  0.7777370605947604  0.6242350945943893
  0.3889900589685165  0.7777605846608551  0.6241635124588457
  0.2222877505785733  0.2778105419559244  0.6251275969585425
  0.7221723788210407  0.7777442775411143  0.6249788170646007
  0.5557011885021382  0.2781138964339297  0.6257735110471736
  0.8888803548237088  0.2777520524548278  0.6246775935967014
  0.2222426037755207  0.7777879685545456  0.1257648239092920
  0.0555869798995171  0.2777756277007649  0.1252596542894408
  0.3890106817536007  0.2779886052852577  0.1241180694504493
  0.5556509560997978  0.7777382920434248  0.1255089767696936
  0.8887291510509073  0.7777170288073044  0.1254573024915758
  0.7221723788210407  0.2777614346132115  0.1250211829353661
  0.0555307939960650  0.9444635158685206  0.6244279056248934
  0.3889900589685165  0.9445628076409959  0.6241635124588457
  0.2222829659879376  0.4444045371884986  0.6246086939495910
  0.5555227885450844  0.4444280609392065  0.6212487000334804
  0.7222799588681218  0.9444723445723295  0.6246326706516028
  0.8887291510509073  0.4443454555770415  0.6245426975082958
  0.0555307939960650  0.4444006114607236  0.1255720943749958
  0.2222760867022507  0.9445523125775537  0.1257630986199297
  0.5556439755790374  0.9444886544563290  0.1256799672064101
  0.3890106817536007  0.4443554098017271  0.1241180694504462
  0.8888803548237088  0.9444616357024491  0.1253224064032739
  0.7217644044871159  0.4441697565453515  0.1241982397343039
  0.2222760867022521  0.6110571074580282  0.6242369013801163
  0.0555869798995171  0.1111446855321413  0.6247403457105370
  0.5557011885021382  0.6109206254017918  0.6257735110471736
  0.3890557442461738  0.1114012711239684  0.6243759884210627
  0.8885547343673136  0.6109440338500685  0.6242031000691431
  0.0554503405706967  0.6110466133092965  0.1257649054055424
  0.7222799588681218  0.1111409476288995  0.6246326706516028
  0.2222829659879382  0.1112117621327594  0.1253913060504621
  0.3890557442461738  0.6109878064555895  0.1256240115790596
  0.7217644044871159  0.6109279812751718  0.1241982397343062
  0.5556509560997978  0.1112459973897188  0.1255089767696936
  0.3890557442461738  0.6109878064555895  0.6243759884210627
  0.8889318559536518  0.1111325946435397  0.1251674304356381
  0.2222426037755207  0.7777879685545456  0.6242351760906202
  0.0555869798995171  0.2777756277007649  0.6247403457105370
  0.3890106817536007  0.2779886052852577  0.6258819305496419
  0.5556509560997978  0.7777382920434248  0.6244910232302135
  0.8887291510509073  0.7777170288073044  0.6245426975082958
  0.7221723788210407  0.2777614346132123  0.6249788170646007
  0.0554503405706967  0.7777370605947604  0.1257649054055423
  0.3889900589685165  0.7777605846608551  0.1258364875412081
  0.2222877505785733  0.2778105419559244  0.1248724030413807
  0.7221723788210407  0.7777442775411143  0.1250211829353672
  0.5557011885021382  0.2781138964339297  0.1242264889527113
  0.8888803548237088  0.2777520524548278  0.1253224064032779
  0.0555307939960650  0.4444006114607236  0.6244279056248934
  0.2222760867022507  0.9445523125775537  0.6242369013801163
  0.5556439755790374  0.9444886544563292  0.6243200327935422
  0.3890106817536007  0.4443554098017271  0.6258819305496085
  0.8888803548237088  0.9444616357024491  0.6246775935967014
  0.0555307939960650  0.9444635158685206  0.1255720943749946
  0.7217644044871159  0.4441697565453515  0.6258017602657217
  0.3889900589685165  0.9445628076409959  0.1258364875412081
  0.2222829659879376  0.4444045371884986  0.1253913060504620
  0.2222760867022521  0.6110571074580282  0.1257630986199297
  0.5555227885450844  0.4444280609392065  0.1287512999665686
  0.7222799588681218  0.9444723445723295  0.1253673293483180
  0.8887291510509073  0.4443454555770415  0.1254573024915758
  0.0554503405706967  0.6110466133092965  0.6242350945943893
  0.2222829659879378  0.1112117621327594  0.6246086939495910
  0.7217644044871159  0.6109279812751718  0.6258017602657217
  0.5556509560997978  0.1112459973897188  0.6244910232302135
  0.8889318559536518  0.1111325946435397  0.6248325695643937
 
  0.00000000E+00  0.00000000E+00  0.00000000E+00
  0.00000000E+00  0.00000000E+00  0.00000000E+00
  0.00000000E+00  0.00000000E+00  0.00000000E+00
  0.00000000E+00  0.00000000E+00  0.00000000E+00
  0.00000000E+00  0.00000000E+00  0.00000000E+00
  0.00000000E+00  0.00000000E+00  0.00000000E+00
  0.00000000E+00  0.00000000E+00  0.00000000E+00
  0.00000000E+00  0.00000000E+00  0.00000000E+00
  0.00000000E+00  0.00000000E+00  0.00000000E+00
  0.00000000E+00  0.00000000E+00  0.00000000E+00
  0.00000000E+00  0.00000000E+00  0.00000000E+00
  0.00000000E+00  0.00000000E+00  0.00000000E+00
  0.00000000E+00  0.00000000E+00  0.00000000E+00
  0.00000000E+00  0.00000000E+00  0.00000000E+00
  0.00000000E+00  0.00000000E+00  0.00000000E+00
  0.00000000E+00  0.00000000E+00  0.00000000E+00
  0.00000000E+00  0.00000000E+00  0.00000000E+00
  0.00000000E+00  0.00000000E+00  0.00000000E+00
  0.00000000E+00  0.00000000E+00  0.00000000E+00
  0.00000000E+00  0.00000000E+00  0.00000000E+00
  0.00000000E+00  0.00000000E+00  0.00000000E+00
  0.00000000E+00  0.00000000E+00  0.00000000E+00
  0.00000000E+00  0.00000000E+00  0.00000000E+00
  0.00000000E+00  0.00000000E+00  0.00000000E+00
  0.00000000E+00  0.00000000E+00  0.00000000E+00
  0.00000000E+00  0.00000000E+00  0.00000000E+00
  0.00000000E+00  0.00000000E+00  0.00000000E+00
  0.00000000E+00  0.00000000E+00  0.00000000E+00
  0.00000000E+00  0.00000000E+00  0.00000000E+00
  0.00000000E+00  0.00000000E+00  0.00000000E+00
  0.00000000E+00  0.00000000E+00  0.00000000E+00
  0.00000000E+00  0.00000000E+00  0.00000000E+00
  0.00000000E+00  0.00000000E+00  0.00000000E+00
  0.00000000E+00  0.00000000E+00  0.00000000E+00
  0.00000000E+00  0.00000000E+00  0.00000000E+00
  0.00000000E+00  0.00000000E+00  0.00000000E+00
  0.00000000E+00  0.00000000E+00  0.00000000E+00
  0.00000000E+00  0.00000000E+00  0.00000000E+00
  0.00000000E+00  0.00000000E+00  0.00000000E+00
  0.00000000E+00  0.00000000E+00  0.00000000E+00
  0.00000000E+00  0.00000000E+00  0.00000000E+00
  0.00000000E+00  0.00000000E+00  0.00000000E+00
  0.00000000E+00  0.00000000E+00  0.00000000E+00
  0.00000000E+00  0.00000000E+00  0.00000000E+00
  0.00000000E+00  0.00000000E+00  0.00000000E+00
  0.00000000E+00  0.00000000E+00  0.00000000E+00
  0.00000000E+00  0.00000000E+00  0.00000000E+00
  0.00000000E+00  0.00000000E+00  0.00000000E+00
  0.00000000E+00  0.00000000E+00  0.00000000E+00
  0.00000000E+00  0.00000000E+00  0.00000000E+00
  0.00000000E+00  0.00000000E+00  0.00000000E+00
  0.00000000E+00  0.00000000E+00  0.00000000E+00
  0.00000000E+00  0.00000000E+00  0.00000000E+00
  0.00000000E+00  0.00000000E+00  0.00000000E+00
  0.00000000E+00  0.00000000E+00  0.00000000E+00
  0.00000000E+00  0.00000000E+00  0.00000000E+00
  0.00000000E+00  0.00000000E+00  0.00000000E+00
  0.00000000E+00  0.00000000E+00  0.00000000E+00
  0.00000000E+00  0.00000000E+00  0.00000000E+00
  0.00000000E+00  0.00000000E+00  0.00000000E+00
  0.00000000E+00  0.00000000E+00  0.00000000E+00
  0.00000000E+00  0.00000000E+00  0.00000000E+00
  0.00000000E+00  0.00000000E+00  0.00000000E+00
  0.00000000E+00  0.00000000E+00  0.00000000E+00
  0.00000000E+00  0.00000000E+00  0.00000000E+00
  0.00000000E+00  0.00000000E+00  0.00000000E+00
  0.00000000E+00  0.00000000E+00  0.00000000E+00
  0.00000000E+00  0.00000000E+00  0.00000000E+00
  0.00000000E+00  0.00000000E+00  0.00000000E+00
  0.00000000E+00  0.00000000E+00  0.00000000E+00
  0.00000000E+00  0.00000000E+00  0.00000000E+00
  0.00000000E+00  0.00000000E+00  0.00000000E+00
  0.00000000E+00  0.00000000E+00  0.00000000E+00
  0.00000000E+00  0.00000000E+00  0.00000000E+00
  0.00000000E+00  0.00000000E+00  0.00000000E+00
  0.00000000E+00  0.00000000E+00  0.00000000E+00
  0.00000000E+00  0.00000000E+00  0.00000000E+00
  0.00000000E+00  0.00000000E+00  0.00000000E+00
  0.00000000E+00  0.00000000E+00  0.00000000E+00
  0.00000000E+00  0.00000000E+00  0.00000000E+00
  0.00000000E+00  0.00000000E+00  0.00000000E+00
  0.00000000E+00  0.00000000E+00  0.00000000E+00
  0.00000000E+00  0.00000000E+00  0.00000000E+00
  0.00000000E+00  0.00000000E+00  0.00000000E+00
  0.00000000E+00  0.00000000E+00  0.00000000E+00
  0.00000000E+00  0.00000000E+00  0.00000000E+00
  0.00000000E+00  0.00000000E+00  0.00000000E+00
  0.00000000E+00  0.00000000E+00  0.00000000E+00
  0.00000000E+00  0.00000000E+00  0.00000000E+00
  0.00000000E+00  0.00000000E+00  0.00000000E+00
  0.00000000E+00  0.00000000E+00  0.00000000E+00
  0.00000000E+00  0.00000000E+00  0.00000000E+00
  0.00000000E+00  0.00000000E+00  0.00000000E+00
  0.00000000E+00  0.00000000E+00  0.00000000E+00
  0.00000000E+00  0.00000000E+00  0.00000000E+00
  0.00000000E+00  0.00000000E+00  0.00000000E+00
  0.00000000E+00  0.00000000E+00  0.00000000E+00
  0.00000000E+00  0.00000000E+00  0.00000000E+00
  0.00000000E+00  0.00000000E+00  0.00000000E+00
  0.00000000E+00  0.00000000E+00  0.00000000E+00
  0.00000000E+00  0.00000000E+00  0.00000000E+00
  0.00000000E+00  0.00000000E+00  0.00000000E+00
  0.00000000E+00  0.00000000E+00  0.00000000E+00
  0.00000000E+00  0.00000000E+00  0.00000000E+00
  0.00000000E+00  0.00000000E+00  0.00000000E+00
  0.00000000E+00  0.00000000E+00  0.00000000E+00
  0.00000000E+00  0.00000000E+00  0.00000000E+00
  0.00000000E+00  0.00000000E+00  0.00000000E+00
  0.00000000E+00  0.00000000E+00  0.00000000E+00
  0.00000000E+00  0.00000000E+00  0.00000000E+00
  0.00000000E+00  0.00000000E+00  0.00000000E+00
  0.00000000E+00  0.00000000E+00  0.00000000E+00
  0.00000000E+00  0.00000000E+00  0.00000000E+00
  0.00000000E+00  0.00000000E+00  0.00000000E+00
  0.00000000E+00  0.00000000E+00  0.00000000E+00
  0.00000000E+00  0.00000000E+00  0.00000000E+00
  0.00000000E+00  0.00000000E+00  0.00000000E+00
  0.00000000E+00  0.00000000E+00  0.00000000E+00
  0.00000000E+00  0.00000000E+00  0.00000000E+00
  0.00000000E+00  0.00000000E+00  0.00000000E+00
  0.00000000E+00  0.00000000E+00  0.00000000E+00
  0.00000000E+00  0.00000000E+00  0.00000000E+00
  0.00000000E+00  0.00000000E+00  0.00000000E+00
  0.00000000E+00  0.00000000E+00  0.00000000E+00
  0.00000000E+00  0.00000000E+00  0.00000000E+00
  0.00000000E+00  0.00000000E+00  0.00000000E+00
  0.00000000E+00  0.00000000E+00  0.00000000E+00
  0.00000000E+00  0.00000000E+00  0.00000000E+00
  0.00000000E+00  0.00000000E+00  0.00000000E+00
  0.00000000E+00  0.00000000E+00  0.00000000E+00
  0.00000000E+00  0.00000000E+00  0.00000000E+00
  0.00000000E+00  0.00000000E+00  0.00000000E+00
  0.00000000E+00  0.00000000E+00  0.00000000E+00
  0.00000000E+00  0.00000000E+00  0.00000000E+00
  0.00000000E+00  0.00000000E+00  0.00000000E+00
  0.00000000E+00  0.00000000E+00  0.00000000E+00
  0.00000000E+00  0.00000000E+00  0.00000000E+00
  0.00000000E+00  0.00000000E+00  0.00000000E+00
  0.00000000E+00  0.00000000E+00  0.00000000E+00
  0.00000000E+00  0.00000000E+00  0.00000000E+00
  0.00000000E+00  0.00000000E+00  0.00000000E+00
  0.00000000E+00  0.00000000E+00  0.00000000E+00
  0.00000000E+00  0.00000000E+00  0.00000000E+00
  0.00000000E+00  0.00000000E+00  0.00000000E+00
  0.00000000E+00  0.00000000E+00  0.00000000E+00
  0.00000000E+00  0.00000000E+00  0.00000000E+00
  0.00000000E+00  0.00000000E+00  0.00000000E+00
  0.00000000E+00  0.00000000E+00  0.00000000E+00
  0.00000000E+00  0.00000000E+00  0.00000000E+00
  0.00000000E+00  0.00000000E+00  0.00000000E+00
  0.00000000E+00  0.00000000E+00  0.00000000E+00
  0.00000000E+00  0.00000000E+00  0.00000000E+00
  0.00000000E+00  0.00000000E+00  0.00000000E+00
  0.00000000E+00  0.00000000E+00  0.00000000E+00
  0.00000000E+00  0.00000000E+00  0.00000000E+00
  0.00000000E+00  0.00000000E+00  0.00000000E+00
  0.00000000E+00  0.00000000E+00  0.00000000E+00
  0.00000000E+00  0.00000000E+00  0.00000000E+00
  0.00000000E+00  0.00000000E+00  0.00000000E+00
  0.00000000E+00  0.00000000E+00  0.00000000E+00
  0.00000000E+00  0.00000000E+00  0.00000000E+00
  0.00000000E+00  0.00000000E+00  0.00000000E+00
  0.00000000E+00  0.00000000E+00  0.00000000E+00
  0.00000000E+00  0.00000000E+00  0.00000000E+00
  0.00000000E+00  0.00000000E+00  0.00000000E+00
  0.00000000E+00  0.00000000E+00  0.00000000E+00
  0.00000000E+00  0.00000000E+00  0.00000000E+00
  0.00000000E+00  0.00000000E+00  0.00000000E+00
  0.00000000E+00  0.00000000E+00  0.00000000E+00
  0.00000000E+00  0.00000000E+00  0.00000000E+00
  0.00000000E+00  0.00000000E+00  0.00000000E+00
  0.00000000E+00  0.00000000E+00  0.00000000E+00
  0.00000000E+00  0.00000000E+00  0.00000000E+00
  0.00000000E+00  0.00000000E+00  0.00000000E+00
  0.00000000E+00  0.00000000E+00  0.00000000E+00
  0.00000000E+00  0.00000000E+00  0.00000000E+00
  0.00000000E+00  0.00000000E+00  0.00000000E+00
  0.00000000E+00  0.00000000E+00  0.00000000E+00
  0.00000000E+00  0.00000000E+00  0.00000000E+00
  0.00000000E+00  0.00000000E+00  0.00000000E+00
  0.00000000E+00  0.00000000E+00  0.00000000E+00
  0.00000000E+00  0.00000000E+00  0.00000000E+00
  0.00000000E+00  0.00000000E+00  0.00000000E+00
  0.00000000E+00  0.00000000E+00  0.00000000E+00
  0.00000000E+00  0.00000000E+00  0.00000000E+00
  0.00000000E+00  0.00000000E+00  0.00000000E+00
  0.00000000E+00  0.00000000E+00  0.00000000E+00
  0.00000000E+00  0.00000000E+00  0.00000000E+00
  0.00000000E+00  0.00000000E+00  0.00000000E+00
  0.00000000E+00  0.00000000E+00  0.00000000E+00
  0.00000000E+00  0.00000000E+00  0.00000000E+00
  0.00000000E+00  0.00000000E+00  0.00000000E+00
  0.00000000E+00  0.00000000E+00  0.00000000E+00
  0.00000000E+00  0.00000000E+00  0.00000000E+00
  0.00000000E+00  0.00000000E+00  0.00000000E+00
  0.00000000E+00  0.00000000E+00  0.00000000E+00
  0.00000000E+00  0.00000000E+00  0.00000000E+00
  0.00000000E+00  0.00000000E+00  0.00000000E+00
  0.00000000E+00  0.00000000E+00  0.00000000E+00
  0.00000000E+00  0.00000000E+00  0.00000000E+00
  0.00000000E+00  0.00000000E+00  0.00000000E+00
  0.00000000E+00  0.00000000E+00  0.00000000E+00
  0.00000000E+00  0.00000000E+00  0.00000000E+00
  0.00000000E+00  0.00000000E+00  0.00000000E+00
  0.00000000E+00  0.00000000E+00  0.00000000E+00
  0.00000000E+00  0.00000000E+00  0.00000000E+00
  0.00000000E+00  0.00000000E+00  0.00000000E+00
  0.00000000E+00  0.00000000E+00  0.00000000E+00
  0.00000000E+00  0.00000000E+00  0.00000000E+00
  0.00000000E+00  0.00000000E+00  0.00000000E+00
  0.00000000E+00  0.00000000E+00  0.00000000E+00
  0.00000000E+00  0.00000000E+00  0.00000000E+00
  0.00000000E+00  0.00000000E+00  0.00000000E+00
  0.00000000E+00  0.00000000E+00  0.00000000E+00
  0.00000000E+00  0.00000000E+00  0.00000000E+00
  0.00000000E+00  0.00000000E+00  0.00000000E+00
  0.00000000E+00  0.00000000E+00  0.00000000E+00
  0.00000000E+00  0.00000000E+00  0.00000000E+00
  0.00000000E+00  0.00000000E+00  0.00000000E+00
  0.00000000E+00  0.00000000E+00  0.00000000E+00
  0.00000000E+00  0.00000000E+00  0.00000000E+00
  0.00000000E+00  0.00000000E+00  0.00000000E+00
  0.00000000E+00  0.00000000E+00  0.00000000E+00
  0.00000000E+00  0.00000000E+00  0.00000000E+00
  0.00000000E+00  0.00000000E+00  0.00000000E+00
  0.00000000E+00  0.00000000E+00  0.00000000E+00
  0.00000000E+00  0.00000000E+00  0.00000000E+00
  0.00000000E+00  0.00000000E+00  0.00000000E+00
  0.00000000E+00  0.00000000E+00  0.00000000E+00
  0.00000000E+00  0.00000000E+00  0.00000000E+00
  0.00000000E+00  0.00000000E+00  0.00000000E+00
  0.00000000E+00  0.00000000E+00  0.00000000E+00
  0.00000000E+00  0.00000000E+00  0.00000000E+00
  0.00000000E+00  0.00000000E+00  0.00000000E+00
  0.00000000E+00  0.00000000E+00  0.00000000E+00
  0.00000000E+00  0.00000000E+00  0.00000000E+00
  0.00000000E+00  0.00000000E+00  0.00000000E+00
  0.00000000E+00  0.00000000E+00  0.00000000E+00
  0.00000000E+00  0.00000000E+00  0.00000000E+00
  0.00000000E+00  0.00000000E+00  0.00000000E+00
  0.00000000E+00  0.00000000E+00  0.00000000E+00
  0.00000000E+00  0.00000000E+00  0.00000000E+00
  0.00000000E+00  0.00000000E+00  0.00000000E+00
  0.00000000E+00  0.00000000E+00  0.00000000E+00
  0.00000000E+00  0.00000000E+00  0.00000000E+00
  0.00000000E+00  0.00000000E+00  0.00000000E+00
  0.00000000E+00  0.00000000E+00  0.00000000E+00