B N                                     
   1.0000000000000000     
     8.7639499999999995  -15.1796066749929999    0.0000000000000000
     8.7639499999999995   15.1796066749929999    0.0000000000000000
     0.0000000000000000    0.0000000000000000   15.0000000000000000
   B    N 
    48    49
Selective dynamics
Direct
  0.9039874434058827  0.9544056280094135  0.1111036821678504   T   T   T
  0.9038841764902540  0.0971570777692876  0.1111022078912755   T   T   T
  0.9038200294485425  0.2398653264404846  0.1111623198448066   T   T   T
  0.9036817885639954  0.3825663857002147  0.1111635064486391   T   T   T
  0.9034105129669801  0.5252467900113479  0.1111028018532110   T   T   T
  0.9033768419816199  0.6680444487016005  0.1110996605062751   T   T   T
  0.9036183519451794  0.8111352103987399  0.1111524468128006   T   T   T
  0.0465420356270920  0.9540373764219210  0.1111120569743402   T   T   T
  0.0466751602949059  0.0970512774022727  0.1111044254423128   T   T   T
  0.0467404034816584  0.2398915212279074  0.1111181121423717   T   T   T
  0.0467619610382035  0.3825409653963941  0.1110944440817320   T   T   T
  0.0466309946771139  0.5252422834056905  0.1111078843647075   T   T   T
  0.0464206088033978  0.6680598259952780  0.1111002725849257   T   T   T
  0.0464434255811852  0.8110222403378425  0.1111035964627996   T   T   T
  0.1893900393056595  0.9539810414762191  0.1111206858568886   T   T   T
  0.1894144950881195  0.0969160746146882  0.1111599164063080   T   T   T
  0.1895262083719433  0.2398447193892584  0.1111566565642426   T   T   T
  0.1899507144722862  0.3825939044037964  0.1111063005615073   T   T   T
  0.1899433492302272  0.5250442999172446  0.1110897007664683   T   T   T
  0.1894677061816410  0.6680380006864814  0.1111584045821574   T   T   T
  0.1893682781420680  0.8110192385830528  0.1111492044089255   T   T   T
  0.3322947698783525  0.9540374441888873  0.1111367646431864   T   T   T
  0.3323169207281729  0.0969116172284860  0.1111359530934483   T   T   T
  0.3323027957368855  0.2397706487371041  0.1111645106915854   T   T   T
  0.3335549777667142  0.3835120476764903  0.1111414433389133   T   T   T
  0.3344944323374976  0.5244783721432874  0.1111193776621119   T   T   T
  0.3323516900638404  0.6679941111322104  0.1111477611126230   T   T   T
  0.3323178108625391  0.8111355094145513  0.1111666291265283   T   T   T
  0.4752147370551360  0.9544059639535606  0.1111473011853513   T   T   T
  0.4751638792944063  0.0970360656057665  0.1111500757436926   T   T   T
  0.4751270081180473  0.2398161980222848  0.1111365556870382   T   T   T
  0.4747192484343687  0.3833980827496191  0.1110914185935256   T   T   T
  0.4738821840831772  0.6690241711370692  0.1110741320436886   T   T   T
  0.4751915691614008  0.8119045651113879  0.1111413936928092   T   T   T
  0.6181941482890569  0.9545102259422358  0.1111105441786560   T   T   T
  0.6180614139136635  0.0971472819761255  0.1111890312580053   T   T   T
  0.6179395870349612  0.2398812230356992  0.1111861906018210   T   T   T
  0.6174403717033276  0.3825924909116656  0.1111154821190976   T   T   T
  0.6149150678963895  0.5245386205472468  0.1111328813069810   T   T   T
  0.6198702716035599  0.6690226100780062  0.1110959453432745   T   T   T
  0.6182994087534683  0.8118506957970126  0.1111279156954593   T   T   T
  0.7611035440617765  0.9545212253680018  0.1111273932318605   T   T   T
  0.7610073716005425  0.0972056971862660  0.1111661625149532   T   T   T
  0.7608499765067815  0.2398723211016773  0.1112177096221279   T   T   T
  0.7605877355298393  0.3825549401050259  0.1111796546622234   T   T   T
  0.7599423819061488  0.5250701768279106  0.1111340759081491   T   T   T
  0.7604494938189981  0.6680056127833444  0.1111826838582118   T   T   T
  0.7614904538752715  0.8119061172465388  0.1111786851694783   T   T   T
  0.9513922620511961  0.9065200178125119  0.1111064153446485   T   T   T
  0.9514169215962068  0.0494865965724827  0.1110606101689569   T   T   T
  0.9512783199914017  0.1921955850273771  0.1111078287934897   T   T   T
  0.9512755103441702  0.3349727002833712  0.1111214459936089   T   T   T
  0.9512751069756740  0.4777606443538795  0.1111047438426294   T   T   T
  0.9512743218265256  0.6205570242237956  0.1110558694902809   T   T   T
  0.9513504228224420  0.7635060093353365  0.1111005660790199   T   T   T
  0.0940981982725663  0.9062548023443758  0.1110884036242409   T   T   T
  0.0939939456451394  0.0490580285083885  0.1111096830775152   T   T   T
  0.0938585969884962  0.1918686309002058  0.1111127226892990   T   T   T
  0.0939606236049633  0.3348274756424927  0.1110792885593514   T   T   T
  0.0941551027626776  0.4777263431604897  0.1110650949196413   T   T   T
  0.0940707013242350  0.6205608186196117  0.1111106690800003   T   T   T
  0.0940939690616330  0.7633993728103561  0.1111029123739641   T   T   T
  0.2369544428971262  0.9062536422407880  0.1111229467082698   T   T   T
  0.2368699993559585  0.0489236961723870  0.1111225570379180   T   T   T
  0.2365412772872490  0.1914378984123820  0.1111595492751993   T   T   T
  0.2363203570819939  0.3341330823059974  0.1111306995922446   T   T   T
  0.2370123168769499  0.4776016810130595  0.1110835151555467   T   T   T
  0.2368588121973878  0.6206337204207178  0.1111236830293209   T   T   T
  0.2369523717047778  0.7635102282012984  0.1111511532270081   T   T   T
  0.3799220713365197  0.9065218383262352  0.1111325546188396   T   T   T
  0.3798657902664643  0.0490504009867656  0.1111128484791612   T   T   T
  0.3797201434508352  0.1914296577454865  0.1111255509201792   T   T   T
  0.3790866944045321  0.3333564037768458  0.1111176522164492   T   T   T
  0.3771424791391834  0.4752141011810924  0.1111040807985698   T   T   T
  0.3794561983810699  0.6209007883741789  0.1111092972849311   T   T   T
  0.3798717793724078  0.7638691299774388  0.1111440596371384   T   T   T
  0.5229951691136262  0.9072453933846669  0.1111065595209331   T   T   T
  0.5228641549432729  0.0494855628567112  0.1111412827108194   T   T   T
  0.5228116664318906  0.1918507920187780  0.1111420062472374   T   T   T
  0.5226235212937538  0.3341061481842830  0.1110853630093345   T   T   T
  0.5229979234145448  0.4751003250015816  0.1110682005148606   T   T   T
  0.5285843075938430  0.6324353455589838  0.1109238518420441   T   T   T
  0.5231874528748235  0.7654565769780416  0.1111056230969317   T   T   T
  0.6660584271632822  0.9073379561273572  0.1110969567932796   T   T   T
  0.6658379537809586  0.0497243548277420  0.1111357052584767   T   T   T
  0.6657135684093701  0.1921952115945656  0.1111924556716355   T   T   T
  0.6656650140747342  0.3348289811643311  0.1111452421425530   T   T   T
  0.6654275173623233  0.4776104418744584  0.1111118071038206   T   T   T
  0.6662326186918029  0.6209192673040955  0.1111446163504168   T   T   T
  0.6670347340784274  0.7654580070869799  0.1111260449906120   T   T   T
  0.8090352003294699  0.9072487897266187  0.1111195680110606   T   T   T
  0.8086829702159775  0.0497245167871339  0.1111096725031169   T   T   T
  0.8085509552390627  0.1923070426393504  0.1111789481995531   T   T   T
  0.8084918983152197  0.3349775951186124  0.1111836866512215   T   T   T
  0.8083772078545239  0.4777349459004226  0.1111169228747481   T   T   T
  0.8085747303143233  0.6206424446152545  0.1111229460734195   T   T   T
  0.8087885832976985  0.7638724400230752  0.1111818203331588   T   T   T

  0.00000000E+00  0.00000000E+00  0.00000000E+00
  0.00000000E+00  0.00000000E+00  0.00000000E+00
  0.00000000E+00  0.00000000E+00  0.00000000E+00
  0.00000000E+00  0.00000000E+00  0.00000000E+00
  0.00000000E+00  0.00000000E+00  0.00000000E+00
  0.00000000E+00  0.00000000E+00  0.00000000E+00
  0.00000000E+00  0.00000000E+00  0.00000000E+00
  0.00000000E+00  0.00000000E+00  0.00000000E+00
  0.00000000E+00  0.00000000E+00  0.00000000E+00
  0.00000000E+00  0.00000000E+00  0.00000000E+00
  0.00000000E+00  0.00000000E+00  0.00000000E+00
  0.00000000E+00  0.00000000E+00  0.00000000E+00
  0.00000000E+00  0.00000000E+00  0.00000000E+00
  0.00000000E+00  0.00000000E+00  0.00000000E+00
  0.00000000E+00  0.00000000E+00  0.00000000E+00
  0.00000000E+00  0.00000000E+00  0.00000000E+00
  0.00000000E+00  0.00000000E+00  0.00000000E+00
  0.00000000E+00  0.00000000E+00  0.00000000E+00
  0.00000000E+00  0.00000000E+00  0.00000000E+00
  0.00000000E+00  0.00000000E+00  0.00000000E+00
  0.00000000E+00  0.00000000E+00  0.00000000E+00
  0.00000000E+00  0.00000000E+00  0.00000000E+00
  0.00000000E+00  0.00000000E+00  0.00000000E+00
  0.00000000E+00  0.00000000E+00  0.00000000E+00
  0.00000000E+00  0.00000000E+00  0.00000000E+00
  0.00000000E+00  0.00000000E+00  0.00000000E+00
  0.00000000E+00  0.00000000E+00  0.00000000E+00
  0.00000000E+00  0.00000000E+00  0.00000000E+00
  0.00000000E+00  0.00000000E+00  0.00000000E+00
  0.00000000E+00  0.00000000E+00  0.00000000E+00
  0.00000000E+00  0.00000000E+00  0.00000000E+00
  0.00000000E+00  0.00000000E+00  0.00000000E+00
  0.00000000E+00  0.00000000E+00  0.00000000E+00
  0.00000000E+00  0.00000000E+00  0.00000000E+00
  0.00000000E+00  0.00000000E+00  0.00000000E+00
  0.00000000E+00  0.00000000E+00  0.00000000E+00
  0.00000000E+00  0.00000000E+00  0.00000000E+00
  0.00000000E+00  0.00000000E+00  0.00000000E+00
  0.00000000E+00  0.00000000E+00  0.00000000E+00
  0.00000000E+00  0.00000000E+00  0.00000000E+00
  0.00000000E+00  0.00000000E+00  0.00000000E+00
  0.00000000E+00  0.00000000E+00  0.00000000E+00
  0.00000000E+00  0.00000000E+00  0.00000000E+00
  0.00000000E+00  0.00000000E+00  0.00000000E+00
  0.00000000E+00  0.00000000E+00  0.00000000E+00
  0.00000000E+00  0.00000000E+00  0.00000000E+00
  0.00000000E+00  0.00000000E+00  0.00000000E+00
  0.00000000E+00  0.00000000E+00  0.00000000E+00
  0.00000000E+00  0.00000000E+00  0.00000000E+00
  0.00000000E+00  0.00000000E+00  0.00000000E+00
  0.00000000E+00  0.00000000E+00  0.00000000E+00
  0.00000000E+00  0.00000000E+00  0.00000000E+00
  0.00000000E+00  0.00000000E+00  0.00000000E+00
  0.00000000E+00  0.00000000E+00  0.00000000E+00
  0.00000000E+00  0.00000000E+00  0.00000000E+00
  0.00000000E+00  0.00000000E+00  0.00000000E+00
  0.00000000E+00  0.00000000E+00  0.00000000E+00
  0.00000000E+00  0.00000000E+00  0.00000000E+00
  0.00000000E+00  0.00000000E+00  0.00000000E+00
  0.00000000E+00  0.00000000E+00  0.00000000E+00
  0.00000000E+00  0.00000000E+00  0.00000000E+00
  0.00000000E+00  0.00000000E+00  0.00000000E+00
  0.00000000E+00  0.00000000E+00  0.00000000E+00
  0.00000000E+00  0.00000000E+00  0.00000000E+00
  0.00000000E+00  0.00000000E+00  0.00000000E+00
  0.00000000E+00  0.00000000E+00  0.00000000E+00
  0.00000000E+00  0.00000000E+00  0.00000000E+00
  0.00000000E+00  0.00000000E+00  0.00000000E+00
  0.00000000E+00  0.00000000E+00  0.00000000E+00
  0.00000000E+00  0.00000000E+00  0.00000000E+00
  0.00000000E+00  0.00000000E+00  0.00000000E+00
  0.00000000E+00  0.00000000E+00  0.00000000E+00
  0.00000000E+00  0.00000000E+00  0.00000000E+00
  0.00000000E+00  0.00000000E+00  0.00000000E+00
  0.00000000E+00  0.00000000E+00  0.00000000E+00
  0.00000000E+00  0.00000000E+00  0.00000000E+00
  0.00000000E+00  0.00000000E+00  0.00000000E+00
  0.00000000E+00  0.00000000E+00  0.00000000E+00
  0.00000000E+00  0.00000000E+00  0.00000000E+00
  0.00000000E+00  0.00000000E+00  0.00000000E+00
  0.00000000E+00  0.00000000E+00  0.00000000E+00
  0.00000000E+00  0.00000000E+00  0.00000000E+00
  0.00000000E+00  0.00000000E+00  0.00000000E+00
  0.00000000E+00  0.00000000E+00  0.00000000E+00
  0.00000000E+00  0.00000000E+00  0.00000000E+00
  0.00000000E+00  0.00000000E+00  0.00000000E+00
  0.00000000E+00  0.00000000E+00  0.00000000E+00
  0.00000000E+00  0.00000000E+00  0.00000000E+00
  0.00000000E+00  0.00000000E+00  0.00000000E+00
  0.00000000E+00  0.00000000E+00  0.00000000E+00
  0.00000000E+00  0.00000000E+00  0.00000000E+00
  0.00000000E+00  0.00000000E+00  0.00000000E+00
  0.00000000E+00  0.00000000E+00  0.00000000E+00
  0.00000000E+00  0.00000000E+00  0.00000000E+00
  0.00000000E+00  0.00000000E+00  0.00000000E+00
  0.00000000E+00  0.00000000E+00  0.00000000E+00
  0.00000000E+00  0.00000000E+00  0.00000000E+00
