 B N C 
 1.0
 14.936314146199660   0.000000000000000   0.000000000000000
 -7.468157073099825  12.935227489513863   0.000000000000000
  0.000000000000001   0.000000000000001  13.341276283792837
 B N C 
 142 142   4
Cartesian
  1.244879191127596   0.718533679557547   5.002739017007882 
  4.978779671586431   7.185336755667184   5.005000149665265 
  6.223311367934476   0.718339931618772   5.002836974960457 
  9.957466170275382   7.186702328688417   5.003047636206436 
 11.202282213893710   0.718470082291247   5.002990034923422 
 -3.733999478986568   9.342014900877903  11.673447379758519 
  1.244843369561989   9.341844894446869  11.673696600306661 
  2.490422820479514   2.875030446012239  11.671744721997404 
  6.223390192141506   9.341684063560692  11.673984427734942 
  7.467765705831226   2.874585354633328  11.673827336135128 
 12.447076262530979   2.874523953914332  11.673649838443074 
 -1.244567008330237   9.342013650790106   5.003032261202699 
  0.000497756263079   2.874665614836702   5.002823250563142 
  4.978143020827547   2.874687569638971   5.004890780636771 
  3.734089532486532   9.341511522338573   5.002799728119291 
  8.713066466579875   9.341855157178669   5.003029093437184 
  9.957447122828464   2.874498973419302   5.003020089149572 
 -4.978677013615706  11.497634862286048  11.673671729943008 
  0.000071466349597  11.497771442351878  11.673601460632367 
  1.245640997136295   5.030604332168098  11.672946937455748 
  6.222781328309295   5.030935284949404  11.671570657684699 
  4.978758411164481  11.497669297380479  11.673575521400029 
 11.202158103111264   5.030579201558434  11.673852716947950 
 -1.244464858646825   5.030506515223336   5.002927042874272 
 -2.489326883672792  11.497655774718115   5.003125017453927 
  2.489437043850932  11.497728895609065   5.002943700888898 
  3.735070876708487   5.030231273711695   5.003881746379837 
  7.468161149604970  11.497662810122248   5.002671153698240 
  8.712556848492328   5.030688908850754   5.002672462361842 
  0.000245045843783   7.186202579876229  11.673624469715367 
  1.244879191127596   0.718533679557548  11.673856337733165 
  4.978779671586432   7.185336755667184  11.671595205075782 
  6.223311367934476   0.718339931618773  11.673758379780574 
  9.957466170275382   7.186702328688417  11.673547718534611 
 -2.489353891818875   7.186388874721393   5.003002626357954 
 11.202282213893710   0.718470082291247  11.673605319817625 
  3.734157056019562   0.718231094153664   5.003193231886229 
  2.489853952223006   7.185638706310649   5.003581462663512 
  7.468411805509672   7.186563259214696   4.999673190356670 
  8.712829562274155   0.718467678062695   5.002979006593121 
  2.489853952223006   7.185638706310649  11.673013892077535 
 13.691775505015011   0.718522435767555   5.002974111670675 
 -1.244567008330236   9.342013650790108  11.673563093538361 
  0.000497756263079   2.874665614836703  11.673772104177903 
  4.978143020827548   2.874687569638972  11.671704574104275 
  3.734089532486532   9.341511522338575  11.673795626621768 
  8.713066466579875   9.341855157178671  11.673566261303863 
  9.957447122828464   2.874498973419303  11.673575265591474 
 -3.733999478986568   9.342014900877901   5.003147974982526 
  1.244843369561989   9.341844894446867   5.002898754434386 
  2.490422820479514   2.875030446012238   5.004850632743643 
  6.223390192141506   9.341684063560690   5.002610927006105 
  7.467765705831225   2.874585354633327   5.002768018605932 
 12.447076262530979   2.874523953914331   5.002945516297972 
 -1.244464858646824   5.030506515223336  11.673668311866761 
 -2.489326883672792  11.497655774718117  11.673470337287119 
  2.489437043850932  11.497728895609066  11.673651653852147 
  3.735070876708488   5.030231273711695  11.672713608361208 
  7.468161149604970  11.497662810122250  11.673924201042805 
 -4.978677013615707  11.497634862286047   5.002923624798036 
  8.712556848492328   5.030688908850754  11.673922892379204 
  0.000071466349597  11.497771442351876   5.002993894108679 
  1.245640997136295   5.030604332168098   5.003648417285378 
  0.000245045843783   7.186202579876229   5.002970885025679 
  6.222781328309294   5.030935284949404   5.005024697056349 
  4.978758411164480  11.497669297380478   5.003019833341004 
 11.202158103111264   5.030579201558434   5.002742637793097 
 -2.489353891818875   7.186388874721393  11.673592728383092 
  3.734157056019562   0.718231094153664  11.673402122854817 
  7.468411805509673   7.186563259214696  11.676922164384390 
  8.712829562274155   0.718467678062696  11.673616348147938 
 13.691775505015011   0.718522435767556  11.673621243070372 
  0.006196689923614   1.442328269665441   1.667659535474105 
  3.715009550717705   7.882290519046115   1.667659535474105 
  4.969219762721465   1.431227048815691   1.667659535474105 
  8.765342346138191   7.935963052847155   1.667659535474105 
  9.957768409050988   1.431951634925717   1.667659535474105 
 -4.978825747897058  10.060672726116987   8.338297677370523 
  0.000080602426132  10.060674076639605   8.338297677370523 
  1.244807919761870   3.593211850088492   8.338297677370523 
  4.978796537858055  10.060621957852549   8.338297677370523 
  6.223387609606074   3.593268026199423   8.338297677370523 
 11.202263141409812   3.593174627002326   8.338297677370523 
 -2.483898179865014  10.066297618032159   1.667659535474105 
 -1.234180129711975   3.592358448054654   1.667659535474105 
  2.488451138680715  10.056190890069249   1.667659535474105 
  7.466341103810088  10.058255994613452   1.667659535474105 
  8.709532788415759   3.572652632096848   1.667659535474105 
 -6.223466513603314  12.216595871113929   8.338297677370523 
 -1.244654530399502  12.216609777095007   8.338297677370523 
  0.000155978290798   5.748971277103307   8.338297677370523 
  4.978658851886013   5.748986413631434   8.338297677370523 
  3.734130907419381  12.216542417168563   8.338297677370523 
  9.957502188278854   5.749062022804301   8.338297677370523 
 -2.490296230814268   5.748645619434596   1.667659535474105 
 -3.729918734743290  12.220090035484569   1.667659535474105 
  1.243710869733893  12.216955584821678   1.667659535474105 
  2.469382111675035   5.760288036092969   1.667659535474105 
  6.223170265079118  12.218967138865819   1.667659535474105 
  7.463467501110935   5.692949690413827   1.667659535474105 
 -1.244625394048698   7.904804477236729   8.338297677370523 
  0.000042185653449   1.437275520668131   8.338297677370523 
  3.734143488744792   7.904729331911833   8.338297677370523 
  4.978786961691338   1.437388183858308   8.338297677370523 
  8.712791575701139   7.904824667915224   8.338297677370523 
 -3.713589314823959   7.910012055356646   1.667659535474105 
  9.957570256096826   1.437249418964761   8.338297677370523 
  2.504699433172029   1.448899128127407   1.667659535474105 
  1.232176058378233   7.912217381194051   1.667659535474105 
  6.166442142299752   7.916636281673624   1.667659535474105 
  7.461231707380342   1.436855542114460   1.667659535474105 
  1.244848149545505   7.904772089417852   8.338297677370523 
 12.449610782947088   1.437402484090967   1.667659535474105 
 -2.489382351377152  10.060680156865134   8.338297677370523 
 -1.244616417253250   3.593156532718002   8.338297677370523 
  3.734108794982524   3.593325680166653   8.338297677370523 
  2.489485161230656  10.060633960449980   8.338297677370523 
  7.468142218478439  10.060637576884789   8.338297677370523 
  8.712828324503491   3.593202157557519   8.338297677370523 
 -4.965485221073774  10.079107792036787   1.667659535474105 
 -0.001469891287880  10.066367750443172   1.667659535474105 
  1.266842867925888   3.604436670592914   1.667659535474105 
  4.961879264489613  10.070276775124887   1.667659535474105 
  6.191320834447831   3.587227016764344   1.667659535474105 
 11.203182390643338   3.589636672691831   1.667659535474105 
 -2.489342022480479   5.749015687398525   8.338297677370523 
 -3.734082362767133  12.216628086695815   8.338297677370523 
  1.244741967196077  12.216566698710023   8.338297677370523 
  2.489570527956527   5.748966255543052   8.338297677370523 
  6.223497309991364  12.216560271493369   8.338297677370523 
 -6.218971616760661  12.225897775924752   1.667659535474105 
  7.468011592284395   5.749008844708210   8.338297677370523 
 -1.245468048034704  12.221349007308135   1.667659535474105 
 -0.007797659072470   5.750813455845129   1.667659535474105 
 -1.241595376882549   7.908399833396041   1.667659535474105 
  3.730702120266194  12.219320442236144   1.667659535474105 
  9.955002785770262   5.749149290587073   1.667659535474105 
 -3.734108428809023   7.904812787802352   8.338297677370523 
  2.489410215018449   1.437372773008051   8.338297677370523 
  6.223350377820047   7.904752512462713   8.338297677370523 
  7.468170715511612   1.437292719320187   8.338297677370523 
 12.446982250831487   1.437239722404361   8.338297677370523 
  1.254698016770081   0.734229245225281   1.667659535474105 
  4.947841052090670   7.140620281724056   1.667659535474105 
  6.217979353777584   0.723360062025866   1.667659535474105 
  9.988740422407542   7.192037159962392   1.667659535474105 
 11.203107108430743   0.719278311516676   1.667659535474105 
 -3.734067193014186   9.342074937545091   8.338297677370523 
  1.244727147928623   9.342116851922286   8.338297677370523 
  2.489369183713395   2.874480370517436   8.338297677370523 
  6.223478793463202   9.342120050049274   8.338297677370523 
  7.468203710431601   2.874469014371231   8.338297677370523 
 12.446948905150633   2.874502266259423   8.338297677370523 
 -1.242133094625626   9.345827263737705   1.667659535474105 
  0.020384930919518   2.877854267594897   1.667659535474105 
  4.941669778804233   2.864025921289733   1.667659535474105 
  3.730176039417246   9.330415651937779   1.667659535474105 
  8.732923871534439   9.368083864905152   1.667659535474105 
  9.957505373783679   2.864751198627453   1.667659535474105 
 -4.978792829039109  11.498007930547418   8.338297677370523 
  0.000039044603928  11.498018448198597   8.338297677370523 
  1.244706182210916   5.030377305167271   8.338297677370523 
  6.223469771309769   5.030348543426349   8.338297677370523 
  4.978822037382900  11.498015442930884   8.338297677370523 
 11.202251672925202   5.030397381624265   8.338297677370523 
 -1.247173242008693   5.028574216139486   1.667659535474105 
 -2.486649686419019  11.502614283964183   1.667659535474105 
  2.488378392631013  11.496801132429484   1.667659535474105 
  7.469422241741090  11.500402864659263   1.667659535474105 
  8.711320232813414   5.000262082553032   1.667659535474105 
  0.000026202286125   7.186225272000875   8.338297677370523 
  1.244676250402877   0.718621607399238   8.338297677370523 
  4.978734970536578   7.186240597067846   8.338297677370523 
  6.223536832705005   0.718617678957727   8.338297677370523 
  9.957600528557776   7.186199390122990   8.338297677370523 
 -2.478020802557031   7.185957270635781   1.667659535474105 
 11.202272246839495   0.718635523731239   8.338297677370523 
  3.734201928836766   0.716882256845630   1.667659535474105 
  2.467211434816081   7.189220252016068   1.667659535474105 
  8.708487919435800   0.720272458039891   1.667659535474105 
  2.489406749269723   7.186232172689037   8.338297677370523 
 13.696806758503463   0.721793544684642   1.667659535474105 
 -1.244659836247302   9.342098741264151   8.338297677370523 
  0.000000303019863   2.874468264406739   8.338297677370523 
  4.978828445317940   2.874469428983069   8.338297677370523 
  3.734105010183606   9.342102235743809   8.338297677370523 
  8.712848500756301   9.342137880403630   8.338297677370523 
  9.957585551994827   2.874497410569789   8.338297677370523 
 -3.724954173424748   9.349890171666930   1.667659535474105 
  1.239498182309378   9.346787631148830   1.667659535474105 
  2.538651101835490   2.897877084670986   1.667659535474105 
  6.196551176548501   9.350004507659767   1.667659535474105 
  7.445024620527195   2.875332740443443   1.667659535474105 
 12.453036516604236   2.874567306484744   1.667659535474105 
 -1.244702042411844   5.030370186369868   8.338297677370523 
 -2.489337142534566  11.497996427749454   8.338297677370523 
  2.489400468379195  11.498004273481442   8.338297677370523 
  3.734068042182038   5.030384653962071   8.338297677370523 
  7.468175305923539  11.498018231940311   8.338297677370523 
 -4.972792667409720  11.512264908827040   1.667659535474105 
  8.712902023147054   5.030371096793309   8.338297677370523 
 -0.001644269739610  11.503216801120107   1.667659535474105 
  1.236757534805959   5.034536500969438   1.667659535474105 
 -0.003849068887321   7.187317065621539   1.667659535474105 
  6.192052995938583   5.019188686026101   1.667659535474105 
  4.973334184656380  11.505236452858782   1.667659535474105 
 11.198685382922571   5.028543453956333   1.667659535474105 
 -2.489379635852008   7.186201926724062   8.338297677370523 
  3.734091169988621   0.718625186452648   8.338297677370523 
  7.468159974304132   7.186220183983301   8.338297677370523 
  8.712867502639533   0.718615966504908   8.338297677370523 
 13.691664237810176   0.718617594289510   8.338297677370523 
  0.000164399120368   1.437235925827754   5.002497309852019 
  3.733977376623960   7.904644553332782   5.003745191997250 
  4.978707052823488   1.436716342232677   5.002304397122875 
  8.713519349162322   7.905298543851878   5.005844137872424 
  9.957514805525339   1.437183714731603   5.002635463940177 
 -4.978558775412806  10.060782612821729  11.673533883165186 
  0.000096209536361  10.060740561949299  11.673738618091861 
  1.245038409742397   3.593155935164924  11.673948335447385 
  4.978723835627399  10.060673684331334  11.673631937854180 
  6.223303346878773   3.592893958929699  11.675136410102487 
 11.202216006443766   3.593166456699868  11.674181205148509 
 -2.489184571055910  10.060597300194203   5.003151337440594 
 -1.244537878327689   3.593088960492488   5.002424579663654 
  3.734423788064749   3.592680965148981   5.009875304601889 
  2.489386552567936  10.060665895986894   5.002723786128232 
  7.468144329040696  10.060615954091444   5.001914842160749 
  8.712773144244743   3.593039722135328   5.002450406937936 
 -6.223451580686799  12.216552881562905  11.674412272994791 
 -1.244614759389201  12.216427464148744  11.674048885657848 
  0.000159638855530   5.748920926731209  11.674024988695955 
  4.979341449984311   5.749065076829918  11.665379112671559 
  3.734086463260994  12.216594388091380  11.673688652616844 
  9.957417245412149   5.749106468397505  11.674950504546873 
 -2.489421835948537   5.748950966062171   5.002588496485870 
 -3.734011358808300  12.216236581358302   5.002794589686720 
  1.244707133707355  12.216593741819757   5.002762096044211 
  2.489717295981769   5.748795742086351   5.005522736789030 
  6.223533336164285  12.216563072786386   5.002607201202833 
  7.468154211506789   5.748873393092767   5.002813710019221 
 -1.244573494572853   7.904804405562827  11.673819496366150 
  0.000164399120369   1.437235925827755  11.674098044889027 
  3.733977376623961   7.904644553332782  11.672850162743810 
  4.978707052823489   1.436716342232678  11.674290957618172 
  8.713519349162322   7.905298543851878  11.670751216868622 
 -3.733778923498032   7.904875641063240   5.003389637366787 
  9.957514805525339   1.437183714731604  11.673959890800869 
  2.489610166444676   1.437069128338685   5.001659988681458 
  1.244816220230287   7.904739045161365   5.002506000557041 
  6.223303723861845   7.904846229951584   5.003087326993338 
  7.468078433819520   1.437128507476882   5.001953683748881 
  1.244816220230287   7.904739045161365  11.674089354184005 
 12.447032238476270   1.437228927084320   5.002653384867525 
 -2.489184571055910  10.060597300194205  11.673444017300451 
 -1.244537878327689   3.593088960492488  11.674170775077394 
  3.734423788064750   3.592680965148982  11.666720050139157 
  2.489386552567937  10.060665895986896  11.673871568612734 
  7.468144329040697  10.060615954091446  11.674680512580297 
  8.712773144244743   3.593039722135329  11.674144947803111 
 -4.978558775412807  10.060782612821727   5.003061471575860 
  0.000096209536360  10.060740561949297   5.002856736649187 
  1.245038409742397   3.593155935164924   5.002647019293662 
  4.978723835627398  10.060673684331332   5.002963416886865 
  6.223303346878772   3.592893958929698   5.001458944638560 
 11.202216006443766   3.593166456699867   5.002414149592537 
 -2.489421835948536   5.748950966062171  11.674006858255176 
 -3.734011358808300  12.216236581358304  11.673800765054326 
  1.244707133707355  12.216593741819759  11.673833258696837 
  2.489717295981769   5.748795742086351  11.671072617952015 
  6.223533336164286  12.216563072786387  11.673988153538199 
 -6.223451580686800  12.216552881562903   5.002183081746256 
  7.468154211506790   5.748873393092767  11.673781644721826 
 -1.244614759389201  12.216427464148742   5.002546469083197 
  0.000159638855529   5.748920926731209   5.002570366045104 
 -1.244573494572853   7.904804405562827   5.002775858374882 
  4.979341449984310   5.749065076829918   5.011216242069485 
  3.734086463260993  12.216594388091378   5.002906702124203 
  9.957417245412149   5.749106468397505   5.001644850194174 
 -3.733778923498031   7.904875641063240  11.673205717374245 
  2.489610166444677   1.437069128338686  11.674935366059604 
  6.223303723861846   7.904846229951584  11.673508027747694 
  7.468078433819521   1.437128507476883  11.674641670992166 
 12.447032238476270   1.437228927084321  11.673941969873521 
  3.788279415559007   5.001237514056267   1.667659535474105 
  7.470941475447133   7.186464765756061   1.667659535474105 
  3.752451520902447   3.597193644292087   1.667659535474105 
  4.970926184569181   5.725158899934264   1.667659535474105 
Generated by cif2cell 2.0.0.  :  Failed to get author information, No journal information. Species order: B N C 
 1.0
 14.936314146199660   0.000000000000000   0.000000000000000
 -7.468157073099825  12.935227489513863   0.000000000000000
  0.000000000000001   0.000000000000001  13.341276283792837
 B N C 
 142 142   4
Cartesian
  1.244879191127596   0.718533679557547   5.002739017007882 
  4.978779671586431   7.185336755667184   5.005000149665265 
  6.223311367934476   0.718339931618772   5.002836974960457 
  9.957466170275382   7.186702328688417   5.003047636206436 
 11.202282213893710   0.718470082291247   5.002990034923422 
 -3.733999478986568   9.342014900877903  11.673447379758519 
  1.244843369561989   9.341844894446869  11.673696600306661 
  2.490422820479514   2.875030446012239  11.671744721997404 
  6.223390192141506   9.341684063560692  11.673984427734942 
  7.467765705831226   2.874585354633328  11.673827336135128 
 12.447076262530979   2.874523953914332  11.673649838443074 
 -1.244567008330237   9.342013650790106   5.003032261202699 
  0.000497756263079   2.874665614836702   5.002823250563142 
  4.978143020827547   2.874687569638971   5.004890780636771 
  3.734089532486532   9.341511522338573   5.002799728119291 
  8.713066466579875   9.341855157178669   5.003029093437184 
  9.957447122828464   2.874498973419302   5.003020089149572 
 -4.978677013615706  11.497634862286048  11.673671729943008 
  0.000071466349597  11.497771442351878  11.673601460632367 
  1.245640997136295   5.030604332168098  11.672946937455748 
  6.222781328309295   5.030935284949404  11.671570657684699 
  4.978758411164481  11.497669297380479  11.673575521400029 
 11.202158103111264   5.030579201558434  11.673852716947950 
 -1.244464858646825   5.030506515223336   5.002927042874272 
 -2.489326883672792  11.497655774718115   5.003125017453927 
  2.489437043850932  11.497728895609065   5.002943700888898 
  3.735070876708487   5.030231273711695   5.003881746379837 
  7.468161149604970  11.497662810122248   5.002671153698240 
  8.712556848492328   5.030688908850754   5.002672462361842 
  0.000245045843783   7.186202579876229  11.673624469715367 
  1.244879191127596   0.718533679557548  11.673856337733165 
  4.978779671586432   7.185336755667184  11.671595205075782 
  6.223311367934476   0.718339931618773  11.673758379780574 
  9.957466170275382   7.186702328688417  11.673547718534611 
 -2.489353891818875   7.186388874721393   5.003002626357954 
 11.202282213893710   0.718470082291247  11.673605319817625 
  3.734157056019562   0.718231094153664   5.003193231886229 
  2.489853952223006   7.185638706310649   5.003581462663512 
  7.468411805509672   7.186563259214696   4.999673190356670 
  8.712829562274155   0.718467678062695   5.002979006593121 
  2.489853952223006   7.185638706310649  11.673013892077535 
 13.691775505015011   0.718522435767555   5.002974111670675 
 -1.244567008330236   9.342013650790108  11.673563093538361 
  0.000497756263079   2.874665614836703  11.673772104177903 
  4.978143020827548   2.874687569638972  11.671704574104275 
  3.734089532486532   9.341511522338575  11.673795626621768 
  8.713066466579875   9.341855157178671  11.673566261303863 
  9.957447122828464   2.874498973419303  11.673575265591474 
 -3.733999478986568   9.342014900877901   5.003147974982526 
  1.244843369561989   9.341844894446867   5.002898754434386 
  2.490422820479514   2.875030446012238   5.004850632743643 
  6.223390192141506   9.341684063560690   5.002610927006105 
  7.467765705831225   2.874585354633327   5.002768018605932 
 12.447076262530979   2.874523953914331   5.002945516297972 
 -1.244464858646824   5.030506515223336  11.673668311866761 
 -2.489326883672792  11.497655774718117  11.673470337287119 
  2.489437043850932  11.497728895609066  11.673651653852147 
  3.735070876708488   5.030231273711695  11.672713608361208 
  7.468161149604970  11.497662810122250  11.673924201042805 
 -4.978677013615707  11.497634862286047   5.002923624798036 
  8.712556848492328   5.030688908850754  11.673922892379204 
  0.000071466349597  11.497771442351876   5.002993894108679 
  1.245640997136295   5.030604332168098   5.003648417285378 
  0.000245045843783   7.186202579876229   5.002970885025679 
  6.222781328309294   5.030935284949404   5.005024697056349 
  4.978758411164480  11.497669297380478   5.003019833341004 
 11.202158103111264   5.030579201558434   5.002742637793097 
 -2.489353891818875   7.186388874721393  11.673592728383092 
  3.734157056019562   0.718231094153664  11.673402122854817 
  7.468411805509673   7.186563259214696  11.676922164384390 
  8.712829562274155   0.718467678062696  11.673616348147938 
 13.691775505015011   0.718522435767556  11.673621243070372 
  0.006196689923614   1.442328269665441   1.667659535474105 
  3.715009550717705   7.882290519046115   1.667659535474105 
  4.969219762721465   1.431227048815691   1.667659535474105 
  8.765342346138191   7.935963052847155   1.667659535474105 
  9.957768409050988   1.431951634925717   1.667659535474105 
 -4.978825747897058  10.060672726116987   8.338297677370523 
  0.000080602426132  10.060674076639605   8.338297677370523 
  1.244807919761870   3.593211850088492   8.338297677370523 
  4.978796537858055  10.060621957852549   8.338297677370523 
  6.223387609606074   3.593268026199423   8.338297677370523 
 11.202263141409812   3.593174627002326   8.338297677370523 
 -2.483898179865014  10.066297618032159   1.667659535474105 
 -1.234180129711975   3.592358448054654   1.667659535474105 
  2.488451138680715  10.056190890069249   1.667659535474105 
  7.466341103810088  10.058255994613452   1.667659535474105 
  8.709532788415759   3.572652632096848   1.667659535474105 
 -6.223466513603314  12.216595871113929   8.338297677370523 
 -1.244654530399502  12.216609777095007   8.338297677370523 
  0.000155978290798   5.748971277103307   8.338297677370523 
  4.978658851886013   5.748986413631434   8.338297677370523 
  3.734130907419381  12.216542417168563   8.338297677370523 
  9.957502188278854   5.749062022804301   8.338297677370523 
 -2.490296230814268   5.748645619434596   1.667659535474105 
 -3.729918734743290  12.220090035484569   1.667659535474105 
  1.243710869733893  12.216955584821678   1.667659535474105 
  2.469382111675035   5.760288036092969   1.667659535474105 
  6.223170265079118  12.218967138865819   1.667659535474105 
  7.463467501110935   5.692949690413827   1.667659535474105 
 -1.244625394048698   7.904804477236729   8.338297677370523 
  0.000042185653449   1.437275520668131   8.338297677370523 
  3.734143488744792   7.904729331911833   8.338297677370523 
  4.978786961691338   1.437388183858308   8.338297677370523 
  8.712791575701139   7.904824667915224   8.338297677370523 
 -3.713589314823959   7.910012055356646   1.667659535474105 
  9.957570256096826   1.437249418964761   8.338297677370523 
  2.504699433172029   1.448899128127407   1.667659535474105 
  1.232176058378233   7.912217381194051   1.667659535474105 
  6.166442142299752   7.916636281673624   1.667659535474105 
  7.461231707380342   1.436855542114460   1.667659535474105 
  1.244848149545505   7.904772089417852   8.338297677370523 
 12.449610782947088   1.437402484090967   1.667659535474105 
 -2.489382351377152  10.060680156865134   8.338297677370523 
 -1.244616417253250   3.593156532718002   8.338297677370523 
  3.734108794982524   3.593325680166653   8.338297677370523 
  2.489485161230656  10.060633960449980   8.338297677370523 
  7.468142218478439  10.060637576884789   8.338297677370523 
  8.712828324503491   3.593202157557519   8.338297677370523 
 -4.965485221073774  10.079107792036787   1.667659535474105 
 -0.001469891287880  10.066367750443172   1.667659535474105 
  1.266842867925888   3.604436670592914   1.667659535474105 
  4.961879264489613  10.070276775124887   1.667659535474105 
  6.191320834447831   3.587227016764344   1.667659535474105 
 11.203182390643338   3.589636672691831   1.667659535474105 
 -2.489342022480479   5.749015687398525   8.338297677370523 
 -3.734082362767133  12.216628086695815   8.338297677370523 
  1.244741967196077  12.216566698710023   8.338297677370523 
  2.489570527956527   5.748966255543052   8.338297677370523 
  6.223497309991364  12.216560271493369   8.338297677370523 
 -6.218971616760661  12.225897775924752   1.667659535474105 
  7.468011592284395   5.749008844708210   8.338297677370523 
 -1.245468048034704  12.221349007308135   1.667659535474105 
 -0.007797659072470   5.750813455845129   1.667659535474105 
 -1.241595376882549   7.908399833396041   1.667659535474105 
  3.730702120266194  12.219320442236144   1.667659535474105 
  9.955002785770262   5.749149290587073   1.667659535474105 
 -3.734108428809023   7.904812787802352   8.338297677370523 
  2.489410215018449   1.437372773008051   8.338297677370523 
  6.223350377820047   7.904752512462713   8.338297677370523 
  7.468170715511612   1.437292719320187   8.338297677370523 
 12.446982250831487   1.437239722404361   8.338297677370523 
  1.254698016770081   0.734229245225281   1.667659535474105 
  4.947841052090670   7.140620281724056   1.667659535474105 
  6.217979353777584   0.723360062025866   1.667659535474105 
  9.988740422407542   7.192037159962392   1.667659535474105 
 11.203107108430743   0.719278311516676   1.667659535474105 
 -3.734067193014186   9.342074937545091   8.338297677370523 
  1.244727147928623   9.342116851922286   8.338297677370523 
  2.489369183713395   2.874480370517436   8.338297677370523 
  6.223478793463202   9.342120050049274   8.338297677370523 
  7.468203710431601   2.874469014371231   8.338297677370523 
 12.446948905150633   2.874502266259423   8.338297677370523 
 -1.242133094625626   9.345827263737705   1.667659535474105 
  0.020384930919518   2.877854267594897   1.667659535474105 
  4.941669778804233   2.864025921289733   1.667659535474105 
  3.730176039417246   9.330415651937779   1.667659535474105 
  8.732923871534439   9.368083864905152   1.667659535474105 
  9.957505373783679   2.864751198627453   1.667659535474105 
 -4.978792829039109  11.498007930547418   8.338297677370523 
  0.000039044603928  11.498018448198597   8.338297677370523 
  1.244706182210916   5.030377305167271   8.338297677370523 
  6.223469771309769   5.030348543426349   8.338297677370523 
  4.978822037382900  11.498015442930884   8.338297677370523 
 11.202251672925202   5.030397381624265   8.338297677370523 
 -1.247173242008693   5.028574216139486   1.667659535474105 
 -2.486649686419019  11.502614283964183   1.667659535474105 
  2.488378392631013  11.496801132429484   1.667659535474105 
  7.469422241741090  11.500402864659263   1.667659535474105 
  8.711320232813414   5.000262082553032   1.667659535474105 
  0.000026202286125   7.186225272000875   8.338297677370523 
  1.244676250402877   0.718621607399238   8.338297677370523 
  4.978734970536578   7.186240597067846   8.338297677370523 
  6.223536832705005   0.718617678957727   8.338297677370523 
  9.957600528557776   7.186199390122990   8.338297677370523 
 -2.478020802557031   7.185957270635781   1.667659535474105 
 11.202272246839495   0.718635523731239   8.338297677370523 
  3.734201928836766   0.716882256845630   1.667659535474105 
  2.467211434816081   7.189220252016068   1.667659535474105 
  8.708487919435800   0.720272458039891   1.667659535474105 
  2.489406749269723   7.186232172689037   8.338297677370523 
 13.696806758503463   0.721793544684642   1.667659535474105 
 -1.244659836247302   9.342098741264151   8.338297677370523 
  0.000000303019863   2.874468264406739   8.338297677370523 
  4.978828445317940   2.874469428983069   8.338297677370523 
  3.734105010183606   9.342102235743809   8.338297677370523 
  8.712848500756301   9.342137880403630   8.338297677370523 
  9.957585551994827   2.874497410569789   8.338297677370523 
 -3.724954173424748   9.349890171666930   1.667659535474105 
  1.239498182309378   9.346787631148830   1.667659535474105 
  2.538651101835490   2.897877084670986   1.667659535474105 
  6.196551176548501   9.350004507659767   1.667659535474105 
  7.445024620527195   2.875332740443443   1.667659535474105 
 12.453036516604236   2.874567306484744   1.667659535474105 