 N Ga B 
 1.0
 14.936314146199660   0.000000000000000   0.000000000000000
 -7.468157073099825  12.935227489513863   0.000000000000000
  0.000000000000001   0.000000000000001  13.341276283792837
 N Ga B 
 143   1 143
Cartesian
  1.245530529982525   0.718895028463501   1.661823790281755 
  4.979395335345982   7.186901337355781   1.681918387022814 
  6.224228324286039   0.718532479227977   1.662113533873029 
  9.958228563567225   7.186673863951107   1.665765935957523 
 11.202781268419750   0.718938785655190   1.664187799157496 
 -3.733479649051325   9.342454510285165   8.340727281492365 
  1.244995851565335   9.342816104677109   8.343843678971586 
  2.490456035504760   2.874787979851929   8.338164050730590 
  6.224180124485809   9.342474340228790   8.338547663067807 
  7.468754738806330   2.874503682004524   8.340479822308188 
 12.447647085090633   2.874997985279709   8.342024623543852 
 -1.244218823296921   9.342560080017883   1.664106907700210 
  0.000978851708143   2.875060137966902   1.662869261856224 
  4.979883585487876   2.874486560178805   1.670623914337491 
  3.734384890257760   9.342621993943983   1.665477390536453 
  8.713570725645631   9.342484477270149   1.665765935957523 
  9.958078212290344   2.874857237720490   1.664334887273783 
 -4.978053034654231  11.498209783475893   8.342061438744141 
  0.000469460228699  11.498251033668364   8.342436738963814 
  1.245481747765032   5.031146700334029   8.338164050730590 
  6.224351109282172   5.030574683722054   8.324038825821839 
  4.979352815231405  11.498262582360164   8.341622325570844 
 11.202890976895876   5.030839457455047   8.341939858370086 
 -1.244039068738255   5.030956062426784   1.661823790281755 
 -2.488757810103726  11.498164837167575   1.664106907700210 
  2.489783661227338  11.498392335115382   1.663043606727486 
  3.735851797246119   5.031390038462290   1.716866223483654 
  7.468894569931841  11.498310949596434   1.664017354474516 
  8.713524484052041   5.030803431925035   1.667409549776807 
  0.000421105775283   7.186938765358665   8.343508429868024 
  1.245530529982525   0.718895028463502   8.344133422562885 
  4.979395335345983   7.186901337355782   8.324038825821839 
  6.224228324286040   0.718532479227977   8.343843678971586 
  9.958228563567225   7.186673863951108   8.340191276887158 
 -2.488827510927351   7.186744704883657   1.663895774100541 
 11.202781268419750   0.718938785655191   8.341769413687146 
  3.734896408098077   0.718637802124396   1.662448782976578 
  2.489934485662420   7.187204909336915   1.670623914337491 
  7.468760727629956   7.186586014279856   1.672145210679821 
  8.713406004470597   0.718762229497110   1.663043606727486 
  2.489934485662421   7.187204909336916   8.335333298507109 
 13.692416215693150   0.718994607382798   1.663932589300802 
 -1.244218823296921   9.342560080017883   8.341850305144376 
  0.000978851708143   2.875060137966903   8.343087950988391 
  4.979883585487877   2.874486560178806   8.335333298507109 
  3.734384890257761   9.342621993943983   8.340479822308188 
  8.713570725645631   9.342484477270149   8.340191276887158 
  9.958078212290344   2.874857237720491   8.341622325570844 
 -3.733479649051326   9.342454510285165   1.665229931352264 
  1.244995851565335   9.342816104677109   1.662113533873029 
  2.490456035504760   2.874787979851928   1.667793162114078 
  6.224180124485808   9.342474340228790   1.667409549776807 
  7.468754738806330   2.874503682004523   1.665477390536453 
 12.447647085090633   2.874997985279709   1.663932589300802 
 -1.244039068738254   5.030956062426784   8.344133422562885 
 -2.488757810103726  11.498164837167575   8.341850305144376 
  2.489783661227338  11.498392335115382   8.342913606117127 
  3.735851797246119   5.031390038462291   8.289090989360959 
  7.468894569931842  11.498310949596434   8.341939858370086 
 -4.978053034654232  11.498209783475893   1.663895774100541 
  8.713524484052041   5.030803431925036   8.338547663067807 
  0.000469460228699  11.498251033668364   1.663520473880801 
  1.245481747765032   5.031146700334028   1.667793162114078 
  0.000421105775283   7.186938765358664   1.662448782976578 
  6.224351109282171   5.030574683722053   1.681918387022814 
  4.979352815231405  11.498262582360164   1.664334887273783 
 11.202890976895876   5.030839457455047   1.664017354474516 
 -2.488827510927350   7.186744704883658   8.342061438744141 
  3.734896408098078   0.718637802124397   8.343508429868024 
  7.468760727629957   7.186586014279857   8.333812002164807 
  8.713406004470597   0.718762229497111   8.342913606117127 
 13.692416215693150   0.718994607382799   8.342024623543852 
  0.022368236880471   1.451093203360982   5.002978606422314 
  3.727720143124813   7.932952061058326   5.002978606422314 
  5.014050673343265   1.379214352615008   5.002978606422314 
  8.713258287224178   7.905097015317511   5.002978606422314 
  9.980612726392335   1.445555937447019   5.002978606422314 
 -4.979875462440247  10.060119070814032  11.673616748318732 
 -0.001099357902909  10.060107087285441  11.673616748318732 
  1.243675320343673   3.592531278654706  11.673616748318732 
  4.977717861385917  10.060137282309315  11.673616748318732 
  6.222451586396241   3.592486433642892  11.673616748318732 
 11.201232192272165   3.592451912321328  11.673616748318732 
 -2.489725984923215  10.060536023075134   5.002978606422314 
 -1.221517995223519   3.605567356200520   5.002978606422314 
  3.798130922169386   3.471958804856967   5.002978606422314 
  2.496011272303007  10.085361464818845   5.002978606422314 
  7.474872744927664  10.066117934946437   5.002978606422314 
  8.734457533385426   3.594914160247912   5.002978606422314 
 -6.224578225529616  12.216012294424051  11.673616748318732 
 -1.245784140703559  12.215964370504015  11.673616748318732 
 -0.001165778618871   5.748289792304764  11.673616748318732 
  4.977626189401731   5.748328818046147  11.673616748318732 
  3.733032777097476  12.216031905366849  11.673616748318732 
  9.956615365152345   5.748346860784533  11.673616748318732 
 -2.485469944422949   5.757432030490030   5.002978606422314 
 -3.727197235008223  12.201972012521203   5.002978606422314 
  1.261083300663057  12.226066773787327   5.002978606422314 
  2.416484295950563   5.865040959574111   5.002978606422314 
  6.240247751899767  12.230900941688690   5.002978606422314 
  7.473117395644757   5.754784294807945   5.002978606422314 
 -1.245729401956693   7.904173408355888  11.673616748318732 
 -0.001140699901941   1.436666036297744  11.673616748318732 
  3.733024616450518   7.904300427321155  11.673616748318732 
  4.977644057776261   1.436819353332901  11.673616748318732 
  8.711700230341048   7.904197470756590  11.673616748318732 
 -3.736486042136095   7.907156515988745   5.002978606422314 
  9.956524661004305   1.436627761947595  11.673616748318732 
  2.504054258250427   1.421730247624415   5.002978606422314 
  1.212074312266999   7.964430579174982   5.002978606422314 
  6.230962399392480   7.906259859192433   5.002978606422314 
  7.492799179999895   1.430670934041991   5.002978606422314 
  1.243758398490175   7.904099024869260  11.673616748318732 
 12.469497004816890   1.450277457050906   5.002978606422314 
 -2.490459259852130  10.060112666597597  11.673616748318732 
 -1.245766756796132   3.592421603262610  11.673616748318732 
  3.732958808166907   3.592662351754680  11.673616748318732 
  2.488177693742494  10.060170855039384  11.673616748318732 
  7.467136402746822  10.060250908044784  11.673616748318732 
  8.711807691698393   3.592503976181812  11.673616748318732 
 -4.977987370655299  10.057499894648281   5.002978606422314 
 -0.003346833858729  10.080819445993097   5.002978606422314 
  1.279407676536741   3.613161364121545   5.002978606422314 
  4.991130062858463  10.078547528568944   5.002978606422314 
  6.244612392409728   3.573566808120537   5.002978606422314 
 11.223009111589924   3.600505104714298   5.002978606422314 
 -2.490454896983672   5.748320967654217  11.673616748318732 
 -3.735192497557845  12.216049973504809  11.673616748318732 
  1.243621650162740  12.215985285170477  11.673616748318732 
  2.488430576889630   5.748248479780770  11.673616748318732 
  6.222385023047035  12.216068172539794  11.673616748318732 
 -6.214195337377997  12.215773858560441   5.002978606422314 
  7.467093454595529   5.748310741985697  11.673616748318732 
 -1.228970449868334  12.203661819878034   5.002978606422314 
 -0.006104050136620   5.769451972791957   5.002978606422314 
 -1.253923642527230   7.918136489325692   5.002978606422314 
  3.752808836583402  12.232428694171254   5.002978606422314 
  9.965564530584251   5.752113216194749   5.002978606422314 
 -3.735161814932043   7.904211792455428  11.673616748318732 
  2.488196408107929   1.436588006453155  11.673616748318732 
  6.222344167671036   7.904279749624064  11.673616748318732 
  7.467066682713796   1.436482160895791  11.673616748318732 
 12.445891940191881   1.436649066635419  11.673616748318732 
  4.103462343862330   5.243630086508150   5.002978606422314 
  1.257538091439229   0.717790176499015   5.002978606422314 
  4.980288880753297   7.316344449594018   5.002978606422314 
  6.256370390935821   0.688345352101461   5.002978606422314 
  9.966346965781812   7.188307978730236   5.002978606422314 
 11.227808245808740   0.733388117787711   5.002978606422314 
 -3.732957136842726   9.342756182849465  11.673616748318732 
  1.243342810076580   9.339140379802506  11.673616748318732 
  2.485816049553935   2.874791129352785  11.673616748318732 
  6.220473151580471   9.343260905799617  11.673616748318732 
  7.469438439961920   2.874593568565042  11.673616748318732 
 12.446044709585841   2.871366260158297  11.673616748318732 
 -1.245679596705770   9.352106947439529   5.002978606422314 
  0.030254497710027   2.891962440066773   5.002978606422314 
  5.008465093773776   2.784414372503043   5.002978606422314 
  3.739150092201232   9.391359382410178   5.002978606422314 
  8.719045111664318   9.348698162436612   5.002978606422314 
  9.988699534264930   2.876815008117483   5.002978606422314 
 -4.981960469262817  11.498714458114151  11.673616748318732 
  0.000965440286508  11.498537387888218  11.673616748318732 
  1.243164482337376   5.027126779876971  11.673616748318732 
  6.220892862144892   5.030479400229413  11.673616748318732 
  4.977759579092844  11.495534943375121  11.673616748318732 
 11.203636138561894   5.030821441366697  11.673616748318732 
 -1.238992117878554   5.041907341668010   5.002978606422314 
 -2.481220367094464  11.492126336575554   5.002978606422314 
  2.506271328461700  11.521234619237456   5.002978606422314 
  7.479103763793597  11.509631567600644   5.002978606422314 
  8.744837180839577   5.023429248335720   5.002978606422314 
  0.000688859571197   7.186545872109853  11.673616748318732 
  1.243446221533558   0.715634527329807  11.673616748318732 
  4.977583693852162   7.183954049228641  11.673616748318732 
  6.220218532422984   0.718938765742417  11.673616748318732 
  9.954874478617899   7.186776588598429  11.673616748318732 
 -2.490230529436282   7.192505028288664   5.002978606422314 
 11.203466780123481   0.719334566021916  11.673616748318732 
  3.744438409469667   0.695613078376070   5.002978606422314 
  2.426220437103714   7.256993315428875   5.002978606422314 
  7.488407198521676   7.197928909537834   5.002978606422314 
  8.741431836417927   0.721619826110226   5.002978606422314 
  2.485871051930617   7.186833211492944  11.673616748318732 
 13.714602470353748   0.736263543981112   5.002978606422314 
 -1.247975124719333   9.342638939387848  11.673616748318732 
  0.000757415047518   2.874932291451274  11.673616748318732 
  4.977529968846519   2.871153372262532  11.673616748318732 
  3.734804584880409   9.343169153233088  11.673616748318732 
  8.711982645325129   9.339528392173950  11.673616748318732 
  9.954919389567653   2.874841274242804  11.673616748318732 
 -3.731976968302417   9.343322083420087   5.002978606422314 
  1.234924065931400   9.385745514489198   5.002978606422314 
  2.513702839809533   2.860495282201421   5.002978606422314 
  6.233450242558990   9.373279022902569   5.002978606422314 
  7.513345156303879   2.854261773708647   5.002978606422314 
 12.473695550211422   2.885577377131448   5.002978606422314 
 -1.247904899773578   5.030781248927490  11.673616748318732 
 -2.490567666597230  11.494872355026539  11.673616748318732 
  2.486167499038118  11.498770738528496  11.673616748318732 
  3.734197302534497   5.030434815495163  11.673616748318732 
  7.469251548374678  11.498965286573284  11.673616748318732 
 -4.973765957505957  11.494114572102688   5.002978606422314 
  8.712352183365436   5.027199816432486  11.673616748318732 
  0.014354072068830  11.506267318051814   5.002978606422314 
  1.244727310663483   5.058425372243995   5.002978606422314 
 -0.014747889220039   7.206714742823507   5.002978606422314 
  6.336898905529068   4.966626960625092   5.002978606422314 
  4.996358955117294  11.523802539889083   5.002978606422314 
 11.217799516604940   5.034020569689382   5.002978606422314 
 -2.490344167174252   7.183108429929842  11.673616748318732 
  3.734690029461596   0.719066130338011  11.673616748318732 
  7.469450171919903   7.186984065126187  11.673616748318732 
  8.711925630344600   0.715441339470524  11.673616748318732 
 13.688469861726039   0.719422772049967  11.673616748318732 
  0.000848056054327   1.437798858178813   1.665680029543779 
  3.731855628784496   7.907533879472419   1.668563284264894 
  4.979151586585013   1.434698834192949   1.664457578175436 
  8.715816519535478   7.906574011431054   1.665994982808424 
  9.958514089107704   1.436908373829955   1.665560793423241 
 -4.976887250488033  10.061802672172210   8.339320495320166 
 -0.000515927142319  10.061521802425080   8.340790997787693 
  1.244551602907454   3.593037200628774   8.337213197414179 
  4.978966020141499  10.062844663759337   8.341639448298800 
  6.224667344268133   3.589857334551800   8.337393928579747 
 11.203828857592381   3.593401002537767   8.339994335780078 
 -2.488669237028848  10.061146136756550   1.666258266930733 
 -1.243791326291036   3.593577505502142   1.665680029543779 
  3.733602049871189   3.588842240118302   1.685988545957962 
  2.488264374960253  10.062339487071892   1.663936224858211 
  7.470093809249785  10.062814239098570   1.665841798051414 
  8.714776432189604   3.592231222647153   1.664317764545803 
 -6.222297822207793  12.217345129359071   8.341346791891878 
 -1.244267246073254  12.215762278794276   8.340790997787693 
 -0.000522880335013   5.749879498070903   8.339928077067027 
  4.980599687875454   5.750045568190386   8.327046124210121 
  3.734270508167888  12.217614494702239   8.340396419421348 
  9.960313978214664   5.749626384418614   8.340115414793226 
 -2.488160426409987   5.749629437394291   1.664610420952749 
 -3.733260649667007  12.216345530490694   1.665638337409621 
  1.244667722541391  12.216589235339846   1.664282118020292 
  2.485443884019375   5.750715599255641   1.685988545957962 
  6.224505291945077  12.217842405563980   1.665962877064549 
  7.471683166753256   5.749789939215098   1.668602889523849 
 -1.244507518153247   7.905698659212685   8.340318875435006 
  0.000848056054327   1.437798858178814   8.340277183300849 
  3.731855628784496   7.907533879472420   8.337393928579747 
  4.979151586585014   1.434698834192950   8.341499634669205 
  8.715816519535478   7.906574011431055   8.339962230036191 
 -3.732209667409908   7.905957859238848   1.666636717524487 
  9.958514089107704   1.436908373829956   8.340396419421348 
  2.489894582827899   1.436349919815916   1.666029135777601 
  1.242675739450172   7.906464842684501   1.664457578175436 
  6.225920046127746   7.907514958334052   1.668602889523849 
  7.468988113754319   1.435472913016093   1.663936224858211 
  1.242675739450172   7.906464842684501   8.341499634669205 
 12.447820690913218   1.437762631383556   1.665867126169850 
 -2.488669237028848  10.061146136756550   8.339698945913907 
 -1.243791326291035   3.593577505502143   8.340277183300849 
  3.733602049871190   3.588842240118303   8.319968666886664 
  2.488264374960254  10.062339487071892   8.342020987986428 
  7.470093809249786  10.062814239098570   8.340115414793226 
  8.714776432189604   3.592231222647154   8.341639448298800 
 -4.976887250488033  10.061802672172210   1.666636717524487 
 -0.000515927142319  10.061521802425080   1.665166215056935 
  1.244551602907453   3.593037200628773   1.668744015430422 
  4.978966020141498  10.062844663759337   1.664317764545803 
  6.224667344268132   3.589857334551799   1.668563284264907 
 11.203828857592381   3.593401002537766   1.665962877064549 
 -2.488160426409987   5.749629437394292   8.341346791891878 
 -3.733260649667006  12.216345530490694   8.340318875435006 
  1.244667722541391  12.216589235339846   8.341675094824323 
  2.485443884019375   5.750715599255642   8.319968666886664 
  6.224505291945078  12.217842405563980   8.339994335780078 
 -6.222297822207794  12.217345129359071   1.664610420952749 
  7.471683166753257   5.749789939215099   8.337354323320792 
 -1.244267246073255  12.215762278794276   1.665166215056935 
 -0.000522880335013   5.749879498070902   1.666029135777601 
 -1.244507518153247   7.905698659212684   1.665638337409621 
  4.980599687875453   5.750045568190385   1.678911088634508 
  3.734270508167888  12.217614494702239   1.665560793423241 
  9.960313978214664   5.749626384418614   1.665841798051414 
 -3.732209667409908   7.905957859238849   8.339320495320166 
  2.489894582827899   1.436349919815917   8.339928077067027 
  6.225920046127747   7.907514958334053   8.337354323320792 
  7.468988113754320   1.435472913016094   8.342020987986428 
 12.447820690913218   1.437762631383557   8.340090086674751 
Generated by cif2cell 2.0.0.  :  Failed to get author information, No journal information. Species order: N Ga B 
 1.0
 14.936314146199660   0.000000000000000   0.000000000000000
 -7.468157073099825  12.935227489513863   0.000000000000000
  0.000000000000001   0.000000000000001  13.341276283792837
 N Ga B 
 143   1 143
Cartesian
  1.245530529982525   0.718895028463501   1.661823790281755 
  4.979395335345982   7.186901337355781   1.681918387022814 
  6.224228324286039   0.718532479227977   1.662113533873029 
  9.958228563567225   7.186673863951107   1.665765935957523 
 11.202781268419750   0.718938785655190   1.664187799157496 
 -3.733479649051325   9.342454510285165   8.340727281492365 
  1.244995851565335   9.342816104677109   8.343843678971586 
  2.490456035504760   2.874787979851929   8.338164050730590 
  6.224180124485809   9.342474340228790   8.338547663067807 
  7.468754738806330   2.874503682004524   8.340479822308188 
 12.447647085090633   2.874997985279709   8.342024623543852 
 -1.244218823296921   9.342560080017883   1.664106907700210 
  0.000978851708143   2.875060137966902   1.662869261856224 
  4.979883585487876   2.874486560178805   1.670623914337491 
  3.734384890257760   9.342621993943983   1.665477390536453 
  8.713570725645631   9.342484477270149   1.665765935957523 
  9.958078212290344   2.874857237720490   1.664334887273783 
 -4.978053034654231  11.498209783475893   8.342061438744141 
  0.000469460228699  11.498251033668364   8.342436738963814 
  1.245481747765032   5.031146700334029   8.338164050730590 
  6.224351109282172   5.030574683722054   8.324038825821839 
  4.979352815231405  11.498262582360164   8.341622325570844 
 11.202890976895876   5.030839457455047   8.341939858370086 
 -1.244039068738255   5.030956062426784   1.661823790281755 
 -2.488757810103726  11.498164837167575   1.664106907700210 
  2.489783661227338  11.498392335115382   1.663043606727486 
  3.735851797246119   5.031390038462290   1.716866223483654 
  7.468894569931841  11.498310949596434   1.664017354474516 
  8.713524484052041   5.030803431925035   1.667409549776807 
  0.000421105775283   7.186938765358665   8.343508429868024 
  1.245530529982525   0.718895028463502   8.344133422562885 
  4.979395335345983   7.186901337355782   8.324038825821839 
  6.224228324286040   0.718532479227977   8.343843678971586 
  9.958228563567225   7.186673863951108   8.340191276887158 
 -2.488827510927351   7.186744704883657   1.663895774100541 
 11.202781268419750   0.718938785655191   8.341769413687146 
  3.734896408098077   0.718637802124396   1.662448782976578 
  2.489934485662420   7.187204909336915   1.670623914337491 
  7.468760727629956   7.186586014279856   1.672145210679821 
  8.713406004470597   0.718762229497110   1.663043606727486 
  2.489934485662421   7.187204909336916   8.335333298507109 
 13.692416215693150   0.718994607382798   1.663932589300802 
 -1.244218823296921   9.342560080017883   8.341850305144376 
  0.000978851708143   2.875060137966903   8.343087950988391 
  4.979883585487877   2.874486560178806   8.335333298507109 
  3.734384890257761   9.342621993943983   8.340479822308188 
  8.713570725645631   9.342484477270149   8.340191276887158 
  9.958078212290344   2.874857237720491   8.341622325570844 
 -3.733479649051326   9.342454510285165   1.665229931352264 
  1.244995851565335   9.342816104677109   1.662113533873029 
  2.490456035504760   2.874787979851928   1.667793162114078 
  6.224180124485808   9.342474340228790   1.667409549776807 
  7.468754738806330   2.874503682004523   1.665477390536453 
 12.447647085090633   2.874997985279709   1.663932589300802 
 -1.244039068738254   5.030956062426784   8.344133422562885 
 -2.488757810103726  11.498164837167575   8.341850305144376 
  2.489783661227338  11.498392335115382   8.342913606117127 
  3.735851797246119   5.031390038462291   8.289090989360959 
  7.468894569931842  11.498310949596434   8.341939858370086 
 -4.978053034654232  11.498209783475893   1.663895774100541 
  8.713524484052041   5.030803431925036   8.338547663067807 
  0.000469460228699  11.498251033668364   1.663520473880801 
  1.245481747765032   5.031146700334028   1.667793162114078 
  0.000421105775283   7.186938765358664   1.662448782976578 
  6.224351109282171   5.030574683722053   1.681918387022814 
  4.979352815231405  11.498262582360164   1.664334887273783 
 11.202890976895876   5.030839457455047   1.664017354474516 
 -2.488827510927350   7.186744704883658   8.342061438744141 
  3.734896408098078   0.718637802124397   8.343508429868024 
  7.468760727629957   7.186586014279857   8.333812002164807 
  8.713406004470597   0.718762229497111   8.342913606117127 
 13.692416215693150   0.718994607382799   8.342024623543852 
  0.022368236880471   1.451093203360982   5.002978606422314 
  3.727720143124813   7.932952061058326   5.002978606422314 
  5.014050673343265   1.379214352615008   5.002978606422314 
  8.713258287224178   7.905097015317511   5.002978606422314 
  9.980612726392335   1.445555937447019   5.002978606422314 
 -4.979875462440247  10.060119070814032  11.673616748318732 
 -0.001099357902909  10.060107087285441  11.673616748318732 
  1.243675320343673   3.592531278654706  11.673616748318732 
  4.977717861385917  10.060137282309315  11.673616748318732 
  6.222451586396241   3.592486433642892  11.673616748318732 
 11.201232192272165   3.592451912321328  11.673616748318732 
 -2.489725984923215  10.060536023075134   5.002978606422314 
 -1.221517995223519   3.605567356200520   5.002978606422314 
  3.798130922169386   3.471958804856967   5.002978606422314 
  2.496011272303007  10.085361464818845   5.002978606422314 
  7.474872744927664  10.066117934946437   5.002978606422314 
  8.734457533385426   3.594914160247912   5.002978606422314 
 -6.224578225529616  12.216012294424051  11.673616748318732 
 -1.245784140703559  12.215964370504015  11.673616748318732 
 -0.001165778618871   5.748289792304764  11.673616748318732 
  4.977626189401731   5.748328818046147  11.673616748318732 
  3.733032777097476  12.216031905366849  11.673616748318732 
  9.956615365152345   5.748346860784533  11.673616748318732 
 -2.485469944422949   5.757432030490030   5.002978606422314 
 -3.727197235008223  12.201972012521203   5.002978606422314 
  1.261083300663057  12.226066773787327   5.002978606422314 
  2.416484295950563   5.865040959574111   5.002978606422314 
  6.240247751899767  12.230900941688690   5.002978606422314 
  7.473117395644757   5.754784294807945   5.002978606422314 
 -1.245729401956693   7.904173408355888  11.673616748318732 
 -0.001140699901941   1.436666036297744  11.673616748318732 
  3.733024616450518   7.904300427321155  11.673616748318732 
  4.977644057776261   1.436819353332901  11.673616748318732 
  8.711700230341048   7.904197470756590  11.673616748318732 
 -3.736486042136095   7.907156515988745   5.002978606422314 
  9.956524661004305   1.436627761947595  11.673616748318732 
  2.504054258250427   1.421730247624415   5.002978606422314 
  1.212074312266999   7.964430579174982   5.002978606422314 
  6.230962399392480   7.906259859192433   5.002978606422314 
  7.492799179999895   1.430670934041991   5.002978606422314 
  1.243758398490175   7.904099024869260  11.673616748318732 
 12.469497004816890   1.450277457050906   5.002978606422314 
 -2.490459259852130  10.060112666597597  11.673616748318732 
 -1.245766756796132   3.592421603262610  11.673616748318732 
  3.732958808166907   3.592662351754680  11.673616748318732 
  2.488177693742494  10.060170855039384  11.673616748318732 
  7.467136402746822  10.060250908044784  11.673616748318732 
  8.711807691698393   3.592503976181812  11.673616748318732 
 -4.977987370655299  10.057499894648281   5.002978606422314 
 -0.003346833858729  10.080819445993097   5.002978606422314 
  1.279407676536741   3.613161364121545   5.002978606422314 
  4.991130062858463  10.078547528568944   5.002978606422314 
  6.244612392409728   3.573566808120537   5.002978606422314 
 11.223009111589924   3.600505104714298   5.002978606422314 
 -2.490454896983672   5.748320967654217  11.673616748318732 
 -3.735192497557845  12.216049973504809  11.673616748318732 
  1.243621650162740  12.215985285170477  11.673616748318732 
  2.488430576889630   5.748248479780770  11.673616748318732 
  6.222385023047035  12.216068172539794  11.673616748318732 
 -6.214195337377997  12.215773858560441   5.002978606422314 
  7.467093454595529   5.748310741985697  11.673616748318732 
 -1.228970449868334  12.203661819878034   5.002978606422314 
 -0.006104050136620   5.769451972791957   5.002978606422314 
 -1.253923642527230   7.918136489325692   5.002978606422314 
  3.752808836583402  12.232428694171254   5.002978606422314 
  9.965564530584251   5.752113216194749   5.002978606422314 
 -3.735161814932043   7.904211792455428  11.673616748318732 
  2.488196408107929   1.436588006453155  11.673616748318732 
  6.222344167671036   7.904279749624064  11.673616748318732 
  7.467066682713796   1.436482160895791  11.673616748318732 
 12.445891940191881   1.436649066635419  11.673616748318732 
  4.103462343862330   5.243630086508150   5.002978606422314 
  1.257538091439229   0.717790176499015   5.002978606422314 
  4.980288880753297   7.316344449594018   5.002978606422314 
  6.256370390935821   0.688345352101461   5.002978606422314 
  9.966346965781812   7.188307978730236   5.002978606422314 
 11.227808245808740   0.733388117787711   5.002978606422314 
 -3.732957136842726   9.342756182849465  11.673616748318732 
  1.243342810076580   9.339140379802506  11.673616748318732 
  2.485816049553935   2.874791129352785  11.673616748318732 
  6.220473151580471   9.343260905799617  11.673616748318732 
  7.469438439961920   2.874593568565042  11.673616748318732 
 12.446044709585841   2.871366260158297  11.673616748318732 
 -1.245679596705770   9.352106947439529   5.002978606422314 
  0.030254497710027   2.891962440066773   5.002978606422314 
  5.008465093773776   2.784414372503043   5.002978606422314 
  3.739150092201232   9.391359382410178   5.002978606422314 
  8.719045111664318   9.348698162436612   5.002978606422314 
  9.988699534264930   2.876815008117483   5.002978606422314 
 -4.981960469262817  11.498714458114151  11.673616748318732 
  0.000965440286508  11.498537387888218  11.673616748318732 
  1.243164482337376   5.027126779876971  11.673616748318732 
  6.220892862144892   5.030479400229413  11.673616748318732 
  4.977759579092844  11.495534943375121  11.673616748318732 
 11.203636138561894   5.030821441366697  11.673616748318732 
 -1.238992117878554   5.041907341668010   5.002978606422314 
 -2.481220367094464  11.492126336575554   5.002978606422314 
  2.506271328461700  11.521234619237456   5.002978606422314 
  7.479103763793597  11.509631567600644   5.002978606422314 
  8.744837180839577   5.023429248335720   5.002978606422314 
  0.000688859571197   7.186545872109853  11.673616748318732 
  1.243446221533558   0.715634527329807  11.673616748318732 
  4.977583693852162   7.183954049228641  11.673616748318732 
  6.220218532422984   0.718938765742417  11.673616748318732 
  9.954874478617899   7.186776588598429  11.673616748318732 
 -2.490230529436282   7.192505028288664   5.002978606422314 
 11.203466780123481   0.719334566021916  11.673616748318732 
  3.744438409469667   0.695613078376070   5.002978606422314 
  2.426220437103714   7.256993315428875   5.002978606422314 
  7.488407198521676   7.197928909537834   5.002978606422314 
  8.741431836417927   0.721619826110226   5.002978606422314 
  2.485871051930617   7.186833211492944  11.673616748318732 
 13.714602470353748   0.736263543981112   5.002978606422314 
 -1.247975124719333   9.342638939387848  11.673616748318732 
  0.000757415047518   2.874932291451274  11.673616748318732 
  4.977529968846519   2.871153372262532  11.673616748318732 
  3.734804584880409   9.343169153233088  11.673616748318732 
  8.711982645325129   9.339528392173950  11.673616748318732 
  9.954919389567653   2.874841274242804  11.673616748318732 
 -3.731976968302417   9.343322083420087   5.002978606422314 
  1.234924065931400   9.385745514489198   5.002978606422314 
  2.513702839809533   2.860495282201421   5.002978606422314 
  6.233450242558990   9.373279022902569   5.002978606422314 