Species order: X N B                    
   2.51242800000000     
     5.9449720136058266    0.0000000000000000    0.0000000000000000
    -2.9724860068029120    5.1484967885702053   -0.0000000000000001
     0.0000000000000000    0.0000000000000009    5.3101128803662583
   Ga   N    B 
     1   143   143
Direct
  0.4774185596285790  0.4053759464809547  0.3750000000000000
  0.1111776809145064  0.0555765276680507  0.1245625796911619
  0.6111785456407448  0.5556068761204196  0.1260687771728431
  0.4444920734530089  0.0555484996155235  0.1245842975227327
  0.9445072268439706  0.5555892905460756  0.1248580645902011
  0.7778264875879459  0.0555799104606400  0.1247397747979463
  0.1111645725378694  0.7222489529355985  0.6251821118212502
  0.4444920734530089  0.7222769071708249  0.6254157024772663
  0.2778607632989109  0.2222448721665247  0.6249899839687679
  0.7778398396012638  0.7222504859541440  0.6250187377648110
  0.6111514610665030  0.2222228935930797  0.6251635634321066
  0.9445119999301136  0.2222611073218750  0.6252793545455506
  0.2778269600654759  0.7222571143485161  0.1247337115506545
  0.1111984911432972  0.2222659122383127  0.1246409433763316
  0.4445185813448083  0.2222215699344330  0.1252221960478386
  0.6111514610665030  0.7222619008067477  0.1248364365678938
  0.9445072268439706  0.7222512696312277  0.1248580645902011
  0.7778276286004610  0.2222502263722099  0.1247507998388165
  0.1111680875737871  0.8889066537714230  0.6252821140416824
  0.4444863521711728  0.8889098427522513  0.6253102448000664
  0.2778607632989109  0.3889492244657163  0.6249899839687679
  0.6111785456407448  0.3889050028536544  0.6239312228271587
  0.7778276286004610  0.8889107355615818  0.6252492001611839
  0.9445066134670694  0.3889254720516796  0.6252730009424954
  0.1111776809145063  0.3889344865797837  0.1245625796911619
  0.2778269600654759  0.8889031790502905  0.1247337115506545
  0.6111536943990079  0.8889207665220212  0.1246540114567433
  0.4446027396953185  0.3889680365143222  0.1286883043992816
  0.9445066134670694  0.8889144747487210  0.1247269990575027
  0.7778398396012638  0.3889226869804444  0.1249812622351880
  0.2778330782270198  0.5556097696144010  0.6253905737642085
  0.1111776809145064  0.0555765276680507  0.6254374203088394
  0.6111785456407448  0.5556068761204196  0.6239312228271587
  0.4444920734530089  0.0555484996155235  0.6254157024772663
  0.9445072268439706  0.5555892905460756  0.6251419354098027
  0.1111680875737871  0.5555947671356919  0.1247178859583217
  0.7778264875879459  0.0555799104606400  0.6252602252020550
  0.2778330782270198  0.0555566419459555  0.1246094262357899
  0.4445185813448083  0.5556303447437113  0.1252221960478386
  0.7778316647474119  0.5555824990403745  0.1253362253438347
  0.6111536943990079  0.0555662612103101  0.1246540114567434
  0.4445185813448083  0.5556303447437109  0.6247778039521593
  0.9445119999301136  0.0555842259415738  0.1247206454544512
  0.2778269600654759  0.7222571143485161  0.6252662884493420
  0.1111984911432971  0.2222659122383127  0.6253590566236669
  0.4445185813448083  0.2222215699344330  0.6247778039521593
  0.6111514610665030  0.7222619008067477  0.6251635634321066
  0.9445072268439706  0.7222512696312277  0.6251419354098027
  0.7778276286004610  0.2222502263722099  0.6252492001611839
  0.1111645725378694  0.7222489529355985  0.1248178881787495
  0.4444920734530089  0.7222769071708249  0.1245842975227327
  0.2778607632989109  0.2222448721665247  0.1250100160312348
  0.7778398396012638  0.7222504859541440  0.1249812622351884
  0.6111514610665030  0.2222228935930797  0.1248364365678938
  0.9445119999301136  0.2222611073218750  0.1247206454544512
  0.1111776809145064  0.3889344865797837  0.6254374203088394
  0.2778269600654759  0.8889031790502905  0.6252662884493420
  0.6111536943990079  0.8889207665220212  0.6253459885432564
  0.4446027396953185  0.3889680365143222  0.6213116956007174
  0.9445066134670694  0.8889144747487210  0.6252730009424954
  0.1111680875737871  0.8889066537714230  0.1247178859583217
  0.7778398396012638  0.3889226869804444  0.6250187377648110
  0.4444863521711728  0.8889098427522513  0.1246897551999335
  0.2778607632989109  0.3889492244657163  0.1250100160312348
  0.2778330782270198  0.5556097696144010  0.1246094262357899
  0.6111785456407448  0.3889050028536544  0.1260687771728431
  0.7778276286004610  0.8889107355615818  0.1247507998388164
  0.9445066134670694  0.3889254720516796  0.1247269990575027
  0.1111680875737871  0.5555947671356919  0.6252821140416824
  0.2778330782270198  0.0555566419459555  0.6253905737642085
  0.7778316647474119  0.5555824990403745  0.6246637746561648
  0.6111536943990079  0.0555662612103101  0.6253459885432564
  0.9445119999301136  0.0555842259415738  0.6252793545455506
  0.0575883233333723  0.1121814985115131  0.3750000000000000
  0.5562156814409942  0.6132827634836182  0.3750000000000000
  0.3890076490239119  0.1066246692401114  0.3750000000000000
  0.8889253430951729  0.6111293382142604  0.3750000000000000
  0.7240879329494961  0.1117534220885470  0.3750000000000000
  0.0554579250989199  0.7777303552619709  0.8750000000000000
  0.3887911113931211  0.7777294288361618  0.8750000000000000
  0.2221313898912115  0.2777323616122751  0.8750000000000000
  0.7221286807331971  0.7777317631610815  0.8750000000000000
  0.5554633167668733  0.2777288947221986  0.8750000000000000
  0.8887959332510008  0.2777262259387090  0.8750000000000000
  0.2221918449027466  0.7777625891180394  0.3750000000000000
  0.0575883233333724  0.2787401581551951  0.3750000000000000
  0.3884939226619873  0.2684111128058293  0.3750000000000000
  0.5569511559187054  0.7796818009574780  0.3750000000000000
  0.8895466789404700  0.7781941170425253  0.3750000000000000
  0.7237382720869324  0.2779165780549422  0.3750000000000000
  0.0554581105466770  0.9443987208054244  0.8750000000000000
  0.3887911113931211  0.9443950158902943  0.8750000000000000
  0.2221171065280764  0.4443903129623886  0.8750000000000000
  0.5554533266161950  0.4443933299747618  0.8750000000000000
  0.7221301038874024  0.9444002368933949  0.8750000000000000
  0.8888019388638368  0.4443947248275705  0.8750000000000000
  0.0561440379475936  0.4450970835385287  0.3750000000000000
  0.2221173549639916  0.9433132909655368  0.3750000000000000
  0.5570186969960267  0.9451760151646791  0.3750000000000000
  0.3884939226619870  0.4534161431894945  0.3750000000000000
  0.8905652072402204  0.9455497362998724  0.3750000000000000
  0.7227782940095118  0.4448923916856620  0.3750000000000000
  0.2221262361385980  0.6110579357621292  0.8750000000000000
  0.0554567087155770  0.1110661592509599  0.8750000000000000
  0.5554633167668733  0.6110677553780088  0.8750000000000000
  0.3887968638954631  0.1110780119250072  0.8750000000000000
  0.8887862586358352  0.6110597959845891  0.8750000000000000
  0.0554830926012177  0.6112885546387804  0.3750000000000000
  0.7221301038874024  0.1110632003273401  0.8750000000000000
  0.2226044904309534  0.1099114993359769  0.3750000000000000
  0.3890076490239120  0.6157163131171421  0.3750000000000000
  0.7227782940095118  0.6112192356571819  0.3750000000000000
  0.5569511559187054  0.1106026882945653  0.3750000000000000
  0.3887968638954631  0.6110521853038018  0.8750000000000000
  0.8909035358251758  0.1121184345792600  0.3750000000000000
  0.2221263869928757  0.7777298601631070  0.8750000000000000
  0.0554567087155770  0.2777238827979526  0.8750000000000000
  0.3887962804757594  0.2777424946462775  0.8750000000000000
  0.5554529694398521  0.7777343586106088  0.8750000000000000
  0.8888019388638368  0.7777405473695982  0.8750000000000000
  0.7221286807331971  0.2777302509054536  0.8750000000000000
  0.0554830926012177  0.7775278712957734  0.3750000000000000
  0.3894412590684143  0.7793306653605643  0.3750000000000000
  0.2253211421369415  0.2793272377351387  0.3750000000000000
  0.7237382720869324  0.7791550273653297  0.3750000000000000
  0.5562156814409945  0.2762662512907096  0.3750000000000000
  0.8905652072402204  0.2783488042736863  0.3750000000000000
  0.0554581105466770  0.4443927230745788  0.8750000000000000
  0.2221262361385980  0.9444016337097998  0.8750000000000000
  0.5554599322004288  0.9443966327668805  0.8750000000000000
  0.3887962804757594  0.4443871191628189  0.8750000000000000
  0.8887959332510008  0.9444030406456267  0.8750000000000000
  0.0561440379475936  0.9443802877423952  0.3750000000000000
  0.7221247560336621  0.4443919325458834  0.8750000000000000
  0.3894412590684143  0.9434439270411838  0.3750000000000000
  0.2226044904309530  0.4460263244283135  0.3750000000000000
  0.2221173549639917  0.6121373973317942  0.3750000000000000
  0.7240879329494961  0.9456678441942865  0.3750000000000000
  0.8895466789404700  0.4446858952312812  0.3750000000000000
  0.0554579250989201  0.6110609031702842  0.8750000000000000
  0.2221171065280764  0.1110601268990239  0.8750000000000000
  0.7221247560336621  0.6110661568211143  0.8750000000000000
  0.5554529694398521  0.1110519441625819  0.8750000000000000
  0.8887963613782576  0.1110648473558007  0.8750000000000000
  0.1119388911278357  0.0554911134791330  0.3750000000000000
  0.6162418805681267  0.5656138985978502  0.3750000000000000
  0.4454771572248957  0.0532147851794242  0.3750000000000000
  0.9451139266451068  0.5557156211251445  0.3750000000000000
  0.7800605931951722  0.0566969632642520  0.3750000000000000
  0.1112112161032077  0.7222722747182686  0.8750000000000000
  0.4442393188445013  0.7219927432566160  0.8750000000000000
  0.2775502337037072  0.2222451156489726  0.8750000000000000
  0.7776220583582180  0.7223112939740617  0.8750000000000000
  0.6112007099761270  0.2222298425671579  0.8750000000000000
  0.9442643382282340  0.2219803449522641  0.8750000000000000
  0.2780981858195210  0.7229951661090585  0.3750000000000000
  0.1138118664571186  0.2235725998952235  0.3750000000000000
  0.4429504773744480  0.2152582453428258  0.3750000000000000
  0.6133543972107188  0.7260297037700673  0.3750000000000000
  0.9451139266451068  0.7227316388533004  0.3750000000000000
  0.7799534302493487  0.2224015782056875  0.3750000000000000
  0.1109259889854112  0.8889456692923074  0.8750000000000000
  0.4445306272672405  0.8889319803002834  0.8750000000000000
  0.2775502337037072  0.3886384513880629  0.8750000000000000
  0.6109433297064109  0.3888976366521146  0.8750000000000000
  0.7776155254530697  0.8886998665229621  0.8750000000000000
  0.9445558063312104  0.3889240792591400  0.8750000000000000
  0.1119388911278357  0.3897811109820302  0.3750000000000000
  0.2780981858195210  0.8884363530437955  0.3750000000000000
  0.6131405076000881  0.8906866638856814  0.3750000000000000
  0.9456277170773694  0.8897896520900854  0.3750000000000000
  0.7796512108433500  0.3883526016382806  0.3750000000000000
  0.2778358176426846  0.5555793957188410  0.8750000000000000
  0.1109121026990662  0.0553244639810117  0.8750000000000000
  0.6109433297064109  0.5553790263876243  0.8750000000000000
  0.4442393188445013  0.0555799089212183  0.8750000000000000
  0.9442866384970540  0.5555972320103764  0.8750000000000000
  0.1112968144966905  0.5560400877463790  0.3750000000000000
  0.7778876817752167  0.0556105075542776  0.8750000000000000
  0.2775819232870657  0.0537766404912464  0.3750000000000000
  0.4429504773744479  0.5610255653649592  0.3750000000000000
  0.7795854638618323  0.5564593985975851  0.3750000000000000
  0.6131405076000881  0.0557871770477342  0.3750000000000000
  0.4442321630531060  0.5556016094281337  0.8750000000000000
  0.9466649058973760  0.0569192574756009  0.3750000000000000
  0.2775785204633347  0.7222632108296199  0.8750000000000000
  0.1111787239585717  0.2222560286459499  0.8750000000000000
  0.4442321630531060  0.2219638869583135  0.8750000000000000
  0.6112007099761270  0.7223042007422963  0.8750000000000000
  0.9442866384970540  0.7220227398200127  0.8750000000000000
  0.7776155254530697  0.2222489922634396  0.8750000000000000
  0.1112987136862326  0.7223160235097832  0.3750000000000000
  0.4454771572248957  0.7255957053788107  0.3750000000000000
  0.2788646864436733  0.2211399285030225  0.3750000000000000
  0.7796512108433497  0.7246319425384021  0.3750000000000000
  0.6133543972107185  0.2206580267739784  0.3750000000000000
  0.9466649058973760  0.2230789817551090  0.3750000000000000
  0.1109121026990662  0.3889209720513822  0.8750000000000000
  0.2775785204633347  0.8886486429670470  0.8750000000000000
  0.6109262158629015  0.8889500202335168  0.8750000000000000
  0.4444550464339665  0.3888941898836459  0.8750000000000000
  0.9445558063312104  0.8889650604054005  0.8750000000000000
  0.1112968144966905  0.8885900600836413  0.3750000000000000
  0.7776220583582180  0.3886440977174822  0.8750000000000000
  0.4457258022527402  0.8895295677930320  0.3750000000000000
  0.2788646864436734  0.3910580912739793  0.3750000000000000
  0.2775819232870667  0.5571386161291512  0.3750000000000000
  0.6162418805681267  0.3839613153036046  0.3750000000000000
  0.7799534302493487  0.8908851853769892  0.3750000000000000
  0.9456277170773694  0.3891713983206158  0.3750000000000000
  0.1109259889854112  0.5553136530264300  0.8750000000000000
  0.2778358176426846  0.0555897552571792  0.8750000000000000
  0.7778932099883752  0.5556132716608523  0.8750000000000000
  0.6109262158629015  0.0553095289627115  0.8750000000000000
  0.9442643382282340  0.0556173266093059  0.8750000000000000
  0.0556336460073601  0.1111537357456127  0.1248516254451060
  0.5555100382536529  0.6113177279551353  0.1250677408046701
  0.3888158275105632  0.1109140782685119  0.1247599961779851
  0.8891537111103108  0.6112435222218272  0.1248752328765053
  0.7222741447416686  0.1110848939452207  0.1248426880602562
  0.0557230667939056  0.7778605115626273  0.6250766656748492
  0.3888848572070872  0.7778387980096683  0.6251868876983081
  0.2222096137917178  0.2777714735625269  0.6249187124280108
  0.7223168975942668  0.7779410661248080  0.6252504836012081
  0.5555100382536529  0.2775256436318547  0.6249322591953314
  0.8890064686469082  0.2777995984570675  0.6251271736206838
  0.2222861785635669  0.7778097559484574  0.1248949674293855
  0.0556336460073601  0.2778132435950838  0.1248516254451060
  0.3886916829986290  0.2774471684419657  0.1263738573502236
  0.5555425994176629  0.7779020117913721  0.1247209179589199
  0.8890990232940019  0.7779387140470575  0.1248637508598109
  0.7223168975942668  0.2777091648028035  0.1247495163987901
  0.0556623052295482  0.9445017599623390  0.6252285474385278
  0.3888848572070872  0.9443793925307586  0.6251868876983081
  0.2222215978584401  0.4445132103576943  0.6251222071758222
  0.5557187645678093  0.4445260489505690  0.6241566359229012
  0.7222741447416686  0.9445225841297833  0.6251573119397406
  0.8890990232940019  0.4444936425802822  0.6251362491401899
  0.0556623052295482  0.4444938786005355  0.1247714525614723
  0.2222669996345729  0.9444244827077107  0.1248485003967020
  0.5555533128804192  0.9444433231068726  0.1247468445010830
  0.3886916829986289  0.4445778478899997  0.1263738573502237
  0.8890064686469082  0.9445402035231739  0.1248728263793159
  0.7224892185793086  0.4445062867178993  0.1250707094306177
  0.2222669996345729  0.6111758502601947  0.6251514996032981
  0.0556336460073601  0.1111537357456127  0.6251483745548939
  0.5555100382536529  0.6113177279551353  0.6249322591953314
  0.3888158275105632  0.1109140782685119  0.6252400038220162
  0.8891537111103108  0.6112435222218272  0.6251247671234937
  0.0557230667939056  0.6111958885646143  0.1249233343251531
  0.7222741447416686  0.1110848939452207  0.6251573119397406
  0.2222215978584401  0.1110417208340798  0.1248777928241779
  0.3888158275105632  0.6112350825753934  0.1247599961779851
  0.7224892185793086  0.6113162651947481  0.1250707094306177
  0.5555425994176629  0.1109739209596257  0.1247209179589199
  0.3888158275105632  0.6112350825753934  0.6252400038220162
  0.8889685368964786  0.1111509351149097  0.1248656493377304
  0.2222861785635669  0.7778097559484574  0.6251050325706158
  0.0556336460073601  0.2778132435950838  0.6251483745548939
  0.3886916829986289  0.2774471684419657  0.6236261426497760
  0.5555425994176629  0.7779020117913721  0.6252790820410811
  0.8890990232940019  0.7779387140470575  0.6251362491401899
  0.7223168975942668  0.2777091648028035  0.6252504836012081
  0.0557230667939056  0.7778605115626273  0.1249233343251531
  0.3888848572070872  0.7778387980096683  0.1248131123016918
  0.2222096137917178  0.2777714735625269  0.1250812875719869
  0.7223168975942668  0.7779410661248080  0.1247495163987901
  0.5555100382536529  0.2775256436318547  0.1250677408046705
  0.8890064686469081  0.2777995984570675  0.1248728263793162
  0.0556623052295482  0.4444938786005355  0.6252285474385278
  0.2222669996345729  0.9444244827077107  0.6251514996032981
  0.5555533128804192  0.9444433231068726  0.6252531554989156
  0.3886916829986289  0.4445778478899997  0.6236261426497760
  0.8890064686469082  0.9445402035231739  0.6251271736206838
  0.0556623052295482  0.9445017599623390  0.1247714525614723
  0.7224892185793086  0.4445062867178993  0.6249292905693826
  0.3888848572070872  0.9443793925307586  0.1248131123016918
  0.2222215978584401  0.4445132103576943  0.1248777928241779
  0.2222669996345729  0.6111758502601947  0.1248485003967020
  0.5557187645678093  0.4445260489505690  0.1258433640770987
  0.7222741447416686  0.9445225841297833  0.1248426880602562
  0.8890990232940019  0.4444936425802822  0.1248637508598109
  0.0557230667939056  0.6111958885646143  0.6250766656748492
  0.2222215978584401  0.1110417208340798  0.6251222071758222
  0.7224892185793086  0.6113162651947481  0.6249292905693826
  0.5555425994176629  0.1109739209596257  0.6252790820410811
  0.8889685368964791  0.1111509351149099  0.6251343506622675
 
  0.00000000E+00  0.00000000E+00  0.00000000E+00
  0.00000000E+00  0.00000000E+00  0.00000000E+00
  0.00000000E+00  0.00000000E+00  0.00000000E+00
  0.00000000E+00  0.00000000E+00  0.00000000E+00
  0.00000000E+00  0.00000000E+00  0.00000000E+00
  0.00000000E+00  0.00000000E+00  0.00000000E+00
  0.00000000E+00  0.00000000E+00  0.00000000E+00
  0.00000000E+00  0.00000000E+00  0.00000000E+00
  0.00000000E+00  0.00000000E+00  0.00000000E+00
  0.00000000E+00  0.00000000E+00  0.00000000E+00
  0.00000000E+00  0.00000000E+00  0.00000000E+00
  0.00000000E+00  0.00000000E+00  0.00000000E+00
  0.00000000E+00  0.00000000E+00  0.00000000E+00
  0.00000000E+00  0.00000000E+00  0.00000000E+00
  0.00000000E+00  0.00000000E+00  0.00000000E+00
  0.00000000E+00  0.00000000E+00  0.00000000E+00
  0.00000000E+00  0.00000000E+00  0.00000000E+00
  0.00000000E+00  0.00000000E+00  0.00000000E+00
  0.00000000E+00  0.00000000E+00  0.00000000E+00
  0.00000000E+00  0.00000000E+00  0.00000000E+00
  0.00000000E+00  0.00000000E+00  0.00000000E+00
  0.00000000E+00  0.00000000E+00  0.00000000E+00
  0.00000000E+00  0.00000000E+00  0.00000000E+00
  0.00000000E+00  0.00000000E+00  0.00000000E+00
  0.00000000E+00  0.00000000E+00  0.00000000E+00
  0.00000000E+00  0.00000000E+00  0.00000000E+00
  0.00000000E+00  0.00000000E+00  0.00000000E+00
  0.00000000E+00  0.00000000E+00  0.00000000E+00
  0.00000000E+00  0.00000000E+00  0.00000000E+00
  0.00000000E+00  0.00000000E+00  0.00000000E+00
  0.00000000E+00  0.00000000E+00  0.00000000E+00
  0.00000000E+00  0.00000000E+00  0.00000000E+00
  0.00000000E+00  0.00000000E+00  0.00000000E+00
  0.00000000E+00  0.00000000E+00  0.00000000E+00
  0.00000000E+00  0.00000000E+00  0.00000000E+00
  0.00000000E+00  0.00000000E+00  0.00000000E+00
  0.00000000E+00  0.00000000E+00  0.00000000E+00
  0.00000000E+00  0.00000000E+00  0.00000000E+00
  0.00000000E+00  0.00000000E+00  0.00000000E+00
  0.00000000E+00  0.00000000E+00  0.00000000E+00
  0.00000000E+00  0.00000000E+00  0.00000000E+00
  0.00000000E+00  0.00000000E+00  0.00000000E+00
  0.00000000E+00  0.00000000E+00  0.00000000E+00
  0.00000000E+00  0.00000000E+00  0.00000000E+00
  0.00000000E+00  0.00000000E+00  0.00000000E+00
  0.00000000E+00  0.00000000E+00  0.00000000E+00
  0.00000000E+00  0.00000000E+00  0.00000000E+00
  0.00000000E+00  0.00000000E+00  0.00000000E+00
  0.00000000E+00  0.00000000E+00  0.00000000E+00
  0.00000000E+00  0.00000000E+00  0.00000000E+00
  0.00000000E+00  0.00000000E+00  0.00000000E+00
  0.00000000E+00  0.00000000E+00  0.00000000E+00
  0.00000000E+00  0.00000000E+00  0.00000000E+00
  0.00000000E+00  0.00000000E+00  0.00000000E+00
  0.00000000E+00  0.00000000E+00  0.00000000E+00
  0.00000000E+00  0.00000000E+00  0.00000000E+00
  0.00000000E+00  0.00000000E+00  0.00000000E+00
  0.00000000E+00  0.00000000E+00  0.00000000E+00
  0.00000000E+00  0.00000000E+00  0.00000000E+00
  0.00000000E+00  0.00000000E+00  0.00000000E+00
  0.00000000E+00  0.00000000E+00  0.00000000E+00
  0.00000000E+00  0.00000000E+00  0.00000000E+00
  0.00000000E+00  0.00000000E+00  0.00000000E+00
  0.00000000E+00  0.00000000E+00  0.00000000E+00
  0.00000000E+00  0.00000000E+00  0.00000000E+00
  0.00000000E+00  0.00000000E+00  0.00000000E+00
  0.00000000E+00  0.00000000E+00  0.00000000E+00
  0.00000000E+00  0.00000000E+00  0.00000000E+00
  0.00000000E+00  0.00000000E+00  0.00000000E+00
  0.00000000E+00  0.00000000E+00  0.00000000E+00
  0.00000000E+00  0.00000000E+00  0.00000000E+00
  0.00000000E+00  0.00000000E+00  0.00000000E+00
  0.00000000E+00  0.00000000E+00  0.00000000E+00
  0.00000000E+00  0.00000000E+00  0.00000000E+00
  0.00000000E+00  0.00000000E+00  0.00000000E+00
  0.00000000E+00  0.00000000E+00  0.00000000E+00
  0.00000000E+00  0.00000000E+00  0.00000000E+00
  0.00000000E+00  0.00000000E+00  0.00000000E+00
  0.00000000E+00  0.00000000E+00  0.00000000E+00
  0.00000000E+00  0.00000000E+00  0.00000000E+00
  0.00000000E+00  0.00000000E+00  0.00000000E+00
  0.00000000E+00  0.00000000E+00  0.00000000E+00
  0.00000000E+00  0.00000000E+00  0.00000000E+00
  0.00000000E+00  0.00000000E+00  0.00000000E+00
  0.00000000E+00  0.00000000E+00  0.00000000E+00
  0.00000000E+00  0.00000000E+00  0.00000000E+00
  0.00000000E+00  0.00000000E+00  0.00000000E+00
  0.00000000E+00  0.00000000E+00  0.00000000E+00
  0.00000000E+00  0.00000000E+00  0.00000000E+00
  0.00000000E+00  0.00000000E+00  0.00000000E+00
  0.00000000E+00  0.00000000E+00  0.00000000E+00
  0.00000000E+00  0.00000000E+00  0.00000000E+00
  0.00000000E+00  0.00000000E+00  0.00000000E+00
  0.00000000E+00  0.00000000E+00  0.00000000E+00
  0.00000000E+00  0.00000000E+00  0.00000000E+00
  0.00000000E+00  0.00000000E+00  0.00000000E+00
  0.00000000E+00  0.00000000E+00  0.00000000E+00
  0.00000000E+00  0.00000000E+00  0.00000000E+00
  0.00000000E+00  0.00000000E+00  0.00000000E+00
  0.00000000E+00  0.00000000E+00  0.00000000E+00
  0.00000000E+00  0.00000000E+00  0.00000000E+00
  0.00000000E+00  0.00000000E+00  0.00000000E+00
  0.00000000E+00  0.00000000E+00  0.00000000E+00
  0.00000000E+00  0.00000000E+00  0.00000000E+00
  0.00000000E+00  0.00000000E+00  0.00000000E+00
  0.00000000E+00  0.00000000E+00  0.00000000E+00
  0.00000000E+00  0.00000000E+00  0.00000000E+00
  0.00000000E+00  0.00000000E+00  0.00000000E+00
  0.00000000E+00  0.00000000E+00  0.00000000E+00
  0.00000000E+00  0.00000000E+00  0.00000000E+00
  0.00000000E+00  0.00000000E+00  0.00000000E+00
  0.00000000E+00  0.00000000E+00  0.00000000E+00
  0.00000000E+00  0.00000000E+00  0.00000000E+00
  0.00000000E+00  0.00000000E+00  0.00000000E+00
  0.00000000E+00  0.00000000E+00  0.00000000E+00
  0.00000000E+00  0.00000000E+00  0.00000000E+00
  0.00000000E+00  0.00000000E+00  0.00000000E+00
  0.00000000E+00  0.00000000E+00  0.00000000E+00
  0.00000000E+00  0.00000000E+00  0.00000000E+00
  0.00000000E+00  0.00000000E+00  0.00000000E+00
  0.00000000E+00  0.00000000E+00  0.00000000E+00
  0.00000000E+00  0.00000000E+00  0.00000000E+00
  0.00000000E+00  0.00000000E+00  0.00000000E+00
  0.00000000E+00  0.00000000E+00  0.00000000E+00
  0.00000000E+00  0.00000000E+00  0.00000000E+00
  0.00000000E+00  0.00000000E+00  0.00000000E+00
  0.00000000E+00  0.00000000E+00  0.00000000E+00
  0.00000000E+00  0.00000000E+00  0.00000000E+00
  0.00000000E+00  0.00000000E+00  0.00000000E+00
  0.00000000E+00  0.00000000E+00  0.00000000E+00
  0.00000000E+00  0.00000000E+00  0.00000000E+00
  0.00000000E+00  0.00000000E+00  0.00000000E+00
  0.00000000E+00  0.00000000E+00  0.00000000E+00
  0.00000000E+00  0.00000000E+00  0.00000000E+00
  0.00000000E+00  0.00000000E+00  0.00000000E+00
  0.00000000E+00  0.00000000E+00  0.00000000E+00
  0.00000000E+00  0.00000000E+00  0.00000000E+00
  0.00000000E+00  0.00000000E+00  0.00000000E+00
  0.00000000E+00  0.00000000E+00  0.00000000E+00
  0.00000000E+00  0.00000000E+00  0.00000000E+00
  0.00000000E+00  0.00000000E+00  0.00000000E+00
  0.00000000E+00  0.00000000E+00  0.00000000E+00
  0.00000000E+00  0.00000000E+00  0.00000000E+00
  0.00000000E+00  0.00000000E+00  0.00000000E+00
  0.00000000E+00  0.00000000E+00  0.00000000E+00
  0.00000000E+00  0.00000000E+00  0.00000000E+00
  0.00000000E+00  0.00000000E+00  0.00000000E+00
  0.00000000E+00  0.00000000E+00  0.00000000E+00
  0.00000000E+00  0.00000000E+00  0.00000000E+00
  0.00000000E+00  0.00000000E+00  0.00000000E+00
  0.00000000E+00  0.00000000E+00  0.00000000E+00
  0.00000000E+00  0.00000000E+00  0.00000000E+00
  0.00000000E+00  0.00000000E+00  0.00000000E+00
  0.00000000E+00  0.00000000E+00  0.00000000E+00
  0.00000000E+00  0.00000000E+00  0.00000000E+00
  0.00000000E+00  0.00000000E+00  0.00000000E+00
  0.00000000E+00  0.00000000E+00  0.00000000E+00
  0.00000000E+00  0.00000000E+00  0.00000000E+00
  0.00000000E+00  0.00000000E+00  0.00000000E+00
  0.00000000E+00  0.00000000E+00  0.00000000E+00
  0.00000000E+00  0.00000000E+00  0.00000000E+00
  0.00000000E+00  0.00000000E+00  0.00000000E+00
  0.00000000E+00  0.00000000E+00  0.00000000E+00
  0.00000000E+00  0.00000000E+00  0.00000000E+00
  0.00000000E+00  0.00000000E+00  0.00000000E+00
  0.00000000E+00  0.00000000E+00  0.00000000E+00
  0.00000000E+00  0.00000000E+00  0.00000000E+00
  0.00000000E+00  0.00000000E+00  0.00000000E+00
  0.00000000E+00  0.00000000E+00  0.00000000E+00
  0.00000000E+00  0.00000000E+00  0.00000000E+00
  0.00000000E+00  0.00000000E+00  0.00000000E+00
  0.00000000E+00  0.00000000E+00  0.00000000E+00
  0.00000000E+00  0.00000000E+00  0.00000000E+00
  0.00000000E+00  0.00000000E+00  0.00000000E+00
  0.00000000E+00  0.00000000E+00  0.00000000E+00
  0.00000000E+00  0.00000000E+00  0.00000000E+00
  0.00000000E+00  0.00000000E+00  0.00000000E+00
  0.00000000E+00  0.00000000E+00  0.00000000E+00
  0.00000000E+00  0.00000000E+00  0.00000000E+00
  0.00000000E+00  0.00000000E+00  0.00000000E+00
  0.00000000E+00  0.00000000E+00  0.00000000E+00
  0.00000000E+00  0.00000000E+00  0.00000000E+00
  0.00000000E+00  0.00000000E+00  0.00000000E+00
  0.00000000E+00  0.00000000E+00  0.00000000E+00
  0.00000000E+00  0.00000000E+00  0.00000000E+00
  0.00000000E+00  0.00000000E+00  0.00000000E+00
  0.00000000E+00  0.00000000E+00  0.00000000E+00
  0.00000000E+00  0.00000000E+00  0.00000000E+00
  0.00000000E+00  0.00000000E+00  0.00000000E+00
  0.00000000E+00  0.00000000E+00  0.00000000E+00
  0.00000000E+00  0.00000000E+00  0.00000000E+00
  0.00000000E+00  0.00000000E+00  0.00000000E+00
  0.00000000E+00  0.00000000E+00  0.00000000E+00
  0.00000000E+00  0.00000000E+00  0.00000000E+00
  0.00000000E+00  0.00000000E+00  0.00000000E+00
  0.00000000E+00  0.00000000E+00  0.00000000E+00
  0.00000000E+00  0.00000000E+00  0.00000000E+00
  0.00000000E+00  0.00000000E+00  0.00000000E+00
  0.00000000E+00  0.00000000E+00  0.00000000E+00
  0.00000000E+00  0.00000000E+00  0.00000000E+00
  0.00000000E+00  0.00000000E+00  0.00000000E+00
  0.00000000E+00  0.00000000E+00  0.00000000E+00
  0.00000000E+00  0.00000000E+00  0.00000000E+00
  0.00000000E+00  0.00000000E+00  0.00000000E+00
  0.00000000E+00  0.00000000E+00  0.00000000E+00
  0.00000000E+00  0.00000000E+00  0.00000000E+00
  0.00000000E+00  0.00000000E+00  0.00000000E+00
  0.00000000E+00  0.00000000E+00  0.00000000E+00
  0.00000000E+00  0.00000000E+00  0.00000000E+00
  0.00000000E+00  0.00000000E+00  0.00000000E+00
  0.00000000E+00  0.00000000E+00  0.00000000E+00
  0.00000000E+00  0.00000000E+00  0.00000000E+00
  0.00000000E+00  0.00000000E+00  0.00000000E+00
  0.00000000E+00  0.00000000E+00  0.00000000E+00
  0.00000000E+00  0.00000000E+00  0.00000000E+00
  0.00000000E+00  0.00000000E+00  0.00000000E+00
  0.00000000E+00  0.00000000E+00  0.00000000E+00
  0.00000000E+00  0.00000000E+00  0.00000000E+00
  0.00000000E+00  0.00000000E+00  0.00000000E+00
  0.00000000E+00  0.00000000E+00  0.00000000E+00
  0.00000000E+00  0.00000000E+00  0.00000000E+00
  0.00000000E+00  0.00000000E+00  0.00000000E+00
  0.00000000E+00  0.00000000E+00  0.00000000E+00
  0.00000000E+00  0.00000000E+00  0.00000000E+00
  0.00000000E+00  0.00000000E+00  0.00000000E+00
  0.00000000E+00  0.00000000E+00  0.00000000E+00
  0.00000000E+00  0.00000000E+00  0.00000000E+00
  0.00000000E+00  0.00000000E+00  0.00000000E+00
  0.00000000E+00  0.00000000E+00  0.00000000E+00
  0.00000000E+00  0.00000000E+00  0.00000000E+00
  0.00000000E+00  0.00000000E+00  0.00000000E+00
  0.00000000E+00  0.00000000E+00  0.00000000E+00
  0.00000000E+00  0.00000000E+00  0.00000000E+00
  0.00000000E+00  0.00000000E+00  0.00000000E+00
  0.00000000E+00  0.00000000E+00  0.00000000E+00
  0.00000000E+00  0.00000000E+00  0.00000000E+00
  0.00000000E+00  0.00000000E+00  0.00000000E+00
  0.00000000E+00  0.00000000E+00  0.00000000E+00
  0.00000000E+00  0.00000000E+00  0.00000000E+00
  0.00000000E+00  0.00000000E+00  0.00000000E+00
  0.00000000E+00  0.00000000E+00  0.00000000E+00
  0.00000000E+00  0.00000000E+00  0.00000000E+00
  0.00000000E+00  0.00000000E+00  0.00000000E+00
  0.00000000E+00  0.00000000E+00  0.00000000E+00
  0.00000000E+00  0.00000000E+00  0.00000000E+00
  0.00000000E+00  0.00000000E+00  0.00000000E+00
  0.00000000E+00  0.00000000E+00  0.00000000E+00
  0.00000000E+00  0.00000000E+00  0.00000000E+00