 P N B 
 1.0
 14.936314146199660   0.000000000000000   0.000000000000000
 -7.468157073099825  12.935227489513863   0.000000000000000
  0.000000000000001   0.000000000000001  13.341276283792837
 P N B 
   1 144 143
Cartesian
  3.734078536549917   5.030366245922021   5.002978606422314 
  1.244627322283626   0.718561700587876   1.646450755738478 
  4.978767494586916   7.186312638947092   1.643715251912339 
  6.223529750812702   0.718561700587889   1.646450755738491 
  9.957519510737615   7.186205487879361   1.649514137695241 
 11.202235609649751   0.718623749417456   1.649947801453243 
 -3.734078536549858   9.342108742426664   8.354880623169965 
  1.244671871266482   9.342196511626648   8.359506457103334 
  2.489318670007963   2.874460791940815   8.362241960927379 
  6.223485201828847   9.342196511626648   8.359506457103334 
  7.468176596457529   2.874483725855415   8.360976910816261 
 12.446920361223322   2.874504325332513   8.357296564541368 
 -1.244653500558702   9.342104607546878   1.649514137695241 
 -0.000019523355322   2.874483725855414   1.644980302029315 
  4.978838403092631   2.874460791940814   1.643715251912526 
  3.734078536550538   9.342131286058740   1.644980302029315 
  8.712810573651907   9.342104607546878   1.649514137695241 
  9.957550858081158   2.874504325332564   1.648660648295228 
 -4.978787473635372  11.498016131857659   8.356443075144625 
  0.000016762833320  11.497989668704943   8.356852416263353 
  1.244629711974185   5.030325306875299   8.362241960927379 
  6.223527361127981   5.030325306875299   8.362241960927379 
  4.978783507036052  11.497982336407860   8.357296564541368 
 11.202235609650046   5.030346889869523   8.356852416263353 
 -1.244779342996606   5.030340525555483   1.646450755738491 
 -2.489369599468539  11.498016131857659   1.649514137695241 
  2.489373566070104  11.497982336407860   1.648660648295228 
  3.734078536549917   5.030366245922020   1.643238040520370 
  7.468140310267103  11.497989668704943   1.649104796577553 
  8.712936416093916   5.030340525555483   1.646450755738491 
  0.000065934556236   7.186199426840783   8.359830239059008 
  1.244627322284500   0.718561700587967   8.359506457103334 
  4.978767494586917   7.186312638947093   8.362241960927379 
  6.223529750812665   0.718561700587955   8.359506457103334 
  9.957519510737615   7.186205487879362   8.356443075144625 
 -2.489362437639826   7.186205487879361   1.649514137695241 
 11.202235609649751   0.718623749417456   8.356009411386674 
  3.734078536552320   0.718699884081055   1.646126973784980 
  2.489389578517789   7.186312638947092   1.643715251912540 
  7.468091138543392   7.186199426840783   1.646126973784980 
  8.712845887595472   0.718612076027216   1.648660648295228 
  2.489389578517790   7.186312638947093   8.362241960927379 
 13.691625331703554   0.718612076027216   1.648660648295228 
 -1.244653500558701   9.342104607546878   8.356443075144625 
 -0.000019523355306   2.874483725855415   8.360976910816261 
  4.978838403092699   2.874460791940698   8.362241960927379 
  3.734078536551899   9.342131286056384   8.360976910816261 
  8.712810573651907   9.342104607546878   8.356443075144625 
  9.957550858081188   2.874504325332513   8.357296564541368 
 -3.734078536549859   9.342108742426664   1.651076589674782 
  1.244671871266481   9.342196511626648   1.646450755738464 
  2.489318670007962   2.874460791940814   1.643715251912540 
  6.223485201828846   9.342196511626648   1.646450755738491 
  7.468176596457528   2.874483725855414   1.644980302029315 
 12.446920361223322   2.874504325332512   1.648660648295228 
 -1.244779342996606   5.030340525555483   8.359506457103334 
 -2.489369599468538  11.498016131857659   8.356443075144625 
  2.489373566070105  11.497982336407860   8.357296564541368 
  3.734078536549917   5.030366245922021   8.362719172321549 
  7.468140310267104  11.497989668704943   8.356852416263353 
 -4.978787473635373  11.498016131857659   1.649514137695241 
  8.712936416093916   5.030340525555483   8.359506457103334 
  0.000016762833320  11.497989668704943   1.649104796577540 
  1.244629711974185   5.030325306875298   1.643715251912540 
  0.000065934556235   7.186199426840783   1.646126973784993 
  6.223527361127980   5.030325306875298   1.643715251912540 
  4.978783507036051  11.497982336407860   1.648660648295228 
 11.202235609650046   5.030346889869522   1.649104796577540 
 -2.489362437639826   7.186205487879362   8.356443075144625 
  3.734078536552321   0.718699884081055   8.359830239059008 
  7.468091138543393   7.186199426840783   8.359830239059008 
  8.712845887595472   0.718612076027216   8.357296564541368 
 13.691625331703554   0.718612076027216   8.357296564541368 
 -0.005817199117808   1.430899112189678   5.002978606422314 
  3.734078536548588   7.917290051776845   5.002978606422314 
  4.991701207616271   1.395337767478908   5.002978606422314 
  8.726421139932654   7.912696591871484   5.002978606422314 
  9.959960183197339   1.435851801287686   5.002978606422314 
 -4.978812835162318  10.060756424801315  11.673616748318732 
  0.000013127885756  10.060744513162966  11.673616748318732 
  1.244813987315920   3.593188688336106  11.673616748318732 
  4.978750778267472  10.060692709827871  11.673616748318732 
  6.223343085787686   3.593188688336171  11.673616748318732 
 11.202235609652226   3.593141912712602  11.673616748318732 
 -2.491859988300688  10.059303955646302   5.002978606422314 
 -1.253099309181793   3.591255098192232   5.002978606422314 
  3.734078536551485   3.447067790726362   5.002978606422314 
  2.486796426483746  10.068944527382587   5.002978606422314 
  7.476002640763347  10.069946096275428   5.002978606422314 
  8.721256382284629   3.591255098192232   5.002978606422314 
 -6.223481202290878  12.216609098520943  11.673616748318732 
 -1.244675870807044  12.216609098520943  11.673616748318732 
  0.000121325061559   5.748962388865545  11.673616748318732 
  4.978741759882286   5.748972892963336  11.673616748318732 
  3.734078536551348  12.216564682569848  11.673616748318732 
  9.957546610956101   5.748972615597457  11.673616748318732 
 -2.501287690361154   5.751177654030327   5.002978606422314 
 -3.734078536552254  12.200933043536338   5.002978606422314 
  1.246444465949337  12.217615038635010   5.002978606422314 
  2.362901852580180   5.822015473518493   5.002978606422314 
  6.221712607132684  12.217615038635010   5.002978606422314 
  7.510916877893422   5.758747303626807   5.002978606422314 
 -1.244612844550623   7.904815055013369  11.673616748318732 
  0.000024150336504   1.437285233254489  11.673616748318732 
  3.734078536551166   7.904721361093891  11.673616748318732 
  4.978734627442129   1.437366372659559  11.673616748318732 
  8.712769917649638   7.904815055013369  11.673616748318732 
 -3.734078536546647   7.907718315974765   5.002978606422314 
  9.957508939324081   1.437267027598555  11.673616748318732 
  2.476455865482964   1.395337767478908   5.002978606422314 
  1.214862866271567   7.937013666658396   5.002978606422314 
  6.253294206830436   7.937013666658396   5.002978606422314 
  7.473974272217550   1.430899112189678   5.002978606422314 
  1.244777415954781   7.904769976243897  11.673616748318732 
 12.444511036099851   1.435851801287686   5.002978606422314 
 -2.489344237939310  10.060756424801315  11.673616748318732 
 -1.244648091383363   3.593120794683964  11.673616748318732 
  3.734078536550089   3.593152951839096  11.673616748318732 
  2.489406294828991  10.060692709827871  11.673616748318732 
  7.468143945212409  10.060744513162966  11.673616748318732 
  8.712805164479043   3.593120794683964  11.673616748318732 
 -4.976297084795535  10.059303955646302   5.002978606422314 
 -0.007845567666778  10.069946096275428   5.002978606422314 
  1.233929181884529   3.586904342994700   5.002978606422314 
  4.981360646614809  10.068944527382587   5.002978606422314 
  6.234227891211481   3.586904342994700   5.002978606422314 
 11.202235609642434   3.591096150022568   5.002978606422314 
 -2.489389537854385   5.748972615597457  11.673616748318732 
 -3.734078536549573  12.216696117255196  11.673616748318732 
  1.244672783495042  12.216592157281518  11.673616748318732 
  2.489415313217640   5.748972892963336  11.673616748318732 
  6.223484289607054  12.216592157281518  11.673616748318732 
 -6.227520659245920  12.205202476977004   5.002978606422314 
  7.468035748029838   5.748962388865545  11.673616748318732 
 -1.240636413853900  12.205202476977004   5.002978606422314 
 -0.042759804796290   5.758747303626781   5.002978606422314 
 -1.258264066834892   7.912696591871484   5.002978606422314 
  5.105255220519759   5.822015473518493   5.002978606422314 
  3.734078536549062  12.219395135193162   5.002978606422314 
  9.969444763461199   5.751177654030327   5.002978606422314 
 -3.734078536549135   7.904813377679655  11.673616748318732 
  2.489422445654987   1.437366372659559  11.673616748318732 
  6.223379657135918   7.904769976243897  11.673616748318732 
  7.468132922760431   1.437285233254489  11.673616748318732 
 12.446962279976320   1.437267027598555  11.673616748318732 
  1.227820746834872   0.693844985068710   5.002978606422314 
  5.015192415495565   7.263322291499639   5.002978606422314 
  6.240336326262524   0.693844985068710   5.002978606422314 
  9.965009823640003   7.189355906056881   5.002978606422314 
 11.202235609649751   0.718623749417456   5.002978606422314 
 -3.734078536549858   9.342108742426666  11.673616748318732 
  1.244623184532623   9.342434328239410  11.673616748318732 
  2.489032349174126   2.874209006801027  11.673616748318732 
  6.223533888569874   9.342434328239410  11.673616748318732 
  7.468488351150203   2.874303734198524  11.673616748318732 
 12.446702782479543   2.874401724938544  11.673616748318732 
 -1.251126999176867   9.347016199711655   5.002978606422314 
 -0.016796474641085   2.864797548515019   5.002978606422314 
  5.027318258083364   2.804411058826191   5.002978606422314 
  3.734078536552488   9.361503640731396   5.002978606422314 
  8.719284072278661   9.347016199711655   5.002978606422314 
  9.963397639798423   2.870416429518440   5.002978606422314 
 -4.978735884324808  11.497909952123637  11.673616748318732 
  0.000110295513463  11.498043669821545  11.673616748318732 
  1.244268499229571   5.030203238330054  11.673616748318732 
  6.223888573863182   5.030203238330054  11.673616748318732 
  4.978803441851058  11.498222065324269  11.673616748318732 
 11.202235609651293   5.030238887634136  11.673616748318732 
 -1.274587934259068   5.028143962024894   5.002978606422314 
 -2.488352785185594  11.489954121513124   5.002978606422314 
  2.489990396834035  11.505089745815587   5.002978606422314 
  7.465164009833704  11.499708036561355   5.002978606422314 
  8.742745007359888   5.028143962024894   5.002978606422314 
 -0.000335231448737   7.186431040141641  11.673616748318732 
  1.244445710420597   0.718400628325724  11.673616748318732 
  4.978842386488313   7.186686492633265  11.673616748318732 
  6.223711362678167   0.718400628325711  11.673616748318732 
  9.957585670428550   7.186303255401296  11.673616748318732 
 -2.496852750541378   7.189355906056881   5.002978606422314 
 11.202235609649751   0.718623749417457  11.673616748318732 
  3.734078536548392   0.688904021853764   5.002978606422314 
  2.452964657606721   7.263322291499639   5.002978606422314 
  7.493895112168715   7.201097357952696   5.002978606422314 
  8.719309500080431   0.715592562433356   5.002978606422314 
  2.489314686606340   7.186686492633265  11.673616748318732 
 13.685161719220208   0.715592562433356   5.002978606422314 
 -1.244771249561613   9.342113019759552  11.673616748318732 
 -0.000331278048518   2.874303734198524  11.673616748318732 
  4.979124723925765   2.874209006801027  11.673616748318732 
  3.734078536549351   9.342491269371115  11.673616748318732 
  8.712928322654697   9.342113019759552  11.673616748318732 
  9.957768436815691   2.874401724938544  11.673616748318732 
 -3.734078536549858   9.342108742426664   5.002978606422314 
  1.231669855453125   9.369109790677349   5.002978606422314 
  2.440838815018388   2.804411058826152   5.002978606422314 
  6.236487217644534   9.369109790677349   5.002978606422314 
  7.484953547739469   2.864797548515019   5.002978606422314 
 12.441073579502412   2.870416429518440   5.002978606422314 
 -1.245009641598699   5.030263781197439  11.673616748318732 
 -2.489421188780178  11.497909952123637  11.673616748318732 
  2.489353631241523  11.498222065324269  11.673616748318732 
  3.734078536549918   5.030366245922021  11.673616748318732 
  7.468046777589471  11.498043669821545  11.673616748318732 
 -4.979804287911433  11.489954121513124   5.002978606422314 
  8.713166714696113   5.030263781197439  11.673616748318732 
  0.002993063272184  11.499708036561355   5.002978606422314 
  1.159724936074370   5.023365387438851   5.002978606422314 
 -0.025738039063172   7.201097357952696   5.002978606422314 
  6.308432137028213   5.023365387438851   5.002978606422314 
  4.978166676269820  11.505089745815587   5.002978606422314 
 11.202235609652771   5.026910154151979   5.002978606422314 
 -2.489428597332390   7.186303255401296  11.673616748318732 
  3.734078536549341   0.718236657484191  11.673616748318732 
  7.468492304548560   7.186431040141641  11.673616748318732 
  8.713043531510124   0.718474947505697  11.673616748318732 
 13.691427687783511   0.718474947505697  11.673616748318732 
 -0.000324851615430   1.436531630013992   1.645415900859901 
  3.734078536547596   7.906347368592811   1.640319108744008 
  4.979378589522034   1.435637365436844   1.642997066954661 
  8.713547094629842   7.905263758356581   1.647598985432086 
  9.957936949910090   1.437019915571532   1.648568996323051 
 -4.978435334600724  10.060538474752027   8.356183703170863 
 -0.000205087182951  10.060962621371354   8.358368488070781 
  1.243405823515208   3.592375684586711   8.365638104100407 
  4.979228916840902  10.061371756008642   8.360541311984099 
  6.224751249584926   3.592375684586711   8.365638104099659 
 11.202235609649932   3.593045811018858   8.357612653472763 
 -2.489721738503651  10.060538474752027   1.649773509675711 
 -1.245475231908219   3.593195351744826   1.645415900859915 
  3.734078536549633   3.591419665229381   1.635258899969388 
  2.488928156258144  10.061371756008642   1.645415900859915 
  7.468362160287001  10.060962621371354   1.647588724769271 
  8.713632305008575   3.593195351744826   1.645415900859608 
 -6.223560982009744  12.216311064618672   8.358368488070781 
 -1.244596091089223  12.216311064618672   8.358368488070781 
 -0.001698020154492   5.749269204956642   8.362960145886031 
  4.980242830119036   5.749839536268587   8.370698312876028 
  3.734078536550100  12.217058906626129   8.357388216520603 
  9.957844605745580   5.749052541286251   8.358368488070781 
 -2.489687532644894   5.749052541286250   1.647588724769271 
 -3.734078536550097  12.215798710575493   1.647598985432086 
  1.244756010002175  12.216640208130372   1.648344559371477 
  2.487914242980918   5.749839536268586   1.635258899969414 
  6.223401063095486  12.216640208130372   1.648344559371477 
  7.469855093250759   5.749269204956641   1.642997066954661 
 -1.245390021535233   7.905263758356582   8.358358227410966 
 -0.000324851615430   1.436531630013993   8.360541311984099 
  3.734078536547596   7.906347368592812   8.365638104099659 
  4.979378589522035   1.435637365436844   8.362960145886031 
  8.713547094629842   7.905263758356582   8.358358227410966 
 -3.734078536551988   7.905249277787875   1.649773509675711 
  9.957936949910090   1.437019915571533   8.357388216520603 
  2.488778483577185   1.435637365436844   1.642997066954661 
  1.243602032817028   7.906192167374673   1.642997066954661 
  6.224555040277431   7.906192167374673   1.642997066954661 
  7.468481924718613   1.436531630013979   1.645415900859901 
  1.243602032817029   7.906192167374674   8.362960145886031 
 12.446534269387772   1.437019915571532   1.648568996323038 
 -2.489721738503651  10.060538474752027   8.356183703170863 
 -1.245475231908218   3.593195351744827   8.360541311984099 
  3.734078536549633   3.591419665229381   8.370698312876028 
  2.488928156258144  10.061371756008642   8.360541311984099 
  7.468362160287002  10.060962621371354   8.358368488070781 
  8.713632305008575   3.593195351744827   8.360541311984099 
 -4.978435334600725  10.060538474752027   1.649773509675711 
 -0.000205087182952  10.060962621371354   1.647588724769271 
  1.243405823515207   3.592375684586710   1.640319108744008 
  4.979228916840901  10.061371756008642   1.645415900859915 
  6.224751249584925   3.592375684586710   1.640319108744008 
 11.202235609649932   3.593045811018857   1.648344559371477 
 -2.489687532644894   5.749052541286251   8.358368488070781 
 -3.734078536550096  12.215798710575493   8.358358227410966 
  1.244756010002175  12.216640208130372   8.357612653472763 
  2.487914242980919   5.749839536268587   8.370698312876028 
  6.223401063095487  12.216640208130372   8.357612653472763 
 -6.223560982009745  12.216311064618672   1.647588724769271 
  7.469855093250760   5.749269204956642   8.362960145886031 
 -1.244596091089224  12.216311064618672   1.647588724769271 
 -0.001698020154493   5.749269204956641   1.642997066954661 
 -1.245390021535248   7.905263758356581   1.647598985432086 
  4.980242830119035   5.749839536268586   1.635258899969388 
  3.734078536550100  12.217058906626129   1.648568996323038 
  9.957844605745580   5.749052541286250   1.647588724769271 
 -3.734078536551988   7.905249277787876   8.356183703170863 
  2.488778483577186   1.435637365436844   8.362960145886031 
  6.224555040277432   7.906192167374674   8.362960145886031 
  7.468481924718607   1.436531630013993   8.360541311984099 
 12.446534269387772   1.437019915571533   8.357388216520603 
Generated by cif2cell 2.0.0.  :  Failed to get author information, No journal information. Species order: P N B 
 1.0
 14.936314146199660   0.000000000000000   0.000000000000000
 -7.468157073099825  12.935227489513863   0.000000000000000
  0.000000000000001   0.000000000000001  13.341276283792837
 P N B 
   1 144 143
Cartesian
  3.734078536549917   5.030366245922021   5.002978606422314 
  1.244627322283626   0.718561700587876   1.646450755738478 
  4.978767494586916   7.186312638947092   1.643715251912339 
  6.223529750812702   0.718561700587889   1.646450755738491 
  9.957519510737615   7.186205487879361   1.649514137695241 
 11.202235609649751   0.718623749417456   1.649947801453243 
 -3.734078536549858   9.342108742426664   8.354880623169965 
  1.244671871266482   9.342196511626648   8.359506457103334 
  2.489318670007963   2.874460791940815   8.362241960927379 
  6.223485201828847   9.342196511626648   8.359506457103334 
  7.468176596457529   2.874483725855415   8.360976910816261 
 12.446920361223322   2.874504325332513   8.357296564541368 
 -1.244653500558702   9.342104607546878   1.649514137695241 
 -0.000019523355322   2.874483725855414   1.644980302029315 
  4.978838403092631   2.874460791940814   1.643715251912526 
  3.734078536550538   9.342131286058740   1.644980302029315 
  8.712810573651907   9.342104607546878   1.649514137695241 
  9.957550858081158   2.874504325332564   1.648660648295228 
 -4.978787473635372  11.498016131857659   8.356443075144625 
  0.000016762833320  11.497989668704943   8.356852416263353 
  1.244629711974185   5.030325306875299   8.362241960927379 
  6.223527361127981   5.030325306875299   8.362241960927379 
  4.978783507036052  11.497982336407860   8.357296564541368 
 11.202235609650046   5.030346889869523   8.356852416263353 
 -1.244779342996606   5.030340525555483   1.646450755738491 
 -2.489369599468539  11.498016131857659   1.649514137695241 
  2.489373566070104  11.497982336407860   1.648660648295228 
  3.734078536549917   5.030366245922020   1.643238040520370 
  7.468140310267103  11.497989668704943   1.649104796577553 
  8.712936416093916   5.030340525555483   1.646450755738491 
  0.000065934556236   7.186199426840783   8.359830239059008 
  1.244627322284500   0.718561700587967   8.359506457103334 
  4.978767494586917   7.186312638947093   8.362241960927379 
  6.223529750812665   0.718561700587955   8.359506457103334 
  9.957519510737615   7.186205487879362   8.356443075144625 
 -2.489362437639826   7.186205487879361   1.649514137695241 
 11.202235609649751   0.718623749417456   8.356009411386674 
  3.734078536552320   0.718699884081055   1.646126973784980 
  2.489389578517789   7.186312638947092   1.643715251912540 
  7.468091138543392   7.186199426840783   1.646126973784980 
  8.712845887595472   0.718612076027216   1.648660648295228 
  2.489389578517790   7.186312638947093   8.362241960927379 
 13.691625331703554   0.718612076027216   1.648660648295228 
 -1.244653500558701   9.342104607546878   8.356443075144625 
 -0.000019523355306   2.874483725855415   8.360976910816261 
  4.978838403092699   2.874460791940698   8.362241960927379 
  3.734078536551899   9.342131286056384   8.360976910816261 
  8.712810573651907   9.342104607546878   8.356443075144625 
  9.957550858081188   2.874504325332513   8.357296564541368 
 -3.734078536549859   9.342108742426664   1.651076589674782 
  1.244671871266481   9.342196511626648   1.646450755738464 
  2.489318670007962   2.874460791940814   1.643715251912540 
  6.223485201828846   9.342196511626648   1.646450755738491 
  7.468176596457528   2.874483725855414   1.644980302029315 
 12.446920361223322   2.874504325332512   1.648660648295228 
 -1.244779342996606   5.030340525555483   8.359506457103334 
 -2.489369599468538  11.498016131857659   8.356443075144625 
  2.489373566070105  11.497982336407860   8.357296564541368 
  3.734078536549917   5.030366245922021   8.362719172321549 
  7.468140310267104  11.497989668704943   8.356852416263353 
 -4.978787473635373  11.498016131857659   1.649514137695241 
  8.712936416093916   5.030340525555483   8.359506457103334 
  0.000016762833320  11.497989668704943   1.649104796577540 
  1.244629711974185   5.030325306875298   1.643715251912540 
  0.000065934556235   7.186199426840783   1.646126973784993 
  6.223527361127980   5.030325306875298   1.643715251912540 
  4.978783507036051  11.497982336407860   1.648660648295228 
 11.202235609650046   5.030346889869522   1.649104796577540 
 -2.489362437639826   7.186205487879362   8.356443075144625 
  3.734078536552321   0.718699884081055   8.359830239059008 
  7.468091138543393   7.186199426840783   8.359830239059008 
  8.712845887595472   0.718612076027216   8.357296564541368 
 13.691625331703554   0.718612076027216   8.357296564541368 
 -0.005817199117808   1.430899112189678   5.002978606422314 
  3.734078536548588   7.917290051776845   5.002978606422314 
  4.991701207616271   1.395337767478908   5.002978606422314 
  8.726421139932654   7.912696591871484   5.002978606422314 
  9.959960183197339   1.435851801287686   5.002978606422314 
 -4.978812835162318  10.060756424801315  11.673616748318732 
  0.000013127885756  10.060744513162966  11.673616748318732 
  1.244813987315920   3.593188688336106  11.673616748318732 
  4.978750778267472  10.060692709827871  11.673616748318732 
  6.223343085787686   3.593188688336171  11.673616748318732 
 11.202235609652226   3.593141912712602  11.673616748318732 
 -2.491859988300688  10.059303955646302   5.002978606422314 
 -1.253099309181793   3.591255098192232   5.002978606422314 
  3.734078536551485   3.447067790726362   5.002978606422314 
  2.486796426483746  10.068944527382587   5.002978606422314 
  7.476002640763347  10.069946096275428   5.002978606422314 
  8.721256382284629   3.591255098192232   5.002978606422314 
 -6.223481202290878  12.216609098520943  11.673616748318732 
 -1.244675870807044  12.216609098520943  11.673616748318732 
  0.000121325061559   5.748962388865545  11.673616748318732 
  4.978741759882286   5.748972892963336  11.673616748318732 
  3.734078536551348  12.216564682569848  11.673616748318732 
  9.957546610956101   5.748972615597457  11.673616748318732 
 -2.501287690361154   5.751177654030327   5.002978606422314 
 -3.734078536552254  12.200933043536338   5.002978606422314 
  1.246444465949337  12.217615038635010   5.002978606422314 
  2.362901852580180   5.822015473518493   5.002978606422314 
  6.221712607132684  12.217615038635010   5.002978606422314 
  7.510916877893422   5.758747303626807   5.002978606422314 
 -1.244612844550623   7.904815055013369  11.673616748318732 
  0.000024150336504   1.437285233254489  11.673616748318732 
  3.734078536551166   7.904721361093891  11.673616748318732 
  4.978734627442129   1.437366372659559  11.673616748318732 
  8.712769917649638   7.904815055013369  11.673616748318732 
 -3.734078536546647   7.907718315974765   5.002978606422314 
  9.957508939324081   1.437267027598555  11.673616748318732 
  2.476455865482964   1.395337767478908   5.002978606422314 
  1.214862866271567   7.937013666658396   5.002978606422314 
  6.253294206830436   7.937013666658396   5.002978606422314 
  7.473974272217550   1.430899112189678   5.002978606422314 
  1.244777415954781   7.904769976243897  11.673616748318732 
 12.444511036099851   1.435851801287686   5.002978606422314 
 -2.489344237939310  10.060756424801315  11.673616748318732 
 -1.244648091383363   3.593120794683964  11.673616748318732 
  3.734078536550089   3.593152951839096  11.673616748318732 
  2.489406294828991  10.060692709827871  11.673616748318732 
  7.468143945212409  10.060744513162966  11.673616748318732 
  8.712805164479043   3.593120794683964  11.673616748318732 
 -4.976297084795535  10.059303955646302   5.002978606422314 
 -0.007845567666778  10.069946096275428   5.002978606422314 
  1.233929181884529   3.586904342994700   5.002978606422314 
  4.981360646614809  10.068944527382587   5.002978606422314 
  6.234227891211481   3.586904342994700   5.002978606422314 
 11.202235609642434   3.591096150022568   5.002978606422314 
 -2.489389537854385   5.748972615597457  11.673616748318732 
 -3.734078536549573  12.216696117255196  11.673616748318732 
  1.244672783495042  12.216592157281518  11.673616748318732 
  2.489415313217640   5.748972892963336  11.673616748318732 
  6.223484289607054  12.216592157281518  11.673616748318732 
 -6.227520659245920  12.205202476977004   5.002978606422314 
  7.468035748029838   5.748962388865545  11.673616748318732 
 -1.240636413853900  12.205202476977004   5.002978606422314 
 -0.042759804796290   5.758747303626781   5.002978606422314 
 -1.258264066834892   7.912696591871484   5.002978606422314 
  5.105255220519759   5.822015473518493   5.002978606422314 
  3.734078536549062  12.219395135193162   5.002978606422314 
  9.969444763461199   5.751177654030327   5.002978606422314 
 -3.734078536549135   7.904813377679655  11.673616748318732 
  2.489422445654987   1.437366372659559  11.673616748318732 
  6.223379657135918   7.904769976243897  11.673616748318732 
  7.468132922760431   1.437285233254489  11.673616748318732 
 12.446962279976320   1.437267027598555  11.673616748318732 
  1.227820746834872   0.693844985068710   5.002978606422314 
  5.015192415495565   7.263322291499639   5.002978606422314 
  6.240336326262524   0.693844985068710   5.002978606422314 
  9.965009823640003   7.189355906056881   5.002978606422314 
 11.202235609649751   0.718623749417456   5.002978606422314 
 -3.734078536549858   9.342108742426666  11.673616748318732 
  1.244623184532623   9.342434328239410  11.673616748318732 
  2.489032349174126   2.874209006801027  11.673616748318732 
  6.223533888569874   9.342434328239410  11.673616748318732 
  7.468488351150203   2.874303734198524  11.673616748318732 
 12.446702782479543   2.874401724938544  11.673616748318732 
 -1.251126999176867   9.347016199711655   5.002978606422314 
 -0.016796474641085   2.864797548515019   5.002978606422314 
  5.027318258083364   2.804411058826191   5.002978606422314 
  3.734078536552488   9.361503640731396   5.002978606422314 
  8.719284072278661   9.347016199711655   5.002978606422314 
  9.963397639798423   2.870416429518440   5.002978606422314 
 -4.978735884324808  11.497909952123637  11.673616748318732 
  0.000110295513463  11.498043669821545  11.673616748318732 
  1.244268499229571   5.030203238330054  11.673616748318732 
  6.223888573863182   5.030203238330054  11.673616748318732 
  4.978803441851058  11.498222065324269  11.673616748318732 
 11.202235609651293   5.030238887634136  11.673616748318732 
 -1.274587934259068   5.028143962024894   5.002978606422314 
 -2.488352785185594  11.489954121513124   5.002978606422314 
  2.489990396834035  11.505089745815587   5.002978606422314 
  7.465164009833704  11.499708036561355   5.002978606422314 
  8.742745007359888   5.028143962024894   5.002978606422314 
 -0.000335231448737   7.186431040141641  11.673616748318732 
  1.244445710420597   0.718400628325724  11.673616748318732 
  4.978842386488313   7.186686492633265  11.673616748318732 
  6.223711362678167   0.718400628325711  11.673616748318732 
  9.957585670428550   7.186303255401296  11.673616748318732 
 -2.496852750541378   7.189355906056881   5.002978606422314 
 11.202235609649751   0.718623749417457  11.673616748318732 
  3.734078536548392   0.688904021853764   5.002978606422314 
  2.452964657606721   7.263322291499639   5.002978606422314 
  7.493895112168715   7.201097357952696   5.002978606422314 
  8.719309500080431   0.715592562433356   5.002978606422314 
  2.489314686606340   7.186686492633265  11.673616748318732 
 13.685161719220208   0.715592562433356   5.002978606422314 
 -1.244771249561613   9.342113019759552  11.673616748318732 
 -0.000331278048518   2.874303734198524  11.673616748318732 
  4.979124723925765   2.874209006801027  11.673616748318732 
  3.734078536549351   9.342491269371115  11.673616748318732 
  8.712928322654697   9.342113019759552  11.673616748318732 
  9.957768436815691   2.874401724938544  11.673616748318732 
 -3.734078536549858   9.342108742426664   5.002978606422314 
  1.231669855453125   9.369109790677349   5.002978606422314 