B C N                                   
   1.0000000000000000     
     8.7639499999999995  -15.1796066749929999    0.0000000000000000
     8.7639499999999995   15.1796066749929999    0.0000000000000000
     0.0000000000000000    0.0000000000000000   15.0000000000000000
   B    C    N 
    48     1    48
Selective dynamics
Direct
  0.9053521852170163  0.9529392518074823  0.1110020100124071   T   T   T
  0.9045048802011457  0.0954968211288541  0.1110644359133843   T   T   T
  0.9041970362630902  0.2383571980574738  0.1110807944002288   T   T   T
  0.9042002037941580  0.3811883055589935  0.1109864878953263   T   T   T
  0.9047736568782353  0.5240206853939968  0.1110117274598011   T   T   T
  0.9061489339437778  0.6672041783111557  0.1111287507176810   T   T   T
  0.9064757224666943  0.8106003572529606  0.1110809340938028   T   T   T
  0.0479452705156462  0.9520564958613505  0.1110780024031588   T   T   T
  0.0470623739255236  0.0946494575329833  0.1110020084114122   T   T   T
  0.0468807431239212  0.2377612493078219  0.1109788246239653   T   T   T
  0.0471687141562770  0.3807029212568368  0.1109780092178109   T   T   T
  0.0478631026462012  0.5235121936509436  0.1109895658325195   T   T   T
  0.0484405273681528  0.6663949305413808  0.1111003622591813   T   T   T
  0.0485473667169535  0.8093549876982932  0.1111657838532391   T   T   T
  0.1906467596557051  0.9514543665990509  0.1111657848472387   T   T   T
  0.1894014478120361  0.0935260663073056  0.1110809320748027   T   T   T
  0.1888263213182265  0.2363040460288202  0.1109449488990800   T   T   T
  0.1897702988499018  0.3800501366408411  0.1109279107230215   T   T   T
  0.1910918598868799  0.5230869526592687  0.1109827202396598   T   T   T
  0.1912319843181986  0.6659678866363616  0.1110559136248085   T   T   T
  0.1911612117789275  0.8088404575170773  0.1111107684611183   T   T   T
  0.3336067458866187  0.9515611431428441  0.1111003649761760   T   T   T
  0.3327976863458388  0.0938528670452191  0.1111287624556836   T   T   T
  0.3304707977621228  0.2343824940609543  0.1110169312067800   T   T   T
  0.3310124469984640  0.3774926330233863  0.1109459439479644   T   T   T
  0.3351805411540572  0.5232969690711826  0.1110049870733928   T   T   T
  0.3342253185978035  0.6657765974801951  0.1110360089118318   T   T   T
  0.3340338761736396  0.8087698066268008  0.1110559115818134   T   T   T
  0.4764894464230533  0.9521384852327969  0.1109895817035147   T   T   T
  0.4759811131630042  0.0952279911537619  0.1110117546528045   T   T   T
  0.4749857385088119  0.2380318278788914  0.1110344999655674   T   T   T
  0.4696347778327066  0.3778395878589437  0.1110694527365415   T   T   T
  0.4767050771238173  0.6648196470079407  0.1110050055253990   T   T   T
  0.4769149047837269  0.8089097135411215  0.1109827258486557   T   T   T
  0.6192988348471684  0.9528330343997254  0.1109780199478162   T   T   T
  0.6188134284920107  0.0958013622278422  0.1109864986453263   T   T   T
  0.6182806909043521  0.2390075483126121  0.1110439030423094   T   T   T
  0.6175062441886295  0.3824957985743708  0.1110416912179016   T   T   T
  0.6221637131170539  0.5303671552562890  0.1110694653935388   T   T   T
  0.6225087787536129  0.6689884879365382  0.1109459584109694   T   T   T
  0.6199513844351604  0.8102311117761029  0.1109279142030254   T   T   T
  0.7622403844241757  0.9531208627360781  0.1109788275899625   T   T   T
  0.7616446137475252  0.0958046975359059  0.1110807993092264   T   T   T
  0.7612756427199202  0.2387259209030817  0.1110904523703674   T   T   T
  0.7609941415233925  0.3817209128256461  0.1110438928243069   T   T   T
  0.7619705931401135  0.5250161642891928  0.1110344903355674   T   T   T
  0.7656196226570468  0.6695311103318768  0.1110169266177824   T   T   T
  0.7636974396231797  0.8111751512287716  0.1109449519890812   T   T   T
  0.5203804286373033  0.4796238634006963  0.1109831740452886   T   T   T
  0.9531675821603262  0.9053419283176747  0.1110205638132780   T   T   T
  0.9521853778440804  0.0478162768319174  0.1110095692334271   T   T   T
  0.9517491701016206  0.1905966990085198  0.1110455491747454   T   T   T
  0.9517955554879390  0.3335105490159631  0.1109894070955970   T   T   T
  0.9522976634105887  0.4763091038079572  0.1109477934984178   T   T   T
  0.9531251490272479  0.6191475527648312  0.1110713698973829   T   T   T
  0.9535083410711728  0.7622832102553222  0.1111395690871576   T   T   T
  0.0956424860563238  0.9043592687106816  0.1111383610873220   T   T   T
  0.0946598463413230  0.0468342163746768  0.1110205668692796   T   T   T
  0.0940460429104013  0.1895865874511541  0.1109441036708815   T   T   T
  0.0944886909916672  0.3328738838580113  0.1109362918337556   T   T   T
  0.0954881267494824  0.4758474304890120  0.1109557171778491   T   T   T
  0.0958726274623300  0.6186640679192218  0.1110341847687206   T   T   T
  0.0959925783771408  0.7615478282426393  0.1111195329186814   T   T   T
  0.2384538583273625  0.9040090933298632  0.1111195293656764   T   T   T
  0.2377186324356765  0.0464934763388220  0.1111395684421554   T   T   T
  0.2360297609251632  0.1881287906114708  0.1109897504878305   T   T   T
  0.2358257711839359  0.3310934932318123  0.1109009279996910   T   T   T
  0.2384908371011835  0.4751670752688996  0.1109487291566578   T   T   T
  0.2388349987753539  0.6183217778233522  0.1110038029012758   T   T   T
  0.2387760493527106  0.7612256991812865  0.1110595471133088   T   T   T
  0.3813376051517756  0.9041291485356714  0.1110341930027172   T   T   T
  0.3808542461511719  0.0468765251047459  0.1110713771263808   T   T   T
  0.3799115706417284  0.1889953947232530  0.1110559966879562   T   T   T
  0.3768064012583304  0.3285476394635040  0.1109809332041092   T   T   T
  0.3750690509441906  0.4698604368979850  0.1109026187885233   T   T   T
  0.3818300113336826  0.6181716804993165  0.1110322603366580   T   T   T
  0.3816800729016471  0.7611668535226516  0.1110037975892725   T   T   T
  0.5241543346709883  0.9045137586015217  0.1109557319058510   T   T   T
  0.5236926570970366  0.0477037073184135  0.1109478289464214   T   T   T
  0.5231002083623240  0.1908999962771198  0.1110049081666808   T   T   T
  0.5217034280460676  0.3341480362101562  0.1110359592795558   T   T   T
  0.5301406181950095  0.6249287379778113  0.1109026911275220   T   T   T
  0.5248344130421004  0.7615100739538131  0.1109487303226513   T   T   T
  0.6671277033379918  0.9055128800383374  0.1109362952087625   T   T   T
  0.6664912839630323  0.0482061394870586  0.1109894176616019   T   T   T
  0.6659903738483736  0.1913192984443044  0.1110231834602902   T   T   T
  0.6652987270571129  0.3347029402188900  0.1110229077391113   T   T   T
  0.6658549597578475  0.4782984000309288  0.1110359842045565   T   T   T
  0.6714548775844986  0.6231954786236695  0.1109809337401071   T   T   T
  0.6689078759961891  0.7641754859880662  0.1109009346096924   T   T   T
  0.8104150159378478  0.9059555096175962  0.1109441066318836   T   T   T
  0.8094050318774783  0.0482525096493805  0.1110455462097501   T   T   T
  0.8089441466917532  0.1910575970662458  0.1111057078918026   T   T   T
  0.8086823205106927  0.3340111571556287  0.1110231912762887   T   T   T
  0.8091018735788801  0.4769013731716837  0.1110048724406844   T   T   T
  0.8110065890547459  0.6200903100262730  0.1110559772599556   T   T   T
  0.8118730980235274  0.7639720894378356  0.1109897534188264   T   T   T

  0.00000000E+00  0.00000000E+00  0.00000000E+00
  0.00000000E+00  0.00000000E+00  0.00000000E+00
  0.00000000E+00  0.00000000E+00  0.00000000E+00
  0.00000000E+00  0.00000000E+00  0.00000000E+00
  0.00000000E+00  0.00000000E+00  0.00000000E+00
  0.00000000E+00  0.00000000E+00  0.00000000E+00
  0.00000000E+00  0.00000000E+00  0.00000000E+00
  0.00000000E+00  0.00000000E+00  0.00000000E+00
  0.00000000E+00  0.00000000E+00  0.00000000E+00
  0.00000000E+00  0.00000000E+00  0.00000000E+00
  0.00000000E+00  0.00000000E+00  0.00000000E+00
  0.00000000E+00  0.00000000E+00  0.00000000E+00
  0.00000000E+00  0.00000000E+00  0.00000000E+00
  0.00000000E+00  0.00000000E+00  0.00000000E+00
  0.00000000E+00  0.00000000E+00  0.00000000E+00
  0.00000000E+00  0.00000000E+00  0.00000000E+00
  0.00000000E+00  0.00000000E+00  0.00000000E+00
  0.00000000E+00  0.00000000E+00  0.00000000E+00
  0.00000000E+00  0.00000000E+00  0.00000000E+00
  0.00000000E+00  0.00000000E+00  0.00000000E+00
  0.00000000E+00  0.00000000E+00  0.00000000E+00
  0.00000000E+00  0.00000000E+00  0.00000000E+00
  0.00000000E+00  0.00000000E+00  0.00000000E+00
  0.00000000E+00  0.00000000E+00  0.00000000E+00
  0.00000000E+00  0.00000000E+00  0.00000000E+00
  0.00000000E+00  0.00000000E+00  0.00000000E+00
  0.00000000E+00  0.00000000E+00  0.00000000E+00
  0.00000000E+00  0.00000000E+00  0.00000000E+00
  0.00000000E+00  0.00000000E+00  0.00000000E+00
  0.00000000E+00  0.00000000E+00  0.00000000E+00
  0.00000000E+00  0.00000000E+00  0.00000000E+00
  0.00000000E+00  0.00000000E+00  0.00000000E+00
  0.00000000E+00  0.00000000E+00  0.00000000E+00
  0.00000000E+00  0.00000000E+00  0.00000000E+00
  0.00000000E+00  0.00000000E+00  0.00000000E+00
  0.00000000E+00  0.00000000E+00  0.00000000E+00
  0.00000000E+00  0.00000000E+00  0.00000000E+00
  0.00000000E+00  0.00000000E+00  0.00000000E+00
  0.00000000E+00  0.00000000E+00  0.00000000E+00
  0.00000000E+00  0.00000000E+00  0.00000000E+00
  0.00000000E+00  0.00000000E+00  0.00000000E+00
  0.00000000E+00  0.00000000E+00  0.00000000E+00
  0.00000000E+00  0.00000000E+00  0.00000000E+00
  0.00000000E+00  0.00000000E+00  0.00000000E+00
  0.00000000E+00  0.00000000E+00  0.00000000E+00
  0.00000000E+00  0.00000000E+00  0.00000000E+00
  0.00000000E+00  0.00000000E+00  0.00000000E+00
  0.00000000E+00  0.00000000E+00  0.00000000E+00
  0.00000000E+00  0.00000000E+00  0.00000000E+00
  0.00000000E+00  0.00000000E+00  0.00000000E+00
  0.00000000E+00  0.00000000E+00  0.00000000E+00
  0.00000000E+00  0.00000000E+00  0.00000000E+00
  0.00000000E+00  0.00000000E+00  0.00000000E+00
  0.00000000E+00  0.00000000E+00  0.00000000E+00
  0.00000000E+00  0.00000000E+00  0.00000000E+00
  0.00000000E+00  0.00000000E+00  0.00000000E+00
  0.00000000E+00  0.00000000E+00  0.00000000E+00
  0.00000000E+00  0.00000000E+00  0.00000000E+00
  0.00000000E+00  0.00000000E+00  0.00000000E+00
  0.00000000E+00  0.00000000E+00  0.00000000E+00
  0.00000000E+00  0.00000000E+00  0.00000000E+00
  0.00000000E+00  0.00000000E+00  0.00000000E+00
  0.00000000E+00  0.00000000E+00  0.00000000E+00
  0.00000000E+00  0.00000000E+00  0.00000000E+00
  0.00000000E+00  0.00000000E+00  0.00000000E+00
  0.00000000E+00  0.00000000E+00  0.00000000E+00
  0.00000000E+00  0.00000000E+00  0.00000000E+00
  0.00000000E+00  0.00000000E+00  0.00000000E+00
  0.00000000E+00  0.00000000E+00  0.00000000E+00
  0.00000000E+00  0.00000000E+00  0.00000000E+00
  0.00000000E+00  0.00000000E+00  0.00000000E+00
  0.00000000E+00  0.00000000E+00  0.00000000E+00
  0.00000000E+00  0.00000000E+00  0.00000000E+00
  0.00000000E+00  0.00000000E+00  0.00000000E+00
  0.00000000E+00  0.00000000E+00  0.00000000E+00
  0.00000000E+00  0.00000000E+00  0.00000000E+00
  0.00000000E+00  0.00000000E+00  0.00000000E+00
  0.00000000E+00  0.00000000E+00  0.00000000E+00
  0.00000000E+00  0.00000000E+00  0.00000000E+00
  0.00000000E+00  0.00000000E+00  0.00000000E+00
  0.00000000E+00  0.00000000E+00  0.00000000E+00
  0.00000000E+00  0.00000000E+00  0.00000000E+00
  0.00000000E+00  0.00000000E+00  0.00000000E+00
  0.00000000E+00  0.00000000E+00  0.00000000E+00
  0.00000000E+00  0.00000000E+00  0.00000000E+00
  0.00000000E+00  0.00000000E+00  0.00000000E+00
  0.00000000E+00  0.00000000E+00  0.00000000E+00
  0.00000000E+00  0.00000000E+00  0.00000000E+00
  0.00000000E+00  0.00000000E+00  0.00000000E+00
  0.00000000E+00  0.00000000E+00  0.00000000E+00
  0.00000000E+00  0.00000000E+00  0.00000000E+00
  0.00000000E+00  0.00000000E+00  0.00000000E+00
  0.00000000E+00  0.00000000E+00  0.00000000E+00
  0.00000000E+00  0.00000000E+00  0.00000000E+00
  0.00000000E+00  0.00000000E+00  0.00000000E+00
  0.00000000E+00  0.00000000E+00  0.00000000E+00
  0.00000000E+00  0.00000000E+00  0.00000000E+00
