Species order:X N B                     
   2.51242800000000     
     5.9449720136058266    0.0000000000000000    0.0000000000000000
    -2.9724860068029120    5.1484967885702053   -0.0000000000000001
     0.0000000000000000    0.0000000000000009    5.3101128803662583
   C    N    B 
     3   142   143
Direct
  0.3903954533739380  0.4413764570780953  0.3750000000000000
  0.4433602945171690  0.3867205890343380  0.3750000000000000
  0.5509810037041570  0.4413764570780953  0.3750000000000000
  0.1111026335908822  0.0555471724913166  0.1250486241269415
  0.6110795820631570  0.5555254768850256  0.1249403568869105
  0.4444445389004340  0.0555471724913166  0.1250486241269415
  0.9444388055608244  0.5555510590709802  0.1250163678482754
  0.7777796603743403  0.0555593207486817  0.1249947670370119
  0.1111067631804231  0.7222135263608394  0.6249907685186084
  0.4444446914651151  0.7222059394605046  0.6249620269399909
  0.2777635240124257  0.2222067752538434  0.6250358657042360
  0.7777612479953897  0.7222059394605046  0.6249620269399909
  0.6111077428776956  0.2222140816490339  0.6249478406480683
  0.9444454770420568  0.2222240526083931  0.6249982395109798
  0.2777789052244846  0.7222111433151639  0.1250145468222797
  0.1111063387713446  0.2222140816490339  0.1250521593519314
  0.4444432512414178  0.2222067752538434  0.1249641342957638
  0.6111068770409682  0.7222137540819277  0.1250005789720539
  0.9444322380906806  0.7222111433151639  0.1250145468222797
  0.7777785755663366  0.2222240526083931  0.1250017604890194
  0.1111040004843277  0.8888809301966432  0.6249879095365053
  0.4444451354905733  0.8888832002838553  0.6249898852611390
  0.2777758949101153  0.3888703702347864  0.6251655697443457
  0.6110944753246783  0.3888703702347864  0.6251655697443457
  0.7777775735657360  0.8888895787183289  0.6250105145463474
  0.9444450594198769  0.3888901188397542  0.6250003559958567
  0.1111112690853290  0.3888860936310201  0.1250169389170491
  0.2777769297123226  0.8888809301966432  0.1250120904634947
  0.6111120051525986  0.8888895787183289  0.1249894854536524
  0.4444136024707825  0.3888272049415655  0.1236774840454082
  0.9444380647932803  0.8888832002838553  0.1250101147388613
  0.7777748245456984  0.3888860936310201  0.1250169389170491
  0.2777855693675543  0.5555400415441193  0.6249222529607542
  0.1111026335908822  0.0555471724913166  0.6249513758730578
  0.6110795820631570  0.5555254768850256  0.6250596431130894
  0.4444445389004340  0.0555471724913166  0.6249513758730578
  0.9444388055608244  0.5555510590709802  0.6249836321517250
  0.1111122535101550  0.5555510590709802  0.1250163678482754
  0.7777796603743403  0.0555593207486817  0.6250052329629883
  0.2777730323226539  0.0555460646453075  0.1250291151916473
  0.4444458948218680  0.5555254768850256  0.1249403568869105
  0.7777544721765652  0.5555400415441193  0.1250777470392448
  0.6111103037134848  0.0555529148632424  0.1250067695047496
  0.4444458948218680  0.5555254768850256  0.6250596431130894
  0.9444426111497561  0.0555529148632424  0.1250067695047496
  0.2777789052244846  0.7222111433151639  0.6249854531777204
  0.1111063387713446  0.2222140816490339  0.6249478406480683
  0.4444432512414178  0.2222067752538434  0.6250358657042360
  0.6111068770409682  0.7222137540819277  0.6249994210279468
  0.9444322380906806  0.7222111433151639  0.6249854531777204
  0.7777785755663366  0.2222240526083931  0.6249982395109798
  0.1111067631804231  0.7222135263608394  0.1250092314813916
  0.4444446914651151  0.7222059394605046  0.1250379730600088
  0.2777635240124257  0.2222067752538434  0.1249641342957638
  0.7777612479953897  0.7222059394605046  0.1250379730600088
  0.6111077428776956  0.2222140816490339  0.1250521593519314
  0.9444454770420568  0.2222240526083931  0.1250017604890194
  0.1111112690853290  0.3888860936310201  0.6249830610829508
  0.2777769297123226  0.8888809301966432  0.6249879095365053
  0.6111120051525986  0.8888895787183289  0.6250105145463474
  0.4444136024707825  0.3888272049415655  0.6263225159545918
  0.9444380647932803  0.8888832002838553  0.6249898852611390
  0.1111040004843277  0.8888809301966432  0.1250120904634947
  0.7777748245456984  0.3888860936310201  0.6249830610829508
  0.4444451354905733  0.8888832002838553  0.1250101147388613
  0.2777758949101153  0.3888703702347864  0.1248344302556539
  0.2777855693675543  0.5555400415441193  0.1250777470392448
  0.6110944753246783  0.3888703702347864  0.1248344302556539
  0.7777775735657360  0.8888895787183289  0.1249894854536524
  0.9444450594198769  0.3888901188397542  0.1249996440041443
  0.1111122535101550  0.5555510590709802  0.6249836321517250
  0.2777730323226539  0.0555460646453075  0.6249708848083521
  0.7777544721765652  0.5555400415441193  0.6249222529607542
  0.6111103037134848  0.0555529148632424  0.6249932304952511
  0.9444426111497561  0.0555529148632424  0.6249932304952511
  0.0548680954862600  0.1102662836574354  0.3750000000000000
  0.5581765266624992  0.6163530533249977  0.3750000000000000
  0.3887232700566149  0.1112353534347002  0.3750000000000000
  0.8884863172824431  0.6109045293976354  0.3750000000000000
  0.7222748191426047  0.1111353073841792  0.3750000000000000
  0.0555566933549966  0.7777800009508133  0.8750000000000000
  0.3888908774415782  0.7777826454412743  0.8750000000000000
  0.2222241883174524  0.2777805076647033  0.8750000000000000
  0.7222236232722473  0.7777797635991044  0.8750000000000000
  0.5555563193472510  0.2777805076647033  0.8750000000000000
  0.8888913005398578  0.2777826010797249  0.8750000000000000
  0.2221310446271380  0.7776232207914804  0.3750000000000000
  0.0549136131223753  0.2773676734237706  0.3750000000000000
  0.3892426900005067  0.2784853800010206  0.3750000000000000
  0.5560119039916457  0.7796496745946965  0.3750000000000000
  0.8893965313121162  0.7782532563512792  0.3750000000000000
  0.7224540603013955  0.2773676734237706  0.3750000000000000
  0.0555563539080634  0.9444481187716864  0.8750000000000000
  0.3888917648636236  0.9444481187716864  0.8750000000000000
  0.2222236612213509  0.4444491750977459  0.8750000000000000
  0.5555611652672370  0.4444523617309300  0.8750000000000000
  0.7222232495782622  0.9444464991565236  0.8750000000000000
  0.8888928404732860  0.4444490356343859  0.8750000000000000
  0.0552274577770906  0.4443792820196463  0.3750000000000000
  0.2221644348162390  0.9443288696324782  0.3750000000000000
  0.5554983112131030  0.9448064921528098  0.3750000000000000
  0.8893081809397069  0.9448064921528098  0.3750000000000000
  0.7227534338084880  0.4437130077826124  0.3750000000000000
  0.2222215844419519  0.6111131480770933  0.8750000000000000
  0.0555567589465729  0.1111115924041807  0.8750000000000000
  0.5555558241500707  0.6111116483001413  0.8750000000000000
  0.3888901383416145  0.1111117272474050  0.8750000000000000
  0.8888915636351333  0.6111131480770933  0.8750000000000000
  0.0555111781273513  0.6110223562547026  0.3750000000000000
  0.7222209064261110  0.1111123758576270  0.8750000000000000
  0.2225120833780779  0.1112353534347002  0.3750000000000000
  0.3896932352220523  0.6121397377629809  0.3750000000000000
  0.7224465025409227  0.6121397377629809  0.3750000000000000
  0.5553981881711757  0.1102662836574354  0.3750000000000000
  0.3888904283206288  0.6111136122187176  0.8750000000000000
  0.8888604882415667  0.1111353073841792  0.3750000000000000
  0.2222233075958168  0.7777800009508133  0.8750000000000000
  0.0555580175474743  0.2777808703582780  0.8750000000000000
  0.3888894991730067  0.2777789983460193  0.8750000000000000
  0.5555561403268572  0.7777797635991044  0.8750000000000000
  0.8888917679996887  0.7777826454412743  0.8750000000000000
  0.7222228528108038  0.2777808703582780  0.8750000000000000
  0.0554921761643419  0.7776232207914804  0.3750000000000000
  0.3888567250391558  0.7782532563512792  0.3750000000000000
  0.2197385103078338  0.2755590303088448  0.3750000000000000
  0.7236377706030513  0.7796496745946965  0.3750000000000000
  0.5558205200010106  0.2755590303088448  0.3750000000000000
  0.8888595237163761  0.2777190474327609  0.3750000000000000
  0.0555561951610979  0.4444490356343859  0.8750000000000000
  0.2222230493316561  0.9444460986633121  0.8750000000000000
  0.5555551857757071  0.9444478341950977  0.8750000000000000
  0.3888911964636924  0.4444523617309300  0.8750000000000000
  0.8888926484193910  0.9444478341950977  0.8750000000000000
  0.0558628898860955  0.9445451936832711  0.3750000000000000
  0.7222255138763950  0.4444491750977459  0.8750000000000000
  0.3886823037971753  0.9445451936832711  0.3750000000000000
  0.2209595739741247  0.4437130077826124  0.3750000000000000
  0.2224182121151852  0.6109045293976354  0.3750000000000000
  0.7225775595508929  0.9451551191017877  0.3750000000000000
  0.8891518242425556  0.4443792820196463  0.3750000000000000
  0.0555558455500272  0.6111116911000540  0.8750000000000000
  0.2222215889057833  0.1111117272474050  0.8750000000000000
  0.7222231838980808  0.6111136122187176  0.8750000000000000
  0.5555548334576087  0.1111115924041807  0.8750000000000000
  0.8888914694315074  0.1111123758576270  0.8750000000000000
  0.1112057748434865  0.0555093104734253  0.3750000000000000
  0.6114245872067228  0.5593953481732747  0.3750000000000000
  0.4443035356299383  0.0555093104734253  0.3750000000000000
  0.9443306509112985  0.5554686192177731  0.3750000000000000
  0.7779363569969387  0.0558727139938776  0.3750000000000000
  0.1111111989027973  0.7222223978055873  0.8750000000000000
  0.4444457391048241  0.7222197224364230  0.8750000000000000
  0.2777868038989546  0.2222324042583659  0.8750000000000000
  0.7777739833315994  0.7222197224364230  0.8750000000000000
  0.6111095893289746  0.2222285580241248  0.8750000000000000
  0.9444479518633866  0.2222262368603460  0.8750000000000000
  0.2777775831756482  0.7221463214865066  0.3750000000000000
  0.1092094488948898  0.2207073195913788  0.3750000000000000
  0.4449662268671586  0.2222365398764689  0.3750000000000000
  0.6129810004778679  0.7259620009557292  0.3750000000000000
  0.9443687383108604  0.7221463214865066  0.3750000000000000
  0.7779626486232943  0.2220568270318032  0.3750000000000000
  0.1111108581935948  0.8888907266611263  0.8750000000000000
  0.4444461455926949  0.8888897059841149  0.8750000000000000
  0.2777907028033029  0.3888998330233762  0.8750000000000000
  0.6111091302200798  0.3888998330233762  0.8750000000000000
  0.7777763913827201  0.8888862987038725  0.8750000000000000
  0.9444473164443560  0.3888946328887126  0.8750000000000000
  0.1102633871322138  0.3885823370809918  0.3750000000000000
  0.2776335880105446  0.8887293771469268  0.3750000000000000
  0.6114953952326783  0.8900819411498190  0.3750000000000000
  0.9448162997659006  0.8892146573486646  0.3750000000000000
  0.7783189499487850  0.3885823370809918  0.3750000000000000
  0.2777839995473742  0.5555583538200646  0.8750000000000000
  0.1111133021573498  0.0555588638297765  0.8750000000000000
  0.6111067786711518  0.5555537093881919  0.8750000000000000
  0.4444455616724264  0.0555588638297765  0.8750000000000000
  0.9444447269282669  0.5555580956385310  0.8750000000000000
  0.1111379683064736  0.5554686192177731  0.3750000000000000
  0.7777776283465112  0.0555552566930213  0.8750000000000000
  0.2776893593383123  0.0553787186766247  0.3750000000000000
  0.4479707609665521  0.5593953481732747  0.3750000000000000
  0.7771785353759630  0.5552655675085139  0.3750000000000000
  0.6112144698586375  0.0553924391354440  0.3750000000000000
  0.4444469307170416  0.5555537093881919  0.8750000000000000
  0.9441779692768068  0.0553924391354440  0.3750000000000000
  0.2777806004962111  0.7222230848083068  0.8750000000000000
  0.1111189686951575  0.2222285580241248  0.8750000000000000
  0.4444456003594111  0.2222324042583659  0.8750000000000000
  0.6111076245845535  0.7222152491690975  0.8750000000000000
  0.9444424843120960  0.7222230848083068  0.8750000000000000
  0.7777782849969593  0.2222262368603460  0.8750000000000000
  0.1110412892572166  0.7220825785144265  0.3750000000000000
  0.4448173133796403  0.7232680786172103  0.3750000000000000
  0.2772703130093105  0.2222365398764689  0.3750000000000000
  0.7784507652375695  0.7232680786172103  0.3750000000000000
  0.6114978706964964  0.2207073195913788  0.3750000000000000
  0.9440941784085086  0.2220568270318032  0.3750000000000000
  0.1111184023335435  0.3888962211287785  0.8750000000000000
  0.2777798684675387  0.8888907266611263  0.8750000000000000
  0.6111099073211607  0.8888862987038725  0.8750000000000000
  0.4444506301750498  0.3889012603501005  0.8750000000000000
  0.9444435603914193  0.8888897059841149  0.8750000000000000
  0.1110957891363888  0.8887293771469268  0.3750000000000000
  0.7777778187952422  0.3888962211287785  0.8750000000000000
  0.4443983575827640  0.8892146573486646  0.3750000000000000
  0.2737039614901500  0.3856864888658968  0.3750000000000000
  0.2780870321325505  0.5552655675085139  0.3750000000000000
  0.6119825273757530  0.3856864888658968  0.3750000000000000
  0.7785865459171470  0.8900819411498190  0.3750000000000000
  0.9444008226111824  0.3888016452223631  0.3750000000000000
  0.1111133687102645  0.5555580956385310  0.8750000000000000
  0.2777798097324351  0.0555596194648713  0.8750000000000000
  0.7777743542726917  0.5555583538200646  0.8750000000000000
  0.6111101623733164  0.0555564679744231  0.8750000000000000
  0.9444463056011061  0.0555564679744231  0.8750000000000000
  0.0555491110300941  0.1111081231142018  0.1250071662869227
  0.5555401877757743  0.6110803755515501  0.1250197524778184
  0.3888940852912971  0.1111134536658948  0.1250029723224337
  0.8888635596435250  0.6110940539716117  0.1250218140111964
  0.7222241778082764  0.1111111962866253  0.1249932690182849
  0.0555424581861522  0.7777628932864963  0.6250003743735552
  0.3888967823942177  0.7777590141972972  0.6249890128374765
  0.2222308470347149  0.2777859875499860  0.6250797190303355
  0.7222032723795306  0.7777614405965538  0.6249923902127504
  0.5555551405152707  0.2777859875499860  0.6250797190303355
  0.8888912187971723  0.2777824375943511  0.6250061620528493
  0.2222204351003442  0.7777628932864963  0.1249996256264448
  0.0555571804821356  0.2777835821961909  0.1250033518407662
  0.3889154145466229  0.2778308290932534  0.1244959777254994
  0.5555581682170236  0.7777614405965538  0.1250076097872488
  0.8888622318030722  0.7777590141972972  0.1250109871625240
  0.7222264017140544  0.2777835821961909  0.1250033518407662
  0.0555417849299706  0.9444324896024510  0.6249980931472733
  0.3888907046724808  0.9444324896024510  0.6249980931472733
  0.2222408469112605  0.4444276524039867  0.6249859593806900
  0.5554605826117607  0.4443888369114032  0.6253406018450421
  0.7222206104795432  0.9444412209590850  0.6250068482163228
  0.8888804015471479  0.4444389554912718  0.6249954084405889
  0.0555585539441238  0.4444389554912718  0.1250045915594102
  0.2222168646547139  0.9444337293094281  0.1249978182387230
  0.5555582053641583  0.9444368835316390  0.1249957439691075
  0.3889282542996426  0.4443888369114032  0.1246593981549573
  0.8888786781674801  0.9444368835316390  0.1249957439691075
  0.7221868054927252  0.4444276524039867  0.1250140406193096
  0.2222304943280793  0.6110940539716117  0.6249781859888025
  0.0555491110300941  0.1111081231142018  0.6249928337130778
  0.5555401877757743  0.6110803755515501  0.6249802475221824
  0.3888940852912971  0.1111134536658948  0.6249970276775667
  0.8888635596435250  0.6110940539716117  0.6249781859888025
  0.0555497342085253  0.6110994684170505  0.1250012680858752
  0.7222241778082764  0.1111111962866253  0.6250067309817151
  0.2222193683745906  0.1111134536658948  0.1250029723224337
  0.3889067788266870  0.6110772132679736  0.1250609035851047
  0.7221704344412798  0.6110772132679736  0.1250609035851047
  0.5555590120841069  0.1111081231142018  0.1250071662869227
  0.3889067788266870  0.6110772132679736  0.6249390964148954
  0.8888870184783422  0.1111111962866253  0.1249932690182849
  0.2222204351003442  0.7777628932864963  0.6250003743735552
  0.0555571804821356  0.2777835821961909  0.6249966481592343
  0.3889154145466229  0.2778308290932534  0.6255040222745005
  0.5555581682170236  0.7777614405965538  0.6249923902127504
  0.8888622318030722  0.7777590141972972  0.6249890128374765
  0.7222264017140544  0.2777835821961909  0.6249966481592343
  0.0555424581861522  0.7777628932864963  0.1249996256264448
  0.3888967823942177  0.7777590141972972  0.1250109871625240
  0.2222308470347149  0.2777859875499860  0.1249202809696639
  0.7222032723795306  0.7777614405965538  0.1250076097872488
  0.5555551405152707  0.2777859875499860  0.1249202809696639
  0.8888912187971723  0.2777824375943511  0.1249938379471506
  0.0555585539441238  0.4444389554912718  0.6249954084405889
  0.2222168646547139  0.9444337293094281  0.6250021817612765
  0.5555582053641583  0.9444368835316390  0.6250042560308920
  0.3889282542996426  0.4443888369114032  0.6253406018450421
  0.8888786781674801  0.9444368835316390  0.6250042560308920
  0.0555417849299706  0.9444324896024510  0.1250019068527267
  0.7221868054927252  0.4444276524039867  0.6249859593806900
  0.3888907046724808  0.9444324896024510  0.1250019068527267
  0.2222408469112605  0.4444276524039867  0.1250140406193096
  0.2222304943280793  0.6110940539716117  0.1250218140111964
  0.5554605826117607  0.4443888369114032  0.1246593981549573
  0.7222206104795432  0.9444412209590850  0.1249931517836781
  0.8888804015471479  0.4444389554912718  0.1250045915594102
  0.0555497342085253  0.6110994684170505  0.6249987319141244
  0.2222193683745906  0.1111134536658948  0.6249970276775667
  0.7221704344412798  0.6110772132679736  0.6249390964148954
  0.5555590120841069  0.1111081231142018  0.6249928337130778
  0.8888870184783422  0.1111111962866253  0.6250067309817151
 
  0.00000000E+00  0.00000000E+00  0.00000000E+00
  0.00000000E+00  0.00000000E+00  0.00000000E+00
  0.00000000E+00  0.00000000E+00  0.00000000E+00
  0.00000000E+00  0.00000000E+00  0.00000000E+00
  0.00000000E+00  0.00000000E+00  0.00000000E+00
  0.00000000E+00  0.00000000E+00  0.00000000E+00
  0.00000000E+00  0.00000000E+00  0.00000000E+00
  0.00000000E+00  0.00000000E+00  0.00000000E+00
  0.00000000E+00  0.00000000E+00  0.00000000E+00
  0.00000000E+00  0.00000000E+00  0.00000000E+00
  0.00000000E+00  0.00000000E+00  0.00000000E+00
  0.00000000E+00  0.00000000E+00  0.00000000E+00
  0.00000000E+00  0.00000000E+00  0.00000000E+00
  0.00000000E+00  0.00000000E+00  0.00000000E+00
  0.00000000E+00  0.00000000E+00  0.00000000E+00
  0.00000000E+00  0.00000000E+00  0.00000000E+00
  0.00000000E+00  0.00000000E+00  0.00000000E+00
  0.00000000E+00  0.00000000E+00  0.00000000E+00
  0.00000000E+00  0.00000000E+00  0.00000000E+00
  0.00000000E+00  0.00000000E+00  0.00000000E+00
  0.00000000E+00  0.00000000E+00  0.00000000E+00
  0.00000000E+00  0.00000000E+00  0.00000000E+00
  0.00000000E+00  0.00000000E+00  0.00000000E+00
  0.00000000E+00  0.00000000E+00  0.00000000E+00
  0.00000000E+00  0.00000000E+00  0.00000000E+00
  0.00000000E+00  0.00000000E+00  0.00000000E+00
  0.00000000E+00  0.00000000E+00  0.00000000E+00
  0.00000000E+00  0.00000000E+00  0.00000000E+00
  0.00000000E+00  0.00000000E+00  0.00000000E+00
  0.00000000E+00  0.00000000E+00  0.00000000E+00
  0.00000000E+00  0.00000000E+00  0.00000000E+00
  0.00000000E+00  0.00000000E+00  0.00000000E+00
  0.00000000E+00  0.00000000E+00  0.00000000E+00
  0.00000000E+00  0.00000000E+00  0.00000000E+00
  0.00000000E+00  0.00000000E+00  0.00000000E+00
  0.00000000E+00  0.00000000E+00  0.00000000E+00
  0.00000000E+00  0.00000000E+00  0.00000000E+00
  0.00000000E+00  0.00000000E+00  0.00000000E+00
  0.00000000E+00  0.00000000E+00  0.00000000E+00
  0.00000000E+00  0.00000000E+00  0.00000000E+00
  0.00000000E+00  0.00000000E+00  0.00000000E+00
  0.00000000E+00  0.00000000E+00  0.00000000E+00
  0.00000000E+00  0.00000000E+00  0.00000000E+00
  0.00000000E+00  0.00000000E+00  0.00000000E+00
  0.00000000E+00  0.00000000E+00  0.00000000E+00
  0.00000000E+00  0.00000000E+00  0.00000000E+00
  0.00000000E+00  0.00000000E+00  0.00000000E+00
  0.00000000E+00  0.00000000E+00  0.00000000E+00
  0.00000000E+00  0.00000000E+00  0.00000000E+00
  0.00000000E+00  0.00000000E+00  0.00000000E+00
  0.00000000E+00  0.00000000E+00  0.00000000E+00
  0.00000000E+00  0.00000000E+00  0.00000000E+00
  0.00000000E+00  0.00000000E+00  0.00000000E+00
  0.00000000E+00  0.00000000E+00  0.00000000E+00
  0.00000000E+00  0.00000000E+00  0.00000000E+00
  0.00000000E+00  0.00000000E+00  0.00000000E+00
  0.00000000E+00  0.00000000E+00  0.00000000E+00
  0.00000000E+00  0.00000000E+00  0.00000000E+00
  0.00000000E+00  0.00000000E+00  0.00000000E+00
  0.00000000E+00  0.00000000E+00  0.00000000E+00
  0.00000000E+00  0.00000000E+00  0.00000000E+00
  0.00000000E+00  0.00000000E+00  0.00000000E+00
  0.00000000E+00  0.00000000E+00  0.00000000E+00
  0.00000000E+00  0.00000000E+00  0.00000000E+00
  0.00000000E+00  0.00000000E+00  0.00000000E+00
  0.00000000E+00  0.00000000E+00  0.00000000E+00
  0.00000000E+00  0.00000000E+00  0.00000000E+00
  0.00000000E+00  0.00000000E+00  0.00000000E+00
  0.00000000E+00  0.00000000E+00  0.00000000E+00
  0.00000000E+00  0.00000000E+00  0.00000000E+00
  0.00000000E+00  0.00000000E+00  0.00000000E+00
  0.00000000E+00  0.00000000E+00  0.00000000E+00
  0.00000000E+00  0.00000000E+00  0.00000000E+00
  0.00000000E+00  0.00000000E+00  0.00000000E+00
  0.00000000E+00  0.00000000E+00  0.00000000E+00
  0.00000000E+00  0.00000000E+00  0.00000000E+00
  0.00000000E+00  0.00000000E+00  0.00000000E+00
  0.00000000E+00  0.00000000E+00  0.00000000E+00
  0.00000000E+00  0.00000000E+00  0.00000000E+00
  0.00000000E+00  0.00000000E+00  0.00000000E+00
  0.00000000E+00  0.00000000E+00  0.00000000E+00
  0.00000000E+00  0.00000000E+00  0.00000000E+00
  0.00000000E+00  0.00000000E+00  0.00000000E+00
  0.00000000E+00  0.00000000E+00  0.00000000E+00
  0.00000000E+00  0.00000000E+00  0.00000000E+00
  0.00000000E+00  0.00000000E+00  0.00000000E+00
  0.00000000E+00  0.00000000E+00  0.00000000E+00
  0.00000000E+00  0.00000000E+00  0.00000000E+00
  0.00000000E+00  0.00000000E+00  0.00000000E+00
  0.00000000E+00  0.00000000E+00  0.00000000E+00
  0.00000000E+00  0.00000000E+00  0.00000000E+00
  0.00000000E+00  0.00000000E+00  0.00000000E+00
  0.00000000E+00  0.00000000E+00  0.00000000E+00
  0.00000000E+00  0.00000000E+00  0.00000000E+00
  0.00000000E+00  0.00000000E+00  0.00000000E+00
  0.00000000E+00  0.00000000E+00  0.00000000E+00
  0.00000000E+00  0.00000000E+00  0.00000000E+00
  0.00000000E+00  0.00000000E+00  0.00000000E+00
  0.00000000E+00  0.00000000E+00  0.00000000E+00
  0.00000000E+00  0.00000000E+00  0.00000000E+00
  0.00000000E+00  0.00000000E+00  0.00000000E+00
  0.00000000E+00  0.00000000E+00  0.00000000E+00
  0.00000000E+00  0.00000000E+00  0.00000000E+00
  0.00000000E+00  0.00000000E+00  0.00000000E+00
  0.00000000E+00  0.00000000E+00  0.00000000E+00
  0.00000000E+00  0.00000000E+00  0.00000000E+00
  0.00000000E+00  0.00000000E+00  0.00000000E+00
  0.00000000E+00  0.00000000E+00  0.00000000E+00
  0.00000000E+00  0.00000000E+00  0.00000000E+00
  0.00000000E+00  0.00000000E+00  0.00000000E+00
  0.00000000E+00  0.00000000E+00  0.00000000E+00
  0.00000000E+00  0.00000000E+00  0.00000000E+00
  0.00000000E+00  0.00000000E+00  0.00000000E+00
  0.00000000E+00  0.00000000E+00  0.00000000E+00
  0.00000000E+00  0.00000000E+00  0.00000000E+00
  0.00000000E+00  0.00000000E+00  0.00000000E+00
  0.00000000E+00  0.00000000E+00  0.00000000E+00
  0.00000000E+00  0.00000000E+00  0.00000000E+00
  0.00000000E+00  0.00000000E+00  0.00000000E+00
  0.00000000E+00  0.00000000E+00  0.00000000E+00
  0.00000000E+00  0.00000000E+00  0.00000000E+00
  0.00000000E+00  0.00000000E+00  0.00000000E+00
  0.00000000E+00  0.00000000E+00  0.00000000E+00
  0.00000000E+00  0.00000000E+00  0.00000000E+00
  0.00000000E+00  0.00000000E+00  0.00000000E+00
  0.00000000E+00  0.00000000E+00  0.00000000E+00
  0.00000000E+00  0.00000000E+00  0.00000000E+00
  0.00000000E+00  0.00000000E+00  0.00000000E+00
  0.00000000E+00  0.00000000E+00  0.00000000E+00
  0.00000000E+00  0.00000000E+00  0.00000000E+00
  0.00000000E+00  0.00000000E+00  0.00000000E+00
  0.00000000E+00  0.00000000E+00  0.00000000E+00
  0.00000000E+00  0.00000000E+00  0.00000000E+00
  0.00000000E+00  0.00000000E+00  0.00000000E+00
  0.00000000E+00  0.00000000E+00  0.00000000E+00
  0.00000000E+00  0.00000000E+00  0.00000000E+00
  0.00000000E+00  0.00000000E+00  0.00000000E+00
  0.00000000E+00  0.00000000E+00  0.00000000E+00
  0.00000000E+00  0.00000000E+00  0.00000000E+00
  0.00000000E+00  0.00000000E+00  0.00000000E+00
  0.00000000E+00  0.00000000E+00  0.00000000E+00
  0.00000000E+00  0.00000000E+00  0.00000000E+00
  0.00000000E+00  0.00000000E+00  0.00000000E+00
  0.00000000E+00  0.00000000E+00  0.00000000E+00
  0.00000000E+00  0.00000000E+00  0.00000000E+00
  0.00000000E+00  0.00000000E+00  0.00000000E+00
  0.00000000E+00  0.00000000E+00  0.00000000E+00
  0.00000000E+00  0.00000000E+00  0.00000000E+00
  0.00000000E+00  0.00000000E+00  0.00000000E+00
  0.00000000E+00  0.00000000E+00  0.00000000E+00
  0.00000000E+00  0.00000000E+00  0.00000000E+00
  0.00000000E+00  0.00000000E+00  0.00000000E+00
  0.00000000E+00  0.00000000E+00  0.00000000E+00
  0.00000000E+00  0.00000000E+00  0.00000000E+00
  0.00000000E+00  0.00000000E+00  0.00000000E+00
  0.00000000E+00  0.00000000E+00  0.00000000E+00
  0.00000000E+00  0.00000000E+00  0.00000000E+00
  0.00000000E+00  0.00000000E+00  0.00000000E+00
  0.00000000E+00  0.00000000E+00  0.00000000E+00
  0.00000000E+00  0.00000000E+00  0.00000000E+00
  0.00000000E+00  0.00000000E+00  0.00000000E+00
  0.00000000E+00  0.00000000E+00  0.00000000E+00
  0.00000000E+00  0.00000000E+00  0.00000000E+00
  0.00000000E+00  0.00000000E+00  0.00000000E+00
  0.00000000E+00  0.00000000E+00  0.00000000E+00
  0.00000000E+00  0.00000000E+00  0.00000000E+00
  0.00000000E+00  0.00000000E+00  0.00000000E+00
  0.00000000E+00  0.00000000E+00  0.00000000E+00
  0.00000000E+00  0.00000000E+00  0.00000000E+00
  0.00000000E+00  0.00000000E+00  0.00000000E+00
  0.00000000E+00  0.00000000E+00  0.00000000E+00
  0.00000000E+00  0.00000000E+00  0.00000000E+00
  0.00000000E+00  0.00000000E+00  0.00000000E+00
  0.00000000E+00  0.00000000E+00  0.00000000E+00
  0.00000000E+00  0.00000000E+00  0.00000000E+00
  0.00000000E+00  0.00000000E+00  0.00000000E+00
  0.00000000E+00  0.00000000E+00  0.00000000E+00
  0.00000000E+00  0.00000000E+00  0.00000000E+00
  0.00000000E+00  0.00000000E+00  0.00000000E+00
  0.00000000E+00  0.00000000E+00  0.00000000E+00
  0.00000000E+00  0.00000000E+00  0.00000000E+00
  0.00000000E+00  0.00000000E+00  0.00000000E+00
  0.00000000E+00  0.00000000E+00  0.00000000E+00
  0.00000000E+00  0.00000000E+00  0.00000000E+00
  0.00000000E+00  0.00000000E+00  0.00000000E+00
  0.00000000E+00  0.00000000E+00  0.00000000E+00
  0.00000000E+00  0.00000000E+00  0.00000000E+00
  0.00000000E+00  0.00000000E+00  0.00000000E+00
  0.00000000E+00  0.00000000E+00  0.00000000E+00
  0.00000000E+00  0.00000000E+00  0.00000000E+00
  0.00000000E+00  0.00000000E+00  0.00000000E+00
  0.00000000E+00  0.00000000E+00  0.00000000E+00
  0.00000000E+00  0.00000000E+00  0.00000000E+00
  0.00000000E+00  0.00000000E+00  0.00000000E+00
  0.00000000E+00  0.00000000E+00  0.00000000E+00
  0.00000000E+00  0.00000000E+00  0.00000000E+00
  0.00000000E+00  0.00000000E+00  0.00000000E+00
  0.00000000E+00  0.00000000E+00  0.00000000E+00
  0.00000000E+00  0.00000000E+00  0.00000000E+00
  0.00000000E+00  0.00000000E+00  0.00000000E+00
  0.00000000E+00  0.00000000E+00  0.00000000E+00
  0.00000000E+00  0.00000000E+00  0.00000000E+00
  0.00000000E+00  0.00000000E+00  0.00000000E+00
  0.00000000E+00  0.00000000E+00  0.00000000E+00
  0.00000000E+00  0.00000000E+00  0.00000000E+00
  0.00000000E+00  0.00000000E+00  0.00000000E+00
  0.00000000E+00  0.00000000E+00  0.00000000E+00
  0.00000000E+00  0.00000000E+00  0.00000000E+00
  0.00000000E+00  0.00000000E+00  0.00000000E+00
  0.00000000E+00  0.00000000E+00  0.00000000E+00
  0.00000000E+00  0.00000000E+00  0.00000000E+00
  0.00000000E+00  0.00000000E+00  0.00000000E+00
  0.00000000E+00  0.00000000E+00  0.00000000E+00
  0.00000000E+00  0.00000000E+00  0.00000000E+00
  0.00000000E+00  0.00000000E+00  0.00000000E+00
  0.00000000E+00  0.00000000E+00  0.00000000E+00
  0.00000000E+00  0.00000000E+00  0.00000000E+00
  0.00000000E+00  0.00000000E+00  0.00000000E+00
  0.00000000E+00  0.00000000E+00  0.00000000E+00
  0.00000000E+00  0.00000000E+00  0.00000000E+00
  0.00000000E+00  0.00000000E+00  0.00000000E+00
  0.00000000E+00  0.00000000E+00  0.00000000E+00
  0.00000000E+00  0.00000000E+00  0.00000000E+00
  0.00000000E+00  0.00000000E+00  0.00000000E+00
  0.00000000E+00  0.00000000E+00  0.00000000E+00
  0.00000000E+00  0.00000000E+00  0.00000000E+00
  0.00000000E+00  0.00000000E+00  0.00000000E+00
  0.00000000E+00  0.00000000E+00  0.00000000E+00
  0.00000000E+00  0.00000000E+00  0.00000000E+00
  0.00000000E+00  0.00000000E+00  0.00000000E+00
  0.00000000E+00  0.00000000E+00  0.00000000E+00
  0.00000000E+00  0.00000000E+00  0.00000000E+00
  0.00000000E+00  0.00000000E+00  0.00000000E+00
  0.00000000E+00  0.00000000E+00  0.00000000E+00
  0.00000000E+00  0.00000000E+00  0.00000000E+00
  0.00000000E+00  0.00000000E+00  0.00000000E+00
  0.00000000E+00  0.00000000E+00  0.00000000E+00
  0.00000000E+00  0.00000000E+00  0.00000000E+00
  0.00000000E+00  0.00000000E+00  0.00000000E+00
  0.00000000E+00  0.00000000E+00  0.00000000E+00
  0.00000000E+00  0.00000000E+00  0.00000000E+00
  0.00000000E+00  0.00000000E+00  0.00000000E+00
  0.00000000E+00  0.00000000E+00  0.00000000E+00
  0.00000000E+00  0.00000000E+00  0.00000000E+00
  0.00000000E+00  0.00000000E+00  0.00000000E+00
  0.00000000E+00  0.00000000E+00  0.00000000E+00
  0.00000000E+00  0.00000000E+00  0.00000000E+00