 N O B 
 1.0
 14.936314146199660   0.000000000000000   0.000000000000000
 -7.468157073099825  12.935227489513863   0.000000000000000
  0.000000000000001   0.000000000000001  13.341276283792837
 N O B 
 143   1 143
Cartesian
  1.244128291204351   0.718705251909782   1.665984653942882 
  4.978268917314007   7.188039398430368   1.653933710768981 
  6.223118438241565   0.718808769636984   1.665957579896632 
  9.957220026863382   7.185909535257149   1.667004727288441 
 11.202001616039421   0.718488653143551   1.666198520806779 
 -3.734489073255210   9.341871718949317   8.339601178515863 
  1.244680183056151   9.341716769962733   8.339999632947995 
  2.488702810021599   2.874674985266903   8.337658574734952 
  6.223273253598847   9.342681749460912   8.340385994261343 
  7.468582637096890   2.874240605176166   8.341218442086529 
 12.446632298150867   2.874122782084368   8.340013219337973 
 -1.244898216252746   9.341759590889216   1.666169563170582 
 -0.000738053151709   2.874068882483885   1.665138831639990 
  4.978303699344331   2.874616460809996   1.667411060523509 
  3.734071008186506   9.342604487905803   1.664738770758085 
  8.712404529227879   9.341993223210991   1.667004727288441 
  9.957782414790218   2.874121557742488   1.666365620725385 
 -4.979304398590846  11.497992182011496   8.339675111021021 
 -0.000279550205847  11.497818592292342   8.339769703829983 
  1.244507278842336   5.029684859819548   8.337658574734952 
  6.224773490067842   5.029030146553776   8.352023502075633 
  4.978567798931352  11.498374254199653   8.339591592119231 
 11.202257660478628   5.029921778892535   8.339262101335219 
 -1.244904539443905   5.029836576299573   1.665984653942882 
 -2.489790750502501  11.497976710172985   1.666169563170582 
  2.489134565276681  11.497921113036448   1.666896754552758 
  3.734277123187309   5.030480899970576   1.680697386563027 
  7.467783178775588  11.498221320771693   1.666695111509423 
  8.713250670272513   5.029914354082989   1.665571218583286 
 -0.000126532070503   7.185648223834642   8.339594973968310 
  1.244128291204352   0.718705251909783   8.339972558901732 
  4.978268917314008   7.188039398430369   8.352023502075633 
  6.223118438241566   0.718808769636985   8.339999632947995 
  9.957220026863382   7.185909535257150   8.338952485556186 
 -2.489641641291727   7.185769792657370   1.666282101823606 
 11.202001616039421   0.718488653143552   8.339758692037835 
  3.733504947430756   0.718808804599857   1.666362238876318 
  2.489257039837226   7.185771737485922   1.667411060523509 
  7.467784116380520   7.186022167512082   1.666003926440710 
  8.712673366204044   0.718435706953892   1.666896754552758 
  2.489257039837227   7.185771737485923   8.338546152321118 
 13.691150874022627   0.718553377711202   1.665943993506656 
 -1.244898216252746   9.341759590889216   8.339787649674046 
 -0.000738053151709   2.874068882483886   8.340818381204638 
  4.978303699344332   2.874616460809996   8.338546152321118 
  3.734071008186506   9.342604487905803   8.341218442086529 
  8.712404529227879   9.341993223210991   8.338952485556186 
  9.957782414790218   2.874121557742489   8.339591592119231 
 -3.734489073255210   9.341871718949317   1.666356034328764 
  1.244680183056150   9.341716769962733   1.665957579896632 
  2.488702810021599   2.874674985266902   1.668298638109689 
  6.223273253598846   9.342681749460912   1.665571218583286 
  7.468582637096889   2.874240605176165   1.664738770758085 
 12.446632298150867   2.874122782084367   1.665943993506656 
 -1.244904539443904   5.029836576299574   8.339972558901732 
 -2.489790750502501  11.497976710172985   8.339787649674046 
  2.489134565276682  11.497921113036448   8.339060458291868 
  3.734277123187310   5.030480899970577   8.325259826281588 
  7.467783178775589  11.498221320771693   8.339262101335219 
 -4.979304398590847  11.497992182011496   1.666282101823606 
  8.713250670272513   5.029914354082990   8.340385994261343 
 -0.000279550205847  11.497818592292342   1.666187509014632 
  1.244507278842335   5.029684859819548   1.668298638109689 
 -0.000126532070504   7.185648223834641   1.666362238876318 
  6.224773490067841   5.029030146553775   1.653933710768981 
  4.978567798931351  11.498374254199653   1.666365620725385 
 11.202257660478628   5.029921778892534   1.666695111509423 
 -2.489641641291727   7.185769792657370   8.339675111021021 
  3.733504947430756   0.718808804599857   8.339594973968310 
  7.467784116380521   7.186022167512083   8.339953286403917 
  8.712673366204044   0.718435706953893   8.339060458291868 
 13.691150874022627   0.718553377711202   8.340013219337973 
 -0.039521285257926   1.406170024285957   5.002978606422314 
  3.850831710304727   7.720147295835176   5.002978606422314 
  4.954577262861121   1.511771651887549   5.002978606422314 
  8.797532115882559   7.953752532979043   5.002978606422314 
  9.927355058745963   1.444141334150013   5.002978606422314 
 -4.978708632734755  10.060751745331002  11.673616748318732 
 -0.000081784128493  10.060790376360929  11.673616748318732 
  1.244741470729287   3.593146820866820  11.673616748318732 
  4.978755272716205  10.060702059570504  11.673616748318732 
  6.223421442500319   3.592895535900277  11.673616748318732 
 11.202237785279824   3.593179693486161  11.673616748318732 
 -2.449494095114535  10.083763915486218   5.002978606422314 
 -1.291367370590439   3.574431047338089   5.002978606422314 
  3.617888195458719   3.576494398041830   5.002978606422314 
  2.536151050084742   9.986838248371134   5.002978606422314 
  7.499954538180429  10.063012186645386   5.002978606422314 
  8.674033306159727   3.634501060084008   5.002978606422314 
 -6.223396778962569  12.216574286439693  11.673616748318732 
 -1.244683608118865  12.216503970705165  11.673616748318732 
  0.000003691297493   5.749072883138205  11.673616748318732 
  4.978731548460542   5.748966997396303  11.673616748318732 
  3.734018228923896  12.216560470295491  11.673616748318732 
  9.957599742225296   5.749051920349411  11.673616748318732 
 -2.490219180458362   5.751665850735583   5.002978606422314 
 -3.715259166773227  12.249252790437552   5.002978606422314 
  1.248015956076858  12.218522338872869   5.002978606422314 
  2.416893411893004   5.656678382802852   5.002978606422314 
  6.208307925905403  12.186002031070521   5.002978606422314 
  7.510194193349847   5.825221886136667   5.002978606422314 
 -1.244746264678460   7.904929631379093  11.673616748318732 
  0.000059887850247   1.437220480332548  11.673616748318732 
  3.733863837450190   7.904935796216622  11.673616748318732 
  4.978827001486691   1.437068199567324  11.673616748318732 
  8.712965161008221   7.904927778817789  11.673616748318732 
 -3.682430743666655   7.928538676307087   5.002978606422314 
  9.957475137573248   1.437216905799197  11.673616748318732 
  2.461063644883805   1.428969717150743   5.002978606422314 
  1.297135595652988   7.846646445211500   5.002978606422314 
  6.310501541717060   7.903150512231696   5.002978606422314 
  7.427545460584507   1.514694609527065   5.002978606422314 
  1.244565377506066   7.904999061056476  11.673616748318732 
 12.412043949115782   1.417106919876095   5.002978606422314 
 -2.489393672599099  10.060727883684953  11.673616748318732 
 -1.244686300300913   3.593184120738061  11.673616748318732 
  3.734140271103669   3.593119659755059  11.673616748318732 
  2.489254487155607  10.060781612808476  11.673616748318732 
  7.468239190777632  10.060750873814474  11.673616748318732 
  8.712815508819236   3.593120012117370  11.673616748318732 
 -4.932442227397097  10.093622076172782   5.002978606422314 
  0.037673949626141  10.052065265646918   5.002978606422314 
  1.167126403125209   3.548335740692424   5.002978606422314 
  4.995201210160781  10.006425162869331   5.002978606422314 
  6.121873843270024   3.786586935409658   5.002978606422314 
 11.168155601395183   3.595293859319768   5.002978606422314 
 -2.489377474337900   5.749063134386711  11.673616748318732 
 -3.734046020569743  12.216523283851629  11.673616748318732 
  1.244611474785920  12.216556760683105  11.673616748318732 
  2.489417348703700   5.749043002697434  11.673616748318732 
  6.223518096527998  12.216575151047889  11.673616748318732 
 -6.221563613545825  12.214543989382403   5.002978606422314 
  7.468209193510262   5.749035648886674  11.673616748318732 
 -1.233361908770697  12.253563950632177   5.002978606422314 
 -0.021329792300185   5.728601274728984   5.002978606422314 
 -1.207008253623462   7.904834770731097   5.002978606422314 
  3.724954920368753  12.187013502691650   5.002978606422314 
  9.975415770284169   5.775387560474628   5.002978606422314 
 -3.734030487875280   7.904905959363803  11.673616748318732 
  2.489459319621357   1.437209251692941  11.673616748318732 
  6.223529824920035   7.904883554417713  11.673616748318732 
  7.468134011163968   1.437109312461589  11.673616748318732 
 12.446925932543754   1.437246042398096  11.673616748318732 
  3.642618303216941   4.977561655587081   5.002978606422314 
  1.220997832433719   0.707528412767908   5.002978606422314 
  5.215768612656122   6.917803783873234   5.002978606422314 
  6.202048251520380   0.776711963114259   5.002978606422314 
 10.010038864158144   7.212166108082110   5.002978606422314 
 11.167764344588296   0.698721755254926   5.002978606422314 
 -3.734262020942215   9.342002807663354  11.673616748318732 
  1.244934392699909   9.341879775978365  11.673616748318732 
  2.490160337517417   2.875037675475401  11.673616748318732 
  6.223319634195000   9.341128770396786  11.673616748318732 
  7.467545090443459   2.875060843804354  11.673616748318732 
 12.446780022927992   2.874649922921312  11.673616748318732 
 -1.209440819005657   9.346215544417122   5.002978606422314 
 -0.062482994880913   2.838420423755441   5.002978606422314 
  4.938532566886900   2.984143694057744   5.002978606422314 
  3.795238268594356   9.197811148517191   5.002978606422314 
  8.761552806957992   9.374607391694131   5.002978606422314 
  9.907437604746608   2.891692798021420   5.002978606422314 
 -4.978739516454390  11.497826342159966  11.673616748318732 
 -0.000031792751097  11.497961635125531  11.673616748318732 
  1.245550141524515   5.030765770553380  11.673616748318732 
  6.223015171290401   5.030756354809525  11.673616748318732 
  4.978765602914009  11.497258283139219  11.673616748318732 
 11.201751413437801   5.030623767571297  11.673616748318732 
 -1.266149195460097   5.015393430973954   5.002978606422314 
 -2.468203082925715  11.526455740177100   5.002978606422314 
  2.495635239713610  11.449972431563927   5.002978606422314 
  7.471355142476804  11.487270515116776   5.002978606422314 
  8.704455238215584   5.078927707278011   5.002978606422314 
  0.000414267775202   7.186372571662631  11.673616748318732 
  1.245001121163339   0.718633607266677  11.673616748318732 
  4.978884698126980   7.185653545573291  11.673616748318732 
  6.223386710413942   0.718947418638564  11.673616748318732 
  9.956964846918435   7.186195905335399  11.673616748318732 
 -2.455546836488657   7.192777018628316   5.002978606422314 
 11.202022183786205   0.718500527937703  11.673616748318732 
  3.731867386178292   0.755679553914480   5.002978606422314 
  2.564224840007284   7.096565309816639   5.002978606422314 
  7.562853642595769   7.240910584064197   5.002978606422314 
  8.674398927189330   0.748039796894276   5.002978606422314 
  2.490083254899941   7.186141988179975  11.673616748318732 
 13.655538796767459   0.686109233513486   5.002978606422314 
 -1.244605945796552   9.342123338880445  11.673616748318732 
  0.000401223003847   2.874726643878986  11.673616748318732 
  4.979037453382507   2.875146858696269  11.673616748318732 
  3.734262582348975   9.341295826832216  11.673616748318732 
  8.712524943018060   9.341629045856997  11.673616748318732 
  9.956914857493320   2.874850846546658  11.673616748318732 
 -3.692240567135892   9.366263905330165   5.002978606422314 
  1.284290726207123   9.294517856261068   5.002978606422314 
  2.410153329994219   2.855773609039090   5.002978606422314 
  6.261322346561951   9.310558005264802   5.002978606422314 
  7.373771557091495   2.999609676263567   5.002978606422314 
 12.400728806444009   2.859503890598728   5.002978606422314 
 -1.244530170545386   5.030628291538794  11.673616748318732 
 -2.489329600273417  11.498047949817199  11.673616748318732 
  2.489345111915791  11.497611441324652  11.673616748318732 
  3.735001269033284   5.030898985769674  11.673616748318732 
  7.468137995284160  11.497431903634356  11.673616748318732 
 -4.956188560488413  11.524015536122551   5.002978606422314 
  8.711928941249509   5.030731010389567  11.673616748318732 
  0.009862104169406  11.503673879175915   5.002978606422314 
  1.188863466848872   4.971109702775686   5.002978606422314 
  0.030985692866288   7.165794679532456   5.002978606422314 
  6.109492430525107   5.369828723389706   5.002978606422314 
  4.968612534367101  11.445988749613720   5.002978606422314 
 11.194559966440186   5.038490593026617   5.002978606422314 
 -2.489502821747885   7.186341914863450  11.673616748318732 
  3.734402650973809   0.718914977090634  11.673616748318732 
  7.467526412635766   7.185873382185704  11.673616748318732 
  8.712510455954348   0.718772881547943  11.673616748318732 
 13.691681253767348   0.718417740702504  11.673616748318732 
 -0.000515553019169   1.437136952615619   1.667518287271748 
  3.737218746231647   7.902923069803037   1.670553572504179 
  4.978564088452986   1.440047255234878   1.669672300387398 
  8.709826945850027   7.903115929451438   1.671919509679781 
  9.957030270943294   1.437619597861186   1.668919613416640 
 -4.980429834399352  10.059840712913156   8.336884429967098 
  0.000784615899738  10.060115770202049   8.337603848284985 
  1.245197886693640   3.593410332746692   8.337058398917776 
  4.978918184917575  10.059207684551746   8.335834498487204 
  6.223355824686016   3.596807335339189   8.335403640340449 
 11.201295923716458   3.592951938876109   8.337136520525734 
 -2.489897086181553  10.060437237717608   1.668217179454152 
 -1.245046357860401   3.592727538185234   1.667518287271748 
  3.735268327005661   3.596373458199963   1.678767580012946 
  2.490904338486170  10.059470087369817   1.669492164480948 
  7.466521197908033  10.059289309710476   1.670728008513555 
  8.711602798190889   3.594008285731733   1.670122714357438 
 -6.224395009311080  12.216312908961580   8.337535497563781 
 -1.244834634175878  12.217591598218876   8.337603848284985 
  0.001050096564825   5.748287098911582   8.337470651489140 
  4.981538012816022   5.750587310347393   8.309147044474781 
  3.734144537164504  12.215973858461659   8.337037599427989 
  9.955474994147178   5.748294876932816   8.335229204331059 
 -2.490102949048177   5.748329330285126   1.668421715280834 
 -3.734722690265647  12.217255634998725   1.668254365438565 
  1.244866508160085  12.216704004270310   1.669152093886937 
  2.492799248766777   5.748393028542996   1.678767580012946 
  6.222849924468173  12.215873352312206   1.668820692318908 
  7.465392562448498   5.748331212282559   1.673167390040403 
 -1.244450364828534   7.903977442658920   8.337702847406076 
 -0.000515553019169   1.437136952615619   8.338438925572881 
  3.737218746231647   7.902923069803037   8.335403640340449 
  4.978564088452987   1.440047255234878   8.336284912457243 
  8.709826945850027   7.903115929451439   8.334037703164848 
 -3.735680065925091   7.903870871206121   1.669072782877530 
  9.957030270943294   1.437619597861187   8.337037599427989 
  2.489302013152866   1.438508357350428   1.668486561355488 
  1.247013858876596   7.903281843856536   1.669672300387398 
  6.221511449394611   7.902796498667232   1.673167390040403 
  7.467823122481669   1.439193888345640   1.669492164480948 
  1.247013858876597   7.903281843856537   8.336284912457243 
 12.446439189896404   1.436965021399621   1.667925354089740 
 -2.489897086181553  10.060437237717608   8.337740033390476 
 -1.245046357860401   3.592727538185235   8.338438925572881 
  3.735268327005661   3.596373458199964   8.327189632831681 
  2.490904338486171  10.059470087369817   8.336465048363682 
  7.466521197908034  10.059289309710476   8.335229204331059 
  8.711602798190889   3.594008285731734   8.335834498487204 
 -4.980429834399353  10.059840712913156   1.669072782877530 
  0.000784615899738  10.060115770202049   1.668353364559630 
  1.245197886693640   3.593410332746692   1.668898813926852 
  4.978918184917574  10.059207684551746   1.670122714357438 
  6.223355824686015   3.596807335339189   1.670553572504179 
 11.201295923716458   3.592951938876108   1.668820692318908 
 -2.490102949048177   5.748329330285127   8.337535497563781 
 -3.734722690265647  12.217255634998725   8.337702847406076 
  1.244866508160085  12.216704004270310   8.336805118957704 
  2.492799248766777   5.748393028542996   8.327189632831681 
  6.222849924468174  12.215873352312206   8.337136520525734 
 -6.224395009311081  12.216312908961580   1.668421715280834 
  7.465392562448499   5.748331212282560   8.332789822804225 
 -1.244834634175879  12.217591598218876   1.668353364559630 
  0.001050096564825   5.748287098911582   1.668486561355488 
 -1.244450364828534   7.903977442658919   1.668254365438565 
  4.981538012816021   5.750587310347393   1.696810168369860 
  3.734144537164504  12.215973858461659   1.668919613416640 
  9.955474994147178   5.748294876932815   1.670728008513555 
 -3.735680065925091   7.903870871206122   8.336884429967098 
  2.489302013152866   1.438508357350429   8.337470651489140 
  6.221511449394612   7.902796498667233   8.332789822804225 
  7.467823122481670   1.439193888345641   8.336465048363682 
 12.446439189896404   1.436965021399621   8.338031858754889 
Generated by cif2cell 2.0.0.  :  Failed to get author information, No journal information. Species order: N O B 
 1.0
 14.936314146199660   0.000000000000000   0.000000000000000
 -7.468157073099825  12.935227489513863   0.000000000000000
  0.000000000000001   0.000000000000001  13.341276283792837
 N O B 
 143   1 143
Cartesian
  1.244128291204351   0.718705251909782   1.665984653942882 
  4.978268917314007   7.188039398430368   1.653933710768981 
  6.223118438241565   0.718808769636984   1.665957579896632 
  9.957220026863382   7.185909535257149   1.667004727288441 
 11.202001616039421   0.718488653143551   1.666198520806779 
 -3.734489073255210   9.341871718949317   8.339601178515863 
  1.244680183056151   9.341716769962733   8.339999632947995 
  2.488702810021599   2.874674985266903   8.337658574734952 
  6.223273253598847   9.342681749460912   8.340385994261343 
  7.468582637096890   2.874240605176166   8.341218442086529 
 12.446632298150867   2.874122782084368   8.340013219337973 
 -1.244898216252746   9.341759590889216   1.666169563170582 
 -0.000738053151709   2.874068882483885   1.665138831639990 
  4.978303699344331   2.874616460809996   1.667411060523509 
  3.734071008186506   9.342604487905803   1.664738770758085 
  8.712404529227879   9.341993223210991   1.667004727288441 
  9.957782414790218   2.874121557742488   1.666365620725385 
 -4.979304398590846  11.497992182011496   8.339675111021021 
 -0.000279550205847  11.497818592292342   8.339769703829983 
  1.244507278842336   5.029684859819548   8.337658574734952 
  6.224773490067842   5.029030146553776   8.352023502075633 
  4.978567798931352  11.498374254199653   8.339591592119231 
 11.202257660478628   5.029921778892535   8.339262101335219 
 -1.244904539443905   5.029836576299573   1.665984653942882 
 -2.489790750502501  11.497976710172985   1.666169563170582 
  2.489134565276681  11.497921113036448   1.666896754552758 
  3.734277123187309   5.030480899970576   1.680697386563027 
  7.467783178775588  11.498221320771693   1.666695111509423 
  8.713250670272513   5.029914354082989   1.665571218583286 
 -0.000126532070503   7.185648223834642   8.339594973968310 
  1.244128291204352   0.718705251909783   8.339972558901732 
  4.978268917314008   7.188039398430369   8.352023502075633 
  6.223118438241566   0.718808769636985   8.339999632947995 
  9.957220026863382   7.185909535257150   8.338952485556186 
 -2.489641641291727   7.185769792657370   1.666282101823606 
 11.202001616039421   0.718488653143552   8.339758692037835 
  3.733504947430756   0.718808804599857   1.666362238876318 
  2.489257039837226   7.185771737485922   1.667411060523509 
  7.467784116380520   7.186022167512082   1.666003926440710 
  8.712673366204044   0.718435706953892   1.666896754552758 
  2.489257039837227   7.185771737485923   8.338546152321118 
 13.691150874022627   0.718553377711202   1.665943993506656 
 -1.244898216252746   9.341759590889216   8.339787649674046 
 -0.000738053151709   2.874068882483886   8.340818381204638 
  4.978303699344332   2.874616460809996   8.338546152321118 
  3.734071008186506   9.342604487905803   8.341218442086529 
  8.712404529227879   9.341993223210991   8.338952485556186 
  9.957782414790218   2.874121557742489   8.339591592119231 
 -3.734489073255210   9.341871718949317   1.666356034328764 
  1.244680183056150   9.341716769962733   1.665957579896632 
  2.488702810021599   2.874674985266902   1.668298638109689 
  6.223273253598846   9.342681749460912   1.665571218583286 
  7.468582637096889   2.874240605176165   1.664738770758085 
 12.446632298150867   2.874122782084367   1.665943993506656 
 -1.244904539443904   5.029836576299574   8.339972558901732 
 -2.489790750502501  11.497976710172985   8.339787649674046 
  2.489134565276682  11.497921113036448   8.339060458291868 
  3.734277123187310   5.030480899970577   8.325259826281588 
  7.467783178775589  11.498221320771693   8.339262101335219 
 -4.979304398590847  11.497992182011496   1.666282101823606 
  8.713250670272513   5.029914354082990   8.340385994261343 
 -0.000279550205847  11.497818592292342   1.666187509014632 
  1.244507278842335   5.029684859819548   1.668298638109689 
 -0.000126532070504   7.185648223834641   1.666362238876318 
  6.224773490067841   5.029030146553775   1.653933710768981 
  4.978567798931351  11.498374254199653   1.666365620725385 
 11.202257660478628   5.029921778892534   1.666695111509423 
 -2.489641641291727   7.185769792657370   8.339675111021021 
  3.733504947430756   0.718808804599857   8.339594973968310 
  7.467784116380521   7.186022167512083   8.339953286403917 
  8.712673366204044   0.718435706953893   8.339060458291868 
 13.691150874022627   0.718553377711202   8.340013219337973 
 -0.039521285257926   1.406170024285957   5.002978606422314 
  3.850831710304727   7.720147295835176   5.002978606422314 
  4.954577262861121   1.511771651887549   5.002978606422314 
  8.797532115882559   7.953752532979043   5.002978606422314 
  9.927355058745963   1.444141334150013   5.002978606422314 
 -4.978708632734755  10.060751745331002  11.673616748318732 
 -0.000081784128493  10.060790376360929  11.673616748318732 
  1.244741470729287   3.593146820866820  11.673616748318732 
  4.978755272716205  10.060702059570504  11.673616748318732 
  6.223421442500319   3.592895535900277  11.673616748318732 
 11.202237785279824   3.593179693486161  11.673616748318732 
 -2.449494095114535  10.083763915486218   5.002978606422314 
 -1.291367370590439   3.574431047338089   5.002978606422314 
  3.617888195458719   3.576494398041830   5.002978606422314 
  2.536151050084742   9.986838248371134   5.002978606422314 
  7.499954538180429  10.063012186645386   5.002978606422314 
  8.674033306159727   3.634501060084008   5.002978606422314 
 -6.223396778962569  12.216574286439693  11.673616748318732 
 -1.244683608118865  12.216503970705165  11.673616748318732 
  0.000003691297493   5.749072883138205  11.673616748318732 
  4.978731548460542   5.748966997396303  11.673616748318732 
  3.734018228923896  12.216560470295491  11.673616748318732 
  9.957599742225296   5.749051920349411  11.673616748318732 
 -2.490219180458362   5.751665850735583   5.002978606422314 
 -3.715259166773227  12.249252790437552   5.002978606422314 
  1.248015956076858  12.218522338872869   5.002978606422314 
  2.416893411893004   5.656678382802852   5.002978606422314 
  6.208307925905403  12.186002031070521   5.002978606422314 
  7.510194193349847   5.825221886136667   5.002978606422314 
 -1.244746264678460   7.904929631379093  11.673616748318732 
  0.000059887850247   1.437220480332548  11.673616748318732 
  3.733863837450190   7.904935796216622  11.673616748318732 
  4.978827001486691   1.437068199567324  11.673616748318732 
  8.712965161008221   7.904927778817789  11.673616748318732 
 -3.682430743666655   7.928538676307087   5.002978606422314 
  9.957475137573248   1.437216905799197  11.673616748318732 
  2.461063644883805   1.428969717150743   5.002978606422314 
  1.297135595652988   7.846646445211500   5.002978606422314 
  6.310501541717060   7.903150512231696   5.002978606422314 
  7.427545460584507   1.514694609527065   5.002978606422314 
  1.244565377506066   7.904999061056476  11.673616748318732 
 12.412043949115782   1.417106919876095   5.002978606422314 
 -2.489393672599099  10.060727883684953  11.673616748318732 
 -1.244686300300913   3.593184120738061  11.673616748318732 
  3.734140271103669   3.593119659755059  11.673616748318732 
  2.489254487155607  10.060781612808476  11.673616748318732 
  7.468239190777632  10.060750873814474  11.673616748318732 
  8.712815508819236   3.593120012117370  11.673616748318732 
 -4.932442227397097  10.093622076172782   5.002978606422314 
  0.037673949626141  10.052065265646918   5.002978606422314 
  1.167126403125209   3.548335740692424   5.002978606422314 
  4.995201210160781  10.006425162869331   5.002978606422314 
  6.121873843270024   3.786586935409658   5.002978606422314 
 11.168155601395183   3.595293859319768   5.002978606422314 
 -2.489377474337900   5.749063134386711  11.673616748318732 
 -3.734046020569743  12.216523283851629  11.673616748318732 
  1.244611474785920  12.216556760683105  11.673616748318732 
  2.489417348703700   5.749043002697434  11.673616748318732 
  6.223518096527998  12.216575151047889  11.673616748318732 
 -6.221563613545825  12.214543989382403   5.002978606422314 
  7.468209193510262   5.749035648886674  11.673616748318732 
 -1.233361908770697  12.253563950632177   5.002978606422314 
 -0.021329792300185   5.728601274728984   5.002978606422314 
 -1.207008253623462   7.904834770731097   5.002978606422314 
  3.724954920368753  12.187013502691650   5.002978606422314 
  9.975415770284169   5.775387560474628   5.002978606422314 
 -3.734030487875280   7.904905959363803  11.673616748318732 
  2.489459319621357   1.437209251692941  11.673616748318732 
  6.223529824920035   7.904883554417713  11.673616748318732 
  7.468134011163968   1.437109312461589  11.673616748318732 
 12.446925932543754   1.437246042398096  11.673616748318732 
  3.642618303216941   4.977561655587081   5.002978606422314 
  1.220997832433719   0.707528412767908   5.002978606422314 
  5.215768612656122   6.917803783873234   5.002978606422314 
  6.202048251520380   0.776711963114259   5.002978606422314 
 10.010038864158144   7.212166108082110   5.002978606422314 
 11.167764344588296   0.698721755254926   5.002978606422314 
 -3.734262020942215   9.342002807663354  11.673616748318732 
  1.244934392699909   9.341879775978365  11.673616748318732 
  2.490160337517417   2.875037675475401  11.673616748318732 
  6.223319634195000   9.341128770396786  11.673616748318732 
  7.467545090443459   2.875060843804354  11.673616748318732 
 12.446780022927992   2.874649922921312  11.673616748318732 
 -1.209440819005657   9.346215544417122   5.002978606422314 
 -0.062482994880913   2.838420423755441   5.002978606422314 
  4.938532566886900   2.984143694057744   5.002978606422314 
  3.795238268594356   9.197811148517191   5.002978606422314 
  8.761552806957992   9.374607391694131   5.002978606422314 
  9.907437604746608   2.891692798021420   5.002978606422314 
 -4.978739516454390  11.497826342159966  11.673616748318732 
 -0.000031792751097  11.497961635125531  11.673616748318732 
  1.245550141524515   5.030765770553380  11.673616748318732 
  6.223015171290401   5.030756354809525  11.673616748318732 
  4.978765602914009  11.497258283139219  11.673616748318732 
 11.201751413437801   5.030623767571297  11.673616748318732 
 -1.266149195460097   5.015393430973954   5.002978606422314 
 -2.468203082925715  11.526455740177100   5.002978606422314 
  2.495635239713610  11.449972431563927   5.002978606422314 
  7.471355142476804  11.487270515116776   5.002978606422314 
  8.704455238215584   5.078927707278011   5.002978606422314 
  0.000414267775202   7.186372571662631  11.673616748318732 
  1.245001121163339   0.718633607266677  11.673616748318732 
  4.978884698126980   7.185653545573291  11.673616748318732 
  6.223386710413942   0.718947418638564  11.673616748318732 
  9.956964846918435   7.186195905335399  11.673616748318732 
 -2.455546836488657   7.192777018628316   5.002978606422314 
 11.202022183786205   0.718500527937703  11.673616748318732 
  3.731867386178292   0.755679553914480   5.002978606422314 
  2.564224840007284   7.096565309816639   5.002978606422314 
  7.562853642595769   7.240910584064197   5.002978606422314 
  8.674398927189330   0.748039796894276   5.002978606422314 
  2.490083254899941   7.186141988179975  11.673616748318732 
 13.655538796767459   0.686109233513486   5.002978606422314 
 -1.244605945796552   9.342123338880445  11.673616748318732 
  0.000401223003847   2.874726643878986  11.673616748318732 
  4.979037453382507   2.875146858696269  11.673616748318732 
  3.734262582348975   9.341295826832216  11.673616748318732 
  8.712524943018060   9.341629045856997  11.673616748318732 
  9.956914857493320   2.874850846546658  11.673616748318732 
 -3.692240567135892   9.366263905330165   5.002978606422314 
  1.284290726207123   9.294517856261068   5.002978606422314 
  2.410153329994219   2.855773609039090   5.002978606422314 
  6.261322346561951   9.310558005264802   5.002978606422314 