Species order:X N B                     
   2.51242800000000     
     5.9449720136058266    0.0000000000000000    0.0000000000000000
    -2.9724860068029120    5.1484967885702053   -0.0000000000000001
     0.0000000000000000    0.0000000000000009    5.3101128803662583
   C    N    B 
     3   142   142
Direct
  0.6033283911849493  0.3830862097679840  0.3750000000000000
  0.4424456298252851  0.3856190570045617  0.3750000000000000
  0.5500469124474654  0.4360587551972465  0.3750000000000000
  0.1110375406485667  0.0561138416551727  0.1262032208371950
  0.6110067727237845  0.5561582681137136  0.1214307743704491
  0.4443994615200754  0.0561618760227353  0.1239832514066776
  0.9443453212222781  0.5561090506013132  0.1221478105928673
  0.7777419750245372  0.0560975793718898  0.1264267311961115
  0.1110292698857955  0.7227791977353171  0.6246730042928701
  0.4443880120423120  0.7227714175885021  0.6224776841311689
  0.2776333941027308  0.2227508127892774  0.6260830150098972
  0.7777740233545197  0.7228794698128498  0.6265416030571711
  0.6110778408900371  0.2227924218258122  0.6292956290199563
  0.9444148573689909  0.2227225862177463  0.6244394942905458
  0.2777096796993781  0.7227846855494098  0.1269847182453953
  0.1109962195029666  0.2227128886338572  0.1259934602500303
  0.4443640728254412  0.2228191368648840  0.1219140426674656
  0.6110764979114890  0.7228022821866458  0.1255964612194327
  0.9444279997175444  0.7228741513173141  0.1233360197583293
  0.7778186118210609  0.2227300091792571  0.1226578173633976
  0.1110737133485251  0.8894862452906793  0.6241002047500958
  0.4443985453624384  0.8894835351349516  0.6231478311455509
  0.2776677346860207  0.3893861661336204  0.6249571227670399
  0.6109869227333797  0.3894248103799664  0.6304578570321285
  0.7777438525172632  0.8894561733592536  0.6231392293997718
  0.9444417620077518  0.3893979168861280  0.6268621245502031
  0.1110458961977056  0.3894084858511440  0.1257812005765352
  0.2777254241692156  0.8894796753482652  0.1261370304601445
  0.6110606549394175  0.8894633579749237  0.1272009105652625
  0.4442915646462615  0.3894068346802408  0.1217680349172116
  0.9444313605077558  0.8894958733146489  0.1261046370441125
  0.7778657256583993  0.3892769914115460  0.1187839145862904
  0.2776925301153453  0.5560840445306199  0.6232240762073984
  0.1110375406485667  0.0561138416551729  0.6237967791622184
  0.6110067727237845  0.5561582681137136  0.6285692256295359
  0.4443994615200754  0.0561618760227611  0.6260167485937280
  0.9443453212222781  0.5561090506013132  0.6278521894073835
  0.1110144680541840  0.5561002603323871  0.1253309379534363
  0.7777419750245372  0.0560975793718898  0.6235732688039727
  0.2777192212710495  0.0561478075879959  0.1247219277374758
  0.4443652002464478  0.5560920841534153  0.1249355964960456
  0.7778106569525162  0.5564228747053048  0.1189941157184191
  0.6110812098736998  0.0561510077227056  0.1247295687885116
  0.4443652002464478  0.5560920841534153  0.6250644035038330
  0.9443880081575303  0.0560774649776914  0.1270907249043111
  0.2777096796993781  0.7227846855494098  0.6230152817537137
  0.1109962195029666  0.2227128886338572  0.6240065397495281
  0.4443640728254412  0.2228191368648908  0.6280859573325609
  0.6110764979114890  0.7228022821866458  0.6244035387793381
  0.9444279997175444  0.7228741513173141  0.6266639802422783
  0.7778186118210609  0.2227300091792571  0.6273421826364143
  0.1110292698857955  0.7227791977353171  0.1253269957070107
  0.4443880120423120  0.7227714175885021  0.1275223158693850
  0.2776333941027307  0.2227508127892774  0.1239169849898078
  0.7777740233545197  0.7228794698128498  0.1234583969427395
  0.6110778408900371  0.2227924218257886  0.1207043709797586
  0.9444148573690446  0.2227225862177463  0.1255605057097046
  0.1110458961978120  0.3894084858511440  0.6242187994242844
  0.2777254241692137  0.8894796753482652  0.6238629695397997
  0.6110606549394175  0.8894633579749237  0.6227990894344021
  0.4442915646462513  0.3894068346802407  0.6282319650829055
  0.9444313605077558  0.8894958733146489  0.6238953629557594
  0.1110737133485251  0.8894862452906793  0.1258997952492696
  0.7778657256583993  0.3892769914115460  0.6312160854143851
  0.4443985453624384  0.8894835351349515  0.1268521688539839
  0.2776677346860207  0.3893861661336206  0.1250428772333421
  0.2776925301153453  0.5560840445306199  0.1267759237929151
  0.6109869227333797  0.3894248103799664  0.1195421429678896
  0.7777438525172632  0.8894561733592536  0.1268607705996855
  0.9444417620077643  0.3893979168861280  0.1231378754490850
  0.1110144680541840  0.5561002603323871  0.6246690620470936
  0.2777192212710495  0.0561478075879965  0.6252780722624497
  0.7778106569525065  0.5564228747053048  0.6310058842816846
  0.6110812098736998  0.0561510077227056  0.6252704312116305
  0.9443880081575303  0.0560774649776857  0.6229092750953821
  0.0534846615921841  0.1093984767506734  0.3750000000000000
  0.5567774572117751  0.6090818640808764  0.3750000000000000
  0.3874613174617874  0.1104323645014670  0.3750000000000000
  0.8915922006479622  0.6087517693057402  0.3750000000000000
  0.7221610866480385  0.1150691911999987  0.3750000000000000
  0.0558132928865123  0.7775085662991943  0.8750000000000000
  0.3891155874048948  0.7775155544042411  0.8750000000000000
  0.2224756258724251  0.2775239056284071  0.8750000000000000
  0.7224581357721314  0.7775217737875973  0.8750000000000000
  0.5557992666138662  0.2775121171140024  0.8750000000000000
  0.8891484853514522  0.2775345127730915  0.8750000000000000
  0.2251822176097822  0.7785255582493671  0.3750000000000000
  0.0538762574930683  0.2773260996859503  0.3750000000000000
  0.3852393024808156  0.2766847258334467  0.3750000000000000
  0.5569657210319597  0.7769359536277806  0.3750000000000000
  0.8884151808853776  0.7740606842604817  0.3750000000000000
  0.7216270881957849  0.2886519311051900  0.3750000000000000
  0.0557998012920928  0.9441628092421649  0.8750000000000000
  0.3891149960895771  0.9441528892761729  0.8750000000000000
  0.2224835515562421  0.4442005786405890  0.8750000000000000
  0.5557976127681955  0.4442181984769334  0.8750000000000000
  0.7224658748267884  0.9441703136833167  0.8750000000000000
  0.8891720119776733  0.4442189148339060  0.8750000000000000
  0.0564585542123127  0.4451565493102028  0.3750000000000000
  0.2221641352183336  0.9433780810057721  0.3750000000000000
  0.5568078030809541  0.9451574057088318  0.3750000000000000
  0.3885240801643191  0.4405193986453285  0.3750000000000000
  0.8878079803744143  0.9422260979136120  0.3750000000000000
  0.2224734812018970  0.6108584599740261  0.8750000000000000
  0.0558045644233833  0.1108342676496632  0.8750000000000000
  0.5557799101289884  0.6109018993476067  0.8750000000000000
  0.3891374368992249  0.1108326870139665  0.8750000000000000
  0.8891640157315434  0.6108672586531106  0.8750000000000000
  0.0607602629915887  0.6128825505414729  0.3750000000000000
  0.7224580033007050  0.1108285020723564  0.8750000000000000
  0.2202678406307744  0.1091734935125957  0.3750000000000000
  0.3904957769639596  0.6092815526508069  0.3750000000000000
  0.7230732162763395  0.5996784658752315  0.3750000000000000
  0.5559028766082925  0.1126962627224358  0.3750000000000000
  0.3891193800286479  0.6108753631243130  0.8750000000000000
  0.8876059208805642  0.1110611402053653  0.3750000000000000
  0.2224714049366169  0.7775115562553431  0.8750000000000000
  0.0558159937390385  0.2775285020346571  0.8750000000000000
  0.3891437138472875  0.2775230586789194  0.8750000000000000
  0.5557774697603092  0.7775295013635678  0.8750000000000000
  0.8891333284530399  0.7775091384288422  0.8750000000000000
  0.7224483087014977  0.2774950201161476  0.8750000000000000
  0.0567040259673968  0.7765277705762502  0.3750000000000000
  0.3911625470396936  0.7776692245132688  0.3750000000000000
  0.2195057507423574  0.2758829408884610  0.3750000000000000
  0.7226330926605059  0.7729833749868906  0.3750000000000000
  0.5521483844343060  0.2761835676570065  0.3750000000000000
  0.8876375827816625  0.2797057517603034  0.3750000000000000
  0.0558271159274164  0.4442034861154581  0.8750000000000000
  0.2224667334186069  0.9441670917801152  0.8750000000000000
  0.5557773009909681  0.9441555643887145  0.8750000000000000
  0.3891430222797548  0.4442205668854641  0.8750000000000000
  0.8891384116307568  0.9441671082831369  0.8750000000000000
  0.0543263277852179  0.9422034926870010  0.3750000000000000
  0.7224825612155348  0.4442023787697194  0.8750000000000000
  0.3903147731160604  0.9450193713739871  0.3750000000000000
  0.2227471008624187  0.4437287172606421  0.3750000000000000
  0.2252181074807908  0.6113554998047496  0.3750000000000000
  0.7224596222635494  0.9439949287330121  0.3750000000000000
  0.8907233595529556  0.4481572584688423  0.3750000000000000
  0.0558324567872957  0.6108634764786628  0.8750000000000000
  0.2224698155012038  0.1108364083581187  0.8750000000000000
  0.7224454173679630  0.6108794424687756  0.8750000000000000
  0.5557759449345333  0.1107985744827973  0.8750000000000000
  0.8891420706201447  0.1108402866127272  0.8750000000000000
  0.1091034584228668  0.0534100827930549  0.3750000000000000
  0.6129348105970679  0.5521609731756785  0.3750000000000000
  0.4452486249971602  0.0566477247319006  0.3750000000000000
  0.9495891100920318  0.5574398058115725  0.3750000000000000
  0.7765745269233196  0.0569530654183361  0.3750000000000000
  0.1112940723844273  0.7218865173060035  0.8750000000000000
  0.4446895619752634  0.7219511606037290  0.8750000000000000
  0.2781189356938363  0.2220148340010586  0.8750000000000000
  0.7779622991623135  0.7218334901158765  0.8750000000000000
  0.6114027376716601  0.2220528560070620  0.8750000000000000
  0.9446597853170033  0.2220137628767710  0.8750000000000000
  0.2801714665575303  0.7223628296877507  0.3750000000000000
  0.1087775944968913  0.2209854021509775  0.3750000000000000
  0.4418863867753530  0.2216390114943988  0.3750000000000000
  0.6117755086442940  0.7195862180237723  0.3750000000000000
  0.9440379026931113  0.7177602530058338  0.3750000000000000
  0.7757940638901599  0.2299486527119020  0.3750000000000000
  0.1113258079601869  0.8885506957998919  0.8750000000000000
  0.4446881134827191  0.8886272476124202  0.8750000000000000
  0.2781012611836897  0.3886781418498705  0.8750000000000000
  0.6114663201576825  0.3887242686749427  0.8750000000000000
  0.7779905143362856  0.8885569653241407  0.8750000000000000
  0.9446203041082639  0.3886870737084832  0.8750000000000000
  0.1108852924014134  0.3888908417089545  0.3750000000000000
  0.2793210519426815  0.8891498699409351  0.3750000000000000
  0.6116595263985790  0.8884065636355541  0.3750000000000000
  0.9425389369834669  0.8849720709959339  0.3750000000000000
  0.7756706374278552  0.4110141162872403  0.3750000000000000
  0.2780327287813579  0.5553100150921805  0.8750000000000000
  0.1113668500811077  0.0552701089473934  0.8750000000000000
  0.6113862087035258  0.5552784460154200  0.8750000000000000
  0.4447394654862149  0.0553327614121842  0.8750000000000000
  0.9445947976561967  0.5552575338555211  0.8750000000000000
  0.1139306041110857  0.5560933216138132  0.3750000000000000
  0.7780023693697999  0.0553140157349997  0.8750000000000000
  0.2765822559650598  0.0542800112279044  0.3750000000000000
  0.4460427930793473  0.5526199883320048  0.3750000000000000
  0.7771227138609720  0.5326151835042866  0.3750000000000000
  0.6114460341116777  0.0574168825508276  0.3750000000000000
  0.4447497749149959  0.5553197495769145  0.8750000000000000
  0.9422931342937171  0.0539588993191331  0.3750000000000000
  0.2779989130640707  0.7219400673590451  0.8750000000000000
  0.1113794220374802  0.2219907666414170  0.8750000000000000
  0.4448200970513769  0.2220606857168821  0.8750000000000000
  0.6113372783557298  0.7219074988032333  0.8750000000000000
  0.9446013794389055  0.7218277501671306  0.8750000000000000
  0.7779900618864838  0.2220449012407599  0.8750000000000000
  0.1139292673239851  0.7227729066645991  0.3750000000000000
  0.4460502381525086  0.7208354793076256  0.3750000000000000
  0.2753329289338261  0.2205714523603800  0.3750000000000000
  0.7767255203015933  0.7121741584791900  0.3750000000000000
  0.6118680665768820  0.2256616906087148  0.3750000000000000
  0.9421074534512026  0.2230698899682547  0.3750000000000000
  0.1113498534860071  0.3886701340433249  0.8750000000000000
  0.2780128165034885  0.8886003813453687  0.8750000000000000
  0.6113379374507919  0.8886078664341706  0.8750000000000000
  0.4448274824299980  0.3887078930679840  0.8750000000000000
  0.9446425687883371  0.8885192982396912  0.8750000000000000
  0.1106022343573369  0.8869115104347007  0.3750000000000000
  0.7779823910153207  0.3886988067020416  0.8750000000000000
  0.4459923227803484  0.8892061756117574  0.3750000000000000
  0.2775667452799579  0.3872556110542303  0.3750000000000000
  0.2796115212797508  0.5548857860155365  0.3750000000000000
  0.7767649263718687  0.8853087796631308  0.3750000000000000
  0.9434732569639489  0.3916719136655162  0.3750000000000000
  0.1113063680503239  0.5552985727049988  0.8750000000000000
  0.2780741916999788  0.0553118094231348  0.8750000000000000
  0.7779683721193723  0.5552197147186647  0.8750000000000000
  0.6113519745541975  0.0553305366085699  0.8750000000000000
  0.9446727953043452  0.0552744789841599  0.8750000000000000
  0.0554816442110761  0.1116610797230775  0.1268165644300258
  0.5556608152018037  0.6114484483649899  0.1245794347989197
  0.3889927493441215  0.1119488052125625  0.1238011096190707
  0.8884209148839548  0.6114281408455157  0.1225318691211599
  0.7222856562975308  0.1118952836727891  0.1250858307976766
  0.0552752538598876  0.7781975143163017  0.6245935861551493
  0.3888398527224592  0.7783267597900162  0.6223466031227530
  0.2221663211061621  0.2783209035071850  0.6247058258155562
  0.7222248209511313  0.7781897265427022  0.6241561570466617
  0.5558408797022155  0.2788165735775294  0.6285940152619149
  0.8887915990420285  0.2784049228519371  0.6256842063730386
  0.2220084856493049  0.7782714037895093  0.1266512892759742
  0.0554405208007636  0.2783060196411196  0.1261996287338040
  0.3889948666852912  0.2785291062659471  0.1230213698044411
  0.5555968180476505  0.7782666596044256  0.1273164214682005
  0.8887370078892796  0.7781679630784070  0.1248502037783355
  0.7223964199229699  0.2787365676612243  0.1214923701153321
  0.0554462449014018  0.9449523116756902  0.6234996356500516
  0.3889001763988747  0.9451597051410519  0.6239432817841073
  0.2221334014984062  0.4449257504006419  0.6236432468230534
  0.5557416699912883  0.4449000266309761  0.6276774227842498
  0.7222260024214746  0.9450217469836598  0.6226634721254872
  0.8884711372764560  0.4448664573359223  0.6275845728645607
  0.0552873107831835  0.4449190622407882  0.1253188873528443
  0.2221401522863078  0.9450488544130669  0.1259767996126765
  0.5556086958220624  0.9451597541225205  0.1267542928071847
  0.3889834973060929  0.4449092293783308  0.1244762319788588
  0.8888278665346384  0.9449351696741172  0.1271488823145157
  0.7223430954656334  0.4450949210287541  0.1238433353569717
  0.2220021669996764  0.6115599799246898  0.6230844798246796
  0.0554816442110754  0.1116610797230762  0.6231834355696987
  0.5556608152018037  0.6114484483649899  0.6254205652019881
  0.3889927493441215  0.1119488052125625  0.6261988903809816
  0.8884209148839548  0.6114281408455157  0.6274681308785021
  0.0550854626108459  0.6114676190456376  0.1249302488491093
  0.7222856562975308  0.1118952836727891  0.6249141692016934
  0.2221938233210535  0.1117514141692373  0.1252602464090424
  0.3888800326320354  0.6115357074439163  0.1269829336548704
  0.7222471149001521  0.6114171144268385  0.1221935864275229
  0.5557299121869035  0.1120828720478563  0.1235392820911556
  0.3888800326320354  0.6115357074439163  0.6230170663445884
  0.8888498079574293  0.1117113182364436  0.1268042017539809
  0.2220084856492807  0.7782714037895093  0.6233487107242274
  0.0554405208007636  0.2783060196411196  0.6238003712664981
  0.3889948666852912  0.2785291062659471  0.6269786301954278
  0.5555968180476505  0.7782666596044256  0.6226835785321334
  0.8887370078892796  0.7781679630784070  0.6251497962219128
  0.7223964199229699  0.2787365676612243  0.6285076298835276
  0.0552752538598957  0.7781975143163017  0.1254064138447143
  0.3888398527224592  0.7783267597900162  0.1276533968769498
  0.2221663211061621  0.2783209035071850  0.1252941741846224
  0.7222248209511313  0.7781897265427022  0.1258438429538666
  0.5558408797022155  0.2788165735775294  0.1214059847376896
  0.8887915990420285  0.2784049228519371  0.1243157936270552
  0.0552873107831835  0.4449190622407881  0.6246811126475377
  0.2221401522863078  0.9450488544130669  0.6240232003871974
  0.5556086958220624  0.9451597541225205  0.6232457071925553
  0.3889834973060929  0.4449092293781977  0.6255237680211667
  0.8888278665346384  0.9449351696741172  0.6228511176861624
  0.0554462449014018  0.9449523116756902  0.1265003643500821
  0.7223430954656334  0.4450949210287540  0.6261566646434282
  0.3889001763988769  0.9451597051410519  0.1260567182155150
  0.2221334014984062  0.4449257504006419  0.1263567531764490
  0.2220021669996764  0.6115599799246898  0.1269155201742033
  0.5557416699912883  0.4449000266309755  0.1223225772153087
  0.7222260024214746  0.9450217469836598  0.1273365278742004
  0.8884711372764560  0.4448664573359223  0.1224154271352927
  0.0550854626108458  0.6114676190456376  0.6250697511502696
  0.2221938233210535  0.1117514141692373  0.6247397535896998
  0.7222471149001521  0.6114171144268385  0.6278064135732405
  0.5557299121869035  0.1120828720478575  0.6264607179081505
  0.8888498079574293  0.1117113182364338  0.6231957982457582
 
  0.00000000E+00  0.00000000E+00  0.00000000E+00
  0.00000000E+00  0.00000000E+00  0.00000000E+00
  0.00000000E+00  0.00000000E+00  0.00000000E+00
  0.00000000E+00  0.00000000E+00  0.00000000E+00
  0.00000000E+00  0.00000000E+00  0.00000000E+00
  0.00000000E+00  0.00000000E+00  0.00000000E+00
  0.00000000E+00  0.00000000E+00  0.00000000E+00
  0.00000000E+00  0.00000000E+00  0.00000000E+00
  0.00000000E+00  0.00000000E+00  0.00000000E+00
  0.00000000E+00  0.00000000E+00  0.00000000E+00
  0.00000000E+00  0.00000000E+00  0.00000000E+00
  0.00000000E+00  0.00000000E+00  0.00000000E+00
  0.00000000E+00  0.00000000E+00  0.00000000E+00
  0.00000000E+00  0.00000000E+00  0.00000000E+00
  0.00000000E+00  0.00000000E+00  0.00000000E+00
  0.00000000E+00  0.00000000E+00  0.00000000E+00
  0.00000000E+00  0.00000000E+00  0.00000000E+00
  0.00000000E+00  0.00000000E+00  0.00000000E+00
  0.00000000E+00  0.00000000E+00  0.00000000E+00
  0.00000000E+00  0.00000000E+00  0.00000000E+00
  0.00000000E+00  0.00000000E+00  0.00000000E+00
  0.00000000E+00  0.00000000E+00  0.00000000E+00
  0.00000000E+00  0.00000000E+00  0.00000000E+00
  0.00000000E+00  0.00000000E+00  0.00000000E+00
  0.00000000E+00  0.00000000E+00  0.00000000E+00
  0.00000000E+00  0.00000000E+00  0.00000000E+00
  0.00000000E+00  0.00000000E+00  0.00000000E+00
  0.00000000E+00  0.00000000E+00  0.00000000E+00
  0.00000000E+00  0.00000000E+00  0.00000000E+00
  0.00000000E+00  0.00000000E+00  0.00000000E+00
  0.00000000E+00  0.00000000E+00  0.00000000E+00
  0.00000000E+00  0.00000000E+00  0.00000000E+00
  0.00000000E+00  0.00000000E+00  0.00000000E+00
  0.00000000E+00  0.00000000E+00  0.00000000E+00
  0.00000000E+00  0.00000000E+00  0.00000000E+00
  0.00000000E+00  0.00000000E+00  0.00000000E+00
  0.00000000E+00  0.00000000E+00  0.00000000E+00
  0.00000000E+00  0.00000000E+00  0.00000000E+00
  0.00000000E+00  0.00000000E+00  0.00000000E+00
  0.00000000E+00  0.00000000E+00  0.00000000E+00
  0.00000000E+00  0.00000000E+00  0.00000000E+00
  0.00000000E+00  0.00000000E+00  0.00000000E+00
  0.00000000E+00  0.00000000E+00  0.00000000E+00
  0.00000000E+00  0.00000000E+00  0.00000000E+00
  0.00000000E+00  0.00000000E+00  0.00000000E+00
  0.00000000E+00  0.00000000E+00  0.00000000E+00
  0.00000000E+00  0.00000000E+00  0.00000000E+00
  0.00000000E+00  0.00000000E+00  0.00000000E+00
  0.00000000E+00  0.00000000E+00  0.00000000E+00
  0.00000000E+00  0.00000000E+00  0.00000000E+00
  0.00000000E+00  0.00000000E+00  0.00000000E+00
  0.00000000E+00  0.00000000E+00  0.00000000E+00
  0.00000000E+00  0.00000000E+00  0.00000000E+00
  0.00000000E+00  0.00000000E+00  0.00000000E+00
  0.00000000E+00  0.00000000E+00  0.00000000E+00
  0.00000000E+00  0.00000000E+00  0.00000000E+00
  0.00000000E+00  0.00000000E+00  0.00000000E+00
  0.00000000E+00  0.00000000E+00  0.00000000E+00
  0.00000000E+00  0.00000000E+00  0.00000000E+00
  0.00000000E+00  0.00000000E+00  0.00000000E+00
  0.00000000E+00  0.00000000E+00  0.00000000E+00
  0.00000000E+00  0.00000000E+00  0.00000000E+00
  0.00000000E+00  0.00000000E+00  0.00000000E+00
  0.00000000E+00  0.00000000E+00  0.00000000E+00
  0.00000000E+00  0.00000000E+00  0.00000000E+00
  0.00000000E+00  0.00000000E+00  0.00000000E+00
  0.00000000E+00  0.00000000E+00  0.00000000E+00
  0.00000000E+00  0.00000000E+00  0.00000000E+00
  0.00000000E+00  0.00000000E+00  0.00000000E+00
  0.00000000E+00  0.00000000E+00  0.00000000E+00
  0.00000000E+00  0.00000000E+00  0.00000000E+00
  0.00000000E+00  0.00000000E+00  0.00000000E+00
  0.00000000E+00  0.00000000E+00  0.00000000E+00
  0.00000000E+00  0.00000000E+00  0.00000000E+00
  0.00000000E+00  0.00000000E+00  0.00000000E+00
  0.00000000E+00  0.00000000E+00  0.00000000E+00
  0.00000000E+00  0.00000000E+00  0.00000000E+00
  0.00000000E+00  0.00000000E+00  0.00000000E+00
  0.00000000E+00  0.00000000E+00  0.00000000E+00
  0.00000000E+00  0.00000000E+00  0.00000000E+00
  0.00000000E+00  0.00000000E+00  0.00000000E+00
  0.00000000E+00  0.00000000E+00  0.00000000E+00
  0.00000000E+00  0.00000000E+00  0.00000000E+00
  0.00000000E+00  0.00000000E+00  0.00000000E+00
  0.00000000E+00  0.00000000E+00  0.00000000E+00
  0.00000000E+00  0.00000000E+00  0.00000000E+00
  0.00000000E+00  0.00000000E+00  0.00000000E+00
  0.00000000E+00  0.00000000E+00  0.00000000E+00
  0.00000000E+00  0.00000000E+00  0.00000000E+00
  0.00000000E+00  0.00000000E+00  0.00000000E+00
  0.00000000E+00  0.00000000E+00  0.00000000E+00
  0.00000000E+00  0.00000000E+00  0.00000000E+00
  0.00000000E+00  0.00000000E+00  0.00000000E+00
  0.00000000E+00  0.00000000E+00  0.00000000E+00
  0.00000000E+00  0.00000000E+00  0.00000000E+00
  0.00000000E+00  0.00000000E+00  0.00000000E+00
  0.00000000E+00  0.00000000E+00  0.00000000E+00
  0.00000000E+00  0.00000000E+00  0.00000000E+00
  0.00000000E+00  0.00000000E+00  0.00000000E+00
  0.00000000E+00  0.00000000E+00  0.00000000E+00
  0.00000000E+00  0.00000000E+00  0.00000000E+00
  0.00000000E+00  0.00000000E+00  0.00000000E+00
  0.00000000E+00  0.00000000E+00  0.00000000E+00
  0.00000000E+00  0.00000000E+00  0.00000000E+00
  0.00000000E+00  0.00000000E+00  0.00000000E+00
  0.00000000E+00  0.00000000E+00  0.00000000E+00
  0.00000000E+00  0.00000000E+00  0.00000000E+00
  0.00000000E+00  0.00000000E+00  0.00000000E+00
  0.00000000E+00  0.00000000E+00  0.00000000E+00
  0.00000000E+00  0.00000000E+00  0.00000000E+00
  0.00000000E+00  0.00000000E+00  0.00000000E+00
  0.00000000E+00  0.00000000E+00  0.00000000E+00
  0.00000000E+00  0.00000000E+00  0.00000000E+00
  0.00000000E+00  0.00000000E+00  0.00000000E+00
  0.00000000E+00  0.00000000E+00  0.00000000E+00
  0.00000000E+00  0.00000000E+00  0.00000000E+00
  0.00000000E+00  0.00000000E+00  0.00000000E+00
  0.00000000E+00  0.00000000E+00  0.00000000E+00
  0.00000000E+00  0.00000000E+00  0.00000000E+00
  0.00000000E+00  0.00000000E+00  0.00000000E+00
  0.00000000E+00  0.00000000E+00  0.00000000E+00
  0.00000000E+00  0.00000000E+00  0.00000000E+00
  0.00000000E+00  0.00000000E+00  0.00000000E+00
  0.00000000E+00  0.00000000E+00  0.00000000E+00
  0.00000000E+00  0.00000000E+00  0.00000000E+00
  0.00000000E+00  0.00000000E+00  0.00000000E+00
  0.00000000E+00  0.00000000E+00  0.00000000E+00
  0.00000000E+00  0.00000000E+00  0.00000000E+00
  0.00000000E+00  0.00000000E+00  0.00000000E+00
  0.00000000E+00  0.00000000E+00  0.00000000E+00
  0.00000000E+00  0.00000000E+00  0.00000000E+00
  0.00000000E+00  0.00000000E+00  0.00000000E+00
  0.00000000E+00  0.00000000E+00  0.00000000E+00
  0.00000000E+00  0.00000000E+00  0.00000000E+00
  0.00000000E+00  0.00000000E+00  0.00000000E+00
  0.00000000E+00  0.00000000E+00  0.00000000E+00
  0.00000000E+00  0.00000000E+00  0.00000000E+00
  0.00000000E+00  0.00000000E+00  0.00000000E+00
  0.00000000E+00  0.00000000E+00  0.00000000E+00
  0.00000000E+00  0.00000000E+00  0.00000000E+00
  0.00000000E+00  0.00000000E+00  0.00000000E+00
  0.00000000E+00  0.00000000E+00  0.00000000E+00
  0.00000000E+00  0.00000000E+00  0.00000000E+00
  0.00000000E+00  0.00000000E+00  0.00000000E+00
  0.00000000E+00  0.00000000E+00  0.00000000E+00
  0.00000000E+00  0.00000000E+00  0.00000000E+00
  0.00000000E+00  0.00000000E+00  0.00000000E+00
  0.00000000E+00  0.00000000E+00  0.00000000E+00
  0.00000000E+00  0.00000000E+00  0.00000000E+00
  0.00000000E+00  0.00000000E+00  0.00000000E+00
  0.00000000E+00  0.00000000E+00  0.00000000E+00
  0.00000000E+00  0.00000000E+00  0.00000000E+00
  0.00000000E+00  0.00000000E+00  0.00000000E+00
  0.00000000E+00  0.00000000E+00  0.00000000E+00
  0.00000000E+00  0.00000000E+00  0.00000000E+00
  0.00000000E+00  0.00000000E+00  0.00000000E+00
  0.00000000E+00  0.00000000E+00  0.00000000E+00
  0.00000000E+00  0.00000000E+00  0.00000000E+00
  0.00000000E+00  0.00000000E+00  0.00000000E+00
  0.00000000E+00  0.00000000E+00  0.00000000E+00
  0.00000000E+00  0.00000000E+00  0.00000000E+00
  0.00000000E+00  0.00000000E+00  0.00000000E+00
  0.00000000E+00  0.00000000E+00  0.00000000E+00
  0.00000000E+00  0.00000000E+00  0.00000000E+00
  0.00000000E+00  0.00000000E+00  0.00000000E+00
  0.00000000E+00  0.00000000E+00  0.00000000E+00
  0.00000000E+00  0.00000000E+00  0.00000000E+00
  0.00000000E+00  0.00000000E+00  0.00000000E+00
  0.00000000E+00  0.00000000E+00  0.00000000E+00
  0.00000000E+00  0.00000000E+00  0.00000000E+00
  0.00000000E+00  0.00000000E+00  0.00000000E+00
  0.00000000E+00  0.00000000E+00  0.00000000E+00
  0.00000000E+00  0.00000000E+00  0.00000000E+00
  0.00000000E+00  0.00000000E+00  0.00000000E+00
  0.00000000E+00  0.00000000E+00  0.00000000E+00
  0.00000000E+00  0.00000000E+00  0.00000000E+00
  0.00000000E+00  0.00000000E+00  0.00000000E+00
  0.00000000E+00  0.00000000E+00  0.00000000E+00
  0.00000000E+00  0.00000000E+00  0.00000000E+00
  0.00000000E+00  0.00000000E+00  0.00000000E+00
  0.00000000E+00  0.00000000E+00  0.00000000E+00
  0.00000000E+00  0.00000000E+00  0.00000000E+00
  0.00000000E+00  0.00000000E+00  0.00000000E+00
  0.00000000E+00  0.00000000E+00  0.00000000E+00
  0.00000000E+00  0.00000000E+00  0.00000000E+00
  0.00000000E+00  0.00000000E+00  0.00000000E+00
  0.00000000E+00  0.00000000E+00  0.00000000E+00
  0.00000000E+00  0.00000000E+00  0.00000000E+00
  0.00000000E+00  0.00000000E+00  0.00000000E+00
  0.00000000E+00  0.00000000E+00  0.00000000E+00
  0.00000000E+00  0.00000000E+00  0.00000000E+00
  0.00000000E+00  0.00000000E+00  0.00000000E+00
  0.00000000E+00  0.00000000E+00  0.00000000E+00
  0.00000000E+00  0.00000000E+00  0.00000000E+00
  0.00000000E+00  0.00000000E+00  0.00000000E+00
  0.00000000E+00  0.00000000E+00  0.00000000E+00
  0.00000000E+00  0.00000000E+00  0.00000000E+00
  0.00000000E+00  0.00000000E+00  0.00000000E+00
  0.00000000E+00  0.00000000E+00  0.00000000E+00
  0.00000000E+00  0.00000000E+00  0.00000000E+00
  0.00000000E+00  0.00000000E+00  0.00000000E+00
  0.00000000E+00  0.00000000E+00  0.00000000E+00
  0.00000000E+00  0.00000000E+00  0.00000000E+00
  0.00000000E+00  0.00000000E+00  0.00000000E+00
  0.00000000E+00  0.00000000E+00  0.00000000E+00
  0.00000000E+00  0.00000000E+00  0.00000000E+00
  0.00000000E+00  0.00000000E+00  0.00000000E+00
  0.00000000E+00  0.00000000E+00  0.00000000E+00
  0.00000000E+00  0.00000000E+00  0.00000000E+00
  0.00000000E+00  0.00000000E+00  0.00000000E+00
  0.00000000E+00  0.00000000E+00  0.00000000E+00
  0.00000000E+00  0.00000000E+00  0.00000000E+00
  0.00000000E+00  0.00000000E+00  0.00000000E+00
  0.00000000E+00  0.00000000E+00  0.00000000E+00
  0.00000000E+00  0.00000000E+00  0.00000000E+00
  0.00000000E+00  0.00000000E+00  0.00000000E+00
  0.00000000E+00  0.00000000E+00  0.00000000E+00
  0.00000000E+00  0.00000000E+00  0.00000000E+00
  0.00000000E+00  0.00000000E+00  0.00000000E+00
  0.00000000E+00  0.00000000E+00  0.00000000E+00
  0.00000000E+00  0.00000000E+00  0.00000000E+00
  0.00000000E+00  0.00000000E+00  0.00000000E+00
  0.00000000E+00  0.00000000E+00  0.00000000E+00
  0.00000000E+00  0.00000000E+00  0.00000000E+00
  0.00000000E+00  0.00000000E+00  0.00000000E+00
  0.00000000E+00  0.00000000E+00  0.00000000E+00
  0.00000000E+00  0.00000000E+00  0.00000000E+00
  0.00000000E+00  0.00000000E+00  0.00000000E+00
  0.00000000E+00  0.00000000E+00  0.00000000E+00
  0.00000000E+00  0.00000000E+00  0.00000000E+00
  0.00000000E+00  0.00000000E+00  0.00000000E+00
  0.00000000E+00  0.00000000E+00  0.00000000E+00
  0.00000000E+00  0.00000000E+00  0.00000000E+00
  0.00000000E+00  0.00000000E+00  0.00000000E+00
  0.00000000E+00  0.00000000E+00  0.00000000E+00
  0.00000000E+00  0.00000000E+00  0.00000000E+00
  0.00000000E+00  0.00000000E+00  0.00000000E+00
  0.00000000E+00  0.00000000E+00  0.00000000E+00
  0.00000000E+00  0.00000000E+00  0.00000000E+00
  0.00000000E+00  0.00000000E+00  0.00000000E+00
  0.00000000E+00  0.00000000E+00  0.00000000E+00
  0.00000000E+00  0.00000000E+00  0.00000000E+00
  0.00000000E+00  0.00000000E+00  0.00000000E+00
  0.00000000E+00  0.00000000E+00  0.00000000E+00
  0.00000000E+00  0.00000000E+00  0.00000000E+00
  0.00000000E+00  0.00000000E+00  0.00000000E+00
  0.00000000E+00  0.00000000E+00  0.00000000E+00
  0.00000000E+00  0.00000000E+00  0.00000000E+00