Species order:X N B                     
   2.51242800000000     
     5.9449720136058266    0.0000000000000000    0.0000000000000000
    -2.9724860068029120    5.1484967885702053   -0.0000000000000001
     0.0000000000000000    0.0000000000000009    5.3101128803662583
   C    N    B 
     2   142   142
Direct
  0.4421035444559453  0.3850660916923070  0.3750000000000000
  0.5451917677936100  0.4352186173666474  0.3750000000000000
  0.1110169725020004  0.0555148885173186  0.1248822754643229
  0.6111190118844084  0.5555499572899565  0.1249291584726961
  0.4444320478676203  0.0555844102456310  0.1250023046616104
  0.9444470765332386  0.5555637541384192  0.1249328384338596
  0.7777289495551821  0.0555339252436460  0.1249134692649349
  0.1111060875716397  0.7222331954358540  0.6250937398099146
  0.4444387016433863  0.7222027449656190  0.6251074524283203
  0.2776710777016846  0.2221736143871570  0.6251369346078026
  0.7777463225216459  0.7221902323001417  0.6250474267694420
  0.6111148770809984  0.2222452524585594  0.6246699320628637
  0.9443755707087855  0.2221940509723437  0.6250813702396819
  0.2777781136346005  0.7222260427977553  0.1248871522391093
  0.1110074237740905  0.2221629710128287  0.1248588901136908
  0.4443703275153986  0.2222141393654333  0.1251110206774375
  0.6110921608655222  0.7221887046573889  0.1249077572599347
  0.9444240570230297  0.7222152845138252  0.1248955004948731
  0.7777396995672019  0.2222251735187307  0.1250028946547736
  0.1110728396878953  0.8888908549351533  0.6251270911254693
  0.4444414091613688  0.8889054968992270  0.6251255296263731
  0.2777146357956110  0.3888260114901287  0.6251097012982062
  0.6111367791523492  0.3889247537058072  0.6253208791812258
  0.7777320055882057  0.8888583311671095  0.6250860326252075
  0.9444191195646094  0.3888861391633457  0.6251136783610467
  0.1110679463428075  0.3888557979522823  0.1249088918043982
  0.2777714998089043  0.8889150904610678  0.1248735775068402
  0.6110876619308658  0.8888762891316796  0.1248859359137702
  0.4443359784983422  0.3888187562819495  0.1244580621466759
  0.9443837900882047  0.8888565241654952  0.1249238195808521
  0.7777782399061149  0.3889255485194686  0.1248277051586381
  0.2777676979989889  0.5555252681096600  0.6250992920032793
  0.1110169725020004  0.0555148885173186  0.6251177245356766
  0.6111190118844084  0.5555499572899565  0.6250708415273031
  0.4444320478676203  0.0555844102456310  0.6249976953383889
  0.9444470765332386  0.5555637541384192  0.6250671615661405
  0.1111032545628538  0.5555479854939440  0.1249059630986468
  0.7777289495551821  0.0555339252436460  0.6250865307350656
  0.2777226294259847  0.0555591861421662  0.1248774074400685
  0.4444326356108514  0.5555102513183769  0.1248931618558836
  0.7777789592652312  0.5555371144921429  0.1248286856695981
  0.6110943122514015  0.0555657031402639  0.1249309939398249
  0.4444326356108514  0.5555102513183769  0.6251068381441176
  0.9443597819998727  0.0555101526896295  0.1248986163015592
  0.2777781136346005  0.7222260427977553  0.6251128477608907
  0.1110074237740905  0.2221629710128287  0.6251411098863090
  0.4443703275153986  0.2222141393654333  0.6248889793225624
  0.6110921608655222  0.7221887046573889  0.6250922427400638
  0.9444240570230297  0.7222152845138252  0.6251044995051266
  0.7777396995672019  0.2222251735187307  0.6249971053452259
  0.1111060875716397  0.7222331954358540  0.1249062601900846
  0.4444387016433863  0.7222027449656190  0.1248925475716794
  0.2776710777016846  0.2221736143871570  0.1248630653921969
  0.7777463225216459  0.7221902323001417  0.1249525732305583
  0.6111148770809984  0.2222452524585594  0.1253300679371363
  0.9443755707087855  0.2221940509723437  0.1249186297603184
  0.1110679463428075  0.3888557979522823  0.6250911081956020
  0.2777714998089043  0.8889150904610678  0.6251264224931599
  0.6110876619308658  0.8888762891316796  0.6251140640862297
  0.4443359784983421  0.3888187562819495  0.6255419378533239
  0.9443837900882047  0.8888565241654952  0.6250761804191477
  0.1110728396878953  0.8888908549351533  0.1248729088745306
  0.7777782399061149  0.3889255485194686  0.6251722948413616
  0.4444414091613688  0.8889054968992270  0.1248744703736271
  0.2777146357956110  0.3888260114901287  0.1248902987017935
  0.2777676979989889  0.5555252681096600  0.1249007079967205
  0.6111367791523492  0.3889247537058072  0.1246791208187730
  0.7777320055882057  0.8888583311671095  0.1249139673747931
  0.9444191195646093  0.3888861391633457  0.1248863216389533
  0.1111032545628538  0.5555479854939440  0.6250940369013545
  0.2777226294259847  0.0555591861421662  0.6251225925599309
  0.7777789592652312  0.5555371144921429  0.6251713143304022
  0.6110943122514015  0.0555657031402639  0.6250690060601758
  0.9443597819998727  0.0555101526896295  0.6251013836984398
  0.0532587752689074  0.1099685332690034  0.3750000000000000
  0.5572227187097599  0.6085782989954109  0.3750000000000000
  0.3870781064524740  0.1112678461058972  0.3750000000000000
  0.8915465460692786  0.6102650869213732  0.3750000000000000
  0.7223512447774244  0.1158701294136153  0.3750000000000000
  0.0555546772107379  0.7777777883963980  0.8750000000000000
  0.3888790120251728  0.7777775820662273  0.8750000000000000
  0.2222185647380409  0.2777834953360905  0.8750000000000000
  0.7222129330427470  0.7777767188051778  0.8750000000000000
  0.5555461717531199  0.2777750274626380  0.8750000000000000
  0.8888868821311898  0.2777857203773089  0.8750000000000000
  0.2247492534545895  0.7789372284515113  0.3750000000000000
  0.0537635502176792  0.2777805201773832  0.3750000000000000
  0.3844399102086742  0.2776652009581998  0.3750000000000000
  0.5569699840612596  0.7772097705888895  0.3750000000000000
  0.8886705848414127  0.7752354991238513  0.3750000000000000
  0.7232614158924029  0.2902307839913034  0.3750000000000000
  0.0555521260422063  0.9444462436373194  0.8750000000000000
  0.3888810945939754  0.9444392975323277  0.8750000000000000
  0.2222174224311024  0.4444516785527686  0.8750000000000000
  0.5555449637361852  0.4444470660091609  0.8750000000000000
  0.7222119360010760  0.9444443109093988  0.8750000000000000
  0.8888937770035488  0.4444522093112968  0.8750000000000000
  0.0567429478504700  0.4454452955415502  0.3750000000000000
  0.2221237386819162  0.9442168070862971  0.3750000000000000
  0.5568329163218627  0.9462967810859636  0.3750000000000000
  0.3877732346732725  0.4403485759797635  0.3750000000000000
  0.8877448734370346  0.9429780139990629  0.3750000000000000
  0.2222144934285693  0.6111132304783424  0.8750000000000000
  0.0555519115583444  0.1111131644684321  0.8750000000000000
  0.5555425863823991  0.6111081634746853  0.8750000000000000
  0.3888817995723332  0.1111041381541761  0.8750000000000000
  0.8888920731475372  0.6111133890582011  0.8750000000000000
  0.0597883279864616  0.6129886846381092  0.3750000000000000
  0.7222117001143925  0.1111119829189433  0.8750000000000000
  0.2201556653799047  0.1101627890214260  0.3750000000000000
  0.3906856648895183  0.6095657658352014  0.3750000000000000
  0.7242022681291890  0.6009598111258200  0.3750000000000000
  0.5565191092458975  0.1152130169842172  0.3750000000000000
  0.3888784677896202  0.6111128150782839  0.8750000000000000
  0.8875051639883144  0.1115707276766726  0.3750000000000000
  0.2222162971837238  0.7777755668333202  0.8750000000000000
  0.0555533579239063  0.2777855734339495  0.8750000000000000
  0.3888818790143461  0.2777783882665525  0.8750000000000000
  0.5555421612723144  0.7777747604576406  0.8750000000000000
  0.8888866700049340  0.7777802164977764  0.8750000000000000
  0.7222166713701116  0.2777808813330108  0.8750000000000000
  0.0567053899482856  0.7775954587481320  0.3750000000000000
  0.3910395397593208  0.7781955573642050  0.3750000000000000
  0.2188801650906455  0.2763424404753629  0.3750000000000000
  0.7227639926113049  0.7737587208215534  0.3750000000000000
  0.5516940881575642  0.2803814951674862  0.3750000000000000
  0.8879703740527494  0.2801255577507876  0.3750000000000000
  0.0555542592834475  0.4444524491341290  0.8750000000000000
  0.2222169705495720  0.9444409013990067  0.8750000000000000
  0.5555430526655276  0.9444430214681050  0.8750000000000000
  0.3888808283481268  0.4444515495674189  0.8750000000000000
  0.8888860392363842  0.9444474870247037  0.8750000000000000
  0.0543953967697971  0.9431758465190693  0.3750000000000000
  0.7222214306209868  0.4444486517533794  0.8750000000000000
  0.3903470017806770  0.9459586152058576  0.3750000000000000
  0.2226647776090820  0.4440954967051140  0.3750000000000000
  0.2248984575914057  0.6116772639430738  0.3750000000000000
  0.7223378667418036  0.9446410609573909  0.3750000000000000
  0.8914291345170771  0.4479095277603192  0.3750000000000000
  0.0555548929442583  0.6111121317766413  0.8750000000000000
  0.2222169859309928  0.1111104245222280  0.8750000000000000
  0.7222149159462120  0.6111101935743025  0.8750000000000000
  0.5555444267197506  0.1111075352819240  0.8750000000000000
  0.8888848688611973  0.1111145290850431  0.8750000000000000
  0.1094488379565441  0.0545687236852578  0.3750000000000000
  0.6116775893661497  0.5491557783054006  0.3750000000000000
  0.4454381346235972  0.0585748024946882  0.3750000000000000
  0.9496677390404901  0.5580303160194190  0.3750000000000000
  0.7763812320900607  0.0574902152967450  0.3750000000000000
  0.1111051257844596  0.7222204508018059  0.8750000000000000
  0.4444355375458836  0.7222126484103355  0.8750000000000000
  0.2778512453148984  0.2222569961620012  0.8750000000000000
  0.7777345226711113  0.7221593138070391  0.8750000000000000
  0.6110736367599147  0.2222615306755355  0.8750000000000000
  0.9444285901774288  0.2222412442843729  0.8750000000000000
  0.2801815032100572  0.7230345171763791  0.3750000000000000
  0.1083594699172195  0.2212170902374257  0.3750000000000000
  0.4458024134166283  0.2247261664046648  0.3750000000000000
  0.6116689197557770  0.7197352542559678  0.3750000000000000
  0.9453131455096325  0.7210405798150622  0.3750000000000000
  0.7762453029969542  0.2296646245004798  0.3750000000000000
  0.1111288065044867  0.8888978439819795  0.8750000000000000
  0.4444405888331720  0.8889142495556015  0.8750000000000000
  0.2778239715960031  0.3889007785221948  0.8750000000000000
  0.6110715197580968  0.3888649050024827  0.8750000000000000
  0.7777501808092312  0.8888677723456843  0.8750000000000000
  0.9444084892900976  0.3888964364219004  0.8750000000000000
  0.1112173252752034  0.3890208276709696  0.3750000000000000
  0.2795419315207430  0.8902959140322169  0.3750000000000000
  0.6113945448945944  0.8892355924575155  0.3750000000000000
  0.9431880342107060  0.8868796634827064  0.3750000000000000
  0.7801827528065035  0.4049865418437673  0.3750000000000000
  0.2777890740186238  0.5555572023123457  0.8750000000000000
  0.1111508149790389  0.0555772094448286  0.8750000000000000
  0.6110741186221692  0.5554772734645921  0.8750000000000000
  0.4444601156492706  0.0556046120594390  0.8750000000000000
  0.9444033289258393  0.5555343084852307  0.8750000000000000
  0.1140129003400503  0.5564643953002285  0.3750000000000000
  0.7777449081553722  0.0555701326940995  0.8750000000000000
  0.2773148960920012  0.0556688009348618  0.3750000000000000
  0.4462854255609995  0.5527664872972826  0.3750000000000000
  0.7807277641672461  0.5419461364759878  0.3750000000000000
  0.6109832062864043  0.0591477139552334  0.3750000000000000
  0.4444532306831782  0.5555268004344041  0.8750000000000000
  0.9423073878310938  0.0546389013058058  0.3750000000000000
  0.2777798076911881  0.7222324626804145  0.8750000000000000
  0.1111442566332898  0.2222446427123585  0.8750000000000000
  0.4444929996109397  0.2222645410069337  0.8750000000000000
  0.6110812990399314  0.7221733320349506  0.8750000000000000
  0.9444172306423455  0.7221893083882991  0.8750000000000000
  0.7777261055667420  0.2222484041923869  0.8750000000000000
  0.1139888883320297  0.7237217781180397  0.3750000000000000
  0.4459891676762345  0.7213686119060375  0.3750000000000000
  0.2749091385957856  0.2214277818044934  0.3750000000000000
  0.7773861281637023  0.7147289389447179  0.3750000000000000
  0.6087182767368624  0.2307933441795934  0.3750000000000000
  0.9424173201512319  0.2230435705833931  0.3750000000000000
  0.1111180104651065  0.3889035936601605  0.8750000000000000
  0.2777981342631960  0.8889174073873747  0.8750000000000000
  0.6110832037003622  0.8888876891603539  0.8750000000000000
  0.4444899218288061  0.3888853840924356  0.8750000000000000
  0.9444388082522461  0.8888744723486623  0.8750000000000000
  0.1112777628884860  0.8885900370338322  0.3750000000000000
  0.7777148065166247  0.3888814862244508  0.8750000000000000
  0.4458716726174837  0.8902233974215235  0.3750000000000000
  0.2766277175624740  0.3869614588861232  0.3750000000000000
  0.2797331498610373  0.5552885298663826  0.3750000000000000
  0.7767391231367974  0.8863783025023971  0.3750000000000000
  0.9450412631757706  0.3907977251602470  0.3750000000000000
  0.1110997853804929  0.5555564963165772  0.8750000000000000
  0.2778337789959623  0.0555983229364551  0.8750000000000000
  0.7777174370611458  0.5554968575793455  0.8750000000000000
  0.6110794447845498  0.0555920435010689  0.8750000000000000
  0.9444444966231719  0.0555640138333891  0.8750000000000000
  0.0555014099141856  0.1110711865344639  0.1250226836260310
  0.5556077956584211  0.6109276725212984  0.1252537306343037
  0.3890335815102481  0.1113742924465095  0.1255559703511408
  0.8886929085305654  0.6109879173052832  0.1251048635517915
  0.7221338153369860  0.1111711172864649  0.1252439221330082
  0.0554967535233139  0.7777765337559640  0.6249557448052088
  0.3889504179831611  0.7778384680122155  0.6249442849528800
  0.2222417635366498  0.2777116753104759  0.6249621459679462
  0.7221660081661326  0.7776679511858410  0.6248669034076346
  0.5555907314919331  0.2779838690828892  0.6230443530625666
  0.8887262216677074  0.2777500505947362  0.6248703922090943
  0.2222551793176876  0.7778594552140539  0.1250409080345581
  0.0554805631756737  0.2777227435313293  0.1250295845719366
  0.3890560257191576  0.2778434021793720  0.1254239748757754
  0.5555814510162359  0.7777415080393921  0.1250759755156909
  0.8887738968051714  0.7776786263433689  0.1250884941201894
  0.7220096353492683  0.2778008505372064  0.1256385950578162
  0.0555163681592687  0.9444380954536530  0.6249554227723243
  0.3889840648974963  0.9446524678375715  0.6248201320516629
  0.2222398036081450  0.4443684127790588  0.6249546816532040
  0.5555525420803988  0.4442194548025526  0.6235879866862444
  0.7221747288604972  0.9444356164397419  0.6249140769295622
  0.8886616599753064  0.4443604692707719  0.6248784344422246
  0.0554592556898582  0.4443909384444432  0.1250441668529576
  0.2222780457964326  0.9445726395393637  0.1250890242036576
  0.5555800330349672  0.9445564617159647  0.1251287648302433
  0.3890227786020078  0.4442795520409024  0.1250567378872376
  0.8888080463903307  0.9443872772930669  0.1250498074661738
  0.7218546668104951  0.4442440618475261  0.1254768937516833
  0.2222379362900947  0.6110987140646628  0.6249729179122295
  0.0555014099141856  0.1110711865344639  0.6249773163739694
  0.5556077956584211  0.6109276725212984  0.6247462693656971
  0.3890335815102481  0.1113742924465095  0.6244440296488588
  0.8886929085305654  0.6109879173052832  0.6248951364482073
  0.0554752149587980  0.6110844197788990  0.1250436962713383
  0.7221338153369860  0.1111711172864649  0.6247560778669924
  0.2222683239130006  0.1111629941580509  0.1251357644156016
  0.3889684072000520  0.6110305540813979  0.1250812073905885
  0.7220485982895114  0.6108923181754944  0.1253319039686444
  0.5555956510567918  0.1113517829981179  0.1256576956400225
  0.3889684072000520  0.6110305540813979  0.6249187926094116
  0.8887877959784871  0.1110812420714871  0.1250599672805522
  0.2222551793176876  0.7778594552140539  0.6249590919654410
  0.0554805631756737  0.2777227435313293  0.6249704154280635
  0.3890560257191576  0.2778434021793720  0.6245760251242243
  0.5555814510162359  0.7777415080393921  0.6249240244843086
  0.8887738968051714  0.7776786263433689  0.6249115058798103
  0.7220096353492683  0.2778008505372064  0.6243614049421842
  0.0554967535233139  0.7777765337559640  0.1250442551947915
  0.3889504179831611  0.7778384680122155  0.1250557150471202
  0.2222417635366498  0.2777116753104759  0.1250378540320538
  0.7221660081661326  0.7776679511858410  0.1251330965923649
  0.5555907314919331  0.2779838690828892  0.1269556469374322
  0.8887262216677074  0.2777500505947362  0.1251296077909054
  0.0554592556898582  0.4443909384444432  0.6249558331470431
  0.2222780457964326  0.9445726395393637  0.6249109757963422
  0.5555800330349672  0.9445564617159647  0.6248712351697567
  0.3890227786020078  0.4442795520409024  0.6249432621127620
  0.8888080463903307  0.9443872772930669  0.6249501925338263
  0.0555163681592687  0.9444380954536530  0.1250445772276767
  0.7218546668104951  0.4442440618475261  0.6245231062483162
  0.3889840648974963  0.9446524678375715  0.1251798679483378
  0.2222398036081450  0.4443684127790588  0.1250453183467953
  0.2222379362900947  0.6110987140646628  0.1250270820877709
  0.5555525420803988  0.4442194548025526  0.1264120133137561
  0.7221747288604972  0.9444356164397419  0.1250859230704379
  0.8886616599753064  0.4443604692707719  0.1251215655577752
  0.0554752149587980  0.6110844197788990  0.6249563037286624
  0.2222683239130006  0.1111629941580509  0.6248642355843980
  0.7220485982895114  0.6108923181754944  0.6246680960313551
  0.5555956510567918  0.1113517829981179  0.6243423043599781
  0.8887877959784871  0.1110812420714871  0.6249400327194484
 
  0.00000000E+00  0.00000000E+00  0.00000000E+00
  0.00000000E+00  0.00000000E+00  0.00000000E+00
  0.00000000E+00  0.00000000E+00  0.00000000E+00
  0.00000000E+00  0.00000000E+00  0.00000000E+00
  0.00000000E+00  0.00000000E+00  0.00000000E+00
  0.00000000E+00  0.00000000E+00  0.00000000E+00
  0.00000000E+00  0.00000000E+00  0.00000000E+00
  0.00000000E+00  0.00000000E+00  0.00000000E+00
  0.00000000E+00  0.00000000E+00  0.00000000E+00
  0.00000000E+00  0.00000000E+00  0.00000000E+00
  0.00000000E+00  0.00000000E+00  0.00000000E+00
  0.00000000E+00  0.00000000E+00  0.00000000E+00
  0.00000000E+00  0.00000000E+00  0.00000000E+00
  0.00000000E+00  0.00000000E+00  0.00000000E+00
  0.00000000E+00  0.00000000E+00  0.00000000E+00
  0.00000000E+00  0.00000000E+00  0.00000000E+00
  0.00000000E+00  0.00000000E+00  0.00000000E+00
  0.00000000E+00  0.00000000E+00  0.00000000E+00
  0.00000000E+00  0.00000000E+00  0.00000000E+00
  0.00000000E+00  0.00000000E+00  0.00000000E+00
  0.00000000E+00  0.00000000E+00  0.00000000E+00
  0.00000000E+00  0.00000000E+00  0.00000000E+00
  0.00000000E+00  0.00000000E+00  0.00000000E+00
  0.00000000E+00  0.00000000E+00  0.00000000E+00
  0.00000000E+00  0.00000000E+00  0.00000000E+00
  0.00000000E+00  0.00000000E+00  0.00000000E+00
  0.00000000E+00  0.00000000E+00  0.00000000E+00
  0.00000000E+00  0.00000000E+00  0.00000000E+00
  0.00000000E+00  0.00000000E+00  0.00000000E+00
  0.00000000E+00  0.00000000E+00  0.00000000E+00
  0.00000000E+00  0.00000000E+00  0.00000000E+00
  0.00000000E+00  0.00000000E+00  0.00000000E+00
  0.00000000E+00  0.00000000E+00  0.00000000E+00
  0.00000000E+00  0.00000000E+00  0.00000000E+00
  0.00000000E+00  0.00000000E+00  0.00000000E+00
  0.00000000E+00  0.00000000E+00  0.00000000E+00
  0.00000000E+00  0.00000000E+00  0.00000000E+00
  0.00000000E+00  0.00000000E+00  0.00000000E+00
  0.00000000E+00  0.00000000E+00  0.00000000E+00
  0.00000000E+00  0.00000000E+00  0.00000000E+00
  0.00000000E+00  0.00000000E+00  0.00000000E+00
  0.00000000E+00  0.00000000E+00  0.00000000E+00
  0.00000000E+00  0.00000000E+00  0.00000000E+00
  0.00000000E+00  0.00000000E+00  0.00000000E+00
  0.00000000E+00  0.00000000E+00  0.00000000E+00
  0.00000000E+00  0.00000000E+00  0.00000000E+00
  0.00000000E+00  0.00000000E+00  0.00000000E+00
  0.00000000E+00  0.00000000E+00  0.00000000E+00
  0.00000000E+00  0.00000000E+00  0.00000000E+00
  0.00000000E+00  0.00000000E+00  0.00000000E+00
  0.00000000E+00  0.00000000E+00  0.00000000E+00
  0.00000000E+00  0.00000000E+00  0.00000000E+00
  0.00000000E+00  0.00000000E+00  0.00000000E+00
  0.00000000E+00  0.00000000E+00  0.00000000E+00
  0.00000000E+00  0.00000000E+00  0.00000000E+00
  0.00000000E+00  0.00000000E+00  0.00000000E+00
  0.00000000E+00  0.00000000E+00  0.00000000E+00
  0.00000000E+00  0.00000000E+00  0.00000000E+00
  0.00000000E+00  0.00000000E+00  0.00000000E+00
  0.00000000E+00  0.00000000E+00  0.00000000E+00
  0.00000000E+00  0.00000000E+00  0.00000000E+00
  0.00000000E+00  0.00000000E+00  0.00000000E+00
  0.00000000E+00  0.00000000E+00  0.00000000E+00
  0.00000000E+00  0.00000000E+00  0.00000000E+00
  0.00000000E+00  0.00000000E+00  0.00000000E+00
  0.00000000E+00  0.00000000E+00  0.00000000E+00
  0.00000000E+00  0.00000000E+00  0.00000000E+00
  0.00000000E+00  0.00000000E+00  0.00000000E+00
  0.00000000E+00  0.00000000E+00  0.00000000E+00
  0.00000000E+00  0.00000000E+00  0.00000000E+00
  0.00000000E+00  0.00000000E+00  0.00000000E+00
  0.00000000E+00  0.00000000E+00  0.00000000E+00
  0.00000000E+00  0.00000000E+00  0.00000000E+00
  0.00000000E+00  0.00000000E+00  0.00000000E+00
  0.00000000E+00  0.00000000E+00  0.00000000E+00
  0.00000000E+00  0.00000000E+00  0.00000000E+00
  0.00000000E+00  0.00000000E+00  0.00000000E+00
  0.00000000E+00  0.00000000E+00  0.00000000E+00
  0.00000000E+00  0.00000000E+00  0.00000000E+00
  0.00000000E+00  0.00000000E+00  0.00000000E+00
  0.00000000E+00  0.00000000E+00  0.00000000E+00
  0.00000000E+00  0.00000000E+00  0.00000000E+00
  0.00000000E+00  0.00000000E+00  0.00000000E+00
  0.00000000E+00  0.00000000E+00  0.00000000E+00
  0.00000000E+00  0.00000000E+00  0.00000000E+00
  0.00000000E+00  0.00000000E+00  0.00000000E+00
  0.00000000E+00  0.00000000E+00  0.00000000E+00
  0.00000000E+00  0.00000000E+00  0.00000000E+00
  0.00000000E+00  0.00000000E+00  0.00000000E+00
  0.00000000E+00  0.00000000E+00  0.00000000E+00
  0.00000000E+00  0.00000000E+00  0.00000000E+00
  0.00000000E+00  0.00000000E+00  0.00000000E+00
  0.00000000E+00  0.00000000E+00  0.00000000E+00
  0.00000000E+00  0.00000000E+00  0.00000000E+00
  0.00000000E+00  0.00000000E+00  0.00000000E+00
  0.00000000E+00  0.00000000E+00  0.00000000E+00
  0.00000000E+00  0.00000000E+00  0.00000000E+00
  0.00000000E+00  0.00000000E+00  0.00000000E+00
  0.00000000E+00  0.00000000E+00  0.00000000E+00
  0.00000000E+00  0.00000000E+00  0.00000000E+00
  0.00000000E+00  0.00000000E+00  0.00000000E+00
  0.00000000E+00  0.00000000E+00  0.00000000E+00
  0.00000000E+00  0.00000000E+00  0.00000000E+00
  0.00000000E+00  0.00000000E+00  0.00000000E+00
  0.00000000E+00  0.00000000E+00  0.00000000E+00
  0.00000000E+00  0.00000000E+00  0.00000000E+00
  0.00000000E+00  0.00000000E+00  0.00000000E+00
  0.00000000E+00  0.00000000E+00  0.00000000E+00
  0.00000000E+00  0.00000000E+00  0.00000000E+00
  0.00000000E+00  0.00000000E+00  0.00000000E+00
  0.00000000E+00  0.00000000E+00  0.00000000E+00
  0.00000000E+00  0.00000000E+00  0.00000000E+00
  0.00000000E+00  0.00000000E+00  0.00000000E+00
  0.00000000E+00  0.00000000E+00  0.00000000E+00
  0.00000000E+00  0.00000000E+00  0.00000000E+00
  0.00000000E+00  0.00000000E+00  0.00000000E+00
  0.00000000E+00  0.00000000E+00  0.00000000E+00
  0.00000000E+00  0.00000000E+00  0.00000000E+00
  0.00000000E+00  0.00000000E+00  0.00000000E+00
  0.00000000E+00  0.00000000E+00  0.00000000E+00
  0.00000000E+00  0.00000000E+00  0.00000000E+00
  0.00000000E+00  0.00000000E+00  0.00000000E+00
  0.00000000E+00  0.00000000E+00  0.00000000E+00
  0.00000000E+00  0.00000000E+00  0.00000000E+00
  0.00000000E+00  0.00000000E+00  0.00000000E+00
  0.00000000E+00  0.00000000E+00  0.00000000E+00
  0.00000000E+00  0.00000000E+00  0.00000000E+00
  0.00000000E+00  0.00000000E+00  0.00000000E+00
  0.00000000E+00  0.00000000E+00  0.00000000E+00
  0.00000000E+00  0.00000000E+00  0.00000000E+00
  0.00000000E+00  0.00000000E+00  0.00000000E+00
  0.00000000E+00  0.00000000E+00  0.00000000E+00
  0.00000000E+00  0.00000000E+00  0.00000000E+00
  0.00000000E+00  0.00000000E+00  0.00000000E+00
  0.00000000E+00  0.00000000E+00  0.00000000E+00
  0.00000000E+00  0.00000000E+00  0.00000000E+00
  0.00000000E+00  0.00000000E+00  0.00000000E+00
  0.00000000E+00  0.00000000E+00  0.00000000E+00
  0.00000000E+00  0.00000000E+00  0.00000000E+00
  0.00000000E+00  0.00000000E+00  0.00000000E+00
  0.00000000E+00  0.00000000E+00  0.00000000E+00
  0.00000000E+00  0.00000000E+00  0.00000000E+00
  0.00000000E+00  0.00000000E+00  0.00000000E+00
  0.00000000E+00  0.00000000E+00  0.00000000E+00
  0.00000000E+00  0.00000000E+00  0.00000000E+00
  0.00000000E+00  0.00000000E+00  0.00000000E+00
  0.00000000E+00  0.00000000E+00  0.00000000E+00
  0.00000000E+00  0.00000000E+00  0.00000000E+00
  0.00000000E+00  0.00000000E+00  0.00000000E+00
  0.00000000E+00  0.00000000E+00  0.00000000E+00
  0.00000000E+00  0.00000000E+00  0.00000000E+00
  0.00000000E+00  0.00000000E+00  0.00000000E+00
  0.00000000E+00  0.00000000E+00  0.00000000E+00
  0.00000000E+00  0.00000000E+00  0.00000000E+00
  0.00000000E+00  0.00000000E+00  0.00000000E+00
  0.00000000E+00  0.00000000E+00  0.00000000E+00
  0.00000000E+00  0.00000000E+00  0.00000000E+00
  0.00000000E+00  0.00000000E+00  0.00000000E+00
  0.00000000E+00  0.00000000E+00  0.00000000E+00
  0.00000000E+00  0.00000000E+00  0.00000000E+00
  0.00000000E+00  0.00000000E+00  0.00000000E+00
  0.00000000E+00  0.00000000E+00  0.00000000E+00
  0.00000000E+00  0.00000000E+00  0.00000000E+00
  0.00000000E+00  0.00000000E+00  0.00000000E+00
  0.00000000E+00  0.00000000E+00  0.00000000E+00
  0.00000000E+00  0.00000000E+00  0.00000000E+00
  0.00000000E+00  0.00000000E+00  0.00000000E+00
  0.00000000E+00  0.00000000E+00  0.00000000E+00
  0.00000000E+00  0.00000000E+00  0.00000000E+00
  0.00000000E+00  0.00000000E+00  0.00000000E+00
  0.00000000E+00  0.00000000E+00  0.00000000E+00
  0.00000000E+00  0.00000000E+00  0.00000000E+00
  0.00000000E+00  0.00000000E+00  0.00000000E+00
  0.00000000E+00  0.00000000E+00  0.00000000E+00
  0.00000000E+00  0.00000000E+00  0.00000000E+00
  0.00000000E+00  0.00000000E+00  0.00000000E+00
  0.00000000E+00  0.00000000E+00  0.00000000E+00
  0.00000000E+00  0.00000000E+00  0.00000000E+00
  0.00000000E+00  0.00000000E+00  0.00000000E+00
  0.00000000E+00  0.00000000E+00  0.00000000E+00
  0.00000000E+00  0.00000000E+00  0.00000000E+00
  0.00000000E+00  0.00000000E+00  0.00000000E+00
  0.00000000E+00  0.00000000E+00  0.00000000E+00
  0.00000000E+00  0.00000000E+00  0.00000000E+00
  0.00000000E+00  0.00000000E+00  0.00000000E+00
  0.00000000E+00  0.00000000E+00  0.00000000E+00
  0.00000000E+00  0.00000000E+00  0.00000000E+00
  0.00000000E+00  0.00000000E+00  0.00000000E+00
  0.00000000E+00  0.00000000E+00  0.00000000E+00
  0.00000000E+00  0.00000000E+00  0.00000000E+00
  0.00000000E+00  0.00000000E+00  0.00000000E+00
  0.00000000E+00  0.00000000E+00  0.00000000E+00
  0.00000000E+00  0.00000000E+00  0.00000000E+00
  0.00000000E+00  0.00000000E+00  0.00000000E+00
  0.00000000E+00  0.00000000E+00  0.00000000E+00
  0.00000000E+00  0.00000000E+00  0.00000000E+00
  0.00000000E+00  0.00000000E+00  0.00000000E+00
  0.00000000E+00  0.00000000E+00  0.00000000E+00
  0.00000000E+00  0.00000000E+00  0.00000000E+00
  0.00000000E+00  0.00000000E+00  0.00000000E+00
  0.00000000E+00  0.00000000E+00  0.00000000E+00
  0.00000000E+00  0.00000000E+00  0.00000000E+00
  0.00000000E+00  0.00000000E+00  0.00000000E+00
  0.00000000E+00  0.00000000E+00  0.00000000E+00
  0.00000000E+00  0.00000000E+00  0.00000000E+00
  0.00000000E+00  0.00000000E+00  0.00000000E+00
  0.00000000E+00  0.00000000E+00  0.00000000E+00
  0.00000000E+00  0.00000000E+00  0.00000000E+00
  0.00000000E+00  0.00000000E+00  0.00000000E+00
  0.00000000E+00  0.00000000E+00  0.00000000E+00
  0.00000000E+00  0.00000000E+00  0.00000000E+00
  0.00000000E+00  0.00000000E+00  0.00000000E+00
  0.00000000E+00  0.00000000E+00  0.00000000E+00
  0.00000000E+00  0.00000000E+00  0.00000000E+00
  0.00000000E+00  0.00000000E+00  0.00000000E+00
  0.00000000E+00  0.00000000E+00  0.00000000E+00
  0.00000000E+00  0.00000000E+00  0.00000000E+00
  0.00000000E+00  0.00000000E+00  0.00000000E+00
  0.00000000E+00  0.00000000E+00  0.00000000E+00
  0.00000000E+00  0.00000000E+00  0.00000000E+00
  0.00000000E+00  0.00000000E+00  0.00000000E+00
  0.00000000E+00  0.00000000E+00  0.00000000E+00
  0.00000000E+00  0.00000000E+00  0.00000000E+00
  0.00000000E+00  0.00000000E+00  0.00000000E+00
  0.00000000E+00  0.00000000E+00  0.00000000E+00
  0.00000000E+00  0.00000000E+00  0.00000000E+00
  0.00000000E+00  0.00000000E+00  0.00000000E+00
  0.00000000E+00  0.00000000E+00  0.00000000E+00
  0.00000000E+00  0.00000000E+00  0.00000000E+00
  0.00000000E+00  0.00000000E+00  0.00000000E+00
  0.00000000E+00  0.00000000E+00  0.00000000E+00
  0.00000000E+00  0.00000000E+00  0.00000000E+00
  0.00000000E+00  0.00000000E+00  0.00000000E+00
  0.00000000E+00  0.00000000E+00  0.00000000E+00
  0.00000000E+00  0.00000000E+00  0.00000000E+00
  0.00000000E+00  0.00000000E+00  0.00000000E+00
  0.00000000E+00  0.00000000E+00  0.00000000E+00
  0.00000000E+00  0.00000000E+00  0.00000000E+00
  0.00000000E+00  0.00000000E+00  0.00000000E+00
  0.00000000E+00  0.00000000E+00  0.00000000E+00
  0.00000000E+00  0.00000000E+00  0.00000000E+00
  0.00000000E+00  0.00000000E+00  0.00000000E+00
  0.00000000E+00  0.00000000E+00  0.00000000E+00
  0.00000000E+00  0.00000000E+00  0.00000000E+00
  0.00000000E+00  0.00000000E+00  0.00000000E+00
  0.00000000E+00  0.00000000E+00  0.00000000E+00
  0.00000000E+00  0.00000000E+00  0.00000000E+00
  0.00000000E+00  0.00000000E+00  0.00000000E+00
  0.00000000E+00  0.00000000E+00  0.00000000E+00