 N B Ge 
 1.0
 17.527899999999772   0.000000000000000   0.000000000000000
 -8.763949999999658  15.179606674993195   0.000000000000000
  0.000000000000001   0.000000000000002  15.000000000000000
 N B Ge 
  47  49   1
Cartesian
  8.769099194863291  13.730653669489474   1.544712853756320 
 16.281779733008737   0.711326203160229   1.585152174139320 
 15.029130359441512   2.871752272898518   1.592917644233400 
 13.775350935545999   5.039881013564131   1.572570114808560 
 12.527139072181006   7.213167990301879   1.551435205370625 
 11.278992154054730   9.391365552883167   1.538714815764300 
 10.024576370639616  11.565906680797928   1.520867948128410 
 -6.256871423666730  13.742515858343323   1.556538878050515 
  1.257467103165404   0.731671470991045   1.573222695326340 
  0.013132701507636   2.904555973186376   1.586893077923820 
 -1.251730938751665   5.051652737948608   1.559978172506205 
 -2.519441315528388   7.217527536192663   1.524941675790960 
 -3.766593958811826   9.393274599086118   1.539162979137330 
 -5.008249746070838  11.570047410310998   1.553182865966940 
 -3.757041130054454  13.743105512122781   1.594482817636905 
  3.758880229680831   0.737824311052550   1.599034605839385 
  2.509285668428084   2.912913600985194   1.611794869326660 
  1.274869344699315   5.110283830785850   1.626926124291450 
 -0.040526465940867   7.224627984608214   1.513263458147370 
 -1.287720616799885   9.396379926175285   1.511712178779840 
 -2.514102567281088  11.569743448403903   1.577509527258705 
 -1.254418652413182  13.733101150373107   1.640727774768495 
  6.262333830300395   0.728944353011316   1.637497391507940 
  5.011434961160647   2.908614968475333   1.698274723727025 
  3.756019516919364   5.086952019852601   1.825064451032355 
  2.473022038069391   7.355415850256227   1.777361992211565 
  1.176481515654374   9.400185878292888   1.585004543431440 
 -0.017037389772520  11.562135466997567   1.650070920127005 
  1.259675685298205  13.691390545103982   1.706249865172815 
  8.772389371177312   0.702740161213380   1.656160513283790 
  7.521552989342613   2.884731415056578   1.699151938795695 
  6.271744012843463   5.056404026793117   1.963075015092690 
  2.505939401726918  11.471910170868819   1.866296939750025 
  3.756752331020185  13.672016605091311   1.697570303070555 
 11.275455297492760   0.685900526137225   1.663430120712765 
 10.029010186393883   2.868720374197495   1.655155282054740 
  8.778406191995744   5.046817708139809   1.742665172418990 
  7.602796566954843   7.224055493742969   1.930647988715475 
  6.310682715052756   9.373881738335079   1.713139745092410 
  5.001405258305939  11.487156409761903   1.641283608102270 
  6.259893542494619  13.697357465796072   1.601392271605215 
 13.775118599853833   0.685992183328450   1.625719368016530 
 12.527421818125108   2.862689797950287   1.619491757703915 
 11.278947030932608   5.037131240743897   1.611792686694750 
 10.049925305426326   7.210591520535551   1.592385061307565 
  8.795888058047680   9.387661492243581   1.582374455460150 
  7.522468473021156  11.552138836433601   1.520039186309415 
  7.512420243422902  14.441335231919663   1.574808093885660 
 15.025341992473672   1.423522743457311   1.601145023983650 
 13.776953437151937   3.592544745396810   1.595175866891835 
 12.527365485738166   5.765178309913230   1.575904602645855 
 11.288697517840266   7.942609686971035   1.552170723014685 
 10.035752555943589  10.119737783328796   1.538590403425875 
  8.773995295301418  12.286842617769551   1.521876095030310 
 -7.507951815902471  14.463992606728336   1.556576007919095 
  0.005991770477363   1.452667468993816   1.580588894682225 
 -1.248888626919122   3.607528200452370   1.581212772974220 
 -2.505624049186942   5.771156302833464   1.549283354262195 
 -3.760755429766100   7.945058068962038   1.536232307524680 
 -5.005437758377918  10.119737783328796   1.542830415060195 
 -6.254833926412635  12.295662896559071   1.541938856174655 
 -5.005947861376882  14.469439297734155   1.582312929615285 
  2.507491306698290   1.463015400960202   1.591483407621885 
  1.265033380441253   3.651259058695200   1.608245600731920 
 -0.005012249743943   5.787746211584389   1.563730398125445 
 -1.281784608068338   7.950744713773028   1.506777816573600 
 -2.524361483146589  10.122989496706653   1.542089246419305 
 -3.759297385080547  12.296383476231057   1.575680471153595 
 -2.503314002080909  14.462405026362392   1.622174403385080 
  5.011798734880330   1.459783670447739   1.639657710051075 
  3.755597504781436   3.637669034505795   1.692155834583300 
  2.521697353645656   5.881601580635373   1.758400788732825 
  1.182073625990355   7.962381694226354   1.591833643039785 
 -0.047205164971595  10.126868224158748   1.562175441333165 
 -1.261309939093464  12.290342952473621   1.621980174075930 
  0.009114439662922  14.432519992146181   1.665563426712045 
  7.521648985929403   1.437044796954207   1.659202450314540 
  6.272359295778474   3.614989837904277   1.772471519303370 
  4.996982988677988   5.717104751890991   2.177538732470760 
  3.373474072806675   8.487528115531875   2.252994684661080 
  2.443709673386842   9.998496787387126   1.921810829850600 
  1.257805880171750  12.235689696385984   1.742970791990310 
  2.509294380409655  14.413593963506528   1.696623579349170 
 10.026008176637010   1.419413202801135   1.658502157485615 
  8.777460329323059   3.598585885766021   1.700300398647885 
  7.540812775358509   5.775354744699026   1.909072869746505 
  6.481789052343363   8.040534034477979   2.246925270742080 
  5.059587267001280  10.053873628166304   1.638893562300105 
  3.742590901791245  12.214766258496971   1.745440642228695 
  5.004338144625695  14.413937889275093   1.640826036766275 
 12.525186628033676   1.413583509087617   1.638283404824670 
 11.278471398441258   3.589828377412761   1.630914772257495 
 10.033821207033609   5.764233531270603   1.649872905412275 
  8.820940294401318   7.940333173795889   1.674313574963505 
  7.551892746753690  10.114746038843357   1.577299830255525 
  6.259565330526351  12.249112948030483   1.587695392086630 
  4.876167223520302   7.483108207371292   3.302576431534095 
