 B N Se C 
 1.0
 17.527899999999772   0.000000000000000   0.000000000000000
 -8.763949999999658  15.179606674993195   0.000000000000000
  0.000000000000001   0.000000000000002  15.000000000000000
 B N Se C 
  48  48   1   1
Cartesian
  7.490368528551867  14.545696434925276   1.677394412298375 
 14.998881139409441   1.528368214487055   1.677306075559365 
 13.750036868608147   3.692571093467122   1.677088154578395 
 12.508178779916507   5.861232450886101   1.677394852808010 
 11.284434342582667   8.038432636519479   1.677334325883660 
 10.024845100846541  10.217592059371650   1.677237412743225 
  8.764220671905562  12.398728919244995   1.677224104497660 
 -7.531166998071421  14.536097571517162   1.677627860807250 
 -0.028712094319328   1.522266769907318   1.677394412298375 
 -1.285568285813656   3.690419726218876   1.677246317671410 
 -2.534590810060930   5.860711775703995   1.677257154697920 
 -3.773732842994809   8.034974821315792   1.677542998474425 
 -5.017153047183559  10.206485280303770   1.677275252089845 
 -6.270323923774122  12.373540964844237   1.677230243579760 
 -5.027916502422093  14.525453742326942   1.677230243579760 
  2.467542387037255   1.492562210937349   1.677224104497660 
  1.210631597301558   3.683394833232431   1.677383283550320 
 -0.052070010448403   5.857455117535342   1.677415724504040 
 -1.301984398281120   8.035063709498360   1.677264919598535 
 -2.529487717935386  10.204374385676495   1.677327471110910 
 -3.774817011923262  12.367367895844048   1.677072788900370 
 -2.524605789881676  14.523703770186774   1.677275252089845 
  4.986774531306429   1.491397860780164   1.677237412743225 
  3.694965911704873   3.606492526502801   1.677433230672135 
  2.433467669450888   5.870574461427252   1.677469249882140 
  1.150258549171603   8.039217369554738   1.677531567290820 
 -0.041398916147703  10.211877953261036   1.677409260076710 
 -1.278945036885707  12.370377846257940   1.677327471110910 
 -0.022312465720246  14.532625515274345   1.677542998474425 
  7.503776571260472   1.490141290528707   1.677334325883660 
  6.272341232441715   3.605696899447404   1.677516677878005 
  4.980032115985299   5.537780509346927   1.678525446450555 
  2.436009075802713  10.266202607537648   1.677531567290820 
  1.213484777212604  12.391984126296267   1.677264919598535 
  2.480225582739154  14.546628558662086   1.677257154697920 
 10.001159459793012   1.518947612874616   1.677394852808010 
  8.762839900042245   3.673016058203795   1.677376799341635 
  7.533629728443202   5.838433126176781   1.677954459101640 
  6.517203726095065   8.200239838038966   1.678525446450555 
  4.955713486099345  10.239232365072143   1.677469249882140 
  3.724306331250774  12.398330809858990   1.677415724504040 
  4.984264893347921  14.550089347507638   1.677246317671410 
 12.500204331868927   1.527797638881617   1.677088154578395 
 11.257111802803184   3.688679748222556   1.677399512001255 
 10.023541004896138   5.856614424968678   1.677376799341635 
  8.836591772731468   8.047109118595701   1.677516677878005 
  7.547215079121275  10.278783807912735   1.677433230672135 
  6.238448570690782  12.391829282299168   1.677383283550320 
  8.747594932183270  13.831304471285339   1.677220447794495 
 16.248975786555619   0.806619466514126   1.677098124524415 
 14.995915277946510   2.969240460241570   1.676926126971420 
 13.748594195016919   5.135429004472245   1.677012430942635 
 12.515193219381429   7.306309940554447   1.677223343063880 
 11.266814645182963   9.482977305655782   1.677047902475805 
 10.009598638839098  11.659910441886618   1.676961510818670 
 -6.279085410986355  13.813201663235471   1.677145125741495 
  1.218577268947471   0.790663347477355   1.677220447794495 
 -0.036356979130926   2.965617690460400   1.677122743602510 
 -1.293485343755458   5.131438924047439   1.677056832405570 
 -2.539311381136491   7.305352042137225   1.677102163745565 
 -3.775559877632496   9.479192015835160   1.677137116533495 
 -5.023259540349228  11.648562325390522   1.676901194279115 
 -3.776539819063019  13.807944225456765   1.676901194279115 
  3.730061513360288   0.783433092542483   1.676961510818670 
  2.447140991605437   2.921939920248585   1.676980506729150 
  1.198272348569937   5.132137725304842   1.677121979687190 
 -0.073589859209856   7.300732155514303   1.677156624668625 
 -1.289669040860193   9.481332680290897   1.677050147786640 
 -2.528393514938220  11.647738687404361   1.677024296876355 
 -1.273960189413699  13.812089776027957   1.677137116533495 
  6.243948914848384   0.783118661119616   1.677047902475805 
  4.987720787216158   2.927242714161249   1.677098553631815 
  3.669186766661273   5.024593893577139   1.677531016520505 
  2.369542101426345   7.318774443372979   1.676999825861595 
  1.196201128688213   9.497342967284627   1.677288710191245 
 -0.032868640827418  11.658174828120421   1.677050147786640 
  1.226764699801485  13.828387159521014   1.677102163745565 
  8.753187435696656   0.790324784874220   1.677223343063880 
  7.521871366333158   2.925434691861879   1.677062842440060 
  6.301757334028208   5.039333953567582   1.677753240718935 
  3.669567300632677   9.570484139548126   1.676999825861595 
  2.463626399942211  11.695319626186054   1.677156624668625 
  3.732341704377980  13.836426721497793   1.677056832405570 
 11.249925962752711   0.807608674962122   1.677012430942635 
 10.008575874218014   2.962440035866190   1.677176620984365 
  8.772706795334654   5.123045381119304   1.677202550180250 
  7.609728287528508   7.304806099854402   1.677753240718935 
  6.306208270241132   9.592049118459771   1.677531016520505 
  4.977615370898914  11.678151859240311   1.677121979687190 
  6.236562095049655  13.830632238708505   1.677122743602510 
 13.749560812925708   0.810491202584495   1.676926126971420 
 12.502156291059043   2.969846710843614   1.676940075061275 
 11.261780451335525   5.133054035681131   1.677176620984365 
 10.050475765376021   7.305105983217159   1.677062842440060 
  8.781834682567645   9.498840750613070   1.677098553631815 
  7.516137139002114  11.701698790909433   1.676980506729150 
  4.963846929895712   7.322091649736329   1.678209583018440 
  3.489173937085330   8.173500766052960   1.678111976040255 
