B C N Se                                
   1.0000000000000000     
     8.7639499999999995  -15.1796066749929999    0.0000000000000000
     8.7639499999999995   15.1796066749929999    0.0000000000000000
     0.0000000000000000    0.0000000000000000   15.0000000000000000
   B    C    N    Se
    48     1    48     1
Selective dynamics
Direct
  0.9064594321513966  0.9582393500938193  0.1118262941532251   T   T   T
  0.9060574820408936  0.1006856269210773  0.1118204050372910   T   T   T
  0.9060950703406199  0.2432586807107622  0.1118058769718926   T   T   T
  0.9066780911129492  0.3861254495178631  0.1118263235205339   T   T   T
  0.9085757899771170  0.5295547380527288  0.1118222883922436   T   T   T
  0.9084930098183214  0.6731130969423640  0.1118158275162153   T   T   T
  0.9084163049219145  0.8168017251507970  0.1118149402998442   T   T   T
  0.0491361114457749  0.9576069975162043  0.1118418573871498   T   T   T
  0.0485037588681512  0.1002836768106179  0.1118262941532251   T   T   T
  0.0482143631890557  0.2431169532408543  0.1118164211780943   T   T   T
  0.0484423525513309  0.3860911485512268  0.1118171436465283   T   T   T
  0.0493648430800940  0.5293269445876068  0.1118361998982948   T   T   T
  0.0499525885519421  0.6723814061083604  0.1118183501393226   T   T   T
  0.0498373041326869  0.8151423966227233  0.1118153495719838   T   T   T
  0.1916007123392749  0.9569058048293242  0.1118153495719838   T   T   T
  0.1899413838111932  0.0983268040400669  0.1118149402998442   T   T   T
  0.1903959171264075  0.2426541683257472  0.1118255522366882   T   T   T
  0.1899676104055085  0.3858766068810518  0.1118277149669360   T   T   T
  0.1903857163352962  0.5293328003508344  0.1118176613065685   T   T   T
  0.1918090918219811  0.6722423448881009  0.1118218314073942   T   T   T
  0.1920073809132426  0.8147357280487367  0.1118048525933580   T   T   T
  0.3343617028546391  0.9567905204100614  0.1118183501393226   T   T   T
  0.3336300120206486  0.0982500991436809  0.1118158275162153   T   T   T
  0.3295988305907520  0.2375880089465114  0.1118288820448091   T   T   T
  0.3322043949961843  0.3867408811783249  0.1118312833254762   T   T   T
  0.3304276531448639  0.5296064345855881  0.1118354378193882   T   T   T
  0.3340064451017537  0.6727366638612600  0.1118272840051141   T   T   T
  0.3345007640749053  0.8149340171400380  0.1118218314073942   T   T   T
  0.4774161643753808  0.9573782658819034  0.1118361998982948   T   T   T
  0.4771883709102558  0.0981673189848563  0.1118222883922436   T   T   T
  0.4766167828407227  0.2375355947389210  0.1118344451918669   T   T   T
  0.4665288587777089  0.3648171278686576  0.1119016964300368   T   T   T
  0.4771366743774051  0.6763154558181103  0.1118354378193882   T   T   T
  0.4774103086121664  0.8163573926266979  0.1118176613065685   T   T   T
  0.6206519604107769  0.9583007564106470  0.1118171436465283   T   T   T
  0.6206176594441558  0.1000650178490409  0.1118263235205339   T   T   T
  0.6209218851079760  0.2419704368397572  0.1118251199561095   T   T   T
  0.6221196301603170  0.3846234788016605  0.1118636306067761   T   T   T
  0.6419259810933620  0.5402142501852831  0.1119016964300368   T   T   T
  0.6200022277836371  0.6745387139668249  0.1118312833254762   T   T   T
  0.6208665020809560  0.8167754985564897  0.1118277149669360   T   T   T
  0.7636261557211331  0.9585287457729307  0.1118164211780943   T   T   T
  0.7634844282512251  0.1006480386213498  0.1118058769718926   T   T   T
  0.7637407817476082  0.2430023272143984  0.1118266341334169   T   T   T
  0.7647726721222574  0.3858212238540300  0.1118251199561095   T   T   T
  0.7692075142230963  0.5301263261223010  0.1118344451918669   T   T   T
  0.7691551000154969  0.6771442783722420  0.1118288820448091   T   T   T
  0.7640889406362443  0.8163471918355701  0.1118255522366882   T   T   T
  0.4682903716125475  0.5384527373504314  0.1118741317360174   T   T   T
  0.9546552805483531  0.9111767364875768  0.1118146965196329   T   T   T
  0.9536041255758728  0.0531383641081388  0.1118065416349607   T   T   T
  0.9533490638899047  0.1956072066829686  0.1117950751314283   T   T   T
  0.9535389586404132  0.3383110718495974  0.1118008287295088   T   T   T
  0.9546775843280403  0.4813240617486370  0.1118148895375924   T   T   T
  0.9551523083382761  0.6247182492072071  0.1118031934983875   T   T   T
  0.9551315942690936  0.7681299450989794  0.1117974340545776   T   T   T
  0.0967583274466977  0.9099841622373037  0.1118096750494330   T   T   T
  0.0955657531964405  0.0520872091356548  0.1118146965196329   T   T   T
  0.0956100384398514  0.1953685463633224  0.1118081829068343   T   T   T
  0.0952283103151763  0.3380482138908736  0.1118037888270380   T   T   T
  0.0957579394517477  0.4812609574510267  0.1118068109163706   T   T   T
  0.0968315761962312  0.6244688824151899  0.1118091411022327   T   T   T
  0.0971046761954887  0.7673823554717202  0.1117934129519414   T   T   T
  0.2393601342122878  0.9096378134885340  0.1117934129519414   T   T   T
  0.2386125445850213  0.0516108954149063  0.1117974340545776   T   T   T
  0.2358596175877813  0.1924911483419506  0.1117987004486097   T   T   T
  0.2374108390504780  0.3380942494221207  0.1118081319791457   T   T   T
  0.2362798633069327  0.4809566092078984  0.1118104416445749   T   T   T
  0.2387268831053359  0.6246099048080340  0.1118033431857759   T   T   T
  0.2394143937200075  0.7673280959639607  0.1118016197917569   T   T   T
  0.3822736072688186  0.9099109134877601  0.1118091411022327   T   T   T
  0.3820242404767991  0.0515901813457209  0.1118031934983875   T   T   T
  0.3809791906743277  0.1928404850557544  0.1118065702421211   T   T   T
  0.3748388228873151  0.3310094919557195  0.1118354011013671   T   T   T
  0.3762594775441338  0.4821451965175023  0.1117999883907733   T   T   T
  0.3810778614344036  0.6256646282495907  0.1118192473460827   T   T   T
  0.3821325848759675  0.7680156065786625  0.1118033431857759   T   T   T
  0.5254815322319931  0.9109845502322416  0.1118068109163706   T   T   T
  0.5254184279343861  0.0520649053559602  0.1118148895375924   T   T   T
  0.5254977420670099  0.1927213764162434  0.1118041894960040   T   T   T
  0.5255174977411377  0.3319805355608695  0.1118502160479288   T   T   T
  0.5245972931655107  0.6304830121398661  0.1117999883907733   T   T   T
  0.5257858804750901  0.7704626263770626  0.1118104416445749   T   T   T
  0.6686942757921454  0.9115141793688143  0.1118037888270380   T   T   T
  0.6684314178334027  0.0532035310435660  0.1118008287295088   T   T   T
  0.6685878756943835  0.1951592092795458  0.1118117747322906   T   T   T
  0.6692472244361619  0.3374952652468246  0.1118135033453497   T   T   T
  0.6747619541221410  0.4812249919418733  0.1118502160479288   T   T   T
  0.6757329977272780  0.6319036667966941  0.1118354011013671   T   T   T
  0.6686482402608732  0.7693316506335330  0.1118081319791457   T   T   T
  0.8113739433206849  0.9111324512441431  0.1118081829068343   T   T   T
  0.8111352830010362  0.0533934257940747  0.1117950751314283   T   T   T
  0.8110953445088492  0.1956471451751197  0.1117960050040848   T   T   T
  0.8115832804044412  0.3381546139886023  0.1118117747322906   T   T   T
  0.8140211132677183  0.4812447476159940  0.1118041894960040   T   T   T
  0.8139020046282492  0.6257632990096781  0.1118065702421211   T   T   T
  0.8142513413420627  0.7708828720962024  0.1117987004486097   T   T   T
  0.5243787627098545  0.4823637269731571  0.1118806388678958   T   T   T

  0.00000000E+00  0.00000000E+00  0.00000000E+00
  0.00000000E+00  0.00000000E+00  0.00000000E+00
  0.00000000E+00  0.00000000E+00  0.00000000E+00
  0.00000000E+00  0.00000000E+00  0.00000000E+00
  0.00000000E+00  0.00000000E+00  0.00000000E+00
  0.00000000E+00  0.00000000E+00  0.00000000E+00
  0.00000000E+00  0.00000000E+00  0.00000000E+00
  0.00000000E+00  0.00000000E+00  0.00000000E+00
  0.00000000E+00  0.00000000E+00  0.00000000E+00
  0.00000000E+00  0.00000000E+00  0.00000000E+00
  0.00000000E+00  0.00000000E+00  0.00000000E+00
  0.00000000E+00  0.00000000E+00  0.00000000E+00
  0.00000000E+00  0.00000000E+00  0.00000000E+00
  0.00000000E+00  0.00000000E+00  0.00000000E+00
  0.00000000E+00  0.00000000E+00  0.00000000E+00
  0.00000000E+00  0.00000000E+00  0.00000000E+00
  0.00000000E+00  0.00000000E+00  0.00000000E+00
  0.00000000E+00  0.00000000E+00  0.00000000E+00
  0.00000000E+00  0.00000000E+00  0.00000000E+00
  0.00000000E+00  0.00000000E+00  0.00000000E+00
  0.00000000E+00  0.00000000E+00  0.00000000E+00
  0.00000000E+00  0.00000000E+00  0.00000000E+00
  0.00000000E+00  0.00000000E+00  0.00000000E+00
  0.00000000E+00  0.00000000E+00  0.00000000E+00
  0.00000000E+00  0.00000000E+00  0.00000000E+00
  0.00000000E+00  0.00000000E+00  0.00000000E+00
  0.00000000E+00  0.00000000E+00  0.00000000E+00
  0.00000000E+00  0.00000000E+00  0.00000000E+00
  0.00000000E+00  0.00000000E+00  0.00000000E+00
  0.00000000E+00  0.00000000E+00  0.00000000E+00
  0.00000000E+00  0.00000000E+00  0.00000000E+00
  0.00000000E+00  0.00000000E+00  0.00000000E+00
  0.00000000E+00  0.00000000E+00  0.00000000E+00
  0.00000000E+00  0.00000000E+00  0.00000000E+00
  0.00000000E+00  0.00000000E+00  0.00000000E+00
  0.00000000E+00  0.00000000E+00  0.00000000E+00
  0.00000000E+00  0.00000000E+00  0.00000000E+00
  0.00000000E+00  0.00000000E+00  0.00000000E+00
  0.00000000E+00  0.00000000E+00  0.00000000E+00
  0.00000000E+00  0.00000000E+00  0.00000000E+00
  0.00000000E+00  0.00000000E+00  0.00000000E+00
  0.00000000E+00  0.00000000E+00  0.00000000E+00
  0.00000000E+00  0.00000000E+00  0.00000000E+00
  0.00000000E+00  0.00000000E+00  0.00000000E+00
  0.00000000E+00  0.00000000E+00  0.00000000E+00
  0.00000000E+00  0.00000000E+00  0.00000000E+00
  0.00000000E+00  0.00000000E+00  0.00000000E+00
  0.00000000E+00  0.00000000E+00  0.00000000E+00
  0.00000000E+00  0.00000000E+00  0.00000000E+00
  0.00000000E+00  0.00000000E+00  0.00000000E+00
  0.00000000E+00  0.00000000E+00  0.00000000E+00
  0.00000000E+00  0.00000000E+00  0.00000000E+00
  0.00000000E+00  0.00000000E+00  0.00000000E+00
  0.00000000E+00  0.00000000E+00  0.00000000E+00
  0.00000000E+00  0.00000000E+00  0.00000000E+00
  0.00000000E+00  0.00000000E+00  0.00000000E+00
  0.00000000E+00  0.00000000E+00  0.00000000E+00
  0.00000000E+00  0.00000000E+00  0.00000000E+00
  0.00000000E+00  0.00000000E+00  0.00000000E+00
  0.00000000E+00  0.00000000E+00  0.00000000E+00
  0.00000000E+00  0.00000000E+00  0.00000000E+00
  0.00000000E+00  0.00000000E+00  0.00000000E+00
  0.00000000E+00  0.00000000E+00  0.00000000E+00
  0.00000000E+00  0.00000000E+00  0.00000000E+00
  0.00000000E+00  0.00000000E+00  0.00000000E+00
  0.00000000E+00  0.00000000E+00  0.00000000E+00
  0.00000000E+00  0.00000000E+00  0.00000000E+00
  0.00000000E+00  0.00000000E+00  0.00000000E+00
  0.00000000E+00  0.00000000E+00  0.00000000E+00
  0.00000000E+00  0.00000000E+00  0.00000000E+00
  0.00000000E+00  0.00000000E+00  0.00000000E+00
  0.00000000E+00  0.00000000E+00  0.00000000E+00
  0.00000000E+00  0.00000000E+00  0.00000000E+00
  0.00000000E+00  0.00000000E+00  0.00000000E+00
  0.00000000E+00  0.00000000E+00  0.00000000E+00
  0.00000000E+00  0.00000000E+00  0.00000000E+00
  0.00000000E+00  0.00000000E+00  0.00000000E+00
  0.00000000E+00  0.00000000E+00  0.00000000E+00
  0.00000000E+00  0.00000000E+00  0.00000000E+00
  0.00000000E+00  0.00000000E+00  0.00000000E+00
  0.00000000E+00  0.00000000E+00  0.00000000E+00
  0.00000000E+00  0.00000000E+00  0.00000000E+00
  0.00000000E+00  0.00000000E+00  0.00000000E+00
  0.00000000E+00  0.00000000E+00  0.00000000E+00
  0.00000000E+00  0.00000000E+00  0.00000000E+00
  0.00000000E+00  0.00000000E+00  0.00000000E+00
  0.00000000E+00  0.00000000E+00  0.00000000E+00
  0.00000000E+00  0.00000000E+00  0.00000000E+00
  0.00000000E+00  0.00000000E+00  0.00000000E+00
  0.00000000E+00  0.00000000E+00  0.00000000E+00
  0.00000000E+00  0.00000000E+00  0.00000000E+00
  0.00000000E+00  0.00000000E+00  0.00000000E+00
  0.00000000E+00  0.00000000E+00  0.00000000E+00
  0.00000000E+00  0.00000000E+00  0.00000000E+00
  0.00000000E+00  0.00000000E+00  0.00000000E+00
  0.00000000E+00  0.00000000E+00  0.00000000E+00
  0.00000000E+00  0.00000000E+00  0.00000000E+00
  0.00000000E+00  0.00000000E+00  0.00000000E+00
