Si B N                                  
   1.0000000000000000     
     8.7639499999999995  -15.1796066749929999    0.0000000000000000
     8.7639499999999995   15.1796066749929999    0.0000000000000000
     0.0000000000000000    0.0000000000000000   15.0000000000000000
   Si   B    N 
     1    48    48
Selective dynamics
Direct
  0.4417245190577431  0.5064712682916149  0.1109976406189259   T   T   T
  0.9057153978546594  0.9528117171438848  0.1101516611483675   T   T   T
  0.9076452053322746  0.0968444918044426  0.1106720859243857   T   T   T
  0.9082207466243908  0.2396959813578493  0.1106809201591681   T   T   T
  0.9076453544546856  0.3819771974455545  0.1106515081946152   T   T   T
  0.9057119046862702  0.5240851662343611  0.1111078271037698   T   T   T
  0.9040560139064344  0.6663006037075313  0.1106246897519999   T   T   T
  0.9040466994791291  0.8089539778648139  0.1105921937729979   T   T   T
  0.0478563813886771  0.9521799020599998  0.1102224007855760   T   T   T
  0.0499503597038636  0.0964599461132674  0.1109133032278405   T   T   T
  0.0518676760746623  0.2403974432204287  0.1121013921764976   T   T   T
  0.0518646204791786  0.3826459505809876  0.1094470901436043   T   T   T
  0.0499477819713198  0.5246703872163185  0.1104900496013465   T   T   T
  0.0478775853637955  0.6668868809110164  0.1110120743680719   T   T   T
  0.0473872539650948  0.8092965059726946  0.1105786941984660   T   T   T
  0.1907234035299996  0.9520857784448742  0.1101703986906292   T   T   T
  0.1912624892051432  0.0947944657041433  0.1115152369439624   T   T   T
  0.1944724945495281  0.2401035865097147  0.1182130821875639   T   T   T
  0.1973887518882816  0.3842962568462215  0.1109444633342475   T   T   T
  0.1944709951181538  0.5255794322645337  0.1036938948114782   T   T   T
  0.1912849968652205  0.6676939860298806  0.1101089185490655   T   T   T
  0.1907413905627221  0.8098696102045834  0.1110643327641917   T   T   T
  0.3340944745039771  0.9526392711672645  0.1106324144442732   T   T   T
  0.3341339882243358  0.0940317635137239  0.1096915509654080   T   T   T
  0.3342483998976748  0.2350771843633090  0.1147074682771177   T   T   T
  0.3400401847849765  0.3790325906643497  0.1390970025286085   T   T   T
  0.3400499687246096  0.5322169198965163  0.0831658878737236   T   T   T
  0.3342813060524293  0.6703703013403587  0.1075339234419787   T   T   T
  0.3341529524785256  0.8113100543536711  0.1119160476513314   T   T   T
  0.4777449226329086  0.9537625735985947  0.1109144091179289   T   T   T
  0.4777384613090687  0.0951515268439752  0.1103786123901445   T   T   T
  0.4776167556318258  0.2364328143047279  0.1103426853444837   T   T   T
  0.4773982968095875  0.3771937376306784  0.1089230322076512   T   T   T
  0.4774702205220202  0.6714202791362711  0.1130587937603232   T   T   T
  0.4776398045926514  0.8123736160097581  0.1113849915893599   T   T   T
  0.6211893576409627  0.9540482989721952  0.1108475186408087   T   T   T
  0.6213667082905989  0.0962659345789586  0.1105760590143656   T   T   T
  0.6211887119697123  0.2383106116128129  0.1104773443224190   T   T   T
  0.6203984370501812  0.3803533727596221  0.1084296166826068   T   T   T
  0.6154057426462736  0.5216978398047852  0.1039564581801158   T   T   T
  0.6154560394694354  0.6649125043548718  0.1172982220100940   T   T   T
  0.6204484589044038  0.8112432325647170  0.1129415544711483   T   T   T
  0.7638613939234526  0.9536518565841952  0.1106767479137708   T   T   T
  0.7646752246169597  0.0966935362714254  0.1106554503020485   T   T   T
  0.7646834756799067  0.2391436023031857  0.1105712851111257   T   T   T
  0.7638644699806174  0.3813628027841665  0.1105345957952505   T   T   T
  0.7612357919909940  0.5233759627765422  0.1097305153470453   T   T   T
  0.7595567017491004  0.6653749797614155  0.1105651848934761   T   T   T
  0.7612401356901142  0.8090493521624054  0.1114645177630764   T   T   T
  0.9525125763046458  0.9044860574357112  0.1102314406886762   T   T   T
  0.9544558013100630  0.0485603381185662  0.1102209049474691   T   T   T
  0.9561762337987574  0.1924098980395366  0.1111077980307212   T   T   T
  0.9561773624202101  0.3349547754170600  0.1102696727389170   T   T   T
  0.9544553728708831  0.4770795776096005  0.1110708100104724   T   T   T
  0.9525193692825112  0.6192150253253329  0.1109818548038631   T   T   T
  0.9519415219946536  0.7615693190724356  0.1105926352618731   T   T   T
  0.0953899482224940  0.9045385458406296  0.1103227758332773   T   T   T
  0.0962110864447236  0.0476071543174926  0.1105006696464702   T   T   T
  0.0989843987853651  0.1923569883097440  0.1127595606616147   T   T   T
  0.1009791480616882  0.3360848097914768  0.1108095285903210   T   T   T
  0.0989673827654389  0.4778144137873304  0.1088068172505678   T   T   T
  0.0962158205957405  0.6197938708014090  0.1108168634406442   T   T   T
  0.0953961201641508  0.7620605425888655  0.1108180416075504   T   T   T
  0.2386557625367420  0.9049381524855649  0.1105822028937147   T   T   T
  0.2388051842052841  0.0471601067396694  0.1099099076351559   T   T   T
  0.2395646100858679  0.1899828113231030  0.1152198534003957   T   T   T
  0.2446830303645060  0.3366451620875746  0.1266355658222439   T   T   T
  0.2446724805772798  0.4792544175987999  0.0953432869612690   T   T   T
  0.2395720603595078  0.6207857569752775  0.1068208718080335   T   T   T
  0.2388205748866140  0.7628665388937671  0.1115319408546023   T   T   T
  0.3822853659025319  0.9060813248208860  0.1113364219540025   T   T   T
  0.3822752445114226  0.0473934411486301  0.1099748012374894   T   T   T
  0.3822959093208526  0.1886410629027163  0.1098458472552457   T   T   T
  0.3827645493509356  0.3292778762089891  0.1212823698902657   T   T   T
  0.3827673822621978  0.6246519299197600  0.1012408138328442   T   T   T
  0.3823068825856995  0.7648559387804452  0.1120860299605132   T   T   T
  0.5258147502278755  0.9070234386514056  0.1108951510993750   T   T   T
  0.5259136079322889  0.0485464547153811  0.1105556233622296   T   T   T
  0.5258120041902704  0.1899739615900645  0.1105231068423088   T   T   T
  0.5254857054765731  0.3310983908492869  0.1092745584662901   T   T   T
  0.5196422076927212  0.4707240105446338  0.0966509548019016   T   T   T
  0.5197455053708510  0.6201455386765538  0.1250309658074255   T   T   T
  0.5255116006406660  0.7655801682293424  0.1123707618864663   T   T   T
  0.6686861377583695  0.9064113374456153  0.1112178009503167   T   T   T
  0.6692859241804379  0.0491198013996149  0.1106149533003924   T   T   T
  0.6692872937712973  0.1913435524867490  0.1105559662224514   T   T   T
  0.6686730146033800  0.3334519548627241  0.1100452649375571   T   T   T
  0.6655840368422071  0.4755035273119677  0.1073608830056551   T   T   T
  0.6633912799162270  0.6172776398923936  0.1105028994098819   T   T   T
  0.6656176526678289  0.7612731238299321  0.1138404504493944   T   T   T
  0.8102065231122004  0.9048927807804481  0.1103432009064837   T   T   T
  0.8122037041615705  0.0490794168804802  0.1105697162257159   T   T   T
  0.8127001342348528  0.1919297497646398  0.1106154742235541   T   T   T
  0.8122054394615195  0.3343023195517080  0.1106421965117716   T   T   T
  0.8101983373039789  0.4764841867617347  0.1108409572824510   T   T   T
  0.8083939858521704  0.6185671591434593  0.1101014214909368   T   T   T
  0.8083985487144257  0.7610105933582535  0.1110507875107682   T   T   T

  0.00000000E+00  0.00000000E+00  0.00000000E+00
  0.00000000E+00  0.00000000E+00  0.00000000E+00
  0.00000000E+00  0.00000000E+00  0.00000000E+00
  0.00000000E+00  0.00000000E+00  0.00000000E+00
  0.00000000E+00  0.00000000E+00  0.00000000E+00
  0.00000000E+00  0.00000000E+00  0.00000000E+00
  0.00000000E+00  0.00000000E+00  0.00000000E+00
  0.00000000E+00  0.00000000E+00  0.00000000E+00
  0.00000000E+00  0.00000000E+00  0.00000000E+00
  0.00000000E+00  0.00000000E+00  0.00000000E+00
  0.00000000E+00  0.00000000E+00  0.00000000E+00
  0.00000000E+00  0.00000000E+00  0.00000000E+00
  0.00000000E+00  0.00000000E+00  0.00000000E+00
  0.00000000E+00  0.00000000E+00  0.00000000E+00
  0.00000000E+00  0.00000000E+00  0.00000000E+00
  0.00000000E+00  0.00000000E+00  0.00000000E+00
  0.00000000E+00  0.00000000E+00  0.00000000E+00
  0.00000000E+00  0.00000000E+00  0.00000000E+00
  0.00000000E+00  0.00000000E+00  0.00000000E+00
  0.00000000E+00  0.00000000E+00  0.00000000E+00
  0.00000000E+00  0.00000000E+00  0.00000000E+00
  0.00000000E+00  0.00000000E+00  0.00000000E+00
  0.00000000E+00  0.00000000E+00  0.00000000E+00
  0.00000000E+00  0.00000000E+00  0.00000000E+00
  0.00000000E+00  0.00000000E+00  0.00000000E+00
  0.00000000E+00  0.00000000E+00  0.00000000E+00
  0.00000000E+00  0.00000000E+00  0.00000000E+00
  0.00000000E+00  0.00000000E+00  0.00000000E+00
  0.00000000E+00  0.00000000E+00  0.00000000E+00
  0.00000000E+00  0.00000000E+00  0.00000000E+00
  0.00000000E+00  0.00000000E+00  0.00000000E+00
  0.00000000E+00  0.00000000E+00  0.00000000E+00
  0.00000000E+00  0.00000000E+00  0.00000000E+00
  0.00000000E+00  0.00000000E+00  0.00000000E+00
  0.00000000E+00  0.00000000E+00  0.00000000E+00
  0.00000000E+00  0.00000000E+00  0.00000000E+00
  0.00000000E+00  0.00000000E+00  0.00000000E+00
  0.00000000E+00  0.00000000E+00  0.00000000E+00
  0.00000000E+00  0.00000000E+00  0.00000000E+00
  0.00000000E+00  0.00000000E+00  0.00000000E+00
  0.00000000E+00  0.00000000E+00  0.00000000E+00
  0.00000000E+00  0.00000000E+00  0.00000000E+00
  0.00000000E+00  0.00000000E+00  0.00000000E+00
  0.00000000E+00  0.00000000E+00  0.00000000E+00
  0.00000000E+00  0.00000000E+00  0.00000000E+00
  0.00000000E+00  0.00000000E+00  0.00000000E+00
  0.00000000E+00  0.00000000E+00  0.00000000E+00
  0.00000000E+00  0.00000000E+00  0.00000000E+00
  0.00000000E+00  0.00000000E+00  0.00000000E+00
  0.00000000E+00  0.00000000E+00  0.00000000E+00
  0.00000000E+00  0.00000000E+00  0.00000000E+00
  0.00000000E+00  0.00000000E+00  0.00000000E+00
  0.00000000E+00  0.00000000E+00  0.00000000E+00
  0.00000000E+00  0.00000000E+00  0.00000000E+00
  0.00000000E+00  0.00000000E+00  0.00000000E+00
  0.00000000E+00  0.00000000E+00  0.00000000E+00
  0.00000000E+00  0.00000000E+00  0.00000000E+00
  0.00000000E+00  0.00000000E+00  0.00000000E+00
  0.00000000E+00  0.00000000E+00  0.00000000E+00
  0.00000000E+00  0.00000000E+00  0.00000000E+00
  0.00000000E+00  0.00000000E+00  0.00000000E+00
  0.00000000E+00  0.00000000E+00  0.00000000E+00
  0.00000000E+00  0.00000000E+00  0.00000000E+00
  0.00000000E+00  0.00000000E+00  0.00000000E+00
  0.00000000E+00  0.00000000E+00  0.00000000E+00
  0.00000000E+00  0.00000000E+00  0.00000000E+00
  0.00000000E+00  0.00000000E+00  0.00000000E+00
  0.00000000E+00  0.00000000E+00  0.00000000E+00
  0.00000000E+00  0.00000000E+00  0.00000000E+00
  0.00000000E+00  0.00000000E+00  0.00000000E+00
  0.00000000E+00  0.00000000E+00  0.00000000E+00
  0.00000000E+00  0.00000000E+00  0.00000000E+00
  0.00000000E+00  0.00000000E+00  0.00000000E+00
  0.00000000E+00  0.00000000E+00  0.00000000E+00
  0.00000000E+00  0.00000000E+00  0.00000000E+00
  0.00000000E+00  0.00000000E+00  0.00000000E+00
  0.00000000E+00  0.00000000E+00  0.00000000E+00
  0.00000000E+00  0.00000000E+00  0.00000000E+00
  0.00000000E+00  0.00000000E+00  0.00000000E+00
  0.00000000E+00  0.00000000E+00  0.00000000E+00
  0.00000000E+00  0.00000000E+00  0.00000000E+00
  0.00000000E+00  0.00000000E+00  0.00000000E+00
  0.00000000E+00  0.00000000E+00  0.00000000E+00
  0.00000000E+00  0.00000000E+00  0.00000000E+00
  0.00000000E+00  0.00000000E+00  0.00000000E+00
  0.00000000E+00  0.00000000E+00  0.00000000E+00
  0.00000000E+00  0.00000000E+00  0.00000000E+00
  0.00000000E+00  0.00000000E+00  0.00000000E+00
  0.00000000E+00  0.00000000E+00  0.00000000E+00
  0.00000000E+00  0.00000000E+00  0.00000000E+00
  0.00000000E+00  0.00000000E+00  0.00000000E+00
  0.00000000E+00  0.00000000E+00  0.00000000E+00
  0.00000000E+00  0.00000000E+00  0.00000000E+00
  0.00000000E+00  0.00000000E+00  0.00000000E+00
  0.00000000E+00  0.00000000E+00  0.00000000E+00
  0.00000000E+00  0.00000000E+00  0.00000000E+00
  0.00000000E+00  0.00000000E+00  0.00000000E+00
