 N B 
 1.0
 14.936314146199660   0.000000000000000   0.000000000000000
 -7.468157073099825  12.935227489513863   0.000000000000000
  0.000000000000001   0.000000000000001  13.341276283792837
 N B 
 143 144
Cartesian
  1.244498853219376   0.718602135834316   1.667111962680012 
  4.978771382066581   7.187868016055322   1.652614100865730 
  6.223542022812343   0.718794213343373   1.666487774600443 
  9.957434035657394   7.186084889566662   1.666487774600443 
 11.202233648946516   0.718622617404915   1.666973472138888 
 -3.734259728686576   9.342004131097756   8.339134697126859 
  1.244879369221496   9.342090883108471   8.339469438244198 
  2.488965303814951   2.874550659465955   8.340990817085391 
  6.223205829444512   9.342444977539074   8.340990817085391 
  7.468577460318222   2.874550659465955   8.340990817085391 
 12.446928455166372   2.874497261694815   8.338983740705741 
 -1.244511653379890   9.342004131097756   1.666822515717768 
 -0.000361209898609   2.874286453037513   1.666179588582791 
  4.978771382066550   2.874495765798607   1.662948684247171 
  3.734336934688681   9.342444977539074   1.664966395759237 
  8.712663394911594   9.342090883108471   1.666487774600443 
  9.957903974031783   2.874286453037513   1.666179588582791 
 -4.978889328423026  11.498048087039653   8.340021767349706 
  0.000117946356564  11.498048087039653   8.340021767349706 
  1.244530856437045   5.029974349013402   8.340990817085391 
  6.224876300953572   5.029550984981547   8.353343111978898 
  4.978771382066593  11.498397079943402   8.339777624261849 
 11.202351323710467   5.030209050455984   8.338845250164615 
 -1.244808559577278   5.030209050455983   1.667111962680012 
 -2.489385691033232  11.498189213336770   1.666822515717768 
  2.489463969269942  11.498158799728118   1.667111962680012 
  3.732666463179604   5.029550984981547   1.652614100865730 
  7.468078794863254  11.498158799728118   1.667111962680012 
  8.713011907696146   5.029974349013401   1.664966395759237 
  0.000108728475678   7.186084889566663   8.339469438244198 
  1.244498853219377   0.718602135834317   8.338845250164615 
  4.978771382066582   7.187868016055323   8.353343111978898 
  6.223542022812344   0.718794213343374   8.339469438244198 
  9.957434035657394   7.186084889566663   8.339469438244198 
 -2.489385691033234   7.186101301452974   1.665935445494922 
 11.202233648946516   0.718622617404915   8.338983740705741 
  3.734000741320724   0.718794213343373   1.666487774600443 
  2.489386356252371   7.186237110109956   1.662948684247171 
  7.468156407880702   7.186237110109956   1.662948684247171 
  8.713043910913811   0.718602135834316   1.667111962680012 
  2.489386356252372   7.186237110109957   8.343008528597457 
 13.691623261386225   0.718622617404915   1.666973472138888 
 -1.244511653379889   9.342004131097756   8.339134697126859 
 -0.000361209898609   2.874286453037514   8.339777624261849 
  4.978771382066551   2.874495765798608   8.343008528597457 
  3.734336934688681   9.342444977539074   8.340990817085391 
  8.712663394911594   9.342090883108471   8.339469438244198 
  9.957903974031783   2.874286453037514   8.339777624261849 
 -3.734259728686577   9.342004131097756   1.666822515717768 
  1.244879369221495   9.342090883108471   1.666487774600443 
  2.488965303814950   2.874550659465954   1.664966395759237 
  6.223205829444511   9.342444977539074   1.664966395759237 
  7.468577460318222   2.874550659465954   1.664966395759237 
 12.446928455166372   2.874497261694814   1.666973472138888 
 -1.244808559577277   5.030209050455984   8.338845250164615 
 -2.489385691033231  11.498189213336770   8.339134697126859 
  2.489463969269943  11.498158799728118   8.338845250164615 
  3.732666463179605   5.029550984981547   8.353343111978898 
  7.468078794863255  11.498158799728118   8.338845250164615 
 -4.978889328423027  11.498048087039653   1.665935445494922 
  8.713011907696146   5.029974349013402   8.340990817085391 
  0.000117946356563  11.498048087039653   1.665935445494922 
  1.244530856437044   5.029974349013401   1.664966395759237 
  0.000108728475677   7.186084889566662   1.666487774600443 
  6.224876300953571   5.029550984981547   1.652614100865730 
  4.978771382066592  11.498397079943402   1.666179588582791 
 11.202351323710467   5.030209050455983   1.667111962680012 
 -2.489385691033233   7.186101301452974   8.340021767349706 
  3.734000741320724   0.718794213343374   8.339469438244198 
  7.468156407880703   7.186237110109957   8.343008528597457 
  8.713043910913811   0.718602135834317   8.338845250164615 
 13.691623261386225   0.718622617404915   8.338983740705741 
  0.008070200173162   1.443601763028561   5.002978606422314 
  3.763247557042560   7.821222460634886   5.002978606422314 
  4.978771382066482   1.440019529412349   5.002978606422314 
  8.710449269716277   7.903475228303131   5.002978606422314 
  9.949472563959906   1.443601763028561   5.002978606422314 
 -4.978753854365080  10.060469467343633  11.673616748318732 
 -0.000017527701502  10.060469467343633  11.673616748318732 
  1.244967786700179   3.593277484453544  11.673616748318732 
  4.978771382066553  10.060415017111435  11.673616748318732 
  6.223601441483142   3.593192167448858  11.673616748318732 
 11.202426816186344   3.593258312269239  11.673616748318732 
 -2.489385691033300  10.060732491844131   5.002978606422314 
 -1.235154791215985   3.596930613353959   5.002978606422314 
  3.791927337085883   3.660199251315815   5.002978606422314 
  2.505611603063090  10.030239038566149   5.002978606422314 
  7.451931161069986  10.030239038566149   5.002978606422314 
  8.684688725348339   3.609377619601242   5.002978606422314 
 -6.223654082919221  12.216713353125796  11.673616748318732 
 -1.244929395266635  12.216720072911917  11.673616748318732 
 -0.000038193859255   5.749023377803617  11.673616748318732 
  4.978771382066590   5.748989995339477  11.673616748318732 
  3.733862066288461  12.216699547223500  11.673616748318732 
  9.957580957992343   5.749023377803617  11.673616748318732 
 -2.489385691033234   5.747352364354114   5.002978606422314 
 -3.735270165451321  12.219577170786277   5.002978606422314 
  1.246111075552028  12.217422555589083   5.002978606422314 
  2.576403512061906   5.765548274067820   5.002978606422314 
  6.221996373455687  12.206437609636000   5.002978606422314 
  7.381139252071167   5.765548274067820   5.002978606422314 
 -1.244473823468151   7.905007935276823  11.673616748318732 
  0.000025263724804   1.437012126525786  11.673616748318732 
  3.734210727398236   7.904943364134112  11.673616748318732 
  4.978771382066482   1.437007220230774  11.673616748318732 
  8.713058005991574   7.904981382893919  11.673616748318732 
 -3.736057788613028   7.902342547346410   5.002978606422314 
  9.957517500408265   1.437012126525786  11.673616748318732 
  2.507680840206187   1.466546277491277   5.002978606422314 
  1.247093494416694   7.903475228303131   5.002978606422314 
  6.194295207090514   7.821222460634886   5.002978606422314 
  7.449861923926882   1.466546277491277   5.002978606422314 
  1.244484758141396   7.904981382893919  11.673616748318732 
 12.446928455166319   1.437247498834912   5.002978606422314 
 -2.489385691033299  10.060732491844133  11.673616748318732 
 -1.244884052053274   3.593258312269239  11.673616748318732 
  3.733941322649943   3.593192167448858  11.673616748318732 
  2.489337684041668  10.060748877464444  11.673616748318732 
  7.468205080091409  10.060748877464444  11.673616748318732 
  8.712574977432890   3.593277484453544  11.673616748318732 
 -4.981942263031057  10.060277757399698   5.002978606422314 
  0.003170880964472  10.060277757399698   5.002978606422314 
  1.272854038784733   3.609377619601242   5.002978606422314 
  4.978771382066538  10.028214746816037   5.002978606422314 
  6.165615427047189   3.660199251315815   5.002978606422314 
 11.192697555349056   3.596930613353959   5.002978606422314 
 -2.489385691033233   5.748770769280693  11.673616748318732 
 -3.733841986799931  12.216720072911917  11.673616748318732 
  1.244882700852774  12.216713353125796  11.673616748318732 
  2.489380667981643   5.748834454435552  11.673616748318732 
  6.223680697844618  12.216699547223500  11.673616748318732 
 -6.224882457618492  12.217422555589083   5.002978606422314 
  7.468162096151444   5.748834454435552  11.673616748318732 
 -1.243501216615262  12.219577170786277   5.002978606422314 
  0.034521061202739   5.750184669961095   5.002978606422314 
 -1.242713593453559   7.902342547346410   5.002978606422314 
  3.735546390677391  12.206437609636000   5.002978606422314 
  9.923021702930331   5.750184669961095   5.002978606422314 
 -3.734297558598433   7.905007935276823  11.673616748318732 
  2.489395504165599   1.437197730750462  11.673616748318732 
  6.223332036734837   7.904943364134112  11.673616748318732 
  7.468147259967457   1.437197730750462  11.673616748318732 
 12.446928455166319   1.437247498834912  11.673616748318732 
  1.259420407722552   0.732600339170705   5.002978606422314 
  4.978771382066596   6.931640093477609   5.002978606422314 
  6.218626534194346   0.727658716717815   5.002978606422314 
  9.947299406234198   7.185909575894642   5.002978606422314 
 11.196900351991722   0.715543436972405   5.002978606422314 
 -3.735407144743868   9.341341670128205  11.673616748318732 
  1.243831828374115   9.341165065187424  11.673616748318732 
  2.490006669354539   2.876352465962170  11.673616748318732 
  6.222166102015853   9.340642225279058  11.673616748318732 
  7.467536094778636   2.876352465962170  11.673616748318732 
 12.446928455166358   2.876050208697533  11.673616748318732 
 -1.241758918857525   9.340414839080259   5.002978606422314 
  0.023041387030657   2.887797948674362   5.002978606422314 
  4.978771382066526   2.885868590745055   5.002978606422314 
  3.756166574154596   9.269013674691809   5.002978606422314 
  8.707444254106393   9.333401693406051   5.002978606422314 
  9.934501377102517   2.887797948674362   5.002978606422314 
 -4.978801625313048  11.497997451625499  11.673616748318732 
  0.000030243246586  11.497997451625499  11.673616748318732 
  1.246611949405264   5.029975294777204  11.673616748318732 
  6.223754341675737   5.030198748472635  11.673616748318732 
  4.978771382066592  11.497484019121996  11.673616748318732 
 11.203154656249266   5.029854741248553  11.673616748318732 
 -1.225224982629044   5.036132394051506   5.002978606422314 
 -2.489385691033239  11.501367797371772   5.002978606422314 
  2.494125991714992  11.478237252796220   5.002978606422314 
  3.954566353290816   5.157664946270405   5.002978606422314 
  7.463416772418189  11.478237252796220   5.002978606422314 
  8.638503714264465   5.047784978104112   5.002978606422314 
  0.000386739890894   7.187454995512520  11.673616748318732 
  1.243790346175533   0.718083584051745  11.673616748318732 
  4.978771382066591   7.186572489073161  11.673616748318732 
  6.222216470549747   0.718349925318564  11.673616748318732 
  9.957156024242181   7.187454995512520  11.673616748318732 
 -2.489385691033233   7.185385139291779   5.002978606422314 
 11.200888757391432   0.717846143903557  11.673616748318732 
  3.738916229938722   0.727658716717815   5.002978606422314 
  2.499235511568768   7.180550697636727   5.002978606422314 
  7.458307252564319   7.180550697636727   5.002978606422314 
  8.698122356410620   0.732600339170705   5.002978606422314 
  2.489936673620020   7.185919384229598  11.673616748318732 
 13.696956558341006   0.715543436972405   5.002978606422314 
 -1.243364237322596   9.341341670128205  11.673616748318732 
  0.000429523967930   2.874742983448218  11.673616748318732 
  4.978771382066551   2.875131217559303  11.673616748318732 
  3.735376662117316   9.340642225279058  11.673616748318732 
  8.713710935758977   9.341165065187424  11.673616748318732 
  9.957113240165246   2.874742983448218  11.673616748318732 
 -3.737012463208955   9.340414839080259   5.002978606422314 
  1.250098510026695   9.333401693406051   5.002978606422314 
  2.541643857780721   2.930171333222508   5.002978606422314 
  6.201376189978601   9.269013674691809   5.002978606422314 
  7.415898906352469   2.930171333222508   5.002978606422314 
 12.446928455166365   2.880655622559847   5.002978606422314 
 -1.245611892116091   5.029854741248553  11.673616748318732 
 -2.489385691033231  11.499514135275874  11.673616748318732 
  2.489369143774966  11.499031660718135  11.673616748318732 
  3.733788422457442   5.030198748472635  11.673616748318732 
  7.468173620358216  11.499031660718135  11.673616748318732 
 -4.979509543047851  11.498406168120249   5.002978606422314 
  8.710930814727899   5.029975294777204  11.673616748318732 
  0.000738160981389  11.498406168120249   5.002978606422314 
  1.319039049868711   5.047784978104112   5.002978606422314 
  0.010243357898875   7.185909575894642   5.002978606422314 
  6.002976410842375   5.157664946270405   5.002978606422314 
  4.978771382066590  11.471374088669705   5.002978606422314 
 11.182767746762220   5.036132394051506   5.002978606422314 
 -2.489385691033233   7.186202572281284  11.673616748318732 
  3.735326293583322   0.718349925318564  11.673616748318732 
  7.467606090513071   7.185919384229598  11.673616748318732 
  8.713752417957641   0.718083584051745  11.673616748318732 
 13.692968152941296   0.717846143903557  11.673616748318732 
  0.000223850006883   1.436758724675515   1.667564761608749 
  3.737079910121578   7.903018930469797   1.667112151721521 
  4.978771382066490   1.439281815494015   1.668199373814068 
  8.711088148710267   7.903844085262291   1.668199373814068 
  9.957318914126200   1.436758724675515   1.667564761608749 
 -4.979719504260759  10.059472711621105   8.338501650758161 
  0.000948122194175  10.059472711621105   8.338501650758161 
  1.246534937407888   3.594182279336484   8.338354413862188 
  4.978771382066532  10.058605427345542   8.338354413862188 
  6.223369424403626   3.596639169407517   8.338845061123106 
 11.202546975485010   3.593556993959484   8.338392451235880 
 -2.489385691033300  10.060732491844131   1.667636538885477 
 -1.245004211351926   3.593556993959483   1.667564761608749 
  3.734173339729459   3.596639169407516   1.667112151721521 
  2.490526598345404  10.059673905916773   1.668243231840726 
  7.467016165787671  10.059673905916773   1.668243231840726 
  8.711007826725183   3.594182279336483   1.667602798982438 
 -6.224393009840433  12.217139972782666   8.338286190163103 
 -1.245309786095881  12.218054728114010   8.338501650758161 
  0.001487215961226   5.748531233587518   8.337713981003901 
  4.978771382066590   5.748989995339477   8.312759449423810 
  3.733543320707728  12.216654267383522   8.338392451235880 
  9.956055548171831   5.748531233587518   8.337713981003901 
 -2.489385691033234   5.747917529966946   1.667671022681538 
 -3.733461595970702  12.218054728114010   1.667455562086467 
  1.245621627773983  12.217139972782666   1.667671022681538 
  2.492481867784495   5.747311886141194   1.667112151721521 
  6.223999443425347  12.216654267383522   1.667564761608749 
  7.465060896348593   5.747311886141194   1.667112151721521 
 -1.243127782743236   7.904670035797269   8.338501650758161 
  0.000223850006884   1.436758724675516   8.338392451235880 
  3.737079910121578   7.903018930469798   8.338845061123106 
  4.978771382066491   1.439281815494016   8.337757839030573 
  8.711088148710267   7.903844085262292   8.337757839030573 
 -3.735643599323351   7.904670035797268   1.667455562086467 
  9.957318914126200   1.436758724675516   8.338392451235880 
  2.489731999682372   1.438764846514230   1.668243231840726 
  1.246454615422702   7.903844085262291   1.668199373814068 
  6.220462854011510   7.903018930469797   1.667112151721521 
  7.467810764450711   1.438764846514230   1.668243231840726 
  1.246454615422703   7.903844085262292   8.337757839030573 
 12.446928455166319   1.437247498834911   1.667539390640949 
 -2.489385691033300  10.060732491844131   8.338320673959151 
 -1.245004211351926   3.593556993959484   8.338392451235880 
  3.734173339729459   3.596639169407517   8.338845061123106 
  2.490526598345405  10.059673905916773   8.337713981003901 
  7.467016165787672  10.059673905916773   8.337713981003901 
  8.711007826725183   3.594182279336484   8.338354413862188 
 -4.979719504260760  10.059472711621105   1.667455562086467 
  0.000948122194175  10.059472711621105   1.667455562086467 
  1.246534937407887   3.594182279336483   1.667602798982438 
  4.978771382066531  10.058605427345542   1.667602798982438 
  6.223369424403625   3.596639169407516   1.667112151721521 
 11.202546975485010   3.593556993959483   1.667564761608749 
 -2.489385691033234   5.747917529966947   8.338286190163103 
 -3.733461595970702  12.218054728114010   8.338501650758161 
  1.245621627773983  12.217139972782666   8.338286190163103 
  2.492481867784495   5.747311886141195   8.338845061123106 
  6.223999443425348  12.216654267383522   8.338392451235880 
 -6.224393009840433  12.217139972782666   1.667671022681538 
  7.465060896348594   5.747311886141195   8.338845061123106 
 -1.245309786095881  12.218054728114010   1.667455562086467 
  0.001487215961226   5.748531233587517   1.668243231840726 
 -1.243127782743237   7.904670035797268   1.667455562086467 
  4.978771382066589   5.748989995339476   1.693197763420818 
  3.733543320707728  12.216654267383522   1.667564761608749 
  9.956055548171831   5.748531233587517   1.668243231840726 
 -3.735643599323350   7.904670035797269   8.338501650758161 
  2.489731999682372   1.438764846514231   8.337713981003901 
  6.220462854011511   7.903018930469798   8.338845061123106 
  7.467810764450712   1.438764846514231   8.337713981003901 
 12.446928455166319   1.437247498834912   8.338417822203679 
Generated by cif2cell 2.0.0.  :  Failed to get author information, No journal information. Species order: N B 
 1.0
 14.936314146199660   0.000000000000000   0.000000000000000
 -7.468157073099825  12.935227489513863   0.000000000000000
  0.000000000000001   0.000000000000001  13.341276283792837
 N B 
 143 144
Cartesian
  1.244498853219376   0.718602135834316   1.667111962680012 
  4.978771382066581   7.187868016055322   1.652614100865730 
  6.223542022812343   0.718794213343373   1.666487774600443 
  9.957434035657394   7.186084889566662   1.666487774600443 
 11.202233648946516   0.718622617404915   1.666973472138888 
 -3.734259728686576   9.342004131097756   8.339134697126859 
  1.244879369221496   9.342090883108471   8.339469438244198 
  2.488965303814951   2.874550659465955   8.340990817085391 
  6.223205829444512   9.342444977539074   8.340990817085391 
  7.468577460318222   2.874550659465955   8.340990817085391 
 12.446928455166372   2.874497261694815   8.338983740705741 
 -1.244511653379890   9.342004131097756   1.666822515717768 
 -0.000361209898609   2.874286453037513   1.666179588582791 
  4.978771382066550   2.874495765798607   1.662948684247171 
  3.734336934688681   9.342444977539074   1.664966395759237 
  8.712663394911594   9.342090883108471   1.666487774600443 
  9.957903974031783   2.874286453037513   1.666179588582791 
 -4.978889328423026  11.498048087039653   8.340021767349706 
  0.000117946356564  11.498048087039653   8.340021767349706 
  1.244530856437045   5.029974349013402   8.340990817085391 
  6.224876300953572   5.029550984981547   8.353343111978898 
  4.978771382066593  11.498397079943402   8.339777624261849 
 11.202351323710467   5.030209050455984   8.338845250164615 
 -1.244808559577278   5.030209050455983   1.667111962680012 
 -2.489385691033232  11.498189213336770   1.666822515717768 
  2.489463969269942  11.498158799728118   1.667111962680012 
  3.732666463179604   5.029550984981547   1.652614100865730 
  7.468078794863254  11.498158799728118   1.667111962680012 
  8.713011907696146   5.029974349013401   1.664966395759237 
  0.000108728475678   7.186084889566663   8.339469438244198 
  1.244498853219377   0.718602135834317   8.338845250164615 
  4.978771382066582   7.187868016055323   8.353343111978898 
  6.223542022812344   0.718794213343374   8.339469438244198 
  9.957434035657394   7.186084889566663   8.339469438244198 
 -2.489385691033234   7.186101301452974   1.665935445494922 
 11.202233648946516   0.718622617404915   8.338983740705741 
  3.734000741320724   0.718794213343373   1.666487774600443 
  2.489386356252371   7.186237110109956   1.662948684247171 
  7.468156407880702   7.186237110109956   1.662948684247171 
  8.713043910913811   0.718602135834316   1.667111962680012 
  2.489386356252372   7.186237110109957   8.343008528597457 
 13.691623261386225   0.718622617404915   1.666973472138888 
 -1.244511653379889   9.342004131097756   8.339134697126859 
 -0.000361209898609   2.874286453037514   8.339777624261849 
  4.978771382066551   2.874495765798608   8.343008528597457 
  3.734336934688681   9.342444977539074   8.340990817085391 
  8.712663394911594   9.342090883108471   8.339469438244198 
  9.957903974031783   2.874286453037514   8.339777624261849 
 -3.734259728686577   9.342004131097756   1.666822515717768 
  1.244879369221495   9.342090883108471   1.666487774600443 
  2.488965303814950   2.874550659465954   1.664966395759237 
  6.223205829444511   9.342444977539074   1.664966395759237 
  7.468577460318222   2.874550659465954   1.664966395759237 
 12.446928455166372   2.874497261694814   1.666973472138888 
 -1.244808559577277   5.030209050455984   8.338845250164615 
 -2.489385691033231  11.498189213336770   8.339134697126859 
  2.489463969269943  11.498158799728118   8.338845250164615 
  3.732666463179605   5.029550984981547   8.353343111978898 
  7.468078794863255  11.498158799728118   8.338845250164615 
 -4.978889328423027  11.498048087039653   1.665935445494922 
  8.713011907696146   5.029974349013402   8.340990817085391 
  0.000117946356563  11.498048087039653   1.665935445494922 
  1.244530856437044   5.029974349013401   1.664966395759237 
  0.000108728475677   7.186084889566662   1.666487774600443 
  6.224876300953571   5.029550984981547   1.652614100865730 
  4.978771382066592  11.498397079943402   1.666179588582791 
 11.202351323710467   5.030209050455983   1.667111962680012 
 -2.489385691033233   7.186101301452974   8.340021767349706 
  3.734000741320724   0.718794213343374   8.339469438244198 
  7.468156407880703   7.186237110109957   8.343008528597457 
  8.713043910913811   0.718602135834317   8.338845250164615 
 13.691623261386225   0.718622617404915   8.338983740705741 
  0.008070200173162   1.443601763028561   5.002978606422314 
  3.763247557042560   7.821222460634886   5.002978606422314 
  4.978771382066482   1.440019529412349   5.002978606422314 
  8.710449269716277   7.903475228303131   5.002978606422314 
  9.949472563959906   1.443601763028561   5.002978606422314 
 -4.978753854365080  10.060469467343633  11.673616748318732 
 -0.000017527701502  10.060469467343633  11.673616748318732 
  1.244967786700179   3.593277484453544  11.673616748318732 
  4.978771382066553  10.060415017111435  11.673616748318732 
  6.223601441483142   3.593192167448858  11.673616748318732 
 11.202426816186344   3.593258312269239  11.673616748318732 
 -2.489385691033300  10.060732491844131   5.002978606422314 
 -1.235154791215985   3.596930613353959   5.002978606422314 
  3.791927337085883   3.660199251315815   5.002978606422314 
  2.505611603063090  10.030239038566149   5.002978606422314 
  7.451931161069986  10.030239038566149   5.002978606422314 
  8.684688725348339   3.609377619601242   5.002978606422314 
 -6.223654082919221  12.216713353125796  11.673616748318732 
 -1.244929395266635  12.216720072911917  11.673616748318732 
 -0.000038193859255   5.749023377803617  11.673616748318732 
  4.978771382066590   5.748989995339477  11.673616748318732 
  3.733862066288461  12.216699547223500  11.673616748318732 
  9.957580957992343   5.749023377803617  11.673616748318732 
 -2.489385691033234   5.747352364354114   5.002978606422314 
 -3.735270165451321  12.219577170786277   5.002978606422314 
  1.246111075552028  12.217422555589083   5.002978606422314 
  2.576403512061906   5.765548274067820   5.002978606422314 
  6.221996373455687  12.206437609636000   5.002978606422314 
  7.381139252071167   5.765548274067820   5.002978606422314 
 -1.244473823468151   7.905007935276823  11.673616748318732 
  0.000025263724804   1.437012126525786  11.673616748318732 
  3.734210727398236   7.904943364134112  11.673616748318732 
  4.978771382066482   1.437007220230774  11.673616748318732 
  8.713058005991574   7.904981382893919  11.673616748318732 
 -3.736057788613028   7.902342547346410   5.002978606422314 
  9.957517500408265   1.437012126525786  11.673616748318732 
  2.507680840206187   1.466546277491277   5.002978606422314 
  1.247093494416694   7.903475228303131   5.002978606422314 
  6.194295207090514   7.821222460634886   5.002978606422314 
  7.449861923926882   1.466546277491277   5.002978606422314 
  1.244484758141396   7.904981382893919  11.673616748318732 
 12.446928455166319   1.437247498834912   5.002978606422314 
 -2.489385691033299  10.060732491844133  11.673616748318732 
 -1.244884052053274   3.593258312269239  11.673616748318732 
  3.733941322649943   3.593192167448858  11.673616748318732 
  2.489337684041668  10.060748877464444  11.673616748318732 
  7.468205080091409  10.060748877464444  11.673616748318732 
  8.712574977432890   3.593277484453544  11.673616748318732 
 -4.981942263031057  10.060277757399698   5.002978606422314 
  0.003170880964472  10.060277757399698   5.002978606422314 
  1.272854038784733   3.609377619601242   5.002978606422314 
  4.978771382066538  10.028214746816037   5.002978606422314 
  6.165615427047189   3.660199251315815   5.002978606422314 
 11.192697555349056   3.596930613353959   5.002978606422314 
 -2.489385691033233   5.748770769280693  11.673616748318732 
 -3.733841986799931  12.216720072911917  11.673616748318732 
  1.244882700852774  12.216713353125796  11.673616748318732 
  2.489380667981643   5.748834454435552  11.673616748318732 
  6.223680697844618  12.216699547223500  11.673616748318732 
 -6.224882457618492  12.217422555589083   5.002978606422314 
  7.468162096151444   5.748834454435552  11.673616748318732 
 -1.243501216615262  12.219577170786277   5.002978606422314 
  0.034521061202739   5.750184669961095   5.002978606422314 
 -1.242713593453559   7.902342547346410   5.002978606422314 
  3.735546390677391  12.206437609636000   5.002978606422314 
  9.923021702930331   5.750184669961095   5.002978606422314 
 -3.734297558598433   7.905007935276823  11.673616748318732 
  2.489395504165599   1.437197730750462  11.673616748318732 
  6.223332036734837   7.904943364134112  11.673616748318732 
  7.468147259967457   1.437197730750462  11.673616748318732 
 12.446928455166319   1.437247498834912  11.673616748318732 
  1.259420407722552   0.732600339170705   5.002978606422314 
  4.978771382066596   6.931640093477609   5.002978606422314 
  6.218626534194346   0.727658716717815   5.002978606422314 
  9.947299406234198   7.185909575894642   5.002978606422314 
 11.196900351991722   0.715543436972405   5.002978606422314 
 -3.735407144743868   9.341341670128205  11.673616748318732 
  1.243831828374115   9.341165065187424  11.673616748318732 
  2.490006669354539   2.876352465962170  11.673616748318732 
  6.222166102015853   9.340642225279058  11.673616748318732 
  7.467536094778636   2.876352465962170  11.673616748318732 
 12.446928455166358   2.876050208697533  11.673616748318732 
 -1.241758918857525   9.340414839080259   5.002978606422314 
  0.023041387030657   2.887797948674362   5.002978606422314 
  4.978771382066526   2.885868590745055   5.002978606422314 
  3.756166574154596   9.269013674691809   5.002978606422314 
  8.707444254106393   9.333401693406051   5.002978606422314 
  9.934501377102517   2.887797948674362   5.002978606422314 
 -4.978801625313048  11.497997451625499  11.673616748318732 
  0.000030243246586  11.497997451625499  11.673616748318732 
  1.246611949405264   5.029975294777204  11.673616748318732 
  6.223754341675737   5.030198748472635  11.673616748318732 
  4.978771382066592  11.497484019121996  11.673616748318732 
 11.203154656249266   5.029854741248553  11.673616748318732 
 -1.225224982629044   5.036132394051506   5.002978606422314 
 -2.489385691033239  11.501367797371772   5.002978606422314 
  2.494125991714992  11.478237252796220   5.002978606422314 
  3.954566353290816   5.157664946270405   5.002978606422314 
  7.463416772418189  11.478237252796220   5.002978606422314 
  8.638503714264465   5.047784978104112   5.002978606422314 
  0.000386739890894   7.187454995512520  11.673616748318732 
  1.243790346175533   0.718083584051745  11.673616748318732 
  4.978771382066591   7.186572489073161  11.673616748318732 
  6.222216470549747   0.718349925318564  11.673616748318732 
  9.957156024242181   7.187454995512520  11.673616748318732 
 -2.489385691033233   7.185385139291779   5.002978606422314 
 11.200888757391432   0.717846143903557  11.673616748318732 
  3.738916229938722   0.727658716717815   5.002978606422314 
  2.499235511568768   7.180550697636727   5.002978606422314 
  7.458307252564319   7.180550697636727   5.002978606422314 
  8.698122356410620   0.732600339170705   5.002978606422314 
  2.489936673620020   7.185919384229598  11.673616748318732 
 13.696956558341006   0.715543436972405   5.002978606422314 
 -1.243364237322596   9.341341670128205  11.673616748318732 
  0.000429523967930   2.874742983448218  11.673616748318732 
  4.978771382066551   2.875131217559303  11.673616748318732 
  3.735376662117316   9.340642225279058  11.673616748318732 
  8.713710935758977   9.341165065187424  11.673616748318732 
  9.957113240165246   2.874742983448218  11.673616748318732 
 -3.737012463208955   9.340414839080259   5.002978606422314 
  1.250098510026695   9.333401693406051   5.002978606422314 
  2.541643857780721   2.930171333222508   5.002978606422314 
  6.201376189978601   9.269013674691809   5.002978606422314 
  7.415898906352469   2.930171333222508   5.002978606422314 