 N B Sb 
 1.0
 14.936314146199660   0.000000000000000   0.000000000000000
 -7.468157073099825  12.935227489513863   0.000000000000000
  0.000000000000001   0.000000000000001  13.341276283792837
 N B Sb 
 143 144   1
Cartesian
  1.244166746942932   0.718564563400524   1.679089562023032 
  4.978771382063250   7.188946842885406   1.640209945065665 
  6.223551598067306   0.718848612493674   1.687825268830676 
  9.957391712245315   7.186049397565877   1.687825268830676 
 11.202390106441475   0.718712948184505   1.667909266065908 
 -3.734201090928118   9.342037985617848   8.324742839097198 
  1.244931267890146   9.342071975955941   8.318131944011082 
  2.488497329982185   2.874013940903538   8.327793772275321 
  6.223436654437514   9.343118614047052   8.327793772275321 
  7.469045434144062   2.874013940903538   8.327793772275321 
 12.446928455169761   2.874316600136177   8.338047946779866 
 -1.244570291136704   9.342037985617848   1.681214373747389 
 -0.000627167744186   2.874132902202311   1.674840554109960 
  4.978771382067999   2.875092637182056   1.681914328950440 
  3.734106109688812   9.343118614047052   1.678163440568132 
  8.712611496232899   9.342071975955955   1.687825268830690 
  9.958169931872565   2.874132902202311   1.674840554109827 
 -4.979055096374309  11.498143793210604   8.323451154664868 
  0.000283714304604  11.498143793210604   8.323451154664868 
  1.243832057608985   5.029837431069146   8.327793772275321 
  6.225810592391356   5.029011571566518   8.365747267775708 
  4.978771382057980  11.498704181616020   8.331116658735882 
 11.202549915533725   5.029940224196958   8.326867650820208 
 -1.245007151395472   5.029940224196957   1.679089562023032 
 -2.489385691033239  11.498121504282832   1.681214373747389 
  2.489597483733129  11.498465198415749   1.679089562023032 
  3.731732171734719   5.029011571566505   1.640209945066105 
  7.467945280408714  11.498465198415749   1.679089562023032 
  8.713710706520338   5.029837431069145   1.678163440568132 
  0.000151051897557   7.186049397565878   8.318131944013926 
  1.244166746942880   0.718564563400615   8.326867650820208 
  4.978771382063251   7.188946842885406   8.365747267775721 
  6.223551598067292   0.718848612493675   8.318131944013926 
  9.957391712245315   7.186049397565878   8.318131944013899 
 -2.489385691034930   7.185909889112974   1.682506058180307 
 11.202390106441497   0.718712948184467   8.338047946779866 
  3.733991166062311   0.718848612493674   1.687825268830676 
  2.489903262033737   7.185938674419862   1.681914328950440 
  7.467639502095959   7.185938674419862   1.681914328950387 
  8.713376017196536   0.718564563400537   1.679089562023032 
  2.489903262033752   7.185938674419863   8.324042883898457 
 13.691466803890192   0.718712948184505   1.667909266065894 
 -1.244570291136703   9.342037985617848   8.324742839097238 
 -0.000627167744096   2.874132902202311   8.331116658735843 
  4.978771382068014   2.875092637182057   8.324042883898457 
  3.734106109688812   9.343118614047052   8.327793772275321 
  8.712611496232899   9.342071975955955   8.318131944011082 
  9.958169931872565   2.874132902202311   8.331116658735843 
 -3.734201090928119   9.342037985617848   1.681214373747389 
  1.244931267890109   9.342071975955955   1.687825268830690 
  2.488497329981461   2.874013940903525   1.678163440568292 
  6.223436654437513   9.343118614047052   1.678163440568132 
  7.469045434144061   2.874013940903537   1.678163440568279 
 12.446928455169761   2.874316600136176   1.667909266065908 
 -1.245007151395472   5.029940224196958   8.326867650820208 
 -2.489385691033239  11.498121504282832   8.324742839097238 
  2.489597483733144  11.498465198415749   8.326867650820208 
  3.731732171735131   5.029011571566518   8.365747267775655 
  7.467945280408715  11.498465198415749   8.326867650820208 
 -4.979055096374310  11.498143793210604   1.682506058180307 
  8.713710706520338   5.029837431069146   8.327793772275321 
  0.000283714304604  11.498143793210604   1.682506058180307 
  1.243832057609014   5.029837431069145   1.678163440568132 
  0.000151051897571   7.186049397565877   1.687825268830676 
  6.225810592391332   5.029011571566505   1.640209945065678 
  4.978771382057979  11.498704181616020   1.674840554109827 
 11.202549915533725   5.029940224196957   1.679089562023032 
 -2.489385691034929   7.185909889112975   8.323451154664868 
  3.733991166062334   0.718848612493662   8.318131944011082 
  7.467639502096004   7.185938674419863   8.324042883898457 
  8.713376017196536   0.718564563400538   8.326867650820208 
 13.691466803890213   0.718712948184467   8.338047946779866 
 -0.014826961147914   1.424230647385322   5.002978606422314 
  3.640902829673717   8.069794027502008   5.002978606422314 
  4.978771382069446   1.390552636389982   5.002978606422314 
  8.753288855711428   7.928208674818824   5.002978606422314 
  9.972369725280011   1.424230647384960   5.002978606422314 
 -4.978742119698564  10.060750263004341  11.673616748318732 
 -0.000029262368594  10.060750263004353  11.673616748318732 
  1.244926788656959   3.593253814221687  11.673616748318732 
  4.978771382066060  10.060462357575124  11.673616748318732 
  6.223227813298421   3.592943177601938  11.673616748318732 
 11.202141604558529   3.593233039343175  11.673616748318732 
 -2.489385691033300  10.060732491844131   5.002978606422314 
 -1.263379250123065   3.586786647796718   5.002978606422314 
  3.637830409208010   3.429959825961780   5.002978606422314 
  2.442395007054529  10.126487556775123   5.002978606422314 
  7.515147757082771  10.126487556775148   5.002978606422314 
  8.766729455197813   3.562011382140583   5.002978606422314 
 -6.223325780090807  12.216523807401030  11.673616748318732 
 -1.244692086423816  12.216569512560147  11.673616748318732 
  0.000043416915969   5.749117426906500  11.673616748318732 
  4.978771382066590   5.748989995339477  11.673616748318732 
  3.734026559099255  12.216465183171893  11.673616748318732 
  9.957499347218365   5.749117426906513  11.673616748318732 
 -2.489385691033137   5.755859835181948   5.002978606422314 
 -3.731558900404810  12.197755939665162   5.002978606422314 
  1.238743389699948  12.213168820170569   5.002978606422314 
  2.299961856812174   5.747216132560113   5.002978606422314 
  6.227323671041100  12.235952690841227   5.002978606422314 
  7.657580907313019   5.747216132560384   5.002978606422314 
 -1.244722866979520   7.904877699971665  11.673616748318732 
  0.000145982542436   1.437271763504516  11.673616748318732 
  3.733808281771188   7.904744287561449  11.673616748318732 
  4.978771382065295   1.437142802927454  11.673616748318732 
  8.712940587935769   7.904913591543129  11.673616748318732 
 -3.719015680643591   7.916467212721924   5.002978606422314 
  9.957396781591214   1.437271763504516  11.673616748318732 
  2.455935476366268   1.363674840303829   5.002978606422314 
  1.204253908413399   7.928208674818824   5.002978606422314 
  6.316639934454636   8.069794027501983   5.002978606422314 
  7.501607287767509   1.363674840303816   5.002978606422314 
  1.244602176201255   7.904913591543142  11.673616748318732 
 12.446928455166319   1.437247498834912   5.002978606422314 
 -2.489385691033299  10.060732491844133  11.673616748318732 
 -1.244598840425429   3.593233039343175  11.673616748318732 
  3.734314950835823   3.592943177601925  11.673616748318732 
  2.489297040510558  10.060631175910737  11.673616748318732 
  7.468245723616037  10.060631175910737  11.673616748318732 
  8.712615975476588   3.593253814221687  11.673616748318732 
 -4.961188890013407  10.067974323151377   5.002978606422314 
 -0.017582492054297  10.067974323151377   5.002978606422314 
  1.190813308934652   3.562011382140596   5.002978606422314 
  4.978771382070877  10.122947221737341   5.002978606422314 
  6.319712354928145   3.429959825961767   5.002978606422314 
 11.220922014258583   3.586786647796718   5.002978606422314 
 -2.489385691033398   5.749149860735295  11.673616748318732 
 -3.734079295640175  12.216569512560159  11.673616748318732 
  1.244554398025882  12.216523807401030  11.673616748318732 
  2.489351850541295   5.749282520860529  11.673616748318732 
  6.223516205034419  12.216465183171893  11.673616748318732 
 -6.217514771756882  12.213168820170569   5.002978606422314 
  7.468190913594975   5.749282520860529  11.673616748318732 
 -1.247212481663565  12.197755939665138   5.002978606422314 
 -0.080440898644311   5.756807588939478   5.002978606422314 
 -1.259755701425638   7.916467212721924   5.002978606422314 
  3.730219093087122  12.235952690841227   5.002978606422314 
 10.037983662783819   5.756807588939478   5.002978606422314 
 -3.734048515093130   7.904877699971665  11.673616748318732 
  2.489517758465077   1.437221383204830  11.673616748318732 
  6.223734482362230   7.904744287561449  11.673616748318732 
  7.468025005661734   1.437221383204830  11.673616748318732 
 12.446928455166319   1.437247498834912  11.673616748318732 
  1.217763502297964   0.688888542737430   5.002978606422314 
  4.978771382061570   7.629858713011616   5.002978606422314 
  6.230343710246498   0.685511380648684   5.002978606422314 
  9.989658657996952   7.196835871809446   5.002978606422314 
 11.209030618054566   0.722546849348500   5.002978606422314 
 -3.734448479924342   9.341895155515942  11.673616748318732 
  1.244495136323333   9.341689074573202  11.673616748318732 
  2.490030508059753   2.875257278340531  11.673616748318732 
  6.223126481683591   9.341169174159063  11.673616748318732 
  7.467512256068209   2.875257278340531  11.673616748318732 
 12.446928455164976   2.875004365963047  11.673616748318732 
 -1.252796104135049   9.346787160970049   5.002978606422314 
 -0.035253828503853   2.854141190293217   5.002978606422314 
  4.978771382067213   2.815629888646248   5.002978606422314 
  3.683375829050994   9.467065970498473   5.002978606422314 
  8.738086329824426   9.364622733551517   5.002978606422314 
  9.992796592636385   2.854141190293217   5.002978606422314 
 -4.978719518334939  11.497950047140053  11.673616748318732 
 -0.000051863733794  11.497950047140053  11.673616748318732 
  1.245675408454458   5.030543533514427  11.673616748318732 
  6.223083072484448   5.030586305919734  11.673616748318732 
  4.978771382072186  11.497466713353592  11.673616748318732 
 11.202296609468732   5.030380956305806  11.673616748318732 
 -1.283908961496899   5.021912353926175   5.002978606422314 
 -2.489385691033247  11.488623153588353   5.002978606422314 
  2.477098918268724  11.536169089357697   5.002978606422314 
  3.349891291380453   4.808555636503434   5.002978606422314 
  7.480443845856497  11.536169089356610   5.002978606422314 
  8.846417406260667   5.011797464619176   5.002978606422314 
  0.000264588417571   7.186618549288091  11.673616748318732 
  1.244675085173401   0.718563566830940  11.673616748318732 
  4.978771382064521   7.185797374178978  11.673616748318732 
  6.223001929967254   0.718662362155045  11.673616748318732 
  9.957278175714261   7.186618549288091  11.673616748318732 
 -2.489385691032606   7.191838451482076   5.002978606422314 
 11.201794483770529   0.718369065270496  11.673616748318732 
  3.727199053889639   0.685511380648696   5.002978606422314 
  2.438407011220361   7.215670048691576   5.002978606422314 
  7.519135752905842   7.215670048692171   5.002978606422314 
  8.739779261835276   0.688888542737417   5.002978606422314 
  2.489753497473606   7.186025141026581  11.673616748318732 
 13.684826292278983   0.722546849348500   5.002978606422314 
 -1.244322902142019   9.341895155515942  11.673616748318732 
  0.000444511206058   2.874751636332479  11.673616748318732 
  4.978771382069866   2.874919703958220  11.673616748318732 
  3.734416282461033   9.341169174159063  11.673616748318732 
  8.713047627818284   9.341689074573202  11.673616748318732 
  9.957098252935728   2.874751636332491  11.673616748318732 
 -3.725975277930856   9.346787160970061   5.002978606422314 
  1.219456434321315   9.364622733551517   5.002978606422314 
  2.406520910884508   2.768106550902528   5.002978606422314 
  6.274166935079203   9.467065970498485   5.002978606422314 
  7.551021853245111   2.768106550902528   5.002978606422314 
 12.446928455167313   2.866648797805523   5.002978606422314 
 -1.244753845336480   5.030380956305909  11.673616748318732 
 -2.489385691033238  11.498407164488953  11.673616748318732 
  2.489342451556102  11.498025462882346  11.673616748318732 
  3.734459691642129   5.030586305919734  11.673616748318732 
  7.468200312573988  11.498025462882346  11.673616748318732 
 -4.973920810748925  11.495179512019966   5.002978606422314 
  8.711867355685456   5.030543533514427  11.673616748318732 
 -0.004850571314790  11.495179512019991   5.002978606422314 
  1.111125357871902   5.011797464619214   5.002978606422314 
 -0.032115893862967   7.196835871809446   5.002978606422314 
  6.607651472749144   4.808555636503395   5.002978606422314 
  4.978771382065545  11.538687605433159   5.002978606422314 
 11.241451725627551   5.021912353926175   5.002978606422314 
 -2.489385691033486   7.186297381254016  11.673616748318732 
  3.734540834165515   0.718662362155045  11.673616748318732 
  7.467789266660260   7.186025141026581  11.673616748318732 
  8.712867678960652   0.718563566830940  11.673616748318732 
 13.692062426563661   0.718369065270496  11.673616748318732 
 -0.000292252712694   1.436795875459205   1.674579278836159 
  3.736780972236900   7.904621902744329   1.668017465654156 
  4.978771382064077   1.438387422781602   1.689401572585675 
  8.711862715524859   7.904291281618737   1.689401572585675 
  9.957835016845046   1.436795875459205   1.674579278836159 
 -4.979416001015755  10.060048136141271   8.320941793331526 
  0.000644618956760  10.060048136141271   8.320941793331526 
  1.245204843413669   3.593414349209425   8.328184895019891 
  4.978771382067496  10.060141287599695   8.328184895019891 
  6.224608170174574   3.595578795464538   8.337939747187523 
 11.202772853317878   3.593091460499931   8.331377934008604 
 -2.489385691033300  10.060732491844131   1.680746160041968 
 -1.245230089188373   3.593091460499943   1.674579278836159 
  3.732934593965024   3.595578795464538   1.668017465654156 
  2.490103195873365  10.060578316172197   1.683650745868604 
  7.467439568264309  10.060578316172197   1.683650745868631 
  8.712337920722904   3.593414349209411   1.677772317825764 
 -6.224478951947591  12.217189591486052   8.324742695402247 
 -1.244963205457459  12.217504174332046   8.320941793331526 
  0.000492272470269   5.748445705758324   8.322306466980159 
  4.978771382066590   5.748989995339477   8.335575110006763 
  3.733833545591188  12.217082650054405   8.331377934008604 
  9.957050491668053   5.748445705758389   8.322306466980159 
 -2.489385691033250   5.747818292574250   1.681214517444568 
 -3.733808176606451  12.217504174332046   1.685015419511340 
  1.245707569869805  12.217189591486052   1.681214517444568 
  2.490944184132597   5.746769287807610   1.668017465654156 
  6.223709218539677  12.217082650054405   1.674579278836159 
  7.466598580010393   5.746769287807610   1.668017465654277 
 -1.243777866620717   7.904645165050220   8.320941793331526 
 -0.000292252712716   1.436795875459219   8.331377934008604 
  3.736780972236901   7.904621902744330   8.337939747187523 
  4.978771382064078   1.438387422781603   8.316555640261180 
  8.711862715524845   7.904291281618738   8.316555640261180 
 -3.734993515444227   7.904645165050219   1.685015419511340 
  9.957835016845038   1.436795875459219   8.331377934008604 
  2.489160458664117   1.437945964090264   1.683650745868604 
  1.245680048610243   7.904291281618737   1.689401572584368 
  6.220761791905149   7.904621902744329   1.668017465654210 
  7.468382305470981   1.437945964090316   1.683650745868631 
  1.245680048610236   7.904291281618725   8.316555640261180 
 12.446928455166319   1.437247498834911   1.667708718687708 
 -2.489385691033300  10.060732491844131   8.325211052809276 
 -1.245230089188365   3.593091460499931   8.331377934008604 
  3.732934593965010   3.595578795464538   8.337939747187523 
  2.490103195873365  10.060578316172197   8.322306466980159 
  7.467439568264303  10.060578316172210   8.322306466980159 
  8.712337920722897   3.593414349209425   8.328184895019891 
 -4.979416001015756  10.060048136141271   1.685015419511340 
  0.000644618956760  10.060048136141271   1.685015419511340 
  1.245204843413669   3.593414349209424   1.677772317825764 
  4.978771382067486  10.060141287599709   1.677772317825764 
  6.224608170174573   3.595578795464538   1.668017465654210 
 11.202772853317729   3.593091460499930   1.674579278836159 
 -2.489385691033279   5.747818292574251   8.324742695402247 
 -3.733808176606451  12.217504174332046   8.320941793331526 
  1.245707569869805  12.217189591486052   8.324742695402247 
  2.490944184132597   5.746769287807611   8.337939747187523 
  6.223709218539677  12.217082650054405   8.331377934008604 
 -6.224478951947622  12.217189591486052   1.681214517444568 
  7.466598580010207   5.746769287807934   8.337939747187523 
 -1.244963205457459  12.217504174332046   1.685015419511340 
  0.000492272470269   5.748445705758323   1.683650745868604 
 -1.243777866620703   7.904645165050219   1.685015419511340 
  4.978771382066589   5.748989995339476   1.670382102832795 
  3.733833545591187  12.217082650054405   1.674579278836159 
  9.957050491668106   5.748445705758323   1.683650745868604 
 -3.734993515444227   7.904645165050220   8.320941793331526 
  2.489160458664118   1.437945964090265   8.322306466980292 
  6.220761791905150   7.904621902744330   8.337939747187523 
  7.468382305470983   1.437945964090265   8.322306466980159 
 12.446928455166319   1.437247498834912   8.338248494158828 
  4.978771382066589   5.748989995339477   5.002978606422314 
Generated by cif2cell 2.0.0.  :  Failed to get author information, No journal information. Species order: N B Sb 
 1.0
 14.936314146199660   0.000000000000000   0.000000000000000
 -7.468157073099825  12.935227489513863   0.000000000000000
  0.000000000000001   0.000000000000001  13.341276283792837
 N B Sb 
 143 144   1
Cartesian
  1.244166746942932   0.718564563400524   1.679089562023032 
  4.978771382063250   7.188946842885406   1.640209945065665 
  6.223551598067306   0.718848612493674   1.687825268830676 
  9.957391712245315   7.186049397565877   1.687825268830676 
 11.202390106441475   0.718712948184505   1.667909266065908 
 -3.734201090928118   9.342037985617848   8.324742839097198 
  1.244931267890146   9.342071975955941   8.318131944011082 
  2.488497329982185   2.874013940903538   8.327793772275321 
  6.223436654437514   9.343118614047052   8.327793772275321 
  7.469045434144062   2.874013940903538   8.327793772275321 
 12.446928455169761   2.874316600136177   8.338047946779866 
 -1.244570291136704   9.342037985617848   1.681214373747389 
 -0.000627167744186   2.874132902202311   1.674840554109960 
  4.978771382067999   2.875092637182056   1.681914328950440 
  3.734106109688812   9.343118614047052   1.678163440568132 
  8.712611496232899   9.342071975955955   1.687825268830690 
  9.958169931872565   2.874132902202311   1.674840554109827 
 -4.979055096374309  11.498143793210604   8.323451154664868 
  0.000283714304604  11.498143793210604   8.323451154664868 
  1.243832057608985   5.029837431069146   8.327793772275321 
  6.225810592391356   5.029011571566518   8.365747267775708 
  4.978771382057980  11.498704181616020   8.331116658735882 
 11.202549915533725   5.029940224196958   8.326867650820208 
 -1.245007151395472   5.029940224196957   1.679089562023032 
 -2.489385691033239  11.498121504282832   1.681214373747389 
  2.489597483733129  11.498465198415749   1.679089562023032 
  3.731732171734719   5.029011571566505   1.640209945066105 
  7.467945280408714  11.498465198415749   1.679089562023032 
  8.713710706520338   5.029837431069145   1.678163440568132 
  0.000151051897557   7.186049397565878   8.318131944013926 
  1.244166746942880   0.718564563400615   8.326867650820208 
  4.978771382063251   7.188946842885406   8.365747267775721 
  6.223551598067292   0.718848612493675   8.318131944013926 
  9.957391712245315   7.186049397565878   8.318131944013899 
 -2.489385691034930   7.185909889112974   1.682506058180307 
 11.202390106441497   0.718712948184467   8.338047946779866 
  3.733991166062311   0.718848612493674   1.687825268830676 
  2.489903262033737   7.185938674419862   1.681914328950440 
  7.467639502095959   7.185938674419862   1.681914328950387 
  8.713376017196536   0.718564563400537   1.679089562023032 
  2.489903262033752   7.185938674419863   8.324042883898457 
 13.691466803890192   0.718712948184505   1.667909266065894 
 -1.244570291136703   9.342037985617848   8.324742839097238 
 -0.000627167744096   2.874132902202311   8.331116658735843 
  4.978771382068014   2.875092637182057   8.324042883898457 
  3.734106109688812   9.343118614047052   8.327793772275321 
  8.712611496232899   9.342071975955955   8.318131944011082 
  9.958169931872565   2.874132902202311   8.331116658735843 
 -3.734201090928119   9.342037985617848   1.681214373747389 
  1.244931267890109   9.342071975955955   1.687825268830690 
  2.488497329981461   2.874013940903525   1.678163440568292 
  6.223436654437513   9.343118614047052   1.678163440568132 
  7.469045434144061   2.874013940903537   1.678163440568279 
 12.446928455169761   2.874316600136176   1.667909266065908 
 -1.245007151395472   5.029940224196958   8.326867650820208 
 -2.489385691033239  11.498121504282832   8.324742839097238 
  2.489597483733144  11.498465198415749   8.326867650820208 
  3.731732171735131   5.029011571566518   8.365747267775655 
  7.467945280408715  11.498465198415749   8.326867650820208 
 -4.979055096374310  11.498143793210604   1.682506058180307 
  8.713710706520338   5.029837431069146   8.327793772275321 
  0.000283714304604  11.498143793210604   1.682506058180307 
  1.243832057609014   5.029837431069145   1.678163440568132 
  0.000151051897571   7.186049397565877   1.687825268830676 
  6.225810592391332   5.029011571566505   1.640209945065678 
  4.978771382057979  11.498704181616020   1.674840554109827 
 11.202549915533725   5.029940224196957   1.679089562023032 
 -2.489385691034929   7.185909889112975   8.323451154664868 
  3.733991166062334   0.718848612493662   8.318131944011082 
  7.467639502096004   7.185938674419863   8.324042883898457 
  8.713376017196536   0.718564563400538   8.326867650820208 
 13.691466803890213   0.718712948184467   8.338047946779866 
 -0.014826961147914   1.424230647385322   5.002978606422314 
  3.640902829673717   8.069794027502008   5.002978606422314 
  4.978771382069446   1.390552636389982   5.002978606422314 
  8.753288855711428   7.928208674818824   5.002978606422314 
  9.972369725280011   1.424230647384960   5.002978606422314 
 -4.978742119698564  10.060750263004341  11.673616748318732 
 -0.000029262368594  10.060750263004353  11.673616748318732 
  1.244926788656959   3.593253814221687  11.673616748318732 
  4.978771382066060  10.060462357575124  11.673616748318732 
  6.223227813298421   3.592943177601938  11.673616748318732 
 11.202141604558529   3.593233039343175  11.673616748318732 
 -2.489385691033300  10.060732491844131   5.002978606422314 
 -1.263379250123065   3.586786647796718   5.002978606422314 
  3.637830409208010   3.429959825961780   5.002978606422314 
  2.442395007054529  10.126487556775123   5.002978606422314 
  7.515147757082771  10.126487556775148   5.002978606422314 
  8.766729455197813   3.562011382140583   5.002978606422314 
 -6.223325780090807  12.216523807401030  11.673616748318732 
 -1.244692086423816  12.216569512560147  11.673616748318732 
  0.000043416915969   5.749117426906500  11.673616748318732 
  4.978771382066590   5.748989995339477  11.673616748318732 
  3.734026559099255  12.216465183171893  11.673616748318732 
  9.957499347218365   5.749117426906513  11.673616748318732 
 -2.489385691033137   5.755859835181948   5.002978606422314 
 -3.731558900404810  12.197755939665162   5.002978606422314 
  1.238743389699948  12.213168820170569   5.002978606422314 
  2.299961856812174   5.747216132560113   5.002978606422314 
  6.227323671041100  12.235952690841227   5.002978606422314 
  7.657580907313019   5.747216132560384   5.002978606422314 
 -1.244722866979520   7.904877699971665  11.673616748318732 
  0.000145982542436   1.437271763504516  11.673616748318732 
  3.733808281771188   7.904744287561449  11.673616748318732 
  4.978771382065295   1.437142802927454  11.673616748318732 
  8.712940587935769   7.904913591543129  11.673616748318732 
 -3.719015680643591   7.916467212721924   5.002978606422314 
  9.957396781591214   1.437271763504516  11.673616748318732 
  2.455935476366268   1.363674840303829   5.002978606422314 
  1.204253908413399   7.928208674818824   5.002978606422314 
  6.316639934454636   8.069794027501983   5.002978606422314 
  7.501607287767509   1.363674840303816   5.002978606422314 
  1.244602176201255   7.904913591543142  11.673616748318732 
 12.446928455166319   1.437247498834912   5.002978606422314 
 -2.489385691033299  10.060732491844133  11.673616748318732 
 -1.244598840425429   3.593233039343175  11.673616748318732 
  3.734314950835823   3.592943177601925  11.673616748318732 
  2.489297040510558  10.060631175910737  11.673616748318732 
  7.468245723616037  10.060631175910737  11.673616748318732 
  8.712615975476588   3.593253814221687  11.673616748318732 
 -4.961188890013407  10.067974323151377   5.002978606422314 
 -0.017582492054297  10.067974323151377   5.002978606422314 
  1.190813308934652   3.562011382140596   5.002978606422314 
  4.978771382070877  10.122947221737341   5.002978606422314 
  6.319712354928145   3.429959825961767   5.002978606422314 
 11.220922014258583   3.586786647796718   5.002978606422314 
 -2.489385691033398   5.749149860735295  11.673616748318732 
 -3.734079295640175  12.216569512560159  11.673616748318732 
  1.244554398025882  12.216523807401030  11.673616748318732 
  2.489351850541295   5.749282520860529  11.673616748318732 
  6.223516205034419  12.216465183171893  11.673616748318732 
 -6.217514771756882  12.213168820170569   5.002978606422314 
  7.468190913594975   5.749282520860529  11.673616748318732 
 -1.247212481663565  12.197755939665138   5.002978606422314 
 -0.080440898644311   5.756807588939478   5.002978606422314 
 -1.259755701425638   7.916467212721924   5.002978606422314 
  3.730219093087122  12.235952690841227   5.002978606422314 
 10.037983662783819   5.756807588939478   5.002978606422314 
 -3.734048515093130   7.904877699971665  11.673616748318732 
  2.489517758465077   1.437221383204830  11.673616748318732 
  6.223734482362230   7.904744287561449  11.673616748318732 
  7.468025005661734   1.437221383204830  11.673616748318732 
 12.446928455166319   1.437247498834912  11.673616748318732 
  1.217763502297964   0.688888542737430   5.002978606422314 
  4.978771382061570   7.629858713011616   5.002978606422314 
  6.230343710246498   0.685511380648684   5.002978606422314 
  9.989658657996952   7.196835871809446   5.002978606422314 
 11.209030618054566   0.722546849348500   5.002978606422314 
 -3.734448479924342   9.341895155515942  11.673616748318732 
  1.244495136323333   9.341689074573202  11.673616748318732 
  2.490030508059753   2.875257278340531  11.673616748318732 
  6.223126481683591   9.341169174159063  11.673616748318732 
  7.467512256068209   2.875257278340531  11.673616748318732 
 12.446928455164976   2.875004365963047  11.673616748318732 
 -1.252796104135049   9.346787160970049   5.002978606422314 
 -0.035253828503853   2.854141190293217   5.002978606422314 
  4.978771382067213   2.815629888646248   5.002978606422314 
  3.683375829050994   9.467065970498473   5.002978606422314 
  8.738086329824426   9.364622733551517   5.002978606422314 
  9.992796592636385   2.854141190293217   5.002978606422314 
 -4.978719518334939  11.497950047140053  11.673616748318732 
 -0.000051863733794  11.497950047140053  11.673616748318732 
  1.245675408454458   5.030543533514427  11.673616748318732 
  6.223083072484448   5.030586305919734  11.673616748318732 
  4.978771382072186  11.497466713353592  11.673616748318732 
 11.202296609468732   5.030380956305806  11.673616748318732 
 -1.283908961496899   5.021912353926175   5.002978606422314 
 -2.489385691033247  11.488623153588353   5.002978606422314 
  2.477098918268724  11.536169089357697   5.002978606422314 
  3.349891291380453   4.808555636503434   5.002978606422314 
  7.480443845856497  11.536169089356610   5.002978606422314 
  8.846417406260667   5.011797464619176   5.002978606422314 
  0.000264588417571   7.186618549288091  11.673616748318732 
  1.244675085173401   0.718563566830940  11.673616748318732 
  4.978771382064521   7.185797374178978  11.673616748318732 
  6.223001929967254   0.718662362155045  11.673616748318732 
  9.957278175714261   7.186618549288091  11.673616748318732 
 -2.489385691032606   7.191838451482076   5.002978606422314 
 11.201794483770529   0.718369065270496  11.673616748318732 
  3.727199053889639   0.685511380648696   5.002978606422314 
  2.438407011220361   7.215670048691576   5.002978606422314 
  7.519135752905842   7.215670048692171   5.002978606422314 
  8.739779261835276   0.688888542737417   5.002978606422314 
  2.489753497473606   7.186025141026581  11.673616748318732 
 13.684826292278983   0.722546849348500   5.002978606422314 
 -1.244322902142019   9.341895155515942  11.673616748318732 
  0.000444511206058   2.874751636332479  11.673616748318732 
  4.978771382069866   2.874919703958220  11.673616748318732 
  3.734416282461033   9.341169174159063  11.673616748318732 
  8.713047627818284   9.341689074573202  11.673616748318732 
  9.957098252935728   2.874751636332491  11.673616748318732 
 -3.725975277930856   9.346787160970061   5.002978606422314 
  1.219456434321315   9.364622733551517   5.002978606422314 
  2.406520910884508   2.768106550902528   5.002978606422314 