B In N                                  
   1.0000000000000000     
     8.7639499999999995  -15.1796066749929999    0.0000000000000000
     8.7639499999999995   15.1796066749929999    0.0000000000000000
     0.0000000000000000    0.0000000000000000   15.0000000000000000
   B    In   N 
    49     1    47
Selective dynamics
Direct
  0.9050309017193437  0.9511543207717655  0.1213262294202958   T   T   T
  0.9032207112110394  0.0929295621050713  0.1204618783643306   T   T   T
  0.9029422192561328  0.2357867334665935  0.1191777987994330   T   T   T
  0.9035945639781562  0.3790358890893324  0.1193745922237854   T   T   T
  0.9056390523286295  0.5226284367735452  0.1205241654776394   T   T   T
  0.9081162112128212  0.6664855539392908  0.1195914495643557   T   T   T
  0.9078380613806093  0.8099446036852328  0.1189753179125548   T   T   T
  0.0481053464285126  0.9510518177846099  0.1226684397040058   T   T   T
  0.0460555398295901  0.0926535396447332  0.1203320357502744   T   T   T
  0.0451058264645215  0.2353678960420197  0.1175695094750606   T   T   T
  0.0452410554832312  0.3786002990035290  0.1163439065084830   T   T   T
  0.0466742143246591  0.5220648337811779  0.1191714681726604   T   T   T
  0.0485335178551967  0.6654969235183363  0.1226612250029123   T   T   T
  0.0490584141388282  0.8086507210945144  0.1232631171935266   T   T   T
  0.1905407468395843  0.9505904671340907  0.1200904301540668   T   T   T
  0.1890268231938948  0.0923021732262770  0.1175814455583121   T   T   T
  0.1866946652249128  0.2339306264710135  0.1140666332522415   T   T   T
  0.1865751480796519  0.3780156972390376  0.1102739376993843   T   T   T
  0.1875916228806254  0.5216231655435632  0.1101370835509516   T   T   T
  0.1896293335598615  0.6650326557445086  0.1168326411536005   T   T   T
  0.1907394186051409  0.8080288476509088  0.1202698810670812   T   T   T
  0.3329619625049678  0.9503863698375606  0.1177612038408235   T   T   T
  0.3323505688659830  0.0925179494138857  0.1161504497626534   T   T   T
  0.3296616351135846  0.2329719771930926  0.1133551265958953   T   T   T
  0.3259948521557882  0.3761984940516430  0.1097772043188637   T   T   T
  0.3284490099147591  0.5210510920871863  0.0977887531536696   T   T   T
  0.3304382615383413  0.6647905488921714  0.1027832726869775   T   T   T
  0.3327047042344405  0.8077640783462383  0.1142855449842146   T   T   T
  0.4754595656351671  0.9503910683787508  0.1157997605158703   T   T   T
  0.4753791905410898  0.0928522964198629  0.1163290003460838   T   T   T
  0.4747498039251947  0.2344698302282607  0.1136787590715465   T   T   T
  0.4686617711538565  0.3683347372701937  0.1124765679526879   T   T   T
  0.5355228811141539  0.6389169138269849  0.0244879305941164   T   T   T
  0.4679611208163054  0.6681576691523982  0.0652723477943078   T   T   T
  0.4750594534233743  0.8081288311579301  0.1047961568598300   T   T   T
  0.6180916484464004  0.9501095210738632  0.1125952653673006   T   T   T
  0.6180634781637723  0.0931731807108425  0.1170340153910158   T   T   T
  0.6182509525152784  0.2363545107580749  0.1155825857123523   T   T   T
  0.6194168196380047  0.3800906635032451  0.1084478360624596   T   T   T
  0.6376948987135297  0.5335313193623765  0.0805206982783595   T   T   T
  0.6371703732026850  0.6759805566914469  0.0518570900523317   T   T   T
  0.6190175124918599  0.8081492157440477  0.0932491769329091   T   T   T
  0.7611285735183085  0.9503752024880811  0.1146386360042621   T   T   T
  0.7605457417341170  0.0930332484851200  0.1179948299156708   T   T   T
  0.7607129421620135  0.2361136070799584  0.1181614810065623   T   T   T
  0.7617588129648118  0.3795147923185863  0.1160442644772372   T   T   T
  0.7660052284080239  0.5240354791085093  0.1082712978423376   T   T   T
  0.7722188203992334  0.6704158518527178  0.0950401064096669   T   T   T
  0.7653156368447384  0.8104176653155791  0.1049600292261165   T   T   T
  0.4998748359651500  0.5139358922042060  0.0993680303593219   T   T   T
  0.9533222951822241  0.9041316194171400  0.1230786335260263   T   T   T
  0.9513016594808708  0.0456942194266210  0.1219691770040398   T   T   T
  0.9502770540051854  0.1879755323352961  0.1197375855671757   T   T   T
  0.9503314586309063  0.3309765971931797  0.1187841728467759   T   T   T
  0.9515916268855894  0.4742412364597862  0.1207309880005231   T   T   T
  0.9535104735155504  0.6176824946502482  0.1228575837568219   T   T   T
  0.9541255365212362  0.7612397386650660  0.1222292310151083   T   T   T
  0.0957315753698095  0.9035297367250841  0.1225463965047002   T   T   T
  0.0944818806496198  0.0457245249217359  0.1206433233233355   T   T   T
  0.0925454803463779  0.1873752326745468  0.1174560776613577   T   T   T
  0.0921702766242074  0.3304747791712358  0.1148998117749731   T   T   T
  0.0930060352888391  0.4738008900741654  0.1154285337186678   T   T   T
  0.0947856087536847  0.6172346731965118  0.1203909362635660   T   T   T
  0.0958242114095773  0.7605553870016254  0.1228205454818638   T   T   T
  0.2381003981870018  0.9031703622738163  0.1194674022369870   T   T   T
  0.2376108471931545  0.0457337054459475  0.1177546193708134   T   T   T
  0.2356711135691710  0.1872712670702053  0.1143799717124749   T   T   T
  0.2326878632593186  0.3284710496687160  0.1103656396716344   T   T   T
  0.2339360956155617  0.4732765273356714  0.1053029630194849   T   T   T
  0.2360361898523807  0.6169044973971911  0.1111317725317111   T   T   T
  0.2377558753356979  0.7602047358322979  0.1175664886202782   T   T   T
  0.3805049221519269  0.9029510386794547  0.1165742404279636   T   T   T
  0.3804654501016141  0.0457815899420233  0.1167987342125482   T   T   T
  0.3798886625723648  0.1882840015439770  0.1141595330841929   T   T   T
  0.3767025098951077  0.3292151085429652  0.1120848045728562   T   T   T
  0.3702287693882660  0.4692409408657948  0.1059778122721484   T   T   T
  0.3762396345872524  0.6167816283743680  0.0872365425762936   T   T   T
  0.3798375642547105  0.7600342328168342  0.1072741738364795   T   T   T
  0.5230301058684167  0.9028227602711661  0.1126030986046827   T   T   T
  0.5230420240095055  0.0457156892528574  0.1169335683492180   T   T   T
  0.5230479197497557  0.1886313167387674  0.1150186660632814   T   T   T
  0.5232538474588935  0.3317080016753828  0.1113501035726027   T   T   T
  0.5226537294572201  0.7610594430689444  0.0899337630876472   T   T   T
  0.6657787419485993  0.9021232155240573  0.1081684560214649   T   T   T
  0.6654574492829421  0.0453599845938144  0.1165349449904303   T   T   T
  0.6654792671865933  0.1888388555178973  0.1172643021979121   T   T   T
  0.6658536026532956  0.3325935735058562  0.1136390655568728   T   T   T
  0.6690861972099234  0.4764838285956881  0.0995568452074680   T   T   T
  0.6813377111346907  0.6247752370091000  0.0667821234424093   T   T   T
  0.6715402780936732  0.7636576147817175  0.0861959861072398   T   T   T
  0.8100108075578341  0.9037664832838790  0.1166502434929668   T   T   T
  0.8080569791472292  0.0452698999952996  0.1187670232577063   T   T   T
  0.8078324795067314  0.1882792344063944  0.1188872168492332   T   T   T
  0.8082118632735947  0.3315254083378329  0.1184388653966018   T   T   T
  0.8101330676750083  0.4748715717435549  0.1164066676383912   T   T   T
  0.8135136082905460  0.6188688163055388  0.1096187208365237   T   T   T
  0.8137081688855088  0.7631899672159295  0.1073461908910772   T   T   T

  0.00000000E+00  0.00000000E+00  0.00000000E+00
  0.00000000E+00  0.00000000E+00  0.00000000E+00
  0.00000000E+00  0.00000000E+00  0.00000000E+00
  0.00000000E+00  0.00000000E+00  0.00000000E+00
  0.00000000E+00  0.00000000E+00  0.00000000E+00
  0.00000000E+00  0.00000000E+00  0.00000000E+00
  0.00000000E+00  0.00000000E+00  0.00000000E+00
  0.00000000E+00  0.00000000E+00  0.00000000E+00
  0.00000000E+00  0.00000000E+00  0.00000000E+00
  0.00000000E+00  0.00000000E+00  0.00000000E+00
  0.00000000E+00  0.00000000E+00  0.00000000E+00
  0.00000000E+00  0.00000000E+00  0.00000000E+00
  0.00000000E+00  0.00000000E+00  0.00000000E+00
  0.00000000E+00  0.00000000E+00  0.00000000E+00
  0.00000000E+00  0.00000000E+00  0.00000000E+00
  0.00000000E+00  0.00000000E+00  0.00000000E+00
  0.00000000E+00  0.00000000E+00  0.00000000E+00
  0.00000000E+00  0.00000000E+00  0.00000000E+00
  0.00000000E+00  0.00000000E+00  0.00000000E+00
  0.00000000E+00  0.00000000E+00  0.00000000E+00
  0.00000000E+00  0.00000000E+00  0.00000000E+00
  0.00000000E+00  0.00000000E+00  0.00000000E+00
  0.00000000E+00  0.00000000E+00  0.00000000E+00
  0.00000000E+00  0.00000000E+00  0.00000000E+00
  0.00000000E+00  0.00000000E+00  0.00000000E+00
  0.00000000E+00  0.00000000E+00  0.00000000E+00
  0.00000000E+00  0.00000000E+00  0.00000000E+00
  0.00000000E+00  0.00000000E+00  0.00000000E+00
  0.00000000E+00  0.00000000E+00  0.00000000E+00
  0.00000000E+00  0.00000000E+00  0.00000000E+00
  0.00000000E+00  0.00000000E+00  0.00000000E+00
  0.00000000E+00  0.00000000E+00  0.00000000E+00
  0.00000000E+00  0.00000000E+00  0.00000000E+00
  0.00000000E+00  0.00000000E+00  0.00000000E+00
  0.00000000E+00  0.00000000E+00  0.00000000E+00
  0.00000000E+00  0.00000000E+00  0.00000000E+00
  0.00000000E+00  0.00000000E+00  0.00000000E+00
  0.00000000E+00  0.00000000E+00  0.00000000E+00
  0.00000000E+00  0.00000000E+00  0.00000000E+00
  0.00000000E+00  0.00000000E+00  0.00000000E+00
  0.00000000E+00  0.00000000E+00  0.00000000E+00
  0.00000000E+00  0.00000000E+00  0.00000000E+00
  0.00000000E+00  0.00000000E+00  0.00000000E+00
  0.00000000E+00  0.00000000E+00  0.00000000E+00
  0.00000000E+00  0.00000000E+00  0.00000000E+00
  0.00000000E+00  0.00000000E+00  0.00000000E+00
  0.00000000E+00  0.00000000E+00  0.00000000E+00
  0.00000000E+00  0.00000000E+00  0.00000000E+00
  0.00000000E+00  0.00000000E+00  0.00000000E+00
  0.00000000E+00  0.00000000E+00  0.00000000E+00
  0.00000000E+00  0.00000000E+00  0.00000000E+00
  0.00000000E+00  0.00000000E+00  0.00000000E+00
  0.00000000E+00  0.00000000E+00  0.00000000E+00
  0.00000000E+00  0.00000000E+00  0.00000000E+00
  0.00000000E+00  0.00000000E+00  0.00000000E+00
  0.00000000E+00  0.00000000E+00  0.00000000E+00
  0.00000000E+00  0.00000000E+00  0.00000000E+00
  0.00000000E+00  0.00000000E+00  0.00000000E+00
  0.00000000E+00  0.00000000E+00  0.00000000E+00
  0.00000000E+00  0.00000000E+00  0.00000000E+00
  0.00000000E+00  0.00000000E+00  0.00000000E+00
  0.00000000E+00  0.00000000E+00  0.00000000E+00
  0.00000000E+00  0.00000000E+00  0.00000000E+00
  0.00000000E+00  0.00000000E+00  0.00000000E+00
  0.00000000E+00  0.00000000E+00  0.00000000E+00
  0.00000000E+00  0.00000000E+00  0.00000000E+00
  0.00000000E+00  0.00000000E+00  0.00000000E+00
  0.00000000E+00  0.00000000E+00  0.00000000E+00
  0.00000000E+00  0.00000000E+00  0.00000000E+00
  0.00000000E+00  0.00000000E+00  0.00000000E+00
  0.00000000E+00  0.00000000E+00  0.00000000E+00
  0.00000000E+00  0.00000000E+00  0.00000000E+00
  0.00000000E+00  0.00000000E+00  0.00000000E+00
  0.00000000E+00  0.00000000E+00  0.00000000E+00
  0.00000000E+00  0.00000000E+00  0.00000000E+00
  0.00000000E+00  0.00000000E+00  0.00000000E+00
  0.00000000E+00  0.00000000E+00  0.00000000E+00
  0.00000000E+00  0.00000000E+00  0.00000000E+00
  0.00000000E+00  0.00000000E+00  0.00000000E+00
  0.00000000E+00  0.00000000E+00  0.00000000E+00
  0.00000000E+00  0.00000000E+00  0.00000000E+00
  0.00000000E+00  0.00000000E+00  0.00000000E+00
  0.00000000E+00  0.00000000E+00  0.00000000E+00
  0.00000000E+00  0.00000000E+00  0.00000000E+00
  0.00000000E+00  0.00000000E+00  0.00000000E+00
  0.00000000E+00  0.00000000E+00  0.00000000E+00
  0.00000000E+00  0.00000000E+00  0.00000000E+00
  0.00000000E+00  0.00000000E+00  0.00000000E+00
  0.00000000E+00  0.00000000E+00  0.00000000E+00
  0.00000000E+00  0.00000000E+00  0.00000000E+00
  0.00000000E+00  0.00000000E+00  0.00000000E+00
  0.00000000E+00  0.00000000E+00  0.00000000E+00
  0.00000000E+00  0.00000000E+00  0.00000000E+00
  0.00000000E+00  0.00000000E+00  0.00000000E+00
  0.00000000E+00  0.00000000E+00  0.00000000E+00
  0.00000000E+00  0.00000000E+00  0.00000000E+00
  0.00000000E+00  0.00000000E+00  0.00000000E+00
