 B N C 
 1.0
 17.527899999999772   0.000000000000000   0.000000000000000
 -8.763949999999658  15.179606674993195   0.000000000000000
  0.000000000000001   0.000000000000002  15.000000000000000
 B N C 
  48  48   1
Cartesian
  7.517410611387273  14.465243027599874   1.665030150186105 
 15.017141724145274   1.449604183448184   1.665966538700760 
 13.759724665999890   3.618168514665907   1.666211916003435 
 12.508015501579800   5.786288547492651   1.664797318429890 
 11.266291094637268   7.954427893841227   1.665175911897015 
 10.035543840763113  10.127896998675373   1.666931260765215 
  8.784554814876948  12.304594593708915   1.666214011407045 
 -7.503395619832582  14.451843139547595   1.666170036047385 
 -0.004598529416972   1.436741537352154   1.665030126171180 
 -1.262006723469441   3.609122247047736   1.664682369359475 
 -2.509692861888930   5.778920604699692   1.664670138267165 
 -3.749095012674676   7.946709189184200   1.664843487487785 
 -4.991191131861671  10.115612935827574   1.666505433887715 
 -6.242213255360109  12.285690373704043   1.667486757798585 
 -4.996861157586240  14.442703054178377   1.667486772708585 
  2.500151868290660   1.419688900404239   1.666213981122045 
  1.238772033239494   3.587002474426975   1.664174233486200 
 -0.004465573802214   5.769011590985386   1.663918660845315 
 -1.234868887846821   7.940254198188489   1.664740803594900 
 -2.484614162155601  10.109130577316431   1.665838704372135 
 -3.737982723716683  12.277880007930772   1.666661526916770 
 -2.492008599220410  14.444323880115270   1.666505474642640 
  5.010722732360241   1.424649607066856   1.666931436835260 
  3.738342637269223   3.557834071349210   1.665253968101700 
  2.493626508559127   5.730189692002546   1.664189159219460 
  1.288862535202904   7.943442164716636   1.665074806100895 
  0.023435150364045  10.106226883164625   1.665540133677480 
 -1.233105768602808  12.276807555205144   1.665838673727195 
  0.007365290302875  14.453087705957675   1.664843725552725 
  7.508376000337729   1.445523450163839   1.665176319792060 
  6.239403488069372   3.613229523331245   1.665517499483505 
  4.920344166357536   5.735456329940305   1.666041791048115 
  2.529192775923425  10.091700751388363   1.665075082880985 
  1.270072475570140  12.278931287135649   1.664740887729840 
  2.504426975490389  14.463630689128086   1.664670299217240 
 10.006901544768315   1.454226997547192   1.664797479679890 
  8.742511919068015   3.628040575739884   1.665658545634635 
  7.471413643598018   5.806135777196374   1.665625368268530 
  6.257112116836096   8.050764810125516   1.666041980903085 
  5.048289964264118  10.154982116975077   1.664189376164535 
  3.765620919190998  12.298989592603689   1.663918713045375 
  5.007369649172816  14.467999810063843   1.664682413849430 
 12.510403046335300   1.454277626211743   1.666211989638390 
 11.251381303531828   3.623765582434321   1.666356785555505 
  9.993246219249516   5.794373316312672   1.665658392364605 
  8.754528946478334   7.969538871923557   1.665517355033505 
  7.551967009577454  10.163218911509365   1.665253899266730 
  6.276913885359844  12.313319740180882   1.664174279836215 
  8.772654670668384  13.742734378242190   1.665308457199170 
 16.270750624971967   0.725832274971090   1.665143538501405 
 15.011784338348333   2.893182924501399   1.665683237621175 
 13.761660650370278   5.059868891664398   1.664841106433955 
 12.517429044176664   7.230184851523290   1.664216902476270 
 11.280104104581351   9.398416324754731   1.666070548460745 
 10.032386910944325  11.571159306626926   1.667093536307370 
 -6.249347481670052  13.727817991912632   1.667075416309830 
  1.248735590089219   0.710924983499123   1.665308503039200 
 -0.013097737563280   2.877849828362718   1.664161555063230 
 -1.261101747604483   5.052894629341973   1.664044377506340 
 -2.496596751581791   7.223176832129368   1.664335757667735 
 -3.741495131143502   9.391077214965065   1.665512771530815 
 -4.991618774790148  11.559996496918535   1.666792993780215 
 -3.743095110111830  13.722502467364535   1.666792940485140 
  3.759241915509645   0.705752683776421   1.667093526632325 
  2.488354732040774   2.855721045724283   1.664846257317450 
  1.231843714726032   5.025868999908427   1.663513919995365 
  0.015903054323057   7.212849307488788   1.664230937349870 
 -1.232665169720281   9.385881385941014   1.665057043519140 
 -2.486101250890242  11.555106704468612   1.665893206699635 
 -1.239695241969158  13.724324858167984   1.665512895040755 
  6.264751618921319   0.711567213380489   1.666070656895715 
  5.002705829466268   2.868875755284065   1.665839950319340 
  3.725249835739732   4.987223941053463   1.664713998061635 
  2.456339442092665   7.132296624251873   1.663539281827845 
  1.275052556343805   9.383602967599179   1.665483905049870 
  0.019221903883105  11.554213450516016   1.665056963839080 
  1.260211407983991  13.730163087690848   1.664335978587765 
  8.761159618577839   0.724123514032519   1.664217434196315 
  7.495810119781058   2.897786857744347   1.665073622500215 
  6.215908834504673   5.072235760891552   1.665539389193340 
  3.815407528459754   9.486172442403053   1.663540366912830 
  2.525408895733245  11.559423401663862   1.664230954839765 
  3.757478066326164  13.745329358122252   1.664044428131430 
 11.262790470508920   0.731750236733414   1.664841264924030 
  9.996699908175870   2.904151699720172   1.665347751904350 
  8.727969725052992   5.080658985486512   1.665343616086665 
  7.479255886188517   7.260381585748055   1.665539763068355 
  6.307539933929486   9.459862247141439   1.664714006101605 
  5.027354609248598  11.599883307970615   1.663514019145380 
  6.265124569344000  13.752048301038121   1.664161599478260 
 13.764287876303394   0.732454117558902   1.665683193146250 
 12.504672880989531   2.900179175734948   1.666585618377045 
 11.247245764925230   5.070157990681787   1.665347869144335 
 10.002316940495248   7.239175267510316   1.665073086610260 
  8.780801919737954   9.412727009173414   1.665839658899340 
  7.535017281617931  11.596795828339074   1.664846301282390 
  4.917776557461298   7.280501598363229   1.664747610679335 
