 B O N C 
 1.0
 14.936314146199660   0.000000000000000   0.000000000000000
 -7.468157073099825  12.935227489513863   0.000000000000000
  0.000000000000001   0.000000000000001  13.341276283792837
 B O N C 
 144   1 142   1
Cartesian
  1.244354298934559   0.719133781072453   5.002978606422314 
  4.974381860062085   7.224712663817052   5.002978606422314 
  6.225831005838632   0.714167325238919   5.002978606422314 
  9.959755577327849   7.189807248281679   5.002978606422314 
 11.202219343552040   0.723552712325695   5.002978606422314 
 -3.733926439293463   9.345211912610335  11.673616748318732 
  1.244774010723284   9.344704139150993  11.673616748318732 
  2.488656659668600   2.877065740608392  11.673616748318732 
  6.223560364675296   9.345475813519478  11.673616748318732 
  7.467875021245175   2.876789121496459  11.673616748318732 
 12.447000473348359   2.877204514686869  11.673616748318732 
 -1.245793082228145   9.344043574953359   5.002978606422314 
 -0.004991542690279   2.864970579247382   5.002978606422314 
  4.985913538516506   2.854099695523536   5.002978606422314 
  3.742929195150120   9.361201345355090   5.002978606422314 
  8.714980526551226   9.345628805814453   5.002978606422314 
  9.958649330243437   2.876406278223853   5.002978606422314 
 -4.977978908674857  11.500363205998172  11.673616748318732 
  0.000650622410542  11.500185760847708  11.673616748318732 
  1.245046705382282   5.033084665617872  11.673616748318732 
  6.223447466356860   5.032888537459375  11.673616748318732 
  4.979339818397712  11.500364996897078  11.673616748318732 
 11.202831266839087   5.032950652079604  11.673616748318732 
 -1.255199469640341   5.033108936129633   5.002978606422314 
 -2.491014389735857  11.497348260882623   5.002978606422314 
  2.489719344274084  11.503925019158750   5.002978606422314 
  7.467594383446809  11.499732433313147   5.002978606422314 
  8.718902691825727   5.032495730496162   5.002978606422314 
 -0.000093678570287   7.188450156546404  11.673616748318732 
  1.244845452668847   0.721787901209258  11.673616748318732 
  4.978128027907597   7.188715839399137  11.673616748318732 
  6.223502602920070   0.721913301890667  11.673616748318732 
  9.957243880252554   7.188512107565885  11.673616748318732 
 -2.488982898988780   7.188473043024564   5.002978606422314 
 11.202410353522778   0.721717527118795  11.673616748318732 
  3.733502745015052   0.714749391909731   5.002978606422314 
  2.483732597270822   7.213822510013377   5.002978606422314 
  7.479756800394364   7.191105121233668   5.002978606422314 
  8.713139815951715   0.721986163548311   5.002978606422314 
  2.489878508300218   7.188037159168267  11.673616748318732 
 13.689871417751224   0.718356064897746   5.002978606422314 
 -1.244398836430514   9.344487019821045  11.673616748318732 
  0.000874338159494   2.877207859458060  11.673616748318732 
  4.978876802014834   2.876999659601369  11.673616748318732 
  3.734115653423117   9.344366120019858  11.673616748318732 
  8.713164947163289   9.344720523265357  11.673616748318732 
  9.958610566176592   2.876675545827253  11.673616748318732 
 -3.734355003534545   9.345205691909591   5.002978606422314 
  1.237659743232524   9.356170183431153   5.002978606422314 
  2.485386910772233   2.874543535746530   5.002978606422314 
  6.224374653667713   9.350028538193682   5.002978606422314 
  7.469899880057077   2.874395481170346   5.002978606422314 
 12.444455851793034   2.875451124344176   5.002978606422314 
 -1.244155592451636   5.033791438933605  11.673616748318732 
 -2.489671580366735  11.500516459615117  11.673616748318732 
  2.488849415595840  11.500043091028623  11.673616748318732 
  3.733411829790811   5.033501386999744  11.673616748318732 
  7.467967992076454  11.500539247850895  11.673616748318732 
 -4.978556100738318  11.498103330928375   5.002978606422314 
  8.713200553843976   5.033304298975822  11.673616748318732 
 -0.000393492685261  11.502493161993378   5.002978606422314 
  1.227535191359529   5.019266969696526   5.002978606422314 
  0.000911986590602   7.186343022303571   5.002978606422314 
  6.264281475399128   5.016160393587777   5.002978606422314 
  4.982325586849450  11.507040869519859   5.002978606422314 
 11.198799625279918   5.032421740766591   5.002978606422314 
 -2.488574787687997   7.188590177652705  11.673616748318732 
  3.734120079418055   0.721333349660829  11.673616748318732 
  7.468830779693335   7.188672233212221  11.673616748318732 
  8.713131185521309   0.721003439163263  11.673616748318732 
 13.692009095614589   0.721375507823341  11.673616748318732 
  0.000739551033978   1.436066509134024   1.668185590760218 
  3.730873674138022   7.901468501994898   1.668006339267877 
  4.978817553602117   1.435056870197927   1.667729731775919 
  8.713270872314503   7.902177509014711   1.667215475295047 
  9.958315405353959   1.434922921486479   1.667551953020811 
 -4.977793205110822  10.058838842187246   8.338177384394928 
  0.000624128341080  10.057920946014393   8.337435657127038 
  1.244684974273111   3.592037360925242   8.336687617010902 
  4.978432976817552  10.058937045897560   8.338552345818895 
  6.222834019924480   3.588852586391948   8.337644056072346 
 11.202791763477814   3.589879370741162   8.338173168215503 
 -2.489452207873860  10.058312561061896   1.667866454426554 
 -1.244097640778081   3.591157591578375   1.668301697270718 
  3.732603333485935   3.591670210255495   1.667045389003174 
  2.487853098846195  10.058297948670855   1.668156826899175 
  7.467242994668110  10.059440413768792   1.667257197616884 
  8.712955009943133   3.590340783562444   1.667147443983662 
 -6.223556501513015  12.215111347652309   8.338365362555315 
 -1.244828804371581  12.214118850244390   8.338452213799114 
  0.000939170233654   5.746294548476730   8.336345838425384 
  4.975054636469605   5.746288533433753   8.345422700409243 
  3.733625151708628  12.214349986039565   8.338371046284697 
  9.957386433251932   5.746694356754034   8.338482322432762 
 -2.487866625210194   5.746421896359363   1.668542158573709 
 -3.733963039637395  12.213896135018613   1.667686618928196 
  1.244470705119421  12.213421108683518   1.667856125081059 
  2.488323500412322   5.747060507879685   1.680179349683739 
  6.223418587696071  12.214179790121459   1.667589904286020 
  7.469297531118257   5.747056071717340   1.667956223670137 
 -1.243611311243891   7.901113718298307   8.336700636392687 
  0.000739551033979   1.436066509134024   8.337771622084476 
  3.730873674138022   7.901468501994898   8.337950873576830 
  4.978817553602118   1.435056870197928   8.338227481068722 
  8.713270872314503   7.902177509014712   8.338741737549581 
 -3.733479757722324   7.902238320743375   1.667902994121802 
  9.958315405353959   1.434922921486480   8.338405259823752 
  2.488301843870803   1.436400772250255   1.668561231829756 
  1.244852368539068   7.901472667804947   1.669031691589775 
  6.222623064343226   7.903209677812895   1.667440725317883 
  7.467284659093787   1.434809381218352   1.667288950527681 
  1.244852368539068   7.901472667804947   8.336925521254866 
 12.446601104633217   1.435347038603333   1.667725007248733 
 -2.489452207873859  10.058312561061896   8.338090758418087 
 -1.244097640778080   3.591157591578376   8.337655515573935 
  3.732603333485935   3.591670210255496   8.338911823841453 
  2.487853098846195  10.058297948670855   8.337800385945386 
  7.467242994668111  10.059440413768792   8.338700015227703 
  8.712955009943133   3.590340783562445   8.338809768860965 
 -4.977793205110823  10.058838842187246   1.667779828449806 
  0.000624128341079  10.057920946014393   1.668521555717590 
  1.244684974273110   3.592037360925241   1.669269595833673 
  4.978432976817514  10.058937045897625   1.667404867025787 
  6.222834019924479   3.588852586391947   1.668313156772202 
 11.202791763477814   3.589879370741161   1.667784044629192 
 -2.487866625210194   5.746421896359363   8.337415054270879 
 -3.733963039637394  12.213896135018613   8.338270593916446 
  1.244470705119422  12.213421108683518   8.338101087763555 
  2.488323500412323   5.747060507879686   8.325777863160916 
  6.223418587696072  12.214179790121459   8.338367308558501 
 -6.223556501513016  12.215111347652309   1.667591850289272 
  7.469297531118258   5.747056071717341   8.338000989174477 
 -1.244828804371582  12.214118850244390   1.667504999045368 
  0.000939170233653   5.746294548476730   1.669611374419111 
 -1.243611311243891   7.901113718298306   1.669256576452047 
  4.975054636469604   5.746288533433752   1.660534512435385 
  3.733625151708628  12.214349986039565   1.667586166559969 
  9.957386433251932   5.746694356754033   1.667474890411773 
 -3.733479757722323   7.902238320743376   8.338054218722707 
  2.488301843870804   1.436400772250256   8.337395981014845 
  6.222623064343227   7.903209677812896   8.338516487526704 
  7.467284659093788   1.434809381218352   8.338668262316986 
 12.446601104633217   1.435347038603334   8.338232205595988 
  3.711446811764950   4.997212329338825   5.002978606422314 
  5.016499924015364   5.757850871963292   5.002978606422314 
  1.244605721022506   0.716158740712178   1.666919788412910 
  4.978357722088758   7.183471388803531   1.673435555027843 
  6.223428491429450   0.716378690542589   1.666717521708454 
  9.957170258920616   7.183544025185394   1.667378794246298 
 11.202196818541481   0.716094869393150   1.666955169003052 
 -3.734141255864928   9.339481697301407   8.338817568796840 
  1.244518489806879   9.339812435088277   8.339198763516796 
  2.489180105040833   2.871929554942439   8.338873521784782 
  6.223256643736927   9.340087065844333   8.338331843921386 
  7.468039675952599   2.871983943901165   8.338422931852765 
 12.446928098798441   2.871919147145101   8.339356943046754 
 -1.244772086824253   9.339543358304887   1.667077676363737 
 -0.000127677951593   2.871954421729652   1.666433294344558 
  4.978678380165238   2.872158655448086   1.667194806017903 
  3.733897003249564   9.339825923140678   1.667624483746103 
  8.712691572172586   9.339664410295752   1.667940426361214 
  9.957716499194067   2.871699788486161   1.667214729221887 
 -4.978658226960060  11.495450573510373   8.338858216126317 
 -0.000066038010687  11.495564071187234   8.338819609020534 
  1.244199915575340   5.027639940788272   8.344914896967587 
  6.223016568236902   5.028204097378454   8.331470842955060 
  4.978620450315725  11.495691935456010   8.338767625277750 
 11.201976421834456   5.027702505392133   8.338416757808133 
 -1.244902703876070   5.027861671587253   1.666313913929285 
 -2.489345508872065  11.495515110777198   1.666702532415049 
  2.489047986418454  11.495590467329768   1.667028990934725 
  3.734878159791825   5.027835990671451   1.660010859927459 
  7.468144753372448  11.495768816836012   1.666994650595941 
  8.712605546564260   5.027756611589890   1.667735634560666 
 -0.000164157204943   7.183684883208093   8.339073252616997 
  1.244605721022506   0.716158740712179   8.339037424431732 
  4.978357722088758   7.183471388803532   8.332521657816718 
  6.223428491429451   0.716378690542589   8.339239691136093 
  9.957170258920616   7.183544025185395   8.338578418598264 
 -2.489549880789336   7.183546435161350   1.667326212220902 
 11.202196818541481   0.716094869393151   8.339002043841548 
  3.734072201907975   0.716194296621228   1.667170505294944 
  2.489262573285239   7.184590373393501   1.660513353973009 
  7.467714680854400   7.183966087502787   1.668236458110193 
  8.712736241605382   0.716175144002281   1.667265229026117 
  2.489262573285239   7.184590373393502   8.345443858871619 
 13.691595343262167   0.716150068547211   1.666867268687512 
 -1.244772086824252   9.339543358304887   8.338879536480837 
 -0.000127677951593   2.871954421729653   8.339523918500030 
  4.978678380165239   2.872158655448087   8.338762406826818 
  3.733897003249564   9.339825923140678   8.338332729098511 
  8.712691572172586   9.339664410295752   8.338016786483427 
  9.957716499194067   2.871699788486162   8.338742483622728 
 -3.734141255864929   9.339481697301407   1.667139644047801 
  1.244518489806879   9.339812435088277   1.666758449327845 
  2.489180105040832   2.871929554942438   1.667083691059847 
  6.223256643736926   9.340087065844333   1.667625368923228 
  7.468039675952598   2.871983943901164   1.667534280991875 
 12.446928098798441   2.871919147145100   1.666600269797794 
 -1.244902703876070   5.027861671587254   8.339643298915343 
 -2.489345508872064  11.495515110777198   8.339254680429551 
  2.489047986418454  11.495590467329768   8.338928221909917 
  3.734878159791825   5.027835990671452   8.345946352917142 
  7.468144753372449  11.495768816836012   8.338962562248728 
 -4.978658226960061  11.495450573510373   1.667098996718338 
  8.712605546564260   5.027756611589891   8.338221578283948 
 -0.000066038010687  11.495564071187234   1.667137603824026 
  1.244199915575339   5.027639940788271   1.661042315877133 
 -0.000164157204943   7.183684883208092   1.666883960227618 
  6.223016568236901   5.028204097378453   1.674486369889581 
  4.978620450315724  11.495691935456010   1.667189587566958 
 11.201976421834456   5.027702505392132   1.667540455036468 
 -2.489549880789335   7.183546435161351   8.338631000623645 
  3.734072201907976   0.716194296621229   8.338786707549724 
  7.467714680854401   7.183966087502788   8.337720754734395 
  8.712736241605382   0.716175144002282   8.338691983818430 
 13.691595343262167   0.716150068547212   8.339089944157049 
 -0.004102959574113   1.428493703602902   5.002978606422314 
  3.754554013421691   7.928150410846380   5.002978606422314 
  4.984105295483259   1.426396381975976   5.002978606422314 
  8.713309258142674   7.908158402153017   5.002978606422314 
  9.956638602125954   1.441617435199968   5.002978606422314 
 -4.978636075280551  10.063396366960626  11.673616748318732 
  0.000096132126829  10.063420947058638  11.673616748318732 
  1.244782063346184   3.595741274360050  11.673616748318732 
  4.978870917258683  10.063368082442778  11.673616748318732 
  6.223598656371654   3.595795514134146  11.673616748318732 
 11.202429393929421   3.595827194981565  11.673616748318732 
 -2.491737683534472  10.062735229681090   5.002978606422314 
 -1.252340587319931   3.590321714768636   5.002978606422314 
  3.760394442413409   3.571395344289774   5.002978606422314 
  2.492671692210961  10.071097425842659   5.002978606422314 
  7.467989753892411  10.060717232375850   5.002978606422314 
  8.710765115618234   3.597551476739220   5.002978606422314 
 -6.223329129159117  12.219215117054096  11.673616748318732 
 -1.244557630173043  12.219426597726773  11.673616748318732 
  0.000088546884159   5.751780817968180  11.673616748318732 
  4.979092346506495   5.751625148197220  11.673616748318732 
  3.734138424983160  12.219226023972437  11.673616748318732 
  9.957656903979244   5.751597572239882  11.673616748318732 
 -2.501755450085405   5.752057668824803   5.002978606422314 
 -3.734685765989005  12.214266946917199   5.002978606422314 
  1.244409443073883  12.222688582355245   5.002978606422314 
  6.224646241101920  12.218226062601991   5.002978606422314 
  7.468632107974246   5.755909931721406   5.002978606422314 
 -1.244677111873983   7.907544893393822  11.673616748318732 
  0.000143379537453   1.439889084913013  11.673616748318732 
  3.734338471327638   7.907347908936743  11.673616748318732 
  4.978941001281393   1.440049698279901  11.673616748318732 
  8.712933688429942   7.907374356017789  11.673616748318732 
 -3.737010411893949   7.908215023437588   5.002978606422314 
  9.957645164089659   1.439802268029660  11.673616748318732 
  2.490897150742994   1.433085301142146   5.002978606422314 
  1.233260384519450   7.935487742403462   5.002978606422314 
  6.224853140314496   7.899201280741121   5.002978606422314 
  7.467570419815798   1.441244226087009   5.002978606422314 
  1.244854362068447   7.907486356187269  11.673616748318732 
 12.444821734153853   1.437922439589124   5.002978606422314 
 -2.489342393049602  10.063491285739174  11.673616748318732 
 -1.244564072304150   3.595917473169729  11.673616748318732 
  3.734119003174569   3.595796589740286  11.673616748318732 
  2.489468810847256  10.063295215140926  11.673616748318732 
  7.468368754197479  10.063415252364694  11.673616748318732 
  8.713067823814995   3.595715160245536  11.673616748318732 
 -4.979630447273455  10.061893974070976   5.002978606422314 
 -0.006022236640241  10.072739082076465   5.002978606422314 
  1.231772815736115   3.569500321356752   5.002978606422314 
  4.987561923883133  10.071909169357067   5.002978606422314 
  6.221901198500371   3.600255733720229   5.002978606422314 
 11.197723779754352   3.595103253689460   5.002978606422314 
 -2.489263881792922   5.751815630428393  11.673616748318732 
 -3.733933254565730  12.219272665775000  11.673616748318732 
  1.244746111604267  12.219124429953382  11.673616748318732 
  2.489595772054483   5.751640370532459  11.673616748318732 
  6.223601629911821  12.219210995606483  11.673616748318732 
 -6.223729957615930  12.214865286137357   5.002978606422314 
  7.468261845616575   5.751576114821519  11.673616748318732 
 -1.245286458504123  12.217490000848846   5.002978606422314 
 -0.026353561159111   5.748486056381263   5.002978606422314 
 -1.249478269616385   7.909466347924474   5.002978606422314 
  3.735333427550959  12.222233201845402   5.002978606422314 
  9.953209693856531   5.752850591747516   5.002978606422314 
 -3.734128898421050   7.907521190066293  11.673616748318732 
  2.489470619257903   1.439817067362498  11.673616748318732 
  6.223630815181203   7.907570515083512  11.673616748318732 
  7.468329950521840   1.439918354488223  11.673616748318732 
 12.447032662726215   1.439970826441941  11.673616748318732 
  2.501023482527710   5.757057047192807   5.002978606422314 
Generated by cif2cell 2.0.0.  :  Failed to get author information, No journal information. Species order: B O N C 
 1.0
 14.936314146199660   0.000000000000000   0.000000000000000
 -7.468157073099825  12.935227489513863   0.000000000000000
  0.000000000000001   0.000000000000001  13.341276283792837
 B O N C 
 144   1 142   1
Cartesian
  1.244354298934559   0.719133781072453   5.002978606422314 
  4.974381860062085   7.224712663817052   5.002978606422314 
  6.225831005838632   0.714167325238919   5.002978606422314 
  9.959755577327849   7.189807248281679   5.002978606422314 
 11.202219343552040   0.723552712325695   5.002978606422314 
 -3.733926439293463   9.345211912610335  11.673616748318732 
  1.244774010723284   9.344704139150993  11.673616748318732 
  2.488656659668600   2.877065740608392  11.673616748318732 
  6.223560364675296   9.345475813519478  11.673616748318732 
  7.467875021245175   2.876789121496459  11.673616748318732 
 12.447000473348359   2.877204514686869  11.673616748318732 
 -1.245793082228145   9.344043574953359   5.002978606422314 
 -0.004991542690279   2.864970579247382   5.002978606422314 
  4.985913538516506   2.854099695523536   5.002978606422314 
  3.742929195150120   9.361201345355090   5.002978606422314 
  8.714980526551226   9.345628805814453   5.002978606422314 
  9.958649330243437   2.876406278223853   5.002978606422314 
 -4.977978908674857  11.500363205998172  11.673616748318732 
  0.000650622410542  11.500185760847708  11.673616748318732 
  1.245046705382282   5.033084665617872  11.673616748318732 
  6.223447466356860   5.032888537459375  11.673616748318732 
  4.979339818397712  11.500364996897078  11.673616748318732 
 11.202831266839087   5.032950652079604  11.673616748318732 
 -1.255199469640341   5.033108936129633   5.002978606422314 
 -2.491014389735857  11.497348260882623   5.002978606422314 
  2.489719344274084  11.503925019158750   5.002978606422314 
  7.467594383446809  11.499732433313147   5.002978606422314 
  8.718902691825727   5.032495730496162   5.002978606422314 
 -0.000093678570287   7.188450156546404  11.673616748318732 
  1.244845452668847   0.721787901209258  11.673616748318732 
  4.978128027907597   7.188715839399137  11.673616748318732 
  6.223502602920070   0.721913301890667  11.673616748318732 
  9.957243880252554   7.188512107565885  11.673616748318732 
 -2.488982898988780   7.188473043024564   5.002978606422314 
 11.202410353522778   0.721717527118795  11.673616748318732 
  3.733502745015052   0.714749391909731   5.002978606422314 
  2.483732597270822   7.213822510013377   5.002978606422314 
  7.479756800394364   7.191105121233668   5.002978606422314 
  8.713139815951715   0.721986163548311   5.002978606422314 
  2.489878508300218   7.188037159168267  11.673616748318732 
 13.689871417751224   0.718356064897746   5.002978606422314 
 -1.244398836430514   9.344487019821045  11.673616748318732 
  0.000874338159494   2.877207859458060  11.673616748318732 
  4.978876802014834   2.876999659601369  11.673616748318732 
  3.734115653423117   9.344366120019858  11.673616748318732 
  8.713164947163289   9.344720523265357  11.673616748318732 
  9.958610566176592   2.876675545827253  11.673616748318732 
 -3.734355003534545   9.345205691909591   5.002978606422314 
  1.237659743232524   9.356170183431153   5.002978606422314 
  2.485386910772233   2.874543535746530   5.002978606422314 
  6.224374653667713   9.350028538193682   5.002978606422314 
  7.469899880057077   2.874395481170346   5.002978606422314 
 12.444455851793034   2.875451124344176   5.002978606422314 
 -1.244155592451636   5.033791438933605  11.673616748318732 
 -2.489671580366735  11.500516459615117  11.673616748318732 
  2.488849415595840  11.500043091028623  11.673616748318732 
  3.733411829790811   5.033501386999744  11.673616748318732 
  7.467967992076454  11.500539247850895  11.673616748318732 
 -4.978556100738318  11.498103330928375   5.002978606422314 
  8.713200553843976   5.033304298975822  11.673616748318732 
 -0.000393492685261  11.502493161993378   5.002978606422314 
  1.227535191359529   5.019266969696526   5.002978606422314 
  0.000911986590602   7.186343022303571   5.002978606422314 
  6.264281475399128   5.016160393587777   5.002978606422314 
  4.982325586849450  11.507040869519859   5.002978606422314 
 11.198799625279918   5.032421740766591   5.002978606422314 
 -2.488574787687997   7.188590177652705  11.673616748318732 
  3.734120079418055   0.721333349660829  11.673616748318732 
  7.468830779693335   7.188672233212221  11.673616748318732 
  8.713131185521309   0.721003439163263  11.673616748318732 
 13.692009095614589   0.721375507823341  11.673616748318732 
  0.000739551033978   1.436066509134024   1.668185590760218 
  3.730873674138022   7.901468501994898   1.668006339267877 
  4.978817553602117   1.435056870197927   1.667729731775919 
  8.713270872314503   7.902177509014711   1.667215475295047 
  9.958315405353959   1.434922921486479   1.667551953020811 
 -4.977793205110822  10.058838842187246   8.338177384394928 
  0.000624128341080  10.057920946014393   8.337435657127038 
  1.244684974273111   3.592037360925242   8.336687617010902 
  4.978432976817552  10.058937045897560   8.338552345818895 
  6.222834019924480   3.588852586391948   8.337644056072346 
 11.202791763477814   3.589879370741162   8.338173168215503 
 -2.489452207873860  10.058312561061896   1.667866454426554 
 -1.244097640778081   3.591157591578375   1.668301697270718 
  3.732603333485935   3.591670210255495   1.667045389003174 
  2.487853098846195  10.058297948670855   1.668156826899175 
  7.467242994668110  10.059440413768792   1.667257197616884 
  8.712955009943133   3.590340783562444   1.667147443983662 
 -6.223556501513015  12.215111347652309   8.338365362555315 
 -1.244828804371581  12.214118850244390   8.338452213799114 
  0.000939170233654   5.746294548476730   8.336345838425384 
  4.975054636469605   5.746288533433753   8.345422700409243 
  3.733625151708628  12.214349986039565   8.338371046284697 
  9.957386433251932   5.746694356754034   8.338482322432762 
 -2.487866625210194   5.746421896359363   1.668542158573709 
 -3.733963039637395  12.213896135018613   1.667686618928196 
  1.244470705119421  12.213421108683518   1.667856125081059 
  2.488323500412322   5.747060507879685   1.680179349683739 
  6.223418587696071  12.214179790121459   1.667589904286020 
  7.469297531118257   5.747056071717340   1.667956223670137 
 -1.243611311243891   7.901113718298307   8.336700636392687 
  0.000739551033979   1.436066509134024   8.337771622084476 
  3.730873674138022   7.901468501994898   8.337950873576830 
  4.978817553602118   1.435056870197928   8.338227481068722 
  8.713270872314503   7.902177509014712   8.338741737549581 
 -3.733479757722324   7.902238320743375   1.667902994121802 
  9.958315405353959   1.434922921486480   8.338405259823752 
  2.488301843870803   1.436400772250255   1.668561231829756 
  1.244852368539068   7.901472667804947   1.669031691589775 
  6.222623064343226   7.903209677812895   1.667440725317883 
  7.467284659093787   1.434809381218352   1.667288950527681 
  1.244852368539068   7.901472667804947   8.336925521254866 
 12.446601104633217   1.435347038603333   1.667725007248733 
 -2.489452207873859  10.058312561061896   8.338090758418087 
 -1.244097640778080   3.591157591578376   8.337655515573935 
  3.732603333485935   3.591670210255496   8.338911823841453 
  2.487853098846195  10.058297948670855   8.337800385945386 
  7.467242994668111  10.059440413768792   8.338700015227703 
  8.712955009943133   3.590340783562445   8.338809768860965 
 -4.977793205110823  10.058838842187246   1.667779828449806 
  0.000624128341079  10.057920946014393   1.668521555717590 
  1.244684974273110   3.592037360925241   1.669269595833673 
  4.978432976817514  10.058937045897625   1.667404867025787 
  6.222834019924479   3.588852586391947   1.668313156772202 
 11.202791763477814   3.589879370741161   1.667784044629192 
 -2.487866625210194   5.746421896359363   8.337415054270879 
 -3.733963039637394  12.213896135018613   8.338270593916446 
  1.244470705119422  12.213421108683518   8.338101087763555 
  2.488323500412323   5.747060507879686   8.325777863160916 
  6.223418587696072  12.214179790121459   8.338367308558501 
 -6.223556501513016  12.215111347652309   1.667591850289272 
  7.469297531118258   5.747056071717341   8.338000989174477 
 -1.244828804371582  12.214118850244390   1.667504999045368 
  0.000939170233653   5.746294548476730   1.669611374419111 
 -1.243611311243891   7.901113718298306   1.669256576452047 
  4.975054636469604   5.746288533433752   1.660534512435385 
  3.733625151708628  12.214349986039565   1.667586166559969 
  9.957386433251932   5.746694356754033   1.667474890411773 
 -3.733479757722323   7.902238320743376   8.338054218722707 
  2.488301843870804   1.436400772250256   8.337395981014845 
  6.222623064343227   7.903209677812896   8.338516487526704 
  7.467284659093788   1.434809381218352   8.338668262316986 
 12.446601104633217   1.435347038603334   8.338232205595988 
  3.711446811764950   4.997212329338825   5.002978606422314 
  5.016499924015364   5.757850871963292   5.002978606422314 
  1.244605721022506   0.716158740712178   1.666919788412910 
  4.978357722088758   7.183471388803531   1.673435555027843 
  6.223428491429450   0.716378690542589   1.666717521708454 
  9.957170258920616   7.183544025185394   1.667378794246298 
 11.202196818541481   0.716094869393150   1.666955169003052 
 -3.734141255864928   9.339481697301407   8.338817568796840 
  1.244518489806879   9.339812435088277   8.339198763516796 
  2.489180105040833   2.871929554942439   8.338873521784782 
  6.223256643736927   9.340087065844333   8.338331843921386 
  7.468039675952599   2.871983943901165   8.338422931852765 
 12.446928098798441   2.871919147145101   8.339356943046754 
 -1.244772086824253   9.339543358304887   1.667077676363737 
 -0.000127677951593   2.871954421729652   1.666433294344558 
  4.978678380165238   2.872158655448086   1.667194806017903 
  3.733897003249564   9.339825923140678   1.667624483746103 
  8.712691572172586   9.339664410295752   1.667940426361214 
  9.957716499194067   2.871699788486161   1.667214729221887 
 -4.978658226960060  11.495450573510373   8.338858216126317 
 -0.000066038010687  11.495564071187234   8.338819609020534 
  1.244199915575340   5.027639940788272   8.344914896967587 
  6.223016568236902   5.028204097378454   8.331470842955060 
  4.978620450315725  11.495691935456010   8.338767625277750 
 11.201976421834456   5.027702505392133   8.338416757808133 
 -1.244902703876070   5.027861671587253   1.666313913929285 
 -2.489345508872065  11.495515110777198   1.666702532415049 
  2.489047986418454  11.495590467329768   1.667028990934725 
  3.734878159791825   5.027835990671451   1.660010859927459 
  7.468144753372448  11.495768816836012   1.666994650595941 
  8.712605546564260   5.027756611589890   1.667735634560666 
 -0.000164157204943   7.183684883208093   8.339073252616997 
  1.244605721022506   0.716158740712179   8.339037424431732 
  4.978357722088758   7.183471388803532   8.332521657816718 
  6.223428491429451   0.716378690542589   8.339239691136093 
  9.957170258920616   7.183544025185395   8.338578418598264 
 -2.489549880789336   7.183546435161350   1.667326212220902 
 11.202196818541481   0.716094869393151   8.339002043841548 
  3.734072201907975   0.716194296621228   1.667170505294944 
  2.489262573285239   7.184590373393501   1.660513353973009 
  7.467714680854400   7.183966087502787   1.668236458110193 
  8.712736241605382   0.716175144002281   1.667265229026117 
  2.489262573285239   7.184590373393502   8.345443858871619 
 13.691595343262167   0.716150068547211   1.666867268687512 
 -1.244772086824252   9.339543358304887   8.338879536480837 
 -0.000127677951593   2.871954421729653   8.339523918500030 
  4.978678380165239   2.872158655448087   8.338762406826818 
  3.733897003249564   9.339825923140678   8.338332729098511 
  8.712691572172586   9.339664410295752   8.338016786483427 
  9.957716499194067   2.871699788486162   8.338742483622728 
 -3.734141255864929   9.339481697301407   1.667139644047801 