Generated by cif2cell 2.0.0.  :  Species order: N B Ge 
 1.0
 17.527899999999772   0.000000000000000   0.000000000000000
 -8.763949999999658  15.179606674993195   0.000000000000000
  0.000000000000001   0.000000000000002  15.000000000000000
N B Ge 
  49  48   1
Cartesian
  8.769561146956658  13.737767236148605   1.664939188251375 
 16.274108881315225   0.723894018606981   1.665092699747475 
 15.013536729619700   2.885603131116233   1.664997854433570 
 13.761607068906168   5.053763133729775   1.664494789669665 
 12.519931137050413   7.226286306062028   1.664365155372675 
 11.274047221954110   9.399840673172973   1.665386875712550 
 10.022995586111197  11.569514524602431   1.665367173369180 
 -6.257884332751940  13.732746721917476   1.663904949270300 
  1.251489984834062   0.716086414549172   1.664939285706330 
 -0.021809576669741   2.864115123113617   1.664749622254680 
 -1.284186324689666   5.041289286813938   1.664445823577865 
 -2.538489216409672   7.222978411560478   1.664813432653185 
 -3.762099088108857   9.399838045854755   1.664878704773730 
 -5.007951743020630  11.567946129220669   1.664378589536670 
 -3.758146071435935  13.732673009399029   1.664378602916685 
  3.755969114531932   0.714707465278157   1.665367062024210 
  2.499260909077740   2.874961723889333   1.665731734902840 
  1.191362069659795   4.991578415600929   1.665668259599175 
 -0.089341359906945   7.209825585525653   1.665937491238065 
 -1.268653044204727   9.400801322176711   1.666325799894045 
 -2.510913948558277  11.569431165065833   1.665381727080915 
 -1.257583040578671  13.737785712668973   1.664878767023775 
  6.260487725468595   0.716101619006016   1.665386991932535 
  5.012869242725198   2.875021549753658   1.665760857503565 
  3.755860227197926   5.045480850139661   1.665958573375890 
  2.257071381123436   7.086017135233251   1.663124509031100 
  1.239203117730686   9.404301724600073   1.665923801499480 
 -0.011693769987362  11.577917688541739   1.666325869209060 
  1.239438975694055  13.766537837161961   1.664813639323185 
  8.765782556249617   0.723910328507965   1.664365162047765 
  7.533948528069976   2.864282593063649   1.664564575257105 
  6.320475559263683   4.991748105882792   1.665522566678700 
  5.254899734238924   7.085836164627885   1.665257951930940 
  3.755829181362344   9.681942487377313   1.663124532701115 
  2.475402182823001  11.652093947847517   1.665937448998035 
  3.755988318350069  13.771126537912954   1.664445790382865 
 11.268081045056029   0.734848900405262   1.664494767649725 
 10.026457122010694   2.885612352613456   1.664666959794000 
  8.796062778537401   5.041346892612515   1.664451479849880 
  7.601221240357805   7.210066272087630   1.665522260693700 
  6.272379253927469   9.404221602632967   1.665958612900860 
  5.036811129014827  11.652094327435151   1.665668152634175 
  6.272663742022623  13.766462794419789   1.664749627894755 
 13.771728010275643   0.734726843989476   1.664997999738555 
 12.519962627124588   2.891350735363467   1.665752119404330 
 11.278180654884265   5.053659501150967   1.664666870694075 
 10.050400553899086   7.222901194209365   1.664564267592060 
  8.780558160614177   9.400849656829914   1.665761087798595 
  7.523804873049855  11.577728055717639   1.665731904342780 
  7.522746622061872  14.468755824293979   1.665386680741905 
 15.022765814119024   1.446357572639437   1.665699492902760 
 13.766678188906507   3.611214284991838   1.665694127325375 
 12.519851258242902   5.781356386979201   1.664841354500700 
 11.283673585416523   7.954416470515794   1.665352560392070 
 10.025956026414029  10.125672695685070   1.666263908273325 
  8.774124484012731  12.294037890226186   1.665933547984785 
 -7.507963958879639  14.454480236055982   1.664946146473320 
 -0.004971805749367   1.430365197995546   1.665386673646875 
 -1.267723823897927   3.598716632544745   1.665010730364435 
 -2.525447032101655   5.776658270453053   1.664963228807910 
 -3.771725924273223   7.954532253837518   1.665019108880865 
 -5.007902641527671  10.124491379002215   1.665353570225520 
 -6.256371294723208  12.290401760873911   1.664772931916925 
 -5.008020578210375  14.452609034352907   1.664772909026970 
  2.504077919483500   1.433999028992008   1.665933486124830 
  1.225418758162363   3.565833760789618   1.665833760417615 
 -0.044436421522711   5.756829878830822   1.665650465968830 
 -1.307021655363648   7.951976578963094   1.666397167973670 
 -2.514023445273859  10.125483278454132   1.666093554604290 
 -3.759446177067957  12.290272193973589   1.664854660894230 
 -2.508052739707571  14.454358059856553   1.665353606435490 
  5.007853022182751   1.434064122351758   1.666263842618325 
  3.756086757637623   3.597569445378142   1.666436381298810 
  2.430549541931878   5.688820123056035   1.665719351095890 
  1.133808106888000   7.934962358617472   1.665584705212320 
 -0.014693998178474  10.128238598759093   1.667001119289210 
 -1.261972763243636  12.294097930279117   1.666093607599335 
 -0.010724247462445  14.468775012503055   1.665019188545895 
  7.517074608061922   1.430478134257899   1.665352690787070 
  6.286724927433431   3.566104436113520   1.665546282265170 
  5.081064089284883   5.688810284120691   1.666237289412450 
  2.458990072536212  10.230247065793510   1.665584712922410 
  1.223840733453268  12.335557951381729   1.666397254028685 
  2.498509391136572  14.478404394266363   1.664963260412925 
 10.017088620103525   1.446444852539793   1.664841370790700 
  8.780064383951245   3.598814443768938   1.664875887908640 
  7.556304923561444   5.757120651372066   1.665444383171460 
  6.377840710749245   7.934896260841136   1.666237210542420 
  5.052575831760695  10.230305130326450   1.665719346790860 
  3.756185915880666  12.339701664311375   1.665650400748785 
  5.013523501197890  14.478155496942746   1.665010763754360 
 12.519900815210089   1.451731944305704   1.665694163370360 
 11.273273483367950   3.611127559032458   1.665755851774035 
 10.037334018220323   5.776467296496102   1.664875761803655 
  8.818991393423193   7.952116507522723   1.665546162805215 
  7.526421193802534  10.127980911383691   1.666436510718795 
  6.288571008202789  12.335472078313384   1.665833797527555 
  3.756227545632006   7.951095552422208   1.663843059053595 
