 N C B 
 1.0
 17.527899999999772   0.000000000000000   0.000000000000000
 -8.763949999999658  15.179606674993195   0.000000000000000
  0.000000000000001   0.000000000000002  15.000000000000000
 N C B 
  48   2  46
Cartesian
  8.762320849795199  13.730016208986260   1.635690878897625 
 16.295875187834383   0.718409343418352   1.644782946553290 
 15.053331380838284   2.890605087877278   1.640791808100705 
 13.790361217846232   5.059868891664398   1.630770108426510 
 12.515515761386251   7.232018240081670   1.628382507828495 
 11.249781149178050   9.400449211153212   1.624820374503570 
  9.994994683869956  11.562912216965167   1.625242300566825 
 -6.271581081125719  13.774310064249406   1.626238642050195 
  1.283334255160872   0.789094174103578   1.634125440976995 
  0.036871490290653   2.929740300729419   1.636447653635280 
 -1.244750477147363   5.081123621431011   1.639132496142270 
 -2.528423128595757   7.246438174823351   1.645895642058345 
 -3.793371035182286   9.420483538061257   1.634523421853085 
 -5.040243658234720  11.595641144741110   1.626988467558870 
 -3.782517560748087  13.785453915849819   1.621774133760390 
  3.763959285895785   0.803415308659368   1.618326700322610 
  2.591311242466571   3.054586737184150   1.625552763493965 
  1.267493407271603   5.124368850681105   1.633180376854020 
 -0.045517331750214   7.260032252233199   1.695986804424315 
 -1.318182379633779   9.429745559450941   1.704526600795740 
 -2.550473424986645  11.606707930020061   1.641821271948270 
 -1.280878437214719  13.775397773854086   1.624261910688555 
  6.253506764711628   0.776401397858055   1.641660826889820 
  5.043026736776302   2.998286681863785   1.682425566938265 
  3.892902413989881   5.438095515217199   1.625391431437575 
  2.424500628022678   7.304998913028844   1.644476322880050 
  1.036450573522365   9.367543523923857   2.041470907891215 
 -0.058821830170202  11.607688135340268   1.693545785810415 
  1.238735326215134  13.753357785318494   1.650805825199130 
  8.778975234546076   0.729194442795453   1.630647084664740 
  7.567512425190744   2.881212152674163   1.751272488272805 
  6.480341863027252   4.962285455576235   2.243842023972720 
  3.879270522052125   9.098363312784702   1.622105691001605 
  2.471199320629257  11.724871123521853   1.800484933978335 
  3.772234707728553  13.695554495773903   1.654916194158315 
 11.296221272081089   0.700589858518268   1.635010134584370 
 10.065680332490789   2.867706069978528   1.661910186633915 
  8.845283337910395   5.021753993885584   1.771913507547915 
  7.527239691144945   7.143676982141772   1.697460482238525 
  6.255159542759310   9.202410760435114   1.612158272438235 
  4.992924461426428  11.421887877446292   1.638017193900195 
  6.260314475505757  13.674646492818317   1.643323000730775 
 13.797607362655395   0.697260482950139   1.644863595768390 
 12.556909875090522   2.873977078499244   1.635913813918365 
 11.308991204895403   5.044296132303584   1.639148162967870 
 10.027781621406206   7.208628915684978   1.656071636497110 
  8.758389897298517   9.350353857791436   1.619089478792940 
  7.489350756743031  11.486517830691339   1.623303445642425 
  3.692972015730918   7.826586227255978   1.640766890397405 
  4.704921897963311   6.759590925080763   1.634094661610790 
  7.507496178584283  14.436251159747821   1.641923614018590 
 15.044917855412470   1.437499767497932   1.644581341564860 
 13.799791862206083   3.609564253205355   1.636008434813835 
 12.541305947681041   5.782297117787778   1.629690520211430 
 11.263384982628430   7.950597454829341   1.633428794380305 
  9.997193213496065  10.110537190679468   1.622326160231805 
  8.736948615811858  12.264922644722876   1.628228806188915 
 -7.515022267010580  14.499567303824939   1.632700139253585 
  0.017663561700020   1.475663187289400   1.639192521246450 
 -1.228820530217880   3.632080574256461   1.638415061454060 
 -2.501683950033106   5.797937406036382   1.638553566279945 
 -3.777860076751177   7.970623195073326   1.635182282806305 
 -5.039953962552458  10.143986828387185   1.627182508683135 
 -6.288277803774870  12.316633015155858   1.626353113260795 
 -5.024129412049300  14.520223940817313   1.620744255734850 
  2.541459626918055   1.564353540279637   1.627023751437375 
  1.289096722412642   3.682324879951557   1.629177811935990 
 -0.007015217698649   5.820210846260952   1.652607523855635 
 -1.296348754338514   7.983395515541273   1.688279384995710 
 -2.557701760632961  10.159157499001171   1.658215942088385 
 -3.795145025860732  12.334025279806903   1.628916461578560 
 -2.527545018128078  14.508783253703857   1.625897409824685 
  5.014341839259865   1.532754402761517   1.638840224718750 
  3.880203720285900   3.850694091525494   1.647102730405425 
  2.492180928021814   5.879937272433622   1.626482433444105 
  1.187555708187201   8.010652268641277   1.772399535840720 
 -0.084303255581900  10.182957040820812   1.792601849364195 
 -1.301348727354139  12.333876626427159   1.644572659489680 
 -0.010632962693835  14.474180196766026   1.631137545949830 
  7.532552393727023   1.454996830761005   1.667121848893695 
  6.327279341147467   3.619702177062979   1.872666611228340 
  1.195991062132329  12.308305723718433   1.708029563956665 
  2.518665344478416  14.432944037557974   1.647408124991055 
 10.047298638365829   1.427515980895061   1.641113795166435 
  8.823920591719073   3.586819794655565   1.739437222831380 
  7.600287405245009   5.728110197035035   1.890181937759220 
  6.218587909237595   7.701593293853947   1.640999848084140 
  5.014466224734925   9.930116661258525   1.625212910173080 
  3.776420287201772  12.220631111831596   1.686961011339480 
  5.021935459802430  14.421096977495232   1.648089353637150 
 12.548508897774456   1.424324573996389   1.639517170847040 
 11.309516600806260   3.596961767113128   1.644878447768115 
 10.064655556737684   5.762771329336454   1.683112017749010 
  8.765202338432815   7.906455098956307   1.650549967064055 
  7.488672035144115  10.015854341638487   1.617805384431870 
  6.235923356220309  12.202603725852294   1.632515479547760 
