 B Sn N 
 1.0
 14.936314146199660   0.000000000000000   0.000000000000000
 -7.468157073099825  12.935227489513863   0.000000000000000
  0.000000000000001   0.000000000000001  13.341276283792837
 B Sn N 
 143   1 143
Cartesian
  1.252076043069054   0.708866309935952   5.002978606422314 
  4.846680528566792   7.392847601377411   5.002978606422314 
  6.241052765507089   0.650125041109234   5.002978606422314 
  9.913989567431958   7.165738983960621   5.002978606422314 
 11.223412427889262   0.730850191128634   5.002978606422314 
 -3.734011029788297   9.342147717473651  11.673616748318732 
  1.245154034803038   9.341172928563918  11.673616748318732 
  2.491258575473741   2.875936461357990  11.673616748318732 
  6.223407816836457   9.340015290189687  11.673616748318732 
  7.466369453451491   2.875927615146653  11.673616748318732 
 12.447214343399883   2.875051586830742  11.673616748318732 
 -1.285729397062508   9.337313898331930   5.002978606422314 
  0.045125932982667   2.900548467224685   5.002978606422314 
  5.016788856061089   2.744472830509955   5.002978606422314 
  3.672716248205040   9.459496378954491   5.002978606422314 
  8.673321089681028   9.314639822774382   5.002978606422314 
  9.988070787109843   2.860052155417256   5.002978606422314 
 -4.978415673086759  11.498084622610460  11.673616748318732 
 -0.000127026077756  11.497906652138756  11.673616748318732 
  1.246877631909547   5.031267479581688  11.673616748318732 
  6.221664553464934   5.031471543057808  11.673616748318732 
  4.978943493525919  11.496550323292142  11.673616748318732 
 11.201793282902143   5.031020366246332  11.673616748318732 
 -1.249451437207259   5.041639002304310   5.002978606422314 
 -2.514056423599414  11.464838716603872   5.002978606422314 
  2.475636986463246  11.537925453139810   5.002978606422314 
  7.461191845030401  11.501239100318124   5.002978606422314 
  8.723575895483668   4.998890630990229   5.002978606422314 
  0.001100636260843   7.186276236122740  11.673616748318732 
  1.245738904460565   0.719214794632416  11.673616748318732 
  4.978828760405756   7.184126282101477  11.673616748318732 
  6.222884383647997   0.719491057986865  11.673616748318732 
  9.956964351925640   7.186516288008819  11.673616748318732 
 -2.528512910191318   7.180564104089056   5.002978606422314 
 11.202031003041450   0.718505619737084  11.673616748318732 
  3.728179123081496   0.667785126665095   5.002978606422314 
  2.395791928215041   7.284172676021281   5.002978606422314 
  7.397423833049543   7.145399638990694   5.002978606422314 
  8.740569351588478   0.686744290760181   5.002978606422314 
  2.490685161350926   7.185415451806596  11.673616748318732 
 13.714200603645196   0.739176757355162   5.002978606422314 
 -1.244352444271866   9.341989743853183  11.673616748318732 
  0.001631830224008   2.875437135288813  11.673616748318732 
  4.978709207651895   2.876031393160189  11.673616748318732 
  3.734425409854700   9.339844309660380  11.673616748318732 
  8.712802155055776   9.341468425843951  11.673616748318732 
  9.956390691586838   2.875358884259220  11.673616748318732 
 -3.773961659646525   9.319082210570661   5.002978606422314 
  1.194165492957248   9.391590217238337   5.002978606422314 
  2.541077448567092   2.856873762461499   5.002978606422314 
  6.201568533886126   9.367135518339934   5.002978606422314 
  7.539136604250738   2.762659878864747   5.002978606422314 
 12.476017533645690   2.883772743665933   5.002978606422314 
 -1.243657955873685   5.030976636933810  11.673616748318732 
 -2.489318546198517  11.498334286091133  11.673616748318732 
  2.489354555255546  11.497066406120275  11.673616748318732 
  3.735820588369391   5.031372020008928  11.673616748318732 
  7.468502394544018  11.497269864316602  11.673616748318732 
 -5.003248291584991  11.466931519951268   5.002978606422314 
  8.711008730424286   5.031364118900778  11.673616748318732 
 -0.016482886135941  11.488463591931350   5.002978606422314 
  1.255278286947167   5.083943238716689   5.002978606422314 
 -0.046977245531161   7.206547763619482   5.002978606422314 
  6.336348402349788   4.812667157582141   5.002978606422314 
  4.981527525261448  11.531639455230348   5.002978606422314 
 11.201575467356292   5.022704626651115   5.002978606422314 
 -2.489117222632655   7.186493231221445  11.673616748318732 
  3.734662406191790   0.719557557405513  11.673616748318732 
  7.467209963834338   7.185690680384989  11.673616748318732 
  8.712043163291288   0.719053577322240  11.673616748318732 
 13.692246265152665   0.718593041309790  11.673616748318732 
 -0.000008253312931   1.437987426854636   1.671070345268015 
  3.739212139285377   7.901435045689003   1.667029056460524 
  4.978654241866405   1.443221021069575   1.670859068915436 
  8.708088206879417   7.902112068038695   1.667406746438887 
  9.957748727231440   1.437685267313535   1.668711128128153 
 -4.980528577730263  10.060335881813222   8.336566980242544 
  0.002299038071940  10.060001843758256   8.335301874126296 
  1.245576252319059   3.593628782242405   8.340641858717122 
  4.978383260332066  10.059494629321403   8.342616867384141 
  6.223063854528676   3.599277676420479   8.338928156384144 
 11.201982548500684   3.592610976366945   8.336274831261770 
 -2.489031851236533  10.060936781346070   1.670301111933491 
 -1.244056175711037   3.592741635498673   1.671070345268015 
  3.732205720934703   3.597530646130949   1.667107272206754 
  2.491739630508483  10.059328713042868   1.666922635934362 
  7.465617831159022  10.059565059342857   1.665967122757440 
  8.711583837358141   3.593401555066746   1.663340345460513 
 -6.224294465186547  12.217444837620540   8.334985550942287 
 -1.244176086284274  12.218960089513967   8.335301874126296 
  0.002357137313777   5.747271243941541   8.337692343881240 
  4.976712051914130   5.747801040521604   8.222876877959887 
  3.734560636722577  12.216563225132502   8.337246084716501 
  9.955262116959389   5.747374663563062   8.339990090087202 
 -2.489072398011972   5.747850439721680   1.670971661902341 
 -3.734219318231098  12.219255613049654   1.670663472959054 
  1.245706965085453  12.217189242302430   1.669796484756479 
  2.492270099876484   5.745162139918269   1.667107272206754 
  6.222897954665612  12.216638468072796   1.669682381582872 
  7.462343008248244   5.745273256734156   1.662134347524982 
 -1.242466647012138   7.903413386602918   8.335293739885586 
 -0.000008253312916   1.437987426854637   8.334886867576598 
  3.739212139285378   7.901435045689004   8.338928156384144 
  4.978654241866406   1.443221021069576   8.335098143929192 
  8.708088206879417   7.902112068038696   8.338550466405728 
 -3.735300608743954   7.903537772523117   1.669390232602083 
  9.957748727231440   1.437685267313535   8.337246084716501 
  2.489075777316725   1.440148215327822   1.668264868963386 
  1.249807497421817   7.901773036085447   1.670859068915436 
  6.217338405105939   7.901684485033770   1.662134347524982 
  7.468118334734230   1.439987959620040   1.666922635934362 
  1.249807497421818   7.901773036085448   8.335098143929192 
 12.447066150088085   1.437326997035069   1.670382358660200 
 -2.489031851236532  10.060936781346070   8.335656100911150 
 -1.244056175711036   3.592741635498674   8.334886867576598 
  3.732205720934703   3.597530646130950   8.338849940637873 
  2.491739630508483  10.059328713042868   8.339034576910306 
  7.465617831159023  10.059565059342857   8.339990090087202 
  8.711583837358141   3.593401555066747   8.342616867384141 
 -4.980528577730264  10.060335881813222   1.669390232602083 
  0.002299038071939  10.060001843758256   1.670655338718319 
  1.245576252319058   3.593628782242404   1.665315354127492 
  4.978383260332065  10.059494629321403   1.663340345460513 
  6.223063854528675   3.599277676420478   1.667029056460524 
 11.201982548500684   3.592610976366944   1.669682381582872 
 -2.489072398011972   5.747850439721681   8.334985550942287 
 -3.734219318231097  12.219255613049654   8.335293739885586 
  1.245706965085453  12.217189242302430   8.336160728088162 
  2.492270099876485   5.745162139918270   8.338849940637873 
  6.222897954665613  12.216638468072796   8.336274831261770 
 -6.224294465186548  12.217444837620540   1.670971661902341 
  7.462343008248244   5.745273256734157   8.343822865319645 
 -1.244176086284274  12.218960089513967   1.670655338718319 
  0.002357137313776   5.747271243941540   1.668264868963386 
 -1.242466647012138   7.903413386602917   1.670663472959054 
  4.976712051914129   5.747801040521603   1.783080334884766 
  3.734560636722577  12.216563225132502   1.668711128128153 
  9.955262116959389   5.747374663563061   1.665967122757440 
 -3.735300608743954   7.903537772523118   8.336566980242544 
  2.489075777316726   1.440148215327823   8.337692343881240 
  6.217338405105940   7.901684485033771   8.343822865319645 
  7.468118334734231   1.439987959620040   8.339034576910306 
 12.447066150088085   1.437326997035069   8.335574854184429 
  4.417805813275508   5.425116373191824   5.002978606422314 
  1.243542954869782   0.717974775122032   1.665989579825041 
  4.979677197357733   7.192142253177316   1.652258576291576 
  6.224029918627140   0.718852789571963   1.665140981420698 
  9.957719203403970   7.185899099180558   1.663698045403743 
 11.202749664110064   0.718920538898503   1.665440687820575 
 -3.734080735502054   9.342107472861056   8.339684186609110 
  1.245174045630903   9.342484125164203   8.340816231423917 
  2.486322461747507   2.872358451896416   8.354525255555954 
  6.223370878424058   9.344530209871911   8.352166666861033 
  7.470224470812980   2.873341509577948   8.351850236822939 
 12.446689657159276   2.873943837674153   8.339150416597040 
 -1.244368318298099   9.342188532815863   1.667074995265114 
 -0.001992025245699   2.873344901357864   1.664308735319996 
  4.979037553971958   2.874726959077882   1.659568615232600 
  3.734113285416079   9.344475905411809   1.654106976021701 
  8.712645079590752   9.342430740814370   1.663698045403743 
  9.958955760864759   2.873623725260696   1.663319837694141 
 -4.978982505914622  11.498143579054769   8.339506230736566 
  0.000557743206296  11.498302003869217   8.339404225952723 
  1.241310927957741   5.028781684429562   8.354525255555954 
  6.229030806528570   5.028198325473864   8.353698636553037 
  4.978723336392547  11.499639317948560   8.342637375150488 
 11.202598923638350   5.029748637310408   8.340024237426681 
 -1.245829819066256   5.029694898557953   1.665989579825041 
 -2.489154326919961  11.498221144299814   1.667074995265114 
  2.489786810048338  11.498944566194066   1.664671838608798 
  3.726116822493780   5.025769548168499   1.650567393074234 
  7.467803865346883  11.498603434128439   1.665932975417947 
  8.714900296358948   5.029074669456137   1.653790545983621 
  0.000057271679794   7.186037897051383   8.341243543552345 
  1.243542954869782   0.717974775122033   8.339967633019560 
  4.979677197357734   7.192142253177317   8.353698636553037 
  6.224029918627140   0.718852789571964   8.340816231423917 
  9.957719203403970   7.185899099180559   8.342259167440858 
 -2.489349581268052   7.185972861370581   1.666450982108075 
 11.202749664110064   0.718920538898503   8.340516525024039 
  3.733934316210762   0.718773146708581   1.664713669292270 
  2.489719661458119   7.186352025102162   1.659568615232600 
  7.468654275623805   7.186524554185397   1.658387403146349 
  8.713885825023938   0.718488840916850   1.664671838608798 
  2.489719661458119   7.186352025102163   8.346388597612014 
 13.691024583121720   0.718692524274727   1.666806796247601 
 -1.244368318298098   9.342188532815863   8.338882217579513 
 -0.001992025245699   2.873344901357865   8.341648477524618 
  4.979037553971959   2.874726959077883   8.346388597612014 
  3.734113285416079   9.344475905411809   8.351850236822939 
  8.712645079590752   9.342430740814370   8.342259167440858 
  9.958955760864759   2.873623725260697   8.342637375150488 
 -3.734080735502055   9.342107472861056   1.666273026235530 
  1.245174045630902   9.342484125164203   1.665140981420698 
  2.486322461747507   2.872358451896415   1.651431957288674 
  6.223370878424057   9.344530209871911   1.653790545983621 
  7.470224470812979   2.873341509577947   1.654106976021701 
 12.446689657159276   2.873943837674152   1.666806796247601 
 -1.245829819066256   5.029694898557953   8.339967633019560 
 -2.489154326919961  11.498221144299814   8.338882217579513 
  2.489786810048339  11.498944566194066   8.341285374235843 
  3.726116822493780   5.025769548168500   8.355389819770394 
  7.467803865346884  11.498603434128439   8.340024237426681 
 -4.978982505914622  11.498143579054769   1.666450982108075 
  8.714900296358948   5.029074669456138   8.352166666861033 
  0.000557743206295  11.498302003869217   1.666552986891904 
  1.241310927957740   5.028781684429561   1.651431957288674 
  0.000057271679793   7.186037897051382   1.664713669292270 
  6.229030806528569   5.028198325473863   1.652258576291576 
  4.978723336392546  11.499639317948560   1.663319837694141 
 11.202598923638350   5.029748637310407   1.665932975417947 
 -2.489349581268051   7.185972861370582   8.339506230736566 
  3.733934316210762   0.718773146708581   8.341243543552345 
  7.468654275623806   7.186524554185398   8.347569809698278 
  8.713885825023938   0.718488840916850   8.341285374235843 
 13.691024583121720   0.718692524274728   8.339150416597040 
  0.019263425987083   1.451095379935687   5.002978606422314 
  3.612917859324795   8.086977218620714   5.002978606422314 
  4.999003746227807   1.320351335034309   5.002978606422314 
  8.663362290146814   7.876289547973368   5.002978606422314 
  9.979736529344255   1.425459571446073   5.002978606422314 
 -4.978285472944603  10.060948477873206  11.673616748318732 
 -0.000131226571074  10.060896425177711  11.673616748318732 
  1.245065953445338   3.593334161050287  11.673616748318732 
  4.978948129448768  10.060521111550221  11.673616748318732 
  6.223323763187492   3.592904754699433  11.673616748318732 
 11.202293160307160   3.593354302098656  11.673616748318732 
 -2.531193436649866  10.036594778658197   5.002978606422314 
 -1.223068515701225   3.602877422805548   5.002978606422314 
  3.802180902809320   3.431516090412789   5.002978606422314 
  2.428368017485326  10.137705431903768   5.002978606422314 
  7.452532798050628  10.070943447271446   5.002978606422314 
  8.752207938616621   3.550961936456985   5.002978606422314 
 -6.223200865092261  12.216583091756451  11.673616748318732 
 -1.244616488370766  12.216408127885447  11.673616748318732 
  0.000009363737117   5.749304024451756  11.673616748318732 
  4.978868147480946   5.749045862877503  11.673616748318732 
  3.734142183029208  12.216523316924224  11.673616748318732 
  9.957818801790495   5.749378018930704  11.673616748318732 
 -2.504066871307490   5.747598517135296   5.002978606422314 
 -3.757164698886559  12.168247539549599   5.002978606422314 
  1.232750277090198  12.209708695000574   5.002978606422314 
  2.383484868163880   5.888769702915204   5.002978606422314 
  6.230575931121437  12.240135188264876   5.002978606422314 
  7.486772053886783   5.694342190797456   5.002978606422314 
 -1.244791206135393   7.905115144757042  11.673616748318732 
  0.000263119911955   1.437321241002948  11.673616748318732 
  3.733822981508030   7.904846594050725  11.673616748318732 
  4.978885609661298   1.436767825494675  11.673616748318732 
  8.713678040776500   7.905339360143912  11.673616748318732 
 -3.777231944161201   7.887920186856491   5.002978606422314 
  9.957504938862535   1.437342829888961  11.673616748318732 
  2.491498481896606   1.396880588974013   5.002978606422314 
  1.153573980140968   7.980831066834464   5.002978606422314 
  6.185445330982212   7.948306192115320   5.002978606422314 
  7.504308757821476   1.345918173432715   5.002978606422314 
  1.244334550015825   7.905200004260867  11.673616748318732 
 12.467782211291816   1.449287420547574   5.002978606422314 
 -2.489208149523115  10.060834995482846  11.673616748318732 
 -1.244497422969798   3.593309744531177  11.673616748318732 
  3.734553615427467   3.592775037464351  11.673616748318732 
  2.489262658998234  10.060707191911023  11.673616748318732 
  7.468631130215770  10.060777535672230  11.673616748318732 
  8.712755231603195   3.593377504957189  11.673616748318732 
 -5.015019471371942  10.031831072960554   5.002978606422314 
 -0.051642658528064  10.072452834657650   5.002978606422314 
  1.280979535865484   3.614068877528123   5.002978606422314 
  4.961941523118323  10.115895942322050   5.002978606422314 
  6.320600949780610   3.397132535156093   5.002978606422314 
 11.226170293320568   3.587511938931281   5.002978606422314 
 -2.489271891774738   5.749228398116959  11.673616748318732 
 -3.733907832000180  12.216391606719295  11.673616748318732 
  1.244648176239948  12.216577950277440  11.673616748318732 
  2.489325569207135   5.749573280527707  11.673616748318732 
  6.223696999535806  12.216535802922053  11.673616748318732 
 -6.232009873193919  12.204585204123473   5.002978606422314 
  7.468546721046464   5.749566243280952  11.673616748318732 
 -1.260364060163097  12.166019714485408   5.002978606422314 
 -0.033902373980143   5.771003180830500   5.002978606422314 
 -1.298113624789012   7.909046140805799   5.002978606422314 
  3.734966774578814  12.241718068269330   5.002978606422314 
  9.958573573405449   5.730353498517563   5.002978606422314 
 -3.733648532600891   7.905174060220807  11.673616748318732 
  2.489662330090568   1.437098593512981  11.673616748318732 
  6.224158096912671   7.904910564641428  11.673616748318732 
  7.468073646697483   1.437153599933679  11.673616748318732 
 12.447069614805768   1.437328997390765  11.673616748318732 
Generated by cif2cell 2.0.0.  :  Failed to get author information, No journal information. Species order: B Sn N 
 1.0
 14.936314146199660   0.000000000000000   0.000000000000000
 -7.468157073099825  12.935227489513863   0.000000000000000
  0.000000000000001   0.000000000000001  13.341276283792837
 B Sn N 
 143   1 143
Cartesian
  1.252076043069054   0.708866309935952   5.002978606422314 
  4.846680528566792   7.392847601377411   5.002978606422314 
  6.241052765507089   0.650125041109234   5.002978606422314 
  9.913989567431958   7.165738983960621   5.002978606422314 
 11.223412427889262   0.730850191128634   5.002978606422314 
 -3.734011029788297   9.342147717473651  11.673616748318732 
  1.245154034803038   9.341172928563918  11.673616748318732 
  2.491258575473741   2.875936461357990  11.673616748318732 
  6.223407816836457   9.340015290189687  11.673616748318732 
  7.466369453451491   2.875927615146653  11.673616748318732 
 12.447214343399883   2.875051586830742  11.673616748318732 
 -1.285729397062508   9.337313898331930   5.002978606422314 
  0.045125932982667   2.900548467224685   5.002978606422314 
  5.016788856061089   2.744472830509955   5.002978606422314 
  3.672716248205040   9.459496378954491   5.002978606422314 
  8.673321089681028   9.314639822774382   5.002978606422314 
  9.988070787109843   2.860052155417256   5.002978606422314 
 -4.978415673086759  11.498084622610460  11.673616748318732 
 -0.000127026077756  11.497906652138756  11.673616748318732 
  1.246877631909547   5.031267479581688  11.673616748318732 
  6.221664553464934   5.031471543057808  11.673616748318732 
  4.978943493525919  11.496550323292142  11.673616748318732 
 11.201793282902143   5.031020366246332  11.673616748318732 
 -1.249451437207259   5.041639002304310   5.002978606422314 
 -2.514056423599414  11.464838716603872   5.002978606422314 
  2.475636986463246  11.537925453139810   5.002978606422314 
  7.461191845030401  11.501239100318124   5.002978606422314 
  8.723575895483668   4.998890630990229   5.002978606422314 
  0.001100636260843   7.186276236122740  11.673616748318732 
  1.245738904460565   0.719214794632416  11.673616748318732 
  4.978828760405756   7.184126282101477  11.673616748318732 
  6.222884383647997   0.719491057986865  11.673616748318732 
  9.956964351925640   7.186516288008819  11.673616748318732 
 -2.528512910191318   7.180564104089056   5.002978606422314 
 11.202031003041450   0.718505619737084  11.673616748318732 
  3.728179123081496   0.667785126665095   5.002978606422314 
  2.395791928215041   7.284172676021281   5.002978606422314 
  7.397423833049543   7.145399638990694   5.002978606422314 
  8.740569351588478   0.686744290760181   5.002978606422314 
  2.490685161350926   7.185415451806596  11.673616748318732 
 13.714200603645196   0.739176757355162   5.002978606422314 
 -1.244352444271866   9.341989743853183  11.673616748318732 
  0.001631830224008   2.875437135288813  11.673616748318732 
  4.978709207651895   2.876031393160189  11.673616748318732 
  3.734425409854700   9.339844309660380  11.673616748318732 
  8.712802155055776   9.341468425843951  11.673616748318732 
  9.956390691586838   2.875358884259220  11.673616748318732 
 -3.773961659646525   9.319082210570661   5.002978606422314 
  1.194165492957248   9.391590217238337   5.002978606422314 
  2.541077448567092   2.856873762461499   5.002978606422314 
  6.201568533886126   9.367135518339934   5.002978606422314 
  7.539136604250738   2.762659878864747   5.002978606422314 
 12.476017533645690   2.883772743665933   5.002978606422314 
 -1.243657955873685   5.030976636933810  11.673616748318732 
 -2.489318546198517  11.498334286091133  11.673616748318732 
  2.489354555255546  11.497066406120275  11.673616748318732 
  3.735820588369391   5.031372020008928  11.673616748318732 
  7.468502394544018  11.497269864316602  11.673616748318732 
 -5.003248291584991  11.466931519951268   5.002978606422314 
  8.711008730424286   5.031364118900778  11.673616748318732 
 -0.016482886135941  11.488463591931350   5.002978606422314 
  1.255278286947167   5.083943238716689   5.002978606422314 
 -0.046977245531161   7.206547763619482   5.002978606422314 
  6.336348402349788   4.812667157582141   5.002978606422314 
  4.981527525261448  11.531639455230348   5.002978606422314 
 11.201575467356292   5.022704626651115   5.002978606422314 
 -2.489117222632655   7.186493231221445  11.673616748318732 
  3.734662406191790   0.719557557405513  11.673616748318732 
  7.467209963834338   7.185690680384989  11.673616748318732 
  8.712043163291288   0.719053577322240  11.673616748318732 
 13.692246265152665   0.718593041309790  11.673616748318732 
 -0.000008253312931   1.437987426854636   1.671070345268015 
  3.739212139285377   7.901435045689003   1.667029056460524 
  4.978654241866405   1.443221021069575   1.670859068915436 
  8.708088206879417   7.902112068038695   1.667406746438887 
  9.957748727231440   1.437685267313535   1.668711128128153 
 -4.980528577730263  10.060335881813222   8.336566980242544 
  0.002299038071940  10.060001843758256   8.335301874126296 
  1.245576252319059   3.593628782242405   8.340641858717122 
  4.978383260332066  10.059494629321403   8.342616867384141 
  6.223063854528676   3.599277676420479   8.338928156384144 
 11.201982548500684   3.592610976366945   8.336274831261770 
 -2.489031851236533  10.060936781346070   1.670301111933491 
 -1.244056175711037   3.592741635498673   1.671070345268015 
  3.732205720934703   3.597530646130949   1.667107272206754 
  2.491739630508483  10.059328713042868   1.666922635934362 
  7.465617831159022  10.059565059342857   1.665967122757440 
  8.711583837358141   3.593401555066746   1.663340345460513 
 -6.224294465186547  12.217444837620540   8.334985550942287 
 -1.244176086284274  12.218960089513967   8.335301874126296 
  0.002357137313777   5.747271243941541   8.337692343881240 
  4.976712051914130   5.747801040521604   8.222876877959887 
  3.734560636722577  12.216563225132502   8.337246084716501 
  9.955262116959389   5.747374663563062   8.339990090087202 
 -2.489072398011972   5.747850439721680   1.670971661902341 
 -3.734219318231098  12.219255613049654   1.670663472959054 
  1.245706965085453  12.217189242302430   1.669796484756479 
  2.492270099876484   5.745162139918269   1.667107272206754 
  6.222897954665612  12.216638468072796   1.669682381582872 
  7.462343008248244   5.745273256734156   1.662134347524982 
 -1.242466647012138   7.903413386602918   8.335293739885586 
 -0.000008253312916   1.437987426854637   8.334886867576598 
  3.739212139285378   7.901435045689004   8.338928156384144 
  4.978654241866406   1.443221021069576   8.335098143929192 
  8.708088206879417   7.902112068038696   8.338550466405728 
 -3.735300608743954   7.903537772523117   1.669390232602083 
  9.957748727231440   1.437685267313535   8.337246084716501 
  2.489075777316725   1.440148215327822   1.668264868963386 
  1.249807497421817   7.901773036085447   1.670859068915436 
  6.217338405105939   7.901684485033770   1.662134347524982 
  7.468118334734230   1.439987959620040   1.666922635934362 
  1.249807497421818   7.901773036085448   8.335098143929192 
 12.447066150088085   1.437326997035069   1.670382358660200 
 -2.489031851236532  10.060936781346070   8.335656100911150 
 -1.244056175711036   3.592741635498674   8.334886867576598 
  3.732205720934703   3.597530646130950   8.338849940637873 
  2.491739630508483  10.059328713042868   8.339034576910306 
  7.465617831159023  10.059565059342857   8.339990090087202 
  8.711583837358141   3.593401555066747   8.342616867384141 
 -4.980528577730264  10.060335881813222   1.669390232602083 
  0.002299038071939  10.060001843758256   1.670655338718319 
  1.245576252319058   3.593628782242404   1.665315354127492 
  4.978383260332065  10.059494629321403   1.663340345460513 
  6.223063854528675   3.599277676420478   1.667029056460524 
 11.201982548500684   3.592610976366944   1.669682381582872 
 -2.489072398011972   5.747850439721681   8.334985550942287 
 -3.734219318231097  12.219255613049654   8.335293739885586 
  1.245706965085453  12.217189242302430   8.336160728088162 
  2.492270099876485   5.745162139918270   8.338849940637873 
  6.222897954665613  12.216638468072796   8.336274831261770 
 -6.224294465186548  12.217444837620540   1.670971661902341 
  7.462343008248244   5.745273256734157   8.343822865319645 
 -1.244176086284274  12.218960089513967   1.670655338718319 
  0.002357137313776   5.747271243941540   1.668264868963386 
 -1.242466647012138   7.903413386602917   1.670663472959054 
  4.976712051914129   5.747801040521603   1.783080334884766 
  3.734560636722577  12.216563225132502   1.668711128128153 
  9.955262116959389   5.747374663563061   1.665967122757440 
 -3.735300608743954   7.903537772523118   8.336566980242544 
  2.489075777316726   1.440148215327823   8.337692343881240 
  6.217338405105940   7.901684485033771   8.343822865319645 
  7.468118334734231   1.439987959620040   8.339034576910306 
 12.447066150088085   1.437326997035069   8.335574854184429 
  4.417805813275508   5.425116373191824   5.002978606422314 
  1.243542954869782   0.717974775122032   1.665989579825041 
  4.979677197357733   7.192142253177316   1.652258576291576 
  6.224029918627140   0.718852789571963   1.665140981420698 
  9.957719203403970   7.185899099180558   1.663698045403743 
 11.202749664110064   0.718920538898503   1.665440687820575 
 -3.734080735502054   9.342107472861056   8.339684186609110 
  1.245174045630903   9.342484125164203   8.340816231423917 
  2.486322461747507   2.872358451896416   8.354525255555954 
  6.223370878424058   9.344530209871911   8.352166666861033 
  7.470224470812980   2.873341509577948   8.351850236822939 
 12.446689657159276   2.873943837674153   8.339150416597040 
 -1.244368318298099   9.342188532815863   1.667074995265114 
 -0.001992025245699   2.873344901357864   1.664308735319996 
  4.979037553971958   2.874726959077882   1.659568615232600 
  3.734113285416079   9.344475905411809   1.654106976021701 
  8.712645079590752   9.342430740814370   1.663698045403743 
  9.958955760864759   2.873623725260696   1.663319837694141 
 -4.978982505914622  11.498143579054769   8.339506230736566 
  0.000557743206296  11.498302003869217   8.339404225952723 
  1.241310927957741   5.028781684429562   8.354525255555954 
  6.229030806528570   5.028198325473864   8.353698636553037 
  4.978723336392547  11.499639317948560   8.342637375150488 
 11.202598923638350   5.029748637310408   8.340024237426681 
 -1.245829819066256   5.029694898557953   1.665989579825041 
 -2.489154326919961  11.498221144299814   1.667074995265114 
  2.489786810048338  11.498944566194066   1.664671838608798 
  3.726116822493780   5.025769548168499   1.650567393074234 
  7.467803865346883  11.498603434128439   1.665932975417947 
  8.714900296358948   5.029074669456137   1.653790545983621 
  0.000057271679794   7.186037897051383   8.341243543552345 
  1.243542954869782   0.717974775122033   8.339967633019560 
  4.979677197357734   7.192142253177317   8.353698636553037 
  6.224029918627140   0.718852789571964   8.340816231423917 
  9.957719203403970   7.185899099180559   8.342259167440858 
 -2.489349581268052   7.185972861370581   1.666450982108075 
 11.202749664110064   0.718920538898503   8.340516525024039 
  3.733934316210762   0.718773146708581   1.664713669292270 
  2.489719661458119   7.186352025102162   1.659568615232600 
  7.468654275623805   7.186524554185397   1.658387403146349 
  8.713885825023938   0.718488840916850   1.664671838608798 
  2.489719661458119   7.186352025102163   8.346388597612014 
 13.691024583121720   0.718692524274727   1.666806796247601 
 -1.244368318298098   9.342188532815863   8.338882217579513 
 -0.001992025245699   2.873344901357865   8.341648477524618 
  4.979037553971959   2.874726959077883   8.346388597612014 
  3.734113285416079   9.344475905411809   8.351850236822939 
  8.712645079590752   9.342430740814370   8.342259167440858 
  9.958955760864759   2.873623725260697   8.342637375150488 
 -3.734080735502055   9.342107472861056   1.666273026235530 
  1.245174045630902   9.342484125164203   1.665140981420698 
  2.486322461747507   2.872358451896415   1.651431957288674 