Species order: X N B                    
   2.51242800000000     
     5.9449720136058266    0.0000000000000000    0.0000000000000000
    -2.9724860068029120    5.1484967885702053   -0.0000000000000001
     0.0000000000000000    0.0000000000000009    5.3101128803662583
   Sn   N    B 
     1   143   143
Direct
  0.5054793396698758  0.4194063365016024  0.3750000000000000
  0.1110090393338251  0.0555053844784767  0.1248748278940076
  0.6113999996179271  0.5560120422317839  0.1238456157525768
  0.4444911713298050  0.0555732622526131  0.1248112209057194
  0.9444431768512666  0.5555293948255579  0.1247030651351422
  0.7778236663377256  0.0555784998355313  0.1248336855030710
  0.1111109148152801  0.7222221240743060  0.6251039262817958
  0.4444911713298050  0.7222512424105276  0.6251887790942799
  0.2774901054296283  0.2220570495745000  0.6262163437620395
  0.7778651276895049  0.7224094216701789  0.6260395549267918
  0.6112049382119018  0.2221330480586654  0.6260158368033260
  0.9444071520861367  0.2221796129989952  0.6250639173650538
  0.2778025894024924  0.7222283906788068  0.1249561855855051
  0.1109332872092455  0.2221333102712875  0.1247488396100320
  0.4444712311659152  0.2222401547563289  0.1243935422616697
  0.6112049382119018  0.7224052234865643  0.1239841631966747
  0.9444431768512666  0.7222471153590417  0.1247030651351422
  0.7778387009321007  0.2221548656635715  0.1246747164448401
  0.1111032995416614  0.8889015356224633  0.6250905875375290
  0.4444942330068080  0.8889137831700670  0.6250829417335093
  0.2774901054296283  0.3887663891884564  0.6262163437620395
  0.6113999996179271  0.3887212907194748  0.6261543842474220
  0.7778387009321007  0.8890171686018602  0.6253252835551601
  0.9444448955256377  0.3888411426384154  0.6251294149089955
  0.1110090393338251  0.3888369881886772  0.1248748278940076
  0.2778025894024924  0.8889075320570141  0.1249561855855051
  0.6111752512288777  0.8889634585488243  0.1247760561432237
  0.4437337189844930  0.3885335261589113  0.1237188525268280
  0.9444448955256377  0.8889370862205516  0.1248705850910035
  0.7778651276895049  0.3887890393526537  0.1239604450732104
  0.2777738969158510  0.5555401250481954  0.6252208084233587
  0.1110090393338251  0.0555053844784767  0.6251251721059904
  0.6113999996179271  0.5560120422317839  0.6261543842474220
  0.4444911713298050  0.0555732622526131  0.6251887790942799
  0.9444431768512666  0.5555293948255579  0.6252969348648564
  0.1111032995416614  0.5555350972525223  0.1249094124624721
  0.7778236663377256  0.0555784998355313  0.6251663144969284
  0.2777738969158510  0.0555671052009918  0.1247791915766400
  0.4444712311659152  0.5555644097429201  0.1243935422616697
  0.7778221620008282  0.5555777476670793  0.1243050040992691
  0.6111752512288777  0.0555451260133852  0.1247760561432237
  0.4444712311659152  0.5555644097429201  0.6256064577383293
  0.9444071520861367  0.0555608724204769  0.1249360826349467
  0.2778025894024924  0.7222283906788068  0.6250438144144951
  0.1109332872092455  0.2221333102712875  0.6252511603899672
  0.4444712311659152  0.2222401547563289  0.6256064577383293
  0.6112049382119018  0.7224052234865643  0.6260158368033260
  0.9444431768512666  0.7222471153590417  0.6252969348648564
  0.7778387009321007  0.2221548656635715  0.6253252835551601
  0.1111109148152801  0.7222221240743060  0.1248960737182053
  0.4444911713298050  0.7222512424105276  0.1248112209057194
  0.2774901054296283  0.2220570495745000  0.1237836562379612
  0.7778651276895049  0.7224094216701789  0.1239604450732104
  0.6112049382119018  0.2221330480586654  0.1239841631966747
  0.9444071520861367  0.2221796129989952  0.1249360826349467
  0.1110090393338251  0.3888369881886772  0.6251251721059904
  0.2778025894024924  0.8889075320570141  0.6250438144144951
  0.6111752512288777  0.8889634585488243  0.6252239438567770
  0.4437337189844930  0.3885335261589113  0.6262811474731720
  0.9444448955256377  0.8889370862205516  0.6251294149089955
  0.1111032995416614  0.8889015356224633  0.1249094124624721
  0.7778651276895049  0.3887890393526537  0.6260395549267918
  0.4444942330068080  0.8889137831700670  0.1249170582664908
  0.2774901054296283  0.3887663891884564  0.1237836562379612
  0.2777738969158510  0.5555401250481954  0.1247791915766400
  0.6113999996179271  0.3887212907194748  0.1238456157525768
  0.7778387009321007  0.8890171686018602  0.1246747164448401
  0.9444448955256377  0.3888411426384154  0.1248705850910035
  0.1111032995416614  0.5555350972525223  0.6250905875375290
  0.2777738969158510  0.0555671052009918  0.6252208084233587
  0.7778221620008282  0.5555777476670793  0.6256949959007314
  0.6111752512288777  0.0555451260133852  0.6252239438567770
  0.9444071520861367  0.0555608724204769  0.6250639173650538
  0.0573805375157315  0.1121816667787278  0.3750000000000000
  0.5544832715997093  0.6251901812454818  0.3750000000000000
  0.3857249444904470  0.1020740714536851  0.3750000000000000
  0.8844712324322617  0.6089022828828018  0.3750000000000000
  0.7232524631511028  0.1101998068918115  0.3750000000000000
  0.0555964363717996  0.7777944752830410  0.8750000000000000
  0.3888864398498258  0.7777904511794418  0.8750000000000000
  0.2222555287818865  0.2777944310576119  0.8750000000000000
  0.7222258849004497  0.7777614363339135  0.8750000000000000
  0.5555378796446316  0.2777612343974675  0.8750000000000000
  0.8889018471331249  0.2777959881271246  0.8750000000000000
  0.2184901327471031  0.7759117330402200  0.3750000000000000
  0.0573805375157315  0.2785322040703399  0.3750000000000000
  0.3872017945477641  0.2652845567033589  0.3750000000000000
  0.5544456883070538  0.7837284222579042  0.3750000000000000
  0.8882375248984611  0.7785671690301236  0.3750000000000000
  0.7232277429877623  0.2745187078724067  0.3750000000000000
  0.0555723897734103  0.9444428481570968  0.8750000000000000
  0.3888864398498258  0.9444293220037192  0.8750000000000000
  0.2222349876560331  0.4444687214904040  0.8750000000000000
  0.5555641936004734  0.4444487634669010  0.8750000000000000
  0.7222233747247071  0.9444382270685024  0.8750000000000000
  0.8889223685798837  0.4444744418752224  0.8750000000000000
  0.0545188506202944  0.4443368716781109  0.3750000000000000
  0.2188074153803133  0.9407061104579704  0.3750000000000000
  0.5544894676028820  0.9439114004681055  0.3750000000000000
  0.3872017945477641  0.4552505711777414  0.3750000000000000
  0.8902746117164971  0.9462636198851183  0.3750000000000000
  0.7213561488557010  0.4402197174664043  0.3750000000000000
  0.2222254512174663  0.6111307397697834  0.8750000000000000
  0.0555760221157486  0.1111168119902127  0.8750000000000000
  0.5555378796446316  0.6111099785805006  0.8750000000000000
  0.3888779951747002  0.1110740283972132  0.8750000000000000
  0.8889628136115003  0.6111480734724222  0.8750000000000000
  0.0520115532829973  0.6098014274005582  0.3750000000000000
  0.7222233747247071  0.1111184809895428  0.8750000000000000
  0.2208033276272272  0.1079904153294882  0.3750000000000000
  0.3857249444904469  0.6169842063701041  0.3750000000000000
  0.7213561488557015  0.6144697647226333  0.3750000000000000
  0.5544456883070542  0.1040505993824851  0.3750000000000000
  0.3888779951747002  0.6111373001108281  0.8750000000000000
  0.8907504598156326  0.1120418965744873  0.3750000000000000
  0.2222380709792352  0.7777857021562868  0.8750000000000000
  0.0555760221157486  0.2777925434588716  0.8750000000000000
  0.3889074100602818  0.2777512061830292  0.8750000000000000
  0.5555463405004303  0.7777758218838349  0.8750000000000000
  0.8889223685798837  0.7777812600379970  0.8750000000000000
  0.7222258849004497  0.2777977818998714  0.8750000000000000
  0.0520115532829974  0.7755434592157741  0.3750000000000000
  0.3858844049840633  0.7786838571507955  0.3750000000000000
  0.2254614587115527  0.2793973960224450  0.3750000000000000
  0.7232277429877623  0.7820423684486919  0.3750000000000000
  0.5544832715997093  0.2626264236875643  0.3750000000000000
  0.8902746117164971  0.2773443251647136  0.3750000000000000
  0.0555723897734103  0.4444628749496409  0.8750000000000000
  0.2222254512174663  0.9444280447810206  0.8750000000000000
  0.5555515680232203  0.9444424506782730  0.8750000000000000
  0.3889074100602818  0.4444895372105888  0.8750000000000000
  0.8889018471331249  0.9444391923393358  0.8750000000000000
  0.0545188506202944  0.9435153122755127  0.3750000000000000
  0.7222705838758190  0.4444889931732490  0.8750000000000000
  0.3858844049840633  0.9405338811666027  0.3750000000000000
  0.2208033276272272  0.4461462456310756  0.3750000000000000
  0.2188074153803133  0.6114346382556772  0.3750000000000000
  0.7232524631511030  0.9463859895926274  0.3750000000000000
  0.8882375248984611  0.4430036892016750  0.3750000000000000
  0.0555964363717996  0.6111352944220932  0.8750000000000000
  0.2222349876560331  0.1110995994989642  0.8750000000000000
  0.7222705838758190  0.6111149240359064  0.8750000000000000
  0.5555463405004303  0.1111038519499350  0.8750000000000000
  0.8889014899128580  0.1111174116231011  0.8750000000000000
  0.1112282576322715  0.0548012248343220  0.3750000000000000
  0.6102538412141704  0.5715282245612253  0.3750000000000000
  0.4429742551097767  0.0502600392328834  0.3750000000000000
  0.9407361656449428  0.5539708512872801  0.3750000000000000
  0.7796681877796252  0.0565007605564813  0.3750000000000000
  0.1111171372976647  0.7222252353154978  0.8750000000000000
  0.4444391484190394  0.7221498760757382  0.8750000000000000
  0.2779588876461440  0.2223336592796228  0.8750000000000000
  0.7776930804456965  0.7220603810610454  0.8750000000000000
  0.6110468049139460  0.2223329753943694  0.8750000000000000
  0.9444850993964952  0.2222652511648094  0.8750000000000000
  0.2748450022853816  0.7218515411423083  0.3750000000000000
  0.1151394081899350  0.2242363707616321  0.3750000000000000
  0.4419638552674136  0.2121704340132252  0.3750000000000000
  0.6115403666249702  0.7312972567836923  0.3750000000000000
  0.9407361656449431  0.7200986476909995  0.3750000000000000
  0.7792633815148985  0.2211056711399775  0.3750000000000000
  0.1111389706117564  0.8888969778020183  0.8750000000000000
  0.4444331050937818  0.8888832192135551  0.8750000000000000
  0.2779588876461440  0.3889585616998509  0.8750000000000000
  0.6110333455721685  0.3889743374932251  0.8750000000000000
  0.7777340382457291  0.8887783637830869  0.8750000000000000
  0.9444401147147893  0.3889394577965334  0.8750000000000000
  0.1112282576322715  0.3897603661312792  0.3750000000000000
  0.2748450022853816  0.8863267944764029  0.3750000000000000
  0.6117346798740236  0.8919770033030504  0.3750000000000000
  0.9441040940613310  0.8891408450018973  0.3750000000000000
  0.7772792292192970  0.3864555636955484  0.3750000000000000
  0.2778529639263929  0.5555585506283827  0.8750000000000000
  0.1112039920618142  0.0556012482359090  0.8750000000000000
  0.6110333455721685  0.5553923414122710  0.8750000000000000
  0.4444391484190399  0.0556226056766399  0.8750000000000000
  0.9444164957478640  0.5555771086233056  0.8750000000000000
  0.1082722077487444  0.5551169556090212  0.3750000000000000
  0.7777595129764098  0.0555464231548732  0.8750000000000000
  0.2754176837375297  0.0516253098143377  0.3750000000000000
  0.4419638552674136  0.5631267545875250  0.3750000000000000
  0.7714635702825027  0.5523984518079188  0.3750000000000000
  0.6117346798740236  0.0530910099043022  0.3750000000000000
  0.4444996698452527  0.5554920048860031  0.8750000000000000
  0.9467506082871785  0.0571444729483408  0.3750000000000000
  0.2777959681682358  0.7222130226489183  0.8750000000000000
  0.1112567811613450  0.2222950572473369  0.8750000000000000
  0.4444996698452527  0.2223409982925845  0.8750000000000000
  0.6110468049139460  0.7220471628529045  0.8750000000000000
  0.9444164957478640  0.7221727204578933  0.8750000000000000
  0.7777340382457291  0.2222890077959719  0.8750000000000000
  0.1075508286383619  0.7204420809858442  0.3750000000000000
  0.4429742551097768  0.7260475492102296  0.3750000000000000
  0.2805574550285702  0.2208599550937519  0.3750000000000000
  0.7772792292192970  0.7241569988570778  0.3750000000000000
  0.6115403666249702  0.2135764431746049  0.3750000000000000
  0.9467506082871785  0.2229394686721752  0.3750000000000000
  0.1112039920618142  0.3889360771592338  0.8750000000000000
  0.2777959681682358  0.8889162788526466  0.8750000000000000
  0.6110737127233181  0.8888182612513420  0.8750000000000000
  0.4445999537445656  0.3889666435389474  0.8750000000000000
  0.9444401147147893  0.8888339902515852  0.8750000000000000
  0.1082722077487444  0.8864885854730513  0.3750000000000000
  0.7776930804456965  0.3889660327179809  0.8750000000000000
  0.4429730518840377  0.8881531926086839  0.3750000000000000
  0.2805574550285702  0.3930308332681484  0.3750000000000000
  0.2754176837375297  0.5571257072565271  0.3750000000000000
  0.6102538412141704  0.3720589499862759  0.3750000000000000
  0.7792633815148985  0.8914910437082489  0.3750000000000000
  0.9441040940613310  0.3882965823927601  0.3750000000000000
  0.1111389706117564  0.5555753261430679  0.8750000000000000
  0.2778529639263929  0.0556277466313465  0.8750000000000000
  0.7776932313266501  0.5555132823299915  0.8750000000000000
  0.6110737127233181  0.0555887848053044  0.8750000000000000
  0.9444850993964952  0.0555531815650192  0.8750000000000000
  0.0555836042645185  0.1111683136628529  0.1252556584333730
  0.5557668182822961  0.6108462376942667  0.1249527422264428
  0.3891119475657118  0.1115729137535108  0.1252398221409457
  0.8884638209021993  0.6108985771177712  0.1249810521100200
  0.7222529332023774  0.1111449542328514  0.1250788224928174
  0.0554225790693641  0.7777471165442420  0.6248702749953483
  0.3890145690389252  0.7777212926416294  0.6247754485267752
  0.2223010820885215  0.2778172077109302  0.6251757089274468
  0.7221483886121089  0.7776820807733208  0.6253237463884072
  0.5557668182822961  0.2782539139213656  0.6250472577735599
  0.8888523187748879  0.2777385229041656  0.6248483768669710
  0.2222538087562942  0.7777935710448168  0.1251980002814716
  0.0555836042645185  0.2777486239350014  0.1252556584333730
  0.3889340402882732  0.2781188540400498  0.1249586049148824
  0.5556588921211438  0.7776692540736228  0.1249447654389229
  0.8886737582095109  0.7776875255961133  0.1248731446167016
  0.7221483886121089  0.2777996411721236  0.1246762536115949
  0.0555324822780373  0.9445094682350809  0.6247517384125938
  0.3890145690389252  0.9446266097306325  0.6247754485267752
  0.2223135978934985  0.4443115707551837  0.6249546270179552
  0.5553717234862969  0.4443525284098128  0.6163485938709742
  0.7222529332023774  0.9444413123028599  0.6249211775071852
  0.8886737582095109  0.4443195659467336  0.6251268553832988
  0.0555324822780373  0.4443563473762844  0.1252482615874060
  0.2223153026079592  0.9446494561425671  0.1252251611780650
  0.5556460838754490  0.9444897086043891  0.1251601757760586
  0.3889340402882732  0.4441485195815588  0.1249586049148824
  0.8888523187748879  0.9444471292040593  0.1251516231330300
  0.7216892979138573  0.4441571098298544  0.1245858576172479
  0.2223153026079592  0.6109991797987269  0.6247748388219355
  0.0555836042645186  0.1111683136628529  0.6247443415666257
  0.5557668182822961  0.6108462376942667  0.6250472577735599
  0.3891119475657118  0.1115729137535108  0.6247601778590536
  0.8884638209021993  0.6108985771177712  0.6250189478899786
  0.0554225790693641  0.6110087958584596  0.1251297250046519
  0.7222529332023774  0.1111449542328514  0.6249211775071852
  0.2223135978934985  0.1113353604716501  0.1250453729820450
  0.3891119475657118  0.6108723671455436  0.1252398221409457
  0.7216892979138573  0.6108655214173376  0.1245858576172479
  0.5556588921211438  0.1113229713808582  0.1249447654389229
  0.3891119475657118  0.6108723671455436  0.6247601778590536
  0.8889011806248011  0.1111172569790722  0.1252040901581065
  0.2222538087562942  0.7777935710448168  0.6248019997185293
  0.0555836042645185  0.2777486239350014  0.6247443415666257
  0.3889340402882732  0.2781188540400498  0.6250413950851178
  0.5556588921211438  0.7776692540736228  0.6250552345610798
  0.8886737582095109  0.7776875255961133  0.6251268553832988
  0.7221483886121089  0.2777996411721236  0.6253237463884072
  0.0554225790693641  0.7777471165442420  0.1251297250046519
  0.3890145690389252  0.7777212926416294  0.1252245514732239
  0.2223010820885215  0.2778172077109302  0.1248242910725524
  0.7221483886121089  0.7776820807733208  0.1246762536115949
  0.5557668182822961  0.2782539139213656  0.1249527422264428
  0.8888523187748879  0.2777385229041656  0.1251516231330300
  0.0555324822780373  0.4443563473762844  0.6247517384125938
  0.2223153026079592  0.9446494561425671  0.6247748388219355
  0.5556460838754490  0.9444897086043891  0.6248398242239416
  0.3889340402882732  0.4441485195815588  0.6250413950851178
  0.8888523187748879  0.9444471292040593  0.6248483768669710
  0.0555324822780373  0.9445094682350809  0.1252482615874060
  0.7216892979138573  0.4441571098298544  0.6254141423827515
  0.3890145690389252  0.9446266097306325  0.1252245514732239
  0.2223135978934985  0.4443115707551837  0.1250453729820450
  0.2223153026079592  0.6109991797987269  0.1252251611780650
  0.5553717234862969  0.4443525284098128  0.1336514061290278
  0.7222529332023774  0.9444413123028599  0.1250788224928174
  0.8886737582095109  0.4443195659467336  0.1248731446167016
  0.0554225790693641  0.6110087958584596  0.6248702749953483
  0.2223135978934985  0.1113353604716500  0.6249546270179552
  0.7216892979138573  0.6108655214173376  0.6254141423827515
  0.5556588921211438  0.1113229713808582  0.6250552345610798
  0.8889011806248011  0.1111172569790722  0.6247959098418943
 
  0.00000000E+00  0.00000000E+00  0.00000000E+00
  0.00000000E+00  0.00000000E+00  0.00000000E+00
  0.00000000E+00  0.00000000E+00  0.00000000E+00
  0.00000000E+00  0.00000000E+00  0.00000000E+00
  0.00000000E+00  0.00000000E+00  0.00000000E+00
  0.00000000E+00  0.00000000E+00  0.00000000E+00
  0.00000000E+00  0.00000000E+00  0.00000000E+00
  0.00000000E+00  0.00000000E+00  0.00000000E+00
  0.00000000E+00  0.00000000E+00  0.00000000E+00
  0.00000000E+00  0.00000000E+00  0.00000000E+00
  0.00000000E+00  0.00000000E+00  0.00000000E+00
  0.00000000E+00  0.00000000E+00  0.00000000E+00
  0.00000000E+00  0.00000000E+00  0.00000000E+00
  0.00000000E+00  0.00000000E+00  0.00000000E+00
  0.00000000E+00  0.00000000E+00  0.00000000E+00
  0.00000000E+00  0.00000000E+00  0.00000000E+00
  0.00000000E+00  0.00000000E+00  0.00000000E+00
  0.00000000E+00  0.00000000E+00  0.00000000E+00
  0.00000000E+00  0.00000000E+00  0.00000000E+00
  0.00000000E+00  0.00000000E+00  0.00000000E+00
  0.00000000E+00  0.00000000E+00  0.00000000E+00
  0.00000000E+00  0.00000000E+00  0.00000000E+00
  0.00000000E+00  0.00000000E+00  0.00000000E+00
  0.00000000E+00  0.00000000E+00  0.00000000E+00
  0.00000000E+00  0.00000000E+00  0.00000000E+00
  0.00000000E+00  0.00000000E+00  0.00000000E+00
  0.00000000E+00  0.00000000E+00  0.00000000E+00
  0.00000000E+00  0.00000000E+00  0.00000000E+00
  0.00000000E+00  0.00000000E+00  0.00000000E+00
  0.00000000E+00  0.00000000E+00  0.00000000E+00
  0.00000000E+00  0.00000000E+00  0.00000000E+00
  0.00000000E+00  0.00000000E+00  0.00000000E+00
  0.00000000E+00  0.00000000E+00  0.00000000E+00
  0.00000000E+00  0.00000000E+00  0.00000000E+00
  0.00000000E+00  0.00000000E+00  0.00000000E+00
  0.00000000E+00  0.00000000E+00  0.00000000E+00
  0.00000000E+00  0.00000000E+00  0.00000000E+00
  0.00000000E+00  0.00000000E+00  0.00000000E+00
  0.00000000E+00  0.00000000E+00  0.00000000E+00
  0.00000000E+00  0.00000000E+00  0.00000000E+00
  0.00000000E+00  0.00000000E+00  0.00000000E+00
  0.00000000E+00  0.00000000E+00  0.00000000E+00
  0.00000000E+00  0.00000000E+00  0.00000000E+00
  0.00000000E+00  0.00000000E+00  0.00000000E+00
  0.00000000E+00  0.00000000E+00  0.00000000E+00
  0.00000000E+00  0.00000000E+00  0.00000000E+00
  0.00000000E+00  0.00000000E+00  0.00000000E+00
  0.00000000E+00  0.00000000E+00  0.00000000E+00
  0.00000000E+00  0.00000000E+00  0.00000000E+00
  0.00000000E+00  0.00000000E+00  0.00000000E+00
  0.00000000E+00  0.00000000E+00  0.00000000E+00
  0.00000000E+00  0.00000000E+00  0.00000000E+00
  0.00000000E+00  0.00000000E+00  0.00000000E+00
  0.00000000E+00  0.00000000E+00  0.00000000E+00
  0.00000000E+00  0.00000000E+00  0.00000000E+00
  0.00000000E+00  0.00000000E+00  0.00000000E+00
  0.00000000E+00  0.00000000E+00  0.00000000E+00
  0.00000000E+00  0.00000000E+00  0.00000000E+00
  0.00000000E+00  0.00000000E+00  0.00000000E+00
  0.00000000E+00  0.00000000E+00  0.00000000E+00
  0.00000000E+00  0.00000000E+00  0.00000000E+00
  0.00000000E+00  0.00000000E+00  0.00000000E+00
  0.00000000E+00  0.00000000E+00  0.00000000E+00
  0.00000000E+00  0.00000000E+00  0.00000000E+00
  0.00000000E+00  0.00000000E+00  0.00000000E+00
  0.00000000E+00  0.00000000E+00  0.00000000E+00
  0.00000000E+00  0.00000000E+00  0.00000000E+00
  0.00000000E+00  0.00000000E+00  0.00000000E+00
  0.00000000E+00  0.00000000E+00  0.00000000E+00
  0.00000000E+00  0.00000000E+00  0.00000000E+00
  0.00000000E+00  0.00000000E+00  0.00000000E+00
  0.00000000E+00  0.00000000E+00  0.00000000E+00
  0.00000000E+00  0.00000000E+00  0.00000000E+00
  0.00000000E+00  0.00000000E+00  0.00000000E+00
  0.00000000E+00  0.00000000E+00  0.00000000E+00
  0.00000000E+00  0.00000000E+00  0.00000000E+00
  0.00000000E+00  0.00000000E+00  0.00000000E+00
  0.00000000E+00  0.00000000E+00  0.00000000E+00
  0.00000000E+00  0.00000000E+00  0.00000000E+00
  0.00000000E+00  0.00000000E+00  0.00000000E+00
  0.00000000E+00  0.00000000E+00  0.00000000E+00
  0.00000000E+00  0.00000000E+00  0.00000000E+00
  0.00000000E+00  0.00000000E+00  0.00000000E+00
  0.00000000E+00  0.00000000E+00  0.00000000E+00
  0.00000000E+00  0.00000000E+00  0.00000000E+00
  0.00000000E+00  0.00000000E+00  0.00000000E+00
  0.00000000E+00  0.00000000E+00  0.00000000E+00
  0.00000000E+00  0.00000000E+00  0.00000000E+00
  0.00000000E+00  0.00000000E+00  0.00000000E+00
  0.00000000E+00  0.00000000E+00  0.00000000E+00
  0.00000000E+00  0.00000000E+00  0.00000000E+00
  0.00000000E+00  0.00000000E+00  0.00000000E+00
  0.00000000E+00  0.00000000E+00  0.00000000E+00
  0.00000000E+00  0.00000000E+00  0.00000000E+00
  0.00000000E+00  0.00000000E+00  0.00000000E+00
  0.00000000E+00  0.00000000E+00  0.00000000E+00
  0.00000000E+00  0.00000000E+00  0.00000000E+00
  0.00000000E+00  0.00000000E+00  0.00000000E+00
  0.00000000E+00  0.00000000E+00  0.00000000E+00
  0.00000000E+00  0.00000000E+00  0.00000000E+00
  0.00000000E+00  0.00000000E+00  0.00000000E+00
  0.00000000E+00  0.00000000E+00  0.00000000E+00
  0.00000000E+00  0.00000000E+00  0.00000000E+00
  0.00000000E+00  0.00000000E+00  0.00000000E+00
  0.00000000E+00  0.00000000E+00  0.00000000E+00
  0.00000000E+00  0.00000000E+00  0.00000000E+00
  0.00000000E+00  0.00000000E+00  0.00000000E+00
  0.00000000E+00  0.00000000E+00  0.00000000E+00
  0.00000000E+00  0.00000000E+00  0.00000000E+00
  0.00000000E+00  0.00000000E+00  0.00000000E+00
  0.00000000E+00  0.00000000E+00  0.00000000E+00
  0.00000000E+00  0.00000000E+00  0.00000000E+00
  0.00000000E+00  0.00000000E+00  0.00000000E+00
  0.00000000E+00  0.00000000E+00  0.00000000E+00
  0.00000000E+00  0.00000000E+00  0.00000000E+00
  0.00000000E+00  0.00000000E+00  0.00000000E+00
  0.00000000E+00  0.00000000E+00  0.00000000E+00
  0.00000000E+00  0.00000000E+00  0.00000000E+00
  0.00000000E+00  0.00000000E+00  0.00000000E+00
  0.00000000E+00  0.00000000E+00  0.00000000E+00
  0.00000000E+00  0.00000000E+00  0.00000000E+00
  0.00000000E+00  0.00000000E+00  0.00000000E+00
  0.00000000E+00  0.00000000E+00  0.00000000E+00
  0.00000000E+00  0.00000000E+00  0.00000000E+00
  0.00000000E+00  0.00000000E+00  0.00000000E+00
  0.00000000E+00  0.00000000E+00  0.00000000E+00
  0.00000000E+00  0.00000000E+00  0.00000000E+00
  0.00000000E+00  0.00000000E+00  0.00000000E+00
  0.00000000E+00  0.00000000E+00  0.00000000E+00
  0.00000000E+00  0.00000000E+00  0.00000000E+00
  0.00000000E+00  0.00000000E+00  0.00000000E+00
  0.00000000E+00  0.00000000E+00  0.00000000E+00
  0.00000000E+00  0.00000000E+00  0.00000000E+00
  0.00000000E+00  0.00000000E+00  0.00000000E+00
  0.00000000E+00  0.00000000E+00  0.00000000E+00
  0.00000000E+00  0.00000000E+00  0.00000000E+00
  0.00000000E+00  0.00000000E+00  0.00000000E+00
  0.00000000E+00  0.00000000E+00  0.00000000E+00
  0.00000000E+00  0.00000000E+00  0.00000000E+00
  0.00000000E+00  0.00000000E+00  0.00000000E+00
  0.00000000E+00  0.00000000E+00  0.00000000E+00
  0.00000000E+00  0.00000000E+00  0.00000000E+00
  0.00000000E+00  0.00000000E+00  0.00000000E+00
  0.00000000E+00  0.00000000E+00  0.00000000E+00
  0.00000000E+00  0.00000000E+00  0.00000000E+00
  0.00000000E+00  0.00000000E+00  0.00000000E+00
  0.00000000E+00  0.00000000E+00  0.00000000E+00
  0.00000000E+00  0.00000000E+00  0.00000000E+00
  0.00000000E+00  0.00000000E+00  0.00000000E+00
  0.00000000E+00  0.00000000E+00  0.00000000E+00
  0.00000000E+00  0.00000000E+00  0.00000000E+00
  0.00000000E+00  0.00000000E+00  0.00000000E+00
  0.00000000E+00  0.00000000E+00  0.00000000E+00
  0.00000000E+00  0.00000000E+00  0.00000000E+00
  0.00000000E+00  0.00000000E+00  0.00000000E+00
  0.00000000E+00  0.00000000E+00  0.00000000E+00
  0.00000000E+00  0.00000000E+00  0.00000000E+00
  0.00000000E+00  0.00000000E+00  0.00000000E+00
  0.00000000E+00  0.00000000E+00  0.00000000E+00
  0.00000000E+00  0.00000000E+00  0.00000000E+00
  0.00000000E+00  0.00000000E+00  0.00000000E+00
  0.00000000E+00  0.00000000E+00  0.00000000E+00
  0.00000000E+00  0.00000000E+00  0.00000000E+00
  0.00000000E+00  0.00000000E+00  0.00000000E+00
  0.00000000E+00  0.00000000E+00  0.00000000E+00
  0.00000000E+00  0.00000000E+00  0.00000000E+00
  0.00000000E+00  0.00000000E+00  0.00000000E+00
  0.00000000E+00  0.00000000E+00  0.00000000E+00
  0.00000000E+00  0.00000000E+00  0.00000000E+00
  0.00000000E+00  0.00000000E+00  0.00000000E+00
  0.00000000E+00  0.00000000E+00  0.00000000E+00
  0.00000000E+00  0.00000000E+00  0.00000000E+00
  0.00000000E+00  0.00000000E+00  0.00000000E+00
  0.00000000E+00  0.00000000E+00  0.00000000E+00
  0.00000000E+00  0.00000000E+00  0.00000000E+00
  0.00000000E+00  0.00000000E+00  0.00000000E+00
  0.00000000E+00  0.00000000E+00  0.00000000E+00
  0.00000000E+00  0.00000000E+00  0.00000000E+00
  0.00000000E+00  0.00000000E+00  0.00000000E+00
  0.00000000E+00  0.00000000E+00  0.00000000E+00
  0.00000000E+00  0.00000000E+00  0.00000000E+00
  0.00000000E+00  0.00000000E+00  0.00000000E+00
  0.00000000E+00  0.00000000E+00  0.00000000E+00
  0.00000000E+00  0.00000000E+00  0.00000000E+00
  0.00000000E+00  0.00000000E+00  0.00000000E+00
  0.00000000E+00  0.00000000E+00  0.00000000E+00
  0.00000000E+00  0.00000000E+00  0.00000000E+00
  0.00000000E+00  0.00000000E+00  0.00000000E+00
  0.00000000E+00  0.00000000E+00  0.00000000E+00
  0.00000000E+00  0.00000000E+00  0.00000000E+00
  0.00000000E+00  0.00000000E+00  0.00000000E+00
  0.00000000E+00  0.00000000E+00  0.00000000E+00
  0.00000000E+00  0.00000000E+00  0.00000000E+00
  0.00000000E+00  0.00000000E+00  0.00000000E+00
  0.00000000E+00  0.00000000E+00  0.00000000E+00
  0.00000000E+00  0.00000000E+00  0.00000000E+00
  0.00000000E+00  0.00000000E+00  0.00000000E+00
  0.00000000E+00  0.00000000E+00  0.00000000E+00
  0.00000000E+00  0.00000000E+00  0.00000000E+00
  0.00000000E+00  0.00000000E+00  0.00000000E+00
  0.00000000E+00  0.00000000E+00  0.00000000E+00
  0.00000000E+00  0.00000000E+00  0.00000000E+00
  0.00000000E+00  0.00000000E+00  0.00000000E+00
  0.00000000E+00  0.00000000E+00  0.00000000E+00
  0.00000000E+00  0.00000000E+00  0.00000000E+00
  0.00000000E+00  0.00000000E+00  0.00000000E+00
  0.00000000E+00  0.00000000E+00  0.00000000E+00
  0.00000000E+00  0.00000000E+00  0.00000000E+00
  0.00000000E+00  0.00000000E+00  0.00000000E+00
  0.00000000E+00  0.00000000E+00  0.00000000E+00
  0.00000000E+00  0.00000000E+00  0.00000000E+00
  0.00000000E+00  0.00000000E+00  0.00000000E+00
  0.00000000E+00  0.00000000E+00  0.00000000E+00
  0.00000000E+00  0.00000000E+00  0.00000000E+00
  0.00000000E+00  0.00000000E+00  0.00000000E+00
  0.00000000E+00  0.00000000E+00  0.00000000E+00
  0.00000000E+00  0.00000000E+00  0.00000000E+00
  0.00000000E+00  0.00000000E+00  0.00000000E+00
  0.00000000E+00  0.00000000E+00  0.00000000E+00
  0.00000000E+00  0.00000000E+00  0.00000000E+00
  0.00000000E+00  0.00000000E+00  0.00000000E+00
  0.00000000E+00  0.00000000E+00  0.00000000E+00
  0.00000000E+00  0.00000000E+00  0.00000000E+00
  0.00000000E+00  0.00000000E+00  0.00000000E+00
  0.00000000E+00  0.00000000E+00  0.00000000E+00
  0.00000000E+00  0.00000000E+00  0.00000000E+00
  0.00000000E+00  0.00000000E+00  0.00000000E+00
  0.00000000E+00  0.00000000E+00  0.00000000E+00
  0.00000000E+00  0.00000000E+00  0.00000000E+00
  0.00000000E+00  0.00000000E+00  0.00000000E+00
  0.00000000E+00  0.00000000E+00  0.00000000E+00
  0.00000000E+00  0.00000000E+00  0.00000000E+00
  0.00000000E+00  0.00000000E+00  0.00000000E+00
  0.00000000E+00  0.00000000E+00  0.00000000E+00
  0.00000000E+00  0.00000000E+00  0.00000000E+00
  0.00000000E+00  0.00000000E+00  0.00000000E+00
  0.00000000E+00  0.00000000E+00  0.00000000E+00
  0.00000000E+00  0.00000000E+00  0.00000000E+00
  0.00000000E+00  0.00000000E+00  0.00000000E+00
  0.00000000E+00  0.00000000E+00  0.00000000E+00
  0.00000000E+00  0.00000000E+00  0.00000000E+00
  0.00000000E+00  0.00000000E+00  0.00000000E+00
  0.00000000E+00  0.00000000E+00  0.00000000E+00
  0.00000000E+00  0.00000000E+00  0.00000000E+00
  0.00000000E+00  0.00000000E+00  0.00000000E+00
  0.00000000E+00  0.00000000E+00  0.00000000E+00
  0.00000000E+00  0.00000000E+00  0.00000000E+00
  0.00000000E+00  0.00000000E+00  0.00000000E+00