Species order: X N B                    
   2.51242800000000     
     5.9449720136058266    0.0000000000000000    0.0000000000000000
    -2.9724860068029120    5.1484967885702053   -0.0000000000000001
     0.0000000000000000    0.0000000000000009    5.3101128803662583
   In   N    B 
     1   143   143
Direct
  0.4884007461333337  0.4108670397333310  0.3750000000000000
  0.1111502746846193  0.0555618274918384  0.1247539694561340
  0.6111559247390745  0.5556081905854794  0.1259354044231776
  0.4444592591128737  0.0555271614327253  0.1248159655379494
  0.9444736560057151  0.5555734922498082  0.1250316449218908
  0.7778002564070239  0.0555667948701792  0.1248730343754283
  0.1111290247426044  0.7222311790379667  0.6250829892327093
  0.4444592591128737  0.7222654310134844  0.6251840344620503
  0.2778367982783572  0.2222360739195997  0.6250524002149171
  0.7778143730344035  0.7222479127268970  0.6247907279036180
  0.6111277547355743  0.2221938743805270  0.6249690054475585
  0.9444838890872616  0.2222433217464131  0.6251393338883445
  0.2777878660178939  0.7222405901009560  0.1248922425919673
  0.1111753290587728  0.2222543311960508  0.1247832101105423
  0.4444982449295871  0.2222015770244446  0.1251476590532725
  0.6111277547355743  0.7222672136883754  0.1250309945524419
  0.9444736560057151  0.7222334970892417  0.1250316449218908
  0.7777987450702666  0.2222318298934234  0.1249427744882388
  0.1111331244808850  0.8888913152109426  0.6251118301647506
  0.4444528171758966  0.8888930752546125  0.6251067770592734
  0.2778367982783572  0.3889340576920859  0.6250524002149171
  0.6111559247390745  0.3888810674869251  0.6240645955768233
  0.7777987450702666  0.8889002485101706  0.6250572255117610
  0.9444808399067697  0.3889082196940650  0.6250813929298249
  0.1111502746846193  0.3889217805261095  0.1247539694561340
  0.2777878660178939  0.8888806092502681  0.1248922425919673
  0.6111223556936866  0.8889133823731392  0.1248681004231548
  0.4446133958632391  0.3889733645982836  0.1287780987999487
  0.9444808399067697  0.8889059535460350  0.1249186070701747
  0.7778143730344035  0.3888997936408347  0.1252092720963808
  0.2778051770655701  0.5555967325712464  0.6251982662639757
  0.1111502746846193  0.0555618274918384  0.6252460305438649
  0.6111559247390745  0.5556081905854794  0.6240645955768233
  0.4444592591128737  0.0555271614327253  0.6251840344620503
  0.9444736560057151  0.5555734922498082  0.6249683550781095
  0.1111331244808850  0.5555751426032697  0.1248881698352494
  0.7778002564070239  0.0555667948701792  0.6251269656245712
  0.2778051770655701  0.0555417778276598  0.1248017337360249
  0.4444982449295871  0.5556300012384786  0.1251476590532725
  0.7778057535535244  0.5555695434434303  0.1254851974773040
  0.6111223556936866  0.0555423066538758  0.1248681004231548
  0.4444982449295871  0.5556300012384786  0.6248523409467268
  0.9444838890872616  0.0555739006741852  0.1248606661116560
  0.2777878660178939  0.7222405901009560  0.6251077574080329
  0.1111753290587728  0.2222543311960508  0.6252167898894565
  0.4444982449295871  0.2222015770244446  0.6248523409467268
  0.6111277547355743  0.7222672136883754  0.6249690054475585
  0.9444736560057151  0.7222334970892417  0.6249683550781095
  0.7777987450702666  0.2222318298934234  0.6250572255117610
  0.1111290247426044  0.7222311790379667  0.1249170107672903
  0.4444592591128737  0.7222654310134844  0.1248159655379494
  0.2778367982783572  0.2222360739195997  0.1249475997850819
  0.7778143730344035  0.7222479127268970  0.1252092720963808
  0.6111277547355743  0.2221938743805270  0.1250309945524419
  0.9444838890872616  0.2222433217464131  0.1248606661116560
  0.1111502746846193  0.3889217805261095  0.6252460305438649
  0.2777878660178939  0.8888806092502681  0.6251077574080329
  0.6111223556936866  0.8889133823731392  0.6251318995768449
  0.4446133958632391  0.3889733645982836  0.6212219012000506
  0.9444808399067697  0.8889059535460350  0.6250813929298249
  0.1111331244808850  0.8888913152109426  0.1248881698352494
  0.7778143730344035  0.3888997936408347  0.6247907279036180
  0.4444528171758966  0.8888930752546125  0.1248932229407262
  0.2778367982783572  0.3889340576920859  0.1249475997850819
  0.2778051770655701  0.5555967325712464  0.1248017337360249
  0.6111559247390745  0.3888810674869251  0.1259354044231777
  0.7777987450702666  0.8889002485101706  0.1249427744882388
  0.9444808399067697  0.3889082196940650  0.1249186070701747
  0.1111331244808850  0.5555751426032697  0.6251118301647506
  0.2778051770655701  0.0555417778276598  0.6251982662639757
  0.7778057535535244  0.5555695434434303  0.6245148025226960
  0.6111223556936866  0.0555423066538758  0.6251318995768449
  0.9444838890872616  0.0555739006741852  0.6251393338883445
  0.0575405260248897  0.1121779864762212  0.3750000000000000
  0.5562101446770330  0.6167115823409441  0.3750000000000000
  0.3881310724314026  0.1042585843784692  0.3750000000000000
  0.8887966820498073  0.6110650076915739  0.3750000000000000
  0.7241419311311446  0.1114136958554448  0.3750000000000000
  0.0555510280375339  0.7777784632433717  0.8750000000000000
  0.3888851053199993  0.7777773087423049  0.8750000000000000
  0.2222015494840309  0.2777674414086836  0.8750000000000000
  0.7222276100954852  0.7777907713050484  0.8750000000000000
  0.5555496899277665  0.2777744188981686  0.8750000000000000
  0.8888908479997716  0.2777773855569295  0.8750000000000000
  0.2213804565163291  0.7773568949248332  0.3750000000000000
  0.0575405260248897  0.2786958728820045  0.3750000000000000
  0.3856168541943088  0.2631036420225895  0.3750000000000000
  0.5566501965789191  0.7810207688009519  0.3750000000000000
  0.8900702446763253  0.7789436451191667  0.3750000000000000
  0.7241044013919979  0.2771121566128562  0.3750000000000000
  0.0555522449225939  0.9444475779369760  0.8750000000000000
  0.3888851053199993  0.9444411299110296  0.8750000000000000
  0.2222137078201635  0.4444340101592272  0.8750000000000000
  0.5555432100745216  0.4444382717039251  0.8750000000000000
  0.7222180522769565  0.9444478662708492  0.8750000000000000
  0.8888842205632079  0.4444358653540495  0.8750000000000000
  0.0557637567045825  0.4450218577809860  0.3750000000000000
  0.2212854221046570  0.9423852562836775  0.3750000000000000
  0.5566330194858333  0.9449831764095796  0.3750000000000000
  0.3856168541943089  0.4558465455050557  0.3750000000000000
  0.8907281318978921  0.9459744660141447  0.3750000000000000
  0.7245460241882297  0.4444719424654558  0.3750000000000000
  0.2222122897749092  0.6111027636597758  0.8750000000000000
  0.0555434396273511  0.1111061797354664  0.8750000000000000
  0.5555496899277665  0.6111086043629331  0.8750000000000000
  0.3888804785574699  0.1111040984488516  0.8750000000000000
  0.8888972791033665  0.6111153062183547  0.8750000000000000
  0.0549795771412424  0.6111048298700733  0.3750000000000000
  0.7222180522769565  0.1111035193394401  0.8750000000000000
  0.2213585251915710  0.1083769766206556  0.3750000000000000
  0.3881310724314027  0.6172058213862767  0.3750000000000000
  0.7245460241882297  0.6134074150561112  0.3750000000000000
  0.5566501965789191  0.1089627611113022  0.3750000000000000
  0.3888804785574699  0.6111097134419627  0.8750000000000000
  0.8910240951910314  0.1121787142621867  0.3750000000000000
  0.2222181649458170  0.7777757491395763  0.8750000000000000
  0.0555434396273511  0.2777705932252201  0.8750000000000000
  0.3888868792707961  0.2777874186951743  0.8750000000000000
  0.5555537498769801  0.7777756554431783  0.8750000000000000
  0.8888842205632079  0.7777816885424941  0.8750000000000000
  0.7222276100954852  0.2777701721237723  0.8750000000000000
  0.0549795771412424  0.7772080806045043  0.3750000000000000
  0.3886643514093998  0.7795315471192511  0.3750000000000000
  0.2251842454718024  0.2792587894025688  0.3750000000000000
  0.7241044013919979  0.7803255781124784  0.3750000000000000
  0.5562101446770330  0.2728318956694238  0.3750000000000000
  0.8907281318978921  0.2780869992170835  0.3750000000000000
  0.0555522449225939  0.4444380003189459  0.8750000000000000
  0.2222122897749092  0.9444428594484710  0.8750000000000000
  0.5555524139667497  0.9444428736500393  0.8750000000000000
  0.3888868792707961  0.4444327939089585  0.8750000000000000
  0.8888908479997716  0.9444467957761787  0.8750000000000000
  0.0557637567045825  0.9440752322569258  0.3750000000000000
  0.7222176179794111  0.4444426246124550  0.8750000000000000
  0.3886643514093998  0.9424661376234844  0.3750000000000000
  0.2213585251915709  0.4463148819042508  0.3750000000000000
  0.2212854221046570  0.6122334991543164  0.3750000000000000
  0.7241419311311446  0.9460615686090363  0.3750000000000000
  0.8900702446763253  0.4444599328904930  0.3750000000000000
  0.0555510280375339  0.6111058981274970  0.8750000000000000
  0.2222137078201635  0.1111130309942721  0.8750000000000000
  0.7222176179794111  0.6111083267002907  0.8750000000000000
  0.5555537498769801  0.1111114277671385  0.8750000000000000
  0.8888881367548184  0.1111107350440802  0.8750000000000000
  0.1112854836823440  0.0549094502739339  0.3750000000000000
  0.6193332903230272  0.5728958929577970  0.3750000000000000
  0.4450453224334826  0.0517784913033830  0.3750000000000000
  0.9448767952103623  0.5554880467393737  0.3750000000000000
  0.7802799934186531  0.0568066633759936  0.3750000000000000
  0.1109197295856282  0.7221265314594787  0.8750000000000000
  0.4445186612819853  0.7224199066672692  0.8750000000000000
  0.2777992324725354  0.2220921128729889  0.8750000000000000
  0.7779093384595487  0.7221878129324102  0.8750000000000000
  0.6109211877849412  0.2220772137335919  0.8750000000000000
  0.9445520462260171  0.2224121558891281  0.8750000000000000
  0.2773598093116333  0.7228975667527604  0.3750000000000000
  0.1138990396664983  0.2236161864999133  0.3750000000000000
  0.4419478331423428  0.2124129506507896  0.3750000000000000
  0.6136044887637337  0.7285158802262732  0.3750000000000000
  0.9448767952103623  0.7227220818043241  0.3750000000000000
  0.7802699794633188  0.2218970556164490  0.3750000000000000
  0.1112136864222513  0.8888047609922048  0.8750000000000000
  0.4442348658428797  0.8887840995881039  0.8750000000000000
  0.2777992324725354  0.3890404529328755  0.8750000000000000
  0.6112078438516878  0.3887596126127021  0.8750000000000000
  0.7778930084347568  0.8891208981953890  0.8750000000000000
  0.9442627489537093  0.3887685877510292  0.8750000000000000
  0.1112854836823440  0.3897093667417384  0.3750000000000000
  0.2773598093116336  0.8877955758922025  0.3750000000000000
  0.6131870986824189  0.8914163489896750  0.3750000000000000
  0.9456836608638018  0.8901943811384284  0.3750000000000000
  0.7807364509853310  0.3876998991740283  0.3750000000000000
  0.2775508755793924  0.5554454718982851  0.8750000000000000
  0.1111882733867769  0.0557571196948748  0.8750000000000000
  0.6112078438516877  0.5557815645723139  0.8750000000000000
  0.4445186612819853  0.0554320879480518  0.8750000000000000
  0.9445728076779233  0.5554612947713294  0.8750000000000000
  0.1106948481994790  0.5558908714132291  0.3750000000000000
  0.7775901377034486  0.0554617355183923  0.8750000000000000
  0.2767505769870214  0.0526139102224340  0.3750000000000000
  0.4419478331423427  0.5628682158248881  0.3750000000000000
  0.7796407978895822  0.5564870656114589  0.3750000000000000
  0.6131870986824189  0.0551040830260721  0.3750000000000000
  0.4444917791391995  0.5554610187233652  0.8750000000000000
  0.9468468523690932  0.0571849073547104  0.3750000000000000
  0.2778649500953588  0.7221147049750110  0.8750000000000000
  0.1108831530703245  0.2221082432018264  0.8750000000000000
  0.4444917791391995  0.2223640937491701  0.8750000000000000
  0.6109211877849412  0.7221773073846787  0.8750000000000000
  0.9445728076779233  0.7224448462399294  0.8750000000000000
  0.7778930084347568  0.2221054435726959  0.8750000000000000
  0.1106571118753767  0.7219952226043536  0.3750000000000000
  0.4450453224334826  0.7266001644634356  0.3750000000000000
  0.2775636770621013  0.2194414758799710  0.3750000000000000
  0.7807364509853310  0.7263698851446307  0.3750000000000000
  0.6136044887637337  0.2184219418707874  0.3750000000000000
  0.9468468523690932  0.2229952783477198  0.3750000000000000
  0.1111882733867769  0.3887644870252305  0.8750000000000000
  0.2778649500953588  0.8890835784536757  0.8750000000000000
  0.6112138143892148  0.8888094694561948  0.8750000000000000
  0.4441798917388626  0.3887566125360961  0.8750000000000000
  0.9442627489537093  0.8888274945360094  0.8750000000000000
  0.1106948481994790  0.8881373101195780  0.3750000000000000
  0.7779093384595482  0.3890548588604675  0.8750000000000000
  0.4452450990489384  0.8892892161911348  0.3750000000000000
  0.2775636770621009  0.3914555345154589  0.3750000000000000
  0.2767505769870214  0.5574700000979241  0.3750000000000000
  0.6193332903230272  0.3797707306985577  0.3750000000000000
  0.7802699794633188  0.8917062571801979  0.3750000000000000
  0.9456836608638018  0.3888226130587026  0.3750000000000000
  0.1112136864222513  0.5557422587633746  0.8750000000000000
  0.2775508755793924  0.0554387370144422  0.8750000000000000
  0.7776200430679980  0.5554766882006662  0.8750000000000000
  0.6112138143892148  0.0557376782663478  0.8750000000000000
  0.9445520462260171  0.0554732236702239  0.8750000000000000
  0.0556095417716900  0.1111407243304452  0.1250072969173747
  0.5554666407836976  0.6113441885121874  0.1249842862947336
  0.3887743011557728  0.1108726317588576  0.1249899482445442
  0.8891529827881055  0.6112431580607234  0.1251143511014643
  0.7222409946552416  0.1110649155176398  0.1249992212374530
  0.0556995516775289  0.7778559198027836  0.6249654737917054
  0.3888416929899135  0.7778175763429095  0.6250013654539384
  0.2221829578339105  0.2777581455836232  0.6247780055153741
  0.7222994367884555  0.7779546123786905  0.6249625359736646
  0.5554666407836976  0.2774557856048449  0.6250157137052660
  0.8889822718442277  0.2777746854726264  0.6249747240708881
  0.2222594228522608  0.7777963780927987  0.1251013184007378
  0.0556095417716900  0.2778021507745808  0.1250072969173747
  0.3886163265347551  0.2773588325768789  0.1262956865163825
  0.5554988073992980  0.7779055462918019  0.1249270118617531
  0.8890865645319471  0.7779392135462776  0.1250319749981112
  0.7222994367884555  0.2776781577431014  0.1250374640263359
  0.0556484707371306  0.9445021280309720  0.6249463058157287
  0.3888416929899135  0.9443574499803397  0.6250013654539384
  0.2221904888639599  0.4444940029063633  0.6250102268571088
  0.5557530581118622  0.4445431957225954  0.6244954826817634
  0.7222409946552416  0.9445094124709387  0.6250007787625478
  0.8890865645319471  0.4444806843190049  0.6249680250018882
  0.0556484707371306  0.4444796760394874  0.1250536941842710
  0.2222335215043025  0.9444056917555078  0.1250168058514908
  0.5555195767211347  0.9444264550272321  0.1250368873545330
  0.3886163265347551  0.4445908272912124  0.1262956865163825
  0.8889822718442277  0.9445409197049355  0.1250252759291126
  0.7225038445668617  0.4444973909192689  0.1251014176530913
  0.2222335215043025  0.6111611630821320  0.6249831941485090
  0.0556095417716900  0.1111407243304452  0.6249927030826250
  0.5554666407836976  0.6113441885121874  0.6250157137052660
  0.3887743011557728  0.1108726317588575  0.6250100517554564
  0.8891529827881055  0.6112431580607234  0.6248856488985358
  0.0556995516775289  0.6111769652080797  0.1250345262082943
  0.7222409946552416  0.1110649155176398  0.6250007787625478
  0.2221904888639599  0.1110298192909324  0.1249897731428913
  0.3887743011557728  0.6112350027302594  0.1249899482445442
  0.7225038445668617  0.6113397869809285  0.1251014176530914
  0.5554988073992980  0.1109265944408321  0.1249270118617531
  0.3887743011557728  0.6112350027302594  0.6250100517554564
  0.8889522509032086  0.1111427921182754  0.1250841005615393
  0.2222594228522608  0.7777963780927987  0.6248986815992622
  0.0556095417716899  0.2778021507745808  0.6249927030826250
  0.3886163265347551  0.2773588325768789  0.6237043134836167
  0.5554988073992980  0.7779055462918019  0.6250729881382467
  0.8890865645319471  0.7779392135462776  0.6249680250018882
  0.7222994367884555  0.2776781577431014  0.6249625359736646
  0.0556995516775289  0.7778559198027836  0.1250345262082943
  0.3888416929899135  0.7778175763429095  0.1249986345460623
  0.2221829578339105  0.2777581455836232  0.1252219944846250
  0.7222994367884555  0.7779546123786905  0.1250374640263359
  0.5554666407836976  0.2774557856048449  0.1249842862947336
  0.8889822718442277  0.2777746854726264  0.1250252759291126
  0.0556484707371306  0.4444796760394874  0.6249463058157287
  0.2222335215043025  0.9444056917555078  0.6249831941485090
  0.5555195767211347  0.9444264550272321  0.6249631126454664
  0.3886163265347551  0.4445908272912124  0.6237043134836167
  0.8889822718442277  0.9445409197049355  0.6249747240708881
  0.0556484707371306  0.9445021280309720  0.1250536941842710
  0.7225038445668617  0.4444973909192685  0.6248985823469086
  0.3888416929899135  0.9443574499803397  0.1249986345460623
  0.2221904888639599  0.4444940029063633  0.1249897731428913
  0.2222335215043025  0.6111611630821320  0.1250168058514908
  0.5557530581118622  0.4445431957225954  0.1255045173182367
  0.7222409946552416  0.9445094124709387  0.1249992212374530
  0.8890865645319471  0.4444806843190049  0.1250319749981112
  0.0556995516775289  0.6111769652080797  0.6249654737917054
  0.2221904888639599  0.1110298192909324  0.6250102268571088
  0.7225038445668617  0.6113397869809285  0.6248985823469086
  0.5554988073992980  0.1109265944408321  0.6250729881382467
  0.8889522509032086  0.1111427921182754  0.6249158994384605
 
  0.00000000E+00  0.00000000E+00  0.00000000E+00
  0.00000000E+00  0.00000000E+00  0.00000000E+00
  0.00000000E+00  0.00000000E+00  0.00000000E+00
  0.00000000E+00  0.00000000E+00  0.00000000E+00
  0.00000000E+00  0.00000000E+00  0.00000000E+00
  0.00000000E+00  0.00000000E+00  0.00000000E+00
  0.00000000E+00  0.00000000E+00  0.00000000E+00
  0.00000000E+00  0.00000000E+00  0.00000000E+00
  0.00000000E+00  0.00000000E+00  0.00000000E+00
  0.00000000E+00  0.00000000E+00  0.00000000E+00
  0.00000000E+00  0.00000000E+00  0.00000000E+00
  0.00000000E+00  0.00000000E+00  0.00000000E+00
  0.00000000E+00  0.00000000E+00  0.00000000E+00
  0.00000000E+00  0.00000000E+00  0.00000000E+00
  0.00000000E+00  0.00000000E+00  0.00000000E+00
  0.00000000E+00  0.00000000E+00  0.00000000E+00
  0.00000000E+00  0.00000000E+00  0.00000000E+00
  0.00000000E+00  0.00000000E+00  0.00000000E+00
  0.00000000E+00  0.00000000E+00  0.00000000E+00
  0.00000000E+00  0.00000000E+00  0.00000000E+00
  0.00000000E+00  0.00000000E+00  0.00000000E+00
  0.00000000E+00  0.00000000E+00  0.00000000E+00
  0.00000000E+00  0.00000000E+00  0.00000000E+00
  0.00000000E+00  0.00000000E+00  0.00000000E+00
  0.00000000E+00  0.00000000E+00  0.00000000E+00
  0.00000000E+00  0.00000000E+00  0.00000000E+00
  0.00000000E+00  0.00000000E+00  0.00000000E+00
  0.00000000E+00  0.00000000E+00  0.00000000E+00
  0.00000000E+00  0.00000000E+00  0.00000000E+00
  0.00000000E+00  0.00000000E+00  0.00000000E+00
  0.00000000E+00  0.00000000E+00  0.00000000E+00
  0.00000000E+00  0.00000000E+00  0.00000000E+00
  0.00000000E+00  0.00000000E+00  0.00000000E+00
  0.00000000E+00  0.00000000E+00  0.00000000E+00
  0.00000000E+00  0.00000000E+00  0.00000000E+00
  0.00000000E+00  0.00000000E+00  0.00000000E+00
  0.00000000E+00  0.00000000E+00  0.00000000E+00
  0.00000000E+00  0.00000000E+00  0.00000000E+00
  0.00000000E+00  0.00000000E+00  0.00000000E+00
  0.00000000E+00  0.00000000E+00  0.00000000E+00
  0.00000000E+00  0.00000000E+00  0.00000000E+00
  0.00000000E+00  0.00000000E+00  0.00000000E+00
  0.00000000E+00  0.00000000E+00  0.00000000E+00
  0.00000000E+00  0.00000000E+00  0.00000000E+00
  0.00000000E+00  0.00000000E+00  0.00000000E+00
  0.00000000E+00  0.00000000E+00  0.00000000E+00
  0.00000000E+00  0.00000000E+00  0.00000000E+00
  0.00000000E+00  0.00000000E+00  0.00000000E+00
  0.00000000E+00  0.00000000E+00  0.00000000E+00
  0.00000000E+00  0.00000000E+00  0.00000000E+00
  0.00000000E+00  0.00000000E+00  0.00000000E+00
  0.00000000E+00  0.00000000E+00  0.00000000E+00
  0.00000000E+00  0.00000000E+00  0.00000000E+00
  0.00000000E+00  0.00000000E+00  0.00000000E+00
  0.00000000E+00  0.00000000E+00  0.00000000E+00
  0.00000000E+00  0.00000000E+00  0.00000000E+00
  0.00000000E+00  0.00000000E+00  0.00000000E+00
  0.00000000E+00  0.00000000E+00  0.00000000E+00
  0.00000000E+00  0.00000000E+00  0.00000000E+00
  0.00000000E+00  0.00000000E+00  0.00000000E+00
  0.00000000E+00  0.00000000E+00  0.00000000E+00
  0.00000000E+00  0.00000000E+00  0.00000000E+00
  0.00000000E+00  0.00000000E+00  0.00000000E+00
  0.00000000E+00  0.00000000E+00  0.00000000E+00
  0.00000000E+00  0.00000000E+00  0.00000000E+00
  0.00000000E+00  0.00000000E+00  0.00000000E+00
  0.00000000E+00  0.00000000E+00  0.00000000E+00
  0.00000000E+00  0.00000000E+00  0.00000000E+00
  0.00000000E+00  0.00000000E+00  0.00000000E+00
  0.00000000E+00  0.00000000E+00  0.00000000E+00
  0.00000000E+00  0.00000000E+00  0.00000000E+00
  0.00000000E+00  0.00000000E+00  0.00000000E+00
  0.00000000E+00  0.00000000E+00  0.00000000E+00
  0.00000000E+00  0.00000000E+00  0.00000000E+00
  0.00000000E+00  0.00000000E+00  0.00000000E+00
  0.00000000E+00  0.00000000E+00  0.00000000E+00
  0.00000000E+00  0.00000000E+00  0.00000000E+00
  0.00000000E+00  0.00000000E+00  0.00000000E+00
  0.00000000E+00  0.00000000E+00  0.00000000E+00
  0.00000000E+00  0.00000000E+00  0.00000000E+00
  0.00000000E+00  0.00000000E+00  0.00000000E+00
  0.00000000E+00  0.00000000E+00  0.00000000E+00
  0.00000000E+00  0.00000000E+00  0.00000000E+00
  0.00000000E+00  0.00000000E+00  0.00000000E+00
  0.00000000E+00  0.00000000E+00  0.00000000E+00
  0.00000000E+00  0.00000000E+00  0.00000000E+00
  0.00000000E+00  0.00000000E+00  0.00000000E+00
  0.00000000E+00  0.00000000E+00  0.00000000E+00
  0.00000000E+00  0.00000000E+00  0.00000000E+00
  0.00000000E+00  0.00000000E+00  0.00000000E+00
  0.00000000E+00  0.00000000E+00  0.00000000E+00
  0.00000000E+00  0.00000000E+00  0.00000000E+00
  0.00000000E+00  0.00000000E+00  0.00000000E+00
  0.00000000E+00  0.00000000E+00  0.00000000E+00
  0.00000000E+00  0.00000000E+00  0.00000000E+00
  0.00000000E+00  0.00000000E+00  0.00000000E+00
  0.00000000E+00  0.00000000E+00  0.00000000E+00
  0.00000000E+00  0.00000000E+00  0.00000000E+00
  0.00000000E+00  0.00000000E+00  0.00000000E+00
  0.00000000E+00  0.00000000E+00  0.00000000E+00
  0.00000000E+00  0.00000000E+00  0.00000000E+00
  0.00000000E+00  0.00000000E+00  0.00000000E+00
  0.00000000E+00  0.00000000E+00  0.00000000E+00
  0.00000000E+00  0.00000000E+00  0.00000000E+00
  0.00000000E+00  0.00000000E+00  0.00000000E+00
  0.00000000E+00  0.00000000E+00  0.00000000E+00
  0.00000000E+00  0.00000000E+00  0.00000000E+00
  0.00000000E+00  0.00000000E+00  0.00000000E+00
  0.00000000E+00  0.00000000E+00  0.00000000E+00
  0.00000000E+00  0.00000000E+00  0.00000000E+00
  0.00000000E+00  0.00000000E+00  0.00000000E+00
  0.00000000E+00  0.00000000E+00  0.00000000E+00
  0.00000000E+00  0.00000000E+00  0.00000000E+00
  0.00000000E+00  0.00000000E+00  0.00000000E+00
  0.00000000E+00  0.00000000E+00  0.00000000E+00
  0.00000000E+00  0.00000000E+00  0.00000000E+00
  0.00000000E+00  0.00000000E+00  0.00000000E+00
  0.00000000E+00  0.00000000E+00  0.00000000E+00
  0.00000000E+00  0.00000000E+00  0.00000000E+00
  0.00000000E+00  0.00000000E+00  0.00000000E+00
  0.00000000E+00  0.00000000E+00  0.00000000E+00
  0.00000000E+00  0.00000000E+00  0.00000000E+00
  0.00000000E+00  0.00000000E+00  0.00000000E+00
  0.00000000E+00  0.00000000E+00  0.00000000E+00
  0.00000000E+00  0.00000000E+00  0.00000000E+00
  0.00000000E+00  0.00000000E+00  0.00000000E+00
  0.00000000E+00  0.00000000E+00  0.00000000E+00
  0.00000000E+00  0.00000000E+00  0.00000000E+00
  0.00000000E+00  0.00000000E+00  0.00000000E+00
  0.00000000E+00  0.00000000E+00  0.00000000E+00
  0.00000000E+00  0.00000000E+00  0.00000000E+00
  0.00000000E+00  0.00000000E+00  0.00000000E+00
  0.00000000E+00  0.00000000E+00  0.00000000E+00
  0.00000000E+00  0.00000000E+00  0.00000000E+00
  0.00000000E+00  0.00000000E+00  0.00000000E+00
  0.00000000E+00  0.00000000E+00  0.00000000E+00
  0.00000000E+00  0.00000000E+00  0.00000000E+00
  0.00000000E+00  0.00000000E+00  0.00000000E+00
  0.00000000E+00  0.00000000E+00  0.00000000E+00
  0.00000000E+00  0.00000000E+00  0.00000000E+00
  0.00000000E+00  0.00000000E+00  0.00000000E+00
  0.00000000E+00  0.00000000E+00  0.00000000E+00
  0.00000000E+00  0.00000000E+00  0.00000000E+00
  0.00000000E+00  0.00000000E+00  0.00000000E+00
  0.00000000E+00  0.00000000E+00  0.00000000E+00
  0.00000000E+00  0.00000000E+00  0.00000000E+00
  0.00000000E+00  0.00000000E+00  0.00000000E+00
  0.00000000E+00  0.00000000E+00  0.00000000E+00
  0.00000000E+00  0.00000000E+00  0.00000000E+00
  0.00000000E+00  0.00000000E+00  0.00000000E+00
  0.00000000E+00  0.00000000E+00  0.00000000E+00
  0.00000000E+00  0.00000000E+00  0.00000000E+00
  0.00000000E+00  0.00000000E+00  0.00000000E+00
  0.00000000E+00  0.00000000E+00  0.00000000E+00
  0.00000000E+00  0.00000000E+00  0.00000000E+00
  0.00000000E+00  0.00000000E+00  0.00000000E+00
  0.00000000E+00  0.00000000E+00  0.00000000E+00
  0.00000000E+00  0.00000000E+00  0.00000000E+00
  0.00000000E+00  0.00000000E+00  0.00000000E+00
  0.00000000E+00  0.00000000E+00  0.00000000E+00
  0.00000000E+00  0.00000000E+00  0.00000000E+00
  0.00000000E+00  0.00000000E+00  0.00000000E+00
  0.00000000E+00  0.00000000E+00  0.00000000E+00
  0.00000000E+00  0.00000000E+00  0.00000000E+00
  0.00000000E+00  0.00000000E+00  0.00000000E+00
  0.00000000E+00  0.00000000E+00  0.00000000E+00
  0.00000000E+00  0.00000000E+00  0.00000000E+00
  0.00000000E+00  0.00000000E+00  0.00000000E+00
  0.00000000E+00  0.00000000E+00  0.00000000E+00
  0.00000000E+00  0.00000000E+00  0.00000000E+00
  0.00000000E+00  0.00000000E+00  0.00000000E+00
  0.00000000E+00  0.00000000E+00  0.00000000E+00
  0.00000000E+00  0.00000000E+00  0.00000000E+00
  0.00000000E+00  0.00000000E+00  0.00000000E+00
  0.00000000E+00  0.00000000E+00  0.00000000E+00
  0.00000000E+00  0.00000000E+00  0.00000000E+00
  0.00000000E+00  0.00000000E+00  0.00000000E+00
  0.00000000E+00  0.00000000E+00  0.00000000E+00
  0.00000000E+00  0.00000000E+00  0.00000000E+00
  0.00000000E+00  0.00000000E+00  0.00000000E+00
  0.00000000E+00  0.00000000E+00  0.00000000E+00
  0.00000000E+00  0.00000000E+00  0.00000000E+00
  0.00000000E+00  0.00000000E+00  0.00000000E+00
  0.00000000E+00  0.00000000E+00  0.00000000E+00
  0.00000000E+00  0.00000000E+00  0.00000000E+00
  0.00000000E+00  0.00000000E+00  0.00000000E+00
  0.00000000E+00  0.00000000E+00  0.00000000E+00
  0.00000000E+00  0.00000000E+00  0.00000000E+00
  0.00000000E+00  0.00000000E+00  0.00000000E+00
  0.00000000E+00  0.00000000E+00  0.00000000E+00
  0.00000000E+00  0.00000000E+00  0.00000000E+00
  0.00000000E+00  0.00000000E+00  0.00000000E+00
  0.00000000E+00  0.00000000E+00  0.00000000E+00
  0.00000000E+00  0.00000000E+00  0.00000000E+00
  0.00000000E+00  0.00000000E+00  0.00000000E+00
  0.00000000E+00  0.00000000E+00  0.00000000E+00
  0.00000000E+00  0.00000000E+00  0.00000000E+00
  0.00000000E+00  0.00000000E+00  0.00000000E+00
  0.00000000E+00  0.00000000E+00  0.00000000E+00
  0.00000000E+00  0.00000000E+00  0.00000000E+00
  0.00000000E+00  0.00000000E+00  0.00000000E+00
  0.00000000E+00  0.00000000E+00  0.00000000E+00
  0.00000000E+00  0.00000000E+00  0.00000000E+00
  0.00000000E+00  0.00000000E+00  0.00000000E+00
  0.00000000E+00  0.00000000E+00  0.00000000E+00
  0.00000000E+00  0.00000000E+00  0.00000000E+00
  0.00000000E+00  0.00000000E+00  0.00000000E+00
  0.00000000E+00  0.00000000E+00  0.00000000E+00
  0.00000000E+00  0.00000000E+00  0.00000000E+00
  0.00000000E+00  0.00000000E+00  0.00000000E+00
  0.00000000E+00  0.00000000E+00  0.00000000E+00
  0.00000000E+00  0.00000000E+00  0.00000000E+00
  0.00000000E+00  0.00000000E+00  0.00000000E+00
  0.00000000E+00  0.00000000E+00  0.00000000E+00
  0.00000000E+00  0.00000000E+00  0.00000000E+00
  0.00000000E+00  0.00000000E+00  0.00000000E+00
  0.00000000E+00  0.00000000E+00  0.00000000E+00
  0.00000000E+00  0.00000000E+00  0.00000000E+00
  0.00000000E+00  0.00000000E+00  0.00000000E+00
  0.00000000E+00  0.00000000E+00  0.00000000E+00
  0.00000000E+00  0.00000000E+00  0.00000000E+00
  0.00000000E+00  0.00000000E+00  0.00000000E+00
  0.00000000E+00  0.00000000E+00  0.00000000E+00
  0.00000000E+00  0.00000000E+00  0.00000000E+00
  0.00000000E+00  0.00000000E+00  0.00000000E+00
  0.00000000E+00  0.00000000E+00  0.00000000E+00
  0.00000000E+00  0.00000000E+00  0.00000000E+00
  0.00000000E+00  0.00000000E+00  0.00000000E+00
  0.00000000E+00  0.00000000E+00  0.00000000E+00
  0.00000000E+00  0.00000000E+00  0.00000000E+00
  0.00000000E+00  0.00000000E+00  0.00000000E+00
  0.00000000E+00  0.00000000E+00  0.00000000E+00
  0.00000000E+00  0.00000000E+00  0.00000000E+00
  0.00000000E+00  0.00000000E+00  0.00000000E+00
  0.00000000E+00  0.00000000E+00  0.00000000E+00
  0.00000000E+00  0.00000000E+00  0.00000000E+00
  0.00000000E+00  0.00000000E+00  0.00000000E+00
  0.00000000E+00  0.00000000E+00  0.00000000E+00
  0.00000000E+00  0.00000000E+00  0.00000000E+00
  0.00000000E+00  0.00000000E+00  0.00000000E+00
  0.00000000E+00  0.00000000E+00  0.00000000E+00
  0.00000000E+00  0.00000000E+00  0.00000000E+00
  0.00000000E+00  0.00000000E+00  0.00000000E+00
  0.00000000E+00  0.00000000E+00  0.00000000E+00
  0.00000000E+00  0.00000000E+00  0.00000000E+00
  0.00000000E+00  0.00000000E+00  0.00000000E+00
  0.00000000E+00  0.00000000E+00  0.00000000E+00
  0.00000000E+00  0.00000000E+00  0.00000000E+00