B C N                                   
   1.0000000000000000     
     8.7639499999999995  -15.1796066749929999    0.0000000000000000
     8.7639499999999995   15.1796066749929999    0.0000000000000000
     0.0000000000000000    0.0000000000000000   15.0000000000000000
   B    C    N 
    48     2    48
Selective dynamics
Direct
  0.9046444525635239  0.9523495248536489  0.1110152097932584   T   T   T
  0.9047510189961909  0.0952507498748106  0.1110429307819672   T   T   T
  0.9047972241565534  0.2381250329589239  0.1110471192490307   T   T   T
  0.9047679421620740  0.3809576005134163  0.1110020110567873   T   T   T
  0.9048878031407168  0.5237971623828723  0.1110034977433589   T   T   T
  0.9050131686724943  0.6667844949776900  0.1110530376065443   T   T   T
  0.9051462818943717  0.8099213667132417  0.1110486300018094   T   T   T
  0.0475944155926598  0.9524073065633402  0.1110157919072230   T   T   T
  0.0476521809133490  0.0953572496284776  0.1110152109832612   T   T   T
  0.0477555192668808  0.2382056142991011  0.1110073387096535   T   T   T
  0.0477740315460839  0.3809798853044604  0.1110245644045471   T   T   T
  0.0477752339914158  0.5237839179204468  0.1110101926198633   T   T   T
  0.0476839404040160  0.6666705896686643  0.1110187203397084   T   T   T
  0.0477152368358052  0.8095872958511141  0.1110024437104365   T   T   T
  0.1904144471688864  0.9522865152031993  0.1110024401744347   T   T   T
  0.1900803435967605  0.0948554615626267  0.1110486279408091   T   T   T
  0.1908012689335655  0.2384639686966868  0.1110136244730743   T   T   T
  0.1908075889213659  0.3810770671843391  0.1110173595546102   T   T   T
  0.1907917090092366  0.5238451959393939  0.1110639951756965   T   T   T
  0.1904070554059434  0.6666779343043316  0.1110659813833824   T   T   T
  0.1904777178398642  0.8095239184981341  0.1110031160484959   T   T   T
  0.3333310777933370  0.9523177009549830  0.1110187174567097   T   T   T
  0.3332172568693118  0.0949885710765012  0.1110530366025475   T   T   T
  0.3323371356338901  0.2369354135711422  0.1110738461697957   T   T   T
  0.3344765316533926  0.3812288341428373  0.1110376502152159   T   T   T
  0.3340096615152723  0.5246088054311137  0.1110630196279285   T   T   T
  0.3331006113212026  0.6669012112907965  0.1110749501780115   T   T   T
  0.3333237177216617  0.8095946291810545  0.1110659796013839   T   T   T
  0.4762177259955539  0.9522263574595873  0.1110101979158651   T   T   T
  0.4762045580381243  0.0951138660842832  0.1110035117633618   T   T   T
  0.4761198048341210  0.2379504278118645  0.1110611249574443   T   T   T
  0.4741540161142238  0.3793764372308569  0.1108951115672611   T   T   T
  0.4753929235578845  0.6659921007357233  0.1110630192989259   T   T   T
  0.4761565910716076  0.8092101208197593  0.1110639951506925   T   T   T
  0.6190218595855393  0.9522276961779278  0.1110245671375502   T   T   T
  0.6190440575235839  0.0952336717439268  0.1110020182747859   T   T   T
  0.6189915116936728  0.2382463063824377  0.1110209622011380   T   T   T
  0.6186537489293100  0.3813480503496878  0.1110086913240177   T   T   T
  0.6206252968341451  0.5258476195967776  0.1108951113932563   T   T   T
  0.6187728234831636  0.6655250662806024  0.1110376478012180   T   T   T
  0.6189246575456588  0.8091941746916338  0.1110173577196123   T   T   T
  0.7617961083028925  0.9522462289831191  0.1110073410636531   T   T   T
  0.7618766679440749  0.0952044648514485  0.1110471187530292   T   T   T
  0.7618669119898119  0.2381347112411882  0.1110628394721405   T   T   T
  0.7617554259975617  0.3810102129333248  0.1110209556241412   T   T   T
  0.7620514412831368  0.5238819671508840  0.1110611177234442   T   T   T
  0.7630663755068564  0.6676645569231096  0.1110738477287904   T   T   T
  0.7615376869723088  0.8092003947684354  0.1110136254930797   T   T   T
  0.4762244877961295  0.5237770509468702  0.1109540523166899   T   T   T
  0.5213783010226968  0.4786234528493020  0.1106266988555422   T   T   T
  0.9524784638741400  0.9049855240094945  0.1110188375529166   T   T   T
  0.9523460753011344  0.0476556448278649  0.1110145599368922   T   T   T
  0.9524821378897510  0.1905434788778977  0.1110274104109287   T   T   T
  0.9525367181925080  0.3333862960337973  0.1110154557328608   T   T   T
  0.9526047893285245  0.4761963591684187  0.1109675759512277   T   T   T
  0.9525874868986028  0.6190965623322683  0.1110160671264750   T   T   T
  0.9525744869877631  0.7620908780115232  0.1110315684257221   T   T   T
  0.0952244926447248  0.9047772729282785  0.1109854571530838   T   T   T
  0.0950161909095070  0.0475232626188565  0.1110188480599181   T   T   T
  0.0954721536701658  0.1907694886178172  0.1109924265200180   T   T   T
  0.0955848772172486  0.3335176937050786  0.1110049831577267   T   T   T
  0.0956121392722778  0.4762334455651088  0.1110223673413198   T   T   T
  0.0953278569573099  0.6190205871324223  0.1110246399765035   T   T   T
  0.0953145244024819  0.7619121817527875  0.1109930919972197   T   T   T
  0.2380894858742091  0.9046871279765161  0.1109930910742176   T   T   T
  0.2379108651604764  0.0474272903672325  0.1110315582187189   T   T   T
  0.2374175107774489  0.1899426481097922  0.1110421677357474   T   T   T
  0.2389734589706303  0.3342224629719773  0.1110078688170635   T   T   T
  0.2389178243186094  0.4763888135830515  0.1110424965251255   T   T   T
  0.2381107337027780  0.6190407000480962  0.1110636222862073   T   T   T
  0.2381308284914763  0.7618708209515238  0.1110339773405065   T   T   T
  0.3809810564585761  0.9046737662616893  0.1110246306925024   T   T   T
  0.3809051429817303  0.0474141439534016  0.1110160726864790   T   T   T
  0.3806019028265121  0.1900186764876119  0.1110523845295736   T   T   T
  0.3793117398799422  0.3317307613691408  0.1110374659285990   T   T   T
  0.3837294859439464  0.4784501860571385  0.1110431289657699   T   T   T
  0.3807454057264658  0.6192563491085314  0.1110476287527210   T   T   T
  0.3809610987249027  0.7618911251522227  0.1110636291682045   T   T   T
  0.5237683307518978  0.9043896637907224  0.1110223726093192   T   T   T
  0.5238052976525798  0.0473967547774740  0.1109675939482236   T   T   T
  0.5237264451503932  0.1902169793102009  0.1110264892219087   T   T   T
  0.5232163804574672  0.3327921476288708  0.1110148813356338   T   T   T
  0.5215513607168629  0.6162720140190520  0.1110431324987660   T   T   T
  0.5236129227189520  0.7610839887643934  0.1110424914981280   T   T   T
  0.6664840615209161  0.9044169069387566  0.1110049818627270   T   T   T
  0.6666154164561997  0.0474649561894833  0.1110154584438585   T   T   T
  0.6666421105688566  0.1904731014592561  0.1110302108163703   T   T   T
  0.6665002399007969  0.3335015182682020  0.1110020051804356   T   T   T
  0.6672097873381317  0.4767853945695346  0.1110148764926314   T   T   T
  0.6682710338198662  0.6206899082700617  0.1110374672366016   T   T   T
  0.6657791404070204  0.7610281908913767  0.1110078640320627   T   T   T
  0.8092321946401817  0.9045295544168324  0.1109924281930193   T   T   T
  0.8094582909571043  0.0475196452722545  0.1110274138769278   T   T   T
  0.8095388549238804  0.1904628025071191  0.1110461320553845   T   T   T
  0.8095285268647440  0.3333595326921444  0.1110302053003702   T   T   T
  0.8097847457308014  0.4762752728846082  0.1110264698929081   T   T   T
  0.8099831570613879  0.6193998482194878  0.1110523838995709   T   T   T
  0.8100590797342090  0.7625841828855530  0.1110421724877436   T   T   T

  0.00000000E+00  0.00000000E+00  0.00000000E+00
  0.00000000E+00  0.00000000E+00  0.00000000E+00
  0.00000000E+00  0.00000000E+00  0.00000000E+00
  0.00000000E+00  0.00000000E+00  0.00000000E+00
  0.00000000E+00  0.00000000E+00  0.00000000E+00
  0.00000000E+00  0.00000000E+00  0.00000000E+00
  0.00000000E+00  0.00000000E+00  0.00000000E+00
  0.00000000E+00  0.00000000E+00  0.00000000E+00
  0.00000000E+00  0.00000000E+00  0.00000000E+00
  0.00000000E+00  0.00000000E+00  0.00000000E+00
  0.00000000E+00  0.00000000E+00  0.00000000E+00
  0.00000000E+00  0.00000000E+00  0.00000000E+00
  0.00000000E+00  0.00000000E+00  0.00000000E+00
  0.00000000E+00  0.00000000E+00  0.00000000E+00
  0.00000000E+00  0.00000000E+00  0.00000000E+00
  0.00000000E+00  0.00000000E+00  0.00000000E+00
  0.00000000E+00  0.00000000E+00  0.00000000E+00
  0.00000000E+00  0.00000000E+00  0.00000000E+00
  0.00000000E+00  0.00000000E+00  0.00000000E+00
  0.00000000E+00  0.00000000E+00  0.00000000E+00
  0.00000000E+00  0.00000000E+00  0.00000000E+00
  0.00000000E+00  0.00000000E+00  0.00000000E+00
  0.00000000E+00  0.00000000E+00  0.00000000E+00
  0.00000000E+00  0.00000000E+00  0.00000000E+00
  0.00000000E+00  0.00000000E+00  0.00000000E+00
  0.00000000E+00  0.00000000E+00  0.00000000E+00
  0.00000000E+00  0.00000000E+00  0.00000000E+00
  0.00000000E+00  0.00000000E+00  0.00000000E+00
  0.00000000E+00  0.00000000E+00  0.00000000E+00
  0.00000000E+00  0.00000000E+00  0.00000000E+00
  0.00000000E+00  0.00000000E+00  0.00000000E+00
  0.00000000E+00  0.00000000E+00  0.00000000E+00
  0.00000000E+00  0.00000000E+00  0.00000000E+00
  0.00000000E+00  0.00000000E+00  0.00000000E+00
  0.00000000E+00  0.00000000E+00  0.00000000E+00
  0.00000000E+00  0.00000000E+00  0.00000000E+00
  0.00000000E+00  0.00000000E+00  0.00000000E+00
  0.00000000E+00  0.00000000E+00  0.00000000E+00
  0.00000000E+00  0.00000000E+00  0.00000000E+00
  0.00000000E+00  0.00000000E+00  0.00000000E+00
  0.00000000E+00  0.00000000E+00  0.00000000E+00
  0.00000000E+00  0.00000000E+00  0.00000000E+00
  0.00000000E+00  0.00000000E+00  0.00000000E+00
  0.00000000E+00  0.00000000E+00  0.00000000E+00
  0.00000000E+00  0.00000000E+00  0.00000000E+00
  0.00000000E+00  0.00000000E+00  0.00000000E+00
  0.00000000E+00  0.00000000E+00  0.00000000E+00
  0.00000000E+00  0.00000000E+00  0.00000000E+00
  0.00000000E+00  0.00000000E+00  0.00000000E+00
  0.00000000E+00  0.00000000E+00  0.00000000E+00
  0.00000000E+00  0.00000000E+00  0.00000000E+00
  0.00000000E+00  0.00000000E+00  0.00000000E+00
  0.00000000E+00  0.00000000E+00  0.00000000E+00
  0.00000000E+00  0.00000000E+00  0.00000000E+00
  0.00000000E+00  0.00000000E+00  0.00000000E+00
  0.00000000E+00  0.00000000E+00  0.00000000E+00
  0.00000000E+00  0.00000000E+00  0.00000000E+00
  0.00000000E+00  0.00000000E+00  0.00000000E+00
  0.00000000E+00  0.00000000E+00  0.00000000E+00
  0.00000000E+00  0.00000000E+00  0.00000000E+00
  0.00000000E+00  0.00000000E+00  0.00000000E+00
  0.00000000E+00  0.00000000E+00  0.00000000E+00
  0.00000000E+00  0.00000000E+00  0.00000000E+00
  0.00000000E+00  0.00000000E+00  0.00000000E+00
  0.00000000E+00  0.00000000E+00  0.00000000E+00
  0.00000000E+00  0.00000000E+00  0.00000000E+00
  0.00000000E+00  0.00000000E+00  0.00000000E+00
  0.00000000E+00  0.00000000E+00  0.00000000E+00
  0.00000000E+00  0.00000000E+00  0.00000000E+00
  0.00000000E+00  0.00000000E+00  0.00000000E+00
  0.00000000E+00  0.00000000E+00  0.00000000E+00
  0.00000000E+00  0.00000000E+00  0.00000000E+00
  0.00000000E+00  0.00000000E+00  0.00000000E+00
  0.00000000E+00  0.00000000E+00  0.00000000E+00
  0.00000000E+00  0.00000000E+00  0.00000000E+00
  0.00000000E+00  0.00000000E+00  0.00000000E+00
  0.00000000E+00  0.00000000E+00  0.00000000E+00
  0.00000000E+00  0.00000000E+00  0.00000000E+00
  0.00000000E+00  0.00000000E+00  0.00000000E+00
  0.00000000E+00  0.00000000E+00  0.00000000E+00
  0.00000000E+00  0.00000000E+00  0.00000000E+00
  0.00000000E+00  0.00000000E+00  0.00000000E+00
  0.00000000E+00  0.00000000E+00  0.00000000E+00
  0.00000000E+00  0.00000000E+00  0.00000000E+00
  0.00000000E+00  0.00000000E+00  0.00000000E+00
  0.00000000E+00  0.00000000E+00  0.00000000E+00
  0.00000000E+00  0.00000000E+00  0.00000000E+00
  0.00000000E+00  0.00000000E+00  0.00000000E+00
  0.00000000E+00  0.00000000E+00  0.00000000E+00
  0.00000000E+00  0.00000000E+00  0.00000000E+00
  0.00000000E+00  0.00000000E+00  0.00000000E+00
  0.00000000E+00  0.00000000E+00  0.00000000E+00
  0.00000000E+00  0.00000000E+00  0.00000000E+00
  0.00000000E+00  0.00000000E+00  0.00000000E+00
  0.00000000E+00  0.00000000E+00  0.00000000E+00
  0.00000000E+00  0.00000000E+00  0.00000000E+00
  0.00000000E+00  0.00000000E+00  0.00000000E+00
  0.00000000E+00  0.00000000E+00  0.00000000E+00
