 C B N 
 1.0
 17.527899999999772   0.000000000000000   0.000000000000000
 -8.763949999999658  15.179606674993195   0.000000000000000
  0.000000000000001   0.000000000000002  15.000000000000000
 C B N 
   4  46  47
Cartesian
  5.040831467370799   5.751078413501232   1.660185755890215 
  3.810115612801634   7.942746375504944   1.675292264761875 
  4.922707582797047   7.110917206925187   1.711049228013795 
  3.755329555999376   9.343459411103129   1.624930370795430 
  7.512833974668821  14.466448836867713   1.665099803656110 
 15.024437685102921   1.451972477025038   1.665357353270310 
 13.771606536722278   3.617349041763053   1.665741180124815 
 12.512708541208177   5.781049786888739   1.664715459816300 
 11.245418802532503   7.943703580211698   1.665200072180175 
 10.014806147271656  10.113643032034251   1.665859899633330 
  8.767045149259140  12.298223872932985   1.664914908124245 
 -7.510376581265723  14.463520543437825   1.665175332562035 
  0.003107775761042   1.454522649198445   1.665183357360555 
 -1.247384099054674   3.619906102679332   1.664869084152930 
 -2.499965616197417   5.782519877309426   1.664872026711480 
 -3.761017369403811   7.945774408052819   1.664563457863965 
 -5.012680837481986  10.113677005258042   1.665091903301805 
 -6.262139476099974  12.286049860449276   1.664773175772255 
 -5.009621480947903  14.454119916533346   1.664532656692515 
  2.507295060405270   1.451575951094968   1.666378577922555 
  1.261735495355854   3.623456537376877   1.663428215643675 
  0.017356099492382   5.787015830994459   1.667346016306740 
 -1.242653871291880   7.947507419788462   1.665574868536065 
 -2.509646317801741  10.114337999953946   1.666026427803735 
 -3.757754222438491  12.284341996787244   1.664678163057855 
 -2.501736390796392  14.452872319332547   1.665418020855915 
  5.008012611017518   1.436412917073499   1.665836245460415 
  3.770610835561673   3.610096272936442   1.640062965852660 
  2.541296837962448   5.790777670027197   1.660117435850835 
  1.280020000074633   7.961602747573686   1.687441003283580 
 -0.009164206888550  10.115216319751921   1.667392350936015 
 -1.250151649199544  12.285063956908767   1.665520269852645 
  0.000021288908519  14.456865926154640   1.664996717413305 
  7.510821950187311   1.444931310551893   1.664252182523805 
  6.252027679674676   3.600323412933419   1.676290933939260 
  2.494032105171618  10.107637737236406   1.649951923263840 
  1.255743257892331  12.287802538537900   1.666500647660940 
  2.503473651779316  14.459815740785320   1.665287448595815 
 10.014777558908007   1.447464098183165   1.664562866373465 
  8.759371656586325   3.613612407390389   1.665498274399140 
  7.477077138724839   5.781276124120270   1.676064849086445 
  5.012092441019407  10.123275209582509   1.647525898424040 
  3.751625059204425  12.289174534174924   1.664425415866785 
  5.006128919035474  14.462536831894893   1.665018642351240 
 12.518731367376560   1.449930380150928   1.665645636378435 
 11.263764579000613   3.616731023938005   1.665585503125200 
  9.995165399057939   5.781357114987840   1.664819167420395 
  8.699194532752692   7.948872162979237   1.662698499504060 
  7.541984121459413  10.128686934204419   1.669934630859570 
  6.258745384957669  12.300084733594071   1.665631225499355 
  8.769045829303067  13.748311760856208   1.664573632417380 
 16.279427639871287   0.735262595724879   1.664759929427010 
 15.026562447467358   2.898225463759645   1.665113858197980 
 13.772686003987566   5.059868891664398   1.665036526863090 
 12.510287197509633   7.224396904219057   1.664477194327260 
 11.267758035083908   9.390894046869899   1.665096312470355 
 10.019717051910401  11.566897084421107   1.665307005766950 
 -6.260141195836654  13.735072791744843   1.664287707674235 
  1.255190624039783   0.731739922152395   1.666143972000285 
  0.006443743091192   2.900496291188058   1.664818796234640 
 -1.240871323898332   5.059868891664398   1.664756206910340 
 -2.502662587017654   7.224843198200308   1.663691790628080 
 -3.761621585749326   9.391227646829059   1.664968272225525 
 -5.009305884366234  11.562254692749825   1.664412416708160 
 -3.757983343320491  13.731430476097652   1.664303421146160 
  3.753741504956114   0.718933954372475   1.665110129902335 
  2.509790703058028   2.897689573991706   1.661462415403755 
  1.277182675574663   5.066532214092448   1.664193318532440 
  0.016355221621661   7.224706810856071   1.670065859875005 
 -1.265286076027870   9.391228550642346   1.666574371590975 
 -2.508745442792521  11.562356164259899   1.665321304485165 
 -1.254378094166823  13.733566939617932   1.665023130642405 
  6.260108977321470   0.716825661169859   1.665936331622460 
  5.007353530450264   2.870528673438240   1.662697562474295 
  3.794253282919920   5.047240560839160   1.604460408987315 
  2.542036899983778   7.225149791144257   1.711009138706265 
  1.219527070233825   9.396653019936346   1.669810382776920 
 -0.008077743561231  11.567391670638091   1.665234468084210 
  1.248415613998870  13.741073393691872   1.666081221859260 
  8.762134858067542   0.724557131089325   1.663444578163005 
  7.509331032591076   2.887352914252340   1.666338671210970 
  6.231061505556140   5.029528757024254   1.695791037437280 
  2.494483512706704  11.576894148613777   1.663171858598265 
  3.753726705549686  13.747225380394081   1.664975918319570 
 11.264150068946705   0.729395343161280   1.664845279122420 
 10.015980054274303   2.891289225057945   1.664610841205595 
  8.748924073299010   5.048936021559007   1.667156488468770 
  7.494399741518088   7.177466585906659   1.651462351237785 
  6.286426807758178   9.549411575037311   1.681243610343420 
  5.011269556362617  11.598380731794467   1.662685346902980 
  6.263563653572513  13.753429771098830   1.665279915763095 
 13.772391131183310   0.733205429697469   1.665149668455330 
 12.519445304731489   2.896103147408491   1.665784644502320 
 11.259976977379303   5.059868891664398   1.664455036962960 
  9.988804206019143   7.222630250287227   1.665083754791595 
  8.776858096719600   9.394124050392849   1.665915999026880 
  7.524772452457766  11.593442120090854   1.664647593426030 
