Species order: X N B                    
   2.51242800000000     
     5.9449720136058266    0.0000000000000000    0.0000000000000000
    -2.9724860068029120    5.1484967885702053   -0.0000000000000001
     0.0000000000000000    0.0000000000000009    5.3101128803662583
   Ga   N    B 
     1   143   143
Direct
  0.4795305554488486  0.4064319443910886  0.3750000000000000
  0.1111220195550236  0.0555562897085164  0.1249445864177786
  0.6111771245211359  0.5556454791050994  0.1238994577963568
  0.4444711291788683  0.0555566901520670  0.1249607987045424
  0.9444604848263007  0.5555609405493571  0.1250335883581569
  0.7778001180568850  0.0555667256951137  0.1249992465973110
  0.1111275561121920  0.7222304447227602  0.6249883653699643
  0.4444711291788683  0.7222477723601367  0.6250392012954573
  0.2777822071393906  0.2222171216717002  0.6252242471708603
  0.7778002672273587  0.7222463258989776  0.6251184686210103
  0.6111413232233107  0.2222137704464199  0.6251912608589174
  0.9444612852742437  0.2222299536168934  0.6250096157133919
  0.2777984823749416  0.7222351637763978  0.1249957873936407
  0.1111237128951356  0.2222285231142356  0.1249337779575328
  0.4444856665219132  0.2222268302460401  0.1247223434593922
  0.6111413232233107  0.7222608861102119  0.1248087391410828
  0.9444604848263007  0.7222328776102790  0.1250335883581569
  0.7778005010481627  0.2222237910098671  0.1250292325113879
  0.1111268295466208  0.8888963473519307  0.6250069904410531
  0.4444675571099403  0.8889004452216345  0.6250174725905862
  0.2777822071393906  0.3888984188010191  0.6252242471708603
  0.6111771245211359  0.3888649787493648  0.6261005422036360
  0.7778005010481627  0.8889100433716245  0.6249707674886117
  0.9444629499444854  0.3888949014445550  0.6249597938612269
  0.1111220195550236  0.3888990631798360  0.1249445864177786
  0.2777984823749416  0.8888966519318720  0.1249957873936407
  0.6111331890322607  0.8889096745368152  0.1250117004254148
  0.4444502286065389  0.3888917809699372  0.1254059157716117
  0.9444629499444854  0.8889013818332588  0.1250402061387731
  0.7778002672273587  0.3888872746617097  0.1248815313789899
  0.2778010028118599  0.5555740754333974  0.6250411498997225
  0.1111220195550236  0.0555562897085164  0.6250554135822213
  0.6111771245211359  0.5556454791050994  0.6261005422036360
  0.4444711291788683  0.0555566901520670  0.6250392012954573
  0.9444604848263007  0.5555609405493571  0.6249664116418434
  0.1111268295466208  0.5555638155280259  0.1249930095589471
  0.7778001180568850  0.0555667256951137  0.6250007534026890
  0.2778010028118599  0.0555602607117914  0.1249588501002777
  0.4444856665219132  0.5555921696092015  0.1247223434593922
  0.7777946183176730  0.5555639758255040  0.1247031716271394
  0.6111331890322607  0.0555568478287669  0.1250117004254148
  0.4444856665219132  0.5555921696092015  0.6252776565406075
  0.9444612852742437  0.0555646649906859  0.1249903842866079
  0.2777984823749416  0.7222351637763978  0.6250042126063594
  0.1111237128951356  0.2222285231142356  0.6250662220424672
  0.4444856665219132  0.2222268302460401  0.6252776565406075
  0.6111413232233107  0.7222608861102119  0.6251912608589174
  0.9444604848263007  0.7222328776102790  0.6249664116418434
  0.7778005010481627  0.2222237910098671  0.6249707674886117
  0.1111275561121920  0.7222304447227602  0.1250116346300358
  0.4444711291788683  0.7222477723601367  0.1249607987045424
  0.2777822071393906  0.2222171216717002  0.1247757528291393
  0.7778002672273587  0.7222463258989776  0.1248815313789899
  0.6111413232233107  0.2222137704464199  0.1248087391410828
  0.9444612852742437  0.2222299536168934  0.1249903842866079
  0.1111220195550236  0.3888990631798360  0.6250554135822213
  0.2777984823749416  0.8888966519318720  0.6250042126063594
  0.6111331890322607  0.8889096745368152  0.6249882995745926
  0.4444502286065389  0.3888917809699372  0.6245940842283881
  0.9444629499444854  0.8889013818332588  0.6249597938612269
  0.1111268295466208  0.8888963473519307  0.1249930095589471
  0.7778002672273587  0.3888872746617097  0.6251184686210103
  0.4444675571099403  0.8889004452216345  0.1249825274094136
  0.2777822071393906  0.3888984188010191  0.1247757528291393
  0.2778010028118599  0.5555740754333974  0.1249588501002777
  0.6111771245211359  0.3888649787493648  0.1238994577963568
  0.7778005010481627  0.8889100433716245  0.1250292325113879
  0.9444629499444854  0.3888949014445550  0.1250402061387731
  0.1111268295466208  0.5555638155280259  0.6250069904410531
  0.2778010028118599  0.0555602607117914  0.6250411498997225
  0.7777946183176730  0.5555639758255040  0.6252968283728607
  0.6111331890322607  0.0555568478287669  0.6249882995745926
  0.9444612852742437  0.0555646649906859  0.6250096157133919
  0.0556929912913121  0.1111823931877629  0.3750000000000000
  0.5544409003625466  0.6115251105039957  0.3750000000000000
  0.3874567478766978  0.1061046709144667  0.3750000000000000
  0.8884340713134862  0.6108837023234183  0.3750000000000000
  0.7222909144361023  0.1110741819846778  0.3750000000000000
  0.0555627156259790  0.7777827560711013  0.8750000000000000
  0.3888965062445713  0.7777833638764976  0.8750000000000000
  0.2222272019074494  0.2777802676203961  0.8750000000000000
  0.7222329963667056  0.7777834306007761  0.8750000000000000
  0.5555593674870865  0.2777760214499738  0.8750000000000000
  0.8889000802883706  0.2777839590946591  0.8750000000000000
  0.2210196710834491  0.7771765022083923  0.3750000000000000
  0.0556929912913121  0.2778439314368847  0.3750000000000000
  0.3869914297736762  0.2681678529482542  0.3750000000000000
  0.5553040276065091  0.7783494015777985  0.3750000000000000
  0.8879347704340338  0.7770449389208473  0.3750000000000000
  0.7219747045604125  0.2776397350190009  0.3750000000000000
  0.0555606730806491  0.9444474924718383  0.8750000000000000
  0.3888965062445713  0.9444464757014094  0.8750000000000000
  0.2222255612574335  0.4444470781167488  0.8750000000000000
  0.5555592212267326  0.4444462772800342  0.8750000000000000
  0.7222314045174251  0.9444489917690972  0.8750000000000000
  0.8889023265565537  0.4444502749676811  0.8750000000000000
  0.0545125237861903  0.4443569139128980  0.3750000000000000
  0.2207804294386388  0.9427244683056774  0.3750000000000000
  0.5554268760729492  0.9443801047031425  0.3750000000000000
  0.3869914297736762  0.4521569101587575  0.3750000000000000
  0.8887017871685592  0.9443752957976425  0.3750000000000000
  0.7215287184786058  0.4450765209836377  0.3750000000000000
  0.2222255425418773  0.6111128853893918  0.8750000000000000
  0.0555610470901551  0.1111131300485105  0.8750000000000000
  0.5555593674870865  0.6111166793704486  0.8750000000000000
  0.3888939137170916  0.1111100683070566  0.8750000000000000
  0.8889052243419747  0.6111192788376589  0.8750000000000000
  0.0544705831014986  0.6107602673712258  0.3750000000000000
  0.7222314045174251  0.1111157460816637  0.8750000000000000
  0.2209620457941569  0.1091539192944482  0.3750000000000000
  0.3874567478766978  0.6146854102955737  0.3750000000000000
  0.7215287184786058  0.6097855308283037  0.3750000000000000
  0.5553040276065091  0.1102879593620465  0.3750000000000000
  0.3888939137170916  0.6111171787433777  0.8750000000000000
  0.8889927292426848  0.1111630312880138  0.3750000000000000
  0.2222276362123420  0.7777804847728388  0.8750000000000000
  0.0555610470901551  0.2777812503749805  0.8750000000000000
  0.3888974113147183  0.2777808602178407  0.8750000000000000
  0.5555623500805619  0.7777838491763717  0.8750000000000000
  0.8889023265565537  0.7777853849222010  0.8750000000000000
  0.7222329963667056  0.2777828990992648  0.8750000000000000
  0.0544705831014986  0.7770436490636088  0.3750000000000000
  0.3880370303067134  0.7785413254486172  0.3750000000000000
  0.2234077684062729  0.2783705508698044  0.3750000000000000
  0.7219747045604125  0.7776683028747472  0.3750000000000000
  0.5544409003625466  0.2762491231918862  0.3750000000000000
  0.8887017871685592  0.2776598247042523  0.3750000000000000
  0.0555606730806491  0.4444465139421392  0.8750000000000000
  0.2222255425418773  0.9444459904858213  0.8750000000000000
  0.5555631075239964  0.9444482204286626  0.8750000000000000
  0.3888974113147183  0.4444498844302135  0.8750000000000000
  0.8889000802883706  0.9444494545270476  0.8750000000000000
  0.0545125237861903  0.9434889432066209  0.3750000000000000
  0.7222378821332244  0.4444531795916052  0.8750000000000000
  0.3880370303067134  0.9428290381914319  0.3750000000000000
  0.2209620457941569  0.4451414598330374  0.3750000000000000
  0.2207804294386388  0.6113892944662968  0.3750000000000000
  0.7222909144361023  0.9445500657847603  0.3750000000000000
  0.8879347704340338  0.4442231648465148  0.3750000000000000
  0.0555627156259790  0.6111132928882137  0.8750000000000000
  0.2222255612574335  0.1111118164740204  0.8750000000000000
  0.7222378821332244  0.6111180358749546  0.8750000000000000
  0.5555623500805619  0.1111118342375255  0.8750000000000000
  0.8888993269743440  0.1111163301538434  0.8750000000000000
  0.1104193600455927  0.0547164313708033  0.3750000000000000
  0.6122734338408783  0.5579231244850906  0.3750000000000000
  0.4439943536955021  0.0529800344997776  0.3750000000000000
  0.9438066489170504  0.5552530763838587  0.3750000000000000
  0.7779761534146097  0.0556547433739727  0.3750000000000000
  0.1111256112470296  0.7222294722901758  0.8750000000000000
  0.4444453434780488  0.7222227718753165  0.8750000000000000
  0.2777764724015991  0.2222233666388664  0.8750000000000000
  0.7777878077931035  0.7222330342691813  0.8750000000000000
  0.6111111422262672  0.2222172835424255  0.8750000000000000
  0.9444604982987920  0.2222267881593767  0.8750000000000000
  0.2768314327581625  0.7222451575718472  0.3750000000000000
  0.1122215406965238  0.2227774370149262  0.3750000000000000
  0.4422191091249779  0.2156754221380237  0.3750000000000000
  0.6109654981648127  0.7229127649676534  0.3750000000000000
  0.9438066489170504  0.7218869058665276  0.3750000000000000
  0.7777499083334787  0.2220899115235978  0.3750000000000000
  0.1111247000310112  0.8889025403323053  0.8750000000000000
  0.4444494397473345  0.8888913865403318  0.8750000000000000
  0.2777764724015991  0.3888864390960613  0.8750000000000000
  0.6111076304642693  0.3888847176854353  0.8750000000000000
  0.7777883315893176  0.8888994457159997  0.8750000000000000
  0.9444603865299578  0.3888891576653108  0.8750000000000000
  0.1104193600455927  0.3890362620081181  0.3750000000000000
  0.2768314327581625  0.8879196085196435  0.3750000000000000
  0.6112048138384303  0.8892170118309036  0.3750000000000000
  0.9437287377966173  0.8884132261850330  0.3750000000000000
  0.7771666726449408  0.3885482810647334  0.3750000000000000
  0.2777823416838222  0.5555532202237333  0.8750000000000000
  0.1111239070876438  0.0555678037011596  0.8750000000000000
  0.6111076304642693  0.5555562461121699  0.8750000000000000
  0.4444453434780488  0.0555559049360679  0.8750000000000000
  0.9444616308521615  0.5555602132571263  0.8750000000000000
  0.1100038754901643  0.5553757289315905  0.3750000000000000
  0.7777889016008710  0.0555611174671069  0.8750000000000000
  0.2764064599569383  0.0534570156719231  0.3750000000000000
  0.4422191091249779  0.5598770203202900  0.3750000000000000
  0.7781998617175820  0.5557665975254593  0.3750000000000000
  0.6112048138384303  0.0553211353408557  0.3750000000000000
  0.4444399156373492  0.5555567344169842  0.8750000000000000
  0.9447082315336468  0.0557541916443325  0.3750000000000000
  0.2777867199041916  0.7222239261069819  0.8750000000000000
  0.1111236937329253  0.2222285135331305  0.8750000000000000
  0.4444399156373492  0.2222165145537006  0.8750000000000000
  0.6111111422262672  0.7222271920171631  0.8750000000000000
  0.9444616308521615  0.7222347509283712  0.8750000000000000
  0.7777883315893176  0.2222222192066536  0.8750000000000000
  0.1101083586956881  0.7217208460145078  0.3750000000000000
  0.4439943536955021  0.7243476525290603  0.3750000000000000
  0.2780375056663208  0.2209046704024404  0.3750000000000000
  0.7771666726449408  0.7219517249135361  0.3750000000000000
  0.6109654981648127  0.2213860665304879  0.3750000000000000
  0.9447082315336468  0.2222873732226497  0.3750000000000000
  0.1111239070876438  0.3888894367198130  0.8750000000000000
  0.2777867199041916  0.8888961271305449  0.8750000000000000
  0.6111160886010317  0.8888934424824688  0.8750000000000000
  0.4444397849320703  0.3888865591326959  0.8750000000000000
  0.9444603865299578  0.8889045621979758  0.8750000000000000
  0.1100038754901643  0.8879614798919028  0.3750000000000000
  0.7777878077931035  0.3888881068572506  0.8750000000000000
  0.4441832642600998  0.8887582987967106  0.3750000000000000
  0.2780375056663208  0.3904661685972020  0.3750000000000000
  0.2764064599569383  0.5562827776183440  0.3750000000000000
  0.6122734338408783  0.3876836426891164  0.3750000000000000
  0.7777499083334787  0.8889933301432021  0.3750000000000000
  0.9437287377966173  0.3886488449449129  0.3750000000000000
  0.1111247000310112  0.5555554930320346  0.8750000000000000
  0.2777823416838222  0.0555624547934242  0.8750000000000000
  0.7777888649890302  0.5555610991611825  0.8750000000000000
  0.6111160886010317  0.0555559794518840  0.8750000000000000
  0.9444604982987920  0.0555670434727506  0.8750000000000000
  0.0555985191522889  0.1111412606475368  0.1250045798465227
  0.5555525669498579  0.6111558690097717  0.1244658628210684
  0.3888922510706073  0.1110994425180688  0.1249650693459846
  0.8889348272926770  0.6111340803130066  0.1248878441536385
  0.7222347902680415  0.1111008141049599  0.1250052469676138
  0.0556075548923271  0.7778139963024066  0.6249982821919283
  0.3889081599142862  0.7777910541454701  0.6250020411868943
  0.2222452062832662  0.2777892698083043  0.6250004283215984
  0.7222334184725805  0.7778259939024698  0.6251343664612610
  0.5555525669498579  0.2777300312734148  0.6255341371789316
  0.8889239994919912  0.2777729261799470  0.6249870280506099
  0.2222609301725172  0.7777971317529232  0.1249988326106679
  0.0555985191522889  0.2777905918380948  0.1250045798465227
  0.3888004579823349  0.2776464913200646  0.1251545780878605
  0.5555577989158574  0.7778083141545091  0.1249619034466940
  0.8889365555509050  0.7778287889871431  0.1249633609909246
  0.7222334184725805  0.2777407579034459  0.1248656335387392
  0.0556012723993836  0.9444872968442261  0.6249896567008600
  0.3889081599142862  0.9444504391021518  0.6250020411868943
  0.2222457785036800  0.4444505870796829  0.6250020384896479
  0.5556720732714998  0.4445027033024107  0.6249844727632213
  0.7222347902680415  0.9444673094964176  0.6249947530323864
  0.8889365555509050  0.4444410998971046  0.6250366390090758
  0.0556012723993836  0.4444473088884858  0.1250103432991402
  0.2222589002478667  0.9444745478983201  0.1250075509510158
  0.5555640898428813  0.9444487115881014  0.1250053583745359
  0.3888004579823349  0.4444872999956060  0.1251545780878605
  0.8889239994919912  0.9444844066453801  0.1250129719493831
  0.7222449024743888  0.4444243414133713  0.1243507942665625
  0.2222589002478667  0.6111176856828821  0.6249924490489842
  0.0555985191522889  0.1111412606475368  0.6249954201534775
  0.5555525669498579  0.6111558690097717  0.6255341371789316
  0.3888922510706073  0.1110994425180688  0.6250349306540155
  0.8889348272926770  0.6111340803130066  0.6251121558463685
  0.0556075548923271  0.6111268919232563  0.1250017178080717
  0.7222347902680415  0.1111008141049599  0.6249947530323864
  0.2222457785036800  0.1111285247573330  0.1249979615103524
  0.3888922510706073  0.6111261418858812  0.1249650693459846
  0.7222449024743888  0.6111538943943533  0.1243507942665625
  0.5555577989158574  0.1110828180946845  0.1249619034466940
  0.3888922510706073  0.6111261418858812  0.6250349306540155
  0.8889207537381763  0.1111270435357595  0.1250003287824518
  0.2222609301725172  0.7777971317529232  0.6250011673893321
  0.0555985191522889  0.2777905918380948  0.6249954201534775
  0.3888004579823349  0.2776464913200646  0.6248454219121394
  0.5555577989158574  0.7778083141545091  0.6250380965533061
  0.8889365555509050  0.7778287889871431  0.6250366390090758
  0.7222334184725805  0.2777407579034459  0.6251343664612610
  0.0556075548923271  0.7778139963024066  0.1250017178080717
  0.3889081599142862  0.7777910541454701  0.1249979588131055
  0.2222452062832662  0.2777892698083043  0.1249995716784015
  0.7222334184725805  0.7778259939024698  0.1248656335387392
  0.5555525669498579  0.2777300312734148  0.1244658628210684
  0.8889239994919912  0.2777729261799470  0.1250129719493831
  0.0556012723993836  0.4444473088884858  0.6249896567008600
  0.2222589002478667  0.9444745478983201  0.6249924490489842
  0.5555640898428813  0.9444487115881014  0.6249946416254637
  0.3888004579823349  0.4444872999956060  0.6248454219121394
  0.8889239994919912  0.9444844066453801  0.6249870280506099
  0.0556012723993836  0.9444872968442261  0.1250103432991402
  0.7222449024743888  0.4444243414133713  0.6256492057334446
  0.3889081599142862  0.9444504391021518  0.1249979588131055
  0.2222457785036800  0.4444505870796829  0.1249979615103524
  0.2222589002478667  0.6111176856828821  0.1250075509510158
  0.5556720732714998  0.4445027033024107  0.1250155272367789
  0.7222347902680415  0.9444673094964176  0.1250052469676138
  0.8889365555509050  0.4444410998971046  0.1249633609909246
  0.0556075548923271  0.6111268919232563  0.6249982821919283
  0.2222457785036800  0.1111285247573330  0.6250020384896479
  0.7222449024743888  0.6111538943943533  0.6256492057334446
  0.5555577989158574  0.1110828180946845  0.6250380965533061
  0.8889207537381763  0.1111270435357595  0.6249996712175484
 
  0.00000000E+00  0.00000000E+00  0.00000000E+00
  0.00000000E+00  0.00000000E+00  0.00000000E+00
  0.00000000E+00  0.00000000E+00  0.00000000E+00
  0.00000000E+00  0.00000000E+00  0.00000000E+00
  0.00000000E+00  0.00000000E+00  0.00000000E+00
  0.00000000E+00  0.00000000E+00  0.00000000E+00
  0.00000000E+00  0.00000000E+00  0.00000000E+00
  0.00000000E+00  0.00000000E+00  0.00000000E+00
  0.00000000E+00  0.00000000E+00  0.00000000E+00
  0.00000000E+00  0.00000000E+00  0.00000000E+00
  0.00000000E+00  0.00000000E+00  0.00000000E+00
  0.00000000E+00  0.00000000E+00  0.00000000E+00
  0.00000000E+00  0.00000000E+00  0.00000000E+00
  0.00000000E+00  0.00000000E+00  0.00000000E+00
  0.00000000E+00  0.00000000E+00  0.00000000E+00
  0.00000000E+00  0.00000000E+00  0.00000000E+00
  0.00000000E+00  0.00000000E+00  0.00000000E+00
  0.00000000E+00  0.00000000E+00  0.00000000E+00
  0.00000000E+00  0.00000000E+00  0.00000000E+00
  0.00000000E+00  0.00000000E+00  0.00000000E+00
  0.00000000E+00  0.00000000E+00  0.00000000E+00
  0.00000000E+00  0.00000000E+00  0.00000000E+00
  0.00000000E+00  0.00000000E+00  0.00000000E+00
  0.00000000E+00  0.00000000E+00  0.00000000E+00
  0.00000000E+00  0.00000000E+00  0.00000000E+00
  0.00000000E+00  0.00000000E+00  0.00000000E+00
  0.00000000E+00  0.00000000E+00  0.00000000E+00
  0.00000000E+00  0.00000000E+00  0.00000000E+00
  0.00000000E+00  0.00000000E+00  0.00000000E+00
  0.00000000E+00  0.00000000E+00  0.00000000E+00
  0.00000000E+00  0.00000000E+00  0.00000000E+00
  0.00000000E+00  0.00000000E+00  0.00000000E+00
  0.00000000E+00  0.00000000E+00  0.00000000E+00
  0.00000000E+00  0.00000000E+00  0.00000000E+00
  0.00000000E+00  0.00000000E+00  0.00000000E+00
  0.00000000E+00  0.00000000E+00  0.00000000E+00
  0.00000000E+00  0.00000000E+00  0.00000000E+00
  0.00000000E+00  0.00000000E+00  0.00000000E+00
  0.00000000E+00  0.00000000E+00  0.00000000E+00
  0.00000000E+00  0.00000000E+00  0.00000000E+00
  0.00000000E+00  0.00000000E+00  0.00000000E+00
  0.00000000E+00  0.00000000E+00  0.00000000E+00
  0.00000000E+00  0.00000000E+00  0.00000000E+00
  0.00000000E+00  0.00000000E+00  0.00000000E+00
  0.00000000E+00  0.00000000E+00  0.00000000E+00
  0.00000000E+00  0.00000000E+00  0.00000000E+00
  0.00000000E+00  0.00000000E+00  0.00000000E+00
  0.00000000E+00  0.00000000E+00  0.00000000E+00
  0.00000000E+00  0.00000000E+00  0.00000000E+00
  0.00000000E+00  0.00000000E+00  0.00000000E+00
  0.00000000E+00  0.00000000E+00  0.00000000E+00
  0.00000000E+00  0.00000000E+00  0.00000000E+00
  0.00000000E+00  0.00000000E+00  0.00000000E+00
  0.00000000E+00  0.00000000E+00  0.00000000E+00
  0.00000000E+00  0.00000000E+00  0.00000000E+00
  0.00000000E+00  0.00000000E+00  0.00000000E+00
  0.00000000E+00  0.00000000E+00  0.00000000E+00
  0.00000000E+00  0.00000000E+00  0.00000000E+00
  0.00000000E+00  0.00000000E+00  0.00000000E+00
  0.00000000E+00  0.00000000E+00  0.00000000E+00
  0.00000000E+00  0.00000000E+00  0.00000000E+00
  0.00000000E+00  0.00000000E+00  0.00000000E+00
  0.00000000E+00  0.00000000E+00  0.00000000E+00
  0.00000000E+00  0.00000000E+00  0.00000000E+00
  0.00000000E+00  0.00000000E+00  0.00000000E+00
  0.00000000E+00  0.00000000E+00  0.00000000E+00
  0.00000000E+00  0.00000000E+00  0.00000000E+00
  0.00000000E+00  0.00000000E+00  0.00000000E+00
  0.00000000E+00  0.00000000E+00  0.00000000E+00
  0.00000000E+00  0.00000000E+00  0.00000000E+00
  0.00000000E+00  0.00000000E+00  0.00000000E+00
  0.00000000E+00  0.00000000E+00  0.00000000E+00
  0.00000000E+00  0.00000000E+00  0.00000000E+00
  0.00000000E+00  0.00000000E+00  0.00000000E+00
  0.00000000E+00  0.00000000E+00  0.00000000E+00
  0.00000000E+00  0.00000000E+00  0.00000000E+00
  0.00000000E+00  0.00000000E+00  0.00000000E+00
  0.00000000E+00  0.00000000E+00  0.00000000E+00
  0.00000000E+00  0.00000000E+00  0.00000000E+00
  0.00000000E+00  0.00000000E+00  0.00000000E+00
  0.00000000E+00  0.00000000E+00  0.00000000E+00
  0.00000000E+00  0.00000000E+00  0.00000000E+00
  0.00000000E+00  0.00000000E+00  0.00000000E+00
  0.00000000E+00  0.00000000E+00  0.00000000E+00
  0.00000000E+00  0.00000000E+00  0.00000000E+00
  0.00000000E+00  0.00000000E+00  0.00000000E+00
  0.00000000E+00  0.00000000E+00  0.00000000E+00
  0.00000000E+00  0.00000000E+00  0.00000000E+00
  0.00000000E+00  0.00000000E+00  0.00000000E+00
  0.00000000E+00  0.00000000E+00  0.00000000E+00
  0.00000000E+00  0.00000000E+00  0.00000000E+00
  0.00000000E+00  0.00000000E+00  0.00000000E+00
  0.00000000E+00  0.00000000E+00  0.00000000E+00
  0.00000000E+00  0.00000000E+00  0.00000000E+00
  0.00000000E+00  0.00000000E+00  0.00000000E+00
  0.00000000E+00  0.00000000E+00  0.00000000E+00
  0.00000000E+00  0.00000000E+00  0.00000000E+00
  0.00000000E+00  0.00000000E+00  0.00000000E+00
  0.00000000E+00  0.00000000E+00  0.00000000E+00
  0.00000000E+00  0.00000000E+00  0.00000000E+00
  0.00000000E+00  0.00000000E+00  0.00000000E+00
  0.00000000E+00  0.00000000E+00  0.00000000E+00
  0.00000000E+00  0.00000000E+00  0.00000000E+00
  0.00000000E+00  0.00000000E+00  0.00000000E+00
  0.00000000E+00  0.00000000E+00  0.00000000E+00
  0.00000000E+00  0.00000000E+00  0.00000000E+00
  0.00000000E+00  0.00000000E+00  0.00000000E+00
  0.00000000E+00  0.00000000E+00  0.00000000E+00
  0.00000000E+00  0.00000000E+00  0.00000000E+00
  0.00000000E+00  0.00000000E+00  0.00000000E+00
  0.00000000E+00  0.00000000E+00  0.00000000E+00
  0.00000000E+00  0.00000000E+00  0.00000000E+00
  0.00000000E+00  0.00000000E+00  0.00000000E+00
  0.00000000E+00  0.00000000E+00  0.00000000E+00
  0.00000000E+00  0.00000000E+00  0.00000000E+00
  0.00000000E+00  0.00000000E+00  0.00000000E+00
  0.00000000E+00  0.00000000E+00  0.00000000E+00
  0.00000000E+00  0.00000000E+00  0.00000000E+00
  0.00000000E+00  0.00000000E+00  0.00000000E+00
  0.00000000E+00  0.00000000E+00  0.00000000E+00
  0.00000000E+00  0.00000000E+00  0.00000000E+00
  0.00000000E+00  0.00000000E+00  0.00000000E+00
  0.00000000E+00  0.00000000E+00  0.00000000E+00
  0.00000000E+00  0.00000000E+00  0.00000000E+00
  0.00000000E+00  0.00000000E+00  0.00000000E+00
  0.00000000E+00  0.00000000E+00  0.00000000E+00
  0.00000000E+00  0.00000000E+00  0.00000000E+00
  0.00000000E+00  0.00000000E+00  0.00000000E+00
  0.00000000E+00  0.00000000E+00  0.00000000E+00
  0.00000000E+00  0.00000000E+00  0.00000000E+00
  0.00000000E+00  0.00000000E+00  0.00000000E+00
  0.00000000E+00  0.00000000E+00  0.00000000E+00
  0.00000000E+00  0.00000000E+00  0.00000000E+00
  0.00000000E+00  0.00000000E+00  0.00000000E+00
  0.00000000E+00  0.00000000E+00  0.00000000E+00
  0.00000000E+00  0.00000000E+00  0.00000000E+00
  0.00000000E+00  0.00000000E+00  0.00000000E+00
  0.00000000E+00  0.00000000E+00  0.00000000E+00
  0.00000000E+00  0.00000000E+00  0.00000000E+00
  0.00000000E+00  0.00000000E+00  0.00000000E+00
  0.00000000E+00  0.00000000E+00  0.00000000E+00
  0.00000000E+00  0.00000000E+00  0.00000000E+00
  0.00000000E+00  0.00000000E+00  0.00000000E+00
  0.00000000E+00  0.00000000E+00  0.00000000E+00
  0.00000000E+00  0.00000000E+00  0.00000000E+00
  0.00000000E+00  0.00000000E+00  0.00000000E+00
  0.00000000E+00  0.00000000E+00  0.00000000E+00
  0.00000000E+00  0.00000000E+00  0.00000000E+00
  0.00000000E+00  0.00000000E+00  0.00000000E+00
  0.00000000E+00  0.00000000E+00  0.00000000E+00
  0.00000000E+00  0.00000000E+00  0.00000000E+00
  0.00000000E+00  0.00000000E+00  0.00000000E+00
  0.00000000E+00  0.00000000E+00  0.00000000E+00
  0.00000000E+00  0.00000000E+00  0.00000000E+00
  0.00000000E+00  0.00000000E+00  0.00000000E+00
  0.00000000E+00  0.00000000E+00  0.00000000E+00
  0.00000000E+00  0.00000000E+00  0.00000000E+00
  0.00000000E+00  0.00000000E+00  0.00000000E+00
  0.00000000E+00  0.00000000E+00  0.00000000E+00
  0.00000000E+00  0.00000000E+00  0.00000000E+00
  0.00000000E+00  0.00000000E+00  0.00000000E+00
  0.00000000E+00  0.00000000E+00  0.00000000E+00
  0.00000000E+00  0.00000000E+00  0.00000000E+00
  0.00000000E+00  0.00000000E+00  0.00000000E+00
  0.00000000E+00  0.00000000E+00  0.00000000E+00
  0.00000000E+00  0.00000000E+00  0.00000000E+00
  0.00000000E+00  0.00000000E+00  0.00000000E+00
  0.00000000E+00  0.00000000E+00  0.00000000E+00
  0.00000000E+00  0.00000000E+00  0.00000000E+00
  0.00000000E+00  0.00000000E+00  0.00000000E+00
  0.00000000E+00  0.00000000E+00  0.00000000E+00
  0.00000000E+00  0.00000000E+00  0.00000000E+00
  0.00000000E+00  0.00000000E+00  0.00000000E+00
  0.00000000E+00  0.00000000E+00  0.00000000E+00
  0.00000000E+00  0.00000000E+00  0.00000000E+00
  0.00000000E+00  0.00000000E+00  0.00000000E+00
  0.00000000E+00  0.00000000E+00  0.00000000E+00
  0.00000000E+00  0.00000000E+00  0.00000000E+00
  0.00000000E+00  0.00000000E+00  0.00000000E+00
  0.00000000E+00  0.00000000E+00  0.00000000E+00
  0.00000000E+00  0.00000000E+00  0.00000000E+00
  0.00000000E+00  0.00000000E+00  0.00000000E+00
  0.00000000E+00  0.00000000E+00  0.00000000E+00
  0.00000000E+00  0.00000000E+00  0.00000000E+00
  0.00000000E+00  0.00000000E+00  0.00000000E+00
  0.00000000E+00  0.00000000E+00  0.00000000E+00
  0.00000000E+00  0.00000000E+00  0.00000000E+00
  0.00000000E+00  0.00000000E+00  0.00000000E+00
  0.00000000E+00  0.00000000E+00  0.00000000E+00
  0.00000000E+00  0.00000000E+00  0.00000000E+00
  0.00000000E+00  0.00000000E+00  0.00000000E+00
  0.00000000E+00  0.00000000E+00  0.00000000E+00
  0.00000000E+00  0.00000000E+00  0.00000000E+00
  0.00000000E+00  0.00000000E+00  0.00000000E+00
  0.00000000E+00  0.00000000E+00  0.00000000E+00
  0.00000000E+00  0.00000000E+00  0.00000000E+00
  0.00000000E+00  0.00000000E+00  0.00000000E+00
  0.00000000E+00  0.00000000E+00  0.00000000E+00
  0.00000000E+00  0.00000000E+00  0.00000000E+00
  0.00000000E+00  0.00000000E+00  0.00000000E+00
  0.00000000E+00  0.00000000E+00  0.00000000E+00
  0.00000000E+00  0.00000000E+00  0.00000000E+00
  0.00000000E+00  0.00000000E+00  0.00000000E+00
  0.00000000E+00  0.00000000E+00  0.00000000E+00
  0.00000000E+00  0.00000000E+00  0.00000000E+00
  0.00000000E+00  0.00000000E+00  0.00000000E+00
  0.00000000E+00  0.00000000E+00  0.00000000E+00
  0.00000000E+00  0.00000000E+00  0.00000000E+00
  0.00000000E+00  0.00000000E+00  0.00000000E+00
  0.00000000E+00  0.00000000E+00  0.00000000E+00
  0.00000000E+00  0.00000000E+00  0.00000000E+00
  0.00000000E+00  0.00000000E+00  0.00000000E+00
  0.00000000E+00  0.00000000E+00  0.00000000E+00
  0.00000000E+00  0.00000000E+00  0.00000000E+00
  0.00000000E+00  0.00000000E+00  0.00000000E+00
  0.00000000E+00  0.00000000E+00  0.00000000E+00
  0.00000000E+00  0.00000000E+00  0.00000000E+00
  0.00000000E+00  0.00000000E+00  0.00000000E+00
  0.00000000E+00  0.00000000E+00  0.00000000E+00
  0.00000000E+00  0.00000000E+00  0.00000000E+00
  0.00000000E+00  0.00000000E+00  0.00000000E+00
  0.00000000E+00  0.00000000E+00  0.00000000E+00
  0.00000000E+00  0.00000000E+00  0.00000000E+00
  0.00000000E+00  0.00000000E+00  0.00000000E+00
  0.00000000E+00  0.00000000E+00  0.00000000E+00
  0.00000000E+00  0.00000000E+00  0.00000000E+00
  0.00000000E+00  0.00000000E+00  0.00000000E+00
  0.00000000E+00  0.00000000E+00  0.00000000E+00
  0.00000000E+00  0.00000000E+00  0.00000000E+00
  0.00000000E+00  0.00000000E+00  0.00000000E+00
  0.00000000E+00  0.00000000E+00  0.00000000E+00
  0.00000000E+00  0.00000000E+00  0.00000000E+00
  0.00000000E+00  0.00000000E+00  0.00000000E+00
  0.00000000E+00  0.00000000E+00  0.00000000E+00
  0.00000000E+00  0.00000000E+00  0.00000000E+00
  0.00000000E+00  0.00000000E+00  0.00000000E+00
  0.00000000E+00  0.00000000E+00  0.00000000E+00
  0.00000000E+00  0.00000000E+00  0.00000000E+00
  0.00000000E+00  0.00000000E+00  0.00000000E+00
  0.00000000E+00  0.00000000E+00  0.00000000E+00
  0.00000000E+00  0.00000000E+00  0.00000000E+00
  0.00000000E+00  0.00000000E+00  0.00000000E+00
  0.00000000E+00  0.00000000E+00  0.00000000E+00
  0.00000000E+00  0.00000000E+00  0.00000000E+00
  0.00000000E+00  0.00000000E+00  0.00000000E+00
  0.00000000E+00  0.00000000E+00  0.00000000E+00
  0.00000000E+00  0.00000000E+00  0.00000000E+00
  0.00000000E+00  0.00000000E+00  0.00000000E+00