 Pb N B 
 1.0
 14.936314146199660   0.000000000000000   0.000000000000000
 -7.468157073099825  12.935227489513863   0.000000000000000
  0.000000000000001   0.000000000000001  13.341276283792837
 Pb N B 
   1 143 143
Cartesian
  4.509910079204904   5.478292795919674   5.002978606422314 
  1.241071802376153   0.716805262846206   1.665828084630474 
  4.977470229179561   7.191249271122682   1.633568607066522 
  6.221411247111895   0.717457054087009   1.666579483354480 
  9.955273591888229   7.184490049684167   1.666440461001973 
 11.199933641502184   0.717294707487843   1.664691304910997 
 -3.736584777090592   9.340661763775850   8.340117872688243 
  1.242655967486332   9.340914156850337   8.339377729490227 
  2.484206424369869   2.871294692784406   8.354109334015515 
  6.221030585012438   9.343318655334517   8.350140149291548 
  7.467902432091685   2.871829705491034   8.350645631468225 
 12.444122425295403   2.872366165493504   8.340639305090551 
 -1.246911208315150   9.340568190287856   1.666250013358738 
 -0.004314900006820   2.872003788989263   1.664850780416629 
  4.976890722498586   2.873550840985754   1.655278427028118 
  3.731643005310692   9.343220862933926   1.655311581376456 
  8.710202001173757   9.341017303862250   1.666440461001973 
  9.956369754453064   2.871987674458426   1.665352675012821 
 -4.981533087189985  11.496861249495257   8.340406936171643 
 -0.002241923871779  11.496685615327998   8.340029048448201 
  1.239331666854406   5.027481021861214   8.354109334015515 
  6.227153977295002   5.026733525993668   8.372388605778092 
  4.976013471630097  11.498217796102740   8.340604537831766 
 11.200231322012101   5.028187731920231   8.339325352958763 
 -1.248078222653966   5.028139573859745   1.665828084630474 
 -2.491829029720572  11.496829108210020   1.666250013358738 
  2.486960904669574  11.497371985866492   1.665867180511283 
  3.724523129435476   5.024849429052238   1.636370440809011 
  7.465268280813029  11.497333483669141   1.666631859885918 
  8.712680912645776   5.027653693177854   1.655817063553107 
 -0.002169839051989   7.184469772123398   8.339993207017997 
  1.241071802376154   0.716805262846207   8.340129128214167 
  4.977470229179606   7.191249271122683   8.372388605778092 
  6.221411247111896   0.717457054087009   8.339377729490227 
  9.955273591888229   7.184490049684168   8.339516751842574 
 -2.491735401880279   7.184405157971405   1.665550276673025 
 11.199933641502184   0.717294707487844   8.341265907933643 
  3.731462724820958   0.717628474701756   1.665964005826576 
  2.487627697575755   7.185080873554720   1.655278427028131 
  7.466195845948368   7.185105179150595   1.655947278564551 
  8.711110977821424   0.716827825233870   1.665867180511283 
  2.487627697575756   7.185080873554721   8.350678785816458 
 13.688374663002490   0.717258072353544   1.665317907754063 
 -1.246911208315149   9.340568190287856   8.339707199485916 
 -0.004314900006819   2.872003788989264   8.341106432428052 
  4.976890722498587   2.873550840985755   8.350678785816458 
  3.731643005310686   9.343220862933938   8.350645631468225 
  8.710202001173757   9.341017303862250   8.339516751842574 
  9.956369754453078   2.871987674458427   8.340604537831766 
 -3.736584777090592   9.340661763775850   1.665839340156399 
  1.242655967486331   9.340914156850337   1.666579483354480 
  2.484206424369884   2.871294692784405   1.651847878829179 
  6.221030585012422   9.343318655334492   1.655817063553094 
  7.467902432091684   2.871829705491033   1.655311581376443 
 12.444122425295403   2.872366165493503   1.665317907754063 
 -1.248078222653965   5.028139573859746   8.340129128214167 
 -2.491829029720571  11.496829108210020   8.339707199485916 
  2.486960904669574  11.497371985866492   8.340090032333396 
  3.724523129435461   5.024849429052239   8.369586772035497 
  7.465268280812969  11.497333483669141   8.339325352958749 
 -4.981533087189986  11.496861249495257   1.665550276673025 
  8.712680912645776   5.027653693177855   8.350140149291548 
 -0.002241923871780  11.496685615327998   1.665928164396385 
  1.239331666854406   5.027481021861213   1.651847878829179 
 -0.002169839051975   7.184469772123397   1.665964005826576 
  6.227153977295017   5.026733525993667   1.633568607066522 
  4.976013471630096  11.498217796102740   1.665352675012821 
 11.200231322012161   5.028187731920230   1.666631859885932 
 -2.491735401880279   7.184405157971406   8.340406936171643 
  3.731462724820966   0.717628474701770   8.339993207017997 
  7.466195845948355   7.185105179150596   8.350009934280090 
  8.711110977821424   0.716827825233871   8.340090032333396 
 13.688374663002490   0.717258072353545   8.340639305090551 
  0.035009108858423   1.459941259302563   5.002978606422314 
  3.616857800025969   8.116302079783509   5.002978606422314 
  5.019058415057930   1.318233900603991   5.002978606422314 
  8.684599281920654   7.888550730890826   5.002978606422314 
 10.000268103880883   1.435006184550412   5.002978606422314 
 -4.975571988157161  10.062477320733578  11.673616748318732 
  0.002653016607111  10.062484746404236  11.673616748318732 
  1.247540929707575   3.594763089261571  11.673616748318732 
  4.981666377855994  10.061996433299873  11.673616748318732 
  6.225937444062951   3.594341106068459  11.673616748318732 
 11.204906191507536   3.594971285581952  11.673616748318732 
 -2.512602401711479  10.047328317684363   5.002978606422314 
 -1.207534918015028   3.612090644488624   5.002978606422314 
  3.815646943077025   3.407092349714123   5.002978606422314 
  2.440824187791220  10.156870582564208   5.002978606422314 
  7.476026155738724  10.088257639775156   5.002978606422314 
  8.776273630359032   3.557951724290810   5.002978606422314 
 -6.220535048710929  12.218013822617905  11.673616748318732 
 -1.241848840250126  12.218025192594794  11.673616748318732 
  0.002475073625313   5.750808487784665  11.673616748318732 
  4.981362524812980   5.750485992301624  11.673616748318732 
  3.736884824935966  12.218047209521636  11.673616748318732 
  9.960416900191881   5.750997398866838  11.673616748318732 
 -2.486710537573778   5.759231982664481   5.002978606422314 
 -3.739075547024072  12.174953196573862   5.002978606422314 
  1.251374120487703  12.220461175999425   5.002978606422314 
  2.369066308397199   5.912643506224832   5.002978606422314 
  6.249399843877832  12.252383817459522   5.002978606422314 
  7.524913579505744   5.704652979115566   5.002978606422314 
 -1.242095423577355   7.906709164699540  11.673616748318732 
  0.002876528202234   1.438794206142788  11.673616748318732 
  3.736373738720104   7.906391932401757  11.673616748318732 
  4.981503439671528   1.438256156160911  11.673616748318732 
  8.716371004166781   7.906894143282329  11.673616748318732 
 -3.758224938496618   7.900062582520111   5.002978606422314 
  9.960195989517896   1.438956081155018  11.673616748318732 
  2.504312846514123   1.397642319034669   5.002978606422314 
  1.161767562548518   7.999257636720982   5.002978606422314 
  6.213445498408205   7.976182328081352   5.002978606422314 
  7.527134350313728   1.347122958021252   5.002978606422314 
  1.246932397187118   7.906722946219421  11.673616748318732 
 12.485811916869293   1.459696875916157   5.002978606422314 
 -2.486447834260904  10.062428664242482  11.673616748318732 
 -1.241915093594653   3.594836539931074  11.673616748318732 
  3.737008359556910   3.594121412521745  11.673616748318732 
  2.491997599051323  10.062238941578279  11.673616748318732 
  7.471332603579540  10.062217864921285  11.673616748318732 
  8.715392021920733   3.594993916256868  11.673616748318732 
 -4.995000345432184  10.042220424884199   5.002978606422314 
 -0.035951813225643  10.085668413325163   5.002978606422314 
  1.294210142471834   3.621707571813875   5.002978606422314 
  4.980027702820759  10.133242548813584   5.002978606422314 
  6.347966994860652   3.385882193311354   5.002978606422314 
 11.246189873742768   3.597689610979683   5.002978606422314 
 -2.486699934312043   5.750821697394239  11.673616748318732 
 -3.731179478956751  12.217929212926295  11.673616748318732 
  1.247423253118441  12.218180141660294  11.673616748318732 
  2.491718936274603   5.751025963774860  11.673616748318732 
  6.226403863910043  12.217990262580786  11.673616748318732 
 -6.213256829644752  12.213799497288834   5.002978606422314 
  7.471230928865866   5.751160248698689  11.673616748318732 
 -1.241073610660153  12.173000595790477   5.002978606422314 
 -0.026835514088022   5.781719881092259   5.002978606422314 
 -1.283261779525706   7.921358977339521   5.002978606422314 
  3.753500171315594  12.254725626845563   5.002978606422314 
  9.985314782803643   5.742042246843858   5.002978606422314 
 -3.730967773451685   7.906759585549313  11.673616748318732 
  2.492198088500027   1.438481729248067  11.673616748318732 
  6.226880650007865   7.906438154093264  11.673616748318732 
  7.470767650848147   1.438756252663788  11.673616748318732 
 12.449747287128677   1.438874952227146  11.673616748318732 
  1.266950852889707   0.716147863581273   5.002978606422314 
  4.863826563324746   7.472399377481517   5.002978606422314 
  6.260899225463668   0.654192027854254   5.002978606422314 
  9.936091901627876   7.177792069206244   5.002978606422314 
 11.243103286644814   0.742218713731674   5.002978606422314 
 -3.731188928334987   9.343777058507383  11.673616748318732 
  1.247884477223898   9.342609708909055  11.673616748318732 
  2.493734232457120   2.877349446765572  11.673616748318732 
  6.226112376442690   9.341492841456818  11.673616748318732 
  7.468937511832946   2.877508396867565  11.673616748318732 
 12.449953369264977   2.876654385556082  11.673616748318732 
 -1.268179101309621   9.348749938307153   5.002978606422314 
  0.060868107008672   2.909637215636204   5.002978606422314 
  5.029444364407937   2.740282902155010   5.002978606422314 
  3.683756324891826   9.485655141547337   5.002978606422314 
  8.694810534795653   9.327754463048208   5.002978606422314 
 10.011119563015257   2.868239511064090   5.002978606422314 
 -4.975603798330711  11.499707031846743  11.673616748318732 
  0.002635659521120  11.499501689412901  11.673616748318732 
  1.249339141659387   5.032704968716547  11.673616748318732 
  6.224179868190993   5.032938825363003  11.673616748318732 
  4.981708169495539  11.498054669206002  11.673616748318732 
 11.204478254937833   5.032656976798155  11.673616748318732 
 -1.235708021861043   5.050880188662732   5.002978606422314 
 -2.495377374585763  11.474319698582242   5.002978606422314 
  2.493344182099416  11.553598703950451   5.002978606422314 
  7.481343674733073  11.516523866724352   5.002978606422314 
  8.759455358696602   5.006749449228085   5.002978606422314 
  0.003786938155006   7.187759021330342  11.673616748318732 
  1.248341837751950   0.720697456993464  11.673616748318732 
  4.981357121519652   7.185570967400084  11.673616748318732 
  6.225493893136943   0.721137300314358  11.673616748318732 
  9.959718120331058   7.188157573916271  11.673616748318732 
 -2.510740761967922   7.191991516331068   5.002978606422314 
 11.204803864481649   0.720106532036008  11.673616748318732 
  3.743940777022144   0.673306886308590   5.002978606422314 
  2.398491097993016   7.297227631924982   5.002978606422314 
  7.422089557008724   7.159640401358353   5.002978606422314 
  8.762996382768508   0.694242546605485   5.002978606422314 
  2.493249332687431   7.186796515877842  11.673616748318732 
 13.731651582761495   0.750420608469418   5.002978606422314 
 -1.241517928152425   9.343601933094300  11.673616748318732 
  0.004248448363961   2.876947840476282  11.673616748318732 
  4.981187329890077   2.877561498641674  11.673616748318732 
  3.737078436173569   9.341277922596680  11.673616748318732 
  8.715600434549250   9.343032616285392  11.673616748318732 
  9.959075831349256   2.877000990924993  11.673616748318732 
 -3.753805275082995   9.330719504624305   5.002978606422314 
  1.207610836773511   9.406744262363503   5.002978606422314 
  2.553117042651161   2.857982301833748   5.002978606422314 
  6.226314201730285   9.394278635837583   5.002978606422314 
  7.567310795531011   2.759141484438863   5.002978606422314 
 12.494480483905155   2.893263809344381   5.002978606422314 
 -1.241072465958090   5.032489512107982  11.673616748318732 
 -2.486505091300304  11.499982954437487  11.673616748318732 
  2.492117275177069  11.498587927047296  11.673616748318732 
  3.738126687941392   5.032703447217592  11.673616748318732 
  7.471262226875852  11.498776813032062  11.673616748318732 
 -4.984465788172201  11.476608945671559   5.002978606422314 
  8.713640607160199   5.032967560592296  11.673616748318732 
  0.002244936620780  11.499276105441304   5.002978606422314 
  1.262258107246673   5.093815563358582   5.002978606422314 
 -0.034314434435956   7.217436876515958   5.002978606422314 
  6.413815278751204   4.787740171204637   5.002978606422314 
  5.000142371194102  11.547506602867207   5.002978606422314 
 11.224888378206259   5.032514239903407   5.002978606422314 
 -2.486306237640683   7.188117181574313  11.673616748318732 
  3.737289686797047   0.721142570484227  11.673616748318732 
  7.469872234597192   7.187227743126595  11.673616748318732 
  8.714742199027260   0.720685402494272  11.673616748318732 
 13.695003842498494   0.720163707927940  11.673616748318732 
 -0.002507758356946   1.436745466700544   1.670769591641067 
  3.736422056532454   7.900217552174702   1.659307182597965 
  4.976042623084841   1.442129383889154   1.671522667959390 
  8.705845348662638   7.900817153243494   1.669249844800193 
  9.954916769010648   1.435909987225602   1.669414330942510 
 -4.982807203328893  10.059174040483443   8.336217426417775 
 -0.000367821036814  10.058293369579834   8.335289439002905 
  1.243467187868687   3.592411113314288   8.339137366892883 
  4.975707958119155  10.058285540867073   8.340527465101291 
  6.220614432839991   3.597470140634704   8.346650030246677 
 11.199575212148108   3.590932096131818   8.336115729251532 
 -2.491489536233470  10.059517836251507   1.669269210459154 
 -1.246381497276991   3.591197980710742   1.670769591641067 
  3.729973734277484   3.596467678364154   1.663023852468326 
  2.488901542202919  10.057786385937398   1.668693904193651 
  7.463393124507920  10.058532722284063   1.668119835739127 
  8.709199084934829   3.591689219614703   1.665429747743445 
 -6.226738884967509  12.216457252006773   8.335330532875172 
 -1.246989097878904  12.217504758866736   8.335289439002905 
  0.000393651599413   5.745624809394458   8.336294949801836 
  4.974546845362760   5.746550957936313   8.250313697561923 
  3.731607219957252  12.214998317414718   8.336542881902103 
  9.953255733515647   5.745964179616649   8.337837377105593 
 -2.491149882132343   5.746227302900659   1.670626679969483 
 -3.736785750675747  12.218227676862359   1.670612953689328 
  1.242733865077660  12.215472722212571   1.670229464042102 
  2.490233549458405   5.743760666655644   1.663023852468313 
  6.220240333555733  12.215393093753677   1.669841483593097 
  7.460355244493991   5.743799728056669   1.654483663933066 
 -1.244640082086137   7.901704759002415   8.335344259155287 
 -0.002507758356945   1.436745466700544   8.335187621203588 
  3.736422056532424   7.900217552174703   8.346650030246703 
  4.976042623084834   1.442129383889168   8.334434544885264 
  8.705845348662638   7.900817153243495   8.336707368044369 
 -3.737446105650032   7.902145345533891   1.669739786426893 
  9.954916769010648   1.435909987225602   8.336542881902103 
  2.486668180316109   1.439271004092744   1.669662263042698 
  1.247556302501082   7.900057126465810   1.671522667959390 
  6.215068409960882   7.900699795464724   1.654483663933053 
  7.465363596127172   1.438301266601962   1.668693904193651 
  1.247556302501083   7.900057126465811   8.334434544885264 
 12.444341921008185   1.435754162642436   1.669048144665254 
 -2.491489536233470  10.059517836251507   8.336688002385328 
 -1.246381497276991   3.591197980710743   8.335187621203588 
  3.729973734277485   3.596467678364155   8.342933360376422 
  2.488901542202920  10.057786385937398   8.337263308650936 
  7.463393124507921  10.058532722284063   8.337837377105593 
  8.709199084934852   3.591689219614665   8.340527465101291 
 -4.982807203328893  10.059174040483443   1.669739786426893 
 -0.000367821036814  10.058293369579834   1.670667773841803 
  1.243467187868716   3.592411113314288   1.666819845951692 
  4.975707958119155  10.058285540867073   1.665429747743445 
  6.220614432840005   3.597470140634729   1.659307182597965 
 11.199575212148108   3.590932096131817   1.669841483593097 
 -2.491149882132342   5.746227302900660   8.335330532875172 
 -3.736785750675747  12.218227676862359   8.335344259155287 
  1.242733865077661  12.215472722212571   8.335727748802551 
  2.490233549458405   5.743760666655645   8.342933360376422 
  6.220240333555734  12.215393093753677   8.336115729251532 
 -6.226738884967510  12.216457252006773   1.670626679969483 
  7.460355244494036   5.743799728056670   8.351473548911562 
 -1.246989097878904  12.217504758866736   1.670667773841803 
  0.000393651599428   5.745624809394458   1.669662263042698 
 -1.244640082086137   7.901704759002414   1.670612953689314 
  4.974546845362759   5.746550957936312   1.755643515282718 
  3.731607219957252  12.214998317414718   1.669414330942510 
  9.953255733515647   5.745964179616648   1.668119835739127 
 -3.737446105650032   7.902145345533892   8.336217426417775 
  2.486668180316125   1.439271004092745   8.336294949801836 
  6.215068409960838   7.900699795464725   8.351473548911562 
  7.465363596127173   1.438301266601963   8.337263308650936 
 12.444341921008185   1.435754162642437   8.336909068179413 
Generated by cif2cell 2.0.0.  :  Failed to get author information, No journal information. Species order: Pb N B 
 1.0
 14.936314146199660   0.000000000000000   0.000000000000000
 -7.468157073099825  12.935227489513863   0.000000000000000
  0.000000000000001   0.000000000000001  13.341276283792837
 Pb N B 
   1 143 143
Cartesian
  4.509910079204904   5.478292795919674   5.002978606422314 
  1.241071802376153   0.716805262846206   1.665828084630474 
  4.977470229179561   7.191249271122682   1.633568607066522 
  6.221411247111895   0.717457054087009   1.666579483354480 
  9.955273591888229   7.184490049684167   1.666440461001973 
 11.199933641502184   0.717294707487843   1.664691304910997 
 -3.736584777090592   9.340661763775850   8.340117872688243 
  1.242655967486332   9.340914156850337   8.339377729490227 
  2.484206424369869   2.871294692784406   8.354109334015515 
  6.221030585012438   9.343318655334517   8.350140149291548 
  7.467902432091685   2.871829705491034   8.350645631468225 
 12.444122425295403   2.872366165493504   8.340639305090551 
 -1.246911208315150   9.340568190287856   1.666250013358738 
 -0.004314900006820   2.872003788989263   1.664850780416629 
  4.976890722498586   2.873550840985754   1.655278427028118 
  3.731643005310692   9.343220862933926   1.655311581376456 
  8.710202001173757   9.341017303862250   1.666440461001973 
  9.956369754453064   2.871987674458426   1.665352675012821 
 -4.981533087189985  11.496861249495257   8.340406936171643 
 -0.002241923871779  11.496685615327998   8.340029048448201 
  1.239331666854406   5.027481021861214   8.354109334015515 
  6.227153977295002   5.026733525993668   8.372388605778092 
  4.976013471630097  11.498217796102740   8.340604537831766 
 11.200231322012101   5.028187731920231   8.339325352958763 
 -1.248078222653966   5.028139573859745   1.665828084630474 
 -2.491829029720572  11.496829108210020   1.666250013358738 
  2.486960904669574  11.497371985866492   1.665867180511283 
  3.724523129435476   5.024849429052238   1.636370440809011 
  7.465268280813029  11.497333483669141   1.666631859885918 
  8.712680912645776   5.027653693177854   1.655817063553107 
 -0.002169839051989   7.184469772123398   8.339993207017997 
  1.241071802376154   0.716805262846207   8.340129128214167 
  4.977470229179606   7.191249271122683   8.372388605778092 
  6.221411247111896   0.717457054087009   8.339377729490227 
  9.955273591888229   7.184490049684168   8.339516751842574 
 -2.491735401880279   7.184405157971405   1.665550276673025 
 11.199933641502184   0.717294707487844   8.341265907933643 
  3.731462724820958   0.717628474701756   1.665964005826576 
  2.487627697575755   7.185080873554720   1.655278427028131 
  7.466195845948368   7.185105179150595   1.655947278564551 
  8.711110977821424   0.716827825233870   1.665867180511283 
  2.487627697575756   7.185080873554721   8.350678785816458 
 13.688374663002490   0.717258072353544   1.665317907754063 
 -1.246911208315149   9.340568190287856   8.339707199485916 
 -0.004314900006819   2.872003788989264   8.341106432428052 
  4.976890722498587   2.873550840985755   8.350678785816458 
  3.731643005310686   9.343220862933938   8.350645631468225 
  8.710202001173757   9.341017303862250   8.339516751842574 
  9.956369754453078   2.871987674458427   8.340604537831766 
 -3.736584777090592   9.340661763775850   1.665839340156399 
  1.242655967486331   9.340914156850337   1.666579483354480 
  2.484206424369884   2.871294692784405   1.651847878829179 
  6.221030585012422   9.343318655334492   1.655817063553094 
  7.467902432091684   2.871829705491033   1.655311581376443 
 12.444122425295403   2.872366165493503   1.665317907754063 
 -1.248078222653965   5.028139573859746   8.340129128214167 
 -2.491829029720571  11.496829108210020   8.339707199485916 
  2.486960904669574  11.497371985866492   8.340090032333396 
  3.724523129435461   5.024849429052239   8.369586772035497 
  7.465268280812969  11.497333483669141   8.339325352958749 
 -4.981533087189986  11.496861249495257   1.665550276673025 
  8.712680912645776   5.027653693177855   8.350140149291548 
 -0.002241923871780  11.496685615327998   1.665928164396385 
  1.239331666854406   5.027481021861213   1.651847878829179 
 -0.002169839051975   7.184469772123397   1.665964005826576 
  6.227153977295017   5.026733525993667   1.633568607066522 
  4.976013471630096  11.498217796102740   1.665352675012821 
 11.200231322012161   5.028187731920230   1.666631859885932 
 -2.491735401880279   7.184405157971406   8.340406936171643 
  3.731462724820966   0.717628474701770   8.339993207017997 
  7.466195845948355   7.185105179150596   8.350009934280090 
  8.711110977821424   0.716827825233871   8.340090032333396 
 13.688374663002490   0.717258072353545   8.340639305090551 
  0.035009108858423   1.459941259302563   5.002978606422314 
  3.616857800025969   8.116302079783509   5.002978606422314 
  5.019058415057930   1.318233900603991   5.002978606422314 
  8.684599281920654   7.888550730890826   5.002978606422314 
 10.000268103880883   1.435006184550412   5.002978606422314 
 -4.975571988157161  10.062477320733578  11.673616748318732 
  0.002653016607111  10.062484746404236  11.673616748318732 
  1.247540929707575   3.594763089261571  11.673616748318732 
  4.981666377855994  10.061996433299873  11.673616748318732 
  6.225937444062951   3.594341106068459  11.673616748318732 
 11.204906191507536   3.594971285581952  11.673616748318732 
 -2.512602401711479  10.047328317684363   5.002978606422314 
 -1.207534918015028   3.612090644488624   5.002978606422314 
  3.815646943077025   3.407092349714123   5.002978606422314 
  2.440824187791220  10.156870582564208   5.002978606422314 
  7.476026155738724  10.088257639775156   5.002978606422314 
  8.776273630359032   3.557951724290810   5.002978606422314 
 -6.220535048710929  12.218013822617905  11.673616748318732 
 -1.241848840250126  12.218025192594794  11.673616748318732 
  0.002475073625313   5.750808487784665  11.673616748318732 
  4.981362524812980   5.750485992301624  11.673616748318732 
  3.736884824935966  12.218047209521636  11.673616748318732 
  9.960416900191881   5.750997398866838  11.673616748318732 
 -2.486710537573778   5.759231982664481   5.002978606422314 
 -3.739075547024072  12.174953196573862   5.002978606422314 
  1.251374120487703  12.220461175999425   5.002978606422314 
  2.369066308397199   5.912643506224832   5.002978606422314 
  6.249399843877832  12.252383817459522   5.002978606422314 
  7.524913579505744   5.704652979115566   5.002978606422314 
 -1.242095423577355   7.906709164699540  11.673616748318732 
  0.002876528202234   1.438794206142788  11.673616748318732 
  3.736373738720104   7.906391932401757  11.673616748318732 
  4.981503439671528   1.438256156160911  11.673616748318732 
  8.716371004166781   7.906894143282329  11.673616748318732 
 -3.758224938496618   7.900062582520111   5.002978606422314 
  9.960195989517896   1.438956081155018  11.673616748318732 
  2.504312846514123   1.397642319034669   5.002978606422314 
  1.161767562548518   7.999257636720982   5.002978606422314 
  6.213445498408205   7.976182328081352   5.002978606422314 
  7.527134350313728   1.347122958021252   5.002978606422314 
  1.246932397187118   7.906722946219421  11.673616748318732 
 12.485811916869293   1.459696875916157   5.002978606422314 
 -2.486447834260904  10.062428664242482  11.673616748318732 
 -1.241915093594653   3.594836539931074  11.673616748318732 
  3.737008359556910   3.594121412521745  11.673616748318732 
  2.491997599051323  10.062238941578279  11.673616748318732 
  7.471332603579540  10.062217864921285  11.673616748318732 
  8.715392021920733   3.594993916256868  11.673616748318732 
 -4.995000345432184  10.042220424884199   5.002978606422314 
 -0.035951813225643  10.085668413325163   5.002978606422314 
  1.294210142471834   3.621707571813875   5.002978606422314 
  4.980027702820759  10.133242548813584   5.002978606422314 
  6.347966994860652   3.385882193311354   5.002978606422314 
 11.246189873742768   3.597689610979683   5.002978606422314 
 -2.486699934312043   5.750821697394239  11.673616748318732 
 -3.731179478956751  12.217929212926295  11.673616748318732 
  1.247423253118441  12.218180141660294  11.673616748318732 
  2.491718936274603   5.751025963774860  11.673616748318732 
  6.226403863910043  12.217990262580786  11.673616748318732 
 -6.213256829644752  12.213799497288834   5.002978606422314 
  7.471230928865866   5.751160248698689  11.673616748318732 
 -1.241073610660153  12.173000595790477   5.002978606422314 
 -0.026835514088022   5.781719881092259   5.002978606422314 
 -1.283261779525706   7.921358977339521   5.002978606422314 
  3.753500171315594  12.254725626845563   5.002978606422314 
  9.985314782803643   5.742042246843858   5.002978606422314 
 -3.730967773451685   7.906759585549313  11.673616748318732 
  2.492198088500027   1.438481729248067  11.673616748318732 
  6.226880650007865   7.906438154093264  11.673616748318732 
  7.470767650848147   1.438756252663788  11.673616748318732 
 12.449747287128677   1.438874952227146  11.673616748318732 
  1.266950852889707   0.716147863581273   5.002978606422314 
  4.863826563324746   7.472399377481517   5.002978606422314 
  6.260899225463668   0.654192027854254   5.002978606422314 
  9.936091901627876   7.177792069206244   5.002978606422314 
 11.243103286644814   0.742218713731674   5.002978606422314 
 -3.731188928334987   9.343777058507383  11.673616748318732 
  1.247884477223898   9.342609708909055  11.673616748318732 
  2.493734232457120   2.877349446765572  11.673616748318732 
  6.226112376442690   9.341492841456818  11.673616748318732 
  7.468937511832946   2.877508396867565  11.673616748318732 
 12.449953369264977   2.876654385556082  11.673616748318732 
 -1.268179101309621   9.348749938307153   5.002978606422314 
  0.060868107008672   2.909637215636204   5.002978606422314 
  5.029444364407937   2.740282902155010   5.002978606422314 
  3.683756324891826   9.485655141547337   5.002978606422314 
  8.694810534795653   9.327754463048208   5.002978606422314 
 10.011119563015257   2.868239511064090   5.002978606422314 
 -4.975603798330711  11.499707031846743  11.673616748318732 
  0.002635659521120  11.499501689412901  11.673616748318732 
  1.249339141659387   5.032704968716547  11.673616748318732 
  6.224179868190993   5.032938825363003  11.673616748318732 
  4.981708169495539  11.498054669206002  11.673616748318732 
 11.204478254937833   5.032656976798155  11.673616748318732 
 -1.235708021861043   5.050880188662732   5.002978606422314 
 -2.495377374585763  11.474319698582242   5.002978606422314 
  2.493344182099416  11.553598703950451   5.002978606422314 
  7.481343674733073  11.516523866724352   5.002978606422314 
  8.759455358696602   5.006749449228085   5.002978606422314 
  0.003786938155006   7.187759021330342  11.673616748318732 
  1.248341837751950   0.720697456993464  11.673616748318732 
  4.981357121519652   7.185570967400084  11.673616748318732 
  6.225493893136943   0.721137300314358  11.673616748318732 
  9.959718120331058   7.188157573916271  11.673616748318732 
 -2.510740761967922   7.191991516331068   5.002978606422314 
 11.204803864481649   0.720106532036008  11.673616748318732 
  3.743940777022144   0.673306886308590   5.002978606422314 
  2.398491097993016   7.297227631924982   5.002978606422314 
  7.422089557008724   7.159640401358353   5.002978606422314 
  8.762996382768508   0.694242546605485   5.002978606422314 
  2.493249332687431   7.186796515877842  11.673616748318732 
 13.731651582761495   0.750420608469418   5.002978606422314 
 -1.241517928152425   9.343601933094300  11.673616748318732 
  0.004248448363961   2.876947840476282  11.673616748318732 
  4.981187329890077   2.877561498641674  11.673616748318732 
  3.737078436173569   9.341277922596680  11.673616748318732 
  8.715600434549250   9.343032616285392  11.673616748318732 
  9.959075831349256   2.877000990924993  11.673616748318732 
 -3.753805275082995   9.330719504624305   5.002978606422314 
  1.207610836773511   9.406744262363503   5.002978606422314 
  2.553117042651161   2.857982301833748   5.002978606422314 
  6.226314201730285   9.394278635837583   5.002978606422314 