Species order: X N B                    
   2.51242800000000     
     5.9449720136058266    0.0000000000000000    0.0000000000000000
    -2.9724860068029120    5.1484967885702053   -0.0000000000000001
     0.0000000000000000    0.0000000000000009    5.3101128803662583
   Pb   N    B 
     1   143   143
Direct
  0.5137012936743117  0.4235173135038197  0.3750000000000000
  0.1107983869138174  0.0554149715130480  0.1248627229655792
  0.6112177236172246  0.5559430073380908  0.1224447026144719
  0.4442618979133726  0.0554653603632893  0.1249190443180515
  0.9442249753197595  0.5554204636531039  0.1249086238493077
  0.7775722859252815  0.0554528096293107  0.1247775152466702
  0.1108873842919276  0.7221103588126295  0.6251364333725652
  0.4442618979133726  0.7221298708834217  0.6250809556819547
  0.2773073160907998  0.2219748122027282  0.6261851682184414
  0.7776616112985016  0.7223157584904335  0.6258876565981478
  0.6109910381033105  0.2220161731070542  0.6259255451903576
  0.9441742899965997  0.2220576458993114  0.6251755175194801
  0.2775697076367678  0.7221031248085843  0.1248943487800283
  0.1107259290673492  0.2220296312003397  0.1247894687886131
  0.4442820369950641  0.2221492311066998  0.1240719697139454
  0.6109910381033105  0.7223081983295734  0.1240744548096460
  0.9442249753197595  0.7221378449999962  0.1249086238493077
  0.7776023252942943  0.2220283854139126  0.1248270884724805
  0.1108829684372447  0.8888024009485233  0.6251581002264140
  0.4442443126180877  0.8887888229757038  0.6251297755207864
  0.2773073160908010  0.3886658372214034  0.6261851682184414
  0.6112177236172274  0.3886080496124756  0.6275552973855268
  0.7776023252942943  0.8889072732137064  0.6251729115275155
  0.9442260469702681  0.3887204717502189  0.6250770297808381
  0.1107983869138172  0.3887167487340965  0.1248627229655794
  0.2775697076367678  0.8887999161615133  0.1248943487800283
  0.6109252675302448  0.8888418850914686  0.1248656534109111
  0.4435914533587860  0.3884623933460550  0.1226547150362892
  0.9442260469702725  0.8888389085533774  0.1249229702191660
  0.7776616112984998  0.3886791861413800  0.1241123434018536
  0.2775641752903943  0.5554188960300541  0.6251270890139298
  0.1107983869138172  0.0554149715130480  0.6251372770344222
  0.6112177236172279  0.5559430073380908  0.6275552973855268
  0.4442618979133726  0.0554653603632892  0.6250809556819547
  0.9442249753197595  0.5554204636531039  0.6250913761506856
  0.1108829684372443  0.5554139008220420  0.1248418997735888
  0.7775722859252815  0.0554528096293107  0.6252224847533308
  0.2775641752903943  0.0554786125936724  0.1248729109860658
  0.4442820369950641  0.5554661392217044  0.1240719697139456
  0.7776027031569805  0.5554680182451615  0.1241221037132875
  0.6109252675302448  0.0554167157721017  0.1248656534109111
  0.4442820369950641  0.5554661392217044  0.6259280302860508
  0.9441742899965997  0.0554499774306253  0.1248244824805194
  0.2775697076367678  0.7221031248085843  0.6251056512199737
  0.1107259290673491  0.2220296312003397  0.6252105312113909
  0.4442820369950641  0.2221492311066998  0.6259280302860508
  0.6109910381033105  0.7223081983295737  0.6259255451903576
  0.9442249753197595  0.7221378449999962  0.6250913761506856
  0.7776023252942948  0.2220283854139126  0.6251729115275155
  0.1108873842919276  0.7221103588126295  0.1248635666274360
  0.4442618979133726  0.7221298708834217  0.1249190443180515
  0.2773073160908010  0.2219748122027282  0.1238148317815639
  0.7776616112984998  0.7223157584904324  0.1241123434018534
  0.6109910381033103  0.2220161731070540  0.1240744548096454
  0.9441742899965997  0.2220576458993114  0.1248244824805194
  0.1107983869138172  0.3887167487340965  0.6251372770344222
  0.2775697076367678  0.8887999161615133  0.6251056512199737
  0.6109252675302448  0.8888418850914686  0.6251343465890925
  0.4435914533587848  0.3884623933460550  0.6273452849637022
  0.9442260469702681  0.8888389085533774  0.6250770297808373
  0.1108829684372448  0.8888024009485233  0.1248418997735888
  0.7776616112984998  0.3886791861413800  0.6258876565981478
  0.4442443126180879  0.8887888229757038  0.1248702244792113
  0.2773073160908006  0.3886658372214034  0.1238148317815639
  0.2775641752903945  0.5554188960300541  0.1248729109860660
  0.6112177236172279  0.3886080496124756  0.1224447026144719
  0.7776023252942943  0.8889072732137064  0.1248270884724805
  0.9442260469702725  0.3887204717502189  0.1249229702191671
  0.1108829684372443  0.5554139008220420  0.6251581002264140
  0.2775641752903945  0.0554786125936728  0.6251270890139298
  0.7776027031569802  0.5554680182451615  0.6258778962867136
  0.6109252675302448  0.0554167157721018  0.6251343465890925
  0.9441742899965997  0.0554499774306253  0.6251755175194801
  0.0587766552929100  0.1128655263686774  0.3750000000000000
  0.5558805813364471  0.6274572353955976  0.3750000000000000
  0.3869857754630323  0.1019103762707407  0.3750000000000000
  0.8863670139988955  0.6098501736661220  0.3750000000000000
  0.7249960870416661  0.1109378389915227  0.3750000000000000
  0.0558372027743558  0.7779126674726730  0.8750000000000000
  0.3891342426765235  0.7779132415383906  0.8750000000000000
  0.2224764647047237  0.2779048990190332  0.8750000000000000
  0.7224649014196252  0.7778754908993116  0.8750000000000000
  0.5557683889049032  0.2778722762303385  0.8750000000000000
  0.8891392950747671  0.2779209943154280  0.8750000000000000
  0.2201497153149220  0.7767415243241284  0.3750000000000000
  0.0587766552929099  0.2792444622575693  0.3750000000000000
  0.3871592798421226  0.2633963996749289  0.3750000000000000
  0.5560204526678278  0.7852100468119354  0.3750000000000000
  0.8904796919460412  0.7799056992196969  0.3750000000000000
  0.7251091474195906  0.2750590762454793  0.3750000000000000
  0.0558061722980113  0.9445534554782762  0.8750000000000000
  0.3891342426765235  0.9445543344714667  0.8750000000000000
  0.2224582229312019  0.4445850289410559  0.8750000000000000
  0.5557868614159840  0.4445600973746566  0.8750000000000000
  0.7224659018751556  0.9445560365618915  0.8750000000000000
  0.8891589093896748  0.4445996333291368  0.8750000000000000
  0.0561305546828195  0.4452362347189709  0.3750000000000000
  0.2202777021281397  0.9412245131710030  0.3750000000000000
  0.5561519789128072  0.9447426561230656  0.3750000000000000
  0.3871592798421233  0.4570962135005356  0.3750000000000000
  0.8920083501653311  0.9472105401619030  0.3750000000000000
  0.7243083137337538  0.4410168266263678  0.3750000000000000
  0.2224675518030285  0.6112539706865789  0.8750000000000000
  0.0558079283997468  0.1112306843701946  0.8750000000000000
  0.5557683889049039  0.6112294460079034  0.8750000000000000
  0.3891107914380209  0.1111890886593882  0.8750000000000000
  0.8892032087865496  0.6112682710599540  0.8750000000000000
  0.0537534436057977  0.6107401349473300  0.3750000000000000
  0.7224659018751556  0.1112431986466049  0.8750000000000000
  0.2216907051651759  0.1080493033591944  0.3750000000000000
  0.3869857754630310  0.6184087325256322  0.3750000000000000
  0.7243083137337534  0.6166248204407200  0.3750000000000000
  0.5560204526678284  0.1041437391892273  0.3750000000000000
  0.3891107914380209  0.6112550361119757  0.8750000000000000
  0.8923599336926115  0.1128466335129773  0.3750000000000000
  0.2224844785141573  0.7779089059237452  0.8750000000000000
  0.0558079283997467  0.2779105773628865  0.8750000000000000
  0.3891238004026127  0.2778552921033182  0.8750000000000000
  0.5557886557128966  0.7778942387936650  0.8750000000000000
  0.8891589093896746  0.7778926093938724  0.8750000000000000
  0.7224649014196250  0.2779227438536507  0.8750000000000000
  0.0537534436057977  0.7763466419918068  0.3750000000000000
  0.3874457582721186  0.7797055306140742  0.3750000000000000
  0.2266425271221268  0.2799879302277345  0.3750000000000000
  0.7251091474195906  0.7833834045074395  0.3750000000000000
  0.5558805813364505  0.2617566792741886  0.3750000000000000
  0.8920083501653271  0.2781311433367677  0.3750000000000000
  0.0558061722980113  0.4445860501530590  0.8750000000000000
  0.2224675518030294  0.9445469144497798  0.8750000000000000
  0.5557992932965681  0.9445663133149486  0.8750000000000000
  0.3891238004026127  0.4446018416326279  0.8750000000000000
  0.8891392950747671  0.9445516340926730  0.8750000000000000
  0.0561305546828192  0.9442276532971794  0.3750000000000000
  0.7225119089605183  0.4446122229671609  0.8750000000000000
  0.3874457582721186  0.9410735609913855  0.3750000000000000
  0.2216907051651747  0.4469747351393156  0.3750000000000000
  0.2202777021281400  0.6123865222904731  0.3750000000000000
  0.7249960870416661  0.9473915813834772  0.3750000000000000
  0.8904796919460382  0.4439073260596865  0.3750000000000000
  0.0558372027743558  0.6112578686350162  0.8750000000000000
  0.2224582229312021  0.1112065273234807  0.8750000000000000
  0.7225119089605181  0.6112330193266976  0.8750000000000000
  0.5557886557128966  0.1112277502525668  0.8750000000000000
  0.8891405200864936  0.1112369267099161  0.8750000000000000
  0.1125056020019155  0.0553641491161886  0.3750000000000000
  0.6144767889567514  0.5776782343827449  0.3750000000000000
  0.4444601997431959  0.0505744509236179  0.3750000000000000
  0.9426818388493624  0.5549026544005534  0.3750000000000000
  0.7814259493052410  0.0573796413192863  0.3750000000000000
  0.1113690603558513  0.7223511968445905  0.8750000000000000
  0.4446774915541019  0.7222609510720068  0.8750000000000000
  0.2781792528886392  0.2224428947305440  0.8750000000000000
  0.7779312666670922  0.7221746079865727  0.8750000000000000
  0.6112798425361786  0.2224551828872169  0.8750000000000000
  0.9447304344975618  0.2223891607540789  0.8750000000000000
  0.2764620609703178  0.7227356415560418  0.3750000000000000
  0.1165446789389658  0.2249390061361457  0.3750000000000000
  0.4426491951700859  0.2118465179198786  0.3750000000000000
  0.6132906542163757  0.7333195453452233  0.3750000000000000
  0.9426818388493624  0.7211125177821490  0.3750000000000000
  0.7811229934392446  0.2217386214033935  0.3750000000000000
  0.1113899410405149  0.8890224034458728  0.8750000000000000
  0.4446797242236703  0.8890065287784962  0.8750000000000000
  0.2781792528886392  0.3890696914914242  0.8750000000000000
  0.6112584647365767  0.3890877705431184  0.8750000000000000
  0.7779772850368970  0.8888946621562757  0.8750000000000000
  0.9446831378289803  0.3890659813194591  0.8750000000000000
  0.1125056020019153  0.3904747862190517  0.3750000000000000
  0.2764620609703178  0.8870597527476091  0.3750000000000000
  0.6135260288607202  0.8931886751366803  0.3750000000000000
  0.9460440970244572  0.8903224837800805  0.3750000000000000
  0.7799851681572753  0.3870631153017514  0.3750000000000000
  0.2780901300905652  0.5556731821807700  0.8750000000000000
  0.1114355718726555  0.0557158702912418  0.8750000000000000
  0.6112584647365770  0.5555040275267807  0.8750000000000000
  0.4446774915541019  0.0557498738154360  0.8750000000000000
  0.9446643055642403  0.5557039935898659  0.8750000000000000
  0.1099037861635337  0.5560003890276665  0.3750000000000000
  0.7780070404822421  0.0556701869077886  0.8750000000000000
  0.2766863798275920  0.0520521874744313  0.3750000000000000
  0.4426491951700858  0.5641360105835470  0.3750000000000000
  0.7736654275562390  0.5534993804447913  0.3750000000000000
  0.6135260288607202  0.0536706870573620  0.3750000000000000
  0.4447247273137088  0.5555987725537819  0.8750000000000000
  0.9483535887380102  0.0580137155746011  0.3750000000000000
  0.2780480594120949  0.7223376582026739  0.8750000000000000
  0.1114903611565474  0.2224118472449380  0.8750000000000000
  0.4447247273137088  0.2224592880932640  0.8750000000000000
  0.6112798425361786  0.7221579929822898  0.8750000000000000
  0.9446643055642403  0.7222936453077045  0.8750000000000000
  0.7779772850368970  0.2224159562139338  0.8750000000000000
  0.1093501466732522  0.7213417400032889  0.3750000000000000
  0.4444601997431954  0.7272190821529206  0.3750000000000000
  0.2814063665782957  0.2209456543497684  0.3750000000000000
  0.7799851681572749  0.7262553861888547  0.3750000000000000
  0.6132906542163720  0.2133044422044842  0.3750000000000000
  0.9483535887380080  0.2236732064967427  0.3750000000000000
  0.1114355718726555  0.3890530349147427  0.8750000000000000
  0.2780480594120949  0.8890437345427534  0.8750000000000000
  0.6113174924405010  0.8889358873950066  0.8750000000000000
  0.4448058144006312  0.3890695738669790  0.8750000000000000
  0.9446831378289809  0.8889504898428510  0.8750000000000000
  0.1099037861635345  0.8872367304691972  0.3750000000000000
  0.7779312666670981  0.3890899920138512  0.8750000000000000
  0.4446448452125595  0.8889890892729460  0.3750000000000000
  0.2814063665782946  0.3937940455618546  0.3750000000000000
  0.2766863798275920  0.5579675256864929  0.3750000000000000
  0.6144767889567582  0.3701318879073359  0.3750000000000000
  0.7811229934392451  0.8927177053691840  0.3750000000000000
  0.9460440970244585  0.3890549465777151  0.3750000000000000
  0.1113899410405149  0.5557008709279728  0.8750000000000000
  0.2780901300905652  0.0557502812431270  0.8750000000000000
  0.7779308866354324  0.5556321099843839  0.8750000000000000
  0.6113174924405015  0.0557149383788187  0.8750000000000000
  0.9447304344975618  0.0556746070768181  0.8750000000000000
  0.0553682532052264  0.1110722998776219  0.1252331153407517
  0.5555329585142874  0.6107521153825186  0.1243739464876922
  0.3888949009925206  0.1114885211766275  0.1252895624378887
  0.8882636056688361  0.6107984695010903  0.1251192021881760
  0.7219947090769540  0.1110077104086216  0.1251315313041332
  0.0552251130162095  0.7776572966063455  0.6248440740669408
  0.3887699807757291  0.7775892134663838  0.6247745164477796
  0.2221128103431454  0.2777230718382444  0.6250629392199442
  0.7219225383973594  0.7775886082421802  0.6251671345142199
  0.5555329585142854  0.2781141764650870  0.6256260535123087
  0.8886262497276511  0.2776087315853442  0.6248364513205051
  0.2220344163883256  0.7776838748608330  0.1251206537478733
  0.0553682532052264  0.2776292866609420  0.1252331153407517
  0.3887435186270612  0.2780366778458040  0.1246525307693829
  0.5554092621763940  0.7775500194403925  0.1250775314668211
  0.8884849079548715  0.7776077174087712  0.1250345019663212
  0.7219225383973594  0.2776672634885128  0.1248328654857885
  0.0553306518551217  0.9444331197043293  0.6247775966532565
  0.3887699807757291  0.9445141006426858  0.6247745164477796
  0.2221184992155514  0.4441842877562247  0.6248498848591330
  0.5551784400537022  0.4442558866935154  0.6184051302186516
  0.7219947090769540  0.9443203320016594  0.6248684686958662
  0.8884849079548715  0.4442105238794371  0.6249654980336857
  0.0553306518551219  0.4442308654841151  0.1252224033467459
  0.2221037436083183  0.9445699881789669  0.1252213744886466
  0.5553806814940491  0.9443570074136866  0.1251926298888753
  0.3887435186270612  0.4440401741145958  0.1246525307693824
  0.8886262497276509  0.9443508514756518  0.1251635486794948
  0.7214992573251900  0.4440431938837537  0.1240123979699718
  0.2221037436083185  0.6108670887626871  0.6247786255113523
  0.0553682532052263  0.1110722998776218  0.6247668846592498
  0.5555329585142854  0.6107521153825186  0.6256260535123115
  0.3888949009925206  0.1114885211766276  0.6247104375621128
  0.8882636056688361  0.6107984695010901  0.6248807978118193
  0.0552251130162092  0.6109011497432016  0.1251559259330616
  0.7219947090769540  0.1110077104086217  0.6248684686958662
  0.2221184992155514  0.1112675447926613  0.1251501151408602
  0.3888949009925206  0.6107397131492359  0.1252895624378887
  0.7214992573251926  0.6107893967747802  0.1240123979699714
  0.5554092621763940  0.1111925760693384  0.1250775314668211
  0.3888949009925206  0.6107397131492363  0.6247104375621128
  0.8886579944274350  0.1109956638803881  0.1251040836844703
  0.2220344163883256  0.7776838748608330  0.6248793462521165
  0.0553682532052264  0.2776292866609420  0.6247668846592498
  0.3887435186270612  0.2780366778458040  0.6253474692306259
  0.5554092621763940  0.7775500194403919  0.6249224685331763
  0.8884849079548715  0.7776077174087712  0.6249654980336857
  0.7219225383973594  0.2776672634885096  0.6251671345142199
  0.0552251130162092  0.7776572966063455  0.1251559259330616
  0.3887699807757291  0.7775892134663838  0.1252254835522259
  0.2221128103431466  0.2777230718382444  0.1249370607800525
  0.7219225383973594  0.7775886082421802  0.1248328654857885
  0.5555329585142874  0.2781141764650885  0.1243739464876922
  0.8886262497276509  0.2776087315853442  0.1251635486794948
  0.0553306518551218  0.4442308654841151  0.6247775966532565
  0.2221037436083185  0.9445699881789669  0.6247786255113523
  0.5553806814940491  0.9443570074136866  0.6248073701111274
  0.3887435186270612  0.4440401741145958  0.6253474692306259
  0.8886262497276511  0.9443508514756518  0.6248364513205051
  0.0553306518551220  0.9444331197043293  0.1252224033467459
  0.7214992573251926  0.4440431938837537  0.6259876020300276
  0.3887699807757291  0.9445141006426858  0.1252254835522259
  0.2221184992155517  0.4441842877562247  0.1251501151408602
  0.2221037436083183  0.6108670887626871  0.1252213744886461
  0.5551784400537022  0.4442558866935154  0.1315948697813491
  0.7219947090769540  0.9443203320016594  0.1251315313041334
  0.8884849079548715  0.4442105238794371  0.1250345019663212
  0.0552251130162094  0.6109011497432016  0.6248440740669408
  0.2221184992155517  0.1112675447926613  0.6248498848591330
  0.7214992573251900  0.6107893967747802  0.6259876020300276
  0.5554092621763940  0.1111925760693384  0.6249224685331763
  0.8886579944274350  0.1109956638803884  0.6248959163155329
 
  0.00000000E+00  0.00000000E+00  0.00000000E+00
  0.00000000E+00  0.00000000E+00  0.00000000E+00
  0.00000000E+00  0.00000000E+00  0.00000000E+00
  0.00000000E+00  0.00000000E+00  0.00000000E+00
  0.00000000E+00  0.00000000E+00  0.00000000E+00
  0.00000000E+00  0.00000000E+00  0.00000000E+00
  0.00000000E+00  0.00000000E+00  0.00000000E+00
  0.00000000E+00  0.00000000E+00  0.00000000E+00
  0.00000000E+00  0.00000000E+00  0.00000000E+00
  0.00000000E+00  0.00000000E+00  0.00000000E+00
  0.00000000E+00  0.00000000E+00  0.00000000E+00
  0.00000000E+00  0.00000000E+00  0.00000000E+00
  0.00000000E+00  0.00000000E+00  0.00000000E+00
  0.00000000E+00  0.00000000E+00  0.00000000E+00
  0.00000000E+00  0.00000000E+00  0.00000000E+00
  0.00000000E+00  0.00000000E+00  0.00000000E+00
  0.00000000E+00  0.00000000E+00  0.00000000E+00
  0.00000000E+00  0.00000000E+00  0.00000000E+00
  0.00000000E+00  0.00000000E+00  0.00000000E+00
  0.00000000E+00  0.00000000E+00  0.00000000E+00
  0.00000000E+00  0.00000000E+00  0.00000000E+00
  0.00000000E+00  0.00000000E+00  0.00000000E+00
  0.00000000E+00  0.00000000E+00  0.00000000E+00
  0.00000000E+00  0.00000000E+00  0.00000000E+00
  0.00000000E+00  0.00000000E+00  0.00000000E+00
  0.00000000E+00  0.00000000E+00  0.00000000E+00
  0.00000000E+00  0.00000000E+00  0.00000000E+00
  0.00000000E+00  0.00000000E+00  0.00000000E+00
  0.00000000E+00  0.00000000E+00  0.00000000E+00
  0.00000000E+00  0.00000000E+00  0.00000000E+00
  0.00000000E+00  0.00000000E+00  0.00000000E+00
  0.00000000E+00  0.00000000E+00  0.00000000E+00
  0.00000000E+00  0.00000000E+00  0.00000000E+00
  0.00000000E+00  0.00000000E+00  0.00000000E+00
  0.00000000E+00  0.00000000E+00  0.00000000E+00
  0.00000000E+00  0.00000000E+00  0.00000000E+00
  0.00000000E+00  0.00000000E+00  0.00000000E+00
  0.00000000E+00  0.00000000E+00  0.00000000E+00
  0.00000000E+00  0.00000000E+00  0.00000000E+00
  0.00000000E+00  0.00000000E+00  0.00000000E+00
  0.00000000E+00  0.00000000E+00  0.00000000E+00
  0.00000000E+00  0.00000000E+00  0.00000000E+00
  0.00000000E+00  0.00000000E+00  0.00000000E+00
  0.00000000E+00  0.00000000E+00  0.00000000E+00
  0.00000000E+00  0.00000000E+00  0.00000000E+00
  0.00000000E+00  0.00000000E+00  0.00000000E+00
  0.00000000E+00  0.00000000E+00  0.00000000E+00
  0.00000000E+00  0.00000000E+00  0.00000000E+00
  0.00000000E+00  0.00000000E+00  0.00000000E+00
  0.00000000E+00  0.00000000E+00  0.00000000E+00
  0.00000000E+00  0.00000000E+00  0.00000000E+00
  0.00000000E+00  0.00000000E+00  0.00000000E+00
  0.00000000E+00  0.00000000E+00  0.00000000E+00
  0.00000000E+00  0.00000000E+00  0.00000000E+00
  0.00000000E+00  0.00000000E+00  0.00000000E+00
  0.00000000E+00  0.00000000E+00  0.00000000E+00
  0.00000000E+00  0.00000000E+00  0.00000000E+00
  0.00000000E+00  0.00000000E+00  0.00000000E+00
  0.00000000E+00  0.00000000E+00  0.00000000E+00
  0.00000000E+00  0.00000000E+00  0.00000000E+00
  0.00000000E+00  0.00000000E+00  0.00000000E+00
  0.00000000E+00  0.00000000E+00  0.00000000E+00
  0.00000000E+00  0.00000000E+00  0.00000000E+00
  0.00000000E+00  0.00000000E+00  0.00000000E+00
  0.00000000E+00  0.00000000E+00  0.00000000E+00
  0.00000000E+00  0.00000000E+00  0.00000000E+00
  0.00000000E+00  0.00000000E+00  0.00000000E+00
  0.00000000E+00  0.00000000E+00  0.00000000E+00
  0.00000000E+00  0.00000000E+00  0.00000000E+00
  0.00000000E+00  0.00000000E+00  0.00000000E+00
  0.00000000E+00  0.00000000E+00  0.00000000E+00
  0.00000000E+00  0.00000000E+00  0.00000000E+00
  0.00000000E+00  0.00000000E+00  0.00000000E+00
  0.00000000E+00  0.00000000E+00  0.00000000E+00
  0.00000000E+00  0.00000000E+00  0.00000000E+00
  0.00000000E+00  0.00000000E+00  0.00000000E+00
  0.00000000E+00  0.00000000E+00  0.00000000E+00
  0.00000000E+00  0.00000000E+00  0.00000000E+00
  0.00000000E+00  0.00000000E+00  0.00000000E+00
  0.00000000E+00  0.00000000E+00  0.00000000E+00
  0.00000000E+00  0.00000000E+00  0.00000000E+00
  0.00000000E+00  0.00000000E+00  0.00000000E+00
  0.00000000E+00  0.00000000E+00  0.00000000E+00
  0.00000000E+00  0.00000000E+00  0.00000000E+00
  0.00000000E+00  0.00000000E+00  0.00000000E+00
  0.00000000E+00  0.00000000E+00  0.00000000E+00
  0.00000000E+00  0.00000000E+00  0.00000000E+00
  0.00000000E+00  0.00000000E+00  0.00000000E+00
  0.00000000E+00  0.00000000E+00  0.00000000E+00
  0.00000000E+00  0.00000000E+00  0.00000000E+00
  0.00000000E+00  0.00000000E+00  0.00000000E+00
  0.00000000E+00  0.00000000E+00  0.00000000E+00
  0.00000000E+00  0.00000000E+00  0.00000000E+00
  0.00000000E+00  0.00000000E+00  0.00000000E+00
  0.00000000E+00  0.00000000E+00  0.00000000E+00
  0.00000000E+00  0.00000000E+00  0.00000000E+00
  0.00000000E+00  0.00000000E+00  0.00000000E+00
  0.00000000E+00  0.00000000E+00  0.00000000E+00
  0.00000000E+00  0.00000000E+00  0.00000000E+00
  0.00000000E+00  0.00000000E+00  0.00000000E+00
  0.00000000E+00  0.00000000E+00  0.00000000E+00
  0.00000000E+00  0.00000000E+00  0.00000000E+00
  0.00000000E+00  0.00000000E+00  0.00000000E+00
  0.00000000E+00  0.00000000E+00  0.00000000E+00
  0.00000000E+00  0.00000000E+00  0.00000000E+00
  0.00000000E+00  0.00000000E+00  0.00000000E+00
  0.00000000E+00  0.00000000E+00  0.00000000E+00
  0.00000000E+00  0.00000000E+00  0.00000000E+00
  0.00000000E+00  0.00000000E+00  0.00000000E+00
  0.00000000E+00  0.00000000E+00  0.00000000E+00
  0.00000000E+00  0.00000000E+00  0.00000000E+00
  0.00000000E+00  0.00000000E+00  0.00000000E+00
  0.00000000E+00  0.00000000E+00  0.00000000E+00
  0.00000000E+00  0.00000000E+00  0.00000000E+00
  0.00000000E+00  0.00000000E+00  0.00000000E+00
  0.00000000E+00  0.00000000E+00  0.00000000E+00
  0.00000000E+00  0.00000000E+00  0.00000000E+00
  0.00000000E+00  0.00000000E+00  0.00000000E+00
  0.00000000E+00  0.00000000E+00  0.00000000E+00
  0.00000000E+00  0.00000000E+00  0.00000000E+00
  0.00000000E+00  0.00000000E+00  0.00000000E+00
  0.00000000E+00  0.00000000E+00  0.00000000E+00
  0.00000000E+00  0.00000000E+00  0.00000000E+00
  0.00000000E+00  0.00000000E+00  0.00000000E+00
  0.00000000E+00  0.00000000E+00  0.00000000E+00
  0.00000000E+00  0.00000000E+00  0.00000000E+00
  0.00000000E+00  0.00000000E+00  0.00000000E+00
  0.00000000E+00  0.00000000E+00  0.00000000E+00
  0.00000000E+00  0.00000000E+00  0.00000000E+00
  0.00000000E+00  0.00000000E+00  0.00000000E+00
  0.00000000E+00  0.00000000E+00  0.00000000E+00
  0.00000000E+00  0.00000000E+00  0.00000000E+00
  0.00000000E+00  0.00000000E+00  0.00000000E+00
  0.00000000E+00  0.00000000E+00  0.00000000E+00
  0.00000000E+00  0.00000000E+00  0.00000000E+00
  0.00000000E+00  0.00000000E+00  0.00000000E+00
  0.00000000E+00  0.00000000E+00  0.00000000E+00
  0.00000000E+00  0.00000000E+00  0.00000000E+00
  0.00000000E+00  0.00000000E+00  0.00000000E+00
  0.00000000E+00  0.00000000E+00  0.00000000E+00
  0.00000000E+00  0.00000000E+00  0.00000000E+00
  0.00000000E+00  0.00000000E+00  0.00000000E+00
  0.00000000E+00  0.00000000E+00  0.00000000E+00
  0.00000000E+00  0.00000000E+00  0.00000000E+00
  0.00000000E+00  0.00000000E+00  0.00000000E+00
  0.00000000E+00  0.00000000E+00  0.00000000E+00
  0.00000000E+00  0.00000000E+00  0.00000000E+00
  0.00000000E+00  0.00000000E+00  0.00000000E+00
  0.00000000E+00  0.00000000E+00  0.00000000E+00
  0.00000000E+00  0.00000000E+00  0.00000000E+00
  0.00000000E+00  0.00000000E+00  0.00000000E+00
  0.00000000E+00  0.00000000E+00  0.00000000E+00
  0.00000000E+00  0.00000000E+00  0.00000000E+00
  0.00000000E+00  0.00000000E+00  0.00000000E+00
  0.00000000E+00  0.00000000E+00  0.00000000E+00
  0.00000000E+00  0.00000000E+00  0.00000000E+00
  0.00000000E+00  0.00000000E+00  0.00000000E+00
  0.00000000E+00  0.00000000E+00  0.00000000E+00
  0.00000000E+00  0.00000000E+00  0.00000000E+00
  0.00000000E+00  0.00000000E+00  0.00000000E+00
  0.00000000E+00  0.00000000E+00  0.00000000E+00
  0.00000000E+00  0.00000000E+00  0.00000000E+00
  0.00000000E+00  0.00000000E+00  0.00000000E+00
  0.00000000E+00  0.00000000E+00  0.00000000E+00
  0.00000000E+00  0.00000000E+00  0.00000000E+00
  0.00000000E+00  0.00000000E+00  0.00000000E+00
  0.00000000E+00  0.00000000E+00  0.00000000E+00
  0.00000000E+00  0.00000000E+00  0.00000000E+00
  0.00000000E+00  0.00000000E+00  0.00000000E+00
  0.00000000E+00  0.00000000E+00  0.00000000E+00
  0.00000000E+00  0.00000000E+00  0.00000000E+00
  0.00000000E+00  0.00000000E+00  0.00000000E+00
  0.00000000E+00  0.00000000E+00  0.00000000E+00
  0.00000000E+00  0.00000000E+00  0.00000000E+00
  0.00000000E+00  0.00000000E+00  0.00000000E+00
  0.00000000E+00  0.00000000E+00  0.00000000E+00
  0.00000000E+00  0.00000000E+00  0.00000000E+00
  0.00000000E+00  0.00000000E+00  0.00000000E+00
  0.00000000E+00  0.00000000E+00  0.00000000E+00
  0.00000000E+00  0.00000000E+00  0.00000000E+00
  0.00000000E+00  0.00000000E+00  0.00000000E+00
  0.00000000E+00  0.00000000E+00  0.00000000E+00
  0.00000000E+00  0.00000000E+00  0.00000000E+00
  0.00000000E+00  0.00000000E+00  0.00000000E+00
  0.00000000E+00  0.00000000E+00  0.00000000E+00
  0.00000000E+00  0.00000000E+00  0.00000000E+00
  0.00000000E+00  0.00000000E+00  0.00000000E+00
  0.00000000E+00  0.00000000E+00  0.00000000E+00
  0.00000000E+00  0.00000000E+00  0.00000000E+00
  0.00000000E+00  0.00000000E+00  0.00000000E+00
  0.00000000E+00  0.00000000E+00  0.00000000E+00
  0.00000000E+00  0.00000000E+00  0.00000000E+00
  0.00000000E+00  0.00000000E+00  0.00000000E+00
  0.00000000E+00  0.00000000E+00  0.00000000E+00
  0.00000000E+00  0.00000000E+00  0.00000000E+00
  0.00000000E+00  0.00000000E+00  0.00000000E+00
  0.00000000E+00  0.00000000E+00  0.00000000E+00
  0.00000000E+00  0.00000000E+00  0.00000000E+00
  0.00000000E+00  0.00000000E+00  0.00000000E+00
  0.00000000E+00  0.00000000E+00  0.00000000E+00
  0.00000000E+00  0.00000000E+00  0.00000000E+00
  0.00000000E+00  0.00000000E+00  0.00000000E+00
  0.00000000E+00  0.00000000E+00  0.00000000E+00
  0.00000000E+00  0.00000000E+00  0.00000000E+00
  0.00000000E+00  0.00000000E+00  0.00000000E+00
  0.00000000E+00  0.00000000E+00  0.00000000E+00
  0.00000000E+00  0.00000000E+00  0.00000000E+00
  0.00000000E+00  0.00000000E+00  0.00000000E+00
  0.00000000E+00  0.00000000E+00  0.00000000E+00
  0.00000000E+00  0.00000000E+00  0.00000000E+00
  0.00000000E+00  0.00000000E+00  0.00000000E+00
  0.00000000E+00  0.00000000E+00  0.00000000E+00
  0.00000000E+00  0.00000000E+00  0.00000000E+00
  0.00000000E+00  0.00000000E+00  0.00000000E+00
  0.00000000E+00  0.00000000E+00  0.00000000E+00
  0.00000000E+00  0.00000000E+00  0.00000000E+00
  0.00000000E+00  0.00000000E+00  0.00000000E+00
  0.00000000E+00  0.00000000E+00  0.00000000E+00
  0.00000000E+00  0.00000000E+00  0.00000000E+00
  0.00000000E+00  0.00000000E+00  0.00000000E+00
  0.00000000E+00  0.00000000E+00  0.00000000E+00
  0.00000000E+00  0.00000000E+00  0.00000000E+00
  0.00000000E+00  0.00000000E+00  0.00000000E+00
  0.00000000E+00  0.00000000E+00  0.00000000E+00
  0.00000000E+00  0.00000000E+00  0.00000000E+00
  0.00000000E+00  0.00000000E+00  0.00000000E+00
  0.00000000E+00  0.00000000E+00  0.00000000E+00
  0.00000000E+00  0.00000000E+00  0.00000000E+00
  0.00000000E+00  0.00000000E+00  0.00000000E+00
  0.00000000E+00  0.00000000E+00  0.00000000E+00
  0.00000000E+00  0.00000000E+00  0.00000000E+00
  0.00000000E+00  0.00000000E+00  0.00000000E+00
  0.00000000E+00  0.00000000E+00  0.00000000E+00
  0.00000000E+00  0.00000000E+00  0.00000000E+00
  0.00000000E+00  0.00000000E+00  0.00000000E+00
  0.00000000E+00  0.00000000E+00  0.00000000E+00
  0.00000000E+00  0.00000000E+00  0.00000000E+00
  0.00000000E+00  0.00000000E+00  0.00000000E+00
  0.00000000E+00  0.00000000E+00  0.00000000E+00
  0.00000000E+00  0.00000000E+00  0.00000000E+00
  0.00000000E+00  0.00000000E+00  0.00000000E+00
  0.00000000E+00  0.00000000E+00  0.00000000E+00
  0.00000000E+00  0.00000000E+00  0.00000000E+00
  0.00000000E+00  0.00000000E+00  0.00000000E+00
  0.00000000E+00  0.00000000E+00  0.00000000E+00
  0.00000000E+00  0.00000000E+00  0.00000000E+00
  0.00000000E+00  0.00000000E+00  0.00000000E+00
  0.00000000E+00  0.00000000E+00  0.00000000E+00