 B N Al 
 1.0
 17.527899999999772   0.000000000000000   0.000000000000000
 -8.763949999999658  15.179606674993195   0.000000000000000
  0.000000000000001   0.000000000000002  15.000000000000000
 B N Al 
  48  48   2
Cartesian
  7.511929093666859  14.497929250073545   1.665849967321635 
 14.993059080642221   1.463511541117181   1.665483341495580 
 13.736942108649822   3.625892814172588   1.665619017013350 
 12.507104430166217   5.797096851817685   1.664977756356645 
 11.287049536741549   7.972352161949559   1.665778871717580 
 10.060361678003570  10.166758172433301   1.666292747577360 
  8.815468156710327  12.368392227590219   1.665637232186580 
 -7.505091362138684  14.452824755525850   1.666260862537935 
 -0.035642772339109   1.425151304373690   1.665849967321635 
 -1.306082848506309   3.603473613086135   1.664963641064805 
 -2.544708372011196   5.784240071146113   1.664595152345265 
 -3.756002771495718   7.957056305041879   1.665642154295700 
 -4.981720979183007  10.126091284440390   1.666980699121365 
 -6.228623927993095  12.296091195465451   1.666874923707690 
 -4.999071592858598  14.425738310482831   1.666874923707690 
  2.460359918952631   1.361021872194657   1.665637232186580 
  1.167179122028337   3.537959115184044   1.664898399666750 
 -0.081535242100422   5.756274637255260   1.665576558270255 
 -1.268051882179886   7.943389411995164   1.666720719414495 
 -2.482340619358868  10.112403881204067   1.666852375365270 
 -3.732814234850305  12.274899540628242   1.666440064697715 
 -2.496345069278789  14.430888636271670   1.666980699121365 
  4.989477701219542   1.383729485326088   1.666292747577360 
  3.641551841630234   3.427361971541686   1.663062023240925 
  2.330772668234088   5.670455489770716   1.665252896797860 
  1.229870674700635   7.905995959366442   1.667362208879445 
  0.029585651001303  10.102676953742618   1.667799808350915 
 -1.234801250452273  12.273205452562671   1.666852375365270 
 -0.005046571578786  14.453903020232595   1.665642154295700 
  7.503232981885089   1.418589642386757   1.665778871717580 
  6.223351034512943   3.522475007736591   1.661399279722440 
  4.657174407836995   5.487370803968281   1.671151778636955 
  2.532109707991716  10.161540128625420   1.667362208879445 
  1.250764749647763  12.306107793240972   1.666720719414495 
  2.482314684455334  14.491299415765422   1.664595152345265 
  9.997086786870609   1.449618765735651   1.664977756356645 
  8.758529529724871   3.592480335165658   1.663312737088950 
  7.592216068027483   5.736390246681111   1.660502872535265 
  6.340352401349612   8.402720606942825   1.671151778636850 
  5.018595542599003  10.325901269945904   1.665252896797860 
  3.738120025587381  12.372111628288948   1.665576558270255 
  4.990226598608301  14.509001475664114   1.664963641064805 
 12.492323479512732   1.470150112460037   1.665619017013350 
 11.248004114179150   3.625720034134961   1.665265563165360 
 10.032053245673458   5.798288115832881   1.663312737088950 
  8.825090390013029   8.028819759544012   1.661399279722440 
  7.616561099146934  10.312279966148280   1.663062023240925 
  6.283594803374975  12.399851027918315   1.664898399666750 
  8.773358094187550  13.783498640252743   1.665795206376990 
 16.243476058814167   0.741576695239727   1.665573676479630 
 14.977294100196994   2.897931375643081   1.665181053582090 
 13.738682665491568   5.066150093276648   1.664662487165460 
 12.521852611727214   7.239145317248624   1.665093158518920 
 11.293522451240765   9.417387047818412   1.666767440453745 
 10.047328167414260  11.604298754591820   1.666523749471275 
 -6.250581559824766  13.728526916527766   1.666350762107310 
  1.213781357945425   0.689927649366872   1.665795206376990 
 -0.072895558031388   2.852934335036406   1.664974912298490 
 -1.319757868143406   5.043467368742380   1.664423803103460 
 -2.521743024411496   7.226257594822236   1.664980968186615 
 -3.738704502651784   9.398176590360785   1.666233443454150 
 -4.983920423636945  11.565538837397336   1.666409270507085 
 -3.744048367120138  13.713060234167740   1.666409270507085 
  3.738008855465714   0.676237145121763   1.666523749471275 
  2.401501162791831   2.769690928369358   1.664138637944835 
  1.114627983397521   4.969834519029405   1.665037017242880 
 -0.042053715477974   7.204265451345736   1.666674487630620 
 -1.235940763109391   9.388191657394639   1.667101260270915 
 -2.484388869016211  11.554114552669592   1.666503249969930 
 -1.244449641491596  13.718352736916477   1.666233443454150 
  6.255027091278357   0.690457090663603   1.666767440453745 
  4.958604650760011   2.815321881731526   1.663474838306535 
  3.505665344132629   4.819719229753884   1.663262604736290 
  2.395334701927159   7.086589260327521   1.665999064438080 
  1.284325702914712   9.378246180066380   1.667739161727360 
  0.015579433883580  11.555888225285097   1.667101260270915 
  1.244968122709420  13.750392679102653   1.664980968186615 
  8.755604845760317   0.715812832732381   1.665093158518920 
  7.502234108222963   2.856287196970262   1.663856151285840 
  6.214255617072356   4.943255406152738   1.657577892787185 
  3.824463311656061   9.561912622957720   1.665999064438080 
  2.503858532110311  11.613914815811714   1.666674487630620 
  3.736312487761804  13.800838111842356   1.664423803103460 
 11.245888938904656   0.748504706070472   1.664662487165460 
 10.002564015667737   2.891763094286496   1.664348516802795 
  8.805594796243469   5.035839444375337   1.661847293211120 
  7.590105335744227   7.326297022470176   1.657577892787185 
  6.342795666312816   9.733773095494350   1.663262604736290 
  5.017273331935690  11.729414546651713   1.665037017242880 
  6.256800897852998  13.816290193117389   1.664974912298490 
 13.742927146706803   0.759945097014093   1.665181053582090 
 12.489914517799569   2.908696461364176   1.665922813565595 
 11.260903992803527   5.071271867850471   1.664348516802795 
 10.041462067378671   7.254359034197790   1.663856151285840 
  8.805124342309860   9.477689419809096   1.663474838306535 
  7.566090163135967  11.715021477176572   1.664138637944835 
  4.023769981840539   7.796633555139782   1.664989381732710 
  5.937352822402211   6.691819720073538   1.666086939711705 
