 N B C 
 1.0
 17.527899999999772   0.000000000000000   0.000000000000000
 -8.763949999999658  15.179606674993195   0.000000000000000
  0.000000000000001   0.000000000000002  15.000000000000000
 N B C 
  48  48   1
Cartesian
  8.757890132411600  13.739336043434472   1.664536217123895 
 16.271089609615082   0.725636562096147   1.664384470560150 
 15.024222459886619   2.895415734502782   1.665104383441305 
 13.776165379987873   5.059868891664398   1.664757557704395 
 12.526435890835369   7.229127141107360   1.664049264572550 
 11.270955935946072   9.401012645727844   1.665535210242600 
 10.014408377563480  11.572771364525956   1.665634661636955 
 -6.266895141946664  13.737949138296983   1.664528654271540 
  1.244296365234885   0.725410616108489   1.664536262963925 
  0.002710138553252   2.904562664914409   1.663981745218035 
 -1.247901320727686   5.067822867668964   1.663910348014095 
 -2.506452795365994   7.232092643710364   1.664243001253725 
 -3.764907674454739   9.401508162299310   1.664776063580865 
 -5.015204192934588  11.570888265135196   1.664851294284165 
 -3.764320367151914  13.737482154528166   1.664851240989090 
  3.748856565726292   0.720516521457508   1.665634651961925 
  2.498514747450550   2.884830712964846   1.664796656887545 
  1.267641624921290   5.089117344541209   1.664455814841645 
 -0.008501299216137   7.240459320130023   1.664679286523340 
 -1.275108280009611   9.406699295356901   1.665501164544735 
 -2.517386053669977  11.573168993775035   1.665570711388320 
 -1.260434979001769  13.739385241775599   1.664776187090805 
  6.257929054684686   0.718191599330192   1.665535318677570 
  5.011071595692902   2.876299178236176   1.665855878060115 
  3.763935562433627   5.025940342241967   1.666681465191630 
  2.447794912504722   7.257433112823836   1.663519632037455 
  1.201336198732356   9.426163126509827   1.669585596600090 
 -0.020028489669392  11.580561307534241   1.665501084864675 
  1.247562066767408  13.734240766198281   1.664243222173755 
  8.766579045997217   0.716852211226053   1.664049796292610 
  7.523315797602415   2.873103952312040   1.664770943366565 
  6.284758776483752   5.021517194910087   1.664177455073430 
  3.702763885622097   9.431003977803618   1.663520717122440 
  2.489295746617519  11.566753185471139   1.664679304013250 
  3.751150046139814  13.726433333942563   1.663910398639200 
 11.270042835317719   0.719188772409550   1.664757716194470 
 10.018972283531081   2.886106531957311   1.664799102439875 
  8.775989052417710   5.052935013906105   1.664014504414395 
  7.557604423761531   7.226115069935805   1.664177828948445 
  6.293353410304070   9.407001224466400   1.666681473231600 
  4.990478891146942  11.537257236022739   1.664455913991675 
  6.249894512341361  13.725001860465483   1.663981789633065 
 13.768573266889518   0.720565983330694   1.665104338966380 
 12.521227353347516   2.890621446662773   1.665588563553180 
 11.274022943943558   5.059868891664398   1.664799219679845 
 10.037445802549573   7.227696104484759   1.664770407476625 
  8.778555929991708   9.401770331622972   1.665855586640100 
  7.514887577996787  11.573442163271070   1.664796700852485 
  7.502827224583287  14.456357496024129   1.664329356855375 
 15.019921755668138   1.447999131500102   1.665448348116450 
 13.772718844836049   3.616553559253320   1.665668541397680 
 12.526402100503832   5.783594687623634   1.664669703743100 
 11.282575905589052   7.955404552607132   1.665287947104285 
 10.024825040588745  10.128642751300436   1.666167356227905 
  8.763161037937273  12.297249695708199   1.665227647620405 
 -7.518790005889842  14.460731092481755   1.664739301134600 
 -0.004195126748250   1.453813886585508   1.664329332840450 
 -1.251037032569636   3.623028944413345   1.664291050420320 
 -2.501025458494924   5.787609247286678   1.664487597295125 
 -3.754551051271148   7.956058899599250   1.664507560138515 
 -5.010738918738631  10.126010347465296   1.665485099400555 
 -6.264000404098440  12.294768446361466   1.665110040893235 
 -5.015616573494143  14.457032242133106   1.665110055803235 
  2.495815848077648   1.441888903717252   1.665227617335405 
  1.259014564764997   3.632824257923312   1.665024009599265 
  0.007335084424931   5.799205234999590   1.664836227887040 
 -1.258810891162921   7.962345556725666   1.664961894916755 
 -2.519174079204538  10.127992546875866   1.665423377998245 
 -3.765464669426287  12.293746716684057   1.665232120765410 
 -2.510786915270778  14.456054054319621   1.665485140155480 
  5.004717491554778   1.433559484003416   1.666167532297950 
  3.752377117666083   3.587936054897508   1.666075358204100 
  2.551257032203994   5.818294239227313   1.665748161857595 
  1.243289983431404   7.997040390293149   1.667269095934200 
 -0.033761921052940  10.139249627744070   1.667830736703885 
 -1.266720671931164  12.297306336542475   1.665423347353320 
 -0.003459815732839  14.453137918778724   1.664507798203440 
  7.515672594511456   1.430932060800920   1.665288354999330 
  6.272867147770393   3.580768442690344   1.664941333250730 
  5.015596295128576   5.703804178405551   1.669922109307110 
  2.459989075090641  10.104368626149521   1.667269372714290 
  1.238969796214812  12.288619990956278   1.664961979051695 
  2.501236091982674  14.451780176310537   1.664487758245200 
 10.018427795311116   1.439650665724292   1.664669864993100 
  8.772499348941718   3.603265675012943   1.664667149700810 
  7.531006519300337   5.771729814367855   1.664431303422210 
  6.332149748535139   7.984100122612609   1.669922299162080 
  5.000804450000976  10.061020345852841   1.665748378802670 
  3.745372785555446  12.273673100790504   1.664836280087100 
  5.000810941421271  14.451546430390266   1.664291094910275 
 12.518298728166659   1.443831814944604   1.665668615032650 
 11.272658773952248   3.611481029159417   1.665531739680675 
 10.029695627592133   5.780790890611312   1.664666996430780 
  8.799372896798161   7.956789032839326   1.664941188800730 
  7.532915167318775  10.136013703182622   1.666075289369130 
  6.247352322568047  12.272878301894737   1.665024055949280 
  5.088867577200874   7.181722152060667   1.677712365501585 
