B N Al                                  
   1.0000000000000000     
     8.7639499999999995  -15.1796066749929999    0.0000000000000000
     8.7639499999999995   15.1796066749929999    0.0000000000000000
     0.0000000000000000    0.0000000000000000   15.0000000000000000
   B    N    Al
    49    47     1
Selective dynamics
Direct
  0.9026724759171638  0.9498591908549985  0.1069797634161713   T   T   T
  0.9036129197988964  0.0930228103666046  0.1093354875844738   T   T   T
  0.9042835604136891  0.2360888975154385  0.1090122857282154   T   T   T
  0.9046349667941292  0.3791618918270129  0.1068203394393958   T   T   T
  0.9059058117384677  0.5226226775098276  0.1044165085370268   T   T   T
  0.9062360001256259  0.6661206329978264  0.1033516111752409   T   T   T
  0.9046567923523572  0.8089255941356289  0.1025066213658930   T   T   T
  0.0474326132935694  0.9525501126787046  0.1066168860506181   T   T   T
  0.0477274956296193  0.0954094051377524  0.1068582548373105   T   T   T
  0.0477877058403248  0.2375351775228151  0.1076104321025037   T   T   T
  0.0475281105915181  0.3797714615760490  0.1077877442920247   T   T   T
  0.0474633221014326  0.5227898481088841  0.1084265112577635   T   T   T
  0.0475797230501068  0.6663606289975241  0.1088806611575286   T   T   T
  0.0476394867272934  0.8097046829346319  0.1073520776209027   T   T   T
  0.1905338333128451  0.9532226750274655  0.1088196221263138   T   T   T
  0.1908894673494573  0.0964240312117030  0.1045718244355423   T   T   T
  0.1932677038898668  0.2414127889449755  0.1035768498428468   T   T   T
  0.1915700163757524  0.3817414127458705  0.1046418656804134   T   T   T
  0.1897566758156193  0.5234508652636639  0.1063886087848975   T   T   T
  0.1887593318925353  0.6665662054845997  0.1108841223958243   T   T   T
  0.1899373900349876  0.8099420409182589  0.1122182000471763   T   T   T
  0.3331127412507048  0.9529356660195337  0.1108611522411551   T   T   T
  0.3338728886734414  0.0964103217934252  0.1068860734493762   T   T   T
  0.3342551176886099  0.2398731970849161  0.1037083528396959   T   T   T
  0.3413163117698567  0.3903434064535992  0.1070008161007381   T   T   T
  0.3334120174605753  0.5254778349288975  0.1050219361230508   T   T   T
  0.3295079369920323  0.6672704395036272  0.1072793991454132   T   T   T
  0.3321518505458574  0.8098815413353569  0.1125126552752520   T   T   T
  0.4755192097351486  0.9513055184200645  0.1103273226371551   T   T   T
  0.4762706709687859  0.0949956090058739  0.1077481310433320   T   T   T
  0.4770713518482098  0.2387410622794195  0.1141183374049625   T   T   T
  0.4694413972836053  0.3741998380204583  0.1468636025107999   T   T   T
  0.4946904098772196  0.5850222851487560  0.1332741680219491   T   T   T
  0.4675223568707437  0.6616740503303220  0.1216228081734260   T   T   T
  0.4741045249667619  0.8072734084151224  0.1135225060830130   T   T   T
  0.6174992837024373  0.9487150676523703  0.1107299777289038   T   T   T
  0.6185821412025923  0.0932172454951838  0.1079404032800659   T   T   T
  0.6191858705179399  0.2370634645720437  0.1091969912893696   T   T   T
  0.6199222118297789  0.3805505969105539  0.1266593452248787   T   T   T
  0.6373063768005626  0.5309987693507958  0.1535662538150582   T   T   T
  0.6123633347902906  0.6513359430664214  0.1139417306107668   T   T   T
  0.6146191708042117  0.8022049074432359  0.1134181229861891   T   T   T
  0.7592740783479925  0.9480760904470197  0.1096219150051221   T   T   T
  0.7608318716342322  0.0923571909515166  0.1094677524041719   T   T   T
  0.7615929840664809  0.2359515708743336  0.1074626197819741   T   T   T
  0.7620816709008663  0.3792812367494391  0.1073626474449990   T   T   T
  0.7650855944223361  0.5225907852350218  0.1097892671697353   T   T   T
  0.7650313526364633  0.6659595558646857  0.1038484712206196   T   T   T
  0.7570617023635093  0.8032070547611568  0.1059148820426947   T   T   T
  0.9521159242393200  0.9041735592487624  0.1053757033731313   T   T   T
  0.9515803543280105  0.0459784067196074  0.1082169560707785   T   T   T
  0.9519271868718029  0.1886436723466020  0.1094211631093226   T   T   T
  0.9520147705508860  0.3314383309948744  0.1083175777327597   T   T   T
  0.9526168653013763  0.4745093858298824  0.1064246005101483   T   T   T
  0.9532339022767112  0.6181241603829650  0.1050667413535616   T   T   T
  0.9529181947803244  0.7617012463132345  0.1034490723614327   T   T   T
  0.0952514898608334  0.9051427142152549  0.1079498907316300   T   T   T
  0.0953584807717996  0.0479164933450295  0.1063288120194970   T   T   T
  0.0964909133079676  0.1912587917088595  0.1061619158140741   T   T   T
  0.0954090833328607  0.3326463929702517  0.1068286265226656   T   T   T
  0.0944848667822765  0.4750011609969729  0.1080127874868875   T   T   T
  0.0941091177821637  0.6182645730795392  0.1105191020385854   T   T   T
  0.0949333984789819  0.7619098493378582  0.1103843784574407   T   T   T
  0.2377966170175019  0.9053443485626673  0.1116373297882165   T   T   T
  0.2383320618865526  0.0484783311332591  0.1063721867019786   T   T   T
  0.2387726179431658  0.1916066445660898  0.1015408380957224   T   T   T
  0.2422753554098247  0.3375304913177124  0.1034898194054243   T   T   T
  0.2373425318253115  0.4762846552785043  0.1039802155973400   T   T   T
  0.2348842440470600  0.6187508489464065  0.1076611390349359   T   T   T
  0.2368437510591966  0.7620975000233764  0.1130663838983837   T   T   T
  0.3802516630026096  0.9050623685099480  0.1120558596031365   T   T   T
  0.3809648266824018  0.0480352570915088  0.1084094531250520   T   T   T
  0.3816114328197417  0.1913541093203872  0.1071591441933901   T   T   T
  0.3820307156385973  0.3345358308716175  0.1097079964763147   T   T   T
  0.3894343332002145  0.4873008462682207  0.1083551472315345   T   T   T
  0.3747886537870426  0.6200383505364777  0.1051951701233264   T   T   T
  0.3787750229102065  0.7622689719146645  0.1115962384497588   T   T   T
  0.5224002210565252  0.9029598650274950  0.1112885709570986   T   T   T
  0.5234130552525579  0.0466184355121116  0.1080517371285210   T   T   T
  0.5240788683591076  0.1900570710412210  0.1084310991918978   T   T   T
  0.5236885297152022  0.3323979716993301  0.1309339630156799   T   T   T
  0.5196527778174352  0.7580614579475986  0.1181461520402661   T   T   T
  0.6639162560794851  0.8995331753054896  0.1110699576216052   T   T   T
  0.6656126887231898  0.0447241577880833  0.1092360176673874   T   T   T
  0.6664210531040908  0.1886576963074711  0.1070922513306879   T   T   T
  0.6667827636469301  0.3321768306348408  0.1124492178490853   T   T   T
  0.6729100535069721  0.4756779970441346  0.1288461736148353   T   T   T
  0.6728809944259408  0.6175283054641171  0.1148525333880866   T   T   T
  0.6601494186016206  0.7517335374107209  0.1097276146462384   T   T   T
  0.8065680537145687  0.9002867759594830  0.1076760151033944   T   T   T
  0.8079958840304143  0.0443194670291167  0.1098975119848198   T   T   T
  0.8088880552061006  0.1879745674273640  0.1088223351067484   T   T   T
  0.8093794073916784  0.3312062480139497  0.1062890878781125   T   T   T
  0.8114293315319608  0.4743603489831572  0.1038331512109205   T   T   T
  0.8124704413041128  0.6180190580816191  0.1038007006997349   T   T   T
  0.8099214527884375  0.7608230399082050  0.1003014678509195   T   T   T
  0.5186038519702800  0.4989255878957172  0.2087904271536352   T   T   T

  0.00000000E+00  0.00000000E+00  0.00000000E+00
  0.00000000E+00  0.00000000E+00  0.00000000E+00
  0.00000000E+00  0.00000000E+00  0.00000000E+00
  0.00000000E+00  0.00000000E+00  0.00000000E+00
  0.00000000E+00  0.00000000E+00  0.00000000E+00
  0.00000000E+00  0.00000000E+00  0.00000000E+00
  0.00000000E+00  0.00000000E+00  0.00000000E+00
  0.00000000E+00  0.00000000E+00  0.00000000E+00
  0.00000000E+00  0.00000000E+00  0.00000000E+00
  0.00000000E+00  0.00000000E+00  0.00000000E+00
  0.00000000E+00  0.00000000E+00  0.00000000E+00
  0.00000000E+00  0.00000000E+00  0.00000000E+00
  0.00000000E+00  0.00000000E+00  0.00000000E+00
  0.00000000E+00  0.00000000E+00  0.00000000E+00
  0.00000000E+00  0.00000000E+00  0.00000000E+00
  0.00000000E+00  0.00000000E+00  0.00000000E+00
  0.00000000E+00  0.00000000E+00  0.00000000E+00
  0.00000000E+00  0.00000000E+00  0.00000000E+00
  0.00000000E+00  0.00000000E+00  0.00000000E+00
  0.00000000E+00  0.00000000E+00  0.00000000E+00
  0.00000000E+00  0.00000000E+00  0.00000000E+00
  0.00000000E+00  0.00000000E+00  0.00000000E+00
  0.00000000E+00  0.00000000E+00  0.00000000E+00
  0.00000000E+00  0.00000000E+00  0.00000000E+00
  0.00000000E+00  0.00000000E+00  0.00000000E+00
  0.00000000E+00  0.00000000E+00  0.00000000E+00
  0.00000000E+00  0.00000000E+00  0.00000000E+00
  0.00000000E+00  0.00000000E+00  0.00000000E+00
  0.00000000E+00  0.00000000E+00  0.00000000E+00
  0.00000000E+00  0.00000000E+00  0.00000000E+00
  0.00000000E+00  0.00000000E+00  0.00000000E+00
  0.00000000E+00  0.00000000E+00  0.00000000E+00
  0.00000000E+00  0.00000000E+00  0.00000000E+00
  0.00000000E+00  0.00000000E+00  0.00000000E+00
  0.00000000E+00  0.00000000E+00  0.00000000E+00
  0.00000000E+00  0.00000000E+00  0.00000000E+00
  0.00000000E+00  0.00000000E+00  0.00000000E+00
  0.00000000E+00  0.00000000E+00  0.00000000E+00
  0.00000000E+00  0.00000000E+00  0.00000000E+00
  0.00000000E+00  0.00000000E+00  0.00000000E+00
  0.00000000E+00  0.00000000E+00  0.00000000E+00
  0.00000000E+00  0.00000000E+00  0.00000000E+00
  0.00000000E+00  0.00000000E+00  0.00000000E+00
  0.00000000E+00  0.00000000E+00  0.00000000E+00
  0.00000000E+00  0.00000000E+00  0.00000000E+00
  0.00000000E+00  0.00000000E+00  0.00000000E+00
  0.00000000E+00  0.00000000E+00  0.00000000E+00
  0.00000000E+00  0.00000000E+00  0.00000000E+00
  0.00000000E+00  0.00000000E+00  0.00000000E+00
  0.00000000E+00  0.00000000E+00  0.00000000E+00
  0.00000000E+00  0.00000000E+00  0.00000000E+00
  0.00000000E+00  0.00000000E+00  0.00000000E+00
  0.00000000E+00  0.00000000E+00  0.00000000E+00
  0.00000000E+00  0.00000000E+00  0.00000000E+00
  0.00000000E+00  0.00000000E+00  0.00000000E+00
  0.00000000E+00  0.00000000E+00  0.00000000E+00
  0.00000000E+00  0.00000000E+00  0.00000000E+00
  0.00000000E+00  0.00000000E+00  0.00000000E+00
  0.00000000E+00  0.00000000E+00  0.00000000E+00
  0.00000000E+00  0.00000000E+00  0.00000000E+00
  0.00000000E+00  0.00000000E+00  0.00000000E+00
  0.00000000E+00  0.00000000E+00  0.00000000E+00
  0.00000000E+00  0.00000000E+00  0.00000000E+00
  0.00000000E+00  0.00000000E+00  0.00000000E+00
  0.00000000E+00  0.00000000E+00  0.00000000E+00
  0.00000000E+00  0.00000000E+00  0.00000000E+00
  0.00000000E+00  0.00000000E+00  0.00000000E+00
  0.00000000E+00  0.00000000E+00  0.00000000E+00
  0.00000000E+00  0.00000000E+00  0.00000000E+00
  0.00000000E+00  0.00000000E+00  0.00000000E+00
  0.00000000E+00  0.00000000E+00  0.00000000E+00
  0.00000000E+00  0.00000000E+00  0.00000000E+00
  0.00000000E+00  0.00000000E+00  0.00000000E+00
  0.00000000E+00  0.00000000E+00  0.00000000E+00
  0.00000000E+00  0.00000000E+00  0.00000000E+00
  0.00000000E+00  0.00000000E+00  0.00000000E+00
  0.00000000E+00  0.00000000E+00  0.00000000E+00
  0.00000000E+00  0.00000000E+00  0.00000000E+00
  0.00000000E+00  0.00000000E+00  0.00000000E+00
  0.00000000E+00  0.00000000E+00  0.00000000E+00
  0.00000000E+00  0.00000000E+00  0.00000000E+00
  0.00000000E+00  0.00000000E+00  0.00000000E+00
  0.00000000E+00  0.00000000E+00  0.00000000E+00
  0.00000000E+00  0.00000000E+00  0.00000000E+00
  0.00000000E+00  0.00000000E+00  0.00000000E+00
  0.00000000E+00  0.00000000E+00  0.00000000E+00
  0.00000000E+00  0.00000000E+00  0.00000000E+00
  0.00000000E+00  0.00000000E+00  0.00000000E+00
  0.00000000E+00  0.00000000E+00  0.00000000E+00
  0.00000000E+00  0.00000000E+00  0.00000000E+00
  0.00000000E+00  0.00000000E+00  0.00000000E+00
  0.00000000E+00  0.00000000E+00  0.00000000E+00
  0.00000000E+00  0.00000000E+00  0.00000000E+00
  0.00000000E+00  0.00000000E+00  0.00000000E+00
  0.00000000E+00  0.00000000E+00  0.00000000E+00
  0.00000000E+00  0.00000000E+00  0.00000000E+00
  0.00000000E+00  0.00000000E+00  0.00000000E+00
