Species order:X N B                     
   2.51242800000000     
     5.9449720136058266    0.0000000000000000    0.0000000000000000
    -2.9724860068029120    5.1484967885702053   -0.0000000000000001
     0.0000000000000000    0.0000000000000009    5.3101128803662583
   O    N    B 
     2   143   143
Direct
  0.4275094720024661  0.3804214026678974  0.3750000000000000
  0.5851167148900303  0.4592250241116794  0.3750000000000000
  0.1111691594358494  0.0555819969078743  0.1249934554159113
  0.6111800815825059  0.5555690899074770  0.1255386575477639
  0.4445568700585618  0.0556211646793976  0.1250247847214068
  0.9445687712976364  0.5556303859987886  0.1250054271365861
  0.7778622053994027  0.0555977693663694  0.1249972273929653
  0.1112463194404628  0.7222898263868952  0.6250004219060437
  0.4445568700585618  0.7222690387124995  0.6249752152785922
  0.2777998770601886  0.2222472950315773  0.6249032363928814
  0.7778751984567097  0.7222502308869648  0.6250351723802936
  0.6112049576728176  0.2222866172283056  0.6249382634128372
  0.9444972588304051  0.2222617789629869  0.6250320440090869
  0.2779006023855193  0.7222716117837628  0.1249974580820806
  0.1111362605525461  0.2222347969429372  0.1249416105876742
  0.4445397901295775  0.2222845305135720  0.1251954365122734
  0.6112049576728176  0.7222516737778414  0.1250617365871627
  0.9445687712976364  0.7222717186321829  0.1250054271365861
  0.7778717417114799  0.2222890124903494  0.1249924803926212
  0.1112242730483187  0.8889473022151970  0.6249937084531867
  0.4445671323895036  0.8889502328614164  0.6249929862848526
  0.2777998770601886  0.3888859153619394  0.6249032363928814
  0.6111800815825059  0.3889443250083568  0.6244613424522367
  0.7778717417114799  0.8889160625544583  0.6250075196073784
  0.9445300243720960  0.3889427059269893  0.6250132253820240
  0.1111691594358494  0.3889204958613038  0.1249934554159113
  0.2779006023855193  0.8889623239350848  0.1249974580820806
  0.6112166497643677  0.8889436859258725  0.1250085905193199
  0.4444550383972289  0.3888941858652793  0.1249997648640526
  0.9445300243720960  0.8889206517784359  0.1249867746179758
  0.7778751984567097  0.3889583009030729  0.1249648276197064
  0.2778699693772503  0.5555937149978645  0.6249834691038628
  0.1111691594358494  0.0555819969078743  0.6250065445840888
  0.6111800815825059  0.5555690899074770  0.6244613424522367
  0.4445568700585618  0.0556211646793976  0.6249752152785922
  0.9445687712976364  0.5556303859987886  0.6249945728634141
  0.1112242730483187  0.5556103041664502  0.1250062915468128
  0.7778622053994027  0.0555977693663694  0.6250027726070349
  0.2778699693772503  0.0556095877127220  0.1250165308961373
  0.4445397901295775  0.5555885929493406  0.1251954365122734
  0.7778885480057613  0.5556109406695484  0.1250413600826793
  0.6112166497643677  0.0556062971718239  0.1250085905193199
  0.4445397901295775  0.5555885929493406  0.6248045634877274
  0.9444972588304051  0.0555688132007542  0.1249679559909132
  0.2779006023855193  0.7222716117837628  0.6250025419179188
  0.1111362605525461  0.2222347969429372  0.6250583894123248
  0.4445397901295775  0.2222845305135720  0.6248045634877274
  0.6112049576728176  0.7222516737778414  0.6249382634128372
  0.9445687712976364  0.7222717186321829  0.6249945728634141
  0.7778717417114799  0.2222890124903494  0.6250075196073784
  0.1112463194404628  0.7222898263868952  0.1249995780939560
  0.4445568700585618  0.7222690387124995  0.1250247847214068
  0.2777998770601886  0.2222472950315773  0.1250967636071180
  0.7778751984567097  0.7222502308869648  0.1249648276197064
  0.6112049576728176  0.2222866172283056  0.1250617365871627
  0.9444972588304051  0.2222617789629869  0.1249679559909132
  0.1111691594358494  0.3889204958613038  0.6250065445840888
  0.2779006023855193  0.8889623239350848  0.6250025419179188
  0.6112166497643677  0.8889436859258725  0.6249914094806802
  0.4444550383972289  0.3888941858652793  0.6250002351359465
  0.9445300243720960  0.8889206517784359  0.6250132253820240
  0.1112242730483187  0.8889473022151970  0.1250062915468128
  0.7778751984567097  0.3889583009030729  0.6250351723802936
  0.4445671323895036  0.8889502328614164  0.1250070137151471
  0.2777998770601886  0.3888859153619394  0.1250967636071180
  0.2778699693772503  0.5555937149978645  0.1250165308961373
  0.6111800815825059  0.3889443250083568  0.1255386575477639
  0.7778717417114799  0.8889160625544583  0.1249924803926212
  0.9445300243720960  0.3889427059269893  0.1249867746179758
  0.1112242730483187  0.5556103041664502  0.6249937084531867
  0.2778699693772503  0.0556095877127220  0.6249834691038628
  0.7778885480057613  0.5556109406695484  0.6249586399173209
  0.6112166497643677  0.0556062971718239  0.6249914094806802
  0.9444972588304051  0.0555688132007542  0.6250320440090869
  0.0515985013444137  0.1087243193481969  0.3750000000000000
  0.5560153683811273  0.6061647071166744  0.3750000000000000
  0.3887165912902827  0.1148466514216016  0.3750000000000000
  0.8940895115264557  0.6137114224299001  0.3750000000000000
  0.7204369397557782  0.1106633909538592  0.3750000000000000
  0.0554505126872326  0.7777239185783783  0.8750000000000000
  0.3887835609529114  0.7777212279018988  0.8750000000000000
  0.2221156358250061  0.2777244845791713  0.8750000000000000
  0.7221170032419352  0.7777190710664490  0.8750000000000000
  0.5554481180080113  0.2777270102205055  0.8750000000000000
  0.8887804284084242  0.2777219858101466  0.8750000000000000
  0.2241103138073508  0.7787218235703435  0.3750000000000000
  0.0515985013444137  0.2762075153295524  0.3750000000000000
  0.3770660302071033  0.2729129526946021  0.3750000000000000
  0.5549844978844091  0.7751610199743787  0.3750000000000000
  0.8922172412489583  0.7799970715866708  0.3750000000000000
  0.7219494113015028  0.2785910817391598  0.3750000000000000
  0.0554469935518363  0.9443960303424747  0.8750000000000000
  0.3887835609529114  0.9443956663843490  0.8750000000000000
  0.2221041686856897  0.4443830424897591  0.8750000000000000
  0.5554405543989414  0.4443869438661350  0.8750000000000000
  0.7221104739226532  0.9443901928441025  0.8750000000000000
  0.8887785573994967  0.4443877447619102  0.8750000000000000
  0.0553090719046786  0.4443983912389693  0.3750000000000000
  0.2232984349263652  0.9456541405533903  0.3750000000000000
  0.5549037330460201  0.9441185331896744  0.3750000000000000
  0.3770660302071033  0.4374864108458371  0.3750000000000000
  0.8871330215060893  0.9431893000142523  0.3750000000000000
  0.7310533993958894  0.4474551142829083  0.3750000000000000
  0.2221121387375753  0.6110536667933583  0.8750000000000000
  0.0554456569112611  0.1110547556058149  0.8750000000000000
  0.5554481180080113  0.6110544411208417  0.8750000000000000
  0.3887820081088875  0.1110563972888047  0.8750000000000000
  0.8887848364443861  0.6110590848888637  0.8750000000000000
  0.0583396626518239  0.6123001690043901  0.3750000000000000
  0.7221104739226532  0.1110536144118857  0.8750000000000000
  0.2184317705236204  0.1086944301470488  0.3750000000000000
  0.3887165912902827  0.6072032732020245  0.3750000000000000
  0.7310533993958899  0.6169316184463166  0.3750000000000000
  0.5549844978844091  0.1131568112433659  0.3750000000000000
  0.3887820081088875  0.6110589441534259  0.8750000000000000
  0.8859834996341800  0.1096584164837610  0.3750000000000000
  0.2221087747808027  0.7777210540570694  0.8750000000000000
  0.0554456569112611  0.2777242346387819  0.8750000000000000
  0.3887859795966117  0.2777267966416103  0.8750000000000000
  0.5554407375174631  0.7777174374198440  0.8750000000000000
  0.8887785573994967  0.7777241459709228  0.8750000000000000
  0.7221170032419352  0.2777312655088214  0.8750000000000000
  0.0583396626518239  0.7793728269807696  0.3750000000000000
  0.3895855089023091  0.7768749900477502  0.3750000000000000
  0.2145933352223040  0.2739633342778199  0.3750000000000000
  0.7219494113015028  0.7766916628956786  0.3750000000000000
  0.5560153683811273  0.2831839945977879  0.3750000000000000
  0.8871330215060893  0.2772770548251735  0.3750000000000000
  0.0554469935518363  0.4443842965426898  0.8750000000000000
  0.2221121387375753  0.9443918052775524  0.8750000000000000
  0.5554435110635170  0.9443884221984236  0.8750000000000000
  0.3887859795966117  0.4443925162883371  0.8750000000000000
  0.8887804284084242  0.9443917759316135  0.8750000000000000
  0.0553090719046786  0.9442440139990373  0.3750000000000000
  0.7221154754020241  0.4443893565077606  0.8750000000000000
  0.3895855089023091  0.9460438521878944  0.3750000000000000
  0.2184317705236204  0.4430706737099072  0.3750000000000000
  0.2232984349263652  0.6109776277063111  0.3750000000000000
  0.7204369397557782  0.9431068821352553  0.3750000000000000
  0.8922172412489583  0.4455535029956226  0.3750000000000000
  0.0554505126872326  0.6110599274421894  0.8750000000000000
  0.2221041686856897  0.1110544595292663  0.8750000000000000
  0.7221154754020241  0.6110594522275989  0.8750000000000000
  0.5554407375174631  0.1110566334309549  0.8750000000000000
  0.8887693908819257  0.1110513621076346  0.8750000000000000
  0.1081709052597242  0.0541380863322827  0.3750000000000000
  0.6217320752416891  0.5603949916541705  0.3750000000000000
  0.4439783377070882  0.0580128773074697  0.3750000000000000
  0.9478609914857641  0.5568221683475029  0.3750000000000000
  0.7751853112585209  0.0542593222959283  0.3750000000000000
  0.1109836547355595  0.7221584940344444  0.8750000000000000
  0.4443061324147370  0.7221500951919234  0.8750000000000000
  0.2776317768595645  0.2221987249245703  0.8750000000000000
  0.7776408540375372  0.7221485723706456  0.8750000000000000
  0.6109544049213703  0.2221973262028952  0.8750000000000000
  0.9442862613894871  0.2221862198600183  0.8750000000000000
  0.2787530941708602  0.7220841856918387  0.3750000000000000
  0.1051542905124040  0.2192438119228664  0.3750000000000000
  0.4434194708727432  0.2275158109433907  0.3750000000000000
  0.6102885047089780  0.7187319059345906  0.3750000000000000
  0.9478609914857641  0.7243721564715975  0.3750000000000000
  0.7761415710952563  0.2218144155251448  0.3750000000000000
  0.1110418204304944  0.8888644440037616  0.8750000000000000
  0.4443704720718618  0.8888519027025954  0.8750000000000000
  0.2776317768595645  0.3887663852683230  0.8750000000000000
  0.6109459093378319  0.3887661770418912  0.8750000000000000
  0.7777046904597432  0.8888482661349077  0.8750000000000000
  0.9442915242572932  0.3887606389559249  0.8750000000000000
  0.1081709052597242  0.3873661522607704  0.3750000000000000
  0.2787530941708602  0.8900022418123513  0.3750000000000000
  0.6095312077341849  0.8871035566949024  0.3750000000000000
  0.9449552118962085  0.8898620028939132  0.3750000000000000
  0.7822652958175401  0.3896859278895680  0.3750000000000000
  0.2776242452750116  0.5555168904353273  0.8750000000000000
  0.1109739302833935  0.0554972214207838  0.8750000000000000
  0.6109459093378319  0.5555130656292695  0.8750000000000000
  0.4443061324147370  0.0554893705561494  0.8750000000000000
  0.9442999065270817  0.5555272400872092  0.8750000000000000
  0.1124398660899191  0.5556636476620306  0.3750000000000000
  0.7776405901119201  0.0554869617226280  0.8750000000000000
  0.2772999837762943  0.0566044497057677  0.3750000000000000
  0.4434194708727432  0.5492369932626883  0.3750000000000000
  0.7842915483804682  0.5588124408569031  0.3750000000000000
  0.6095312077341849  0.0557609843726116  0.3750000000000000
  0.4443666395479127  0.5555098474873320  0.8750000000000000
  0.9411186511433918  0.0537201225116368  0.3750000000000000
  0.2776259839105147  0.7220951636255684  0.8750000000000000
  0.1110398652566200  0.2221865992949743  0.8750000000000000
  0.4443666395479127  0.2221901253939163  0.8750000000000000
  0.6109544049213703  0.7220904120518036  0.8750000000000000
  0.9442999065270817  0.7221059997732081  0.8750000000000000
  0.7777046904597432  0.2221897576581645  0.8750000000000000
  0.1133905252459596  0.7233619292896437  0.3750000000000000
  0.4439783377070882  0.7192987937329535  0.3750000000000000
  0.2689125721655200  0.2181968311458816  0.3750000000000000
  0.7822652958175401  0.7259127012612989  0.3750000000000000
  0.6102885047089780  0.2248899321077153  0.3750000000000000
  0.9411186511433918  0.2207318619650903  0.3750000000000000
  0.1109739302833935  0.3888100421959382  0.8750000000000000
  0.2776259839105147  0.8888641536182748  0.8750000000000000
  0.6109572759314200  0.8888564849193354  0.8750000000000000
  0.4443026368153287  0.3888179850743286  0.8750000000000000
  0.9442915242572932  0.8888642186346970  0.8750000000000000
  0.1124398660899191  0.8901095517612172  0.3750000000000000
  0.7776408540375372  0.3888256150002211  0.8750000000000000
  0.4442298713361867  0.8887816023347576  0.3750000000000000
  0.2689125721655200  0.3840490743529665  0.3750000000000000
  0.2772999837762943  0.5540288674038619  0.3750000000000000
  0.6217320752416891  0.3946704169208464  0.3750000000000000
  0.7761415710952563  0.8876604889034404  0.3750000000000000
  0.9449552118962085  0.3884265423356235  0.3750000000000000
  0.1110418204304944  0.5555107097600613  0.8750000000000000
  0.2776242452750116  0.0554406881730198  0.8750000000000000
  0.7777047460806655  0.5555190397069991  0.8750000000000000
  0.6109572759314200  0.0554341243454134  0.8750000000000000
  0.9442862613894871  0.0554333748628048  0.8750000000000000
  0.0556544524858432  0.1111116510277946  0.1249719528242879
  0.5556362974380181  0.6111365975796682  0.1252638057113147
  0.3890368678106518  0.1111591766061013  0.1250837710529162
  0.8890341212243666  0.6111837272788558  0.1249829469615332
  0.7223659345317910  0.1111374881592667  0.1250120720273702
  0.0557241311928190  0.7778108258783325  0.6250033716530717
  0.3890595670398476  0.7778100887871486  0.6249939854460579
  0.2223015302810846  0.2778174318072104  0.6249705766342575
  0.7223474472180883  0.7777834218444198  0.6249951961196308
  0.5556362974380181  0.2778330331916852  0.6247361942886851
  0.8889989965774235  0.2778457545416932  0.6250120367585702
  0.2223177333501437  0.7778255333417396  0.1249934066208274
  0.0556544524858432  0.2778761347913846  0.1249719528242879
  0.3890056355745830  0.2779460413319896  0.1253189373397542
  0.5556255692783969  0.7778138369174440  0.1250175798239347
  0.8889501940384833  0.7777938732553252  0.1249767165546660
  0.7223474472180883  0.2778973587070049  0.1250048038803694
  0.0556890844817589  0.9445563627882807  0.6250110032798195
  0.3890595670398476  0.9445828115860343  0.6249939854460579
  0.2222678834329689  0.4444505743561996  0.6249751544293607
  0.5554391039634643  0.4443862186483964  0.6244306098966208
  0.7223659345317910  0.9445617797058593  0.6249879279726298
  0.8889501940384833  0.4444896541164935  0.6250232834453344
  0.0556890844817589  0.4444660550268071  0.1249889967201805
  0.2223688164270509  0.9445304874488851  0.1249965531983771
  0.5557078546618488  0.9445205939975895  0.1250214650375815
  0.3890056355745830  0.4443929275759288  0.1253189373397542
  0.8889989965774235  0.9444865753690664  0.1249879632414302
  0.7223281643947704  0.4444531251655566  0.1251119698660188
  0.2223688164270509  0.6111716623115019  0.6250034468016229
  0.0556544524858432  0.1111116510277946  0.6250280471757121
  0.5556362974380181  0.6111365975796682  0.6247361942886851
  0.3890368678106518  0.1111591766061013  0.6249162289470829
  0.8890341212243666  0.6111837272788558  0.6250170530384670
  0.0557241311928190  0.6112466386478226  0.1249966283469284
  0.7223659345317910  0.1111374881592667  0.6249879279726298
  0.2222678834329689  0.1111506424101051  0.1250248455706393
  0.3890368678106518  0.6112110245378936  0.1250837710529162
  0.7223281643947704  0.6112083725625499  0.1251119698660188
  0.5556255692783969  0.1111450656942895  0.1250175798239347
  0.3890368678106518  0.6112110245378936  0.6249162289470829
  0.8889278613532641  0.1111305973433035  0.1249893019206679
  0.2223177333501437  0.7778255333417396  0.6250065933791731
  0.0556544524858432  0.2778761347913846  0.6250280471757121
  0.3890056355745830  0.2779460413319896  0.6246810626602463
  0.5556255692783969  0.7778138369174440  0.6249824201760658
  0.8889501940384833  0.7777938732553252  0.6250232834453344
  0.7223474472180883  0.2778973587070049  0.6249951961196308
  0.0557241311928190  0.7778108258783325  0.1249966283469284
  0.3890595670398476  0.7778100887871486  0.1250060145539422
  0.2223015302810846  0.2778174318072104  0.1250294233657420
  0.7223474472180883  0.7777834218444198  0.1250048038803694
  0.5556362974380181  0.2778330331916852  0.1252638057113147
  0.8889989965774235  0.2778457545416932  0.1249879632414302
  0.0556890844817589  0.4444660550268071  0.6250110032798195
  0.2223688164270509  0.9445304874488851  0.6250034468016229
  0.5557078546618488  0.9445205939975895  0.6249785349624184
  0.3890056355745830  0.4443929275759288  0.6246810626602463
  0.8889989965774235  0.9444865753690664  0.6250120367585702
  0.0556890844817589  0.9445563627882807  0.1249889967201805
  0.7223281643947704  0.4444531251655566  0.6248880301339816
  0.3890595670398476  0.9445828115860343  0.1250060145539422
  0.2222678834329689  0.4444505743561996  0.1250248455706393
  0.2223688164270509  0.6111716623115019  0.1249965531983771
  0.5554391039634643  0.4443862186483964  0.1255693901033781
  0.7223659345317910  0.9445617797058593  0.1250120720273702
  0.8889501940384833  0.4444896541164935  0.1249767165546660
  0.0557241311928190  0.6112466386478226  0.6250033716530717
  0.2222678834329689  0.1111506424101051  0.6249751544293607
  0.7223281643947704  0.6112083725625499  0.6248880301339816
  0.5556255692783969  0.1111450656942895  0.6249824201760658
  0.8889278613532641  0.1111305973433035  0.6250106980793326
 
  0.00000000E+00  0.00000000E+00  0.00000000E+00
  0.00000000E+00  0.00000000E+00  0.00000000E+00
  0.00000000E+00  0.00000000E+00  0.00000000E+00
  0.00000000E+00  0.00000000E+00  0.00000000E+00
  0.00000000E+00  0.00000000E+00  0.00000000E+00
  0.00000000E+00  0.00000000E+00  0.00000000E+00
  0.00000000E+00  0.00000000E+00  0.00000000E+00
  0.00000000E+00  0.00000000E+00  0.00000000E+00
  0.00000000E+00  0.00000000E+00  0.00000000E+00
  0.00000000E+00  0.00000000E+00  0.00000000E+00
  0.00000000E+00  0.00000000E+00  0.00000000E+00
  0.00000000E+00  0.00000000E+00  0.00000000E+00
  0.00000000E+00  0.00000000E+00  0.00000000E+00
  0.00000000E+00  0.00000000E+00  0.00000000E+00
  0.00000000E+00  0.00000000E+00  0.00000000E+00
  0.00000000E+00  0.00000000E+00  0.00000000E+00
  0.00000000E+00  0.00000000E+00  0.00000000E+00
  0.00000000E+00  0.00000000E+00  0.00000000E+00
  0.00000000E+00  0.00000000E+00  0.00000000E+00
  0.00000000E+00  0.00000000E+00  0.00000000E+00
  0.00000000E+00  0.00000000E+00  0.00000000E+00
  0.00000000E+00  0.00000000E+00  0.00000000E+00
  0.00000000E+00  0.00000000E+00  0.00000000E+00
  0.00000000E+00  0.00000000E+00  0.00000000E+00
  0.00000000E+00  0.00000000E+00  0.00000000E+00
  0.00000000E+00  0.00000000E+00  0.00000000E+00
  0.00000000E+00  0.00000000E+00  0.00000000E+00
  0.00000000E+00  0.00000000E+00  0.00000000E+00
  0.00000000E+00  0.00000000E+00  0.00000000E+00
  0.00000000E+00  0.00000000E+00  0.00000000E+00
  0.00000000E+00  0.00000000E+00  0.00000000E+00
  0.00000000E+00  0.00000000E+00  0.00000000E+00
  0.00000000E+00  0.00000000E+00  0.00000000E+00
  0.00000000E+00  0.00000000E+00  0.00000000E+00
  0.00000000E+00  0.00000000E+00  0.00000000E+00
  0.00000000E+00  0.00000000E+00  0.00000000E+00
  0.00000000E+00  0.00000000E+00  0.00000000E+00
  0.00000000E+00  0.00000000E+00  0.00000000E+00
  0.00000000E+00  0.00000000E+00  0.00000000E+00
  0.00000000E+00  0.00000000E+00  0.00000000E+00
  0.00000000E+00  0.00000000E+00  0.00000000E+00
  0.00000000E+00  0.00000000E+00  0.00000000E+00
  0.00000000E+00  0.00000000E+00  0.00000000E+00
  0.00000000E+00  0.00000000E+00  0.00000000E+00
  0.00000000E+00  0.00000000E+00  0.00000000E+00
  0.00000000E+00  0.00000000E+00  0.00000000E+00
  0.00000000E+00  0.00000000E+00  0.00000000E+00
  0.00000000E+00  0.00000000E+00  0.00000000E+00
  0.00000000E+00  0.00000000E+00  0.00000000E+00
  0.00000000E+00  0.00000000E+00  0.00000000E+00
  0.00000000E+00  0.00000000E+00  0.00000000E+00
  0.00000000E+00  0.00000000E+00  0.00000000E+00
  0.00000000E+00  0.00000000E+00  0.00000000E+00
  0.00000000E+00  0.00000000E+00  0.00000000E+00
  0.00000000E+00  0.00000000E+00  0.00000000E+00
  0.00000000E+00  0.00000000E+00  0.00000000E+00
  0.00000000E+00  0.00000000E+00  0.00000000E+00
  0.00000000E+00  0.00000000E+00  0.00000000E+00
  0.00000000E+00  0.00000000E+00  0.00000000E+00
  0.00000000E+00  0.00000000E+00  0.00000000E+00
  0.00000000E+00  0.00000000E+00  0.00000000E+00
  0.00000000E+00  0.00000000E+00  0.00000000E+00
  0.00000000E+00  0.00000000E+00  0.00000000E+00
  0.00000000E+00  0.00000000E+00  0.00000000E+00
  0.00000000E+00  0.00000000E+00  0.00000000E+00
  0.00000000E+00  0.00000000E+00  0.00000000E+00
  0.00000000E+00  0.00000000E+00  0.00000000E+00
  0.00000000E+00  0.00000000E+00  0.00000000E+00
  0.00000000E+00  0.00000000E+00  0.00000000E+00
  0.00000000E+00  0.00000000E+00  0.00000000E+00
  0.00000000E+00  0.00000000E+00  0.00000000E+00
  0.00000000E+00  0.00000000E+00  0.00000000E+00
  0.00000000E+00  0.00000000E+00  0.00000000E+00
  0.00000000E+00  0.00000000E+00  0.00000000E+00
  0.00000000E+00  0.00000000E+00  0.00000000E+00
  0.00000000E+00  0.00000000E+00  0.00000000E+00
  0.00000000E+00  0.00000000E+00  0.00000000E+00
  0.00000000E+00  0.00000000E+00  0.00000000E+00
  0.00000000E+00  0.00000000E+00  0.00000000E+00
  0.00000000E+00  0.00000000E+00  0.00000000E+00
  0.00000000E+00  0.00000000E+00  0.00000000E+00
  0.00000000E+00  0.00000000E+00  0.00000000E+00
  0.00000000E+00  0.00000000E+00  0.00000000E+00
  0.00000000E+00  0.00000000E+00  0.00000000E+00
  0.00000000E+00  0.00000000E+00  0.00000000E+00
  0.00000000E+00  0.00000000E+00  0.00000000E+00
  0.00000000E+00  0.00000000E+00  0.00000000E+00
  0.00000000E+00  0.00000000E+00  0.00000000E+00
  0.00000000E+00  0.00000000E+00  0.00000000E+00
  0.00000000E+00  0.00000000E+00  0.00000000E+00
  0.00000000E+00  0.00000000E+00  0.00000000E+00
  0.00000000E+00  0.00000000E+00  0.00000000E+00
  0.00000000E+00  0.00000000E+00  0.00000000E+00
  0.00000000E+00  0.00000000E+00  0.00000000E+00
  0.00000000E+00  0.00000000E+00  0.00000000E+00
  0.00000000E+00  0.00000000E+00  0.00000000E+00
  0.00000000E+00  0.00000000E+00  0.00000000E+00
  0.00000000E+00  0.00000000E+00  0.00000000E+00
  0.00000000E+00  0.00000000E+00  0.00000000E+00
  0.00000000E+00  0.00000000E+00  0.00000000E+00
  0.00000000E+00  0.00000000E+00  0.00000000E+00
  0.00000000E+00  0.00000000E+00  0.00000000E+00
  0.00000000E+00  0.00000000E+00  0.00000000E+00
  0.00000000E+00  0.00000000E+00  0.00000000E+00
  0.00000000E+00  0.00000000E+00  0.00000000E+00
  0.00000000E+00  0.00000000E+00  0.00000000E+00
  0.00000000E+00  0.00000000E+00  0.00000000E+00
  0.00000000E+00  0.00000000E+00  0.00000000E+00
  0.00000000E+00  0.00000000E+00  0.00000000E+00
  0.00000000E+00  0.00000000E+00  0.00000000E+00
  0.00000000E+00  0.00000000E+00  0.00000000E+00
  0.00000000E+00  0.00000000E+00  0.00000000E+00
  0.00000000E+00  0.00000000E+00  0.00000000E+00
  0.00000000E+00  0.00000000E+00  0.00000000E+00
  0.00000000E+00  0.00000000E+00  0.00000000E+00
  0.00000000E+00  0.00000000E+00  0.00000000E+00
  0.00000000E+00  0.00000000E+00  0.00000000E+00
  0.00000000E+00  0.00000000E+00  0.00000000E+00
  0.00000000E+00  0.00000000E+00  0.00000000E+00
  0.00000000E+00  0.00000000E+00  0.00000000E+00
  0.00000000E+00  0.00000000E+00  0.00000000E+00
  0.00000000E+00  0.00000000E+00  0.00000000E+00
  0.00000000E+00  0.00000000E+00  0.00000000E+00
  0.00000000E+00  0.00000000E+00  0.00000000E+00
  0.00000000E+00  0.00000000E+00  0.00000000E+00
  0.00000000E+00  0.00000000E+00  0.00000000E+00
  0.00000000E+00  0.00000000E+00  0.00000000E+00
  0.00000000E+00  0.00000000E+00  0.00000000E+00
  0.00000000E+00  0.00000000E+00  0.00000000E+00
  0.00000000E+00  0.00000000E+00  0.00000000E+00
  0.00000000E+00  0.00000000E+00  0.00000000E+00
  0.00000000E+00  0.00000000E+00  0.00000000E+00
  0.00000000E+00  0.00000000E+00  0.00000000E+00
  0.00000000E+00  0.00000000E+00  0.00000000E+00
  0.00000000E+00  0.00000000E+00  0.00000000E+00
  0.00000000E+00  0.00000000E+00  0.00000000E+00
  0.00000000E+00  0.00000000E+00  0.00000000E+00
  0.00000000E+00  0.00000000E+00  0.00000000E+00
  0.00000000E+00  0.00000000E+00  0.00000000E+00
  0.00000000E+00  0.00000000E+00  0.00000000E+00
  0.00000000E+00  0.00000000E+00  0.00000000E+00
  0.00000000E+00  0.00000000E+00  0.00000000E+00
  0.00000000E+00  0.00000000E+00  0.00000000E+00
  0.00000000E+00  0.00000000E+00  0.00000000E+00
  0.00000000E+00  0.00000000E+00  0.00000000E+00
  0.00000000E+00  0.00000000E+00  0.00000000E+00
  0.00000000E+00  0.00000000E+00  0.00000000E+00
  0.00000000E+00  0.00000000E+00  0.00000000E+00
  0.00000000E+00  0.00000000E+00  0.00000000E+00
  0.00000000E+00  0.00000000E+00  0.00000000E+00
  0.00000000E+00  0.00000000E+00  0.00000000E+00
  0.00000000E+00  0.00000000E+00  0.00000000E+00
  0.00000000E+00  0.00000000E+00  0.00000000E+00
  0.00000000E+00  0.00000000E+00  0.00000000E+00
  0.00000000E+00  0.00000000E+00  0.00000000E+00
  0.00000000E+00  0.00000000E+00  0.00000000E+00
  0.00000000E+00  0.00000000E+00  0.00000000E+00
  0.00000000E+00  0.00000000E+00  0.00000000E+00
  0.00000000E+00  0.00000000E+00  0.00000000E+00
  0.00000000E+00  0.00000000E+00  0.00000000E+00
  0.00000000E+00  0.00000000E+00  0.00000000E+00
  0.00000000E+00  0.00000000E+00  0.00000000E+00
  0.00000000E+00  0.00000000E+00  0.00000000E+00
  0.00000000E+00  0.00000000E+00  0.00000000E+00
  0.00000000E+00  0.00000000E+00  0.00000000E+00
  0.00000000E+00  0.00000000E+00  0.00000000E+00
  0.00000000E+00  0.00000000E+00  0.00000000E+00
  0.00000000E+00  0.00000000E+00  0.00000000E+00
  0.00000000E+00  0.00000000E+00  0.00000000E+00
  0.00000000E+00  0.00000000E+00  0.00000000E+00
  0.00000000E+00  0.00000000E+00  0.00000000E+00
  0.00000000E+00  0.00000000E+00  0.00000000E+00
  0.00000000E+00  0.00000000E+00  0.00000000E+00
  0.00000000E+00  0.00000000E+00  0.00000000E+00
  0.00000000E+00  0.00000000E+00  0.00000000E+00
  0.00000000E+00  0.00000000E+00  0.00000000E+00
  0.00000000E+00  0.00000000E+00  0.00000000E+00
  0.00000000E+00  0.00000000E+00  0.00000000E+00
  0.00000000E+00  0.00000000E+00  0.00000000E+00
  0.00000000E+00  0.00000000E+00  0.00000000E+00
  0.00000000E+00  0.00000000E+00  0.00000000E+00
  0.00000000E+00  0.00000000E+00  0.00000000E+00
  0.00000000E+00  0.00000000E+00  0.00000000E+00
  0.00000000E+00  0.00000000E+00  0.00000000E+00
  0.00000000E+00  0.00000000E+00  0.00000000E+00
  0.00000000E+00  0.00000000E+00  0.00000000E+00
  0.00000000E+00  0.00000000E+00  0.00000000E+00
  0.00000000E+00  0.00000000E+00  0.00000000E+00
  0.00000000E+00  0.00000000E+00  0.00000000E+00
  0.00000000E+00  0.00000000E+00  0.00000000E+00
  0.00000000E+00  0.00000000E+00  0.00000000E+00
  0.00000000E+00  0.00000000E+00  0.00000000E+00
  0.00000000E+00  0.00000000E+00  0.00000000E+00
  0.00000000E+00  0.00000000E+00  0.00000000E+00
  0.00000000E+00  0.00000000E+00  0.00000000E+00
  0.00000000E+00  0.00000000E+00  0.00000000E+00
  0.00000000E+00  0.00000000E+00  0.00000000E+00
  0.00000000E+00  0.00000000E+00  0.00000000E+00
  0.00000000E+00  0.00000000E+00  0.00000000E+00
  0.00000000E+00  0.00000000E+00  0.00000000E+00
  0.00000000E+00  0.00000000E+00  0.00000000E+00
  0.00000000E+00  0.00000000E+00  0.00000000E+00
  0.00000000E+00  0.00000000E+00  0.00000000E+00
  0.00000000E+00  0.00000000E+00  0.00000000E+00
  0.00000000E+00  0.00000000E+00  0.00000000E+00
  0.00000000E+00  0.00000000E+00  0.00000000E+00
  0.00000000E+00  0.00000000E+00  0.00000000E+00
  0.00000000E+00  0.00000000E+00  0.00000000E+00
  0.00000000E+00  0.00000000E+00  0.00000000E+00
  0.00000000E+00  0.00000000E+00  0.00000000E+00
  0.00000000E+00  0.00000000E+00  0.00000000E+00
  0.00000000E+00  0.00000000E+00  0.00000000E+00
  0.00000000E+00  0.00000000E+00  0.00000000E+00
  0.00000000E+00  0.00000000E+00  0.00000000E+00
  0.00000000E+00  0.00000000E+00  0.00000000E+00
  0.00000000E+00  0.00000000E+00  0.00000000E+00
  0.00000000E+00  0.00000000E+00  0.00000000E+00
  0.00000000E+00  0.00000000E+00  0.00000000E+00
  0.00000000E+00  0.00000000E+00  0.00000000E+00
  0.00000000E+00  0.00000000E+00  0.00000000E+00
  0.00000000E+00  0.00000000E+00  0.00000000E+00
  0.00000000E+00  0.00000000E+00  0.00000000E+00
  0.00000000E+00  0.00000000E+00  0.00000000E+00
  0.00000000E+00  0.00000000E+00  0.00000000E+00
  0.00000000E+00  0.00000000E+00  0.00000000E+00
  0.00000000E+00  0.00000000E+00  0.00000000E+00
  0.00000000E+00  0.00000000E+00  0.00000000E+00
  0.00000000E+00  0.00000000E+00  0.00000000E+00
  0.00000000E+00  0.00000000E+00  0.00000000E+00
  0.00000000E+00  0.00000000E+00  0.00000000E+00
  0.00000000E+00  0.00000000E+00  0.00000000E+00
  0.00000000E+00  0.00000000E+00  0.00000000E+00
  0.00000000E+00  0.00000000E+00  0.00000000E+00
  0.00000000E+00  0.00000000E+00  0.00000000E+00
  0.00000000E+00  0.00000000E+00  0.00000000E+00
  0.00000000E+00  0.00000000E+00  0.00000000E+00
  0.00000000E+00  0.00000000E+00  0.00000000E+00
  0.00000000E+00  0.00000000E+00  0.00000000E+00
  0.00000000E+00  0.00000000E+00  0.00000000E+00
  0.00000000E+00  0.00000000E+00  0.00000000E+00
  0.00000000E+00  0.00000000E+00  0.00000000E+00
  0.00000000E+00  0.00000000E+00  0.00000000E+00
  0.00000000E+00  0.00000000E+00  0.00000000E+00
  0.00000000E+00  0.00000000E+00  0.00000000E+00
  0.00000000E+00  0.00000000E+00  0.00000000E+00
  0.00000000E+00  0.00000000E+00  0.00000000E+00
  0.00000000E+00  0.00000000E+00  0.00000000E+00