 C N B 
 1.0
 14.936314146199660   0.000000000000000   0.000000000000000
 -7.468157073099825  12.935227489513863   0.000000000000000
  0.000000000000001   0.000000000000001  13.341276283792837
 C N B 
   2 143 143
Cartesian
  3.682986117829378   5.000868024220160   5.002978606422314 
  4.919792948795514   5.714938781014040   5.002978606422314 
  1.244833068177654   0.718559859050258   1.667515261719008 
  4.978787753582790   7.186209360695576   1.669668447927345 
  6.223288837606177   0.718629244054436   1.667767449191462 
  9.957547051955311   7.186326870859721   1.667145409068555 
 11.202260942948348   0.718638375604227   1.666852953757628 
 -3.734118355254931   9.342085753086579   8.339122461670957 
  1.244609909023340   9.341954102932551   8.338189763653165 
  2.489561127983578   2.874572353749573   8.335161985274278 
  6.223632036499602   9.342042711699451   8.338526661669317 
  7.467993927788014   2.874561735319997   8.338164539338571 
 12.447038685676192   2.874679253847297   8.338970866055456 
 -1.244785696734189   9.342079339870189   1.666995181769237 
  0.000173705789993   2.874595286754322   1.668132133286263 
  4.978558211345210   2.874791401508301   1.671657231159133 
  3.734054760394554   9.341934085616941   1.667792673506057 
  8.712929465007573   9.342067767446991   1.667145409068555 
  9.957509482216002   2.874636577038611   1.667013692277922 
 -4.978700116846535  11.497855729765091   8.338866044982330 
 -0.000158286704616  11.497888603807422   8.338981187760162 
  1.244847556322088   5.030479500737813   8.335161985274278 
  6.223448049034021   5.030394490810342   8.336288764917283 
  4.978877352438126  11.497880378008801   8.338943520566705 
 11.202265676460691   5.030532215945197   8.339057922184155 
 -1.244678064867123   5.030519627492205   1.667515261719008 
 -2.489457580002874  11.497914280444004   1.666995181769237 
  2.489320212587547  11.497854700676070   1.666952488202500 
  3.734027870398853   5.030336993806056   1.671051162701142 
  7.468315840761643  11.497923044289454   1.666899290660472 
  8.712876638787503   5.030544588070192   1.667430551175312 
 -0.000041193521957   7.186259941504626   8.337637017423983 
  1.244833068177655   0.718559859050258   8.338441951125620 
  4.978787753582791   7.186209360695577   8.336288764917283 
  6.223288837606177   0.718629244054436   8.338189763653165 
  9.957547051955311   7.186326870859722   8.338811803776059 
 -2.489457671531369   7.186361342122200   1.667091167862299 
 11.202260942948348   0.718638375604228   8.339104259087000 
  3.734077379747172   0.718576851115839   1.668320195420632 
  2.489535798926561   7.185904680995087   1.671657231159133 
  7.468094486566573   7.186201359822556   1.668685783069365 
  8.712708675068273   0.718629688421423   1.666952488202500 
  2.489535798926562   7.185904680995088   8.334299981685493 
 13.691835986468467   0.718627083750462   1.666986346789171 
 -1.244785696734188   9.342079339870189   8.338962031075392 
  0.000173705789993   2.874595286754323   8.337825079558366 
  4.978558211345211   2.874791401508302   8.334299981685493 
  3.734054760394554   9.341934085616941   8.338164539338571 
  8.712929465007573   9.342067767446991   8.338811803776059 
  9.957509482216002   2.874636577038612   8.338943520566705 
 -3.734118355254932   9.342085753086579   1.666834751173683 
  1.244609909023340   9.341954102932551   1.667767449191462 
  2.489561127983578   2.874572353749572   1.670795227570351 
  6.223632036499601   9.342042711699451   1.667430551175312 
  7.467993927788013   2.874561735319996   1.667792673506057 
 12.447038685676192   2.874679253847296   1.666986346789171 
 -1.244678064867123   5.030519627492206   8.338441951125620 
 -2.489457580002874  11.497914280444004   8.338962031075392 
  2.489320212587547  11.497854700676070   8.339004724642129 
  3.734027870398854   5.030336993806057   8.334906050143486 
  7.468315840761644  11.497923044289454   8.339057922184155 
 -4.978700116846536  11.497855729765091   1.667091167862299 
  8.712876638787503   5.030544588070192   8.338526661669317 
 -0.000158286704616  11.497888603807422   1.666976025084467 
  1.244847556322088   5.030479500737812   1.670795227570351 
 -0.000041193521958   7.186259941504625   1.668320195420632 
  6.223448049034020   5.030394490810341   1.669668447927345 
  4.978877352438125  11.497880378008801   1.667013692277922 
 11.202265676460691   5.030532215945196   1.666899290660472 
 -2.489457671531369   7.186361342122201   8.338866044982330 
  3.734077379747172   0.718576851115840   8.337637017423983 
  7.468094486566573   7.186201359822557   8.337271429775262 
  8.712708675068273   0.718629688421423   8.339004724642129 
 13.691835986468467   0.718627083750462   8.338970866055456 
 -0.001347640568460   1.436563864606122   5.002978606422314 
  3.723468816029087   7.934728357081638   5.002978606422314 
  4.970583455504122   1.459386054684687   5.002978606422314 
  8.707200747816444   7.901599693309787   5.002978606422314 
  9.959707593255695   1.435368554137746   5.002978606422314 
 -4.978797449330679  10.060718488569540  11.673616748318732 
  0.000041654989594  10.060766259166966  11.673616748318732 
  1.244704496208647   3.593125473617375  11.673616748318732 
  4.978753887360111  10.060731346401980  11.673616748318732 
  6.223524883967293   3.593110538181277  11.673616748318732 
 11.202215670218749   3.593104871491814  11.673616748318732 
 -2.487614497728171  10.061755090775625   5.002978606422314 
 -1.245958710409875   3.592293473234125   5.002978606422314 
  3.709173812875714   3.646464719791151   5.002978606422314 
  2.483162966013623  10.069994069548518   5.002978606422314 
  7.470065421462833  10.067120572055407   5.002978606422314 
  8.720550735940726   3.587855729197940   5.002978606422314 
 -6.223486789333291  12.216620463334916  11.673616748318732 
 -1.244642774662453  12.216622930714218  11.673616748318732 
 -0.000085609585393   5.749000414397964  11.673616748318732 
  4.978746050364604   5.748975370074509  11.673616748318732 
  3.734079175538224  12.216635442956353  11.673616748318732 
  9.957628783701843   5.748979457393856  11.673616748318732 
 -2.482842678001149   5.748153106262983   5.002978606422314 
 -3.733533269360840  12.224754552543226   5.002978606422314 
  1.243268362336909  12.215781314349105   5.002978606422314 
  2.523132296747391   5.700748885611442   5.002978606422314 
  6.224573159525285  12.219782719560525   5.002978606422314 
  7.474488461748319   5.738341572234325   5.002978606422314 
 -1.244723017608895   7.904879357740499  11.673616748318732 
 -0.000074158631447   1.437227006816091  11.673616748318732 
  3.734101755620902   7.904917878014312  11.673616748318732 
  4.978795466939890   1.437310177921965  11.673616748318732 
  8.712811982379478   7.904839341095251  11.673616748318732 
 -3.732605982539181   7.904284518997946   5.002978606422314 
  9.957570539109314   1.437232200785039  11.673616748318732 
  2.490480154713782   1.449639324596409   5.002978606422314 
  1.259771434004392   7.886701013259638   5.002978606422314 
  6.217408116988095   7.915668598555246   5.002978606422314 
  7.473066472161125   1.427227672034906   5.002978606422314 
  1.244759169634936   7.904850762160555  11.673616748318732 
 12.447687126485636   1.437685517925354   5.002978606422314 
 -2.489365511323033  10.060744142605280  11.673616748318732 
 -1.244747671441215   3.593064769837855  11.673616748318732 
  3.734093839572084   3.593094374342388  11.673616748318732 
  2.489339227628982  10.060824358478945  11.673616748318732 
  7.468190956755563  10.060812255948704  11.673616748318732 
  8.712840179281244   3.593104168948060  11.673616748318732 
 -4.978534563210474  10.062296123322819   5.002978606422314 
  0.003099626247733  10.056289629262007   5.002978606422314 
  1.234967515757829   3.587503825332992   5.002978606422314 
  4.978063883536008  10.070033104221482   5.002978606422314 
  6.244025046342665   3.568996902844209   5.002978606422314 
 11.205543152594789   3.592489620588085   5.002978606422314 
 -2.489382489158930   5.748962094671453  11.673616748318732 
 -3.734077935283117  12.216568553223722  11.673616748318732 
  1.244695738298246  12.216605410244618  11.673616748318732 
  2.489372235128188   5.749015434517880  11.673616748318732 
  6.223442241249595  12.216593409840366  11.673616748318732 
 -6.220917488267502  12.222688600137740   5.002978606422314 
  7.468194856373983   5.748976691702415  11.673616748318732 
 -1.246990664254410  12.221509526460272   5.002978606422314 
  0.011278867749002   5.743741915809585   5.002978606422314 
 -1.237361401281702   7.901258052606012   5.002978606422314 
  3.733533737271176  12.219418009460039   5.002978606422314 
  9.964029178058986   5.747448633395500   5.002978606422314 
 -3.734103697373516   7.904845670316186  11.673616748318732 
  2.489351909409878   1.437168149229914  11.673616748318732 
  6.223471597932576   7.904900616685633  11.673616748318732 
  7.468213400237182   1.437161327029026  11.673616748318732 
 12.446934869925213   1.437251202397687  11.673616748318732 
  1.241617195760334   0.719749655106732   5.002978606422314 
  4.961386188154596   7.246142017656192   5.002978606422314 
  6.224450790828817   0.721641994136694   5.002978606422314 
  9.959043678032874   7.185116978172499   5.002978606422314 
 11.203354022451689   0.719269465349720   5.002978606422314 
 -3.731910990128354   9.343360175936603  11.673616748318732 
  1.244635748513421   9.340009024198613  11.673616748318732 
  2.487092872540168   2.875387209098319  11.673616748318732 
  6.221391098344574   9.343628083519794  11.673616748318732 
  7.470707485814661   2.875555958676705  11.673616748318732 
 12.446737577247081   2.871820386840007  11.673616748318732 
 -1.243430572933881   9.341604900914408   5.002978606422314 
 -0.018268789234970   2.863947507287139   5.002978606422314 
  4.996234535613230   2.884730398472322   5.002978606422314 
  3.727210275570300   9.374482076960220   5.002978606422314 
  8.712629980243374   9.343968829993727   5.002978606422314 
  9.965740572419246   2.870060278483332   5.002978606422314 
 -4.981008033539752  11.499115376446859  11.673616748318732 
  0.002282767933747  11.499297947360006  11.673616748318732 
  1.244319114032815   5.027934501146404  11.673616748318732 
  6.221881796651652   5.031487145006907  11.673616748318732 
  4.978747445543635  11.495656745674424  11.673616748318732 
 11.204384596733306   5.031557374897549  11.673616748318732 
 -1.245255607465555   5.027139702255239   5.002978606422314 
 -2.489190894290963  11.499325071558220   5.002978606422314 
  2.487237392034057  11.506278442394215   5.002978606422314 
  7.469661975664702  11.503702141286883   5.002978606422314 
  8.727576707112924   5.024505049857257   5.002978606422314 
  0.001860735138794   7.187612319761232  11.673616748318732 
  1.244467250785013   0.715822229823306  11.673616748318732 
  4.978950893683383   7.184306619245426  11.673616748318732 
  6.221617269755266   0.719624161076235  11.673616748318732 
  9.955448912778554   7.187478816262980  11.673616748318732 
 -2.487481329060636   7.185393437702712   5.002978606422314 
 11.204428039917108   0.719889549622494  11.673616748318732 
  3.732253028458663   0.721698013452050   5.002978606422314 
  2.506981384919542   7.196243328374726   5.002978606422314 
  7.465677058379654   7.184805657008094   5.002978606422314 
  8.718962439114360   0.712614042051502   5.002978606422314 
  2.487156404933454   7.187853489001677  11.673616748318732 
 13.688106803723240   0.717545180211275   5.002978606422314 
 -1.246950129281411   9.343486999723011  11.673616748318732 
  0.001670829246968   2.875459651385217  11.673616748318732 
  4.979056231589455   2.871756381861377  11.673616748318732 
  3.736272562091822   9.343786984124312  11.673616748318732 
  8.712878009402189   9.339674752917615  11.673616748318732 
  9.955518806678507   2.875635890535046  11.673616748318732 
 -3.733291774633540   9.342562979630838   5.002978606422314 
  1.247800003741157   9.341454008900223   5.002978606422314 
  2.460036873192586   2.870570164329598   5.002978606422314 
  6.225751677142776   9.357793113413114   5.002978606422314 
  7.492759072721326   2.852360241914726   5.002978606422314 
 12.444237138354204   2.871990638624156   5.002978606422314 
 -1.247231830020135   5.031571634950520  11.673616748318732 
 -2.489320727084054  11.495335996946924  11.673616748318732 
  2.487196959930253  11.499446288082346  11.673616748318732 
  3.736143250691432   5.031558309187416  11.673616748318732 
  7.470263114593614  11.499245503597944  11.673616748318732 
 -4.978550175426874  11.500051244761053   5.002978606422314 
  8.713129141980842   5.027811192789471  11.673616748318732 
 -0.000066249540419  11.497941741488948   5.002978606422314 
  1.226619431218137   5.006911840770996   5.002978606422314 
  0.001749636706271   7.183119425775259   5.002978606422314 
  6.266650469764098   4.985357964603628   5.002978606422314 
  4.979029706735581  11.507296860503281   5.002978606422314 
 11.207943588722937   5.028808454469439   5.002978606422314 
 -2.489520743851766   7.183732804295158  11.673616748318732 
  3.736199538003287   0.719547780523948  11.673616748318732 
  7.470574662297425   7.187633289948421  11.673616748318732 
  8.713025403865803   0.715995103978414  11.673616748318732 
 13.689209580799556   0.719795749705204  11.673616748318732 
 -0.000517839953687   1.436294239568859   1.668356721895876 
  3.734323850189846   7.906513688968381   1.667923824500380 
  4.979118872114220   1.435346572334289   1.667769908198646 
  8.713935875018606   7.905488220812998   1.668395058771585 
  9.957761598659863   1.437169464622795   1.669008802656616 
 -4.978502351007529  10.060463137368663   8.336864312816205 
 -0.000781825539455  10.061094157144899   8.337162586736058 
  1.243300430124758   3.592314835685890   8.339534424604134 
  4.979292947785151  10.061536204055875   8.338081753914695 
  6.225017944077627   3.592504972242991   8.338033388344249 
 11.202189480821581   3.593356124775884   8.337009452018266 
 -2.489785219485853  10.060501823984485   1.668167106205251 
 -1.245777312234262   3.593146914165238   1.668356721895876 
  3.734087085942551   3.591996491629688   1.664334593595991 
  2.489053363501874  10.061593974781008   1.668527057943965 
  7.468872464582799  10.061050171702323   1.668954341980521 
  8.713806736668461   3.593168580143383   1.667875458929934 
 -6.223437164460167  12.215673216249479   8.337868251566965 
 -1.244770546948238  12.215745826667572   8.337162586736058 
 -0.001888480420470   5.749658002212647   8.337792067156096 
  4.980064035917850   5.749736309388462   8.341297761818756 
  3.734120374203254  12.216832273461895   8.336948410188013 
  9.958175578702058   5.749450702608311   8.337002870864108 
 -2.490178016762008   5.749478694614939   1.668088961277664 
 -3.734113670638174  12.215167954494714   1.668719725876432 
  1.244586011817938  12.216542059631683   1.668115416260144 
  2.488418063993849   5.749558527059486   1.664334593595991 
  6.223646738277799  12.216445102515074   1.668947760826361 
  7.470028353250928   5.749631259342659   1.668681062511823 
 -1.245953839366258   7.905548709379722   8.337237486968196 
 -0.000517839953687   1.436294239568860   8.337600490948752 
  3.734323850189847   7.906513688968382   8.338033388344249 
  4.979118872114221   1.435346572334290   8.338187304645981 
  8.713935875018606   7.905488220812999   8.337562154073042 
 -3.734177288838795   7.905228908561098   1.669092900028423 
  9.957761598659863   1.437169464622795   8.336948410188013 
  2.489019961745073   1.435278023379654   1.668165145688532 
  1.243220339900169   7.906112642051064   1.667769908198646 
  6.224955218575996   7.906161187738705   1.668681062511823 
  7.468736975442383   1.436528953281887   1.668527057943965 
  1.243220339900170   7.906112642051065   8.338187304645981 
 12.446716164394694   1.437124932700776   1.668157684904190 
 -2.489785219485853  10.060501823984485   8.337790106639376 
 -1.245777312234262   3.593146914165239   8.337600490948752 
  3.734087085942551   3.591996491629689   8.341622619248650 
  2.489053363501875  10.061593974781008   8.337430154900662 
  7.468872464582800  10.061050171702323   8.337002870864108 
  8.713806736668461   3.593168580143384   8.338081753914695 
 -4.978502351007529  10.060463137368663   1.669092900028423 
 -0.000781825539455  10.061094157144899   1.668794626108570 
  1.243300430124758   3.592314835685889   1.666422788240508 
  4.979292947785150  10.061536204055875   1.667875458929934 
  6.225017944077626   3.592504972242990   1.667923824500380 
 11.202189480821581   3.593356124775883   1.668947760826361 
 -2.490178016762008   5.749478694614940   8.337868251566965 
 -3.734113670638174  12.215167954494714   8.337237486968196 
  1.244586011817938  12.216542059631683   8.337841796584483 
  2.488418063993850   5.749558527059487   8.341622619248650 
  6.223646738277800  12.216445102515074   8.337009452018266 
 -6.223437164460168  12.215673216249479   1.668088961277664 
  7.470028353250929   5.749631259342660   8.337276150332805 
 -1.244770546948239  12.215745826667572   1.668794626108570 
 -0.001888480420470   5.749658002212646   1.668165145688532 
 -1.245953839366258   7.905548709379721   1.668719725876432 
  4.980064035917849   5.749736309388461   1.664659451025871 
  3.734120374203253  12.216832273461895   1.669008802656616 
  9.958175578702058   5.749450702608311   1.668954341980521 
 -3.734177288838794   7.905228908561098   8.336864312816205 
  2.489019961745073   1.435278023379655   8.337792067156096 
  6.224955218575997   7.906161187738705   8.337276150332805 
  7.468736975442384   1.436528953281888   8.337430154900662 
 12.446716164394694   1.437124932700776   8.337799527940438 
Generated by cif2cell 2.0.0.  :  Failed to get author information, No journal information. Species order: C N B 
 1.0
 14.936314146199660   0.000000000000000   0.000000000000000
 -7.468157073099825  12.935227489513863   0.000000000000000
  0.000000000000001   0.000000000000001  13.341276283792837
 C N B 
   2 143 143
Cartesian
  3.682986117829378   5.000868024220160   5.002978606422314 
  4.919792948795514   5.714938781014040   5.002978606422314 
  1.244833068177654   0.718559859050258   1.667515261719008 
  4.978787753582790   7.186209360695576   1.669668447927345 
  6.223288837606177   0.718629244054436   1.667767449191462 
  9.957547051955311   7.186326870859721   1.667145409068555 
 11.202260942948348   0.718638375604227   1.666852953757628 
 -3.734118355254931   9.342085753086579   8.339122461670957 
  1.244609909023340   9.341954102932551   8.338189763653165 
  2.489561127983578   2.874572353749573   8.335161985274278 
  6.223632036499602   9.342042711699451   8.338526661669317 
  7.467993927788014   2.874561735319997   8.338164539338571 
 12.447038685676192   2.874679253847297   8.338970866055456 
 -1.244785696734189   9.342079339870189   1.666995181769237 
  0.000173705789993   2.874595286754322   1.668132133286263 
  4.978558211345210   2.874791401508301   1.671657231159133 
  3.734054760394554   9.341934085616941   1.667792673506057 
  8.712929465007573   9.342067767446991   1.667145409068555 
  9.957509482216002   2.874636577038611   1.667013692277922 
 -4.978700116846535  11.497855729765091   8.338866044982330 
 -0.000158286704616  11.497888603807422   8.338981187760162 
  1.244847556322088   5.030479500737813   8.335161985274278 
  6.223448049034021   5.030394490810342   8.336288764917283 
  4.978877352438126  11.497880378008801   8.338943520566705 
 11.202265676460691   5.030532215945197   8.339057922184155 
 -1.244678064867123   5.030519627492205   1.667515261719008 
 -2.489457580002874  11.497914280444004   1.666995181769237 
  2.489320212587547  11.497854700676070   1.666952488202500 
  3.734027870398853   5.030336993806056   1.671051162701142 
  7.468315840761643  11.497923044289454   1.666899290660472 
  8.712876638787503   5.030544588070192   1.667430551175312 
 -0.000041193521957   7.186259941504626   8.337637017423983 
  1.244833068177655   0.718559859050258   8.338441951125620 
  4.978787753582791   7.186209360695577   8.336288764917283 
  6.223288837606177   0.718629244054436   8.338189763653165 
  9.957547051955311   7.186326870859722   8.338811803776059 
 -2.489457671531369   7.186361342122200   1.667091167862299 
 11.202260942948348   0.718638375604228   8.339104259087000 
  3.734077379747172   0.718576851115839   1.668320195420632 
  2.489535798926561   7.185904680995087   1.671657231159133 
  7.468094486566573   7.186201359822556   1.668685783069365 
  8.712708675068273   0.718629688421423   1.666952488202500 
  2.489535798926562   7.185904680995088   8.334299981685493 
 13.691835986468467   0.718627083750462   1.666986346789171 
 -1.244785696734188   9.342079339870189   8.338962031075392 
  0.000173705789993   2.874595286754323   8.337825079558366 
  4.978558211345211   2.874791401508302   8.334299981685493 
  3.734054760394554   9.341934085616941   8.338164539338571 
  8.712929465007573   9.342067767446991   8.338811803776059 
  9.957509482216002   2.874636577038612   8.338943520566705 
 -3.734118355254932   9.342085753086579   1.666834751173683 
  1.244609909023340   9.341954102932551   1.667767449191462 
  2.489561127983578   2.874572353749572   1.670795227570351 
  6.223632036499601   9.342042711699451   1.667430551175312 
  7.467993927788013   2.874561735319996   1.667792673506057 
 12.447038685676192   2.874679253847296   1.666986346789171 
 -1.244678064867123   5.030519627492206   8.338441951125620 
 -2.489457580002874  11.497914280444004   8.338962031075392 
  2.489320212587547  11.497854700676070   8.339004724642129 
  3.734027870398854   5.030336993806057   8.334906050143486 
  7.468315840761644  11.497923044289454   8.339057922184155 
 -4.978700116846536  11.497855729765091   1.667091167862299 
  8.712876638787503   5.030544588070192   8.338526661669317 
 -0.000158286704616  11.497888603807422   1.666976025084467 
  1.244847556322088   5.030479500737812   1.670795227570351 
 -0.000041193521958   7.186259941504625   1.668320195420632 
  6.223448049034020   5.030394490810341   1.669668447927345 
  4.978877352438125  11.497880378008801   1.667013692277922 
 11.202265676460691   5.030532215945196   1.666899290660472 
 -2.489457671531369   7.186361342122201   8.338866044982330 
  3.734077379747172   0.718576851115840   8.337637017423983 
  7.468094486566573   7.186201359822557   8.337271429775262 
  8.712708675068273   0.718629688421423   8.339004724642129 
 13.691835986468467   0.718627083750462   8.338970866055456 
 -0.001347640568460   1.436563864606122   5.002978606422314 
  3.723468816029087   7.934728357081638   5.002978606422314 
  4.970583455504122   1.459386054684687   5.002978606422314 
  8.707200747816444   7.901599693309787   5.002978606422314 
  9.959707593255695   1.435368554137746   5.002978606422314 
 -4.978797449330679  10.060718488569540  11.673616748318732 
  0.000041654989594  10.060766259166966  11.673616748318732 
  1.244704496208647   3.593125473617375  11.673616748318732 
  4.978753887360111  10.060731346401980  11.673616748318732 
  6.223524883967293   3.593110538181277  11.673616748318732 
 11.202215670218749   3.593104871491814  11.673616748318732 
 -2.487614497728171  10.061755090775625   5.002978606422314 
 -1.245958710409875   3.592293473234125   5.002978606422314 
  3.709173812875714   3.646464719791151   5.002978606422314 
  2.483162966013623  10.069994069548518   5.002978606422314 
  7.470065421462833  10.067120572055407   5.002978606422314 
  8.720550735940726   3.587855729197940   5.002978606422314 
 -6.223486789333291  12.216620463334916  11.673616748318732 
 -1.244642774662453  12.216622930714218  11.673616748318732 
 -0.000085609585393   5.749000414397964  11.673616748318732 
  4.978746050364604   5.748975370074509  11.673616748318732 
  3.734079175538224  12.216635442956353  11.673616748318732 
  9.957628783701843   5.748979457393856  11.673616748318732 
 -2.482842678001149   5.748153106262983   5.002978606422314 
 -3.733533269360840  12.224754552543226   5.002978606422314 
  1.243268362336909  12.215781314349105   5.002978606422314 
  2.523132296747391   5.700748885611442   5.002978606422314 
  6.224573159525285  12.219782719560525   5.002978606422314 
  7.474488461748319   5.738341572234325   5.002978606422314 
 -1.244723017608895   7.904879357740499  11.673616748318732 
 -0.000074158631447   1.437227006816091  11.673616748318732 
  3.734101755620902   7.904917878014312  11.673616748318732 
  4.978795466939890   1.437310177921965  11.673616748318732 
  8.712811982379478   7.904839341095251  11.673616748318732 
 -3.732605982539181   7.904284518997946   5.002978606422314 
  9.957570539109314   1.437232200785039  11.673616748318732 
  2.490480154713782   1.449639324596409   5.002978606422314 
  1.259771434004392   7.886701013259638   5.002978606422314 
  6.217408116988095   7.915668598555246   5.002978606422314 
  7.473066472161125   1.427227672034906   5.002978606422314 
  1.244759169634936   7.904850762160555  11.673616748318732 
 12.447687126485636   1.437685517925354   5.002978606422314 
 -2.489365511323033  10.060744142605280  11.673616748318732 
 -1.244747671441215   3.593064769837855  11.673616748318732 
  3.734093839572084   3.593094374342388  11.673616748318732 
  2.489339227628982  10.060824358478945  11.673616748318732 
  7.468190956755563  10.060812255948704  11.673616748318732 
  8.712840179281244   3.593104168948060  11.673616748318732 
 -4.978534563210474  10.062296123322819   5.002978606422314 
  0.003099626247733  10.056289629262007   5.002978606422314 
  1.234967515757829   3.587503825332992   5.002978606422314 
  4.978063883536008  10.070033104221482   5.002978606422314 
  6.244025046342665   3.568996902844209   5.002978606422314 
 11.205543152594789   3.592489620588085   5.002978606422314 
 -2.489382489158930   5.748962094671453  11.673616748318732 
 -3.734077935283117  12.216568553223722  11.673616748318732 
  1.244695738298246  12.216605410244618  11.673616748318732 
  2.489372235128188   5.749015434517880  11.673616748318732 
  6.223442241249595  12.216593409840366  11.673616748318732 
 -6.220917488267502  12.222688600137740   5.002978606422314 
  7.468194856373983   5.748976691702415  11.673616748318732 
 -1.246990664254410  12.221509526460272   5.002978606422314 
  0.011278867749002   5.743741915809585   5.002978606422314 
 -1.237361401281702   7.901258052606012   5.002978606422314 
  3.733533737271176  12.219418009460039   5.002978606422314 
  9.964029178058986   5.747448633395500   5.002978606422314 
 -3.734103697373516   7.904845670316186  11.673616748318732 
  2.489351909409878   1.437168149229914  11.673616748318732 
  6.223471597932576   7.904900616685633  11.673616748318732 
  7.468213400237182   1.437161327029026  11.673616748318732 
 12.446934869925213   1.437251202397687  11.673616748318732 
  1.241617195760334   0.719749655106732   5.002978606422314 
  4.961386188154596   7.246142017656192   5.002978606422314 
  6.224450790828817   0.721641994136694   5.002978606422314 
  9.959043678032874   7.185116978172499   5.002978606422314 
 11.203354022451689   0.719269465349720   5.002978606422314 
 -3.731910990128354   9.343360175936603  11.673616748318732 
  1.244635748513421   9.340009024198613  11.673616748318732 
  2.487092872540168   2.875387209098319  11.673616748318732 
  6.221391098344574   9.343628083519794  11.673616748318732 
  7.470707485814661   2.875555958676705  11.673616748318732 
 12.446737577247081   2.871820386840007  11.673616748318732 
 -1.243430572933881   9.341604900914408   5.002978606422314 
 -0.018268789234970   2.863947507287139   5.002978606422314 
  4.996234535613230   2.884730398472322   5.002978606422314 
  3.727210275570300   9.374482076960220   5.002978606422314 
  8.712629980243374   9.343968829993727   5.002978606422314 
  9.965740572419246   2.870060278483332   5.002978606422314 
 -4.981008033539752  11.499115376446859  11.673616748318732 
  0.002282767933747  11.499297947360006  11.673616748318732 
  1.244319114032815   5.027934501146404  11.673616748318732 
  6.221881796651652   5.031487145006907  11.673616748318732 
  4.978747445543635  11.495656745674424  11.673616748318732 
 11.204384596733306   5.031557374897549  11.673616748318732 
 -1.245255607465555   5.027139702255239   5.002978606422314 
 -2.489190894290963  11.499325071558220   5.002978606422314 
  2.487237392034057  11.506278442394215   5.002978606422314 
  7.469661975664702  11.503702141286883   5.002978606422314 
  8.727576707112924   5.024505049857257   5.002978606422314 
  0.001860735138794   7.187612319761232  11.673616748318732 
  1.244467250785013   0.715822229823306  11.673616748318732 
  4.978950893683383   7.184306619245426  11.673616748318732 
  6.221617269755266   0.719624161076235  11.673616748318732 
  9.955448912778554   7.187478816262980  11.673616748318732 
 -2.487481329060636   7.185393437702712   5.002978606422314 
 11.204428039917108   0.719889549622494  11.673616748318732 
  3.732253028458663   0.721698013452050   5.002978606422314 
  2.506981384919542   7.196243328374726   5.002978606422314 
  7.465677058379654   7.184805657008094   5.002978606422314 
  8.718962439114360   0.712614042051502   5.002978606422314 
  2.487156404933454   7.187853489001677  11.673616748318732 
 13.688106803723240   0.717545180211275   5.002978606422314 
 -1.246950129281411   9.343486999723011  11.673616748318732 
  0.001670829246968   2.875459651385217  11.673616748318732 
  4.979056231589455   2.871756381861377  11.673616748318732 
  3.736272562091822   9.343786984124312  11.673616748318732 
  8.712878009402189   9.339674752917615  11.673616748318732 
  9.955518806678507   2.875635890535046  11.673616748318732 
 -3.733291774633540   9.342562979630838   5.002978606422314 
  1.247800003741157   9.341454008900223   5.002978606422314 