 In N B 
 1.0
 17.527899999999772   0.000000000000000   0.000000000000000
 -8.763949999999658  15.179606674993195   0.000000000000000
  0.000000000000001   0.000000000000002  15.000000000000000
 In N B 
   1  49  47
Cartesian
  5.038071542805270   9.960481873451222   1.651051111094985 
  8.814694178979318  13.735973450742678   1.660663404323085 
 16.355293782252041   0.759758646236736   1.662308197876245 
 15.097231185923476   2.896241839171338   1.663496120742480 
 13.845516991323514   5.045844909293668   1.660896953751165 
 12.588068460135695   7.210070289988438   1.661041464460275 
 11.345032795943951   9.386110507796417   1.661774766428280 
 10.058276948069569  11.563649757831396   1.661690899752405 
 -6.222879250964389  13.765703974477892   1.661261527894335 
  1.319925844405378   0.767348265522018   1.661512766462865 
  0.072651568443988   2.923613153970107   1.663711008648240 
 -1.207035051016317   5.059868891664398   1.662233766643560 
 -2.503078826810373   7.226085217413415   1.660508138697015 
 -3.753186322605428   9.408961378036732   1.661768997856350 
 -4.989824549030947  11.591598983098780   1.662360660940635 
 -3.740715415602938  13.778395515821927   1.661822179726605 
  3.801658039300341   0.778679456816858   1.661216362765965 
  2.595031870903741   2.986698451000197   1.662607799230620 
  1.298352855354610   5.094382692295234   1.661705261792985 
 -0.074410045141928   7.230460676867080   1.660011929654580 
 -1.334622538319755   9.419939815538980   1.661735354039910 
 -2.518252308270080  11.605448836148504   1.663392029848845 
 -1.249860156575111  13.777370303427627   1.662646055188935 
  6.291690231997509   0.764838316327302   1.662047767229865 
  5.072096084514346   2.957427164723479   1.662935460401655 
  3.898659780976347   5.255099805717758   1.661028059297850 
  2.328720784320780   7.251107810830029   1.659655466439285 
  1.041666509617015   9.429029812932720   1.663574486818890 
 -0.041956459551926  11.615543326200466   1.662592647806190 
  1.260528180431701  13.762016833831741   1.661578140918240 
  8.808883233729510   0.731497877399043   1.661617220020425 
  7.598312706130445   2.880794237307812   1.662978658915575 
  6.423397189702755   5.040854160967695   1.663468502596020 
  3.479168783130339   7.920986321035370   1.654829315290560 
  3.293647840376969   9.229628288121745   1.645702937993715 
  2.473659779256700  11.590552624025115   1.657241949101910 
  3.756231342796239  13.821742248908130   1.660539861538830 
 11.318436438555246   0.742329737667929   1.661416291652685 
 10.117278546369546   2.855612214589751   1.660625304090720 
  8.946006330466314   4.962327202899241   1.663347212586420 
  7.751830113528577   7.044465738042113   1.663148065537560 
  6.628285092270604   8.979979086935876   1.654075954240320 
  5.020460241457761  11.878823920100725   1.647930474779415 
  6.343686277460209  13.808360284488190   1.659865485049110 
 13.838481483334352   0.742982901333323   1.661517101625300 
 12.605893738808341   2.878702888431830   1.660919815233735 
 11.387064318332301   5.020088933334348   1.660826447771415 
 10.155708159262076   7.169516976056211   1.662471063326115 
  8.932142527384151   9.328754899261408   1.662180045751440 
  7.536332473765689  11.499375620692982   1.657891819878060 
  7.590786903391724  14.500733166363453   1.661242530771630 
 15.095066184515591   1.458656430164436   1.662863666098020 
 13.847498310517370   3.606521109853738   1.661987830892220 
 12.604860129340466   5.765299009954912   1.660953082642455 
 11.352423990806352   7.932956440912435   1.662035388641985 
 10.107111274334599  10.103602118289594   1.662178481288775 
  8.786857308480187  12.258713415159775   1.660462259192295 
 -7.466860133690542  14.486442713543163   1.661307919864890 
  0.074191967075978   1.485051743147011   1.662780215849805 
 -1.185496073901689   3.623453723899851   1.663901759840850 
 -2.455544966381964   5.781955460944883   1.661253589530135 
 -3.731800291389602   7.959146053370630   1.661158492967745 
 -4.979409800268376  10.139328027104865   1.662167137329300 
 -6.237662302815798  12.312896152644029   1.662231257583645 
 -4.980665329942335  14.510127898993963   1.661490266162235 
  2.571902051520079   1.527532483984537   1.662027411665565 
  1.323530936793233   3.660209448117337   1.663060452335400 
  0.028364346778620   5.791548191262435   1.661287914759930 
 -1.295509301033012   7.970361460248037   1.660857394139850 
 -2.543777160159006  10.157272069360605   1.662726781333725 
 -3.755527314315269  12.332803385984700   1.662819377101695 
 -2.492475306039498  14.507631403568997   1.662299646488100 
  5.050381661757542   1.518182826854612   1.662222702202245 
  3.865280425431053   3.779262006544426   1.662612501346920 
  2.563493913390942   5.822990761970537   1.661042018499195 
  1.111555122909999   7.987180115942809   1.661066989770000 
 -0.132920117394625  10.173996598821979   1.663216749296385 
 -1.274217832222063  12.339857781657884   1.663499076221505 
  0.014331995077363  14.479738351189431   1.662030855546945 
  7.561177155556080   1.459537576182458   1.662609046971585 
  6.353099154930662   3.639101127119502   1.663760916756180 
  5.336968709534030   6.057673329103165   1.661229875402310 
  2.264319059935811  10.131395212281770   1.656494173463445 
  1.232792142940685  12.319970797463276   1.661133469568145 
  2.512395970203306  14.500387232197646   1.661660106574680 
 10.072074151501283   1.438045324222738   1.661379419313945 
  8.873556810270971   3.555908848835455   1.662433074445095 
  7.714550042225955   5.650579760830460   1.664030978559960 
  6.390828552979621   7.515361608857628   1.659197038903230 
  3.728176676634629  12.395607362433994   1.655163810549900 
  5.057918201837680  14.487605312636084   1.660564781531205 
 12.583474914037643   1.446131061124467   1.661457611036985 
 11.359265181785155   3.586248757704281   1.660790271501330 
 10.148246141024831   5.729337411775314   1.662431285635410 
  8.904668631072600   7.863580836701678   1.662827699339220 
  7.650101262713051   9.947963061889796   1.658334183229005 
  6.332916049130521  12.369009642499309   1.655518147264020 
