 N B In 
 1.0
 14.936314146199660   0.000000000000000   0.000000000000000
 -7.468157073099825  12.935227489513863   0.000000000000000
  0.000000000000001   0.000000000000001  13.341276283792837
 N B In 
 143 144   1
Cartesian
  1.244924600987392   0.718313010780311   1.680688970527534 
  4.978771382065828   7.186333864798534   1.676462668295226 
  6.223251953793414   0.718358663984647   1.661495462098077 
  9.957666197955376   7.186553871386524   1.661495462098077 
 11.202007765947137   0.718492203795108   1.713654550111187 
 -3.733946025036732   9.342185247982401   8.352447109449708 
  1.244357137902540   9.342057450648992   8.344461750746792 
  2.489322635970356   2.874218621369624   8.334287700715240 
  6.223672048948430   9.342301537864712   8.334287700715240 
  7.468220128161401   2.874218621369624   8.334287700715240 
 12.446928455165789   2.874758088914842   8.292302662734881 
 -1.244825357028582   9.342185247982401   1.653510103396522 
  0.000002647424649   2.874496526161741   1.693635512115748 
  4.978771382066631   2.874529905847860   1.667890593042493 
  3.733870715182128   9.342301537864751   1.671669512128279 
  8.713185626228995   9.342057450648992   1.661495462098077 
  9.957540116710048   2.874496526161741   1.693635512115762 
 -4.978422269928889  11.497778430693085   8.344560266676966 
 -0.000349112140156  11.497778430693085   8.344560266676966 
  1.244421969088316   5.030449826785892   8.334287700715240 
  6.223547686991188   5.030318060609948   8.329494544547360 
  4.978771382070460  11.497976933692980   8.312321700729278 
 11.202388839468384   5.030722321364915   8.325268242315319 
 -1.244846075334655   5.030722321364914   1.680688970527521 
 -2.489385691033232  11.497826979563362   1.653510103396455 
  2.489000705744043  11.497934653872415   1.680688970527521 
  3.733995077140480   5.030318060609948   1.676462668294773 
  7.468542058388736  11.497934653872415   1.680688970527521 
  8.713120795045517   5.030449826785891   1.671669512128279 
 -0.000123433823616   7.186553871386525   8.344461750746792 
  1.244924600987198   0.718313010780311   8.325268242315319 
  4.978771382065829   7.186333864798534   8.329494544547360 
  6.223251953793400   0.718358663984673   8.344461750746792 
  9.957666197955376   7.186553871386525   8.344461750746792 
 -2.489385691033137   7.186640614148191   1.661396946166473 
 11.202007765947137   0.718492203795109   8.292302662734881 
  3.734290810340864   0.718358663984673   1.661495462098077 
  2.489415922403068   7.186220040085142   1.667890593042506 
  7.468126841730632   7.186220040085142   1.667890593042440 
  8.712618163145512   0.718313010780362   1.680688970527521 
  2.489415922403068   7.186220040085143   8.338066619802081 
 13.691849144384065   0.718492203795108   1.713654550111187 
 -1.244825357028582   9.342185247982401   8.352447109449708 
  0.000002647424657   2.874496526161729   8.312321700729278 
  4.978771382066587   2.874529905847938   8.338066619802081 
  3.733870715182167   9.342301537864712   8.334287700715240 
  8.713185626228995   9.342057450648992   8.344461750746792 
  9.957540116710048   2.874496526161742   8.312321700730214 
 -3.733946025036732   9.342185247982401   1.653510103396455 
  1.244357137902540   9.342057450648992   1.661495462098077 
  2.489322635970356   2.874218621369623   1.671669512128279 
  6.223672048948407   9.342301537864751   1.671669512128559 
  7.468220128161384   2.874218621369623   1.671669512128306 
 12.446928455165931   2.874758088914595   1.713654550111200 
 -1.244846075334430   5.030722321364915   8.325268242315319 
 -2.489385691033231  11.497826979563362   8.352447109449708 
  2.489000705744043  11.497934653872415   8.325268242315319 
  3.733995077140481   5.030318060609948   8.329494544547387 
  7.468542058388737  11.497934653872415   8.325268242315319 
 -4.978422269928890  11.497778430693085   1.661396946166473 
  8.713120795045517   5.030449826785892   8.334287700715240 
 -0.000349112140157  11.497778430693085   1.661396946166473 
  1.244421969088031   5.030449826785891   1.671669512128306 
 -0.000123433823616   7.186553871386524   1.661495462098077 
  6.223547686991187   5.030318060609948   1.676462668295200 
  4.978771382070459  11.497976933692980   1.693635512115748 
 11.202388839468384   5.030722321364914   1.680688970527521 
 -2.489385691033136   7.186640614148192   8.344560266676966 
  3.734290810340864   0.718358663984673   8.344461750746792 
  7.468126841729556   7.186220040085143   8.338066619802081 
  8.712618163145542   0.718313010780311   8.325268242315319 
 13.691849144384065   0.718492203795109   8.292302662734881 
 -0.013940011818947   1.425891247208809   5.002978606422314 
  3.647886317133488   8.046582210116103   5.002978606422314 
  4.978771382066541   1.397170032331512   5.002978606422314 
  8.747558022728338   7.924899976842204   5.002978606422314 
  9.971482775952270   1.425891247208783   5.002978606422314 
 -4.978905582150327  10.060734590963099  11.673616748318732 
  0.000134200080763  10.060734590962774  11.673616748318732 
  1.244599761078658   3.593065004762424  11.673616748318732 
  4.978771382069094  10.060839976493700  11.673616748318732 
  6.223507073866648   3.593188886019135  11.673616748318732 
 11.202298992803915   3.593046289082876  11.673616748318732 
 -2.489385691033300  10.060732491844131   5.002978606422314 
 -1.261497653826393   3.586724468536415   5.002978606422314 
  3.654440689003191   3.447613612203534   5.002978606422314 
  2.446782695891114  10.120428529773067   5.002978606422314 
  7.510760068241633  10.120428529773067   5.002978606422314 
  8.761073882065043   3.565276628808355   5.002978606422314 
 -6.223575199947404  12.216667810020619  11.673616748318732 
 -1.244623927586990  12.216718911217646  11.673616748318732 
 -0.000016371932667   5.748869517333618  11.673616748318732 
  4.978771382066590   5.748989995339477  11.673616748318732 
  3.734109595441932  12.216694860522303  11.673616748318732 
  9.957559136065726   5.748869517333618  11.673616748318732 
 -2.489385691033025   5.754721051743241   5.002978606422314 
 -3.732056320489499  12.200412373694848   5.002978606422314 
  1.239729605081426  12.213738211894571   5.002978606422314 
  2.323555624069836   5.752774163702778   5.002978606422314 
  6.226329024074193  12.234354270274563   5.002978606422314 
  7.633987140063041   5.752774163702778   5.002978606422314 
 -1.244627563363289   7.904743973351979  11.673616748318732 
 -0.000094442050286   1.437228836413447  11.673616748318732 
  3.734160701789158   7.904863280094813  11.673616748318732 
  4.978771382068111   1.437439518855731  11.673616748318732 
  8.712683624398995   7.904765233581105  11.673616748318732 
 -3.721067509953745   7.914708217273947   5.002978606422314 
  9.957637206181591   1.437228836413395  11.673616748318732 
  2.458988903252725   1.370504203800037   5.002978606422314 
  1.209984741406124   7.924899976842204   5.002978606422314 
  6.309656446997003   8.046582210116103   5.002978606422314 
  7.498553860880971   1.370504203800037   5.002978606422314 
  1.244859139733512   7.904765233581156  11.673616748318732 
 12.446928455166319   1.437247498834912   5.002978606422314 
 -2.489385691033299  10.060732491844133  11.673616748318732 
 -1.244756228672666   3.593046289082876  11.673616748318732 
  3.734035690268051   3.593188886019135  11.673616748318732 
  2.489481842079753  10.060806909356375  11.673616748318732 
  7.468060922052592  10.060806909356375  11.673616748318732 
  8.712943003056042   3.593065004762424  11.673616748318732 
 -4.963738139409077  10.067076884564248   5.002978606422314 
 -0.015033242658880  10.067076884564248   5.002978606422314 
  1.196468882067296   3.565276628808510   5.002978606422314 
  4.978771382065866  10.116416728401603   5.002978606422314 
  6.303102075132882   3.447613612203534   5.002978606422314 
 11.219040417959567   3.586724468536415   5.002978606422314 
 -2.489385691033861   5.748861855491617  11.673616748318732 
 -3.734147454478949  12.216718911217646  11.673616748318732 
  1.244803817881970  12.216667810020619  11.673616748318732 
  2.489425009989577   5.748917819904330  11.673616748318732 
  6.223433168686702  12.216694860522239  11.673616748318732 
 -6.218500987146737  12.213738211894571   5.002978606422314 
  7.468117754145646   5.748917819904330  11.673616748318732 
 -1.246715061580191  12.200412373694848   5.002978606422314 
 -0.072999782923653   5.756037252447124   5.002978606422314 
 -1.257703872112796   7.914708217273947   5.002978606422314 
  3.731213740059167  12.234354270274563   5.002978606422314 
 10.030542547054605   5.756037252447124   5.002978606422314 
 -3.734143818702249   7.904743973351979  11.673616748318732 
  2.489273168053512   1.437293559327769  11.673616748318732 
  6.223382062346528   7.904863280094813  11.673616748318732 
  7.468269596079065   1.437293559327769  11.673616748318732 
 12.446928455166319   1.437247498834912  11.673616748318732 
  1.214090116368697   0.689366602891790   5.002978606422314 
  4.978771382066498   7.716443103883486   5.002978606422314 
  6.235760685488723   0.680969583404804   5.002978606422314 
  9.996300457411930   7.194415532258874   5.002978606422314 
 11.211530436554414   0.723990120232278   5.002978606422314 
 -3.733976467135153   9.342167672229222  11.673616748318732 
  1.244390750162654   9.342731419884229  11.673616748318732 
  2.488307810078550   2.873661310810280  11.673616748318732 
  6.223647281104239   9.343459058144107  11.673616748318732 
  7.469234954051951   2.873661310810280  11.673616748318732 
 12.446928455166798   2.874117950336030  11.673616748318732 
 -1.254208508348207   9.347602612922687   5.002978606422314 
 -0.042212005613816   2.850123884865625   5.002978606422314 
  4.978771382066713   2.796369803179932   5.002978606422314 
  3.684177499375055   9.481666131162365   5.002978606422314 
  8.739311153992290   9.371584870352320   5.002978606422314 
  9.999754769747110   2.850123884865625   5.002978606422314 
 -4.978924590086688  11.498068445370144  11.673616748318732 
  0.000153208020719  11.498068445370144  11.673616748318732 
  1.243431911039954   5.029849617063126  11.673616748318732 
  6.224407163439255   5.029821841652847  11.673616748318732 
  4.978771382065068  11.499065354041429  11.673616748318732 
 11.202782504733790   5.029869314328882  11.673616748318732 
 -1.285331642224021   5.018492078317562   5.002978606422314 
 -2.489385691033239  11.486992249682961   5.002978606422314 
  2.479349623474730  11.539111304809271   5.002978606422314 
  3.274907009312287   4.765263441067499   5.002978606422314 
  7.478193140659662  11.539111304809271   5.002978606422314 
  8.858660681134817   5.003803117423435   5.002978606422314 
 -0.000690302171513   7.186187777696334  11.673616748318732 
  1.243989042589652   0.718398590178158  11.673616748318732 
  4.978771382068524   7.187326302712726  11.673616748318732 
  6.223852434402711   0.718050788437896  11.673616748318732 
  9.958233066306605   7.186187777696334  11.673616748318732 
 -2.489385691033569   7.189098830835097   5.002978606422314 
 11.202562142220151   0.718812273084418  11.673616748318732 
  3.721782078643209   0.680969583404830   5.002978606422314 
  2.421727287930082   7.225300091418623   5.002978606422314 
  7.535815476203693   7.225300091418623   5.002978606422314 
  8.743452647765453   0.689366602891803   5.002978606422314 
  2.488578853125108   7.186703322258570  11.673616748318732 
 13.682326473779566   0.723990120232278   5.002978606422314 
 -1.244794914930117   9.342167672229222  11.673616748318732 
 -0.000939952242748   2.873952315990094  11.673616748318732 
  4.978771382067230   2.873563341502353  11.673616748318732 
  3.733895483026402   9.343459058144107  11.673616748318732 
  8.713152013970259   9.342731419884229  11.673616748318732 
  9.958482716374929   2.873952315990080  11.673616748318732 
 -3.724562873716533   9.347602612922699   5.002978606422314 
  1.218231610146125   9.371584870352384   5.002978606422314 
  2.393475965690849   2.761500737432267   5.002978606422314 
  6.273365264757847   9.481666131163026   5.002978606422314 
  7.564066798443930   2.761500737432280   5.002978606422314 
 12.446928455166834   2.863762256039468   5.002978606422314 
 -1.245239740602226   5.029869314328882  11.673616748318732 
 -2.489385691033239  11.497862131071424  11.673616748318732 
  2.489542598877222  11.498702081512686  11.673616748318732 
  3.733135600694176   5.029821841652847  11.673616748318732 
  7.468000165257575  11.498702081512686  11.673616748318732 
 -4.976293391829941  11.496549322348377   5.002978606422314 
  8.714110853091148   5.029849617063126  11.673616748318732 
 -0.002477990233759  11.496549322348377   5.002978606422314 
  1.098882082998397   5.003803117423423   5.002978606422314 
 -0.038757693280187   7.194415532259444   5.002978606422314 
  6.682635754820373   4.765263441067615   5.002978606422314 
  4.978771382065553  11.546722216289442   5.002978606422314 
 11.242874406357526   5.018492078317562   5.002978606422314 
 -2.489385691033008   7.186060584790054  11.673616748318732 
  3.733690329732159   0.718050788437960  11.673616748318732 
  7.468963911006711   7.186703322258570  11.673616748318732 
  8.713553721545029   0.718398590178158  11.673616748318732 
 13.691294768113936   0.718812273084418  11.673616748318732 
 -0.000544615695237   1.436350252437375   1.692522066672601 
  3.730628778585826   7.908852988367734   1.656145641161591 
  4.978771382066698   1.432980279651312   1.653759163145767 
  8.716545438833563   7.906994853180926   1.653759163145767 
  9.958087379826512   1.436350252437375   1.692522066672601 
 -4.977071327983605  10.061345199154493   8.353649865462438 
 -0.001700054083202  10.061345199154493   8.353649865462438 
  1.241896830961103   3.591504467332308   8.336317827680801 
  4.978771382067225  10.063961051354267   8.336317827680801 
  6.225196300984627   3.588135296661771   8.349811571681663 
 11.203284955671885   3.593095719258335   8.313435146172507 
 -2.489385691033300  10.060732491844131   1.647486623336353 
 -1.245742191537800   3.593095719258334   1.692522066672601 
  3.732346463153926   3.588135296661770   1.656145641161591 
  2.487104633168018  10.062910377211601   1.663058627708490 
  7.470438130959815  10.062910377211601   1.663058627708490 
  8.715645933170443   3.591504467332307   1.669639385164494 
 -6.222694462196649  12.216159315843020   8.337056562666707 
 -1.245012252461884  12.214825096416542   8.353649865462438 
 -0.003026632986572   5.749876506713423   8.342898585132788 
  4.978771382066590   5.748989995339477   8.358387256531989 
  3.733573806222541  12.217524014321672   8.313435146172507 
  9.960569397115895   5.749876506713423   8.342898585132788 
 -2.489385691033496   5.749878843845862   1.668900650178908 
 -3.733759129602265  12.214825096416542   1.652307347380601 
  1.243923080127990  12.216159315843020   1.668900650178908 
  2.484203859669976   5.749981700987282   1.656145641161591 
  6.223968957911508  12.217524014321672   1.692522066672601 
  7.473338904463292   5.749981700987282   1.656145641161591 
 -1.246073492653034   7.906027179961102   8.353649865462438 
 -0.000544615695110   1.436350252437207   8.313435146172507 
  3.730628778585827   7.908852988367735   8.349811571681663 
  4.978771382066699   1.432980279651312   8.352198049699421 
  8.716545438833979   7.906994853180979   8.352198049699313 
 -3.732697889413058   7.906027179961101   1.652307347380601 
  9.958087379826610   1.436350252437207   8.313435146172507 
  2.488640115910677   1.434183102093315   1.663058627708490 
  1.240997325301842   7.906994853180926   1.653759163145767 
  6.226913985548443   7.908852988367734   1.656145641161591 
  7.468902648221392   1.434183102093315   1.663058627708410 
  1.240997325302064   7.906994853180979   8.352198049699313 
 12.446928455166319   1.437247498834911   1.713467121721928 
 -2.489385691033300  10.060732491844131   8.358470589508809 
 -1.245742191537830   3.593095719258335   8.313435146172507 
  3.732346463153926   3.588135296661771   8.349811571681663 
  2.487104633168018  10.062910377211601   8.342898585132788 
  7.470438130959816  10.062910377211601   8.342898585132788 
  8.715645933170547   3.591504467332126   8.336317827680801 
 -4.977071327983606  10.061345199154493   1.652307347380601 
 -0.001700054083202  10.061345199154493   1.652307347380601 
  1.241896830961208   3.591504467332125   1.669639385164507 
  4.978771382067426  10.063961051353917   1.669639385164507 
  6.225196300984626   3.588135296661770   1.656145641161591 
 11.203284955671885   3.593095719258334   1.692522066672601 
 -2.489385691033495   5.749878843845863   8.337056562666707 
 -3.733759129602265  12.214825096416542   8.353649865462438 
  1.243923080127991  12.216159315843020   8.337056562666707 
  2.484203859669946   5.749981700987283   8.349811571681663 
  6.223968957910492  12.217524014321672   8.313435146172507 
 -6.222694462196650  12.216159315843020   1.668900650178908 
  7.473338904463293   5.749981700987283   8.349811571681663 
 -1.245012252461884  12.214825096416542   1.652307347380601 
 -0.003026632986633   5.749876506713422   1.663058627708490 
 -1.246073492653035   7.906027179961101   1.652307347380601 
  4.978771382066589   5.748989995339476   1.647569956314559 
  3.733573806222541  12.217524014321672   1.692522066672601 
  9.960569397115895   5.749876506713422   1.663058627708490 
 -3.732697889413058   7.906027179961102   8.353649865462438 
  2.488640115910677   1.434183102093316   8.342898585132788 
  6.226913985548443   7.908852988367735   8.349811571681663 
  7.468902648221408   1.434183102093290   8.342898585132788 
 12.446928455166319   1.437247498834912   8.292490091122605 
  4.978771382066589   5.748989995339477   5.002978606422314 
Generated by cif2cell 2.0.0.  :  Failed to get author information, No journal information. Species order: N B In 
 1.0
 14.936314146199660   0.000000000000000   0.000000000000000
 -7.468157073099825  12.935227489513863   0.000000000000000
  0.000000000000001   0.000000000000001  13.341276283792837
 N B In 
 143 144   1
Cartesian
  1.244924600987392   0.718313010780311   1.680688970527534 
  4.978771382065828   7.186333864798534   1.676462668295226 
  6.223251953793414   0.718358663984647   1.661495462098077 
  9.957666197955376   7.186553871386524   1.661495462098077 
 11.202007765947137   0.718492203795108   1.713654550111187 
 -3.733946025036732   9.342185247982401   8.352447109449708 
  1.244357137902540   9.342057450648992   8.344461750746792 
  2.489322635970356   2.874218621369624   8.334287700715240 
  6.223672048948430   9.342301537864712   8.334287700715240 
  7.468220128161401   2.874218621369624   8.334287700715240 
 12.446928455165789   2.874758088914842   8.292302662734881 
 -1.244825357028582   9.342185247982401   1.653510103396522 
  0.000002647424649   2.874496526161741   1.693635512115748 
  4.978771382066631   2.874529905847860   1.667890593042493 
  3.733870715182128   9.342301537864751   1.671669512128279 
  8.713185626228995   9.342057450648992   1.661495462098077 
  9.957540116710048   2.874496526161741   1.693635512115762 
 -4.978422269928889  11.497778430693085   8.344560266676966 
 -0.000349112140156  11.497778430693085   8.344560266676966 
  1.244421969088316   5.030449826785892   8.334287700715240 
  6.223547686991188   5.030318060609948   8.329494544547360 
  4.978771382070460  11.497976933692980   8.312321700729278 
 11.202388839468384   5.030722321364915   8.325268242315319 
 -1.244846075334655   5.030722321364914   1.680688970527521 
 -2.489385691033232  11.497826979563362   1.653510103396455 
  2.489000705744043  11.497934653872415   1.680688970527521 
  3.733995077140480   5.030318060609948   1.676462668294773 
  7.468542058388736  11.497934653872415   1.680688970527521 
  8.713120795045517   5.030449826785891   1.671669512128279 
 -0.000123433823616   7.186553871386525   8.344461750746792 
  1.244924600987198   0.718313010780311   8.325268242315319 
  4.978771382065829   7.186333864798534   8.329494544547360 
  6.223251953793400   0.718358663984673   8.344461750746792 
  9.957666197955376   7.186553871386525   8.344461750746792 
 -2.489385691033137   7.186640614148191   1.661396946166473 
 11.202007765947137   0.718492203795109   8.292302662734881 
  3.734290810340864   0.718358663984673   1.661495462098077 
  2.489415922403068   7.186220040085142   1.667890593042506 
  7.468126841730632   7.186220040085142   1.667890593042440 
  8.712618163145512   0.718313010780362   1.680688970527521 
  2.489415922403068   7.186220040085143   8.338066619802081 
 13.691849144384065   0.718492203795108   1.713654550111187 
 -1.244825357028582   9.342185247982401   8.352447109449708 
  0.000002647424657   2.874496526161729   8.312321700729278 
  4.978771382066587   2.874529905847938   8.338066619802081 
  3.733870715182167   9.342301537864712   8.334287700715240 
  8.713185626228995   9.342057450648992   8.344461750746792 
  9.957540116710048   2.874496526161742   8.312321700730214 
 -3.733946025036732   9.342185247982401   1.653510103396455 
  1.244357137902540   9.342057450648992   1.661495462098077 
  2.489322635970356   2.874218621369623   1.671669512128279 
  6.223672048948407   9.342301537864751   1.671669512128559 
  7.468220128161384   2.874218621369623   1.671669512128306 
 12.446928455165931   2.874758088914595   1.713654550111200 
 -1.244846075334430   5.030722321364915   8.325268242315319 
 -2.489385691033231  11.497826979563362   8.352447109449708 
  2.489000705744043  11.497934653872415   8.325268242315319 
  3.733995077140481   5.030318060609948   8.329494544547387 
  7.468542058388737  11.497934653872415   8.325268242315319 
 -4.978422269928890  11.497778430693085   1.661396946166473 
  8.713120795045517   5.030449826785892   8.334287700715240 
 -0.000349112140157  11.497778430693085   1.661396946166473 
  1.244421969088031   5.030449826785891   1.671669512128306 
 -0.000123433823616   7.186553871386524   1.661495462098077 
  6.223547686991187   5.030318060609948   1.676462668295200 
  4.978771382070459  11.497976933692980   1.693635512115748 
 11.202388839468384   5.030722321364914   1.680688970527521 
 -2.489385691033136   7.186640614148192   8.344560266676966 
  3.734290810340864   0.718358663984673   8.344461750746792 
  7.468126841729556   7.186220040085143   8.338066619802081 
  8.712618163145542   0.718313010780311   8.325268242315319 
 13.691849144384065   0.718492203795109   8.292302662734881 
 -0.013940011818947   1.425891247208809   5.002978606422314 
  3.647886317133488   8.046582210116103   5.002978606422314 
  4.978771382066541   1.397170032331512   5.002978606422314 
  8.747558022728338   7.924899976842204   5.002978606422314 
  9.971482775952270   1.425891247208783   5.002978606422314 
 -4.978905582150327  10.060734590963099  11.673616748318732 
  0.000134200080763  10.060734590962774  11.673616748318732 
  1.244599761078658   3.593065004762424  11.673616748318732 
  4.978771382069094  10.060839976493700  11.673616748318732 
  6.223507073866648   3.593188886019135  11.673616748318732 
 11.202298992803915   3.593046289082876  11.673616748318732 
 -2.489385691033300  10.060732491844131   5.002978606422314 
 -1.261497653826393   3.586724468536415   5.002978606422314 
  3.654440689003191   3.447613612203534   5.002978606422314 
  2.446782695891114  10.120428529773067   5.002978606422314 
  7.510760068241633  10.120428529773067   5.002978606422314 
  8.761073882065043   3.565276628808355   5.002978606422314 
 -6.223575199947404  12.216667810020619  11.673616748318732 
 -1.244623927586990  12.216718911217646  11.673616748318732 
 -0.000016371932667   5.748869517333618  11.673616748318732 
  4.978771382066590   5.748989995339477  11.673616748318732 
  3.734109595441932  12.216694860522303  11.673616748318732 
  9.957559136065726   5.748869517333618  11.673616748318732 
 -2.489385691033025   5.754721051743241   5.002978606422314 
 -3.732056320489499  12.200412373694848   5.002978606422314 
  1.239729605081426  12.213738211894571   5.002978606422314 
  2.323555624069836   5.752774163702778   5.002978606422314 
  6.226329024074193  12.234354270274563   5.002978606422314 
  7.633987140063041   5.752774163702778   5.002978606422314 
 -1.244627563363289   7.904743973351979  11.673616748318732 
 -0.000094442050286   1.437228836413447  11.673616748318732 
  3.734160701789158   7.904863280094813  11.673616748318732 
  4.978771382068111   1.437439518855731  11.673616748318732 
  8.712683624398995   7.904765233581105  11.673616748318732 
 -3.721067509953745   7.914708217273947   5.002978606422314 
  9.957637206181591   1.437228836413395  11.673616748318732 
  2.458988903252725   1.370504203800037   5.002978606422314 
  1.209984741406124   7.924899976842204   5.002978606422314 
  6.309656446997003   8.046582210116103   5.002978606422314 
  7.498553860880971   1.370504203800037   5.002978606422314 
  1.244859139733512   7.904765233581156  11.673616748318732 
 12.446928455166319   1.437247498834912   5.002978606422314 
 -2.489385691033299  10.060732491844133  11.673616748318732 
 -1.244756228672666   3.593046289082876  11.673616748318732 
  3.734035690268051   3.593188886019135  11.673616748318732 
  2.489481842079753  10.060806909356375  11.673616748318732 
  7.468060922052592  10.060806909356375  11.673616748318732 
  8.712943003056042   3.593065004762424  11.673616748318732 
 -4.963738139409077  10.067076884564248   5.002978606422314 
 -0.015033242658880  10.067076884564248   5.002978606422314 
  1.196468882067296   3.565276628808510   5.002978606422314 
  4.978771382065866  10.116416728401603   5.002978606422314 
  6.303102075132882   3.447613612203534   5.002978606422314 
 11.219040417959567   3.586724468536415   5.002978606422314 
 -2.489385691033861   5.748861855491617  11.673616748318732 
 -3.734147454478949  12.216718911217646  11.673616748318732 
  1.244803817881970  12.216667810020619  11.673616748318732 
  2.489425009989577   5.748917819904330  11.673616748318732 
  6.223433168686702  12.216694860522239  11.673616748318732 
 -6.218500987146737  12.213738211894571   5.002978606422314 
  7.468117754145646   5.748917819904330  11.673616748318732 
 -1.246715061580191  12.200412373694848   5.002978606422314 
 -0.072999782923653   5.756037252447124   5.002978606422314 
 -1.257703872112796   7.914708217273947   5.002978606422314 
  3.731213740059167  12.234354270274563   5.002978606422314 
 10.030542547054605   5.756037252447124   5.002978606422314 
 -3.734143818702249   7.904743973351979  11.673616748318732 
  2.489273168053512   1.437293559327769  11.673616748318732 
  6.223382062346528   7.904863280094813  11.673616748318732 
  7.468269596079065   1.437293559327769  11.673616748318732 
 12.446928455166319   1.437247498834912  11.673616748318732 
  1.214090116368697   0.689366602891790   5.002978606422314 
  4.978771382066498   7.716443103883486   5.002978606422314 
  6.235760685488723   0.680969583404804   5.002978606422314 
  9.996300457411930   7.194415532258874   5.002978606422314 
 11.211530436554414   0.723990120232278   5.002978606422314 
 -3.733976467135153   9.342167672229222  11.673616748318732 
  1.244390750162654   9.342731419884229  11.673616748318732 
  2.488307810078550   2.873661310810280  11.673616748318732 
  6.223647281104239   9.343459058144107  11.673616748318732 
  7.469234954051951   2.873661310810280  11.673616748318732 
 12.446928455166798   2.874117950336030  11.673616748318732 
 -1.254208508348207   9.347602612922687   5.002978606422314 
 -0.042212005613816   2.850123884865625   5.002978606422314 
  4.978771382066713   2.796369803179932   5.002978606422314 
  3.684177499375055   9.481666131162365   5.002978606422314 
  8.739311153992290   9.371584870352320   5.002978606422314 
  9.999754769747110   2.850123884865625   5.002978606422314 
 -4.978924590086688  11.498068445370144  11.673616748318732 
  0.000153208020719  11.498068445370144  11.673616748318732 
  1.243431911039954   5.029849617063126  11.673616748318732 
  6.224407163439255   5.029821841652847  11.673616748318732 
  4.978771382065068  11.499065354041429  11.673616748318732 
 11.202782504733790   5.029869314328882  11.673616748318732 
 -1.285331642224021   5.018492078317562   5.002978606422314 
 -2.489385691033239  11.486992249682961   5.002978606422314 
  2.479349623474730  11.539111304809271   5.002978606422314 
  3.274907009312287   4.765263441067499   5.002978606422314 
  7.478193140659662  11.539111304809271   5.002978606422314 
  8.858660681134817   5.003803117423435   5.002978606422314 
 -0.000690302171513   7.186187777696334  11.673616748318732 
  1.243989042589652   0.718398590178158  11.673616748318732 
  4.978771382068524   7.187326302712726  11.673616748318732 
  6.223852434402711   0.718050788437896  11.673616748318732 
  9.958233066306605   7.186187777696334  11.673616748318732 
 -2.489385691033569   7.189098830835097   5.002978606422314 
 11.202562142220151   0.718812273084418  11.673616748318732 
  3.721782078643209   0.680969583404830   5.002978606422314 
  2.421727287930082   7.225300091418623   5.002978606422314 
  7.535815476203693   7.225300091418623   5.002978606422314 
  8.743452647765453   0.689366602891803   5.002978606422314 
  2.488578853125108   7.186703322258570  11.673616748318732 
 13.682326473779566   0.723990120232278   5.002978606422314 
 -1.244794914930117   9.342167672229222  11.673616748318732 
 -0.000939952242748   2.873952315990094  11.673616748318732 
  4.978771382067230   2.873563341502353  11.673616748318732 
  3.733895483026402   9.343459058144107  11.673616748318732 
  8.713152013970259   9.342731419884229  11.673616748318732 
  9.958482716374929   2.873952315990080  11.673616748318732 
 -3.724562873716533   9.347602612922699   5.002978606422314 
  1.218231610146125   9.371584870352384   5.002978606422314 
  2.393475965690849   2.761500737432267   5.002978606422314 