Al B N                                  
   1.0000000000000000     
     8.7639499999999995  -15.1796066749929999    0.0000000000000000
     8.7639499999999995   15.1796066749929999    0.0000000000000000
     0.0000000000000000    0.0000000000000000   15.0000000000000000
   Al   B    N 
     1    48    48
Selective dynamics
Direct
  0.4945196248713536  0.5054817770456425  0.1110202239698902   T   T   T
  0.9059599237121920  0.9531456133052667  0.1110179953367958   T   T   T
  0.9046070892760835  0.0953949319199127  0.1110350251197768   T   T   T
  0.9041254848451963  0.2381361924343434  0.1110441920777790   T   T   T
  0.9041599959997728  0.3809326982832861  0.1109963883964804   T   T   T
  0.9050457861498765  0.5237587555808014  0.1110086625325842   T   T   T
  0.9065348043728916  0.6669954923686621  0.1110781494380034   T   T   T
  0.9074396177246781  0.8109689596753026  0.1110476089958637   T   T   T
  0.0482840797537266  0.9517179414422768  0.1110123193809215   T   T   T
  0.0468564078907364  0.0940420974838050  0.1110179953367958   T   T   T
  0.0464745908369969  0.2371646282484621  0.1109937110402205   T   T   T
  0.0468728755384413  0.3802676772835129  0.1110082906906782   T   T   T
  0.0479627675142267  0.5231393353633088  0.1110050498608458   T   T   T
  0.0488792256656633  0.6660186542173476  0.1110541933650700   T   T   T
  0.0489817827292115  0.8090107689033894  0.1110572108821145   T   T   T
  0.1909912522926142  0.9510202384667921  0.1110572108821145   T   T   T
  0.1890330615207007  0.0925624034713184  0.1110476089958637   T   T   T
  0.1876610114086376  0.2348429122277789  0.1110005856087788   T   T   T
  0.1888731218539175  0.3790745534618628  0.1109899625783322   T   T   T
  0.1908917584156033  0.5223594625416502  0.1110398717516659   T   T   T
  0.1919072281606634  0.6653930519758591  0.1110226391994656   T   T   T
  0.1916584836936149  0.8083435375023890  0.1110180669867766   T   T   T
  0.3339833669796498  0.9511227955303391  0.1110541933650700   T   T   T
  0.3330065288283365  0.0934672168231048  0.1110781494380034   T   T   T
  0.3293309456672742  0.2329835585654074  0.1110147282845900   T   T   T
  0.3280817362888377  0.3757547787488024  0.1110025149120707   T   T   T
  0.3340524288653313  0.5202019005711139  0.1110643035238278   T   T   T
  0.3354223794740231  0.6645796417229751  0.1110466174096544   T   T   T
  0.3346089692211395  0.8080947930353398  0.1110226391994656   T   T   T
  0.4768626858336876  0.9520392536817778  0.1110050498608458   T   T   T
  0.4762432656161963  0.0949562350461204  0.1110086625325842   T   T   T
  0.4752386679790619  0.2376786170938080  0.1110406944075102   T   T   T
  0.4686327273455290  0.3755287138897199  0.1111283058079196   T   T   T
  0.4798001206258851  0.6659495923316658  0.1110643035238278   T   T   T
  0.4776425586553496  0.8091102627803994  0.1110398717516659   T   T   T
  0.6197343439124904  0.9531291456575615  0.1110082906906782   T   T   T
  0.6190693229127171  0.0958420251962224  0.1109963883964804   T   T   T
  0.6184956395868242  0.2389976161865618  0.1110064122447204   T   T   T
  0.6173715966065061  0.3826304245894970  0.1110313988217601   T   T   T
  0.6244733073062841  0.5313692938514697  0.1111283058079196   T   T   T
  0.6242472424472008  0.6719202849081608  0.1110025149120707   T   T   T
  0.6209274677341409  0.8111288993420852  0.1109899625783322   T   T   T
  0.7628373929475406  0.9535274303590069  0.1109937110402205   T   T   T
  0.7618658287616615  0.0958765363508005  0.1110441920777790   T   T   T
  0.7613762320260234  0.2386257891699793  0.1110387031503324   T   T   T
  0.7610044050094416  0.3815063816091797  0.1110064122447204   T   T   T
  0.7623234041021955  0.5247633532179372  0.1110406944075102   T   T   T
  0.7670184626305961  0.6706710755297244  0.1110147282845900   T   T   T
  0.7651591089682245  0.8123410097873659  0.1110005856087788   T   T   T
  0.9539215060036609  0.9056397974679127  0.1109997763831563   T   T   T
  0.9522605485163854  0.0477408534016216  0.1110060919900330   T   T   T
  0.9514572966551000  0.1902666419550899  0.1110133175677884   T   T   T
  0.9515694098709332  0.3331336841761087  0.1109951589322132   T   T   T
  0.9525611592804220  0.4760140553926873  0.1109666643659910   T   T   T
  0.9538197755129916  0.6189830876652419  0.1110505918069956   T   T   T
  0.9543364474341647  0.7623448353245624  0.1110590279061097   T   T   T
  0.0960230298153035  0.9039783721026953  0.1110136423430712   T   T   T
  0.0943616044500853  0.0460798959143445  0.1109997763831563   T   T   T
  0.0929367448221133  0.1884211948104415  0.1109872245936621   T   T   T
  0.0935063686149588  0.3320486998300057  0.1109712650011092   T   T   T
  0.0951257076607647  0.4753601029801858  0.1110029535674099   T   T   T
  0.0963576622566779  0.6183230307751626  0.1110129337061824   T   T   T
  0.0965357142478580  0.7612037032691614  0.1110257079105733   T   T   T
  0.2387976986488450  0.9034656876701403  0.1110257079105733   T   T   T
  0.2376565665934441  0.0456649544838416  0.1110590279061097   T   T   T
  0.2345179447875457  0.1862764434183316  0.1110009648623064   T   T   T
  0.2332665907485368  0.3288053400601484  0.1109703797069637   T   T   T
  0.2372804516135655  0.4742739860010589  0.1110257511120116   T   T   T
  0.2393298203209523  0.6177891719153726  0.1110246048631977   T   T   T
  0.2392614153704205  0.7607399865475849  0.1109970078851006   T   T   T
  0.3816783711428349  0.9036437396613205  0.1110129337061824   T   T   T
  0.3810183142527572  0.0461816264050140  0.1110505918069956   T   T   T
  0.3795590129224637  0.1877721244869009  0.1110338493917109   T   T   T
  0.3737518144620140  0.3255210939869614  0.1110057783262871   T   T   T
  0.3757014085222401  0.4687601672882958  0.1109934976921918   T   T   T
  0.3828795501936215  0.6171218517243755  0.1110715733585020   T   T   T
  0.3822122300026259  0.7606715815970537  0.1110246048631977   T   T   T
  0.5246412989368113  0.9048756942572345  0.1110029535674099   T   T   T
  0.5239873465243091  0.0474402426375838  0.1109666643659910   T   T   T
  0.5233118239725076  0.1900727351780137  0.1109967695298931   T   T   T
  0.5216808585741119  0.3325664829112891  0.1110503965618261   T   T   T
  0.5312412346287011  0.6242999933957573  0.1109934976921918   T   T   T
  0.5257274159159380  0.7627209503044402  0.1110257511120116   T   T   T
  0.6679527020869920  0.9064950333030393  0.1109712650011092   T   T   T
  0.6668677177408883  0.0484319920470719  0.1109951589322132   T   T   T
  0.6662950768277067  0.1911067380928965  0.1109984578297512   T   T   T
  0.6657155196093119  0.3342858823076836  0.1109860760298488   T   T   T
  0.6674349190057076  0.4783205433428855  0.1110503965618261   T   T   T
  0.6744803079300360  0.6262495874559838  0.1110057783262871   T   T   T
  0.6711960618568491  0.7667348111694684  0.1109703797069637   T   T   T
  0.8115802071075572  0.9070646570958865  0.1109872245936621   T   T   T
  0.8097347599629086  0.0485441052629047  0.1110133175677884   T   T   T
  0.8090535614526068  0.1909478404653928  0.1110460147710245   T   T   T
  0.8088946638251017  0.3337063250892894  0.1109984578297512   T   T   T
  0.8099286667399856  0.4766895779444884  0.1109967695298931   T   T   T
  0.8122292774310981  0.6204423889955343  0.1110338493917109   T   T   T
  0.8137249584996674  0.7654834571304597  0.1110009648623064   T   T   T

  0.00000000E+00  0.00000000E+00  0.00000000E+00
  0.00000000E+00  0.00000000E+00  0.00000000E+00
  0.00000000E+00  0.00000000E+00  0.00000000E+00
  0.00000000E+00  0.00000000E+00  0.00000000E+00
  0.00000000E+00  0.00000000E+00  0.00000000E+00
  0.00000000E+00  0.00000000E+00  0.00000000E+00
  0.00000000E+00  0.00000000E+00  0.00000000E+00
  0.00000000E+00  0.00000000E+00  0.00000000E+00
  0.00000000E+00  0.00000000E+00  0.00000000E+00
  0.00000000E+00  0.00000000E+00  0.00000000E+00
  0.00000000E+00  0.00000000E+00  0.00000000E+00
  0.00000000E+00  0.00000000E+00  0.00000000E+00
  0.00000000E+00  0.00000000E+00  0.00000000E+00
  0.00000000E+00  0.00000000E+00  0.00000000E+00
  0.00000000E+00  0.00000000E+00  0.00000000E+00
  0.00000000E+00  0.00000000E+00  0.00000000E+00
  0.00000000E+00  0.00000000E+00  0.00000000E+00
  0.00000000E+00  0.00000000E+00  0.00000000E+00
  0.00000000E+00  0.00000000E+00  0.00000000E+00
  0.00000000E+00  0.00000000E+00  0.00000000E+00
  0.00000000E+00  0.00000000E+00  0.00000000E+00
  0.00000000E+00  0.00000000E+00  0.00000000E+00
  0.00000000E+00  0.00000000E+00  0.00000000E+00
  0.00000000E+00  0.00000000E+00  0.00000000E+00
  0.00000000E+00  0.00000000E+00  0.00000000E+00
  0.00000000E+00  0.00000000E+00  0.00000000E+00
  0.00000000E+00  0.00000000E+00  0.00000000E+00
  0.00000000E+00  0.00000000E+00  0.00000000E+00
  0.00000000E+00  0.00000000E+00  0.00000000E+00
  0.00000000E+00  0.00000000E+00  0.00000000E+00
  0.00000000E+00  0.00000000E+00  0.00000000E+00
  0.00000000E+00  0.00000000E+00  0.00000000E+00
  0.00000000E+00  0.00000000E+00  0.00000000E+00
  0.00000000E+00  0.00000000E+00  0.00000000E+00
  0.00000000E+00  0.00000000E+00  0.00000000E+00
  0.00000000E+00  0.00000000E+00  0.00000000E+00
  0.00000000E+00  0.00000000E+00  0.00000000E+00
  0.00000000E+00  0.00000000E+00  0.00000000E+00
  0.00000000E+00  0.00000000E+00  0.00000000E+00
  0.00000000E+00  0.00000000E+00  0.00000000E+00
  0.00000000E+00  0.00000000E+00  0.00000000E+00
  0.00000000E+00  0.00000000E+00  0.00000000E+00
  0.00000000E+00  0.00000000E+00  0.00000000E+00
  0.00000000E+00  0.00000000E+00  0.00000000E+00
  0.00000000E+00  0.00000000E+00  0.00000000E+00
  0.00000000E+00  0.00000000E+00  0.00000000E+00
  0.00000000E+00  0.00000000E+00  0.00000000E+00
  0.00000000E+00  0.00000000E+00  0.00000000E+00
  0.00000000E+00  0.00000000E+00  0.00000000E+00
  0.00000000E+00  0.00000000E+00  0.00000000E+00
  0.00000000E+00  0.00000000E+00  0.00000000E+00
  0.00000000E+00  0.00000000E+00  0.00000000E+00
  0.00000000E+00  0.00000000E+00  0.00000000E+00
  0.00000000E+00  0.00000000E+00  0.00000000E+00
  0.00000000E+00  0.00000000E+00  0.00000000E+00
  0.00000000E+00  0.00000000E+00  0.00000000E+00
  0.00000000E+00  0.00000000E+00  0.00000000E+00
  0.00000000E+00  0.00000000E+00  0.00000000E+00
  0.00000000E+00  0.00000000E+00  0.00000000E+00
  0.00000000E+00  0.00000000E+00  0.00000000E+00
  0.00000000E+00  0.00000000E+00  0.00000000E+00
  0.00000000E+00  0.00000000E+00  0.00000000E+00
  0.00000000E+00  0.00000000E+00  0.00000000E+00
  0.00000000E+00  0.00000000E+00  0.00000000E+00
  0.00000000E+00  0.00000000E+00  0.00000000E+00
  0.00000000E+00  0.00000000E+00  0.00000000E+00
  0.00000000E+00  0.00000000E+00  0.00000000E+00
  0.00000000E+00  0.00000000E+00  0.00000000E+00
  0.00000000E+00  0.00000000E+00  0.00000000E+00
  0.00000000E+00  0.00000000E+00  0.00000000E+00
  0.00000000E+00  0.00000000E+00  0.00000000E+00
  0.00000000E+00  0.00000000E+00  0.00000000E+00
  0.00000000E+00  0.00000000E+00  0.00000000E+00
  0.00000000E+00  0.00000000E+00  0.00000000E+00
  0.00000000E+00  0.00000000E+00  0.00000000E+00
  0.00000000E+00  0.00000000E+00  0.00000000E+00
  0.00000000E+00  0.00000000E+00  0.00000000E+00
  0.00000000E+00  0.00000000E+00  0.00000000E+00
  0.00000000E+00  0.00000000E+00  0.00000000E+00
  0.00000000E+00  0.00000000E+00  0.00000000E+00
  0.00000000E+00  0.00000000E+00  0.00000000E+00
  0.00000000E+00  0.00000000E+00  0.00000000E+00
  0.00000000E+00  0.00000000E+00  0.00000000E+00
  0.00000000E+00  0.00000000E+00  0.00000000E+00
  0.00000000E+00  0.00000000E+00  0.00000000E+00
  0.00000000E+00  0.00000000E+00  0.00000000E+00
  0.00000000E+00  0.00000000E+00  0.00000000E+00
  0.00000000E+00  0.00000000E+00  0.00000000E+00
  0.00000000E+00  0.00000000E+00  0.00000000E+00
  0.00000000E+00  0.00000000E+00  0.00000000E+00
  0.00000000E+00  0.00000000E+00  0.00000000E+00
  0.00000000E+00  0.00000000E+00  0.00000000E+00
  0.00000000E+00  0.00000000E+00  0.00000000E+00
  0.00000000E+00  0.00000000E+00  0.00000000E+00
  0.00000000E+00  0.00000000E+00  0.00000000E+00
  0.00000000E+00  0.00000000E+00  0.00000000E+00
  0.00000000E+00  0.00000000E+00  0.00000000E+00
