 C N B 
 1.0
 14.936314146199660   0.000000000000000   0.000000000000000
 -7.468157073099825  12.935227489513863   0.000000000000000
  0.000000000000001   0.000000000000001  13.341276283792837
 C N B 
   4 142 142
Cartesian
  7.411175193209530   5.714283387874509   5.002978606422314 
  6.163041635383921   4.997733353929951   5.002978606422314 
  3.712172230691610   5.000926240479310   5.002978606422314 
  4.968553196377908   5.681406776932981   5.002978606422314 
  1.244679933303745   0.718636910926558   1.668574624654903 
  4.978692060115371   7.185944667826833   1.663940883338222 
  6.223503077994343   0.718633914394690   1.669008720470965 
  9.957232908262469   7.185990230284715   1.667876059787812 
 11.202456925634930   0.718432852091404   1.667499018925084 
 -3.734287554395545   9.341946354599125   8.338341066924283 
  1.244707980436765   9.341836929556845   8.337506046317932 
  2.489342430702749   2.874546537277490   8.336866456703577 
  6.223395656932233   9.342072221001485   8.338804867321180 
  7.468624555408089   2.874388811713747   8.338326160364934 
 12.447139242391454   2.874349619126775   8.338099600366048 
 -1.244806736197481   9.341966460328642   1.667829145261029 
 -0.000102609410981   2.874365842223351   1.668285108110539 
  4.978972195973613   2.874511846961433   1.667851763217885 
  3.734080864528943   9.341992634927555   1.667792038741019 
  8.712700315873466   9.342043370813787   1.667569017134694 
  9.958138618195292   2.874138821303516   1.666843696113175 
 -4.978864350602330  11.497989393219134   8.337926269501212 
 -0.000095741781072  11.497888008139149   8.337925874169832 
  1.244820281113173   5.030089195257021   8.337177740582833 
  6.223919668441918   5.029766867446156   8.351695845305931 
  4.978830182656295  11.497955608460934   8.338063583002299 
 11.202392939164739   5.030200824298255   8.338263662754210 
 -1.244644544808235   5.030273211196818   1.668433329901084 
 -2.489494104102508  11.497943077127967   1.668080643238327 
  2.489300790968532  11.497912436590632   1.667920020641503 
  3.734223906808295   5.030032378274512   1.660888728744949 
  7.468180791038399  11.498030808581252   1.667710261202696 
  8.713445881901885   5.029692731584329   1.662629072489214 
  0.000026890624737   7.186061435180858   8.337307828714909 
  1.244679933303746   0.718636910926559   8.337382588189712 
  4.978692060115372   7.185944667826834   8.342016329506405 
  6.223503077994343   0.718633914394691   8.336948492373649 
  9.957232908262469   7.185990230284716   8.338081153056816 
 -2.489597227977822   7.186113744682269   1.668210552695374 
 11.202456925634930   0.718432852091404   8.338458193919543 
  3.734043484940546   0.718712447011250   1.669050307917182 
  2.489685023993030   7.185842459295609   1.668903230032934 
  7.467857242386238   7.186294903804056   1.662465568504161 
  8.712914411340568   0.718534741995716   1.668569937960535 
  2.489685023993031   7.185842459295610   8.337053982811694 
 13.691723618446501   0.718495929310038   1.667583192505517 
 -1.244806736197481   9.341966460328642   8.338128067583613 
 -0.000102609410981   2.874365842223352   8.337672104734089 
  4.978972195973614   2.874511846961434   8.338105449626742 
  3.734080864528944   9.341992634927555   8.338165174103596 
  8.712700315873466   9.342043370813787   8.338388195709920 
  9.958138618195292   2.874138821303517   8.339113516731452 
 -3.734287554395546   9.341946354599125   1.667616145920346 
  1.244707980436765   9.341836929556845   1.668451166526696 
  2.489342430702749   2.874546537277489   1.669090756141051 
  6.223395656932232   9.342072221001485   1.667152345523462 
  7.468624555408088   2.874388811713746   1.667631052479694 
 12.447139242391454   2.874349619126774   1.667857612478580 
 -1.244644544808235   5.030273211196819   8.337523882943531 
 -2.489494104102508  11.497943077127967   8.337876569606287 
  2.489300790968532  11.497912436590632   8.338037192203112 
  3.734223906808295   5.030032378274513   8.345068484099679 
  7.468180791038400  11.498030808581252   8.338246951641917 
 -4.978864350602331  11.497989393219134   1.668030943343416 
  8.713445881901885   5.029692731584330   8.343328140355414 
 -0.000095741781073  11.497888008139149   1.668031338674810 
  1.244820281113172   5.030089195257021   1.668779472261782 
  0.000026890624737   7.186061435180857   1.668649384129731 
  6.223919668441917   5.029766867446155   1.654261367538709 
  4.978830182656294  11.497955608460934   1.667893629842329 
 11.202392939164739   5.030200824298254   1.667693550090418 
 -2.489597227977822   7.186113744682270   8.337746660149254 
  3.734043484940546   0.718712447011251   8.336906904927458 
  7.467857242386239   7.186294903804057   8.343491644340453 
  8.712914411340568   0.718534741995717   8.337387274884092 
 13.691723618446501   0.718495929310039   8.338374020339204 
  0.001915397373731   1.438649412119127   5.002978606422314 
  3.736413513451763   7.915445119563142   5.002978606422314 
  4.972465106763906   1.452445491240705   5.002978606422314 
  8.711785289672033   7.917970994174897   5.002978606422314 
  9.961850962863974   1.426568796027099   5.002978606422314 
 -4.978820973313654  10.060795022273615  11.673616748318732 
 -0.000074055769536  10.060858549548486  11.673616748318732 
  1.244614470923502   3.593200463339931  11.673616748318732 
  4.978670520255081  10.060793653724373  11.673616748318732 
  6.223370995924978   3.593133910149051  11.673616748318732 
 11.202193863381764   3.593203727474945  11.673616748318732 
 -2.486154776779065  10.060993754622009   5.002978606422314 
 -1.241200342563619   3.593241520761163   5.002978606422314 
  3.711782243743372   3.617005267365690   5.002978606422314 
  2.486151304160980  10.064667249289313   5.002978606422314 
  7.472165939496243  10.077461824421706   5.002978606422314 
  8.733563518584088   3.564798073578885   5.002978606422314 
 -6.223551783267499  12.216667360422445  11.673616748318732 
 -1.244736124085013  12.216690852705490  11.673616748318732 
 -0.000052191803103   5.749096367467613  11.673616748318732 
  4.978626583429316   5.749134152854534  11.673616748318732 
  3.733982965834970  12.216657171927194  11.673616748318732 
  9.957552377173009   5.749084055609355  11.673616748318732 
 -2.478569385187749   5.748187066412001   5.002978606422314 
 -3.730353463966169  12.222538129658885   5.002978606422314 
  1.240425548319577  12.219273586599810   5.002978606422314 
  2.519838386801855   5.712473964560029   5.002978606422314 
  6.224564771737108  12.223366715095471   5.002978606422314 
 -1.244768830359410   7.904938848883304  11.673616748318732 
 -0.000070406090917   1.437270945087201  11.673616748318732 
  3.733934137531657   7.904973363030137  11.673616748318732 
  4.978728304171869   1.437274171094351  11.673616748318732 
  8.712848991997177   7.904920954540888  11.673616748318732 
 -3.733764056598651   7.903844251829863   5.002978606422314 
  9.957439064441770   1.437266803920623  11.673616748318732 
  2.492598405549863   1.442772493152727   5.002978606422314 
  1.259272934351288   7.888524313015972   5.002978606422314 
  6.214303023546894   7.949927346112315   5.002978606422314 
  7.461829991719020   1.444545505086821   5.002978606422314 
  1.244628866125831   7.904965488247425  11.673616748318732 
 12.449472517021038   1.437613136000591   5.002978606422314 
 -2.489437143882255  10.060810112228816  11.673616748318732 
 -1.244754865820451   3.593191321703094  11.673616748318732 
  3.733996848737068   3.593197238531657  11.673616748318732 
  2.489265646111552  10.060839506820880  11.673616748318732 
  7.468085476444718  10.060804409772274  11.673616748318732 
  8.712795020257158   3.593134881775145  11.673616748318732 
 -4.973324973482026  10.067956490441038   5.002978606422314 
  0.004017424692137  10.056360547864209   5.002978606422314 
  1.240219896859660   3.588784186411267   5.002978606422314 
  4.972258208640534  10.078474527683300   5.002978606422314 
  6.213271267190395   3.601250864836820   5.002978606422314 
 11.209949301078122   3.589151596548262   5.002978606422314 
 -2.489433134956503   5.749072745950313  11.673616748318732 
 -3.734135330213159  12.216669190385232  11.673616748318732 
  1.244571272681311  12.216701715627099  11.673616748318732 
  2.489302424154088   5.749137936668857  11.673616748318732 
  6.223406796755665  12.216655732537752  11.673616748318732 
 -6.218437865724821  12.224594204839407   5.002978606422314 
  7.468124175058677   5.749059650430066  11.673616748318732 
 -1.245611622298751  12.221439865743337   5.002978606422314 
  0.014357761318303   5.747133677863807   5.002978606422314 
 -1.238427736320890   7.902884520831995   5.002978606422314 
  3.731572486841182  12.219062340983733   5.002978606422314 
  9.967880058087440   5.741916004361165   5.002978606422314 
 -3.734109364657229   7.904902123863208  11.673616748318732 
  2.489303901125633   1.437294019484866  11.673616748318732 
  6.223325443944467   7.904927535661952  11.673616748318732 
  7.468069714398531   1.437277221494444  11.673616748318732 
 12.446877305677809   1.437278375326981  11.673616748318732 
  1.246394771071632   0.722688811735971   5.002978606422314 
  4.988049903244248   7.214392042467094   5.002978606422314 
  6.219546638041318   0.725044086695405   5.002978606422314 
  9.952705058840955   7.183748078976378   5.002978606422314 
 11.205082861249974   0.716387817747736   5.002978606422314 
 -3.734232972954458   9.342043749536684  11.673616748318732 
  1.244670530248656   9.342233259924413  11.673616748318732 
  2.489408854234841   2.874642274642207  11.673616748318732 
  6.223402026801232   9.341953725493816  11.673616748318732 
  7.468141596397255   2.874755656910412  11.673616748318732 
 12.446726116058329   2.874583921973672  11.673616748318732 
 -1.241898469220140   9.340272830527686   5.002978606422314 
 -0.003899685840267   2.871870875392749   5.002978606422314 
  4.966649364890680   2.886479717952664   5.002978606422314 
  3.731966215795128   9.353318504327254   5.002978606422314 
  8.716255870784202   9.351643288980124   5.002978606422314 
  9.971161348182678   2.858234823308592   5.002978606422314 
 -4.978899823388382  11.497883361134008  11.673616748318732 
 -0.000030344493165  11.498086499756146  11.673616748318732 
  1.244703420299399   5.030566054095980  11.673616748318732 
  6.223485702989877   5.030647792919426  11.673616748318732 
  4.978694925433593  11.497922535315222  11.673616748318732 
 11.201996448760141   5.030490097292418  11.673616748318732 
 -1.235662542312385   5.030140554152419   5.002978606422314 
 -2.487797983455169  11.498766582491255   5.002978606422314 
  2.486438881010014  11.501560354472627   5.002978606422314 
  7.471414388424541  11.509118910024190   5.002978606422314 
  8.734891662919729   4.996897778081925   5.002978606422314 
 -0.000085389510551   7.186381826004623  11.673616748318732 
  1.244568159535250   0.718575303946293  11.673616748318732 
  4.978823724213704   7.186270519594635  11.673616748318732 
  6.223500907012800   0.718738553784687  11.673616748318732 
  9.957341373784541   7.186223224703588  11.673616748318732 
 -2.486537006820771   7.185473081967613   5.002978606422314 
 11.202095777493714   0.718686313636520  11.673616748318732 
  3.734586500319788   0.721868212296001   5.002978606422314 
  2.510065796410864   7.173877959635523   5.002978606422314 
  7.447315548887911   7.225938243728369   5.002978606422314 
  8.710729019038718   0.720884751348778   5.002978606422314 
  2.489459302148165   7.186401492822352  11.673616748318732 
 13.692687310674861   0.721556817911922   5.002978606422314 
 -1.244792269842368   9.342173543190643  11.673616748318732 
 -0.000142336360894   2.874561031867492  11.673616748318732 
  4.978876929309505   2.874715856700985  11.673616748318732 
  3.734069585329084   9.342112938770423  11.673616748318732 
  8.712716806801030   9.341959101858823  11.673616748318732 
  9.957378020795378   2.874670397789561  11.673616748318732 
 -3.732454410786124   9.342052198702996   5.002978606422314 
  1.250006656952129   9.334371060175011   5.002978606422314 
  2.475071711420944   2.872322298047731   5.002978606422314 
  6.220088606727479   9.374246055021358   5.002978606422314 
  7.474527998293683   2.880764691725691   5.002978606422314 
 12.450968711273720   2.873643416209572   5.002978606422314 
 -1.244867703446809   5.030475665932705  11.673616748318732 
 -2.489429962640522  11.497994002671865  11.673616748318732 
  2.489320960282206  11.498054735942022  11.673616748318732 
  3.734253221160473   5.030661395515738  11.673616748318732 
  7.468025526788410  11.497842930113867  11.673616748318732 
 -4.975318085563440  11.502894312524985   5.002978606422314 
  8.712704649658651   5.030545682834918  11.673616748318732 
 -0.000505560477961  11.497031911484150   5.002978606422314 
  1.251129204631975   5.021068367548104   5.002978606422314 
  0.006599462428233   7.183218362561224   5.002978606422314 
  4.976714745324911  11.509031670198363   5.002978606422314 
 11.211396715973619   5.028714701028150   5.002978606422314 
 -2.489573984714617   7.186279929893948  11.673616748318732 
  3.734070583616784   0.718653901108151  11.673616748318732 
  7.468075296032529   7.186200969622948  11.673616748318732 
  8.712787688327976   0.718767249184319  11.673616748318732 
 13.691461114736466   0.718583141359767  11.673616748318732 
 -0.000268538248473   1.437026984637861   1.667530906226345 
  3.735050605769156   7.904346178530873   1.666791655875302 
  4.978940362922326   1.437473745635851   1.667679654815636 
  8.712084970220221   7.904226991688247   1.667672594338463 
  9.957879445341145   1.437426890447607   1.667626509303412 
 -4.979264832085064  10.060231804159798   8.338058915188372 
 -0.000091589152452  10.060497945578192   8.338297625975551 
  1.244385894256700   3.593006155013831   8.338791289891684 
  4.979066729956821  10.060430711316888   8.338366427559931 
  6.224350159254540   3.594343326044318   8.343310146482542 
 11.202230785191951   3.593123721759210   8.338382966117836 
 -2.489819817099031  10.060363569958925   1.667604471140546 
 -1.244996934696257   3.593020237556391   1.667753947589673 
  3.734497923422200   3.593773946268894   1.663898124487830 
  2.489709218415001  10.060538192298567   1.667767971048825 
  7.468030784968708  10.060279090263906   1.667664672932749 
  8.713503957042725   3.593564451839425   1.666177284353650 
 -6.223687306696505  12.216256425977097   8.338218168645337 
 -1.244745960628320  12.216489807018835   8.338192507832279 
 -0.000183401362444   5.748817044727822   8.337998270595126 
  4.980223695978924   5.748270821040371   8.342453578416329 
  3.734251860530650  12.216521933788611   8.338323239518999 
  9.957051253490693   5.748649531783805   8.338374304191479 
 -2.489898269238157   5.748818704594387   1.668055877358403 
 -3.734320286843334  12.216295254069331   1.667763590246655 
  1.244801703712857  12.216591396634932   1.667735198543170 
  2.490378218806612   5.748514714126834   1.665287972273824 
  6.223481695563359  12.216376467917890   1.667638633325156 
  7.468179463458782   5.748581892155613   1.666319956640713 
 -1.245133726419457   7.904627461154917   8.338113603674270 
 -0.000268538248473   1.437026984637861   8.338426306618281 
  3.735050605769156   7.904346178530874   8.339165556969325 
  4.978940362922327   1.437473745635852   8.338277558029006 
  8.712084970220221   7.904226991688247   8.338284618506151 
 -3.734906891023513   7.904427906792060   1.668137356645783 
  9.957879445341145   1.437426890447608   8.338330703541216 
  2.489224634005795   1.437095139500999   1.667806014925813 
  1.244923877002918   7.904546925294522   1.668054168896935 
  6.223805396991308   7.904175174848568   1.665898914551257 
  7.468552935428924   1.437621154695289   1.667931710771789 
  1.244923877002919   7.904546925294523   8.337903043947678 
 12.446947272565948   1.437192325978245   1.667546748353712 
 -2.489819817099031  10.060363569958925   8.338352741704082 
 -1.244996934696256   3.593020237556392   8.338203265254956 
  3.734497923422200   3.593773946268895   8.342059088356798 
  2.489709218415002  10.060538192298567   8.338189241795803 
  7.468030784968709  10.060279090263906   8.338292539911878 
  8.713503957042725   3.593564451839426   8.339779928490991 
 -4.979264832085065  10.060231804159798   1.667898297656243 
 -0.000091589152452  10.060497945578192   1.667659586869064 
  1.244385894256699   3.593006155013831   1.667165922952944 
  4.979066729956820  10.060430711316888   1.667590785284697 
  6.224350159254540   3.594343326044318   1.662647066362099 
 11.202230785191951   3.593123721759209   1.667574246726792 
 -2.489898269238156   5.748818704594388   8.337901335486226 
 -3.734320286843334  12.216295254069331   8.338193622597972 
  1.244801703712857  12.216591396634932   8.338222014301458 
  2.490378218806613   5.748514714126835   8.340669240570804 
  6.223481695563359  12.216376467917890   8.338318579519566 
 -6.223687306696505  12.216256425977097   1.667739044199278 
  7.468179463458783   5.748581892155614   8.339637256203915 
 -1.244745960628321  12.216489807018835   1.667764705012350 
 -0.000183401362445   5.748817044727821   1.667958942249489 
 -1.245133726419457   7.904627461154916   1.667843609170357 
  4.980223695978923   5.748270821040371   1.663503634428206 
  3.734251860530650  12.216521933788611   1.667633973325535 
  9.957051253490693   5.748649531783804   1.667582908653160 
 -3.734906891023512   7.904427906792061   8.337819856198843 
  2.489224634005796   1.437095139500999   8.338151197918814 
  6.223805396991309   7.904175174848569   8.340058298293370 
  7.468552935428924   1.437621154695289   8.338025502072824 
 12.446947272565948   1.437192325978246   8.338410464490929 
Generated by cif2cell 2.0.0.  :  Failed to get author information, No journal information. Species order: C N B 
 1.0
 14.936314146199660   0.000000000000000   0.000000000000000
 -7.468157073099825  12.935227489513863   0.000000000000000
  0.000000000000001   0.000000000000001  13.341276283792837
 C N B 
   4 142 142
Cartesian
  7.411175193209530   5.714283387874509   5.002978606422314 
  6.163041635383921   4.997733353929951   5.002978606422314 
  3.712172230691610   5.000926240479310   5.002978606422314 
  4.968553196377908   5.681406776932981   5.002978606422314 
  1.244679933303745   0.718636910926558   1.668574624654903 
  4.978692060115371   7.185944667826833   1.663940883338222 
  6.223503077994343   0.718633914394690   1.669008720470965 
  9.957232908262469   7.185990230284715   1.667876059787812 
 11.202456925634930   0.718432852091404   1.667499018925084 
 -3.734287554395545   9.341946354599125   8.338341066924283 
  1.244707980436765   9.341836929556845   8.337506046317932 
  2.489342430702749   2.874546537277490   8.336866456703577 
  6.223395656932233   9.342072221001485   8.338804867321180 
  7.468624555408089   2.874388811713747   8.338326160364934 
 12.447139242391454   2.874349619126775   8.338099600366048 
 -1.244806736197481   9.341966460328642   1.667829145261029 
 -0.000102609410981   2.874365842223351   1.668285108110539 
  4.978972195973613   2.874511846961433   1.667851763217885 
  3.734080864528943   9.341992634927555   1.667792038741019 
  8.712700315873466   9.342043370813787   1.667569017134694 
  9.958138618195292   2.874138821303516   1.666843696113175 
 -4.978864350602330  11.497989393219134   8.337926269501212 
 -0.000095741781072  11.497888008139149   8.337925874169832 
  1.244820281113173   5.030089195257021   8.337177740582833 
  6.223919668441918   5.029766867446156   8.351695845305931 
  4.978830182656295  11.497955608460934   8.338063583002299 
 11.202392939164739   5.030200824298255   8.338263662754210 
 -1.244644544808235   5.030273211196818   1.668433329901084 
 -2.489494104102508  11.497943077127967   1.668080643238327 
  2.489300790968532  11.497912436590632   1.667920020641503 
  3.734223906808295   5.030032378274512   1.660888728744949 
  7.468180791038399  11.498030808581252   1.667710261202696 
  8.713445881901885   5.029692731584329   1.662629072489214 
  0.000026890624737   7.186061435180858   8.337307828714909 
  1.244679933303746   0.718636910926559   8.337382588189712 
  4.978692060115372   7.185944667826834   8.342016329506405 
  6.223503077994343   0.718633914394691   8.336948492373649 
  9.957232908262469   7.185990230284716   8.338081153056816 
 -2.489597227977822   7.186113744682269   1.668210552695374 
 11.202456925634930   0.718432852091404   8.338458193919543 
  3.734043484940546   0.718712447011250   1.669050307917182 
  2.489685023993030   7.185842459295609   1.668903230032934 
  7.467857242386238   7.186294903804056   1.662465568504161 
  8.712914411340568   0.718534741995716   1.668569937960535 
  2.489685023993031   7.185842459295610   8.337053982811694 
 13.691723618446501   0.718495929310038   1.667583192505517 
 -1.244806736197481   9.341966460328642   8.338128067583613 
 -0.000102609410981   2.874365842223352   8.337672104734089 
  4.978972195973614   2.874511846961434   8.338105449626742 
  3.734080864528944   9.341992634927555   8.338165174103596 
  8.712700315873466   9.342043370813787   8.338388195709920 
  9.958138618195292   2.874138821303517   8.339113516731452 
 -3.734287554395546   9.341946354599125   1.667616145920346 
  1.244707980436765   9.341836929556845   1.668451166526696 
  2.489342430702749   2.874546537277489   1.669090756141051 
  6.223395656932232   9.342072221001485   1.667152345523462 
  7.468624555408088   2.874388811713746   1.667631052479694 
 12.447139242391454   2.874349619126774   1.667857612478580 
 -1.244644544808235   5.030273211196819   8.337523882943531 
 -2.489494104102508  11.497943077127967   8.337876569606287 
  2.489300790968532  11.497912436590632   8.338037192203112 
  3.734223906808295   5.030032378274513   8.345068484099679 
  7.468180791038400  11.498030808581252   8.338246951641917 
 -4.978864350602331  11.497989393219134   1.668030943343416 
  8.713445881901885   5.029692731584330   8.343328140355414 
 -0.000095741781073  11.497888008139149   1.668031338674810 
  1.244820281113172   5.030089195257021   1.668779472261782 
  0.000026890624737   7.186061435180857   1.668649384129731 
  6.223919668441917   5.029766867446155   1.654261367538709 
  4.978830182656294  11.497955608460934   1.667893629842329 
 11.202392939164739   5.030200824298254   1.667693550090418 
 -2.489597227977822   7.186113744682270   8.337746660149254 
  3.734043484940546   0.718712447011251   8.336906904927458 
  7.467857242386239   7.186294903804057   8.343491644340453 
  8.712914411340568   0.718534741995717   8.337387274884092 
 13.691723618446501   0.718495929310039   8.338374020339204 
  0.001915397373731   1.438649412119127   5.002978606422314 
  3.736413513451763   7.915445119563142   5.002978606422314 
  4.972465106763906   1.452445491240705   5.002978606422314 
  8.711785289672033   7.917970994174897   5.002978606422314 
  9.961850962863974   1.426568796027099   5.002978606422314 
 -4.978820973313654  10.060795022273615  11.673616748318732 
 -0.000074055769536  10.060858549548486  11.673616748318732 
  1.244614470923502   3.593200463339931  11.673616748318732 
  4.978670520255081  10.060793653724373  11.673616748318732 
  6.223370995924978   3.593133910149051  11.673616748318732 
 11.202193863381764   3.593203727474945  11.673616748318732 
 -2.486154776779065  10.060993754622009   5.002978606422314 
 -1.241200342563619   3.593241520761163   5.002978606422314 
  3.711782243743372   3.617005267365690   5.002978606422314 
  2.486151304160980  10.064667249289313   5.002978606422314 
  7.472165939496243  10.077461824421706   5.002978606422314 
  8.733563518584088   3.564798073578885   5.002978606422314 
 -6.223551783267499  12.216667360422445  11.673616748318732 
 -1.244736124085013  12.216690852705490  11.673616748318732 
 -0.000052191803103   5.749096367467613  11.673616748318732 
  4.978626583429316   5.749134152854534  11.673616748318732 
  3.733982965834970  12.216657171927194  11.673616748318732 
  9.957552377173009   5.749084055609355  11.673616748318732 
 -2.478569385187749   5.748187066412001   5.002978606422314 
 -3.730353463966169  12.222538129658885   5.002978606422314 
  1.240425548319577  12.219273586599810   5.002978606422314 
  2.519838386801855   5.712473964560029   5.002978606422314 
  6.224564771737108  12.223366715095471   5.002978606422314 
 -1.244768830359410   7.904938848883304  11.673616748318732 
 -0.000070406090917   1.437270945087201  11.673616748318732 
  3.733934137531657   7.904973363030137  11.673616748318732 
  4.978728304171869   1.437274171094351  11.673616748318732 
  8.712848991997177   7.904920954540888  11.673616748318732 
 -3.733764056598651   7.903844251829863   5.002978606422314 
  9.957439064441770   1.437266803920623  11.673616748318732 
  2.492598405549863   1.442772493152727   5.002978606422314 
  1.259272934351288   7.888524313015972   5.002978606422314 
  6.214303023546894   7.949927346112315   5.002978606422314 
  7.461829991719020   1.444545505086821   5.002978606422314 
  1.244628866125831   7.904965488247425  11.673616748318732 
 12.449472517021038   1.437613136000591   5.002978606422314 
 -2.489437143882255  10.060810112228816  11.673616748318732 
 -1.244754865820451   3.593191321703094  11.673616748318732 
  3.733996848737068   3.593197238531657  11.673616748318732 
  2.489265646111552  10.060839506820880  11.673616748318732 
  7.468085476444718  10.060804409772274  11.673616748318732 
  8.712795020257158   3.593134881775145  11.673616748318732 
 -4.973324973482026  10.067956490441038   5.002978606422314 
  0.004017424692137  10.056360547864209   5.002978606422314 
  1.240219896859660   3.588784186411267   5.002978606422314 
  4.972258208640534  10.078474527683300   5.002978606422314 
  6.213271267190395   3.601250864836820   5.002978606422314 
 11.209949301078122   3.589151596548262   5.002978606422314 
 -2.489433134956503   5.749072745950313  11.673616748318732 
 -3.734135330213159  12.216669190385232  11.673616748318732 
  1.244571272681311  12.216701715627099  11.673616748318732 
  2.489302424154088   5.749137936668857  11.673616748318732 
  6.223406796755665  12.216655732537752  11.673616748318732 
 -6.218437865724821  12.224594204839407   5.002978606422314 
  7.468124175058677   5.749059650430066  11.673616748318732 
 -1.245611622298751  12.221439865743337   5.002978606422314 
  0.014357761318303   5.747133677863807   5.002978606422314 
 -1.238427736320890   7.902884520831995   5.002978606422314 
  3.731572486841182  12.219062340983733   5.002978606422314 
  9.967880058087440   5.741916004361165   5.002978606422314 
 -3.734109364657229   7.904902123863208  11.673616748318732 
  2.489303901125633   1.437294019484866  11.673616748318732 
  6.223325443944467   7.904927535661952  11.673616748318732 
  7.468069714398531   1.437277221494444  11.673616748318732 
 12.446877305677809   1.437278375326981  11.673616748318732 
  1.246394771071632   0.722688811735971   5.002978606422314 
  4.988049903244248   7.214392042467094   5.002978606422314 
  6.219546638041318   0.725044086695405   5.002978606422314 
  9.952705058840955   7.183748078976378   5.002978606422314 
 11.205082861249974   0.716387817747736   5.002978606422314 
 -3.734232972954458   9.342043749536684  11.673616748318732 
  1.244670530248656   9.342233259924413  11.673616748318732 
  2.489408854234841   2.874642274642207  11.673616748318732 
  6.223402026801232   9.341953725493816  11.673616748318732 
  7.468141596397255   2.874755656910412  11.673616748318732 
 12.446726116058329   2.874583921973672  11.673616748318732 
 -1.241898469220140   9.340272830527686   5.002978606422314 
 -0.003899685840267   2.871870875392749   5.002978606422314 
  4.966649364890680   2.886479717952664   5.002978606422314 
  3.731966215795128   9.353318504327254   5.002978606422314 
  8.716255870784202   9.351643288980124   5.002978606422314 
  9.971161348182678   2.858234823308592   5.002978606422314 
 -4.978899823388382  11.497883361134008  11.673616748318732 
 -0.000030344493165  11.498086499756146  11.673616748318732 
  1.244703420299399   5.030566054095980  11.673616748318732 
  6.223485702989877   5.030647792919426  11.673616748318732 
  4.978694925433593  11.497922535315222  11.673616748318732 
 11.201996448760141   5.030490097292418  11.673616748318732 
 -1.235662542312385   5.030140554152419   5.002978606422314 
 -2.487797983455169  11.498766582491255   5.002978606422314 
  2.486438881010014  11.501560354472627   5.002978606422314 
  7.471414388424541  11.509118910024190   5.002978606422314 
  8.734891662919729   4.996897778081925   5.002978606422314 
 -0.000085389510551   7.186381826004623  11.673616748318732 
  1.244568159535250   0.718575303946293  11.673616748318732 
  4.978823724213704   7.186270519594635  11.673616748318732 
  6.223500907012800   0.718738553784687  11.673616748318732 
  9.957341373784541   7.186223224703588  11.673616748318732 
 -2.486537006820771   7.185473081967613   5.002978606422314 
 11.202095777493714   0.718686313636520  11.673616748318732 
  3.734586500319788   0.721868212296001   5.002978606422314 
  2.510065796410864   7.173877959635523   5.002978606422314 
  7.447315548887911   7.225938243728369   5.002978606422314 
  8.710729019038718   0.720884751348778   5.002978606422314 
  2.489459302148165   7.186401492822352  11.673616748318732 
 13.692687310674861   0.721556817911922   5.002978606422314 
 -1.244792269842368   9.342173543190643  11.673616748318732 
 -0.000142336360894   2.874561031867492  11.673616748318732 
  4.978876929309505   2.874715856700985  11.673616748318732 
  3.734069585329084   9.342112938770423  11.673616748318732 
  8.712716806801030   9.341959101858823  11.673616748318732 
  9.957378020795378   2.874670397789561  11.673616748318732 
 -3.732454410786124   9.342052198702996   5.002978606422314 