 B Se N 
 1.0
 17.527899999999772   0.000000000000000   0.000000000000000
 -8.763949999999658  15.179606674993195   0.000000000000000
  0.000000000000001   0.000000000000002  15.000000000000000
 B Se N 
  47   1  49
Cartesian
  7.528437270052340  14.459937210185009   1.620219939206505 
 15.026541439878505   1.437080063601346   1.618974199005510 
 13.763780248739975   3.599173040973266   1.599849921024300 
 12.510358014460554   5.771276559636916   1.593888357532290 
 11.269999585373203   7.947613365269973   1.605855339249405 
 10.035914956325028  10.123505145150034   1.620676809397080 
  8.789496639948014  12.296306013525783   1.602317297223525 
 -7.495487536702411  14.460522854763610   1.632643249929675 
  0.007284085570564   1.442142021893473   1.627627036841220 
 -1.262067875810302   3.596827331678977   1.601096308544880 
 -2.526592748838178   5.765816267603925   1.586922357434970 
 -3.777134153801240   7.942381274455145   1.600552008326280 
 -5.004954299488607  10.119737783328796   1.621675037043195 
 -6.242848645001618  12.291073259027478   1.633518291520185 
 -4.994288360400294  14.456878826471042   1.648767842275485 
  2.513948470600787   1.447612031556031   1.652688527495100 
  1.247171823071863   3.606402323043686   1.657970635291770 
 -0.037336665825242   5.758176626111225   1.662846279261675 
 -1.308812628914233   7.934877358352087   1.706551145539710 
 -2.513869360127387  10.108056846829713   1.698246316007970 
 -3.744730634045030  12.283485292135783   1.669275228317130 
 -2.492250321459284  14.446768553865040   1.681561320619275 
  5.016493946956262   1.445214582111355   1.672102106527245 
  3.757709881957528   3.619307329329216   1.728681331814325 
  2.479341236532478   5.764863580376124   1.796771884436490 
  1.093748010545095   7.954206002277602   2.000561060546895 
 -0.005833115038652  10.058619966912296   2.010232296047355 
 -1.237647008008579  12.263405283035597   1.779810152804625 
  0.002316420502320  14.446466089109316   1.725629917770330 
  7.516576364671887   1.439979607561845   1.672089000780885 
  6.264020856141979   3.614219832687138   1.702086224264040 
  5.013063670537434   5.781886835962387   1.834308152117715 
  1.235721038685218  12.263203510021293   1.833302822775060 
  2.507005601532462  14.442718023467428   1.679704670281695 
 10.017462089078794   1.434014858702089   1.665370051253400 
  8.766496457207410   3.606538620071343   1.660085795376120 
  7.523361711130610   5.780060052603972   1.686620595890100 
  6.317540382201881   7.966135411676396   1.663937101342710 
  5.093688378716893  10.160771172939613   1.224355540166295 
  3.787272229300982  12.282689830771075   1.562613140435145 
  5.019659595774439  14.456428365014514   1.606538772106695 
 12.518608327445200   1.433445897258258   1.633677020300160 
 11.264923846591454   3.602443181428426   1.627777133899815 
 10.018317610479004   5.775446550877104   1.627368300685560 
  8.788152446284629   7.953418106408794   1.616719308396720 
  7.551575013924714  10.131801325875180   1.559262335060310 
  6.292845949588162  12.305061351170378   1.512369621570855 
  3.674201768537221   8.359090102614411   2.196239555445960 
  8.782079844040659  13.738894278634710   1.621657411776345 
 16.285063871923281   0.722077171395721   1.627038843519690 
 15.017816656825097   2.877885605098074   1.603278496789410 
 13.755898315880364   5.042345075219038   1.583477800218510 
 12.506724654262158   7.216373834859125   1.590904677217950 
 11.274598912537979   9.393436619385595   1.614913229866365 
 10.034166900463054  11.568377338622346   1.623967213981365 
 -6.246160638477177  13.736833654971855   1.637339227525050 
  1.263552160992201   0.725898583829951   1.636041356733765 
 -0.000778529376281   2.884682266810005   1.620890127016110 
 -1.276370502018605   5.034811974548426   1.591470255465540 
 -2.543697983423481   7.207489282266170   1.603112989439085 
 -3.766700368920208   9.387520473346996   1.620302883821595 
 -4.999036312899542  11.563970920898436   1.637590368073665 
 -3.747083364094058  13.731360166204954   1.662791487415215 
  3.765215937870036   0.725709436831866   1.654680318189270 
  2.508645151321094   2.896541147856135   1.676075972805105 
  1.234792560211603   5.049504344642771   1.691573726280465 
 -0.085173716092728   7.182700417048365   1.742791776740220 
 -1.288454094984639   9.374183183615138   1.777657288008570 
 -2.503467893226366  11.555512838322880   1.718490335081370 
 -1.245955078178211  13.718953928779271   1.724851151789160 
  6.265699480280491   0.719312483940763   1.668361009103370 
  5.010099863512831   2.897713064277278   1.702946883538290 
  3.751547391987130   5.075728782797532   1.813499477502555 
  2.359640672148521   7.200250241953343   1.903793797488600 
  1.107503424462476   9.286173228779697   2.305416983440785 
 -0.004719178912173  11.530698984532213   1.900757912380515 
  1.251244414791882  13.729023177580340   1.757591415577215 
  8.764964936767266   0.716390235424468   1.681819846554015 
  7.512114467500834   2.890241946067296   1.670505013327500 
  6.263260992002634   5.066481948979825   1.737873223165335 
  5.096915051599857   7.229377078817690   1.910900282600520 
  3.828122585578734   9.477363515546603   0.868031281811040 
  2.530876638642619  11.710050287855179   1.809698725407270 
  3.772574684268098  13.739214781078424   1.610057720647125 
 11.268801253263183   0.712511390853981   1.659514372918245 
 10.014145493856308   2.882041973653614   1.648620672333540 
  8.767322776310019   5.054027071732815   1.657703821899435 
  7.540276328661924   7.226886940801334   1.642255226645715 
  6.301806916455685   9.405349869148621   1.496956989691800 
  5.052359998779701  11.583035142996952   1.368553140614565 
  6.280015319315795  13.740792963957428   1.597625580608160 
 13.776504654579902   0.718395613453716   1.624460297286900 
 12.514597171246827   2.878613139262928   1.619974424787735 
 11.261913405057694   5.048229205133400   1.613926270523205 
 10.023043567169054   7.222100444807201   1.615381114568715 
  8.787508524962970   9.398676081713397   1.615722327370710 
  7.540274822099775  11.573293959072053   1.549255606099380 
