 N B P 
 1.0
 14.936314146199660   0.000000000000000   0.000000000000000
 -7.468157073099825  12.935227489513863   0.000000000000000
  0.000000000000001   0.000000000000001  13.341276283792837
 N B P 
 143 143   1
Cartesian
  1.244435394771040   0.718163472535150   1.670428334971520 
  4.978078996874048   7.185691907416787   1.676009360841904 
  6.223227062253763   0.718308343967467   1.670522098538831 
  9.957194432504448   7.186153711713755   1.670671531103417 
 11.201998492784790   0.718486849931614   1.669211821925684 
 -3.734334076617666   9.341961206299700   8.336281022865082 
  1.244301113719682   9.342061053951621   8.335435114305783 
  2.488783613671909   2.873956542736214   8.336934681130415 
  6.223123418666815   9.341585920119494   8.333528214943369 
  7.467608199404451   2.874287596772592   8.334231265534472 
 12.446598787836230   2.874463632886460   8.336354676505294 
 -1.244994429867933   9.342067629981896   1.669700105819691 
 -0.000426918992344   2.874248515874557   1.670278613505598 
  4.978283165356418   2.874105724521688   1.670713553132264 
  3.733624485256533   9.341737104311571   1.671725947310169 
  8.712603195062851   9.341848969617606   1.670671531103417 
  9.957137151283824   2.874473395624013   1.669669268826908 
 -4.978953798618008  11.497646769316738   8.336185241960770 
 -0.000230660519757  11.497846818765751   8.336536874830147 
  1.243925491184815   5.030114059098677   8.336934681130415 
  6.222645542994961   5.030039416134839   8.329947852002750 
  4.978549867721577  11.497639520670207   8.336287944017693 
 11.201802666954116   5.030407840121667   8.336100041061306 
 -1.245220182362246   5.030373425477247   1.670428334971520 
 -2.489572087630474  11.497739367191704   1.669700105819678 
  2.489096663588375  11.497827121857771   1.669169120640564 
  3.732378643991581   5.029384812495803   1.652344641995556 
  7.467976623385569  11.497584254206318   1.669857171783335 
  8.712226736758609   5.030332507896198   1.672428997901270 
 -0.000477039601552   7.186236645882468   8.335352913838783 
  1.244435394771040   0.718163472535151   8.335528877873120 
  4.978078996874049   7.185691907416788   8.329947852002750 
  6.223227062253764   0.718308343967467   8.335435114305783 
  9.957194432504430   7.186153711713755   8.335285681741196 
 -2.489765477473766   7.186246127487803   1.669771970883857 
 11.201998492784790   0.718486849931615   8.336745390918972 
  3.733839282106780   0.718211045149865   1.670604299005845 
  2.488804462242954   7.186009322674915   1.670713553132264 
  7.467716827493209   7.185983318254959   1.674544502192626 
  8.712573016611442   0.718449878718284   1.669169120640564 
  2.488804462242955   7.186009322674916   8.335243659712351 
 13.691429304318827   0.718353931526377   1.669602536339347 
 -1.244994429867932   9.342067629981896   8.336257107024950 
 -0.000426918992344   2.874248515874558   8.335678599339042 
  4.978283165356419   2.874105724521689   8.335243659712351 
  3.733624485256534   9.341737104311571   8.334231265534472 
  8.712603195062867   9.341848969617606   8.335285681741196 
  9.957137151283824   2.874473395624014   8.336287944017693 
 -3.734334076617666   9.341961206299700   1.669676189979585 
  1.244301113719682   9.342061053951621   1.670522098538831 
  2.488783613671909   2.873956542736213   1.669022531714225 
  6.223123418666814   9.341585920119494   1.672428997901270 
  7.467608199404450   2.874287596772592   1.671725947310169 
 12.446598787836230   2.874463632886459   1.669602536339347 
 -1.245220182362246   5.030373425477248   8.335528877873120 
 -2.489572087630474  11.497739367191704   8.336257107024950 
  2.489096663588376  11.497827121857771   8.336788092204037 
  3.732378643991582   5.029384812495804   8.353612570849059 
  7.467976623385570  11.497584254206318   8.336100041061306 
 -4.978953798618009  11.497646769316738   1.669771970883857 
  8.712226736758609   5.030332507896198   8.333528214943369 
 -0.000230660519757  11.497846818765751   1.669420338014494 
  1.243925491184814   5.030114059098676   1.669022531714225 
 -0.000477039601552   7.186236645882467   1.670604299005845 
  6.222645542994960   5.030039416134838   1.676009360841904 
  4.978549867721576  11.497639520670207   1.669669268826908 
 11.201802666954116   5.030407840121666   1.669857171783335 
 -2.489765477473765   7.186246127487804   8.336185241960770 
  3.733839282106788   0.718211045149853   8.335352913838783 
  7.467716827493210   7.185983318254960   8.331412710651989 
  8.712573016611442   0.718449878718284   8.336788092204037 
 13.691429304318827   0.718353931526378   8.336354676505294 
 -0.000633387499993   1.437403170884090   5.002978606422314 
  3.714377719375323   7.915387062702510   5.002978606422314 
  4.983732984615852   1.403241850809727   5.002978606422314 
  8.706958321122773   7.901459728192946   5.002978606422314 
  9.958764983949708   1.434673953781811   5.002978606422314 
 -4.978753458837652  10.060782162441491  11.673616748318732 
  0.000145843932369  10.060801920882593  11.673616748318732 
  1.244767647274106   3.593161933902026  11.673616748318732 
  4.978843117942040  10.060786178590726  11.673616748318732 
  6.223539126584797   3.593206701631159  11.673616748318732 
 11.202337006899898   3.593149080826425  11.673616748318732 
 -2.498584819251823  10.055421372690899   5.002978606422314 
 -1.244874723317374   3.592492381397177   5.002978606422314 
  3.753350450135548   3.532764848732797   5.002978606422314 
  2.480177320435635  10.068637232727268   5.002978606422314 
  7.464962109803776  10.062452675363179   5.002978606422314 
  8.715399303861304   3.587038115396319   5.002978606422314 
 -6.223438241890592  12.216667839219204  11.673616748318732 
 -1.244559796239398  12.216695330127653  11.673616748318732 
  0.000079659469173   5.748999240108366  11.673616748318732 
  4.978895327737299   5.749061555405766  11.673616748318732 
  3.734154049247409  12.216658156236823  11.673616748318732 
  9.957624599591615   5.748985767483682  11.673616748318732 
 -2.494109616005906   5.746907368288285   5.002978606422314 
 -3.740766906654020  12.205133279680012   5.002978606422314 
  1.241885585408663  12.214982967717326   5.002978606422314 
  2.446753638633759   5.795856911261433   5.002978606422314 
  6.221414361762601  12.218688383675822   5.002978606422314 
  7.470012684586409   5.749467108908079   5.002978606422314 
 -1.244595697716179   7.904867169435665  11.673616748318732 
  0.000062965082240   1.437292817842008  11.673616748318732 
  3.734192156920161   7.904882130757960  11.673616748318732 
  4.978869041895417   1.437351970071026  11.673616748318732 
  8.712888803930785   7.904883694038515  11.673616748318732 
 -3.742642489383086   7.900858594429526   5.002978606422314 
  9.957627646241766   1.437285686679085  11.673616748318732 
  2.487231520697436   1.427709619248786   5.002978606422314 
  1.217723891729304   7.926160941455652   5.002978606422314 
  6.224805225797339   7.906229693494491   5.002978606422314 
  7.470398594216146   1.425320445528258   5.002978606422314 
  1.244832150175458   7.904893583866605  11.673616748318732 
 12.447166546072875   1.437384960683868   5.002978606422314 
 -2.489299081258045  10.060782496021218  11.673616748318732 
 -1.244622115564093   3.593150616944437  11.673616748318732 
  3.734178626092099   3.593144517032294  11.673616748318732 
  2.489495330722404  10.060785111243495  11.673616748318732 
  7.468194329398574  10.060805477357979  11.673616748318732 
  8.712932280640599   3.593154028804444  11.673616748318732 
 -4.986519754340097  10.055317215714897   5.002978606422314 
 -0.011701283040501  10.064292359747407   5.002978606422314 
  1.246573588458634   3.594204594531044   5.002978606422314 
  4.974780093173548  10.065980640075747   5.002978606422314 
  6.222729445741400   3.570794429383329   5.002978606422314 
 11.203016031037006   3.590301189422563   5.002978606422314 
 -2.489317186718253   5.748980450047961  11.673616748318732 
 -3.734024830718336  12.216684909637571  11.673616748318732 
  1.244794727677664  12.216662561789413  11.673616748318732 
  2.489458053231484   5.749063790453132  11.673616748318732 
  6.223541195997041  12.216676385821323  11.673616748318732 
 -6.227629798002413  12.213554014590079   5.002978606422314 
  7.468209005327425   5.749018977050746  11.673616748318732 
 -1.247460550998539  12.204690197774866   5.002978606422314 
 -0.009337131187735   5.751893368897670   5.002978606422314 
 -1.257970740682458   7.904804175380053   5.002978606422314 
  3.732460891064487  12.218948986033139   5.002978606422314 
  9.957435005111687   5.745362984201543   5.002978606422314 
 -3.734026558936410   7.904851930264827  11.673616748318732 
  2.489433526972545   1.437311863574415  11.673616748318732 
  6.223515292595175   7.904891727364559  11.673616748318732 
  7.468257462681017   1.437316139891174  11.673616748318732 
 12.447018644642744   1.437299569753361  11.673616748318732 
  1.237888522825699   0.712382519828409   5.002978606422314 
  4.973905782428749   7.298116226144806   5.002978606422314 
  6.231072477947702   0.694744696456943   5.002978606422314 
  9.956805131138765   7.182657957640212   5.002978606422314 
 11.204417436994374   0.719883428022216   5.002978606422314 
 -3.733948195496617   9.342183994868840  11.673616748318732 
  1.244642040707998   9.342347172183501  11.673616748318732 
  2.489177381337885   2.874294604695084  11.673616748318732 
  6.223620655668671   9.342540470542353  11.673616748318732 
  7.468515082244617   2.874295661868759  11.673616748318732 
 12.447033385199047   2.874439523782849  11.673616748318732 
 -1.255479004228229   9.341567578067796   5.002978606422314 
 -0.004833580518180   2.871704328656441   5.002978606422314 
  4.991909007403135   2.812976734117941   5.002978606422314 
  3.723976180932195   9.374422808457824   5.002978606422314 
  8.709381132546909   9.343259701782046   5.002978606422314 
  9.965997890626047   2.867315712696632   5.002978606422314 
 -4.978744673519198  11.498052353188807  11.673616748318732 
  0.000120275060671  11.498049431517639  11.673616748318732 
  1.244415145262177   5.030286040921269  11.673616748318732 
  6.223706037244745   5.030329158915742  11.673616748318732 
  4.978856151884722  11.498365146133459  11.673616748318732 
 11.202506700812354   5.030268985592426  11.673616748318732 
 -1.253500070237016   5.027594144410604   5.002978606422314 
 -2.495247432471511  11.488909485404987   5.002978606422314 
  2.486784075196056  11.506856856801630   5.002978606422314 
  7.464419706458078  11.502637033336486   5.002978606422314 
  8.732794554832552   5.018268630269223   5.002978606422314 
 -0.000166178179559   7.186284727401318  11.673616748318732 
  1.244564868715503   0.718580686311410  11.673616748318732 
  4.978860168607781   7.186465450987192  11.673616748318732 
  6.223645311405268   0.718460536284155  11.673616748318732 
  9.957863276978438   7.186282183140625  11.673616748318732 
 -2.498956783051851   7.183285997820775   5.002978606422314 
 11.202415037273063   0.718727342004145  11.673616748318732 
  3.727617490154017   0.698321841481736   5.002978606422314 
  2.442678124668987   7.228374143237175   5.002978606422314 
  7.477629645203890   7.191706486228466   5.002978606422314 
  8.719236702266089   0.711932250950135   5.002978606422314 
  2.489217807909071   7.186391535564473  11.673616748318732 
 13.690019219808438   0.720618505272906   5.002978606422314 
 -1.244669602333057   9.342187038491417  11.673616748318732 
 -0.000195271142127   2.874382257823290  11.673616748318732 
  4.978820844261487   2.874272585924313  11.673616748318732 
  3.734084911254818   9.342518455341265  11.673616748318732 
  8.713048876819183   9.342363970209844  11.673616748318732 
  9.957918703450211   2.874375832758437  11.673616748318732 
 -3.741512673475548   9.337816641471424   5.002978606422314 
  1.227817104216775   9.360637207000980   5.002978606422314 
  2.473168309444689   2.855477017207452   5.002978606422314 
  6.222959703210708   9.365430111885381   5.002978606422314 
  7.491090697373535   2.849589068051116   5.002978606422314 
 12.447854923974264   2.872110177005726   5.002978606422314 
 -1.244794127660958   5.030276946314138  11.673616748318732 
 -2.489306263060373  11.497960971834008  11.673616748318732 
  2.489477074188140  11.498244291274053  11.673616748318732 
  3.733959710222107   5.030297641509656  11.673616748318732 
  7.468208388764951  11.498263392677273  11.673616748318732 
 -4.986112998897179  11.491166930025658   5.002978606422314 
  8.713302020174858   5.030285852560194  11.673616748318732 
 -0.003236308989902  11.496111506812431   5.002978606422314 
  1.220114100513346   5.025830571714579   5.002978606422314 
 -0.020812491215583   7.190793017828390   5.002978606422314 
  6.317921251793888   4.970213147045812   5.002978606422314 
  4.976781502145372  11.508891987500522   5.002978606422314 
 11.204400043576861   5.024801070138133   5.002978606422314 
 -2.489309668987770   7.186224443199883  11.673616748318732 
  3.734036352634562   0.718456218278930  11.673616748318732 
  7.468491582267437   7.186430623132389  11.673616748318732 
  8.713124501223444   0.718570739253513  11.673616748318732 
 13.691625723904060   0.718742358434778  11.673616748318732 
 -0.000494277664816   1.436670278518134   1.667002420850931 
  3.732680838573588   7.905473385693716   1.665194613639010 
  4.978444757019725   1.435367826276130   1.666129925047714 
  8.713773168241637   7.905394282011516   1.666988067368453 
  9.957582115350007   1.436838303685169   1.666127199585838 
 -4.978380100444219  10.060755654030856   8.339136703772816 
 -0.000970745028009  10.060929810791123   8.339294957945746 
  1.243252181707128   3.592286979449026   8.341388869634402 
  4.978468434240749  10.061485547158235   8.339708530880610 
  6.223295509205936   3.591602234082035   8.340762599205645 
 11.202333489651409   3.593044628662075   8.339383578282616 
 -2.489671468941145  10.060567497892100   1.666819564577745 
 -1.245439871806898   3.592979300231256   1.667002420850931 
  3.732720758315857   3.591378941331464   1.656139477111255 
  2.488270521735062  10.061413360576751   1.666059960561795 
  7.468613022766567  10.061174312810149   1.666753471248890 
  8.713350609736086   3.592479858916886   1.666248681964017 
 -6.223458681665260  12.216097861789365   8.339000476600573 
 -1.245007334809918  12.215664390768126   8.339294957945746 
 -0.001654922020479   5.749159594952198   8.339449404861444 
  4.977425538071190   5.748212971946386   8.342299829506654 
  3.733743838763600  12.216842416824818   8.339830013258776 
  9.958153367146934   5.749163948850804   8.339203741595711 
 -2.489821021539410   5.749247737398767   1.666956736244028 
 -3.734215425668179  12.215581536725788   1.666870608471028 
  1.244245662251531  12.216345558717883   1.666088931964521 
  2.487200085934118   5.748684027774002   1.656139477111255 
  6.223448979144974  12.216725565876978   1.666573634561998 
  7.468646156474201   5.748972594323858   1.667710011274938 
 -1.245646544162574   7.905253795823199   8.339086604373641 
 -0.000494277664816   1.436670278518135   8.338954791993723 
  3.732680838573588   7.905473385693717   8.340762599205631 
  4.978444757019726   1.435367826276130   8.339827287796913 
  8.713773168241637   7.905394282011517   8.338969145476186 
 -3.733862836696619   7.905188522323402   1.666820509071865 
  9.957582115350007   1.436838303685170   8.339830013258789 
  2.488705107596089   1.435729494517538   1.666507807983157 
  1.242901688806471   7.905518214283261   1.666129925047714 
  6.223693699548744   7.905293502726469   1.667710011274938 
  7.468189138069753   1.435941299526905   1.666059960561795 
  1.242901688806472   7.905518214283262   8.339827287796913 
 12.446761796949707   1.437151278668687   1.666713877982941 
 -2.489671468941145  10.060567497892100   8.339137648266869 
 -1.245439871806897   3.592979300231257   8.338954791993723 
  3.732720758315858   3.591378941331465   8.349817735733387 
  2.488270521735063  10.061413360576751   8.339897252282805 
  7.468613022766568  10.061174312810149   8.339203741595711 
  8.713350609736086   3.592479858916887   8.339708530880610 
 -4.978380100444220  10.060755654030856   1.666820509071865 
 -0.000970745028010  10.060929810791123   1.666662254898894 
  1.243252181707128   3.592286979449026   1.664568343210240 
  4.978468434240749  10.061485547158235   1.666248681964017 
  6.223295509205935   3.591602234082035   1.665194613639010 
 11.202333489651409   3.593044628662074   1.666573634561998 
 -2.489821021539410   5.749247737398768   8.339000476600573 
 -3.734215425668179  12.215581536725788   8.339086604373641 
  1.244245662251532  12.216345558717883   8.339868280880081 
  2.487200085934118   5.748684027774003   8.349817735733387 
  6.223448979144975  12.216725565876978   8.339383578282616 
 -6.223458681665261  12.216097861789365   1.666956736244028 
  7.468646156474202   5.748972594323859   8.338247201569704 
 -1.245007334809919  12.215664390768126   1.666662254898894 
 -0.001654922020479   5.749159594952197   1.666507807983157 
 -1.245646544162575   7.905253795823199   1.666870608471028 
  4.977425538071190   5.748212971946385   1.663657383337894 
  3.733743838763599  12.216842416824818   1.666127199585838 
  9.958153367146934   5.749163948850803   1.666753471248890 
 -3.733862836696619   7.905188522323403   8.339136703772816 
  2.488705107596089   1.435729494517539   8.339449404861444 
  6.223693699548745   7.905293502726470   8.338247201569704 
  7.468189138069754   1.435941299526906   8.339897252282805 
 12.446761796949707   1.437151278668688   8.339243334861740 
  3.991113583225980   5.178765499311615   5.002978606422314 
Generated by cif2cell 2.0.0.  :  Failed to get author information, No journal information. Species order: N B P 
 1.0
 14.936314146199660   0.000000000000000   0.000000000000000
 -7.468157073099825  12.935227489513863   0.000000000000000
  0.000000000000001   0.000000000000001  13.341276283792837
 N B P 
 143 143   1
Cartesian
  1.244435394771040   0.718163472535150   1.670428334971520 
  4.978078996874048   7.185691907416787   1.676009360841904 
  6.223227062253763   0.718308343967467   1.670522098538831 
  9.957194432504448   7.186153711713755   1.670671531103417 
 11.201998492784790   0.718486849931614   1.669211821925684 
 -3.734334076617666   9.341961206299700   8.336281022865082 
  1.244301113719682   9.342061053951621   8.335435114305783 
  2.488783613671909   2.873956542736214   8.336934681130415 
  6.223123418666815   9.341585920119494   8.333528214943369 
  7.467608199404451   2.874287596772592   8.334231265534472 
 12.446598787836230   2.874463632886460   8.336354676505294 
 -1.244994429867933   9.342067629981896   1.669700105819691 
 -0.000426918992344   2.874248515874557   1.670278613505598 
  4.978283165356418   2.874105724521688   1.670713553132264 
  3.733624485256533   9.341737104311571   1.671725947310169 
  8.712603195062851   9.341848969617606   1.670671531103417 
  9.957137151283824   2.874473395624013   1.669669268826908 
 -4.978953798618008  11.497646769316738   8.336185241960770 
 -0.000230660519757  11.497846818765751   8.336536874830147 
  1.243925491184815   5.030114059098677   8.336934681130415 
  6.222645542994961   5.030039416134839   8.329947852002750 
  4.978549867721577  11.497639520670207   8.336287944017693 
 11.201802666954116   5.030407840121667   8.336100041061306 
 -1.245220182362246   5.030373425477247   1.670428334971520 
 -2.489572087630474  11.497739367191704   1.669700105819678 
  2.489096663588375  11.497827121857771   1.669169120640564 
  3.732378643991581   5.029384812495803   1.652344641995556 
  7.467976623385569  11.497584254206318   1.669857171783335 
  8.712226736758609   5.030332507896198   1.672428997901270 
 -0.000477039601552   7.186236645882468   8.335352913838783 
  1.244435394771040   0.718163472535151   8.335528877873120 
  4.978078996874049   7.185691907416788   8.329947852002750 
  6.223227062253764   0.718308343967467   8.335435114305783 
  9.957194432504430   7.186153711713755   8.335285681741196 
 -2.489765477473766   7.186246127487803   1.669771970883857 
 11.201998492784790   0.718486849931615   8.336745390918972 
  3.733839282106780   0.718211045149865   1.670604299005845 
  2.488804462242954   7.186009322674915   1.670713553132264 
  7.467716827493209   7.185983318254959   1.674544502192626 
  8.712573016611442   0.718449878718284   1.669169120640564 
  2.488804462242955   7.186009322674916   8.335243659712351 
 13.691429304318827   0.718353931526377   1.669602536339347 
 -1.244994429867932   9.342067629981896   8.336257107024950 
 -0.000426918992344   2.874248515874558   8.335678599339042 
  4.978283165356419   2.874105724521689   8.335243659712351 
  3.733624485256534   9.341737104311571   8.334231265534472 
  8.712603195062867   9.341848969617606   8.335285681741196 
  9.957137151283824   2.874473395624014   8.336287944017693 
 -3.734334076617666   9.341961206299700   1.669676189979585 
  1.244301113719682   9.342061053951621   1.670522098538831 
  2.488783613671909   2.873956542736213   1.669022531714225 
  6.223123418666814   9.341585920119494   1.672428997901270 
  7.467608199404450   2.874287596772592   1.671725947310169 
 12.446598787836230   2.874463632886459   1.669602536339347 
 -1.245220182362246   5.030373425477248   8.335528877873120 
 -2.489572087630474  11.497739367191704   8.336257107024950 
  2.489096663588376  11.497827121857771   8.336788092204037 
  3.732378643991582   5.029384812495804   8.353612570849059 
  7.467976623385570  11.497584254206318   8.336100041061306 
 -4.978953798618009  11.497646769316738   1.669771970883857 
  8.712226736758609   5.030332507896198   8.333528214943369 
 -0.000230660519757  11.497846818765751   1.669420338014494 
  1.243925491184814   5.030114059098676   1.669022531714225 
 -0.000477039601552   7.186236645882467   1.670604299005845 
  6.222645542994960   5.030039416134838   1.676009360841904 
  4.978549867721576  11.497639520670207   1.669669268826908 
 11.201802666954116   5.030407840121666   1.669857171783335 
 -2.489765477473765   7.186246127487804   8.336185241960770 
  3.733839282106788   0.718211045149853   8.335352913838783 
  7.467716827493210   7.185983318254960   8.331412710651989 
  8.712573016611442   0.718449878718284   8.336788092204037 
 13.691429304318827   0.718353931526378   8.336354676505294 
 -0.000633387499993   1.437403170884090   5.002978606422314 
  3.714377719375323   7.915387062702510   5.002978606422314 
  4.983732984615852   1.403241850809727   5.002978606422314 
  8.706958321122773   7.901459728192946   5.002978606422314 
  9.958764983949708   1.434673953781811   5.002978606422314 
 -4.978753458837652  10.060782162441491  11.673616748318732 
  0.000145843932369  10.060801920882593  11.673616748318732 
  1.244767647274106   3.593161933902026  11.673616748318732 
  4.978843117942040  10.060786178590726  11.673616748318732 
  6.223539126584797   3.593206701631159  11.673616748318732 
 11.202337006899898   3.593149080826425  11.673616748318732 
 -2.498584819251823  10.055421372690899   5.002978606422314 
 -1.244874723317374   3.592492381397177   5.002978606422314 
  3.753350450135548   3.532764848732797   5.002978606422314 
  2.480177320435635  10.068637232727268   5.002978606422314 
  7.464962109803776  10.062452675363179   5.002978606422314 
  8.715399303861304   3.587038115396319   5.002978606422314 
 -6.223438241890592  12.216667839219204  11.673616748318732 
 -1.244559796239398  12.216695330127653  11.673616748318732 
  0.000079659469173   5.748999240108366  11.673616748318732 
  4.978895327737299   5.749061555405766  11.673616748318732 
  3.734154049247409  12.216658156236823  11.673616748318732 
  9.957624599591615   5.748985767483682  11.673616748318732 
 -2.494109616005906   5.746907368288285   5.002978606422314 
 -3.740766906654020  12.205133279680012   5.002978606422314 
  1.241885585408663  12.214982967717326   5.002978606422314 
  2.446753638633759   5.795856911261433   5.002978606422314 
  6.221414361762601  12.218688383675822   5.002978606422314 
  7.470012684586409   5.749467108908079   5.002978606422314 
 -1.244595697716179   7.904867169435665  11.673616748318732 
  0.000062965082240   1.437292817842008  11.673616748318732 
  3.734192156920161   7.904882130757960  11.673616748318732 
  4.978869041895417   1.437351970071026  11.673616748318732 
  8.712888803930785   7.904883694038515  11.673616748318732 
 -3.742642489383086   7.900858594429526   5.002978606422314 
  9.957627646241766   1.437285686679085  11.673616748318732 
  2.487231520697436   1.427709619248786   5.002978606422314 
  1.217723891729304   7.926160941455652   5.002978606422314 
  6.224805225797339   7.906229693494491   5.002978606422314 
  7.470398594216146   1.425320445528258   5.002978606422314 
  1.244832150175458   7.904893583866605  11.673616748318732 
 12.447166546072875   1.437384960683868   5.002978606422314 
 -2.489299081258045  10.060782496021218  11.673616748318732 
 -1.244622115564093   3.593150616944437  11.673616748318732 
  3.734178626092099   3.593144517032294  11.673616748318732 
  2.489495330722404  10.060785111243495  11.673616748318732 
  7.468194329398574  10.060805477357979  11.673616748318732 
  8.712932280640599   3.593154028804444  11.673616748318732 
 -4.986519754340097  10.055317215714897   5.002978606422314 
 -0.011701283040501  10.064292359747407   5.002978606422314 
  1.246573588458634   3.594204594531044   5.002978606422314 
  4.974780093173548  10.065980640075747   5.002978606422314 
  6.222729445741400   3.570794429383329   5.002978606422314 
 11.203016031037006   3.590301189422563   5.002978606422314 
 -2.489317186718253   5.748980450047961  11.673616748318732 
 -3.734024830718336  12.216684909637571  11.673616748318732 
  1.244794727677664  12.216662561789413  11.673616748318732 
  2.489458053231484   5.749063790453132  11.673616748318732 
  6.223541195997041  12.216676385821323  11.673616748318732 
 -6.227629798002413  12.213554014590079   5.002978606422314 
  7.468209005327425   5.749018977050746  11.673616748318732 
 -1.247460550998539  12.204690197774866   5.002978606422314 
 -0.009337131187735   5.751893368897670   5.002978606422314 
 -1.257970740682458   7.904804175380053   5.002978606422314 
  3.732460891064487  12.218948986033139   5.002978606422314 
  9.957435005111687   5.745362984201543   5.002978606422314 
 -3.734026558936410   7.904851930264827  11.673616748318732 
  2.489433526972545   1.437311863574415  11.673616748318732 
  6.223515292595175   7.904891727364559  11.673616748318732 
  7.468257462681017   1.437316139891174  11.673616748318732 
 12.447018644642744   1.437299569753361  11.673616748318732 
  1.237888522825699   0.712382519828409   5.002978606422314 
  4.973905782428749   7.298116226144806   5.002978606422314 
  6.231072477947702   0.694744696456943   5.002978606422314 
  9.956805131138765   7.182657957640212   5.002978606422314 
 11.204417436994374   0.719883428022216   5.002978606422314 
 -3.733948195496617   9.342183994868840  11.673616748318732 
  1.244642040707998   9.342347172183501  11.673616748318732 
  2.489177381337885   2.874294604695084  11.673616748318732 
  6.223620655668671   9.342540470542353  11.673616748318732 
  7.468515082244617   2.874295661868759  11.673616748318732 
 12.447033385199047   2.874439523782849  11.673616748318732 
 -1.255479004228229   9.341567578067796   5.002978606422314 
 -0.004833580518180   2.871704328656441   5.002978606422314 
  4.991909007403135   2.812976734117941   5.002978606422314 
  3.723976180932195   9.374422808457824   5.002978606422314 
  8.709381132546909   9.343259701782046   5.002978606422314 
  9.965997890626047   2.867315712696632   5.002978606422314 
 -4.978744673519198  11.498052353188807  11.673616748318732 
  0.000120275060671  11.498049431517639  11.673616748318732 
  1.244415145262177   5.030286040921269  11.673616748318732 
  6.223706037244745   5.030329158915742  11.673616748318732 
  4.978856151884722  11.498365146133459  11.673616748318732 
 11.202506700812354   5.030268985592426  11.673616748318732 
 -1.253500070237016   5.027594144410604   5.002978606422314 
 -2.495247432471511  11.488909485404987   5.002978606422314 
  2.486784075196056  11.506856856801630   5.002978606422314 
  7.464419706458078  11.502637033336486   5.002978606422314 
  8.732794554832552   5.018268630269223   5.002978606422314 
 -0.000166178179559   7.186284727401318  11.673616748318732 
  1.244564868715503   0.718580686311410  11.673616748318732 
  4.978860168607781   7.186465450987192  11.673616748318732 
  6.223645311405268   0.718460536284155  11.673616748318732 
  9.957863276978438   7.186282183140625  11.673616748318732 
 -2.498956783051851   7.183285997820775   5.002978606422314 
 11.202415037273063   0.718727342004145  11.673616748318732 
  3.727617490154017   0.698321841481736   5.002978606422314 
  2.442678124668987   7.228374143237175   5.002978606422314 
  7.477629645203890   7.191706486228466   5.002978606422314 
  8.719236702266089   0.711932250950135   5.002978606422314 
  2.489217807909071   7.186391535564473  11.673616748318732 
 13.690019219808438   0.720618505272906   5.002978606422314 
 -1.244669602333057   9.342187038491417  11.673616748318732 
 -0.000195271142127   2.874382257823290  11.673616748318732 
  4.978820844261487   2.874272585924313  11.673616748318732 
  3.734084911254818   9.342518455341265  11.673616748318732 
  8.713048876819183   9.342363970209844  11.673616748318732 
  9.957918703450211   2.874375832758437  11.673616748318732 
 -3.741512673475548   9.337816641471424   5.002978606422314 
  1.227817104216775   9.360637207000980   5.002978606422314 
  2.473168309444689   2.855477017207452   5.002978606422314 
  6.222959703210708   9.365430111885381   5.002978606422314 
  7.491090697373535   2.849589068051116   5.002978606422314 