Species order: X N B                    
   2.51242800000000     
     5.9449720136058266    0.0000000000000000    0.0000000000000000
    -2.9724860068029120    5.1484967885702053   -0.0000000000000001
     0.0000000000000000    0.0000000000000009    5.3101128803662583
   O    N    B 
     1   144   143
Direct
  0.4444444444444429  0.3888888888888857  0.3750000000000000
  0.1111116979662929  0.0555517454240770  0.1251258403522927
  0.6111074413867378  0.5555497615099294  0.1254083408811115
  0.4444400474577840  0.0555517454240770  0.1251258403522927
  0.9444475663592146  0.5555571699930961  0.1251176728334407
  0.7777777777777786  0.0555555555555571  0.1251234457313417
  0.1111111111111143  0.7222222222222214  0.6248720153736693
  0.4444400474577840  0.7222216353670429  0.6248741596477070
  0.2777835718234060  0.2222258919465979  0.6245916591188881
  0.7777815879092588  0.7222216353670429  0.6248741596477070
  0.6111021481594919  0.2222311851738368  0.6248294209487169
  0.9444553405705256  0.2222305093536298  0.6248922192929154
  0.2777761633402399  0.7222237296994544  0.1251176728334407
  0.1111290370143522  0.2222311851738368  0.1251705790512833
  0.4444423201231846  0.2222258919465979  0.1254083408811115
  0.6111021481594919  0.7222042963189838  0.1251705790512833
  0.9444475663592146  0.7222237296994544  0.1251176728334407
  0.7777751687831045  0.2222305093536298  0.1251077807070843
  0.1111096036338814  0.8888857669741140  0.6248823271665596
  0.4444425307839293  0.8888879320586288  0.6248874734586594
  0.2777835718234060  0.3888910132101440  0.6245916591188881
  0.6111074413867378  0.3888910132101440  0.6245916591188881
  0.7777751687831045  0.8888779927628030  0.6248922192929154
  0.9444454012746998  0.3888908025493993  0.6248874734586594
  0.1111116979662929  0.3888932858755446  0.1251258403522927
  0.2777761633402399  0.8888857669741140  0.1251176728334407
  0.6111028239797058  0.8888779927628030  0.1251077807070843
  0.4444444444444429  0.3888888888888857  0.1255146620977384
  0.9444454012746998  0.8888879320586288  0.1251125265413405
  0.7777815879092588  0.3888932858755446  0.1251258403522927
  0.2777737787210827  0.5555595546122529  0.6248113521690813
  0.1111116979662929  0.0555517454240770  0.6248741596477070
  0.6111074413867378  0.5555497615099294  0.6245916591188881
  0.4444400474577840  0.0555517454240770  0.6248741596477070
  0.9444475663592146  0.5555571699930961  0.6248823271665596
  0.1111096036338814  0.5555571699930961  0.1251176728334407
  0.7777777777777786  0.0555555555555571  0.6248765542686583
  0.2777737787210827  0.0555475574421727  0.1251886478309256
  0.4444423201231846  0.5555497615099294  0.1254083408811115
  0.7777857758911632  0.5555595546122529  0.1251886478309256
  0.6111028239797058  0.0555581645502314  0.1251077807070843
  0.4444423201231846  0.5555497615099294  0.6245916591188881
  0.9444553405705256  0.0555581645502314  0.1251077807070843
  0.2777761633402399  0.7222237296994544  0.6248823271665596
  0.1111290370143522  0.2222311851738368  0.6248294209487169
  0.4444423201231846  0.2222258919465979  0.6245916591188881
  0.6111021481594919  0.7222042963189838  0.6248294209487169
  0.9444475663592146  0.7222237296994544  0.6248823271665596
  0.7777751687831045  0.2222305093536298  0.6248922192929154
  0.1111111111111143  0.7222222222222214  0.1251279846263305
  0.4444400474577840  0.7222216353670429  0.1251258403522927
  0.2777835718234060  0.2222258919465979  0.1254083408811115
  0.7777815879092588  0.7222216353670429  0.1251258403522927
  0.6111021481594919  0.2222311851738368  0.1251705790512833
  0.9444553405705256  0.2222305093536298  0.1251077807070843
  0.1111116979662929  0.3888932858755446  0.6248741596477070
  0.2777761633402399  0.8888857669741140  0.6248823271665596
  0.6111028239797058  0.8888779927628030  0.6248922192929154
  0.4444444444444429  0.3888888888888857  0.6244853379022614
  0.9444454012746998  0.8888879320586288  0.6248874734586594
  0.1111096036338814  0.8888857669741140  0.1251176728334407
  0.7777815879092588  0.3888932858755446  0.6248741596477070
  0.4444425307839293  0.8888879320586288  0.1251125265413405
  0.2777835718234060  0.3888910132101440  0.1254083408811115
  0.2777737787210827  0.5555595546122529  0.1251886478309256
  0.6111074413867378  0.3888910132101440  0.1254083408811115
  0.7777751687831045  0.8888779927628030  0.1251077807070843
  0.9444454012746998  0.3888908025493993  0.1251125265413405
  0.1111096036338814  0.5555571699930961  0.6248823271665596
  0.2777737787210827  0.0555475574421727  0.6248113521690813
  0.7777857758911632  0.5555595546122529  0.6248113521690813
  0.6111028239797058  0.0555581645502314  0.6248922192929154
  0.9444553405705256  0.0555581645502314  0.6248922192929154
  0.0551960794423340  0.1108355543052029  0.3750000000000000
  0.5559983257299234  0.6119966514598540  0.3750000000000000
  0.3886409379322393  0.1100803799471183  0.3750000000000000
  0.8892057238145921  0.6112695285739709  0.3750000000000000
  0.7222746518396272  0.1110586814937087  0.3750000000000000
  0.0555548361946537  0.7777784971386824  0.8750000000000000
  0.3888936637786322  0.7777811665541702  0.8750000000000000
  0.2222227494617274  0.2777780413975282  0.8750000000000000
  0.7222219950765899  0.7777800100868614  0.8750000000000000
  0.5555552919358079  0.2777780413975282  0.8750000000000000
  0.8888876463091161  0.2777752926182402  0.8750000000000000
  0.2221709674525263  0.7777521503929309  0.3750000000000000
  0.0551960794423340  0.2776938584704670  0.3750000000000000
  0.3845649916118307  0.2691299832236617  0.3750000000000000
  0.5556394748628687  0.7781372538910016  0.3750000000000000
  0.8891562304004567  0.7779955379203233  0.3750000000000000
  0.7224977790281327  0.2776938584704670  0.3750000000000000
  0.0555521667791654  0.9444458305577976  0.8750000000000000
  0.3888936637786322  0.9444458305577976  0.8750000000000000
  0.2222228705811878  0.4444425543478889  0.8750000000000000
  0.5555549843596347  0.4444441588464781  0.8750000000000000
  0.7222231304917971  0.9444462609835949  0.8750000000000000
  0.8888875027755310  0.4444396695546964  0.8750000000000000
  0.0553377954130126  0.4444940258134693  0.3750000000000000
  0.2220638047593647  0.9441276095187365  0.3750000000000000
  0.5556021028248588  0.9444677180790937  0.3750000000000000
  0.3845649916118307  0.4487683417214979  0.3750000000000000
  0.8888656152542349  0.9444677180790937  0.3750000000000000
  0.7232529533862174  0.4446923954010893  0.3750000000000000
  0.2222225456349262  0.6111107876984097  0.8750000000000000
  0.0555533232464745  0.1111113382567456  0.8750000000000000
  0.5555552919358079  0.6111105838716079  0.8750000000000000
  0.3888907789854397  0.1111136495666346  0.8750000000000000
  0.8888882420634832  0.6111107876984097  0.8750000000000000
  0.0555811829404047  0.6111623658808097  0.3750000000000000
  0.7222231304917971  0.1111102028415384  0.8750000000000000
  0.2214394420148718  0.1100803799471183  0.3750000000000000
  0.3886409379322393  0.6118938913184636  0.3750000000000000
  0.7232529533862174  0.6118938913184636  0.3750000000000000
  0.5556394748628687  0.1108355543052029  0.3750000000000000
  0.3888907789854397  0.6111104627521481  0.8750000000000000
  0.8887840296540673  0.1110586814937087  0.3750000000000000
  0.2222236609440212  0.7777784971386824  0.8750000000000000
  0.0555533232464745  0.2777753183230645  0.8750000000000000
  0.3888891744868505  0.2777783489737007  0.8750000000000000
  0.5555580150102714  0.7777800100868614  0.8750000000000000
  0.8888875027755310  0.7777811665541702  0.8750000000000000
  0.7222219950765899  0.2777753183230645  0.8750000000000000
  0.0555811829404047  0.7777521503929309  0.3750000000000000
  0.3888393075198593  0.7779955379203233  0.3750000000000000
  0.2213366818734818  0.2773350076034122  0.3750000000000000
  0.7224977790281327  0.7781372538910016  0.3750000000000000
  0.5559983257299234  0.2773350076034122  0.3750000000000000
  0.8888656152542349  0.2777312305084770  0.3750000000000000
  0.0555521667791654  0.4444396695546964  0.8750000000000000
  0.2222225456349262  0.9444450912698454  0.8750000000000000
  0.5555580407150956  0.9444456870242125  0.8750000000000000
  0.3888891744868505  0.4444441588464781  0.8750000000000000
  0.8888876463091161  0.9444456870242125  0.8750000000000000
  0.0553377954130126  0.9441771029328719  0.3750000000000000
  0.7222196837667010  0.4444425543478889  0.8750000000000000
  0.3888393075198593  0.9441771029328719  0.3750000000000000
  0.2214394420148718  0.4446923954010893  0.3750000000000000
  0.2220638047593647  0.6112695285739709  0.3750000000000000
  0.5642033501096743  0.4487683417214979  0.3750000000000000
  0.7222746518396272  0.9445493036792613  0.3750000000000000
  0.8891562304004567  0.4444940258134693  0.3750000000000000
  0.0555548361946537  0.6111096723893147  0.8750000000000000
  0.2222228705811878  0.1111136495666346  0.8750000000000000
  0.7222196837667010  0.6111104627521481  0.8750000000000000
  0.5555580150102714  0.1111113382567456  0.8750000000000000
  0.8888870723497337  0.1111102028415384  0.8750000000000000
  0.1100978537984916  0.0547143706154494  0.3750000000000000
  0.6131295225099608  0.5589742366269379  0.3750000000000000
  0.4446165168169580  0.0547143706154494  0.3750000000000000
  0.9447122407088373  0.5556135588752837  0.3750000000000000
  0.7777777777777786  0.0555555555555571  0.3750000000000000
  0.1111111111111143  0.7222222222222214  0.8750000000000000
  0.4444486853673597  0.7222394443058830  0.8750000000000000
  0.2777645884965571  0.2222093612488745  0.8750000000000000
  0.7777907589385237  0.7222394443058830  0.8750000000000000
  0.6111222916149309  0.2222110417184051  0.8750000000000000
  0.9444322888360197  0.2222151070920833  0.8750000000000000
  0.2777197744580517  0.7224320151668820  0.3750000000000000
  0.1095893179869343  0.2214613256601315  0.3750000000000000
  0.4458447141169770  0.2202038108233749  0.3750000000000000
  0.6118720076732043  0.7237440153464012  0.3750000000000000
  0.9447122407088373  0.7224320151668820  0.3750000000000000
  0.7779773137546288  0.2219736751564448  0.3750000000000000
  0.1111053527204414  0.8888825730189724  0.8750000000000000
  0.4444488140433736  0.8888910736883545  0.8750000000000000
  0.2777645884965571  0.3888885605810112  0.8750000000000000
  0.6111239720844611  0.3888885605810112  0.8750000000000000
  0.7777828182560632  0.8889010444973089  0.8750000000000000
  0.9444422596449741  0.3888845192899550  0.8750000000000000
  0.1100978537984916  0.3887168165163706  0.3750000000000000
  0.2777197744580517  0.8886210926244913  0.3750000000000000
  0.6113596581768912  0.8893369719315132  0.3750000000000000
  0.9443836726518505  0.8889496606814781  0.3750000000000000
  0.7786189627178858  0.3887168165163706  0.3750000000000000
  0.2777698989280545  0.5555634344052812  0.8750000000000000
  0.1110938890274527  0.0555425743948122  0.8750000000000000
  0.6111239720844611  0.5555687448367789  0.8750000000000000
  0.4444486853673597  0.0555425743948122  0.8750000000000000
  0.9444507603143562  0.5555561130347976  0.8750000000000000
  0.1109013181664539  0.5556135588752837  0.3750000000000000
  0.7777777777777786  0.0555555555555571  0.8750000000000000
  0.2773037515754581  0.0546075031509159  0.3750000000000000
  0.4458447141169770  0.5589742366269379  0.3750000000000000
  0.7787258301824195  0.5560295817578778  0.3750000000000000
  0.6113596581768912  0.0553560195786996  0.3750000000000000
  0.4444447727523174  0.5555687448367789  0.8750000000000000
  0.9439963614018154  0.0553560195786996  0.3750000000000000
  0.2777772202985381  0.7222279806128941  0.8750000000000000
  0.1110887501034815  0.2222110417184051  0.8750000000000000
  0.4444447727523174  0.2222093612488745  0.8750000000000000
  0.6111222916149309  0.7222445832298537  0.8750000000000000
  0.9444507603143562  0.7222279806128941  0.8750000000000000
  0.7777828182560632  0.2222151070920833  0.8750000000000000
  0.1111111111111143  0.7222222222222214  0.3750000000000000
  0.4446165168169580  0.7232354795348445  0.3750000000000000
  0.2743590967063981  0.2202038108233749  0.3750000000000000
  0.7786189627178858  0.7232354795348445  0.3750000000000000
  0.6118720076732043  0.2214613256601315  0.3750000000000000
  0.9439963614018154  0.2219736751564448  0.3750000000000000
  0.1110938890274527  0.3888846479659689  0.8750000000000000
  0.2777772202985381  0.8888825730189724  0.8750000000000000
  0.6111182262412523  0.8889010444973089  0.8750000000000000
  0.4444444444444429  0.3888888888888857  0.8750000000000000
  0.9444422596449741  0.8888910736883545  0.8750000000000000
  0.1109013181664539  0.8886210926244913  0.3750000000000000
  0.7777907589385237  0.3888846479659689  0.8750000000000000
  0.4445659880296272  0.8889496606814781  0.3750000000000000
  0.2743590967063981  0.3874886192163516  0.3750000000000000
  0.2773037515754581  0.5560295817578778  0.3750000000000000
  0.6131295225099608  0.3874886192163516  0.3750000000000000
  0.7779773137546288  0.8893369719315132  0.3750000000000000
  0.9443836726518505  0.3887673453037014  0.3750000000000000
  0.1111053527204414  0.5555561130347976  0.8750000000000000
  0.2777698989280545  0.0555397978561087  0.8750000000000000
  0.7777935354772267  0.5555634344052812  0.8750000000000000
  0.6111182262412523  0.0555505150772722  0.8750000000000000
  0.9444322888360197  0.0555505150772722  0.8750000000000000
  0.0555141022167511  0.1110530113870541  0.1248756117339214
  0.5555731058945382  0.6111462117890691  0.1248611359973848
  0.3888798127841379  0.1110456469327970  0.1249016061279667
  0.8889610248596472  0.6111471790964951  0.1249177395852698
  0.7222110466823946  0.1111222866509411  0.1249318976137545
  0.0555491398362211  0.7777841934971143  0.6250565902328693
  0.3888596973726366  0.7777743304037575  0.6250870324961244
  0.2221871215442666  0.2777602274387976  0.6251388640026153
  0.7222803219462817  0.7778192311165845  0.6251243882660785
  0.5555731058945382  0.2777602274387976  0.6251388640026153
  0.8888889513886598  0.2777779027773271  0.6250806573371893
  0.2222350536609005  0.7777841934971143  0.1249434097671306
  0.0555141022167511  0.2777944241630326  0.1248756117339214
  0.3888898921401854  0.2777797842803778  0.1250013922766351
  0.5555389091703030  0.7778192311165845  0.1248756117339214
  0.8889146330311135  0.7777743304037575  0.1249129675038754
  0.7222803219462817  0.2777944241630326  0.1248756117339214
  0.0555590029295784  0.9444187003022151  0.6250870324961244
  0.3888596973726366  0.9444187003022151  0.6250870324961244
  0.2221658341486520  0.4444535205491907  0.6250983938720330
  0.5555535490529578  0.4444434411931432  0.6249986077233648
  0.7222110466823946  0.9444220933647959  0.6250681023862457
  0.8889146330311135  0.4444736359606920  0.6250870324961244
  0.0555590029295784  0.4444736359606920  0.1249129675038754
  0.2221861542368407  0.9443723084736814  0.1249177395852698
  0.5555554305560084  0.9444443819446688  0.1249193426628106
  0.3888898921401854  0.4444434411931432  0.1250013922766351
  0.8888889513886598  0.9444443819446688  0.1249193426628106
  0.7222876864005388  0.4444535205491907  0.1249016061279667
  0.2221861542368407  0.6111471790964951  0.6250822604147303
  0.0555141022167511  0.1110530113870541  0.6251243882660785
  0.5555731058945382  0.6111462117890691  0.6251388640026153
  0.3888798127841379  0.1110456469327970  0.6250983938720330
  0.8889610248596472  0.6111471790964951  0.6250822604147303
  0.0555491398362211  0.6110982796724352  0.1249434097671306
  0.7222110466823946  0.1111222866509411  0.6250681023862457
  0.2221658341486520  0.1110456469327970  0.1249016061279667
  0.3888798127841379  0.6111674991846838  0.1249016061279667
  0.7222876864005388  0.6111674991846838  0.1249016061279667
  0.5555389091703030  0.1110530113870541  0.1248756117339214
  0.3888798127841379  0.6111674991846838  0.6250983938720330
  0.8889112399685327  0.1111222866509411  0.1249318976137545
  0.2222350536609005  0.7777841934971143  0.6250565902328693
  0.0555141022167511  0.2777944241630326  0.6251243882660785
  0.3888898921401854  0.2777797842803778  0.6249986077233648
  0.5555389091703030  0.7778192311165845  0.6251243882660785
  0.8889146330311135  0.7777743304037575  0.6250870324961244
  0.7222803219462817  0.2777944241630326  0.6251243882660785
  0.0555491398362211  0.7777841934971143  0.1249434097671306
  0.3888596973726366  0.7777743304037575  0.1249129675038754
  0.2221871215442666  0.2777602274387976  0.1248611359973848
  0.7222803219462817  0.7778192311165845  0.1248756117339214
  0.5555731058945382  0.2777602274387976  0.1248611359973848
  0.8888889513886598  0.2777779027773271  0.1249193426628106
  0.0555590029295784  0.4444736359606920  0.6250870324961244
  0.2221861542368407  0.9443723084736814  0.6250822604147303
  0.5555554305560084  0.9444443819446688  0.6250806573371893
  0.3888898921401854  0.4444434411931432  0.6249986077233648
  0.8888889513886598  0.9444443819446688  0.6250806573371893
  0.0555590029295784  0.9444187003022151  0.1249129675038754
  0.7222876864005388  0.4444535205491907  0.6250983938720330
  0.3888596973726366  0.9444187003022151  0.1249129675038754
  0.2221658341486520  0.4444535205491907  0.1249016061279667
  0.2221861542368407  0.6111471790964951  0.1249177395852698
  0.5555535490529578  0.4444434411931432  0.1250013922766351
  0.7222110466823946  0.9444220933647959  0.1249318976137545
  0.8889146330311135  0.4444736359606920  0.1249129675038754
  0.0555491398362211  0.6110982796724352  0.6250565902328693
  0.2221658341486520  0.1110456469327970  0.6250983938720330
  0.7222876864005388  0.6111674991846838  0.6250983938720330
  0.5555389091703030  0.1110530113870541  0.6251243882660785
  0.8889112399685327  0.1111222866509411  0.6250681023862457
 
  0.00000000E+00  0.00000000E+00  0.00000000E+00
  0.00000000E+00  0.00000000E+00  0.00000000E+00
  0.00000000E+00  0.00000000E+00  0.00000000E+00
  0.00000000E+00  0.00000000E+00  0.00000000E+00
  0.00000000E+00  0.00000000E+00  0.00000000E+00
  0.00000000E+00  0.00000000E+00  0.00000000E+00
  0.00000000E+00  0.00000000E+00  0.00000000E+00
  0.00000000E+00  0.00000000E+00  0.00000000E+00
  0.00000000E+00  0.00000000E+00  0.00000000E+00
  0.00000000E+00  0.00000000E+00  0.00000000E+00
  0.00000000E+00  0.00000000E+00  0.00000000E+00
  0.00000000E+00  0.00000000E+00  0.00000000E+00
  0.00000000E+00  0.00000000E+00  0.00000000E+00
  0.00000000E+00  0.00000000E+00  0.00000000E+00
  0.00000000E+00  0.00000000E+00  0.00000000E+00
  0.00000000E+00  0.00000000E+00  0.00000000E+00
  0.00000000E+00  0.00000000E+00  0.00000000E+00
  0.00000000E+00  0.00000000E+00  0.00000000E+00
  0.00000000E+00  0.00000000E+00  0.00000000E+00
  0.00000000E+00  0.00000000E+00  0.00000000E+00
  0.00000000E+00  0.00000000E+00  0.00000000E+00
  0.00000000E+00  0.00000000E+00  0.00000000E+00
  0.00000000E+00  0.00000000E+00  0.00000000E+00
  0.00000000E+00  0.00000000E+00  0.00000000E+00
  0.00000000E+00  0.00000000E+00  0.00000000E+00
  0.00000000E+00  0.00000000E+00  0.00000000E+00
  0.00000000E+00  0.00000000E+00  0.00000000E+00
  0.00000000E+00  0.00000000E+00  0.00000000E+00
  0.00000000E+00  0.00000000E+00  0.00000000E+00
  0.00000000E+00  0.00000000E+00  0.00000000E+00
  0.00000000E+00  0.00000000E+00  0.00000000E+00
  0.00000000E+00  0.00000000E+00  0.00000000E+00
  0.00000000E+00  0.00000000E+00  0.00000000E+00
  0.00000000E+00  0.00000000E+00  0.00000000E+00
  0.00000000E+00  0.00000000E+00  0.00000000E+00
  0.00000000E+00  0.00000000E+00  0.00000000E+00
  0.00000000E+00  0.00000000E+00  0.00000000E+00
  0.00000000E+00  0.00000000E+00  0.00000000E+00
  0.00000000E+00  0.00000000E+00  0.00000000E+00
  0.00000000E+00  0.00000000E+00  0.00000000E+00
  0.00000000E+00  0.00000000E+00  0.00000000E+00
  0.00000000E+00  0.00000000E+00  0.00000000E+00
  0.00000000E+00  0.00000000E+00  0.00000000E+00
  0.00000000E+00  0.00000000E+00  0.00000000E+00
  0.00000000E+00  0.00000000E+00  0.00000000E+00
  0.00000000E+00  0.00000000E+00  0.00000000E+00
  0.00000000E+00  0.00000000E+00  0.00000000E+00
  0.00000000E+00  0.00000000E+00  0.00000000E+00
  0.00000000E+00  0.00000000E+00  0.00000000E+00
  0.00000000E+00  0.00000000E+00  0.00000000E+00
  0.00000000E+00  0.00000000E+00  0.00000000E+00
  0.00000000E+00  0.00000000E+00  0.00000000E+00
  0.00000000E+00  0.00000000E+00  0.00000000E+00
  0.00000000E+00  0.00000000E+00  0.00000000E+00
  0.00000000E+00  0.00000000E+00  0.00000000E+00
  0.00000000E+00  0.00000000E+00  0.00000000E+00
  0.00000000E+00  0.00000000E+00  0.00000000E+00
  0.00000000E+00  0.00000000E+00  0.00000000E+00
  0.00000000E+00  0.00000000E+00  0.00000000E+00
  0.00000000E+00  0.00000000E+00  0.00000000E+00
  0.00000000E+00  0.00000000E+00  0.00000000E+00
  0.00000000E+00  0.00000000E+00  0.00000000E+00
  0.00000000E+00  0.00000000E+00  0.00000000E+00
  0.00000000E+00  0.00000000E+00  0.00000000E+00
  0.00000000E+00  0.00000000E+00  0.00000000E+00
  0.00000000E+00  0.00000000E+00  0.00000000E+00
  0.00000000E+00  0.00000000E+00  0.00000000E+00
  0.00000000E+00  0.00000000E+00  0.00000000E+00
  0.00000000E+00  0.00000000E+00  0.00000000E+00
  0.00000000E+00  0.00000000E+00  0.00000000E+00
  0.00000000E+00  0.00000000E+00  0.00000000E+00
  0.00000000E+00  0.00000000E+00  0.00000000E+00
  0.00000000E+00  0.00000000E+00  0.00000000E+00
  0.00000000E+00  0.00000000E+00  0.00000000E+00
  0.00000000E+00  0.00000000E+00  0.00000000E+00
  0.00000000E+00  0.00000000E+00  0.00000000E+00
  0.00000000E+00  0.00000000E+00  0.00000000E+00
  0.00000000E+00  0.00000000E+00  0.00000000E+00
  0.00000000E+00  0.00000000E+00  0.00000000E+00
  0.00000000E+00  0.00000000E+00  0.00000000E+00
  0.00000000E+00  0.00000000E+00  0.00000000E+00
  0.00000000E+00  0.00000000E+00  0.00000000E+00
  0.00000000E+00  0.00000000E+00  0.00000000E+00
  0.00000000E+00  0.00000000E+00  0.00000000E+00
  0.00000000E+00  0.00000000E+00  0.00000000E+00
  0.00000000E+00  0.00000000E+00  0.00000000E+00
  0.00000000E+00  0.00000000E+00  0.00000000E+00
  0.00000000E+00  0.00000000E+00  0.00000000E+00
  0.00000000E+00  0.00000000E+00  0.00000000E+00
  0.00000000E+00  0.00000000E+00  0.00000000E+00
  0.00000000E+00  0.00000000E+00  0.00000000E+00
  0.00000000E+00  0.00000000E+00  0.00000000E+00
  0.00000000E+00  0.00000000E+00  0.00000000E+00
  0.00000000E+00  0.00000000E+00  0.00000000E+00
  0.00000000E+00  0.00000000E+00  0.00000000E+00
  0.00000000E+00  0.00000000E+00  0.00000000E+00
  0.00000000E+00  0.00000000E+00  0.00000000E+00
  0.00000000E+00  0.00000000E+00  0.00000000E+00
  0.00000000E+00  0.00000000E+00  0.00000000E+00
  0.00000000E+00  0.00000000E+00  0.00000000E+00
  0.00000000E+00  0.00000000E+00  0.00000000E+00
  0.00000000E+00  0.00000000E+00  0.00000000E+00
  0.00000000E+00  0.00000000E+00  0.00000000E+00
  0.00000000E+00  0.00000000E+00  0.00000000E+00
  0.00000000E+00  0.00000000E+00  0.00000000E+00
  0.00000000E+00  0.00000000E+00  0.00000000E+00
  0.00000000E+00  0.00000000E+00  0.00000000E+00
  0.00000000E+00  0.00000000E+00  0.00000000E+00
  0.00000000E+00  0.00000000E+00  0.00000000E+00
  0.00000000E+00  0.00000000E+00  0.00000000E+00
  0.00000000E+00  0.00000000E+00  0.00000000E+00
  0.00000000E+00  0.00000000E+00  0.00000000E+00
  0.00000000E+00  0.00000000E+00  0.00000000E+00
  0.00000000E+00  0.00000000E+00  0.00000000E+00
  0.00000000E+00  0.00000000E+00  0.00000000E+00
  0.00000000E+00  0.00000000E+00  0.00000000E+00
  0.00000000E+00  0.00000000E+00  0.00000000E+00
  0.00000000E+00  0.00000000E+00  0.00000000E+00
  0.00000000E+00  0.00000000E+00  0.00000000E+00
  0.00000000E+00  0.00000000E+00  0.00000000E+00
  0.00000000E+00  0.00000000E+00  0.00000000E+00
  0.00000000E+00  0.00000000E+00  0.00000000E+00
  0.00000000E+00  0.00000000E+00  0.00000000E+00
  0.00000000E+00  0.00000000E+00  0.00000000E+00
  0.00000000E+00  0.00000000E+00  0.00000000E+00
  0.00000000E+00  0.00000000E+00  0.00000000E+00
  0.00000000E+00  0.00000000E+00  0.00000000E+00
  0.00000000E+00  0.00000000E+00  0.00000000E+00
  0.00000000E+00  0.00000000E+00  0.00000000E+00
  0.00000000E+00  0.00000000E+00  0.00000000E+00
  0.00000000E+00  0.00000000E+00  0.00000000E+00
  0.00000000E+00  0.00000000E+00  0.00000000E+00
  0.00000000E+00  0.00000000E+00  0.00000000E+00
  0.00000000E+00  0.00000000E+00  0.00000000E+00
  0.00000000E+00  0.00000000E+00  0.00000000E+00
  0.00000000E+00  0.00000000E+00  0.00000000E+00
  0.00000000E+00  0.00000000E+00  0.00000000E+00
  0.00000000E+00  0.00000000E+00  0.00000000E+00
  0.00000000E+00  0.00000000E+00  0.00000000E+00
  0.00000000E+00  0.00000000E+00  0.00000000E+00
  0.00000000E+00  0.00000000E+00  0.00000000E+00
  0.00000000E+00  0.00000000E+00  0.00000000E+00
  0.00000000E+00  0.00000000E+00  0.00000000E+00
  0.00000000E+00  0.00000000E+00  0.00000000E+00
  0.00000000E+00  0.00000000E+00  0.00000000E+00
  0.00000000E+00  0.00000000E+00  0.00000000E+00
  0.00000000E+00  0.00000000E+00  0.00000000E+00
  0.00000000E+00  0.00000000E+00  0.00000000E+00
  0.00000000E+00  0.00000000E+00  0.00000000E+00
  0.00000000E+00  0.00000000E+00  0.00000000E+00
  0.00000000E+00  0.00000000E+00  0.00000000E+00
  0.00000000E+00  0.00000000E+00  0.00000000E+00
  0.00000000E+00  0.00000000E+00  0.00000000E+00
  0.00000000E+00  0.00000000E+00  0.00000000E+00
  0.00000000E+00  0.00000000E+00  0.00000000E+00
  0.00000000E+00  0.00000000E+00  0.00000000E+00
  0.00000000E+00  0.00000000E+00  0.00000000E+00
  0.00000000E+00  0.00000000E+00  0.00000000E+00
  0.00000000E+00  0.00000000E+00  0.00000000E+00
  0.00000000E+00  0.00000000E+00  0.00000000E+00
  0.00000000E+00  0.00000000E+00  0.00000000E+00
  0.00000000E+00  0.00000000E+00  0.00000000E+00
  0.00000000E+00  0.00000000E+00  0.00000000E+00
  0.00000000E+00  0.00000000E+00  0.00000000E+00
  0.00000000E+00  0.00000000E+00  0.00000000E+00
  0.00000000E+00  0.00000000E+00  0.00000000E+00
  0.00000000E+00  0.00000000E+00  0.00000000E+00
  0.00000000E+00  0.00000000E+00  0.00000000E+00
  0.00000000E+00  0.00000000E+00  0.00000000E+00
  0.00000000E+00  0.00000000E+00  0.00000000E+00
  0.00000000E+00  0.00000000E+00  0.00000000E+00
  0.00000000E+00  0.00000000E+00  0.00000000E+00
  0.00000000E+00  0.00000000E+00  0.00000000E+00
  0.00000000E+00  0.00000000E+00  0.00000000E+00
  0.00000000E+00  0.00000000E+00  0.00000000E+00
  0.00000000E+00  0.00000000E+00  0.00000000E+00
  0.00000000E+00  0.00000000E+00  0.00000000E+00
  0.00000000E+00  0.00000000E+00  0.00000000E+00
  0.00000000E+00  0.00000000E+00  0.00000000E+00
  0.00000000E+00  0.00000000E+00  0.00000000E+00
  0.00000000E+00  0.00000000E+00  0.00000000E+00
  0.00000000E+00  0.00000000E+00  0.00000000E+00
  0.00000000E+00  0.00000000E+00  0.00000000E+00
  0.00000000E+00  0.00000000E+00  0.00000000E+00
  0.00000000E+00  0.00000000E+00  0.00000000E+00
  0.00000000E+00  0.00000000E+00  0.00000000E+00
  0.00000000E+00  0.00000000E+00  0.00000000E+00
  0.00000000E+00  0.00000000E+00  0.00000000E+00
  0.00000000E+00  0.00000000E+00  0.00000000E+00
  0.00000000E+00  0.00000000E+00  0.00000000E+00
  0.00000000E+00  0.00000000E+00  0.00000000E+00
  0.00000000E+00  0.00000000E+00  0.00000000E+00
  0.00000000E+00  0.00000000E+00  0.00000000E+00
  0.00000000E+00  0.00000000E+00  0.00000000E+00
  0.00000000E+00  0.00000000E+00  0.00000000E+00
  0.00000000E+00  0.00000000E+00  0.00000000E+00
  0.00000000E+00  0.00000000E+00  0.00000000E+00
  0.00000000E+00  0.00000000E+00  0.00000000E+00
  0.00000000E+00  0.00000000E+00  0.00000000E+00
  0.00000000E+00  0.00000000E+00  0.00000000E+00
  0.00000000E+00  0.00000000E+00  0.00000000E+00
  0.00000000E+00  0.00000000E+00  0.00000000E+00
  0.00000000E+00  0.00000000E+00  0.00000000E+00
  0.00000000E+00  0.00000000E+00  0.00000000E+00
  0.00000000E+00  0.00000000E+00  0.00000000E+00
  0.00000000E+00  0.00000000E+00  0.00000000E+00
  0.00000000E+00  0.00000000E+00  0.00000000E+00
  0.00000000E+00  0.00000000E+00  0.00000000E+00
  0.00000000E+00  0.00000000E+00  0.00000000E+00
  0.00000000E+00  0.00000000E+00  0.00000000E+00
  0.00000000E+00  0.00000000E+00  0.00000000E+00
  0.00000000E+00  0.00000000E+00  0.00000000E+00
  0.00000000E+00  0.00000000E+00  0.00000000E+00
  0.00000000E+00  0.00000000E+00  0.00000000E+00
  0.00000000E+00  0.00000000E+00  0.00000000E+00
  0.00000000E+00  0.00000000E+00  0.00000000E+00
  0.00000000E+00  0.00000000E+00  0.00000000E+00
  0.00000000E+00  0.00000000E+00  0.00000000E+00
  0.00000000E+00  0.00000000E+00  0.00000000E+00
  0.00000000E+00  0.00000000E+00  0.00000000E+00
  0.00000000E+00  0.00000000E+00  0.00000000E+00
  0.00000000E+00  0.00000000E+00  0.00000000E+00
  0.00000000E+00  0.00000000E+00  0.00000000E+00
  0.00000000E+00  0.00000000E+00  0.00000000E+00
  0.00000000E+00  0.00000000E+00  0.00000000E+00
  0.00000000E+00  0.00000000E+00  0.00000000E+00
  0.00000000E+00  0.00000000E+00  0.00000000E+00
  0.00000000E+00  0.00000000E+00  0.00000000E+00
  0.00000000E+00  0.00000000E+00  0.00000000E+00
  0.00000000E+00  0.00000000E+00  0.00000000E+00
  0.00000000E+00  0.00000000E+00  0.00000000E+00
  0.00000000E+00  0.00000000E+00  0.00000000E+00
  0.00000000E+00  0.00000000E+00  0.00000000E+00
  0.00000000E+00  0.00000000E+00  0.00000000E+00
  0.00000000E+00  0.00000000E+00  0.00000000E+00
  0.00000000E+00  0.00000000E+00  0.00000000E+00
  0.00000000E+00  0.00000000E+00  0.00000000E+00
  0.00000000E+00  0.00000000E+00  0.00000000E+00
  0.00000000E+00  0.00000000E+00  0.00000000E+00
  0.00000000E+00  0.00000000E+00  0.00000000E+00
  0.00000000E+00  0.00000000E+00  0.00000000E+00
  0.00000000E+00  0.00000000E+00  0.00000000E+00
  0.00000000E+00  0.00000000E+00  0.00000000E+00
  0.00000000E+00  0.00000000E+00  0.00000000E+00
  0.00000000E+00  0.00000000E+00  0.00000000E+00
  0.00000000E+00  0.00000000E+00  0.00000000E+00
  0.00000000E+00  0.00000000E+00  0.00000000E+00