B C N                                   
   1.0000000000000000     
     8.7639499999999995  -15.1796066749929999    0.0000000000000000
     8.7639499999999995   15.1796066749929999    0.0000000000000000
     0.0000000000000000    0.0000000000000000   15.0000000000000000
   B    C    N 
    47     3    47
Selective dynamics
Direct
  0.9045162726204194  0.9527292470964595  0.1116244049752134   T   T   T
  0.9057365206604709  0.0967465832499451  0.1111178275143445   T   T   T
  0.9057175425724020  0.2397565077459645  0.1111141708243815   T   T   T
  0.9051395510132096  0.3822551358397027  0.1112168832606447   T   T   T
  0.9042406981225237  0.5243505302899555  0.1108213307280042   T   T   T
  0.9020005750960384  0.6662645490013507  0.1104649252219355   T   T   T
  0.9027848643648649  0.8087091413944777  0.1105627931057769   T   T   T
  0.0466491078481458  0.9512085703897447  0.1111761622518197   T   T   T
  0.0475153864267473  0.0949358629280780  0.1107734638506981   T   T   T
  0.0487041105940574  0.2389885810802476  0.1103428152878324   T   T   T
  0.0492129797091136  0.3820540132475333  0.1106542831339386   T   T   T
  0.0489170403167450  0.5242208139937808  0.1108418372183017   T   T   T
  0.0475786407547384  0.6660564836405595  0.1111453249701739   T   T   T
  0.0465406897635861  0.8082412287921793  0.1110122387296297   T   T   T
  0.1897002449921244  0.9504920200950229  0.1112184606933588   T   T   T
  0.1896863772087791  0.0935088112268342  0.1106043199565614   T   T   T
  0.1902857909703270  0.2369447220448274  0.1082589906224634   T   T   T
  0.1926584316829274  0.3814392039688377  0.1090065288643388   T   T   T
  0.1936245161665061  0.5241483765446240  0.1090753923418422   T   T   T
  0.1932463577563389  0.6659361316041291  0.1102975162316669   T   T   T
  0.1907077069432601  0.8080731332644850  0.1109467969849300   T   T   T
  0.3333763691237110  0.9508055155842016  0.1112531222300111   T   T   T
  0.3323155970922820  0.0927600984265235  0.1109513381779760   T   T   T
  0.3323023894749242  0.2347553104731373  0.1100689228720382   T   T   T
  0.3334328595348378  0.3780866868489913  0.1116869417632977   T   T   T
  0.3380768167620059  0.5243686053079460  0.1132509397594370   T   T   T
  0.3401947342628674  0.6657926455870413  0.1071895713366982   T   T   T
  0.3348684198858429  0.8082389810475863  0.1105286732621399   T   T   T
  0.4769539177197722  0.9525945025577222  0.1116562751719745   T   T   T
  0.4759976323567705  0.0952213730399484  0.1107546908232611   T   T   T
  0.4743897722504634  0.2371552180128526  0.1094417763975432   T   T   T
  0.4922401287534207  0.6687404792488953  0.1022974652647807   T   T   T
  0.4784670116520244  0.8098415255769337  0.1118859736637424   T   T   T
  0.6201917120403073  0.9547889436734224  0.1123268483653153   T   T   T
  0.6194366989190044  0.0969232413377640  0.1110213577681710   T   T   T
  0.6185857115150029  0.2395152154591329  0.1103259954792792   T   T   T
  0.6170979522095175  0.3830306058216125  0.1095923503203919   T   T   T
  0.6151817110820859  0.5247183596722144  0.1135454524189019   T   T   T
  0.6071538520051358  0.6696622096918444  0.1009961241228901   T   T   T
  0.6214669510898727  0.8139203718418409  0.1116896998456318   T   T   T
  0.7632550912192061  0.9548178621392612  0.1121296370461426   T   T   T
  0.7628250856273178  0.0973588437104129  0.1110464311839237   T   T   T
  0.7621645648627545  0.2398969464648682  0.1110095788421340   T   T   T
  0.7608289684921803  0.3823473451747587  0.1104871681725145   T   T   T
  0.7599162136165171  0.5247239162873688  0.1089171828518728   T   T   T
  0.7551200754419612  0.6664114791786736  0.1072076657572056   T   T   T
  0.7608698136031667  0.8103542664075477  0.1110254139269568   T   T   T
  0.4728096747902898  0.3783190241990062  0.1135242225717585   T   T   T
  0.4687519201058976  0.5139014699925958  0.1476105743462241   T   T   T
  0.5151299356419443  0.4690758371981877  0.1252316270235376   T   T   T
  0.9514215970823268  0.9042333433422622  0.1112898488584013   T   T   T
  0.9525854604153621  0.0481727590276743  0.1112223262102342   T   T   T
  0.9534924664287964  0.1920250137522352  0.1109845754606581   T   T   T
  0.9535027995245460  0.3349366844458179  0.1112384630395660   T   T   T
  0.9529954719086096  0.4773017505954437  0.1111523449456863   T   T   T
  0.9514108648517966  0.6193217360781070  0.1110621646372879   T   T   T
  0.9509073908121608  0.7613531179476541  0.1108150345098762   T   T   T
  0.0944281563087832  0.9035113003037626  0.1110255870969429   T   T   T
  0.0947012483687867  0.0466745486516437  0.1109830204664836   T   T   T
  0.0954886607096907  0.1902827103839260  0.1098747823143723   T   T   T
  0.0971054018427602  0.3343166362243953  0.1100968208533758   T   T   T
  0.0975737323735998  0.4771474146843150  0.1101876443262469   T   T   T
  0.0969138547030432  0.6191997596545095  0.1109894442329984   T   T   T
  0.0951156808005145  0.7611290961588465  0.1110191826399399   T   T   T
  0.2380029619646521  0.9033737534250842  0.1110798725711050   T   T   T
  0.2373115872439694  0.0458463347349091  0.1113019754117326   T   T   T
  0.2377316561152135  0.1890121773181141  0.1093298314530718   T   T   T
  0.2389016658408477  0.3319700231410122  0.1067656750362844   T   T   T
  0.2419230081175948  0.4767960512442700  0.1094152935275478   T   T   T
  0.2429844289033366  0.6191165163241266  0.1089415220591610   T   T   T
  0.2394439733475102  0.7610479884870526  0.1106188701676314   T   T   T
  0.3816212852932556  0.9038338323214323  0.1112871788444657   T   T   T
  0.3806967457068938  0.0463228017749031  0.1111676597783753   T   T   T
  0.3797958431025446  0.1880817372641358  0.1101284008021884   T   T   T
  0.3816192114743343  0.3303233356145160  0.1117029466155662   T   T   T
  0.3813421698136935  0.4719978227151947  0.1239071796047303   T   T   T
  0.3915808121695133  0.6189697255747143  0.1043526225420907   T   T   T
  0.3835344811029001  0.7611449009142588  0.1095257655523315   T   T   T
  0.5250488438449986  0.9056859851738024  0.1125385851220218   T   T   T
  0.5240802937240641  0.0482971870570152  0.1111010820926150   T   T   T
  0.5231431408937430  0.1911046848413369  0.1099762441299059   T   T   T
  0.5197275744553254  0.3334334302694553  0.1090092436045313   T   T   T
  0.5270532691841708  0.7635377474808455  0.1116952718898935   T   T   T
  0.6685134951892355  0.9083771684308786  0.1127628962794485   T   T   T
  0.6675239537827767  0.0499725528521309  0.1112287366349445   T   T   T
  0.6666469059723098  0.1923119378828262  0.1108374349952061   T   T   T
  0.6647487585297087  0.3348047741809985  0.1100387433713560   T   T   T
  0.6643457656977942  0.4776271264779895  0.1091182913692493   T   T   T
  0.6573870992380650  0.6199093880363198  0.1043878542342963   T   T   T
  0.6661314536528194  0.7642379687235512  0.1099570605302441   T   T   T
  0.8096085214073876  0.9059989375974175  0.1122282388161546   T   T   T
  0.8107301584246303  0.0499359906151930  0.1111957386053146   T   T   T
  0.8102883944193273  0.1925763299870879  0.1109232177691327   T   T   T
  0.8093298603973378  0.3350657370375304  0.1111150719464725   T   T   T
  0.8084385773327907  0.4773761408354391  0.1100688278974348   T   T   T
  0.8055881371436627  0.6195978838677644  0.1090619961837719   T   T   T
  0.8071634021693977  0.7617549575320871  0.1092926766080907   T   T   T

  0.00000000E+00  0.00000000E+00  0.00000000E+00
  0.00000000E+00  0.00000000E+00  0.00000000E+00
  0.00000000E+00  0.00000000E+00  0.00000000E+00
  0.00000000E+00  0.00000000E+00  0.00000000E+00
  0.00000000E+00  0.00000000E+00  0.00000000E+00
  0.00000000E+00  0.00000000E+00  0.00000000E+00
  0.00000000E+00  0.00000000E+00  0.00000000E+00
  0.00000000E+00  0.00000000E+00  0.00000000E+00
  0.00000000E+00  0.00000000E+00  0.00000000E+00
  0.00000000E+00  0.00000000E+00  0.00000000E+00
  0.00000000E+00  0.00000000E+00  0.00000000E+00
  0.00000000E+00  0.00000000E+00  0.00000000E+00
  0.00000000E+00  0.00000000E+00  0.00000000E+00
  0.00000000E+00  0.00000000E+00  0.00000000E+00
  0.00000000E+00  0.00000000E+00  0.00000000E+00
  0.00000000E+00  0.00000000E+00  0.00000000E+00
  0.00000000E+00  0.00000000E+00  0.00000000E+00
  0.00000000E+00  0.00000000E+00  0.00000000E+00
  0.00000000E+00  0.00000000E+00  0.00000000E+00
  0.00000000E+00  0.00000000E+00  0.00000000E+00
  0.00000000E+00  0.00000000E+00  0.00000000E+00
  0.00000000E+00  0.00000000E+00  0.00000000E+00
  0.00000000E+00  0.00000000E+00  0.00000000E+00
  0.00000000E+00  0.00000000E+00  0.00000000E+00
  0.00000000E+00  0.00000000E+00  0.00000000E+00
  0.00000000E+00  0.00000000E+00  0.00000000E+00
  0.00000000E+00  0.00000000E+00  0.00000000E+00
  0.00000000E+00  0.00000000E+00  0.00000000E+00
  0.00000000E+00  0.00000000E+00  0.00000000E+00
  0.00000000E+00  0.00000000E+00  0.00000000E+00
  0.00000000E+00  0.00000000E+00  0.00000000E+00
  0.00000000E+00  0.00000000E+00  0.00000000E+00
  0.00000000E+00  0.00000000E+00  0.00000000E+00
  0.00000000E+00  0.00000000E+00  0.00000000E+00
  0.00000000E+00  0.00000000E+00  0.00000000E+00
  0.00000000E+00  0.00000000E+00  0.00000000E+00
  0.00000000E+00  0.00000000E+00  0.00000000E+00
  0.00000000E+00  0.00000000E+00  0.00000000E+00
  0.00000000E+00  0.00000000E+00  0.00000000E+00
  0.00000000E+00  0.00000000E+00  0.00000000E+00
  0.00000000E+00  0.00000000E+00  0.00000000E+00
  0.00000000E+00  0.00000000E+00  0.00000000E+00
  0.00000000E+00  0.00000000E+00  0.00000000E+00
  0.00000000E+00  0.00000000E+00  0.00000000E+00
  0.00000000E+00  0.00000000E+00  0.00000000E+00
  0.00000000E+00  0.00000000E+00  0.00000000E+00
  0.00000000E+00  0.00000000E+00  0.00000000E+00
  0.00000000E+00  0.00000000E+00  0.00000000E+00
  0.00000000E+00  0.00000000E+00  0.00000000E+00
  0.00000000E+00  0.00000000E+00  0.00000000E+00
  0.00000000E+00  0.00000000E+00  0.00000000E+00
  0.00000000E+00  0.00000000E+00  0.00000000E+00
  0.00000000E+00  0.00000000E+00  0.00000000E+00
  0.00000000E+00  0.00000000E+00  0.00000000E+00
  0.00000000E+00  0.00000000E+00  0.00000000E+00
  0.00000000E+00  0.00000000E+00  0.00000000E+00
  0.00000000E+00  0.00000000E+00  0.00000000E+00
  0.00000000E+00  0.00000000E+00  0.00000000E+00
  0.00000000E+00  0.00000000E+00  0.00000000E+00
  0.00000000E+00  0.00000000E+00  0.00000000E+00
  0.00000000E+00  0.00000000E+00  0.00000000E+00
  0.00000000E+00  0.00000000E+00  0.00000000E+00
  0.00000000E+00  0.00000000E+00  0.00000000E+00
  0.00000000E+00  0.00000000E+00  0.00000000E+00
  0.00000000E+00  0.00000000E+00  0.00000000E+00
  0.00000000E+00  0.00000000E+00  0.00000000E+00
  0.00000000E+00  0.00000000E+00  0.00000000E+00
  0.00000000E+00  0.00000000E+00  0.00000000E+00
  0.00000000E+00  0.00000000E+00  0.00000000E+00
  0.00000000E+00  0.00000000E+00  0.00000000E+00
  0.00000000E+00  0.00000000E+00  0.00000000E+00
  0.00000000E+00  0.00000000E+00  0.00000000E+00
  0.00000000E+00  0.00000000E+00  0.00000000E+00
  0.00000000E+00  0.00000000E+00  0.00000000E+00
  0.00000000E+00  0.00000000E+00  0.00000000E+00
  0.00000000E+00  0.00000000E+00  0.00000000E+00
  0.00000000E+00  0.00000000E+00  0.00000000E+00
  0.00000000E+00  0.00000000E+00  0.00000000E+00
  0.00000000E+00  0.00000000E+00  0.00000000E+00
  0.00000000E+00  0.00000000E+00  0.00000000E+00
  0.00000000E+00  0.00000000E+00  0.00000000E+00
  0.00000000E+00  0.00000000E+00  0.00000000E+00
  0.00000000E+00  0.00000000E+00  0.00000000E+00
  0.00000000E+00  0.00000000E+00  0.00000000E+00
  0.00000000E+00  0.00000000E+00  0.00000000E+00
  0.00000000E+00  0.00000000E+00  0.00000000E+00
  0.00000000E+00  0.00000000E+00  0.00000000E+00
  0.00000000E+00  0.00000000E+00  0.00000000E+00
  0.00000000E+00  0.00000000E+00  0.00000000E+00
  0.00000000E+00  0.00000000E+00  0.00000000E+00
  0.00000000E+00  0.00000000E+00  0.00000000E+00
  0.00000000E+00  0.00000000E+00  0.00000000E+00
  0.00000000E+00  0.00000000E+00  0.00000000E+00
  0.00000000E+00  0.00000000E+00  0.00000000E+00
  0.00000000E+00  0.00000000E+00  0.00000000E+00
  0.00000000E+00  0.00000000E+00  0.00000000E+00
  0.00000000E+00  0.00000000E+00  0.00000000E+00
