Species order: X N B                    
   2.51242800000000     
     5.9449720136058266    0.0000000000000000    0.0000000000000000
    -2.9724860068029120    5.1484967885702053   -0.0000000000000001
     0.0000000000000000    0.0000000000000009    5.3101128803662583
   C    N    B 
     1   143   143
Direct
  0.5533758018940730  0.4433545676137043  0.3750000000000000
  0.1111648101443589  0.0555896956258087  0.1253095929673275
  0.6111494987796217  0.5556216784034406  0.1240602711576953
  0.4444953780559493  0.0555766806836607  0.1251548991416438
  0.9444822803884898  0.5555714806973390  0.1249752114510897
  0.7778415758797010  0.0555874546065186  0.1250381730480478
  0.1111486505700203  0.7222409919516730  0.6249619708302965
  0.4444953780559493  0.7222520307056248  0.6248451008583564
  0.2778179811101585  0.2222550651721060  0.6241236657748150
  0.7778221195956053  0.7222632474343604  0.6252247511839131
  0.6111659713411471  0.2222195780073420  0.6251208158357796
  0.9445040009365127  0.2222487867280604  0.6249284352947622
  0.2778211642544842  0.7222394395322760  0.1250804211601293
  0.1111551950921634  0.2222442642127458  0.1254196886722855
  0.4444938357104059  0.2222396360728124  0.1253748095222897
  0.6111659713411471  0.7222797266671336  0.1248791841642192
  0.9444822803884898  0.7222441330244865  0.1249752114510897
  0.7778404915691377  0.2222362577259777  0.1249861840000315
  0.1111559639428330  0.8889177442689712  0.6248999046354701
  0.4444933573475420  0.8889133453404309  0.6249717829596093
  0.2778179811101585  0.3888962492713821  0.6241236657748150
  0.6111494987796217  0.3888611537095029  0.6259397288423058
  0.7778404915691377  0.8889375671764882  0.6250138159999690
  0.9444979193481845  0.3889082290379065  0.6249512542837864
  0.1111648101443589  0.3889084478518791  0.1253095929673275
  0.2778211642544842  0.8889150580555365  0.1250804211601293
  0.6111655133976025  0.8889266715245383  0.1250510749206351
  0.4444622631426055  0.3888977982379631  0.1244695154080176
  0.9444979193481845  0.8889230236436070  0.1250487457162132
  0.7778221195956053  0.3888922054945744  0.1247752488160874
  0.2778295908266652  0.5555691920473799  0.6245344459814767
  0.1111648101443589  0.0555896956258087  0.6246904070326721
  0.6111494987796217  0.5556216784034406  0.6259397288423058
  0.4444953780559493  0.0555766806836607  0.6248451008583564
  0.9444822803884898  0.5555714806973390  0.6250247885489106
  0.1111559639428330  0.5555715530071984  0.1251000953645292
  0.7778415758797010  0.0555874546065186  0.6249618269519525
  0.2778295908266652  0.0555937321126136  0.1254655540185245
  0.4444938357104059  0.5555875329709300  0.1253748095222897
  0.7778102799295007  0.5555718066314214  0.1245260713474124
  0.6111655133976025  0.0555721752063923  0.1250510749206351
  0.4444938357104059  0.5555875329709300  0.6246251904777099
  0.9445040009365127  0.0555885475417875  0.1250715647052369
  0.2778211642544842  0.7222394395322760  0.6249195788398707
  0.1111551950921634  0.2222442642127458  0.6245803113277141
  0.4444938357104059  0.2222396360728126  0.6246251904777099
  0.6111659713411471  0.7222797266671336  0.6251208158357796
  0.9444822803884898  0.7222441330244865  0.6250247885489106
  0.7778404915691377  0.2222362577259777  0.6250138159999690
  0.1111486505700203  0.7222409919516730  0.1250380291697039
  0.4444953780559493  0.7222520307056248  0.1251548991416438
  0.2778179811101585  0.2222550651721060  0.1258763342251842
  0.7778221195956053  0.7222632474343604  0.1247752488160874
  0.6111659713411471  0.2222195780073420  0.1248791841642192
  0.9445040009365127  0.2222487867280604  0.1250715647052369
  0.1111648101443589  0.3889084478518791  0.6246904070326721
  0.2778211642544842  0.8889150580555365  0.6249195788398707
  0.6111655133976025  0.8889266715245383  0.6249489250793639
  0.4444622631426055  0.3888977982379631  0.6255304845919835
  0.9444979193481845  0.8889230236436070  0.6249512542837864
  0.1111559639428330  0.8889177442689712  0.1251000953645292
  0.7778221195956053  0.3888922054945744  0.6252247511839131
  0.4444933573475420  0.8889133453404309  0.1250282170403909
  0.2778179811101585  0.3888962492713821  0.1258763342251842
  0.2778295908266652  0.5555691920473799  0.1254655540185245
  0.6111494987796217  0.3888611537095029  0.1240602711576952
  0.7778404915691377  0.8889375671764882  0.1249861840000315
  0.9444979193481845  0.3889082290379065  0.1250487457162132
  0.1111559639428330  0.5555715530071984  0.6248999046354701
  0.2778295908266652  0.0555937321126136  0.6245344459814767
  0.7778102799295007  0.5555718066314214  0.6254739286525867
  0.6111655133976025  0.0555721752063923  0.6249489250793639
  0.9445040009365127  0.0555885475417875  0.6249284352947622
  0.0565827599593604  0.1116673872020293  0.3750000000000000
  0.5556169825685660  0.6158287880380036  0.3750000000000000
  0.3886716785235359  0.1095030541047292  0.3750000000000000
  0.8867952697479174  0.6100643015406264  0.3750000000000000
  0.7228875288611585  0.1110713890663922  0.3750000000000000
  0.0555607600330166  0.7777811467776562  0.8750000000000000
  0.3888885413672200  0.7777799614742852  0.8750000000000000
  0.2222248262798272  0.2777790798065816  0.8750000000000000
  0.7222259231419900  0.7777818544556531  0.8750000000000000
  0.5555542931304767  0.2777722553208030  0.8750000000000000
  0.8888955223369588  0.2777826026884074  0.8750000000000000
  0.2213699026293506  0.7773516179813431  0.3750000000000000
  0.0565827599593604  0.2782487060906598  0.3750000000000000
  0.3907379411197637  0.2755819738015111  0.3750000000000000
  0.5556123991863738  0.7795820149097463  0.3750000000000000
  0.8879261812384714  0.7772866501954602  0.3750000000000000
  0.7226623859696782  0.2769656389580051  0.3750000000000000
  0.0555597308026388  0.9444456363917717  0.8750000000000000
  0.3888885413672200  0.9444419132262777  0.8750000000000000
  0.2222241316695603  0.4444474333494328  0.8750000000000000
  0.5555554805049964  0.4444444069191625  0.8750000000000000
  0.7222227122425324  0.9444456416617675  0.8750000000000000
  0.8888966347402120  0.4444481289204380  0.8750000000000000
  0.0557043515926428  0.4444505873003975  0.3750000000000000
  0.2217262531727852  0.9440134668242997  0.3750000000000000
  0.5555897145265514  0.9444615239299395  0.3750000000000000
  0.3907379411197637  0.4484893006515885  0.3750000000000000
  0.8895928549391234  0.9450363286307475  0.3750000000000000
  0.7194612011557846  0.4427828351626101  0.3750000000000000
  0.2222236723097717  0.6111119736831317  0.8750000000000000
  0.0555597276864489  0.1111117103274654  0.8750000000000000
  0.5555542931304767  0.6111153711430105  0.8750000000000000
  0.3888887947258745  0.1111056233388356  0.8750000000000000
  0.8888990460307632  0.6111161896820534  0.8750000000000000
  0.0544666293593355  0.6106367924702142  0.3750000000000000
  0.7222227122425324  0.1111104039140990  0.8750000000000000
  0.2235239640089667  0.1120303653798258  0.3750000000000000
  0.3886716785235359  0.6125019577521575  0.3750000000000000
  0.7194612011557846  0.6100116993265163  0.3750000000000000
  0.5556123991863738  0.1093637176099641  0.3750000000000000
  0.3888887947258744  0.6111165047203793  0.8750000000000000
  0.8898874367045013  0.1116103850189186  0.3750000000000000
  0.2222239855599620  0.7777786594466536  0.8750000000000000
  0.0555597276864489  0.2777813506923124  0.8750000000000000
  0.3888887193110676  0.2777726092682052  0.8750000000000000
  0.5555540497551185  0.7777812438088412  0.8750000000000000
  0.8888966347402120  0.7777818391531099  0.8750000000000000
  0.7222259231419900  0.2777774020196741  0.8750000000000000
  0.0544666293593355  0.7771631702224595  0.3750000000000000
  0.3883668980799430  0.7780445661528284  0.3750000000000000
  0.2234043597223705  0.2783688465278531  0.3750000000000000
  0.7226623859696782  0.7790300803450075  0.3750000000000000
  0.5556169825685660  0.2731215278638989  0.3750000000000000
  0.8895928549391234  0.2778898596417118  0.3750000000000000
  0.0555597308026388  0.4444474277441963  0.8750000000000000
  0.2222236723097717  0.9444450319599741  0.8750000000000000
  0.5555529521516830  0.9444431427425062  0.8750000000000000
  0.3888887193110676  0.4444494433761906  0.8750000000000000
  0.8888955223369588  0.9444462529818871  0.8750000000000000
  0.0557043515926428  0.9445870976255818  0.3750000000000000
  0.7222277084448356  0.4444465480438980  0.8750000000000000
  0.3883668980799430  0.9436556652604506  0.3750000000000000
  0.2235239640089667  0.4448269319624760  0.3750000000000000
  0.2217262531727852  0.6110461196818225  0.3750000000000000
  0.7228875288611585  0.9451494731281015  0.3750000000000000
  0.8879261812384714  0.4439728643763453  0.3750000000000000
  0.0555607600330166  0.6111129465886961  0.8750000000000000
  0.2222241316695603  0.1111100316534632  0.8750000000000000
  0.7222277084448356  0.6111144937342757  0.8750000000000000
  0.5555540497551185  0.1111061392796108  0.8750000000000000
  0.8888941657595626  0.1111137495464494  0.8750000000000000
  0.1119507655399079  0.0560083197301577  0.3750000000000000
  0.6061478898128052  0.5566204357395282  0.3750000000000000
  0.4444382953547359  0.0543904645769685  0.3750000000000000
  0.9430141447811476  0.5550471868796141  0.3750000000000000
  0.7787517835176279  0.0560425584254815  0.3750000000000000
  0.1111113303477863  0.7222223318405573  0.8750000000000000
  0.4444430896980492  0.7222096722055533  0.8750000000000000
  0.2778072328932777  0.2222430228291317  0.8750000000000000
  0.7777653542292015  0.7222005322443875  0.8750000000000000
  0.6111018644982247  0.2222375181934017  0.8750000000000000
  0.9444550021982030  0.2222303008430946  0.8750000000000000
  0.2772414406862723  0.7222133168088937  0.3750000000000000
  0.1121833584832106  0.2227583459082663  0.3750000000000000
  0.4460009190233303  0.2206121512712938  0.3750000000000000
  0.6119217136634679  0.7254723529424599  0.3750000000000000
  0.9430141447811476  0.7213002912348689  0.3750000000000000
  0.7785658583041776  0.2221263226517132  0.3750000000000000
  0.1111162123118703  0.8888926668391912  0.8750000000000000
  0.4444422361927852  0.8888877847630532  0.8750000000000000
  0.2778072328932777  0.3888975433974748  0.8750000000000000
  0.6110946511230082  0.3888999118992430  0.8750000000000000
  0.7777752546502668  0.8888764401636103  0.8750000000000000
  0.9444472895989446  0.3888985875057486  0.8750000000000000
  0.1119507655399079  0.3892757791430789  0.3750000000000000
  0.2772414406862723  0.8883614572107070  0.3750000000000000
  0.6117073707364361  0.8900740477175461  0.3750000000000000
  0.9443589786044135  0.8887624799526312  0.3750000000000000
  0.7764101347594010  0.3881393052802758  0.3750000000000000
  0.2777912311516496  0.5555525505497151  0.8750000000000000
  0.1111271846897289  0.0555631828186345  0.8750000000000000
  0.6110946511230082  0.5555280725570942  0.8750000000000000
  0.4444430896980492  0.0555667508258235  0.8750000000000000
  0.9444384478041310  0.5555579405871173  0.8750000000000000
  0.1104837156472492  0.5554352043557461  0.3750000000000000
  0.7777794632198892  0.0555563982766123  0.8750000000000000
  0.2778234552077021  0.0550697136501627  0.3750000000000000
  0.4460009190233305  0.5587221010853728  0.3750000000000000
  0.7748701663513743  0.5541017498423549  0.3750000000000000
  0.6117073707364361  0.0549666563522166  0.3750000000000000
  0.4444500178664992  0.5555410687306978  0.8750000000000000
  0.9453647475154202  0.0560718820619272  0.3750000000000000
  0.2777782717392652  0.7222191011738126  0.8750000000000000
  0.1111369159980956  0.2222351246657125  0.8750000000000000
  0.4444500178664992  0.2222422824691379  0.8750000000000000
  0.6111018644982247  0.7221976796381460  0.8750000000000000
  0.9444384478041310  0.7222138405503488  0.8750000000000000
  0.7777752546502668  0.2222321478199777  0.8750000000000000
  0.1101414372991454  0.7217373853162373  0.3750000000000000
  0.4444382953547359  0.7233811641111033  0.3750000000000000
  0.2799264674494246  0.2242662847082904  0.3750000000000000
  0.7764101347594010  0.7216041628124532  0.3750000000000000
  0.6119217136634680  0.2197826940543366  0.3750000000000000
  0.9453647475154202  0.2226261987868269  0.3750000000000000
  0.1111271846897289  0.3888973352044228  0.8750000000000000
  0.2777782717392652  0.8888925038987809  0.8750000000000000
  0.6111035272708678  0.8888780453438851  0.8750000000000000
  0.4444632026389125  0.3888982679861204  0.8750000000000000
  0.9444472895989446  0.8888820354265260  0.8750000000000000
  0.1104837156472492  0.8883818446248303  0.3750000000000000
  0.7777653542292015  0.3888981553181445  0.8750000000000000
  0.4443353618628898  0.8888343475981122  0.3750000000000000
  0.2799264674494246  0.3889935160744550  0.3750000000000000
  0.2778234552077021  0.5560870748908827  0.3750000000000000
  0.6061478898128052  0.3828607874066056  0.3750000000000000
  0.7785658583041776  0.8897728689857950  0.3750000000000000
  0.9443589786044135  0.3889298319851173  0.3750000000000000
  0.1111162123118703  0.5555568788060097  0.8750000000000000
  0.2777912311516496  0.0555720139352767  0.8750000000000000
  0.7777611815600738  0.5555472574467052  0.8750000000000000
  0.6111035272708678  0.0555588152603097  0.8750000000000000
  0.9444550021982030  0.0555580346884357  0.8750000000000000
  0.0556279836527063  0.1111581138588552  0.1251858803314084
  0.5555961129627420  0.6110689385717215  0.1247644982399942
  0.3889825170343859  0.1112293476692786  0.1253605516742202
  0.8888595633168119  0.6110964483250769  0.1248418986253586
  0.7222781697054139  0.1111413550106192  0.1249785777366396
  0.0555718676823872  0.7777902451760444  0.6250005994020621
  0.3889475791356766  0.7777879696105946  0.6249730965524224
  0.2223332173165495  0.2778332753249386  0.6242615906670629
  0.7222556137820922  0.7777877212671821  0.6251748184043212
  0.5555961129627420  0.2778605077243632  0.6252355017600059
  0.8889386437508253  0.2778009117895298  0.6250136629511712
  0.2222586927759523  0.7777960130546449  0.1250002546782652
  0.0556279836527063  0.2778032031271861  0.1251858803314084
  0.3890342761399655  0.2779768661369624  0.1257298251628872
  0.5556093239548779  0.7777890771933625  0.1249841113301790
  0.8889002599750868  0.7777818826324954  0.1249211384111472
  0.7222556137820922  0.2778012258482452  0.1248251815956866
  0.0556075256233153  0.9444872380795910  0.6249106225423631
  0.3889475791356766  0.9444929428584151  0.6249730965524224
  0.2223183066574807  0.4444369858817426  0.6244589226651841
  0.5554895774939584  0.4444114554136435  0.6249712475834218
  0.7222781697054139  0.9444701480281318  0.6250214222633599
  0.8889002599750868  0.4444517106759268  0.6250788615888525
  0.0556075256233153  0.4444536208770464  0.1250893774576358
  0.2222786753151522  0.9444997568749007  0.1251442437700441
  0.5556058993569539  0.9444696163451450  0.1249977124534368
  0.3890342761399655  0.4443907433363459  0.1257298251628872
  0.8889386437508253  0.9444710652946307  0.1249863370488278
  0.7221632116528509  0.4444246032100462  0.1244761951670468
  0.2222786753151522  0.6111122517735871  0.6248557562299558
  0.0556279836527063  0.1111581138588552  0.6248141196685915
  0.5555961129627420  0.6110689385717215  0.6252355017600059
  0.3889825170343859  0.1112293476692786  0.6246394483257798
  0.8888595633168119  0.6110964483250769  0.6251581013746415
  0.0555718676823872  0.6111149558396778  0.1249994005979372
  0.7222781697054139  0.1111413550106192  0.6250214222633599
  0.2223183066574807  0.1112146541090732  0.1255410773348173
  0.3889825170343859  0.6110865026984504  0.1253605516742202
  0.7221632116528509  0.6110719417761400  0.1244761951670468
  0.5556093239548779  0.1111535800948483  0.1249841113301790
  0.3889825170343859  0.6110865026984504  0.6246394483257798
  0.8889501829698403  0.1111417581515947  0.1249990945932706
  0.2222586927759523  0.7777960130546449  0.6249997453217337
  0.0556279836527063  0.2778032031271861  0.6248141196685915
  0.3890342761399655  0.2779768661369624  0.6242701748371129
  0.5556093239548779  0.7777890771933625  0.6250158886698217
  0.8889002599750868  0.7777818826324954  0.6250788615888525
  0.7222556137820922  0.2778012258482452  0.6251748184043212
  0.0555718676823872  0.7777902451760444  0.1249994005979372
  0.3889475791356766  0.7777879696105946  0.1250269034475782
  0.2223332173165495  0.2778332753249386  0.1257384093329380
  0.7222556137820922  0.7777877212671821  0.1248251815956866
  0.5555961129627420  0.2778605077243632  0.1247644982399942
  0.8889386437508253  0.2778009117895298  0.1249863370488278
  0.0556075256233154  0.4444536208770464  0.6249106225423631
  0.2222786753151522  0.9444997568749007  0.6248557562299558
  0.5556058993569539  0.9444696163451450  0.6250022875465632
  0.3890342761399655  0.4443907433363459  0.6242701748371129
  0.8889386437508253  0.9444710652946307  0.6250136629511712
  0.0556075256233153  0.9444872380795910  0.1250893774576358
  0.7221632116528509  0.4444246032100462  0.6255238048329524
  0.3889475791356766  0.9444929428584151  0.1250269034475782
  0.2223183066574807  0.4444369858817426  0.1255410773348173
  0.2222786753151522  0.6111122517735871  0.1251442437700441
  0.5554895774939584  0.4444114554136435  0.1250287524165793
  0.7222781697054139  0.9444701480281318  0.1249785777366396
  0.8889002599750868  0.4444517106759268  0.1249211384111472
  0.0555718676823872  0.6111149558396778  0.6250005994020621
  0.2223183066574807  0.1112146541090732  0.6244589226651841
  0.7221632116528509  0.6110719417761400  0.6255238048329524
  0.5556093239548779  0.1111535800948483  0.6250158886698217
  0.8889501829698402  0.1111417581515947  0.6250009054067298
 
  0.00000000E+00  0.00000000E+00  0.00000000E+00
  0.00000000E+00  0.00000000E+00  0.00000000E+00
  0.00000000E+00  0.00000000E+00  0.00000000E+00
  0.00000000E+00  0.00000000E+00  0.00000000E+00
  0.00000000E+00  0.00000000E+00  0.00000000E+00
  0.00000000E+00  0.00000000E+00  0.00000000E+00
  0.00000000E+00  0.00000000E+00  0.00000000E+00
  0.00000000E+00  0.00000000E+00  0.00000000E+00
  0.00000000E+00  0.00000000E+00  0.00000000E+00
  0.00000000E+00  0.00000000E+00  0.00000000E+00
  0.00000000E+00  0.00000000E+00  0.00000000E+00
  0.00000000E+00  0.00000000E+00  0.00000000E+00
  0.00000000E+00  0.00000000E+00  0.00000000E+00
  0.00000000E+00  0.00000000E+00  0.00000000E+00
  0.00000000E+00  0.00000000E+00  0.00000000E+00
  0.00000000E+00  0.00000000E+00  0.00000000E+00
  0.00000000E+00  0.00000000E+00  0.00000000E+00
  0.00000000E+00  0.00000000E+00  0.00000000E+00
  0.00000000E+00  0.00000000E+00  0.00000000E+00
  0.00000000E+00  0.00000000E+00  0.00000000E+00
  0.00000000E+00  0.00000000E+00  0.00000000E+00
  0.00000000E+00  0.00000000E+00  0.00000000E+00
  0.00000000E+00  0.00000000E+00  0.00000000E+00
  0.00000000E+00  0.00000000E+00  0.00000000E+00
  0.00000000E+00  0.00000000E+00  0.00000000E+00
  0.00000000E+00  0.00000000E+00  0.00000000E+00
  0.00000000E+00  0.00000000E+00  0.00000000E+00
  0.00000000E+00  0.00000000E+00  0.00000000E+00
  0.00000000E+00  0.00000000E+00  0.00000000E+00
  0.00000000E+00  0.00000000E+00  0.00000000E+00
  0.00000000E+00  0.00000000E+00  0.00000000E+00
  0.00000000E+00  0.00000000E+00  0.00000000E+00
  0.00000000E+00  0.00000000E+00  0.00000000E+00
  0.00000000E+00  0.00000000E+00  0.00000000E+00
  0.00000000E+00  0.00000000E+00  0.00000000E+00
  0.00000000E+00  0.00000000E+00  0.00000000E+00
  0.00000000E+00  0.00000000E+00  0.00000000E+00
  0.00000000E+00  0.00000000E+00  0.00000000E+00
  0.00000000E+00  0.00000000E+00  0.00000000E+00
  0.00000000E+00  0.00000000E+00  0.00000000E+00
  0.00000000E+00  0.00000000E+00  0.00000000E+00
  0.00000000E+00  0.00000000E+00  0.00000000E+00
  0.00000000E+00  0.00000000E+00  0.00000000E+00
  0.00000000E+00  0.00000000E+00  0.00000000E+00
  0.00000000E+00  0.00000000E+00  0.00000000E+00
  0.00000000E+00  0.00000000E+00  0.00000000E+00
  0.00000000E+00  0.00000000E+00  0.00000000E+00
  0.00000000E+00  0.00000000E+00  0.00000000E+00
  0.00000000E+00  0.00000000E+00  0.00000000E+00
  0.00000000E+00  0.00000000E+00  0.00000000E+00
  0.00000000E+00  0.00000000E+00  0.00000000E+00
  0.00000000E+00  0.00000000E+00  0.00000000E+00
  0.00000000E+00  0.00000000E+00  0.00000000E+00
  0.00000000E+00  0.00000000E+00  0.00000000E+00
  0.00000000E+00  0.00000000E+00  0.00000000E+00
  0.00000000E+00  0.00000000E+00  0.00000000E+00
  0.00000000E+00  0.00000000E+00  0.00000000E+00
  0.00000000E+00  0.00000000E+00  0.00000000E+00
  0.00000000E+00  0.00000000E+00  0.00000000E+00
  0.00000000E+00  0.00000000E+00  0.00000000E+00
  0.00000000E+00  0.00000000E+00  0.00000000E+00
  0.00000000E+00  0.00000000E+00  0.00000000E+00
  0.00000000E+00  0.00000000E+00  0.00000000E+00
  0.00000000E+00  0.00000000E+00  0.00000000E+00
  0.00000000E+00  0.00000000E+00  0.00000000E+00
  0.00000000E+00  0.00000000E+00  0.00000000E+00
  0.00000000E+00  0.00000000E+00  0.00000000E+00
  0.00000000E+00  0.00000000E+00  0.00000000E+00
  0.00000000E+00  0.00000000E+00  0.00000000E+00
  0.00000000E+00  0.00000000E+00  0.00000000E+00
  0.00000000E+00  0.00000000E+00  0.00000000E+00
  0.00000000E+00  0.00000000E+00  0.00000000E+00
  0.00000000E+00  0.00000000E+00  0.00000000E+00
  0.00000000E+00  0.00000000E+00  0.00000000E+00
  0.00000000E+00  0.00000000E+00  0.00000000E+00
  0.00000000E+00  0.00000000E+00  0.00000000E+00
  0.00000000E+00  0.00000000E+00  0.00000000E+00
  0.00000000E+00  0.00000000E+00  0.00000000E+00
  0.00000000E+00  0.00000000E+00  0.00000000E+00
  0.00000000E+00  0.00000000E+00  0.00000000E+00
  0.00000000E+00  0.00000000E+00  0.00000000E+00
  0.00000000E+00  0.00000000E+00  0.00000000E+00
  0.00000000E+00  0.00000000E+00  0.00000000E+00
  0.00000000E+00  0.00000000E+00  0.00000000E+00
  0.00000000E+00  0.00000000E+00  0.00000000E+00
  0.00000000E+00  0.00000000E+00  0.00000000E+00
  0.00000000E+00  0.00000000E+00  0.00000000E+00
  0.00000000E+00  0.00000000E+00  0.00000000E+00
  0.00000000E+00  0.00000000E+00  0.00000000E+00
  0.00000000E+00  0.00000000E+00  0.00000000E+00
  0.00000000E+00  0.00000000E+00  0.00000000E+00
  0.00000000E+00  0.00000000E+00  0.00000000E+00
  0.00000000E+00  0.00000000E+00  0.00000000E+00
  0.00000000E+00  0.00000000E+00  0.00000000E+00
  0.00000000E+00  0.00000000E+00  0.00000000E+00
  0.00000000E+00  0.00000000E+00  0.00000000E+00
  0.00000000E+00  0.00000000E+00  0.00000000E+00
  0.00000000E+00  0.00000000E+00  0.00000000E+00
  0.00000000E+00  0.00000000E+00  0.00000000E+00
  0.00000000E+00  0.00000000E+00  0.00000000E+00
  0.00000000E+00  0.00000000E+00  0.00000000E+00
  0.00000000E+00  0.00000000E+00  0.00000000E+00
  0.00000000E+00  0.00000000E+00  0.00000000E+00
  0.00000000E+00  0.00000000E+00  0.00000000E+00
  0.00000000E+00  0.00000000E+00  0.00000000E+00
  0.00000000E+00  0.00000000E+00  0.00000000E+00
  0.00000000E+00  0.00000000E+00  0.00000000E+00
  0.00000000E+00  0.00000000E+00  0.00000000E+00
  0.00000000E+00  0.00000000E+00  0.00000000E+00
  0.00000000E+00  0.00000000E+00  0.00000000E+00
  0.00000000E+00  0.00000000E+00  0.00000000E+00
  0.00000000E+00  0.00000000E+00  0.00000000E+00
  0.00000000E+00  0.00000000E+00  0.00000000E+00
  0.00000000E+00  0.00000000E+00  0.00000000E+00
  0.00000000E+00  0.00000000E+00  0.00000000E+00
  0.00000000E+00  0.00000000E+00  0.00000000E+00
  0.00000000E+00  0.00000000E+00  0.00000000E+00
  0.00000000E+00  0.00000000E+00  0.00000000E+00
  0.00000000E+00  0.00000000E+00  0.00000000E+00
  0.00000000E+00  0.00000000E+00  0.00000000E+00
  0.00000000E+00  0.00000000E+00  0.00000000E+00
  0.00000000E+00  0.00000000E+00  0.00000000E+00
  0.00000000E+00  0.00000000E+00  0.00000000E+00
  0.00000000E+00  0.00000000E+00  0.00000000E+00
  0.00000000E+00  0.00000000E+00  0.00000000E+00
  0.00000000E+00  0.00000000E+00  0.00000000E+00
  0.00000000E+00  0.00000000E+00  0.00000000E+00
  0.00000000E+00  0.00000000E+00  0.00000000E+00
  0.00000000E+00  0.00000000E+00  0.00000000E+00
  0.00000000E+00  0.00000000E+00  0.00000000E+00
  0.00000000E+00  0.00000000E+00  0.00000000E+00
  0.00000000E+00  0.00000000E+00  0.00000000E+00
  0.00000000E+00  0.00000000E+00  0.00000000E+00
  0.00000000E+00  0.00000000E+00  0.00000000E+00
  0.00000000E+00  0.00000000E+00  0.00000000E+00
  0.00000000E+00  0.00000000E+00  0.00000000E+00
  0.00000000E+00  0.00000000E+00  0.00000000E+00
  0.00000000E+00  0.00000000E+00  0.00000000E+00
  0.00000000E+00  0.00000000E+00  0.00000000E+00
  0.00000000E+00  0.00000000E+00  0.00000000E+00
  0.00000000E+00  0.00000000E+00  0.00000000E+00
  0.00000000E+00  0.00000000E+00  0.00000000E+00
  0.00000000E+00  0.00000000E+00  0.00000000E+00
  0.00000000E+00  0.00000000E+00  0.00000000E+00
  0.00000000E+00  0.00000000E+00  0.00000000E+00
  0.00000000E+00  0.00000000E+00  0.00000000E+00
  0.00000000E+00  0.00000000E+00  0.00000000E+00
  0.00000000E+00  0.00000000E+00  0.00000000E+00
  0.00000000E+00  0.00000000E+00  0.00000000E+00
  0.00000000E+00  0.00000000E+00  0.00000000E+00
  0.00000000E+00  0.00000000E+00  0.00000000E+00
  0.00000000E+00  0.00000000E+00  0.00000000E+00
  0.00000000E+00  0.00000000E+00  0.00000000E+00
  0.00000000E+00  0.00000000E+00  0.00000000E+00
  0.00000000E+00  0.00000000E+00  0.00000000E+00
  0.00000000E+00  0.00000000E+00  0.00000000E+00
  0.00000000E+00  0.00000000E+00  0.00000000E+00
  0.00000000E+00  0.00000000E+00  0.00000000E+00
  0.00000000E+00  0.00000000E+00  0.00000000E+00
  0.00000000E+00  0.00000000E+00  0.00000000E+00
  0.00000000E+00  0.00000000E+00  0.00000000E+00
  0.00000000E+00  0.00000000E+00  0.00000000E+00
  0.00000000E+00  0.00000000E+00  0.00000000E+00
  0.00000000E+00  0.00000000E+00  0.00000000E+00
  0.00000000E+00  0.00000000E+00  0.00000000E+00
  0.00000000E+00  0.00000000E+00  0.00000000E+00
  0.00000000E+00  0.00000000E+00  0.00000000E+00
  0.00000000E+00  0.00000000E+00  0.00000000E+00
  0.00000000E+00  0.00000000E+00  0.00000000E+00
  0.00000000E+00  0.00000000E+00  0.00000000E+00
  0.00000000E+00  0.00000000E+00  0.00000000E+00
  0.00000000E+00  0.00000000E+00  0.00000000E+00
  0.00000000E+00  0.00000000E+00  0.00000000E+00
  0.00000000E+00  0.00000000E+00  0.00000000E+00
  0.00000000E+00  0.00000000E+00  0.00000000E+00
  0.00000000E+00  0.00000000E+00  0.00000000E+00
  0.00000000E+00  0.00000000E+00  0.00000000E+00
  0.00000000E+00  0.00000000E+00  0.00000000E+00
  0.00000000E+00  0.00000000E+00  0.00000000E+00
  0.00000000E+00  0.00000000E+00  0.00000000E+00
  0.00000000E+00  0.00000000E+00  0.00000000E+00
  0.00000000E+00  0.00000000E+00  0.00000000E+00
  0.00000000E+00  0.00000000E+00  0.00000000E+00
  0.00000000E+00  0.00000000E+00  0.00000000E+00
  0.00000000E+00  0.00000000E+00  0.00000000E+00
  0.00000000E+00  0.00000000E+00  0.00000000E+00
  0.00000000E+00  0.00000000E+00  0.00000000E+00
  0.00000000E+00  0.00000000E+00  0.00000000E+00
  0.00000000E+00  0.00000000E+00  0.00000000E+00
  0.00000000E+00  0.00000000E+00  0.00000000E+00
  0.00000000E+00  0.00000000E+00  0.00000000E+00
  0.00000000E+00  0.00000000E+00  0.00000000E+00
  0.00000000E+00  0.00000000E+00  0.00000000E+00
  0.00000000E+00  0.00000000E+00  0.00000000E+00
  0.00000000E+00  0.00000000E+00  0.00000000E+00
  0.00000000E+00  0.00000000E+00  0.00000000E+00
  0.00000000E+00  0.00000000E+00  0.00000000E+00
  0.00000000E+00  0.00000000E+00  0.00000000E+00
  0.00000000E+00  0.00000000E+00  0.00000000E+00
  0.00000000E+00  0.00000000E+00  0.00000000E+00
  0.00000000E+00  0.00000000E+00  0.00000000E+00
  0.00000000E+00  0.00000000E+00  0.00000000E+00
  0.00000000E+00  0.00000000E+00  0.00000000E+00
  0.00000000E+00  0.00000000E+00  0.00000000E+00
  0.00000000E+00  0.00000000E+00  0.00000000E+00
  0.00000000E+00  0.00000000E+00  0.00000000E+00
  0.00000000E+00  0.00000000E+00  0.00000000E+00
  0.00000000E+00  0.00000000E+00  0.00000000E+00
  0.00000000E+00  0.00000000E+00  0.00000000E+00
  0.00000000E+00  0.00000000E+00  0.00000000E+00
  0.00000000E+00  0.00000000E+00  0.00000000E+00
  0.00000000E+00  0.00000000E+00  0.00000000E+00
  0.00000000E+00  0.00000000E+00  0.00000000E+00
  0.00000000E+00  0.00000000E+00  0.00000000E+00
  0.00000000E+00  0.00000000E+00  0.00000000E+00
  0.00000000E+00  0.00000000E+00  0.00000000E+00
  0.00000000E+00  0.00000000E+00  0.00000000E+00
  0.00000000E+00  0.00000000E+00  0.00000000E+00
  0.00000000E+00  0.00000000E+00  0.00000000E+00
  0.00000000E+00  0.00000000E+00  0.00000000E+00
  0.00000000E+00  0.00000000E+00  0.00000000E+00
  0.00000000E+00  0.00000000E+00  0.00000000E+00
  0.00000000E+00  0.00000000E+00  0.00000000E+00
  0.00000000E+00  0.00000000E+00  0.00000000E+00
  0.00000000E+00  0.00000000E+00  0.00000000E+00
  0.00000000E+00  0.00000000E+00  0.00000000E+00
  0.00000000E+00  0.00000000E+00  0.00000000E+00
  0.00000000E+00  0.00000000E+00  0.00000000E+00
  0.00000000E+00  0.00000000E+00  0.00000000E+00
  0.00000000E+00  0.00000000E+00  0.00000000E+00
  0.00000000E+00  0.00000000E+00  0.00000000E+00
  0.00000000E+00  0.00000000E+00  0.00000000E+00
  0.00000000E+00  0.00000000E+00  0.00000000E+00
  0.00000000E+00  0.00000000E+00  0.00000000E+00
  0.00000000E+00  0.00000000E+00  0.00000000E+00
  0.00000000E+00  0.00000000E+00  0.00000000E+00
  0.00000000E+00  0.00000000E+00  0.00000000E+00
  0.00000000E+00  0.00000000E+00  0.00000000E+00
  0.00000000E+00  0.00000000E+00  0.00000000E+00
  0.00000000E+00  0.00000000E+00  0.00000000E+00
  0.00000000E+00  0.00000000E+00  0.00000000E+00
  0.00000000E+00  0.00000000E+00  0.00000000E+00
  0.00000000E+00  0.00000000E+00  0.00000000E+00
  0.00000000E+00  0.00000000E+00  0.00000000E+00
  0.00000000E+00  0.00000000E+00  0.00000000E+00
  0.00000000E+00  0.00000000E+00  0.00000000E+00
  0.00000000E+00  0.00000000E+00  0.00000000E+00
  0.00000000E+00  0.00000000E+00  0.00000000E+00