 N B C 
 1.0
 17.527899999999772   0.000000000000000   0.000000000000000
 -8.763949999999658  15.179606674993195   0.000000000000000
  0.000000000000001   0.000000000000002  15.000000000000000
 N B C 
  47  48   2
Cartesian
  8.752269464227577  13.729528499372075   1.665067924695945 
 16.269516083599978   0.730281433499945   1.664901008194320 
 15.022319199574083   2.911844289275284   1.665294725542110 
 13.771989454514442   5.080709053800542   1.665591195300975 
 12.520236726355410   7.244282949756776   1.665105835773900 
 11.252691040498910   9.402988135101152   1.665084834785820 
  9.999117372840594  11.560877252756942   1.665313085612730 
 -6.261572416814274  13.715137859243038   1.664999179395375 
  1.243861160540754   0.701556877868683   1.665045478992585 
 -0.008912135778602   2.879281919350295   1.664816403985560 
 -1.247545750406258   5.067862704787230   1.664968555639890 
 -2.483385273277438   7.239718373699151   1.665094826186865 
 -3.728415572714510   9.399146407193808   1.665180156756690 
 -5.000282527097028  11.554515971824928   1.665079751874990 
 -3.742963666119017  13.711650834227898   1.665076797830040 
  3.757156857029853   0.693052373795245   1.665879079543710 
  2.491205076153062   2.849087592249161   1.664941207326120 
  1.240635056881559   5.025498012999399   1.664760964830960 
  0.035197898746685   7.229930077246745   1.664915292995265 
 -1.170552831196987   9.395944135472911   1.664907638677875 
 -2.470284432671661  11.551486451844019   1.664676651430605 
 -1.228484706638779  13.716997213067877   1.664932368571515 
  6.269640088186083   0.699433748548618   1.665564869107245 
  5.008286488615384   2.853895462651673   1.665300949295910 
  3.734954678581455   4.984828436793579   1.664956592933595 
  2.506386427778216   7.158261871239315   1.665668819227155 
  1.433469780755714   9.393147259662319   1.665414330860160 
  0.056023699571684  11.552640205191526   1.665135720157740 
  1.271815934747552  13.746165524455385   1.665033308030190 
  8.771026529981476   0.723799933453349   1.664773775924025 
  7.513441667398575   2.880175349259244   1.665008674386615 
  6.251369168716444   5.028504179833088   1.664844370797600 
  2.558279059199871  11.598059683745614   1.665178265554905 
  3.757703307149397  13.803460834567364   1.664773712154570 
 11.264755180499645   0.760725339228735   1.665020415669015 
 10.008265443475088   2.914218511807744   1.664968819405080 
  8.744289092917185   5.077714498833399   1.664823674289165 
  7.473974421453971   7.253688748600465   1.664825521491840 
  6.110368208143863   9.447489473564060   1.665109513001220 
  4.977607270889832  11.625529776636492   1.665096408432480 
  6.250021516055638  13.762305920401880   1.665114206751750 
 13.771326644282839   0.762623098615893   1.665036220765035 
 12.515298347347702   2.921848255382157   1.665543507093105 
 11.257836966007693   5.083121768096830   1.665117974183475 
  9.995762975697740   7.246589786599277   1.665036329531235 
  8.699035464887823   9.411749009890872   1.665158173203765 
  7.478653339861174  11.579541965967792   1.665295885465575 
  7.501628056051977  14.462287188835727   1.665237453710175 
 15.023768217153538   1.467237313580207   1.665323302321740 
 13.769961662648262   3.637037234170020   1.666071270052170 
 12.514548452373891   5.801252965755846   1.665519303020895 
 11.253687681616640   7.959898032167498   1.665181827202875 
  9.971615234899996  10.115064525452654   1.665509366509095 
  8.736878429330311  12.280309135195996   1.665645035555880 
 -7.520240111293411  14.437000713726691   1.665103255022055 
 -0.005424348698534   1.435990330734653   1.665096617275980 
 -1.250613380730365   3.622963779474494   1.665268817469630 
 -2.496217474535097   5.796687129632318   1.665612841061565 
 -3.741756746445228   7.957034339039494   1.665473884327260 
 -5.002227237181792  10.111034384826091   1.665445295001060 
 -6.265836980241654  12.269789626212544   1.665352753711515 
 -5.002666263299563  14.429688058266507   1.665679991824305 
  2.498912641948403   1.411880876642798   1.665728548524165 
  1.245271504834534   3.586597576704547   1.664971148798385 
  0.012346181593141   5.784200399878029   1.664959663764225 
 -1.211311669672081   7.954111968696533   1.665047691150870 
 -2.446042025675024  10.107326868274278   1.665205876959720 
 -3.734887631530855  12.266146471069487   1.665006444604155 
 -2.485134370718545  14.432823640110655   1.665548791100595 
  5.013240135474846   1.415964957447125   1.666146715676565 
  3.746800859710074   3.559937754216153   1.665161395732830 
  2.502811900119156   5.714080321405734   1.665220672983135 
  1.305025524185830   7.959508324415787   1.665694690995945 
  0.138661066859604  10.101724429685966   1.665432131958585 
 -1.204751655265411  12.264724997621997   1.665078672576225 
  0.019819159434860  14.452714387932113   1.665115735842495 
  7.517611830515968   1.436615725374168   1.665322668029145 
  6.258194548761182   3.596133154228828   1.665259577466015 
  4.978467307243562   5.723005184572135   1.666153787102490 
  2.819178656314548  10.131001799152127   1.665876587841015 
  1.306731944067481  12.285274503358000   1.665576545481570 
  2.505725416667557  14.494903977621348   1.665132964070940 
 10.011544583821893   1.468334437143360   1.665068977365480 
  8.751015085785639   3.631909208094593   1.665169579059795 
  7.476282337470794   5.804294691197723   1.664940832254945 
  6.197371005623457   8.004560531767151   1.666088079842295 
  4.756909528478843  10.169897526941524   1.665830424195270 
  3.761428288360354  12.365329340849923   1.665136449166755 
  5.008634092062982  14.498142767659980   1.665058414797480 
 12.516835009265803   1.477648645378027   1.665453345526770 
 11.258819938731243   3.639419429132046   1.665479538500805 
  9.994906422845995   5.802871204847772   1.665165407387580 
  8.721176114793700   7.964502801104626   1.665348224654565 
  7.399889573911900  10.131302558287551   1.665273710817975 
  6.228399704950365  12.307329785830106   1.665537404024970 
  3.703275310345062   7.799809070767266   1.667961703763085 
  4.924643920190109   7.216889439431619   1.668055887400710 
