Species order: X N B                    
   2.51242800000000     
     5.9449720136058266    0.0000000000000000    0.0000000000000000
    -2.9724860068029120    5.1484967885702053   -0.0000000000000001
     0.0000000000000000    0.0000000000000009    5.3101128803662583
   Sb   N    B 
     1   143   143
Direct
  0.4958746649641622  0.4146039991487371  0.3750000000000000
  0.1110131757464451  0.0554971505637554  0.1251410476842232
  0.6110693144966803  0.5555982083160518  0.1206572307174102
  0.4443724873223879  0.0555139422407908  0.1250247368054152
  0.9443310663991207  0.5554984646137033  0.1251212932314109
  0.7777150791514320  0.0555242062423907  0.1250192414253672
  0.1110069407093481  0.7221701370213304  0.6249617579970014
  0.4443724873223879  0.7221918784149366  0.6249752631945791
  0.2776382329901164  0.2221424902289325  0.6267266558849083
  0.7776752403071858  0.7221812281001746  0.6255046542225895
  0.6110359201218523  0.2221654258054097  0.6257240905456369
  0.9443653804385227  0.2221831733955744  0.6248765885814801
  0.2776915162399132  0.7221808596104213  0.1251008271209319
  0.1110059658684116  0.2221696496008629  0.1248707607813751
  0.4443736754807064  0.2221844263230146  0.1228214071680005
  0.6110359201218523  0.7222038276497754  0.1242759094543634
  0.9443310663991207  0.7221659351187478  0.1251212932314109
  0.7777055054975496  0.2221716386904270  0.1250557340684398
  0.1110142089820850  0.8888369804972496  0.6248455890652578
  0.4443701882895961  0.8888517608114606  0.6248415013228880
  0.2776382329901164  0.3888290760944948  0.6267266558849083
  0.6110693144966803  0.3888044395139660  0.6293427692825869
  0.7777055054975496  0.8888672001404214  0.6249442659315523
  0.9443487058377362  0.3888423974078560  0.6247651172048895
  0.1110131757464451  0.3888493585160158  0.1251410476842232
  0.2776915162399132  0.8888439899627636  0.1251008271209319
  0.6110436706165184  0.8888650551893004  0.1251419399939811
  0.4441309464660880  0.3887321398997103  0.1186669035622669
  0.9443487058377362  0.8888396417632181  0.1252348827951289
  0.7776752403071858  0.3888273455403394  0.1244953457774500
  0.2777006178903693  0.5555199205997897  0.6251490544459235
  0.1110131757464451  0.0554971505637554  0.6248589523157770
  0.6110693144966803  0.5555982083160518  0.6293427692825869
  0.4443724873223879  0.0555139422407908  0.6249752631945791
  0.9443310663991207  0.5554984646137033  0.6248787067685755
  0.1110142089820850  0.5555105618181638  0.1251544109347379
  0.7777150791514320  0.0555242062423907  0.6249807585746526
  0.2777006178903693  0.0555140306239406  0.1248509455540756
  0.4443736754807064  0.5555225824910146  0.1228214071680005
  0.7776641151335404  0.5554987242334237  0.1238175433201603
  0.6110436706165185  0.0555119487605669  0.1251419399939811
  0.4443736754807064  0.5555225824910146  0.6271785928320148
  0.9443653804385227  0.0555155403762880  0.1251234114184864
  0.2776915162399132  0.7221808596104213  0.6248991728790474
  0.1110059658684116  0.2221696496008629  0.6251292392186466
  0.4443736754807064  0.2221844263230146  0.6271785928320148
  0.6110359201218523  0.7222038276497754  0.6257240905456369
  0.9443310663991207  0.7221659351187478  0.6248787067685755
  0.7777055054975496  0.2221716386904270  0.6249442659315523
  0.1110069407093481  0.7221701370213304  0.1250382420029877
  0.4443724873223879  0.7221918784149366  0.1250247368054152
  0.2776382329901164  0.2221424902289325  0.1232733441150913
  0.7776752403071858  0.7221812281001746  0.1244953457774500
  0.6110359201218523  0.2221654258054097  0.1242759094543634
  0.9443653804385227  0.2221831733955744  0.1251234114184864
  0.1110131757464451  0.3888493585160158  0.6248589523157770
  0.2776915162399132  0.8888439899627636  0.6248991728790474
  0.6110436706165185  0.8888650551893004  0.6248580600060559
  0.4441309464660880  0.3887321398997103  0.6313330964377315
  0.9443487058377362  0.8888396417632181  0.6247651172048895
  0.1110142089820850  0.8888369804972496  0.1251544109347379
  0.7776752403071858  0.3888273455403394  0.6255046542225895
  0.4443701882895961  0.8888517608114606  0.1251584986771120
  0.2776382329901164  0.3888290760944948  0.1232733441150913
  0.2777006178903693  0.5555199205997897  0.1248509455540756
  0.6110693144966803  0.3888044395139660  0.1206572307174102
  0.7777055054975496  0.8888672001404214  0.1250557340684398
  0.9443487058377362  0.3888423974078560  0.1252348827951289
  0.1110142089820850  0.5555105618181638  0.6248455890652578
  0.2777006178903693  0.0555140306239406  0.6251490544459235
  0.7776641151335404  0.5554987242334237  0.6261824566798231
  0.6110436706165185  0.0555119487605669  0.6248580600060559
  0.9443653804385227  0.0555155403762880  0.6248765885814801
  0.0573419506066137  0.1122009530126264  0.3750000000000000
  0.5540882294323606  0.6202229722174738  0.3750000000000000
  0.3862908980472907  0.1032015984446595  0.3750000000000000
  0.8855490677784441  0.6094412005558761  0.3750000000000000
  0.7231192569846508  0.1106179362839660  0.3750000000000000
  0.0555547543334492  0.7777774648484918  0.8750000000000000
  0.3888810309544184  0.7777787351260785  0.8750000000000000
  0.2222111006071625  0.2777722169702544  0.8750000000000000
  0.7222192232574192  0.7777763114902928  0.8750000000000000
  0.5555465307716860  0.2777630969251662  0.8750000000000000
  0.8888850086407126  0.2777781640008984  0.8750000000000000
  0.2192701995850423  0.7763017664592201  0.3750000000000000
  0.0573419506066137  0.2784743309273244  0.3750000000000000
  0.3884235983514825  0.2664748749130902  0.3750000000000000
  0.5548710602489623  0.7817684451372390  0.3750000000000000
  0.8879499482629263  0.7779831020928807  0.3750000000000000
  0.7227213008758655  0.2756186368609736  0.3750000000000000
  0.0555480861637645  0.9444385020625015  0.8750000000000000
  0.3888810309544184  0.9444356291616901  0.8750000000000000
  0.2222078298628372  0.4444463352255307  0.8750000000000000
  0.5555597438910888  0.4444465386122087  0.8750000000000000
  0.7222130197399451  0.9444395101604244  0.8750000000000000
  0.8888934216093104  0.4444475052577484  0.8750000000000000
  0.0548543945308410  0.4442862767078681  0.3750000000000000
  0.2195087310164128  0.9414658664973065  0.3750000000000000
  0.5550140372727110  0.9441736853030597  0.3750000000000000
  0.3884235983514825  0.4552820567717288  0.3750000000000000
  0.8899278296376207  0.9457675027756501  0.3750000000000000
  0.7209696722945736  0.4420689729336817  0.3750000000000000
  0.2222110918007920  0.6111109533806133  0.8750000000000000
  0.0555472805607051  0.1111045274795372  0.8750000000000000
  0.5555465307716860  0.6111167671798406  0.8750000000000000
  0.3888751280832282  0.1110894264195062  0.8750000000000000
  0.8889026598299705  0.6111179965816749  0.8750000000000000
  0.0526926528908484  0.6099879746860049  0.3750000000000000
  0.7222130197399451  0.1111068429128698  0.8750000000000000
  0.2219128909047085  0.1093142067718637  0.3750000000000000
  0.3862908980472907  0.6164226329359822  0.3750000000000000
  0.7209696722945736  0.6122340326942166  0.3750000000000000
  0.5548710602489622  0.1064359484450585  0.3750000000000000
  0.3888751280832282  0.6111190349970484  0.8750000000000000
  0.8904788459658025  0.1119060896495865  0.3750000000000000
  0.2222162497025278  0.7777747915179287  0.8750000000000000
  0.0555472805607051  0.2777760864145091  0.8750000000000000
  0.3888742185146053  0.2777521415778801  0.8750000000000000
  0.5555452647251818  0.7777775221261646  0.8750000000000000
  0.8888934216093104  0.7777792496849298  0.8750000000000000
  0.7222192232574192  0.2777762451004844  0.8750000000000000
  0.0526926528908484  0.7760380115381844  0.3750000000000000
  0.3866967240707594  0.7787193358112707  0.3750000000000000
  0.2256922466856087  0.2795127900094688  0.3750000000000000
  0.7227213008758655  0.7804359973482252  0.3750000000000000
  0.5540882294323606  0.2671985905481985  0.3750000000000000
  0.8899278296376207  0.2774936601953361  0.3750000000000000
  0.0555480861637645  0.4444429174345735  0.8750000000000000
  0.2222110918007920  0.9444334717535015  0.8750000000000000
  0.5555453580305443  0.9444393456819367  0.8750000000000000
  0.3888742185146053  0.4444554102700696  0.8750000000000000
  0.8888850086407126  0.9444401779731468  0.8750000000000000
  0.0548543945308410  0.9439014511562828  0.3750000000000000
  0.7222369577069889  0.4444522531804919  0.8750000000000000
  0.3866967240707594  0.9413107215928290  0.3750000000000000
  0.2219128909047085  0.4459320174661709  0.3750000000000000
  0.2195087310164129  0.6113761978523914  0.3750000000000000
  0.7231192569846508  0.9458346540339998  0.3750000000000000
  0.8879499482629263  0.4433001795033597  0.3750000000000000
  0.0555547543334492  0.6111106228183081  0.8750000000000000
  0.2222078298628372  0.1110948279706441  0.8750000000000000
  0.7222369577069889  0.6111180378598334  0.8750000000000000
  0.5555452647251818  0.1111010759323897  0.8750000000000000
  0.8888824576269891  0.1111078954801553  0.8750000000000000
  0.1112905499433310  0.0551106250612842  0.3750000000000000
  0.6128821956978114  0.5705441255307122  0.3750000000000000
  0.4434082679272199  0.0507675451125072  0.3750000000000000
  0.9418851333097853  0.5543540539060910  0.3750000000000000
  0.7794483256693090  0.0563908295013149  0.3750000000000000
  0.1111085490827793  0.7222209412080447  0.8750000000000000
  0.4444298961802873  0.7222079587761292  0.8750000000000000
  0.2777908300826298  0.2222288422710171  0.8750000000000000
  0.7777662890664810  0.7222026477672849  0.8750000000000000
  0.6110912167088802  0.2222288667400741  0.8750000000000000
  0.9444475680838635  0.2222245614513985  0.8750000000000000
  0.2754801054090144  0.7220638522584133  0.3750000000000000
  0.1140976404032218  0.2237154868682759  0.3750000000000000
  0.4421947177306954  0.2118329834789281  0.3750000000000000
  0.6118398432449818  0.7293487906241726  0.3750000000000000
  0.9418851333097853  0.7208644127369993  0.3750000000000000
  0.7791080986580082  0.2213136397878620  0.3750000000000000
  0.1111087199908481  0.8888901010193820  0.8750000000000000
  0.4444327129613321  0.8888830231473265  0.8750000000000000
  0.2777908300826298  0.3888953211449395  0.8750000000000000
  0.6110864901756328  0.3889013883462695  0.8750000000000000
  0.7777685819704273  0.8888763999727444  0.8750000000000000
  0.9444428670531557  0.3888904774798184  0.8750000000000000
  0.1112905499433309  0.3895132582153749  0.3750000000000000
  0.2754801054090144  0.8867495864839428  0.3750000000000000
  0.6118848482177613  0.8913398949959571  0.3750000000000000
  0.9442402288851460  0.8892484922677415  0.3750000000000000
  0.7776364433240409  0.3867936882102856  0.3750000000000000
  0.2777736848556495  0.5555502603042378  0.8750000000000000
  0.1111153412787300  0.0555590603627828  0.8750000000000000
  0.6110864901756328  0.5555184351627712  0.8750000000000000
  0.4444298961802873  0.0555552707374926  0.8750000000000000
  0.9444432639614445  0.5555573118640813  0.8750000000000000
  0.1088404214748538  0.5551706982151360  0.3750000000000000
  0.7777716493533388  0.0555524913433438  0.8750000000000000
  0.2756474324835148  0.0518878270585975  0.3750000000000000
  0.4421947177306954  0.5636950675850951  0.3750000000000000
  0.7744704118368041  0.5539018725850594  0.3750000000000000
  0.6118848482177613  0.0538782865551164  0.3750000000000000
  0.4444346570486548  0.5555410978726141  0.8750000000000000
  0.9463080046945913  0.0568749406675867  0.3750000000000000
  0.2777705551795968  0.7222161260006388  0.8750000000000000
  0.1111237718605765  0.2222285525969541  0.8750000000000000
  0.4444346570486548  0.2222268925093885  0.8750000000000000
  0.6110912167088802  0.7221956833021310  0.8750000000000000
  0.9444432639614445  0.7222192854307311  0.8750000000000000
  0.7777685819704273  0.2222255153310009  0.8750000000000000
  0.1083329181666196  0.7208331257499706  0.3750000000000000
  0.4434082679272199  0.7259740561480268  0.3750000000000000
  0.2792733238470242  0.2209466351236885  0.3750000000000000
  0.7776364433240409  0.7241760884470855  0.3750000000000000
  0.6118398432449818  0.2158243859541565  0.3750000000000000
  0.9463080046945913  0.2227663973603499  0.3750000000000000
  0.1111153412787300  0.3888896142492799  0.8750000000000000
  0.2777705551795968  0.8888877625122726  0.8750000000000000
  0.6110976388403501  0.8888774055581715  0.8750000000000000
  0.4444578317285131  0.3888955825309237  0.8750000000000000
  0.9444428670531557  0.8888857229066790  0.8750000000000000
  0.1088404214748538  0.8870030565930650  0.3750000000000000
  0.7777662890664810  0.3888969746325360  0.8750000000000000
  0.4435542190914388  0.8884437762123869  0.3750000000000000
  0.2792733238470242  0.3916600220566577  0.3750000000000000
  0.2756474324835148  0.5570929387582579  0.3750000000000000
  0.6128821956978112  0.3756714035004225  0.3750000000000000
  0.7791080986580082  0.8911277922034725  0.3750000000000000
  0.9442402288851460  0.3883250699507407  0.3750000000000000
  0.1111087199908481  0.5555519523047917  0.8750000000000000
  0.2777736848556495  0.0555567578847688  0.8750000000000000
  0.7777670290775224  0.5555501812054466  0.8750000000000000
  0.6110976388403501  0.0555535666154899  0.8750000000000000
  0.9444475680838635  0.0555563399657905  0.8750000000000000
  0.0554927863952731  0.1110872565945687  0.1250596090817553
  0.5554836578000584  0.6110144139695531  0.1224185256707813
  0.3888289998650197  0.1111253034340195  0.1243648287790062
  0.8887275487356890  0.6110304410344812  0.1247330709115879
  0.7221518878707298  0.1110649711671945  0.1250264053180742
  0.0554534032877780  0.7777336039027165  0.6249255359529209
  0.3888095552933376  0.7777288575398863  0.6249005723176602
  0.2221460562030571  0.2777396947681997  0.6261991202134880
  0.7221258604655320  0.7777456097541094  0.6254748016879029
  0.5554836578000584  0.2778025771638338  0.6275814743292170
  0.8888157456247213  0.2777261618238610  0.6248989106740703
  0.2221360644395345  0.7777346988864099  0.1250328757546661
  0.0554927863952731  0.2777388631340454  0.1250596090817553
  0.3887577056770922  0.2777502928225880  0.1214358987667924
  0.5554736692917275  0.7777350851288430  0.1248363464726753
  0.8887746959445320  0.7777304453377410  0.1249535426321566
  0.7221258604655320  0.2777135840447717  0.1245251983120843
  0.0554754683522964  0.9444173892281569  0.6248021137873194
  0.3888095552933376  0.9444140310867698  0.6249005723176602
  0.2221498194842534  0.4443861181765725  0.6254484306297158
  0.5553833002628734  0.4443583167981010  0.6289731725312849
  0.7221518878707298  0.9444202500368418  0.6249735946819365
  0.8887746959445320  0.4443775839400863  0.6250464573678280
  0.0554754683522964  0.4443914124574565  0.1251978862127170
  0.2221483390450079  0.9444296123429665  0.1250657928691881
  0.5554780946163151  0.9444057139748304  0.1251256133581004
  0.3887577056770922  0.4443407461878221  0.1214358987667924
  0.8888157456247213  0.9444229171341640  0.1251010893259257
  0.7220065224723438  0.4443378711098843  0.1228524598945580
  0.2221483390450079  0.6110520600353433  0.6249342071308162
  0.0554927863952731  0.1110872565945659  0.6249403909182268
  0.5554836578000584  0.6110144139695531  0.6275814743292170
  0.3888289998650197  0.1111253034340195  0.6256351712209728
  0.8887275487356890  0.6110304410344812  0.6252669290884096
  0.0554534032877780  0.6110531327184273  0.1250744640470798
  0.7221518878707298  0.1110649711671945  0.6249735946819365
  0.2221498194842534  0.1110970346410248  0.1245515693702818
  0.3888289998650197  0.6110370297643545  0.1243648287790062
  0.7220065224723438  0.6110019846958195  0.1228524598945580
  0.5554736692917275  0.1110719174962008  0.1248363464726753
  0.3888289998650197  0.6110370297643545  0.6256351712209728
  0.8888282060813667  0.1110807697073655  0.1250368901464599
  0.2221360644395345  0.7777346988864099  0.6249671242453364
  0.0554927863952731  0.2777388631340454  0.6249403909182268
  0.3887577056770927  0.2777502928225880  0.6285641012331987
  0.5554736692917275  0.7777350851288430  0.6251636535273219
  0.8887746959445320  0.7777304453377410  0.6250464573678280
  0.7221258604655320  0.2777135840447717  0.6254748016879029
  0.0554534032877780  0.7777336039027165  0.1250744640470798
  0.3888095552933376  0.7777288575398863  0.1250994276823251
  0.2221460562030571  0.2777396947681997  0.1238008797865208
  0.7221258604655320  0.7777456097541094  0.1245251983120843
  0.5554836578000584  0.2778025771638338  0.1224185256707813
  0.8888157456247213  0.2777261618238610  0.1251010893259257
  0.0554754683522964  0.4443914124574565  0.6248021137873194
  0.2221483390450079  0.9444296123429665  0.6249342071308162
  0.5554780946163151  0.9444057139748304  0.6248743866419146
  0.3887577056770927  0.4443407461878221  0.6285641012331987
  0.8888157456247213  0.9444229171341640  0.6248989106740703
  0.0554754683522964  0.9444173892281569  0.1251978862127170
  0.7220065224723438  0.4443378711098843  0.6271475401054484
  0.3888095552933376  0.9444140310867698  0.1250994276823251
  0.2221498194842534  0.4443861181765725  0.1245515693702818
  0.2221483390450079  0.6110520600353433  0.1250657928691881
  0.5553833002628734  0.4443583167981010  0.1210268274687078
  0.7221518878707298  0.9444202500368418  0.1250264053180742
  0.8887746959445320  0.4443775839400863  0.1249535426321566
  0.0554534032877780  0.6110531327184273  0.6249255359529209
  0.2221498194842534  0.1110970346410248  0.6254484306297158
  0.7220065224723438  0.6110019846958195  0.6271475401054484
  0.5554736692917275  0.1110719174962008  0.6251636535273219
  0.8888282060813667  0.1110807697073655  0.6249631098535295
 
  0.00000000E+00  0.00000000E+00  0.00000000E+00
  0.00000000E+00  0.00000000E+00  0.00000000E+00
  0.00000000E+00  0.00000000E+00  0.00000000E+00
  0.00000000E+00  0.00000000E+00  0.00000000E+00
  0.00000000E+00  0.00000000E+00  0.00000000E+00
  0.00000000E+00  0.00000000E+00  0.00000000E+00
  0.00000000E+00  0.00000000E+00  0.00000000E+00
  0.00000000E+00  0.00000000E+00  0.00000000E+00
  0.00000000E+00  0.00000000E+00  0.00000000E+00
  0.00000000E+00  0.00000000E+00  0.00000000E+00
  0.00000000E+00  0.00000000E+00  0.00000000E+00
  0.00000000E+00  0.00000000E+00  0.00000000E+00
  0.00000000E+00  0.00000000E+00  0.00000000E+00
  0.00000000E+00  0.00000000E+00  0.00000000E+00
  0.00000000E+00  0.00000000E+00  0.00000000E+00
  0.00000000E+00  0.00000000E+00  0.00000000E+00
  0.00000000E+00  0.00000000E+00  0.00000000E+00
  0.00000000E+00  0.00000000E+00  0.00000000E+00
  0.00000000E+00  0.00000000E+00  0.00000000E+00
  0.00000000E+00  0.00000000E+00  0.00000000E+00
  0.00000000E+00  0.00000000E+00  0.00000000E+00
  0.00000000E+00  0.00000000E+00  0.00000000E+00
  0.00000000E+00  0.00000000E+00  0.00000000E+00
  0.00000000E+00  0.00000000E+00  0.00000000E+00
  0.00000000E+00  0.00000000E+00  0.00000000E+00
  0.00000000E+00  0.00000000E+00  0.00000000E+00
  0.00000000E+00  0.00000000E+00  0.00000000E+00
  0.00000000E+00  0.00000000E+00  0.00000000E+00
  0.00000000E+00  0.00000000E+00  0.00000000E+00
  0.00000000E+00  0.00000000E+00  0.00000000E+00
  0.00000000E+00  0.00000000E+00  0.00000000E+00
  0.00000000E+00  0.00000000E+00  0.00000000E+00
  0.00000000E+00  0.00000000E+00  0.00000000E+00
  0.00000000E+00  0.00000000E+00  0.00000000E+00
  0.00000000E+00  0.00000000E+00  0.00000000E+00
  0.00000000E+00  0.00000000E+00  0.00000000E+00
  0.00000000E+00  0.00000000E+00  0.00000000E+00
  0.00000000E+00  0.00000000E+00  0.00000000E+00
  0.00000000E+00  0.00000000E+00  0.00000000E+00
  0.00000000E+00  0.00000000E+00  0.00000000E+00
  0.00000000E+00  0.00000000E+00  0.00000000E+00
  0.00000000E+00  0.00000000E+00  0.00000000E+00
  0.00000000E+00  0.00000000E+00  0.00000000E+00
  0.00000000E+00  0.00000000E+00  0.00000000E+00
  0.00000000E+00  0.00000000E+00  0.00000000E+00
  0.00000000E+00  0.00000000E+00  0.00000000E+00
  0.00000000E+00  0.00000000E+00  0.00000000E+00
  0.00000000E+00  0.00000000E+00  0.00000000E+00
  0.00000000E+00  0.00000000E+00  0.00000000E+00
  0.00000000E+00  0.00000000E+00  0.00000000E+00
  0.00000000E+00  0.00000000E+00  0.00000000E+00
  0.00000000E+00  0.00000000E+00  0.00000000E+00
  0.00000000E+00  0.00000000E+00  0.00000000E+00
  0.00000000E+00  0.00000000E+00  0.00000000E+00
  0.00000000E+00  0.00000000E+00  0.00000000E+00
  0.00000000E+00  0.00000000E+00  0.00000000E+00
  0.00000000E+00  0.00000000E+00  0.00000000E+00
  0.00000000E+00  0.00000000E+00  0.00000000E+00
  0.00000000E+00  0.00000000E+00  0.00000000E+00
  0.00000000E+00  0.00000000E+00  0.00000000E+00
  0.00000000E+00  0.00000000E+00  0.00000000E+00
  0.00000000E+00  0.00000000E+00  0.00000000E+00
  0.00000000E+00  0.00000000E+00  0.00000000E+00
  0.00000000E+00  0.00000000E+00  0.00000000E+00
  0.00000000E+00  0.00000000E+00  0.00000000E+00
  0.00000000E+00  0.00000000E+00  0.00000000E+00
  0.00000000E+00  0.00000000E+00  0.00000000E+00
  0.00000000E+00  0.00000000E+00  0.00000000E+00
  0.00000000E+00  0.00000000E+00  0.00000000E+00
  0.00000000E+00  0.00000000E+00  0.00000000E+00
  0.00000000E+00  0.00000000E+00  0.00000000E+00
  0.00000000E+00  0.00000000E+00  0.00000000E+00
  0.00000000E+00  0.00000000E+00  0.00000000E+00
  0.00000000E+00  0.00000000E+00  0.00000000E+00
  0.00000000E+00  0.00000000E+00  0.00000000E+00
  0.00000000E+00  0.00000000E+00  0.00000000E+00
  0.00000000E+00  0.00000000E+00  0.00000000E+00
  0.00000000E+00  0.00000000E+00  0.00000000E+00
  0.00000000E+00  0.00000000E+00  0.00000000E+00
  0.00000000E+00  0.00000000E+00  0.00000000E+00
  0.00000000E+00  0.00000000E+00  0.00000000E+00
  0.00000000E+00  0.00000000E+00  0.00000000E+00
  0.00000000E+00  0.00000000E+00  0.00000000E+00
  0.00000000E+00  0.00000000E+00  0.00000000E+00
  0.00000000E+00  0.00000000E+00  0.00000000E+00
  0.00000000E+00  0.00000000E+00  0.00000000E+00
  0.00000000E+00  0.00000000E+00  0.00000000E+00
  0.00000000E+00  0.00000000E+00  0.00000000E+00
  0.00000000E+00  0.00000000E+00  0.00000000E+00
  0.00000000E+00  0.00000000E+00  0.00000000E+00
  0.00000000E+00  0.00000000E+00  0.00000000E+00
  0.00000000E+00  0.00000000E+00  0.00000000E+00
  0.00000000E+00  0.00000000E+00  0.00000000E+00
  0.00000000E+00  0.00000000E+00  0.00000000E+00
  0.00000000E+00  0.00000000E+00  0.00000000E+00
  0.00000000E+00  0.00000000E+00  0.00000000E+00
  0.00000000E+00  0.00000000E+00  0.00000000E+00
  0.00000000E+00  0.00000000E+00  0.00000000E+00
  0.00000000E+00  0.00000000E+00  0.00000000E+00
  0.00000000E+00  0.00000000E+00  0.00000000E+00
  0.00000000E+00  0.00000000E+00  0.00000000E+00
  0.00000000E+00  0.00000000E+00  0.00000000E+00
  0.00000000E+00  0.00000000E+00  0.00000000E+00
  0.00000000E+00  0.00000000E+00  0.00000000E+00
  0.00000000E+00  0.00000000E+00  0.00000000E+00
  0.00000000E+00  0.00000000E+00  0.00000000E+00
  0.00000000E+00  0.00000000E+00  0.00000000E+00
  0.00000000E+00  0.00000000E+00  0.00000000E+00
  0.00000000E+00  0.00000000E+00  0.00000000E+00
  0.00000000E+00  0.00000000E+00  0.00000000E+00
  0.00000000E+00  0.00000000E+00  0.00000000E+00
  0.00000000E+00  0.00000000E+00  0.00000000E+00
  0.00000000E+00  0.00000000E+00  0.00000000E+00
  0.00000000E+00  0.00000000E+00  0.00000000E+00
  0.00000000E+00  0.00000000E+00  0.00000000E+00
  0.00000000E+00  0.00000000E+00  0.00000000E+00
  0.00000000E+00  0.00000000E+00  0.00000000E+00
  0.00000000E+00  0.00000000E+00  0.00000000E+00
  0.00000000E+00  0.00000000E+00  0.00000000E+00
  0.00000000E+00  0.00000000E+00  0.00000000E+00
  0.00000000E+00  0.00000000E+00  0.00000000E+00
  0.00000000E+00  0.00000000E+00  0.00000000E+00
  0.00000000E+00  0.00000000E+00  0.00000000E+00
  0.00000000E+00  0.00000000E+00  0.00000000E+00
  0.00000000E+00  0.00000000E+00  0.00000000E+00
  0.00000000E+00  0.00000000E+00  0.00000000E+00
  0.00000000E+00  0.00000000E+00  0.00000000E+00
  0.00000000E+00  0.00000000E+00  0.00000000E+00
  0.00000000E+00  0.00000000E+00  0.00000000E+00
  0.00000000E+00  0.00000000E+00  0.00000000E+00
  0.00000000E+00  0.00000000E+00  0.00000000E+00
  0.00000000E+00  0.00000000E+00  0.00000000E+00
  0.00000000E+00  0.00000000E+00  0.00000000E+00
  0.00000000E+00  0.00000000E+00  0.00000000E+00
  0.00000000E+00  0.00000000E+00  0.00000000E+00
  0.00000000E+00  0.00000000E+00  0.00000000E+00
  0.00000000E+00  0.00000000E+00  0.00000000E+00
  0.00000000E+00  0.00000000E+00  0.00000000E+00
  0.00000000E+00  0.00000000E+00  0.00000000E+00
  0.00000000E+00  0.00000000E+00  0.00000000E+00
  0.00000000E+00  0.00000000E+00  0.00000000E+00
  0.00000000E+00  0.00000000E+00  0.00000000E+00
  0.00000000E+00  0.00000000E+00  0.00000000E+00
  0.00000000E+00  0.00000000E+00  0.00000000E+00
  0.00000000E+00  0.00000000E+00  0.00000000E+00
  0.00000000E+00  0.00000000E+00  0.00000000E+00
  0.00000000E+00  0.00000000E+00  0.00000000E+00
  0.00000000E+00  0.00000000E+00  0.00000000E+00
  0.00000000E+00  0.00000000E+00  0.00000000E+00
  0.00000000E+00  0.00000000E+00  0.00000000E+00
  0.00000000E+00  0.00000000E+00  0.00000000E+00
  0.00000000E+00  0.00000000E+00  0.00000000E+00
  0.00000000E+00  0.00000000E+00  0.00000000E+00
  0.00000000E+00  0.00000000E+00  0.00000000E+00
  0.00000000E+00  0.00000000E+00  0.00000000E+00
  0.00000000E+00  0.00000000E+00  0.00000000E+00
  0.00000000E+00  0.00000000E+00  0.00000000E+00
  0.00000000E+00  0.00000000E+00  0.00000000E+00
  0.00000000E+00  0.00000000E+00  0.00000000E+00
  0.00000000E+00  0.00000000E+00  0.00000000E+00
  0.00000000E+00  0.00000000E+00  0.00000000E+00
  0.00000000E+00  0.00000000E+00  0.00000000E+00
  0.00000000E+00  0.00000000E+00  0.00000000E+00
  0.00000000E+00  0.00000000E+00  0.00000000E+00
  0.00000000E+00  0.00000000E+00  0.00000000E+00
  0.00000000E+00  0.00000000E+00  0.00000000E+00
  0.00000000E+00  0.00000000E+00  0.00000000E+00
  0.00000000E+00  0.00000000E+00  0.00000000E+00
  0.00000000E+00  0.00000000E+00  0.00000000E+00
  0.00000000E+00  0.00000000E+00  0.00000000E+00
  0.00000000E+00  0.00000000E+00  0.00000000E+00
  0.00000000E+00  0.00000000E+00  0.00000000E+00
  0.00000000E+00  0.00000000E+00  0.00000000E+00
  0.00000000E+00  0.00000000E+00  0.00000000E+00
  0.00000000E+00  0.00000000E+00  0.00000000E+00
  0.00000000E+00  0.00000000E+00  0.00000000E+00
  0.00000000E+00  0.00000000E+00  0.00000000E+00
  0.00000000E+00  0.00000000E+00  0.00000000E+00
  0.00000000E+00  0.00000000E+00  0.00000000E+00
  0.00000000E+00  0.00000000E+00  0.00000000E+00
  0.00000000E+00  0.00000000E+00  0.00000000E+00
  0.00000000E+00  0.00000000E+00  0.00000000E+00
  0.00000000E+00  0.00000000E+00  0.00000000E+00
  0.00000000E+00  0.00000000E+00  0.00000000E+00
  0.00000000E+00  0.00000000E+00  0.00000000E+00
  0.00000000E+00  0.00000000E+00  0.00000000E+00
  0.00000000E+00  0.00000000E+00  0.00000000E+00
  0.00000000E+00  0.00000000E+00  0.00000000E+00
  0.00000000E+00  0.00000000E+00  0.00000000E+00
  0.00000000E+00  0.00000000E+00  0.00000000E+00
  0.00000000E+00  0.00000000E+00  0.00000000E+00
  0.00000000E+00  0.00000000E+00  0.00000000E+00
  0.00000000E+00  0.00000000E+00  0.00000000E+00
  0.00000000E+00  0.00000000E+00  0.00000000E+00
  0.00000000E+00  0.00000000E+00  0.00000000E+00
  0.00000000E+00  0.00000000E+00  0.00000000E+00
  0.00000000E+00  0.00000000E+00  0.00000000E+00
  0.00000000E+00  0.00000000E+00  0.00000000E+00
  0.00000000E+00  0.00000000E+00  0.00000000E+00
  0.00000000E+00  0.00000000E+00  0.00000000E+00
  0.00000000E+00  0.00000000E+00  0.00000000E+00
  0.00000000E+00  0.00000000E+00  0.00000000E+00
  0.00000000E+00  0.00000000E+00  0.00000000E+00
  0.00000000E+00  0.00000000E+00  0.00000000E+00
  0.00000000E+00  0.00000000E+00  0.00000000E+00
  0.00000000E+00  0.00000000E+00  0.00000000E+00
  0.00000000E+00  0.00000000E+00  0.00000000E+00
  0.00000000E+00  0.00000000E+00  0.00000000E+00
  0.00000000E+00  0.00000000E+00  0.00000000E+00
  0.00000000E+00  0.00000000E+00  0.00000000E+00
  0.00000000E+00  0.00000000E+00  0.00000000E+00
  0.00000000E+00  0.00000000E+00  0.00000000E+00
  0.00000000E+00  0.00000000E+00  0.00000000E+00
  0.00000000E+00  0.00000000E+00  0.00000000E+00
  0.00000000E+00  0.00000000E+00  0.00000000E+00
  0.00000000E+00  0.00000000E+00  0.00000000E+00
  0.00000000E+00  0.00000000E+00  0.00000000E+00
  0.00000000E+00  0.00000000E+00  0.00000000E+00
  0.00000000E+00  0.00000000E+00  0.00000000E+00
  0.00000000E+00  0.00000000E+00  0.00000000E+00
  0.00000000E+00  0.00000000E+00  0.00000000E+00
  0.00000000E+00  0.00000000E+00  0.00000000E+00
  0.00000000E+00  0.00000000E+00  0.00000000E+00
  0.00000000E+00  0.00000000E+00  0.00000000E+00
  0.00000000E+00  0.00000000E+00  0.00000000E+00
  0.00000000E+00  0.00000000E+00  0.00000000E+00
  0.00000000E+00  0.00000000E+00  0.00000000E+00
  0.00000000E+00  0.00000000E+00  0.00000000E+00
  0.00000000E+00  0.00000000E+00  0.00000000E+00
  0.00000000E+00  0.00000000E+00  0.00000000E+00
  0.00000000E+00  0.00000000E+00  0.00000000E+00
  0.00000000E+00  0.00000000E+00  0.00000000E+00
  0.00000000E+00  0.00000000E+00  0.00000000E+00
  0.00000000E+00  0.00000000E+00  0.00000000E+00
  0.00000000E+00  0.00000000E+00  0.00000000E+00
  0.00000000E+00  0.00000000E+00  0.00000000E+00
  0.00000000E+00  0.00000000E+00  0.00000000E+00
  0.00000000E+00  0.00000000E+00  0.00000000E+00
  0.00000000E+00  0.00000000E+00  0.00000000E+00
  0.00000000E+00  0.00000000E+00  0.00000000E+00
  0.00000000E+00  0.00000000E+00  0.00000000E+00
  0.00000000E+00  0.00000000E+00  0.00000000E+00
  0.00000000E+00  0.00000000E+00  0.00000000E+00
  0.00000000E+00  0.00000000E+00  0.00000000E+00
  0.00000000E+00  0.00000000E+00  0.00000000E+00
  0.00000000E+00  0.00000000E+00  0.00000000E+00
  0.00000000E+00  0.00000000E+00  0.00000000E+00
  0.00000000E+00  0.00000000E+00  0.00000000E+00