 N Sb B 
 1.0
 14.936314146199660   0.000000000000000   0.000000000000000
 -7.468157073099825  12.935227489513863   0.000000000000000
  0.000000000000001   0.000000000000001  13.341276283792837
 N Sb B 
 143   1 143
Cartesian
  1.243666229796582   0.717868267561974   1.669541291598513 
  4.977828557188176   7.186789217334446   1.609721450638303 
  6.222700228174094   0.718085471724365   1.667989556029525 
  9.956275678152082   7.185499009853915   1.669277741985713 
 11.201533244864956   0.718218238920014   1.667916240646020 
 -3.735245477933934   9.341435008504302   8.337787480242868 
  1.243844683655552   9.341716238376547   8.337967656815023 
  2.487896857296932   2.873463646198360   8.361333470578117 
  6.222238846253204   9.341578474132266   8.345030408781867 
  7.467458161425237   2.873760323097693   8.347957969394349 
 12.446039153107213   2.873989892213855   8.336651211539472 
 -1.245672372463032   9.341573707633470   1.669004697951358 
 -0.001177861781876   2.873814958852746   1.665935319351727 
  4.977996620304355   2.874006099115331   1.638594326592502 
  3.733092833869709   9.341870804447503   1.657999243450279 
  8.711576829444173   9.341380655938515   1.669277741985713 
  9.956841048412324   2.873840688178753   1.668403099079583 
 -4.979831082684946  11.497308543824527   8.336237638428891 
 -0.000831834942046  11.497499730551212   8.336183102728556 
  1.243055252074174   5.029592553819791   8.361333470578117 
  6.223470621416452   5.029273874046084   8.396235762206285 
  4.977853875565293  11.497699441783594   8.337554113764938 
 11.201152833426946   5.029764868038574   8.335164041106639 
 -1.245860419855539   5.029854911556201   1.669541291598513 
 -2.490338808228840  11.497399212855530   1.669004697951358 
  2.488556372432026  11.497671696352890   1.669553196149525 
  3.730566658333224   5.028338662088278   1.583167946166405 
  7.467094876464027  11.497342967905231   1.670793171738230 
  8.711778002137731   5.029570168708099   1.660926804063282 
 -0.000886356870870   7.185776547914964   8.340286253914922 
  1.243666229796583   0.717868267561974   8.336415921246115 
  4.977828557188177   7.186789217334447   8.396235762206285 
  6.222700228174094   0.718085471724366   8.337967656815023 
  9.956275678152082   7.185499009853916   8.336679470858728 
 -2.490497031375698   7.185655489945606   1.669719574415683 
 11.201533244864956   0.718218238920014   8.338040972198874 
  3.733236166943840   0.718086614980516   1.665670958929705 
  2.488574911584251   7.185810980083510   1.638594326592502 
  7.466883797379159   7.185502368094066   1.651884054214743 
  8.712168268597493   0.718059685604171   1.669553196149525 
  2.488574911584251   7.185810980083511   8.367362886252327 
 13.690739215497000   0.718106143970578   1.669306001304701 
 -1.245672372463031   9.341573707633470   8.336952514892989 
 -0.001177861781876   2.873814958852747   8.340021893493194 
  4.977996620304356   2.874006099115332   8.367362886252327 
  3.733092833869710   9.341870804447503   8.347957969394349 
  8.711576829444173   9.341380655938515   8.336679470858728 
  9.956841048412324   2.873840688178754   8.337554113764938 
 -3.735245477933934   9.341435008504302   1.668169732601613 
  1.243844683655552   9.341716238376547   1.667989556029525 
  2.487896857296931   2.873463646198359   1.644623742266497 
  6.222238846253203   9.341578474132266   1.660926804063282 
  7.467458161425236   2.873760323097692   1.657999243450279 
 12.446039153107213   2.873989892213854   1.669306001304701 
 -1.245860419855539   5.029854911556202   8.336415921246115 
 -2.490338808228839  11.497399212855530   8.336952514892989 
  2.488556372432040  11.497671696352890   8.336404016695596 
  3.730566658333224   5.028338662088279   8.422789266678210 
  7.467094876464028  11.497342967905231   8.335164041106639 
 -4.979831082684947  11.497308543824527   1.669719574415683 
  8.711778002137731   5.029570168708100   8.345030408781867 
 -0.000831834942047  11.497499730551212   1.669774110116072 
  1.243055252074173   5.029592553819790   1.644623742266497 
 -0.000886356870870   7.185776547914963   1.665670958929705 
  6.223470621416451   5.029273874046083   1.609721450638303 
  4.977853875565292  11.497699441783594   1.668403099079583 
 11.201152833426946   5.029764868038573   1.670793171738230 
 -2.490497031375698   7.185655489945607   8.336237638428891 
  3.733236166943840   0.718086614980517   8.340286253914922 
  7.466883797379160   7.185502368094067   8.354073158629658 
  8.712168268597493   0.718059685604172   8.336404016695596 
 13.690739215497000   0.718106143970578   8.336651211539472 
  0.018543047166467   1.451344851758574   5.002978606422314 
  3.644113282648372   8.022725239855463   5.002978606422314 
  4.999036457672235   1.334936153163125   5.002978606422314 
  8.675436455643279   7.883260570672700   5.002978606422314 
  9.974624264218422   1.430868170253651   5.002978606422314 
 -4.978781012366573  10.060728444032618  11.673616748318732 
 -0.000124518205279  10.060744875362181  11.673616748318732 
  1.244568258564344   3.593046816776840  11.673616748318732 
  4.978737539051396  10.060713525081937  11.673616748318732 
  6.223439069489488   3.592928846918912  11.673616748318732 
 11.202174768669099   3.593123742971108  11.673616748318732 
 -2.522454944140226  10.041639949661473   5.002978606422314 
 -1.223212656175385   3.602128820535103   5.002978606422314 
  3.811540664889431   3.446913127240571   5.002978606422314 
  2.449358923435452  10.112352681973725   5.002978606422314 
  7.452599366709705  10.063388408569105   5.002978606422314 
  8.736429117680602   3.565189768146410   5.002978606422314 
 -6.223531414123723  12.216526874034161  11.673616748318732 
 -1.244744380178176  12.216489712408615  11.673616748318732 
 -0.000229089451225   5.749014453022983  11.673616748318732 
  4.978818300788030   5.749017083875931  11.673616748318732 
  3.733977935391811  12.216539914010127  11.673616748318732 
  9.957587607634732   5.749029587655881  11.673616748318732 
 -2.498677230864832   5.746944059685378   5.002978606422314 
 -3.752363605669125  12.178075156754941   5.002978606422314 
  1.238626630125003  12.213101409007754   5.002978606422314 
  2.401498974239792   5.889176976236081   5.002978606422314 
  6.229101365551230  12.233717800592467   5.002978606422314 
  7.467188988261727   5.718262730952925   5.002978606422314 
 -1.244857915031561   7.904859203311932  11.673616748318732 
 -0.000074430327938   1.437162338062757  11.673616748318732 
  3.733901499133251   7.904934406127524  11.673616748318732 
  4.978727791033288   1.436967002415923  11.673616748318732 
  8.713004183942870   7.904950308719922  11.673616748318732 
 -3.768451990882763   7.890333218431299   5.002978606422314 
  9.957437188541773   1.437192288719656  11.673616748318732 
  2.498184985150475   1.414004132429818   5.002978606422314 
  1.166221158872253   7.973566986712029   5.002978606422314 
  6.196369593616633   7.919386489722165   5.002978606422314 
  7.492848085301319   1.376773206199008   5.002978606422314 
  1.244428132975581   7.904963740859001  11.673616748318732 
 12.464739528951071   1.447530727079328   5.002978606422314 
 -2.489452596606057  10.060693863893631  11.673616748318732 
 -1.244803812072723   3.593096868918537  11.673616748318732 
  3.734050870398565   3.592787137009541  11.673616748318732 
  2.489233893204397  10.060729184932349  11.673616748318732 
  7.468213782802171  10.060751531297974  11.673616748318732 
  8.712816571410830   3.593098921557722  11.673616748318732 
 -5.008539748088850  10.038228219756395   5.002978606422314 
 -0.039774565671396  10.072911759201929   5.002978606422314 
  1.283564877126764   3.615561525001200   5.002978606422314 
  4.966373776334154  10.095117166704929   5.002978606422314 
  6.280554815588460   3.456274553618423   5.002978606422314 
 11.219875389785001   3.589443621524530   5.002978606422314 
 -2.489485852265981   5.748970243119429  11.673616748318732 
 -3.734162838241490  12.216461805842902  11.673616748318732 
  1.244578610438842  12.216537786443480  11.673616748318732 
  2.489084675206125   5.749131840788573  11.673616748318732 
  6.223438133655274  12.216548552319619  11.673616748318732 
 -6.229881829749766  12.209579998388779   5.002978606422314 
  7.468318850062063   5.749091003116676  11.673616748318732 
 -1.254032573421042  12.176068322121694   5.002978606422314 
 -0.015729698717592   5.768232090782792   5.002978606422314 
 -1.287202112021425   7.908290200894715   5.002978606422314 
  3.737094625982287  12.234586417395432   5.002978606422314 
  9.952064002292358   5.734188668018293   5.002978606422314 
 -3.734086857207643   7.904854927413316  11.673616748318732 
  2.489292327282847   1.437036872708689  11.673616748318732 
  6.223632591365309   7.904950842662286  11.673616748318732 
  7.468078310315492   1.437117691515220  11.673616748318732 
 12.446856410655361   1.437205903916935  11.673616748318732 
  4.310211984268115   5.362997047051127   5.002978606422314 
  1.250695811102534   0.712868472257013   5.002978606422314 
  4.893287862957383   7.380118056545515   5.002978606422314 
  6.243745183667341   0.656689745114436   5.002978606422314 
  9.928289092069758   7.170695797009520   5.002978606422314 
 11.220949480727928   0.729428207921900   5.002978606422314 
 -3.734107236994842   9.342092172216882  11.673616748318732 
  1.244582069728733   9.341924241506680  11.673616748318732 
  2.489531204794652   2.874580629506901  11.673616748318732 
  6.223438813686225   9.341855542399085  11.673616748318732 
  7.467810301755365   2.874580946019720  11.673616748318732 
 12.446957641095118   2.874525256131288  11.673616748318732 
 -1.277828870056144   9.340060190917301   5.002978606422314 
  0.033455804785361   2.893810715568502   5.002978606422314 
  5.022757223931751   2.740107831082366   5.002978606422314 
  3.691740776411886   9.434292525925494   5.002978606422314 
  8.684763578022324   9.324545167847896   5.002978606422314 
  9.984198291049136   2.862742277188322   5.002978606422314 
 -4.978816148970875  11.497995669862668  11.673616748318732 
 -0.000131418837820  11.497904115977482  11.673616748318732 
  1.244839761743721   5.030449448617351  11.673616748318732 
  6.223003133645270   5.030527929246779  11.673616748318732 
  4.978727299786582  11.497818443707560  11.673616748318732 
 11.202200185391348   5.030386794707114  11.673616748318732 
 -1.246675578950397   5.038442605197631   5.002978606422314 
 -2.507727800951173  11.470307627402150   5.002978606422314 
  2.482637972930065  11.529684312252103   5.002978606422314 
  7.462421270835326  11.502631542190441   5.002978606422314 
  8.726386190583248   5.003264348508146   5.002978606422314 
 -0.000021587402092   7.186168998893963  11.673616748318732 
  1.244729854178201   0.718669084896232  11.673616748318732 
  4.978680856963614   7.185757333449201  11.673616748318732 
  6.223249057205483   0.718620065231006  11.673616748318732 
  9.957512015680248   7.186260212424687  11.673616748318732 
 -2.520427249699940   7.181259276925033   5.002978606422314 
 11.202166957595209   0.718584113135405  11.673616748318732 
  3.729650202511699   0.671180846939506   5.002978606422314 
  2.394995911758635   7.291523933930097   5.002978606422314 
  7.431107180581786   7.164846728755461   5.002978606422314 
  8.736932807457087   0.696927893335642   5.002978606422314 
  2.489347475662217   7.186050480756549  11.673616748318732 
 13.709602646753019   0.735690295987842   5.002978606422314 
 -1.244755196971679   9.342029886413675  11.673616748318732 
  0.000141828698507   2.874576882506998  11.673616748318732 
  4.978590316010233   2.874555408896692  11.673616748318732 
  3.733979584332237   9.341765455457976  11.673616748318732 
  8.712854218971696   9.342070754360652  11.673616748318732 
  9.957380819212069   2.874537594780950  11.673616748318732 
 -3.765200508483125   9.324140463553229   5.002978606422314 
  1.201196902474368   9.390639567759839   5.002978606422314 
  2.521249921755920   2.857994988367532   5.002978606422314 
  6.206761431915401   9.367382446529357   5.002978606422314 
  7.526821691357641   2.791737530101662   5.002978606422314 
 12.470699191086128   2.881534026875568   5.002978606422314 
 -1.244635079509524   5.030375628623729  11.673616748318732 
 -2.489485158071161  11.497965420741226  11.673616748318732 
  2.489270224282447  11.497831451183831  11.673616748318732 
  3.734228504060221   5.030452829704516  11.673616748318732 
  7.468157156740455  11.497939037978879  11.673616748318732 
 -4.998603424003468  11.473586320925435   5.002978606422314 
  8.712617934011799   5.030470836855556  11.673616748318732 
 -0.009972514150051  11.492222356949972   5.002978606422314 
  1.246335533659640   5.066211483850890   5.002978606422314 
 -0.043300925794311   7.206123895639884   5.002978606422314 
  6.348627960342109   4.859395065582914   5.002978606422314 
  4.981920991024134  11.526940714380149   5.002978606422314 
 11.203396070293401   5.023073119694220   5.002978606422314 
 -2.489394495914008   7.186190885306042  11.673616748318732 
  3.734008424195820   0.718639301819331  11.673616748318732 
  7.468036663626928   7.186167975733107  11.673616748318732 
  8.712663546264936   0.718598022025227  11.673616748318732 
 13.691662098243830   0.718633895942266  11.673616748318732 
 -0.000759390620233   1.436938935236749   1.668454796702821 
  3.733726798529076   7.903610444068166   1.633219373228475 
  4.977770870295431   1.437431079760292   1.659185540727310 
  8.711042548207255   7.903817757798999   1.664098360757419 
  9.956836808512460   1.436650668163966   1.668011816117891 
 -4.979967262991338  10.060161092721112   8.337304231945232 
 -0.000819607484862  10.060099697438144   8.336971185190169 
  1.243839615824466   3.592626134694811   8.354295471436147 
  4.977572328450443  10.060316391140072   8.344632137868849 
  6.222205134410292   3.593439532787423   8.372737839616125 
 11.201528594929783   3.592451082981183   8.336949016743949 
 -2.490350850814374  10.060175256584278   1.668098140000142 
 -1.245339764741470   3.592615377317828   1.668454796702821 
  3.732324404850315   3.592763222939265   1.620109876218470 
  2.488481447480591  10.060180252718014   1.665476188551245 
  7.466804937506486  10.060120235964607   1.667039734894293 
  8.711890038028061   3.592288386547353   1.661325074975606 
 -6.224458382605280  12.216253774718970   8.335657622734391 
 -1.245650665289896  12.216210336396188   8.336971185190169 
 -0.000645840309391   5.748235531795951   8.344280314295679 
  4.976841737692934   5.747875914640907   8.391304869833574 
  3.733208688217030  12.216290779930116   8.337945396726870 
  9.956336467191450   5.748125139505555   8.338917477950135 
 -2.490185847451529   5.748304014523591   1.670299590110715 
 -3.735071310431343  12.216411883489668   1.668537296319445 
  1.243825109824683  12.216102752661188   1.669335377989452 
  2.488200732239836   5.747648634799817   1.620109876218470 
  6.222532506146440  12.216325279440712   1.669008196100626 
  7.465731220276696   5.747611445012639   1.639008609596877 
 -1.245355385152454   7.904097404493244   8.337419916525237 
 -0.000759390620211   1.436938935236711   8.337502416141566 
  3.733726798529076   7.903610444068167   8.372737839616125 
  4.977770870295432   1.437431079760293   8.346771672117038 
  8.711042548207255   7.903817757799000   8.341858852087181 
 -3.735171323168773   7.904111279892960   1.668652980899408 
  9.956836808512460   1.436650668163966   8.337945396726870 
  2.488409386283562   1.437065416492061   1.661676898548922 
  1.244351575375996   7.903902984518773   1.659185540727310 
  6.221057441567983   7.903449668584887   1.639008609596877 
  7.467226698211441   1.436740520509875   1.665476188551245 
  1.244351575375996   7.903902984518774   8.346771672117038 
 12.446248672058958   1.436855025875067   1.668151697110177 
 -2.490350850814374  10.060175256584278   8.337859072844513 
 -1.245339764741470   3.592615377317828   8.337502416141566 
  3.732324404850330   3.592763222939266   8.385847336626037 
  2.488481447480592  10.060180252718014   8.340481024293343 
  7.466804937506487  10.060120235964607   8.338917477950135 
  8.711890038028061   3.592288386547354   8.344632137868849 
 -4.979967262991339  10.060161092721112   1.668652980899408 
 -0.000819607484862  10.060099697438144   1.668986027654259 
  1.243839615824466   3.592626134694810   1.651661741408601 
  4.977572328450442  10.060316391140072   1.661325074975606 
  6.222205134410291   3.593439532787422   1.633219373228475 
 11.201528594929783   3.592451082981182   1.669008196100626 
 -2.490185847451528   5.748304014523592   8.335657622734391 
 -3.735071310431342  12.216411883489668   8.337419916525237 
  1.243825109824683  12.216102752661188   8.336621834855375 
  2.488200732239852   5.747648634799818   8.385847336626037 
  6.222532506146441  12.216325279440712   8.336949016743949 
 -6.224458382605281  12.216253774718970   1.670299590110715 
  7.465731220276697   5.747611445012640   8.366948603247831 
 -1.245650665289896  12.216210336396188   1.668986027654259 
 -0.000645840309392   5.748235531795951   1.661676898548922 
 -1.245355385152454   7.904097404493243   1.668537296319445 
  4.976841737692933   5.747875914640906   1.614652343010962 
  3.733208688217029  12.216290779930116   1.668011816117891 
  9.956336467191450   5.748125139505555   1.667039734894293 
 -3.735171323168773   7.904111279892961   8.337304231945232 
  2.488409386283562   1.437065416492061   8.344280314295679 
  6.221057441567984   7.903449668584888   8.366948603247831 
  7.467226698211442   1.436740520509876   8.340481024293343 
 12.446248672058958   1.436855025875067   8.337805515734317 
Generated by cif2cell 2.0.0.  :  Failed to get author information, No journal information. Species order: N Sb B 
 1.0
 14.936314146199660   0.000000000000000   0.000000000000000
 -7.468157073099825  12.935227489513863   0.000000000000000
  0.000000000000001   0.000000000000001  13.341276283792837
 N Sb B 
 143   1 143
Cartesian
  1.243666229796582   0.717868267561974   1.669541291598513 
  4.977828557188176   7.186789217334446   1.609721450638303 
  6.222700228174094   0.718085471724365   1.667989556029525 
  9.956275678152082   7.185499009853915   1.669277741985713 
 11.201533244864956   0.718218238920014   1.667916240646020 
 -3.735245477933934   9.341435008504302   8.337787480242868 
  1.243844683655552   9.341716238376547   8.337967656815023 
  2.487896857296932   2.873463646198360   8.361333470578117 
  6.222238846253204   9.341578474132266   8.345030408781867 
  7.467458161425237   2.873760323097693   8.347957969394349 
 12.446039153107213   2.873989892213855   8.336651211539472 
 -1.245672372463032   9.341573707633470   1.669004697951358 
 -0.001177861781876   2.873814958852746   1.665935319351727 
  4.977996620304355   2.874006099115331   1.638594326592502 
  3.733092833869709   9.341870804447503   1.657999243450279 
  8.711576829444173   9.341380655938515   1.669277741985713 
  9.956841048412324   2.873840688178753   1.668403099079583 
 -4.979831082684946  11.497308543824527   8.336237638428891 
 -0.000831834942046  11.497499730551212   8.336183102728556 
  1.243055252074174   5.029592553819791   8.361333470578117 
  6.223470621416452   5.029273874046084   8.396235762206285 
  4.977853875565293  11.497699441783594   8.337554113764938 
 11.201152833426946   5.029764868038574   8.335164041106639 
 -1.245860419855539   5.029854911556201   1.669541291598513 
 -2.490338808228840  11.497399212855530   1.669004697951358 
  2.488556372432026  11.497671696352890   1.669553196149525 
  3.730566658333224   5.028338662088278   1.583167946166405 
  7.467094876464027  11.497342967905231   1.670793171738230 
  8.711778002137731   5.029570168708099   1.660926804063282 
 -0.000886356870870   7.185776547914964   8.340286253914922 
  1.243666229796583   0.717868267561974   8.336415921246115 
  4.977828557188177   7.186789217334447   8.396235762206285 
  6.222700228174094   0.718085471724366   8.337967656815023 
  9.956275678152082   7.185499009853916   8.336679470858728 
 -2.490497031375698   7.185655489945606   1.669719574415683 
 11.201533244864956   0.718218238920014   8.338040972198874 
  3.733236166943840   0.718086614980516   1.665670958929705 
  2.488574911584251   7.185810980083510   1.638594326592502 
  7.466883797379159   7.185502368094066   1.651884054214743 
  8.712168268597493   0.718059685604171   1.669553196149525 
  2.488574911584251   7.185810980083511   8.367362886252327 
 13.690739215497000   0.718106143970578   1.669306001304701 
 -1.245672372463031   9.341573707633470   8.336952514892989 
 -0.001177861781876   2.873814958852747   8.340021893493194 
  4.977996620304356   2.874006099115332   8.367362886252327 
  3.733092833869710   9.341870804447503   8.347957969394349 
  8.711576829444173   9.341380655938515   8.336679470858728 
  9.956841048412324   2.873840688178754   8.337554113764938 
 -3.735245477933934   9.341435008504302   1.668169732601613 
  1.243844683655552   9.341716238376547   1.667989556029525 
  2.487896857296931   2.873463646198359   1.644623742266497 
  6.222238846253203   9.341578474132266   1.660926804063282 
  7.467458161425236   2.873760323097692   1.657999243450279 
 12.446039153107213   2.873989892213854   1.669306001304701 
 -1.245860419855539   5.029854911556202   8.336415921246115 
 -2.490338808228839  11.497399212855530   8.336952514892989 
  2.488556372432040  11.497671696352890   8.336404016695596 
  3.730566658333224   5.028338662088279   8.422789266678210 
  7.467094876464028  11.497342967905231   8.335164041106639 
 -4.979831082684947  11.497308543824527   1.669719574415683 
  8.711778002137731   5.029570168708100   8.345030408781867 
 -0.000831834942047  11.497499730551212   1.669774110116072 
  1.243055252074173   5.029592553819790   1.644623742266497 
 -0.000886356870870   7.185776547914963   1.665670958929705 
  6.223470621416451   5.029273874046083   1.609721450638303 
  4.977853875565292  11.497699441783594   1.668403099079583 
 11.201152833426946   5.029764868038573   1.670793171738230 
 -2.490497031375698   7.185655489945607   8.336237638428891 
  3.733236166943840   0.718086614980517   8.340286253914922 
  7.466883797379160   7.185502368094067   8.354073158629658 
  8.712168268597493   0.718059685604172   8.336404016695596 
 13.690739215497000   0.718106143970578   8.336651211539472 
  0.018543047166467   1.451344851758574   5.002978606422314 
  3.644113282648372   8.022725239855463   5.002978606422314 
  4.999036457672235   1.334936153163125   5.002978606422314 
  8.675436455643279   7.883260570672700   5.002978606422314 
  9.974624264218422   1.430868170253651   5.002978606422314 
 -4.978781012366573  10.060728444032618  11.673616748318732 
 -0.000124518205279  10.060744875362181  11.673616748318732 
  1.244568258564344   3.593046816776840  11.673616748318732 
  4.978737539051396  10.060713525081937  11.673616748318732 
  6.223439069489488   3.592928846918912  11.673616748318732 
 11.202174768669099   3.593123742971108  11.673616748318732 
 -2.522454944140226  10.041639949661473   5.002978606422314 
 -1.223212656175385   3.602128820535103   5.002978606422314 
  3.811540664889431   3.446913127240571   5.002978606422314 
  2.449358923435452  10.112352681973725   5.002978606422314 
  7.452599366709705  10.063388408569105   5.002978606422314 
  8.736429117680602   3.565189768146410   5.002978606422314 
 -6.223531414123723  12.216526874034161  11.673616748318732 
 -1.244744380178176  12.216489712408615  11.673616748318732 
 -0.000229089451225   5.749014453022983  11.673616748318732 
  4.978818300788030   5.749017083875931  11.673616748318732 
  3.733977935391811  12.216539914010127  11.673616748318732 
  9.957587607634732   5.749029587655881  11.673616748318732 
 -2.498677230864832   5.746944059685378   5.002978606422314 
 -3.752363605669125  12.178075156754941   5.002978606422314 
  1.238626630125003  12.213101409007754   5.002978606422314 
  2.401498974239792   5.889176976236081   5.002978606422314 
  6.229101365551230  12.233717800592467   5.002978606422314 
  7.467188988261727   5.718262730952925   5.002978606422314 
 -1.244857915031561   7.904859203311932  11.673616748318732 
 -0.000074430327938   1.437162338062757  11.673616748318732 
  3.733901499133251   7.904934406127524  11.673616748318732 
  4.978727791033288   1.436967002415923  11.673616748318732 
  8.713004183942870   7.904950308719922  11.673616748318732 
 -3.768451990882763   7.890333218431299   5.002978606422314 
  9.957437188541773   1.437192288719656  11.673616748318732 
  2.498184985150475   1.414004132429818   5.002978606422314 
  1.166221158872253   7.973566986712029   5.002978606422314 
  6.196369593616633   7.919386489722165   5.002978606422314 
  7.492848085301319   1.376773206199008   5.002978606422314 
  1.244428132975581   7.904963740859001  11.673616748318732 
 12.464739528951071   1.447530727079328   5.002978606422314 
 -2.489452596606057  10.060693863893631  11.673616748318732 
 -1.244803812072723   3.593096868918537  11.673616748318732 
  3.734050870398565   3.592787137009541  11.673616748318732 
  2.489233893204397  10.060729184932349  11.673616748318732 
  7.468213782802171  10.060751531297974  11.673616748318732 
  8.712816571410830   3.593098921557722  11.673616748318732 
 -5.008539748088850  10.038228219756395   5.002978606422314 
 -0.039774565671396  10.072911759201929   5.002978606422314 
  1.283564877126764   3.615561525001200   5.002978606422314 
  4.966373776334154  10.095117166704929   5.002978606422314 
  6.280554815588460   3.456274553618423   5.002978606422314 
 11.219875389785001   3.589443621524530   5.002978606422314 
 -2.489485852265981   5.748970243119429  11.673616748318732 
 -3.734162838241490  12.216461805842902  11.673616748318732 
  1.244578610438842  12.216537786443480  11.673616748318732 
  2.489084675206125   5.749131840788573  11.673616748318732 
  6.223438133655274  12.216548552319619  11.673616748318732 
 -6.229881829749766  12.209579998388779   5.002978606422314 
  7.468318850062063   5.749091003116676  11.673616748318732 
 -1.254032573421042  12.176068322121694   5.002978606422314 
 -0.015729698717592   5.768232090782792   5.002978606422314 
 -1.287202112021425   7.908290200894715   5.002978606422314 
  3.737094625982287  12.234586417395432   5.002978606422314 
  9.952064002292358   5.734188668018293   5.002978606422314 
 -3.734086857207643   7.904854927413316  11.673616748318732 
  2.489292327282847   1.437036872708689  11.673616748318732 
  6.223632591365309   7.904950842662286  11.673616748318732 
  7.468078310315492   1.437117691515220  11.673616748318732 
 12.446856410655361   1.437205903916935  11.673616748318732 
  4.310211984268115   5.362997047051127   5.002978606422314 
  1.250695811102534   0.712868472257013   5.002978606422314 
  4.893287862957383   7.380118056545515   5.002978606422314 
  6.243745183667341   0.656689745114436   5.002978606422314 
  9.928289092069758   7.170695797009520   5.002978606422314 
 11.220949480727928   0.729428207921900   5.002978606422314 
 -3.734107236994842   9.342092172216882  11.673616748318732 
  1.244582069728733   9.341924241506680  11.673616748318732 
  2.489531204794652   2.874580629506901  11.673616748318732 
  6.223438813686225   9.341855542399085  11.673616748318732 
  7.467810301755365   2.874580946019720  11.673616748318732 
 12.446957641095118   2.874525256131288  11.673616748318732 
 -1.277828870056144   9.340060190917301   5.002978606422314 
  0.033455804785361   2.893810715568502   5.002978606422314 
  5.022757223931751   2.740107831082366   5.002978606422314 
  3.691740776411886   9.434292525925494   5.002978606422314 
  8.684763578022324   9.324545167847896   5.002978606422314 
  9.984198291049136   2.862742277188322   5.002978606422314 
 -4.978816148970875  11.497995669862668  11.673616748318732 
 -0.000131418837820  11.497904115977482  11.673616748318732 
  1.244839761743721   5.030449448617351  11.673616748318732 
  6.223003133645270   5.030527929246779  11.673616748318732 
  4.978727299786582  11.497818443707560  11.673616748318732 
 11.202200185391348   5.030386794707114  11.673616748318732 
 -1.246675578950397   5.038442605197631   5.002978606422314 
 -2.507727800951173  11.470307627402150   5.002978606422314 
  2.482637972930065  11.529684312252103   5.002978606422314 
  7.462421270835326  11.502631542190441   5.002978606422314 
  8.726386190583248   5.003264348508146   5.002978606422314 
 -0.000021587402092   7.186168998893963  11.673616748318732 
  1.244729854178201   0.718669084896232  11.673616748318732 
  4.978680856963614   7.185757333449201  11.673616748318732 
  6.223249057205483   0.718620065231006  11.673616748318732 
  9.957512015680248   7.186260212424687  11.673616748318732 
 -2.520427249699940   7.181259276925033   5.002978606422314 
 11.202166957595209   0.718584113135405  11.673616748318732 
  3.729650202511699   0.671180846939506   5.002978606422314 
  2.394995911758635   7.291523933930097   5.002978606422314 
  7.431107180581786   7.164846728755461   5.002978606422314 
  8.736932807457087   0.696927893335642   5.002978606422314 
  2.489347475662217   7.186050480756549  11.673616748318732 
 13.709602646753019   0.735690295987842   5.002978606422314 
 -1.244755196971679   9.342029886413675  11.673616748318732 
  0.000141828698507   2.874576882506998  11.673616748318732 
  4.978590316010233   2.874555408896692  11.673616748318732 
  3.733979584332237   9.341765455457976  11.673616748318732 
  8.712854218971696   9.342070754360652  11.673616748318732 
  9.957380819212069   2.874537594780950  11.673616748318732 
 -3.765200508483125   9.324140463553229   5.002978606422314 
  1.201196902474368   9.390639567759839   5.002978606422314 
  2.521249921755920   2.857994988367532   5.002978606422314 
  6.206761431915401   9.367382446529357   5.002978606422314 