Species order: X N B                    
   2.51242800000000     
     5.9449720136058266    0.0000000000000000    0.0000000000000000
    -2.9724860068029120    5.1484967885702053   -0.0000000000000001
     0.0000000000000000    0.0000000000000009    5.3101128803662583
   Al   N    B 
     1   143   143
Direct
  0.4681279040271952  0.4007306186802624  0.3750000000000000
  0.1111778933234016  0.0555823714259439  0.1247507197510838
  0.6112027454112341  0.5556184317574904  0.1264935515692980
  0.4444815769347432  0.0555476273977411  0.1248289373015170
  0.9445118138134643  0.5555889989349463  0.1250682341971763
  0.7778128130081169  0.0555730731707231  0.1249992391121195
  0.1111632111152937  0.7222482722243119  0.6249837304180775
  0.4444815769347432  0.7222672828703373  0.6251710626984870
  0.2778736871682118  0.2222572675531539  0.6241920690342714
  0.7778471263182912  0.7222550620426134  0.6248953928955533
  0.6111453104457216  0.2222270058218025  0.6249007006958117
  0.9445053021431803  0.2222557903247905  0.6250849189284279
  0.2778179763032393  0.7222505589511236  0.1249200643914296
  0.1112014685194029  0.2222674009263654  0.1248767681328300
  0.4445196854411982  0.2222296068659765  0.1260080879262606
  0.6111453104457216  0.7222516379572459  0.1250992993041903
  0.9445118138134643  0.7222561482118602  0.1250682341971763
  0.7778179243159222  0.2222456549833728  0.1249922591150789
  0.1111642224396081  0.8889092172762953  0.6250705809188400
  0.4444727477109376  0.8889030405221329  0.6251098641265816
  0.2778736871682118  0.3889497529483840  0.6241920690342714
  0.6112027454112341  0.3889176469870709  0.6235064484306999
  0.7778179243159222  0.8889056026658754  0.6250077408849241
  0.9445055544891885  0.3889194398768662  0.6250554867315922
  0.1111778933234016  0.3889288552307858  0.1247507197510838
  0.2778179763032393  0.8889007506854437  0.1249200643914296
  0.6111382655066688  0.8889096241436588  0.1249276292761373
  0.4446601325107849  0.3889967329220559  0.1316225147923564
  0.9445055544891885  0.8889194479456505  0.1249445132684059
  0.7778471263182912  0.3889253976090077  0.1251046071044468
  0.2778285342082260  0.5556022612217409  0.6250842070644200
  0.1111778933234016  0.0555823714259439  0.6252492802489178
  0.6112027454112341  0.5556184317574904  0.6235064484306999
  0.4444815769347432  0.0555476273977411  0.6251710626984870
  0.9445118138134643  0.5555889989349463  0.6249317658028245
  0.1111642224396081  0.5555883384966404  0.1249294190811622
  0.7778128130081169  0.0555730731707231  0.6250007608878800
  0.2778285342082260  0.0555596063198182  0.1249157929355766
  0.4445196854411982  0.5556234119085549  0.1260080879262606
  0.7778492489278754  0.5555912911306037  0.1254467821350699
  0.6111382655066688  0.0555619746963402  0.1249276292761373
  0.4445196854411982  0.5556234119085549  0.6239919120737371
  0.9445053021431803  0.0555828451517297  0.1249150810715767
  0.2778179763032393  0.7222505589511236  0.6250799356085704
  0.1112014685194029  0.2222674009263654  0.6251232318671724
  0.4445196854411982  0.2222296068659765  0.6239919120737371
  0.6111453104457216  0.7222516379572459  0.6249007006958117
  0.9445118138134643  0.7222561482118602  0.6249317658028245
  0.7778179243159222  0.2222456549833728  0.6250077408849241
  0.1111632111152937  0.7222482722243119  0.1250162695819269
  0.4444815769347432  0.7222672828703373  0.1248289373015170
  0.2778736871682118  0.2222572675531540  0.1258079309657291
  0.7778471263182912  0.7222550620426134  0.1251046071044468
  0.6111453104457216  0.2222270058218025  0.1250992993041903
  0.9445053021431803  0.2222557903247905  0.1249150810715767
  0.1111778933234016  0.3889288552307858  0.6252492802489178
  0.2778179763032393  0.8889007506854437  0.6250799356085704
  0.6111382655066688  0.8889096241436588  0.6250723707238625
  0.4446601325107849  0.3889967329220559  0.6183774852076449
  0.9445055544891885  0.8889194479456505  0.6250554867315922
  0.1111642224396081  0.8889092172762953  0.1249294190811622
  0.7778471263182912  0.3889253976090077  0.6248953928955533
  0.4444727477109376  0.8889030405221329  0.1248901358734180
  0.2778736871682118  0.3889497529483840  0.1258079309657291
  0.2778285342082260  0.5556022612217409  0.1249157929355766
  0.6112027454112341  0.3889176469870709  0.1264935515692980
  0.7778179243159222  0.8889056026658754  0.1249922591150789
  0.9445055544891885  0.3889194398768662  0.1249445132684061
  0.1111642224396081  0.5555883384966404  0.6250705809188400
  0.2778285342082260  0.0555596063198182  0.6250842070644200
  0.7778492489278754  0.5555912911306037  0.6245532178649269
  0.6111382655066688  0.0555619746963402  0.6250723707238625
  0.9445053021431803  0.0555828451517297  0.6250849189284279
  0.0552310327135663  0.1109248588822110  0.3750000000000000
  0.5547642633477573  0.6095853920585260  0.3750000000000000
  0.3877378907076382  0.1068759672051869  0.3750000000000000
  0.8886961781850030  0.6110147557591685  0.3750000000000000
  0.7221589980437108  0.1110540032333812  0.3750000000000000
  0.0555603938553987  0.7777817869398148  0.8750000000000000
  0.3888948735711942  0.7777794410492451  0.8750000000000000
  0.2222317227278177  0.2777825280305776  0.8750000000000000
  0.7222281995876558  0.7777800426290512  0.8750000000000000
  0.5555626122274632  0.2777798762684146  0.8750000000000000
  0.8888968797490991  0.2777779155639257  0.8750000000000000
  0.2212984708449434  0.7773159020891359  0.3750000000000000
  0.0552310327135663  0.2776395071646919  0.3750000000000000
  0.3858349206404349  0.2682048855189573  0.3750000000000000
  0.5554713170871950  0.7777715643340688  0.3750000000000000
  0.8884061278042161  0.7774871382494882  0.3750000000000000
  0.7219634002830230  0.2777393661635687  0.3750000000000000
  0.0555599777431038  0.9444489637938425  0.8750000000000000
  0.3888948735711942  0.9444487658552827  0.8750000000000000
  0.2222216493395406  0.4444420023719762  0.8750000000000000
  0.5555448725405291  0.4444391029369288  0.8750000000000000
  0.7222329379696426  0.9444505905332912  0.8750000000000000
  0.8889040428780225  0.4444470425077836  0.8750000000000000
  0.0544917952317186  0.4443356864786790  0.3750000000000000
  0.2210013511756194  0.9429602335047241  0.3750000000000000
  0.5555229984762767  0.9444281659048018  0.3750000000000000
  0.3858349206404349  0.4509633684548083  0.3750000000000000
  0.8885384456998729  0.9443104943344891  0.3750000000000000
  0.7224850300631478  0.4451335821467575  0.3750000000000000
  0.2222286834768621  0.6111098475448196  0.8750000000000000
  0.0555581485513753  0.1111149338616347  0.8750000000000000
  0.5555626122274632  0.6111160692923820  0.8750000000000000
  0.3889024251801023  0.1111302427497399  0.8750000000000000
  0.8888846799357915  0.6111090066345691  0.8750000000000000
  0.0547008635814657  0.6108457731296384  0.3750000000000000
  0.7222329379696426  0.1111156807696915  0.8750000000000000
  0.2203684935835200  0.1087963178752809  0.3750000000000000
  0.3877378907076382  0.6141952568357969  0.3750000000000000
  0.7224850300631478  0.6106847812497237  0.3750000000000000
  0.5554713170871950  0.1110330860864663  0.3750000000000000
  0.3889024251801023  0.6111055157637038  0.8750000000000000
  0.8886805368532932  0.1110069350933176  0.3750000000000000
  0.2222268130500223  0.7777800731916787  0.8750000000000000
  0.0555581485513753  0.2777765480230751  0.8750000000000000
  0.3888981402725145  0.2777963330977661  0.8750000000000000
  0.5555618421264777  0.7777890846533055  0.8750000000000000
  0.8889040428780224  0.7777903337035694  0.8750000000000000
  0.7222281995876558  0.2777814902919429  0.8750000000000000
  0.0547008635814657  0.7771884237851645  0.3750000000000000
  0.3883190467124739  0.7784491875885010  0.3750000000000000
  0.2225081299023274  0.2779207316178324  0.3750000000000000
  0.7219634002830230  0.7775573674527942  0.3750000000000000
  0.5547642633477573  0.2785122046225684  0.3750000000000000
  0.8885384456998729  0.2775612846987194  0.3750000000000000
  0.0555599777431038  0.4444443472825902  0.8750000000000000
  0.2222286834768621  0.9444521692653757  0.8750000000000000
  0.5555618810282228  0.9444476071807743  0.8750000000000000
  0.3888981402725145  0.4444351405080829  0.8750000000000000
  0.8888968797490991  0.9444522975185141  0.8750000000000000
  0.0544917952317186  0.9434894420863664  0.3750000000000000
  0.7222235684015826  0.4444407379912047  0.8750000000000000
  0.3883190467124739  0.9432031924573069  0.3750000000000000
  0.2203684935835200  0.4449055090415751  0.3750000000000000
  0.2210013511756194  0.6113744510042267  0.3750000000000000
  0.7221589980437108  0.9444383281436681  0.3750000000000000
  0.8884061278042161  0.4442523228880615  0.3750000000000000
  0.0555603938553987  0.6111119402489154  0.8750000000000000
  0.2222216493395406  0.1111129803009009  0.8750000000000000
  0.7222235684015826  0.6111161637437106  0.8750000000000000
  0.5555618421264777  0.1111060908065101  0.8750000000000000
  0.8888965480231824  0.1111149406782624  0.8750000000000000
  0.1098000909785785  0.0544195898629668  0.3750000000000000
  0.6156576710279335  0.5617200839045435  0.3750000000000000
  0.4440447762671481  0.0532106138679568  0.3750000000000000
  0.9443934640376258  0.5552961018438173  0.3750000000000000
  0.7778859905960372  0.0556096619646870  0.3750000000000000
  0.1113241155855198  0.7223287244594219  0.8750000000000000
  0.4443495529599415  0.7220463446148773  0.8750000000000000
  0.2776382705448843  0.2222947832639889  0.8750000000000000
  0.7777197337280297  0.7223671807288372  0.8750000000000000
  0.6113155622563846  0.2222872362428248  0.8750000000000000
  0.9443605220458279  0.2220214783849560  0.8750000000000000
  0.2770042917685102  0.7222815350107751  0.3750000000000000
  0.1112152869991801  0.2222743101662550  0.3750000000000000
  0.4410875543602975  0.2157900395579062  0.3750000000000000
  0.6115453674364836  0.7233061282526045  0.3750000000000000
  0.9443934640376258  0.7224306955271468  0.3750000000000000
  0.7778931966489679  0.2217992507491771  0.3750000000000000
  0.1110231699804833  0.8890014838680688  0.8750000000000000
  0.4446432777477077  0.8889883055405192  0.8750000000000000
  0.2776382705448843  0.3886768206142257  0.8750000000000000
  0.6110399660809183  0.3889480874025739  0.8750000000000000
  0.7777128336775105  0.8887420190939617  0.8750000000000000
  0.9446691293264494  0.3889811344993725  0.8750000000000000
  0.1098000909785785  0.3887138344489390  0.3750000000000000
  0.2770042917685102  0.8880560900910569  0.3750000000000000
  0.6112872270379522  0.8892129114575943  0.3750000000000000
  0.9440110660178707  0.8888808541819435  0.3750000000000000
  0.7784909708939930  0.3881894639790672  0.3750000000000000
  0.2779478535611243  0.5556363875835429  0.8750000000000000
  0.1110083409745540  0.0553644504959268  0.8750000000000000
  0.6110399660809183  0.5554252120116705  0.8750000000000000
  0.4443495529599415  0.0556365416784017  0.8750000000000000
  0.9443833304852081  0.5556533578773490  0.8750000000000000
  0.1101613670663644  0.5553371923633144  0.3750000000000000
  0.7780010424948132  0.0556671879140751  0.8750000000000000
  0.2761619048966624  0.0534424938474013  0.3750000000000000
  0.4410875543602975  0.5586308481357257  0.3750000000000000
  0.7795756380829336  0.5564544857081324  0.3750000000000000
  0.6112872270379522  0.0554076489136901  0.3750000000000000
  0.4443265227900789  0.5556585302788762  0.8750000000000000
  0.9443619185557779  0.0556744893655258  0.3750000000000000
  0.2776762751896324  0.7223187580826622  0.8750000000000000
  0.1112821638766878  0.2223077486050090  0.8750000000000000
  0.4443265227900789  0.2220013258445362  0.8750000000000000
  0.6113155622563846  0.7223616593468842  0.8750000000000000
  0.9443833304852081  0.7220633059411932  0.8750000000000000
  0.7777128336775105  0.2223041479168736  0.8750000000000000
  0.1104329732479200  0.7218831532906242  0.3750000000000000
  0.4440447762671481  0.7241674957325264  0.3750000000000000
  0.2760745956032902  0.2196825279956630  0.3750000000000000
  0.7784909708939930  0.7236348402482543  0.3750000000000000
  0.6115453674364836  0.2215725725172039  0.3750000000000000
  0.9443619185557779  0.2220207625235906  0.3750000000000000
  0.1110083409745540  0.3889772238119550  0.8750000000000000
  0.2776762751896324  0.8886908504402984  0.8750000000000000
  0.6110256521876340  0.8890084723100010  0.8750000000000000
  0.4445617145198907  0.3889475239266100  0.8750000000000000
  0.9446691293264494  0.8890213281604028  0.8750000000000000
  0.1101613670663644  0.8881575080363810  0.3750000000000000
  0.7777197337280297  0.3886858863325225  0.8750000000000000
  0.4443174160539341  0.8888253746936293  0.3750000000000000
  0.2760745956032902  0.3897254009409588  0.3750000000000000
  0.2761619048966624  0.5560527443825974  0.3750000000000000
  0.6156576710279335  0.3872709204567212  0.3750000000000000
  0.7778931966489679  0.8894272792331163  0.3750000000000000
  0.9440110660178707  0.3884635451692593  0.3750000000000000
  0.1110231699804833  0.5553550194457388  0.8750000000000000
  0.2779478535611243  0.0556447993109185  0.8750000000000000
  0.7780063797691611  0.5556698565512480  0.8750000000000000
  0.6110256521876340  0.0553505132109598  0.8750000000000000
  0.9443605220458279  0.0556723769942082  0.8750000000000000
  0.0556220540859328  0.1111441038212093  0.1250555339050463
  0.5555357326649675  0.6113275498499841  0.1256116526505357
  0.3888104315000777  0.1108995024399009  0.1251809142297480
  0.8891721038808612  0.6112527186070980  0.1250751259759193
  0.7222610810221624  0.1110854051302337  0.1251190563044019
  0.0557182935189217  0.7778626967828319  0.6248510233489777
  0.3888712875853062  0.7778279094358281  0.6249755184114988
  0.2221956487953917  0.2777644910643648  0.6242583047965827
  0.7223275067103619  0.7779397701755402  0.6250214287620242
  0.5555357326649675  0.2775415161483208  0.6243883473494594
  0.8889978548091877  0.2777911371127094  0.6248982503048630
  0.2222821272798859  0.7778077303066135  0.1250912989849497
  0.0556220540859328  0.2778112835980581  0.1250555339050463
  0.3886616770295864  0.2773706325982428  0.1279203002649874
  0.5555347565769013  0.7778981366712169  0.1250108020587409
  0.8891021072653661  0.7779343073705918  0.1250662167771997
  0.7223275067103619  0.2777210698681582  0.1249785712379779
  0.0556591098316929  0.9445009783190932  0.6250049845236296
  0.3888712875853062  0.9443767114828113  0.6249755184114988
  0.2222056628280324  0.4445075391471938  0.6247506367890289
  0.5558593414011533  0.4445963373672410  0.6228549304351839
  0.7222610810221624  0.9445090092252625  0.6248809436956009
  0.8891021072653661  0.4445011332281086  0.6249337832227992
  0.0556591098316929  0.4444914648459274  0.1249950154763708
  0.2222523661817319  0.9444093451098052  0.1250741431324617
  0.5555476135241849  0.9444404734287566  0.1250123149696878
  0.3886616770295864  0.4446243777646758  0.1279203002649874
  0.8889978548091877  0.9445400510298166  0.1251017496951386
  0.7225269293421375  0.4445237806795804  0.1252735822406973
  0.2222523661817319  0.6111763544052649  0.6249258568675398
  0.0556220540859328  0.1111441038212093  0.6249444660949544
  0.5555357326649675  0.6113275498499841  0.6243883473494594
  0.3888104315000777  0.1108995024399009  0.6248190857702490
  0.8891721038808612  0.6112527186070980  0.6249248740240787
  0.0557182935189217  0.6111889300694303  0.1251489766510218
  0.7222610810221624  0.1110854051302337  0.6248809436956009
  0.2222056628280324  0.1110314570141751  0.1252493632109735
  0.3888104315000777  0.6112442623935227  0.1251809142297480
  0.7225269293421375  0.6113364819958979  0.1252735822406973
  0.5555347565769013  0.1109699532390222  0.1250108020587409
  0.3888104315000777  0.6112442623935227  0.6248190857702490
  0.8889639298432741  0.1111486315883083  0.1250934169079421
  0.2222821272798859  0.7778077303066135  0.6249087010150532
  0.0556220540859328  0.2778112835980581  0.6249444660949544
  0.3886616770295864  0.2773706325982428  0.6220796997350092
  0.5555347565769013  0.7778981366712169  0.6249891979412534
  0.8891021072653661  0.7779343073705918  0.6249337832227992
  0.7223275067103619  0.2777210698681582  0.6250214287620242
  0.0557182935189217  0.7778626967828319  0.1251489766510218
  0.3888712875853062  0.7778279094358281  0.1250244815885041
  0.2221956487953917  0.2777644910643648  0.1257416952034156
  0.7223275067103619  0.7779397701755402  0.1249785712379779
  0.5555357326649675  0.2775415161483208  0.1256116526505357
  0.8889978548091877  0.2777911371127094  0.1251017496951386
  0.0556591098316929  0.4444914648459274  0.6250049845236296
  0.2222523661817319  0.9444093451098052  0.6249258568675398
  0.5555476135241849  0.9444404734287566  0.6249876850303160
  0.3886616770295864  0.4446243777646758  0.6220796997350092
  0.8889978548091877  0.9445400510298166  0.6248982503048630
  0.0556591098316929  0.9445009783190932  0.1249950154763708
  0.7225269293421375  0.4445237806795804  0.6247264177593038
  0.3888712875853062  0.9443767114828113  0.1250244815885041
  0.2222056628280324  0.4445075391471938  0.1252493632109735
  0.2222523661817319  0.6111763544052649  0.1250741431324617
  0.5558593414011533  0.4445963373672410  0.1271450695648152
  0.7222610810221624  0.9445090092252625  0.1251190563044019
  0.8891021072653661  0.4445011332281086  0.1250662167771997
  0.0557182935189217  0.6111889300694303  0.6248510233489777
  0.2222056628280324  0.1110314570141751  0.6247506367890289
  0.7225269293421375  0.6113364819958979  0.6247264177593038
  0.5555347565769013  0.1109699532390222  0.6249891979412534
  0.8889639298432741  0.1111486315883083  0.6249065830920598
 
  0.00000000E+00  0.00000000E+00  0.00000000E+00
  0.00000000E+00  0.00000000E+00  0.00000000E+00
  0.00000000E+00  0.00000000E+00  0.00000000E+00
  0.00000000E+00  0.00000000E+00  0.00000000E+00
  0.00000000E+00  0.00000000E+00  0.00000000E+00
  0.00000000E+00  0.00000000E+00  0.00000000E+00
  0.00000000E+00  0.00000000E+00  0.00000000E+00
  0.00000000E+00  0.00000000E+00  0.00000000E+00
  0.00000000E+00  0.00000000E+00  0.00000000E+00
  0.00000000E+00  0.00000000E+00  0.00000000E+00
  0.00000000E+00  0.00000000E+00  0.00000000E+00
  0.00000000E+00  0.00000000E+00  0.00000000E+00
  0.00000000E+00  0.00000000E+00  0.00000000E+00
  0.00000000E+00  0.00000000E+00  0.00000000E+00
  0.00000000E+00  0.00000000E+00  0.00000000E+00
  0.00000000E+00  0.00000000E+00  0.00000000E+00
  0.00000000E+00  0.00000000E+00  0.00000000E+00
  0.00000000E+00  0.00000000E+00  0.00000000E+00
  0.00000000E+00  0.00000000E+00  0.00000000E+00
  0.00000000E+00  0.00000000E+00  0.00000000E+00
  0.00000000E+00  0.00000000E+00  0.00000000E+00
  0.00000000E+00  0.00000000E+00  0.00000000E+00
  0.00000000E+00  0.00000000E+00  0.00000000E+00
  0.00000000E+00  0.00000000E+00  0.00000000E+00
  0.00000000E+00  0.00000000E+00  0.00000000E+00
  0.00000000E+00  0.00000000E+00  0.00000000E+00
  0.00000000E+00  0.00000000E+00  0.00000000E+00
  0.00000000E+00  0.00000000E+00  0.00000000E+00
  0.00000000E+00  0.00000000E+00  0.00000000E+00
  0.00000000E+00  0.00000000E+00  0.00000000E+00
  0.00000000E+00  0.00000000E+00  0.00000000E+00
  0.00000000E+00  0.00000000E+00  0.00000000E+00
  0.00000000E+00  0.00000000E+00  0.00000000E+00
  0.00000000E+00  0.00000000E+00  0.00000000E+00
  0.00000000E+00  0.00000000E+00  0.00000000E+00
  0.00000000E+00  0.00000000E+00  0.00000000E+00
  0.00000000E+00  0.00000000E+00  0.00000000E+00
  0.00000000E+00  0.00000000E+00  0.00000000E+00
  0.00000000E+00  0.00000000E+00  0.00000000E+00
  0.00000000E+00  0.00000000E+00  0.00000000E+00
  0.00000000E+00  0.00000000E+00  0.00000000E+00
  0.00000000E+00  0.00000000E+00  0.00000000E+00
  0.00000000E+00  0.00000000E+00  0.00000000E+00
  0.00000000E+00  0.00000000E+00  0.00000000E+00
  0.00000000E+00  0.00000000E+00  0.00000000E+00
  0.00000000E+00  0.00000000E+00  0.00000000E+00
  0.00000000E+00  0.00000000E+00  0.00000000E+00
  0.00000000E+00  0.00000000E+00  0.00000000E+00
  0.00000000E+00  0.00000000E+00  0.00000000E+00
  0.00000000E+00  0.00000000E+00  0.00000000E+00
  0.00000000E+00  0.00000000E+00  0.00000000E+00
  0.00000000E+00  0.00000000E+00  0.00000000E+00
  0.00000000E+00  0.00000000E+00  0.00000000E+00
  0.00000000E+00  0.00000000E+00  0.00000000E+00
  0.00000000E+00  0.00000000E+00  0.00000000E+00
  0.00000000E+00  0.00000000E+00  0.00000000E+00
  0.00000000E+00  0.00000000E+00  0.00000000E+00
  0.00000000E+00  0.00000000E+00  0.00000000E+00
  0.00000000E+00  0.00000000E+00  0.00000000E+00
  0.00000000E+00  0.00000000E+00  0.00000000E+00
  0.00000000E+00  0.00000000E+00  0.00000000E+00
  0.00000000E+00  0.00000000E+00  0.00000000E+00
  0.00000000E+00  0.00000000E+00  0.00000000E+00
  0.00000000E+00  0.00000000E+00  0.00000000E+00
  0.00000000E+00  0.00000000E+00  0.00000000E+00
  0.00000000E+00  0.00000000E+00  0.00000000E+00
  0.00000000E+00  0.00000000E+00  0.00000000E+00
  0.00000000E+00  0.00000000E+00  0.00000000E+00
  0.00000000E+00  0.00000000E+00  0.00000000E+00
  0.00000000E+00  0.00000000E+00  0.00000000E+00
  0.00000000E+00  0.00000000E+00  0.00000000E+00
  0.00000000E+00  0.00000000E+00  0.00000000E+00
  0.00000000E+00  0.00000000E+00  0.00000000E+00
  0.00000000E+00  0.00000000E+00  0.00000000E+00
  0.00000000E+00  0.00000000E+00  0.00000000E+00
  0.00000000E+00  0.00000000E+00  0.00000000E+00
  0.00000000E+00  0.00000000E+00  0.00000000E+00
  0.00000000E+00  0.00000000E+00  0.00000000E+00
  0.00000000E+00  0.00000000E+00  0.00000000E+00
  0.00000000E+00  0.00000000E+00  0.00000000E+00
  0.00000000E+00  0.00000000E+00  0.00000000E+00
  0.00000000E+00  0.00000000E+00  0.00000000E+00
  0.00000000E+00  0.00000000E+00  0.00000000E+00
  0.00000000E+00  0.00000000E+00  0.00000000E+00
  0.00000000E+00  0.00000000E+00  0.00000000E+00
  0.00000000E+00  0.00000000E+00  0.00000000E+00
  0.00000000E+00  0.00000000E+00  0.00000000E+00
  0.00000000E+00  0.00000000E+00  0.00000000E+00
  0.00000000E+00  0.00000000E+00  0.00000000E+00
  0.00000000E+00  0.00000000E+00  0.00000000E+00
  0.00000000E+00  0.00000000E+00  0.00000000E+00
  0.00000000E+00  0.00000000E+00  0.00000000E+00
  0.00000000E+00  0.00000000E+00  0.00000000E+00
  0.00000000E+00  0.00000000E+00  0.00000000E+00
  0.00000000E+00  0.00000000E+00  0.00000000E+00
  0.00000000E+00  0.00000000E+00  0.00000000E+00
  0.00000000E+00  0.00000000E+00  0.00000000E+00
  0.00000000E+00  0.00000000E+00  0.00000000E+00
  0.00000000E+00  0.00000000E+00  0.00000000E+00
  0.00000000E+00  0.00000000E+00  0.00000000E+00
  0.00000000E+00  0.00000000E+00  0.00000000E+00
  0.00000000E+00  0.00000000E+00  0.00000000E+00
  0.00000000E+00  0.00000000E+00  0.00000000E+00
  0.00000000E+00  0.00000000E+00  0.00000000E+00
  0.00000000E+00  0.00000000E+00  0.00000000E+00
  0.00000000E+00  0.00000000E+00  0.00000000E+00
  0.00000000E+00  0.00000000E+00  0.00000000E+00
  0.00000000E+00  0.00000000E+00  0.00000000E+00
  0.00000000E+00  0.00000000E+00  0.00000000E+00
  0.00000000E+00  0.00000000E+00  0.00000000E+00
  0.00000000E+00  0.00000000E+00  0.00000000E+00
  0.00000000E+00  0.00000000E+00  0.00000000E+00
  0.00000000E+00  0.00000000E+00  0.00000000E+00
  0.00000000E+00  0.00000000E+00  0.00000000E+00
  0.00000000E+00  0.00000000E+00  0.00000000E+00
  0.00000000E+00  0.00000000E+00  0.00000000E+00
  0.00000000E+00  0.00000000E+00  0.00000000E+00
  0.00000000E+00  0.00000000E+00  0.00000000E+00
  0.00000000E+00  0.00000000E+00  0.00000000E+00
  0.00000000E+00  0.00000000E+00  0.00000000E+00
  0.00000000E+00  0.00000000E+00  0.00000000E+00
  0.00000000E+00  0.00000000E+00  0.00000000E+00
  0.00000000E+00  0.00000000E+00  0.00000000E+00
  0.00000000E+00  0.00000000E+00  0.00000000E+00
  0.00000000E+00  0.00000000E+00  0.00000000E+00
  0.00000000E+00  0.00000000E+00  0.00000000E+00
  0.00000000E+00  0.00000000E+00  0.00000000E+00
  0.00000000E+00  0.00000000E+00  0.00000000E+00
  0.00000000E+00  0.00000000E+00  0.00000000E+00
  0.00000000E+00  0.00000000E+00  0.00000000E+00
  0.00000000E+00  0.00000000E+00  0.00000000E+00
  0.00000000E+00  0.00000000E+00  0.00000000E+00
  0.00000000E+00  0.00000000E+00  0.00000000E+00
  0.00000000E+00  0.00000000E+00  0.00000000E+00
  0.00000000E+00  0.00000000E+00  0.00000000E+00
  0.00000000E+00  0.00000000E+00  0.00000000E+00
  0.00000000E+00  0.00000000E+00  0.00000000E+00
  0.00000000E+00  0.00000000E+00  0.00000000E+00
  0.00000000E+00  0.00000000E+00  0.00000000E+00
  0.00000000E+00  0.00000000E+00  0.00000000E+00
  0.00000000E+00  0.00000000E+00  0.00000000E+00
  0.00000000E+00  0.00000000E+00  0.00000000E+00
  0.00000000E+00  0.00000000E+00  0.00000000E+00
  0.00000000E+00  0.00000000E+00  0.00000000E+00
  0.00000000E+00  0.00000000E+00  0.00000000E+00
  0.00000000E+00  0.00000000E+00  0.00000000E+00
  0.00000000E+00  0.00000000E+00  0.00000000E+00
  0.00000000E+00  0.00000000E+00  0.00000000E+00
  0.00000000E+00  0.00000000E+00  0.00000000E+00
  0.00000000E+00  0.00000000E+00  0.00000000E+00
  0.00000000E+00  0.00000000E+00  0.00000000E+00
  0.00000000E+00  0.00000000E+00  0.00000000E+00
  0.00000000E+00  0.00000000E+00  0.00000000E+00
  0.00000000E+00  0.00000000E+00  0.00000000E+00
  0.00000000E+00  0.00000000E+00  0.00000000E+00
  0.00000000E+00  0.00000000E+00  0.00000000E+00
  0.00000000E+00  0.00000000E+00  0.00000000E+00
  0.00000000E+00  0.00000000E+00  0.00000000E+00
  0.00000000E+00  0.00000000E+00  0.00000000E+00
  0.00000000E+00  0.00000000E+00  0.00000000E+00
  0.00000000E+00  0.00000000E+00  0.00000000E+00
  0.00000000E+00  0.00000000E+00  0.00000000E+00
  0.00000000E+00  0.00000000E+00  0.00000000E+00
  0.00000000E+00  0.00000000E+00  0.00000000E+00
  0.00000000E+00  0.00000000E+00  0.00000000E+00
  0.00000000E+00  0.00000000E+00  0.00000000E+00
  0.00000000E+00  0.00000000E+00  0.00000000E+00
  0.00000000E+00  0.00000000E+00  0.00000000E+00
  0.00000000E+00  0.00000000E+00  0.00000000E+00
  0.00000000E+00  0.00000000E+00  0.00000000E+00
  0.00000000E+00  0.00000000E+00  0.00000000E+00
  0.00000000E+00  0.00000000E+00  0.00000000E+00
  0.00000000E+00  0.00000000E+00  0.00000000E+00
  0.00000000E+00  0.00000000E+00  0.00000000E+00
  0.00000000E+00  0.00000000E+00  0.00000000E+00
  0.00000000E+00  0.00000000E+00  0.00000000E+00
  0.00000000E+00  0.00000000E+00  0.00000000E+00
  0.00000000E+00  0.00000000E+00  0.00000000E+00
  0.00000000E+00  0.00000000E+00  0.00000000E+00
  0.00000000E+00  0.00000000E+00  0.00000000E+00
  0.00000000E+00  0.00000000E+00  0.00000000E+00
  0.00000000E+00  0.00000000E+00  0.00000000E+00
  0.00000000E+00  0.00000000E+00  0.00000000E+00
  0.00000000E+00  0.00000000E+00  0.00000000E+00
  0.00000000E+00  0.00000000E+00  0.00000000E+00
  0.00000000E+00  0.00000000E+00  0.00000000E+00
  0.00000000E+00  0.00000000E+00  0.00000000E+00
  0.00000000E+00  0.00000000E+00  0.00000000E+00
  0.00000000E+00  0.00000000E+00  0.00000000E+00
  0.00000000E+00  0.00000000E+00  0.00000000E+00
  0.00000000E+00  0.00000000E+00  0.00000000E+00
  0.00000000E+00  0.00000000E+00  0.00000000E+00
  0.00000000E+00  0.00000000E+00  0.00000000E+00
  0.00000000E+00  0.00000000E+00  0.00000000E+00
  0.00000000E+00  0.00000000E+00  0.00000000E+00
  0.00000000E+00  0.00000000E+00  0.00000000E+00
  0.00000000E+00  0.00000000E+00  0.00000000E+00
  0.00000000E+00  0.00000000E+00  0.00000000E+00
  0.00000000E+00  0.00000000E+00  0.00000000E+00
  0.00000000E+00  0.00000000E+00  0.00000000E+00
  0.00000000E+00  0.00000000E+00  0.00000000E+00
  0.00000000E+00  0.00000000E+00  0.00000000E+00
  0.00000000E+00  0.00000000E+00  0.00000000E+00
  0.00000000E+00  0.00000000E+00  0.00000000E+00
  0.00000000E+00  0.00000000E+00  0.00000000E+00
  0.00000000E+00  0.00000000E+00  0.00000000E+00
  0.00000000E+00  0.00000000E+00  0.00000000E+00
  0.00000000E+00  0.00000000E+00  0.00000000E+00
  0.00000000E+00  0.00000000E+00  0.00000000E+00
  0.00000000E+00  0.00000000E+00  0.00000000E+00
  0.00000000E+00  0.00000000E+00  0.00000000E+00
  0.00000000E+00  0.00000000E+00  0.00000000E+00
  0.00000000E+00  0.00000000E+00  0.00000000E+00
  0.00000000E+00  0.00000000E+00  0.00000000E+00
  0.00000000E+00  0.00000000E+00  0.00000000E+00
  0.00000000E+00  0.00000000E+00  0.00000000E+00
  0.00000000E+00  0.00000000E+00  0.00000000E+00
  0.00000000E+00  0.00000000E+00  0.00000000E+00
  0.00000000E+00  0.00000000E+00  0.00000000E+00
  0.00000000E+00  0.00000000E+00  0.00000000E+00
  0.00000000E+00  0.00000000E+00  0.00000000E+00
  0.00000000E+00  0.00000000E+00  0.00000000E+00
  0.00000000E+00  0.00000000E+00  0.00000000E+00
  0.00000000E+00  0.00000000E+00  0.00000000E+00
  0.00000000E+00  0.00000000E+00  0.00000000E+00
  0.00000000E+00  0.00000000E+00  0.00000000E+00
  0.00000000E+00  0.00000000E+00  0.00000000E+00
  0.00000000E+00  0.00000000E+00  0.00000000E+00
  0.00000000E+00  0.00000000E+00  0.00000000E+00
  0.00000000E+00  0.00000000E+00  0.00000000E+00
  0.00000000E+00  0.00000000E+00  0.00000000E+00
  0.00000000E+00  0.00000000E+00  0.00000000E+00
  0.00000000E+00  0.00000000E+00  0.00000000E+00
  0.00000000E+00  0.00000000E+00  0.00000000E+00
  0.00000000E+00  0.00000000E+00  0.00000000E+00
  0.00000000E+00  0.00000000E+00  0.00000000E+00
  0.00000000E+00  0.00000000E+00  0.00000000E+00
  0.00000000E+00  0.00000000E+00  0.00000000E+00
  0.00000000E+00  0.00000000E+00  0.00000000E+00
  0.00000000E+00  0.00000000E+00  0.00000000E+00
  0.00000000E+00  0.00000000E+00  0.00000000E+00
  0.00000000E+00  0.00000000E+00  0.00000000E+00
  0.00000000E+00  0.00000000E+00  0.00000000E+00
  0.00000000E+00  0.00000000E+00  0.00000000E+00
  0.00000000E+00  0.00000000E+00  0.00000000E+00
  0.00000000E+00  0.00000000E+00  0.00000000E+00
  0.00000000E+00  0.00000000E+00  0.00000000E+00
  0.00000000E+00  0.00000000E+00  0.00000000E+00