 N B Al 
 1.0
 14.936314146199660   0.000000000000000   0.000000000000000
 -7.468157073099825  12.935227489513863   0.000000000000000
  0.000000000000001   0.000000000000001  13.341276283792837
 N B Al 
 143 143   1
Cartesian
  1.245490060486681   0.718970618801241   1.664333818801224 
  4.979670491407551   7.187050812150067   1.687585419604202 
  6.224078058851181   0.718521196892533   1.665377340751792 
  9.958299253782275   7.186670091894801   1.668569866750632 
 11.202628082554659   0.718850343754702   1.667649384258677 
 -3.733494900027778   9.342445705129812   8.338080620383080 
  1.244910948058835   9.342691612160870   8.340579872092889 
  2.490556499782297   2.874948316997796   8.327518847138501 
  6.224254786232951   9.342533532974150   8.336902085088848 
  7.468632160432134   2.874556874618531   8.336972897918564 
 12.447586753010283   2.874929208712867   8.339430604256405 
 -1.244304050854508   9.342475284461333   1.666593092435259 
  0.001012204976788   2.875079394485516   1.666015465087222 
  4.979840055551250   2.874590519716645   1.681108715016708 
  3.734369667225679   9.342489241650982   1.668984314926092 
  8.713602804056505   9.342547582820451   1.668569866750632 
  9.957967405897783   2.874798105765940   1.667556262189692 
 -4.978129910169588  11.498242942994583   8.339239316909133 
  0.000317059859808  11.498163045274350   8.339763405036932 
  1.245670835945321   5.031153536377563   8.327518847138501 
  6.224618136282049   5.030738238464211   8.318371793240400 
  4.979246202260347  11.498196187186515   8.338400950654975 
 11.202920208898576   5.030761429901572   8.339037941186776 
 -1.243993840333406   5.030883219646421   1.664333818801224 
 -2.488873858988612  11.498133425715865   1.666593092435259 
  2.489636423476211  11.498248205916495   1.666694017652190 
  3.736494725087277   5.031761233024461   1.756012335012431 
  7.468841612089716  11.498375279030061   1.666919271657824 
  8.713613077346768   5.030838494522150   1.669055127755780 
  0.000409308738842   7.186841642591527   8.339421107081998 
  1.245490060486681   0.718970618801242   8.341623394043431 
  4.979670491407552   7.187050812150068   8.318371793240400 
  6.224078058851182   0.718521196892534   8.340579872092889 
  9.958299253782275   7.186670091894802   8.337387346094008 
 -2.488837231699459   7.186661548975072   1.666717895935523 
 11.202628082554659   0.718850343754702   8.338307828585952 
  3.734806398796251   0.718676146974678   1.666536105762590 
  2.490002752294857   7.187115231537025   1.681108715016708 
  7.468957709762515   7.186699741967089   1.673620179376736 
  8.713207566047320   0.718706782463771   1.666694017652190 
  2.490002752294858   7.187115231537026   8.324848497827894 
 13.692326487398857   0.718976746552051   1.666526608588290 
 -1.244304050854507   9.342475284461333   8.339364120409369 
  0.001012204976789   2.875079394485517   8.339941747757432 
  4.979840055551251   2.874590519716646   8.324848497827894 
  3.734369667225680   9.342489241650982   8.336972897918564 
  8.713602804056505   9.342547582820451   8.337387346094008 
  9.957967405897783   2.874798105765941   8.338400950654975 
 -3.733494900027778   9.342445705129812   1.667876592461614 
  1.244910948058835   9.342691612160870   1.665377340751792 
  2.490556499782297   2.874948316997795   1.678438365706127 
  6.224254786232950   9.342533532974150   1.669055127755780 
  7.468632160432133   2.874556874618531   1.668984314926092 
 12.447586753010283   2.874929208712866   1.666526608588290 
 -1.243993840333406   5.030883219646422   8.341623394043431 
 -2.488873858988611  11.498133425715865   8.339364120409369 
  2.489636423476211  11.498248205916495   8.339263195192425 
  3.736494725087278   5.031761233024462   8.249944877832210 
  7.468841612089717  11.498375279030061   8.339037941186776 
 -4.978129910169589  11.498242942994583   1.666717895935523 
  8.713613077346768   5.030838494522150   8.336902085088848 
  0.000317059859808  11.498163045274350   1.666193807807697 
  1.245670835945321   5.031153536377563   1.678438365706127 
  0.000409308738841   7.186841642591526   1.666536105762590 
  6.224618136282048   5.030738238464210   1.687585419604202 
  4.979246202260346  11.498196187186515   1.667556262189692 
 11.202920208898576   5.030761429901571   1.666919271657824 
 -2.488837231699458   7.186661548975072   8.339239316909133 
  3.734806398796252   0.718676146974679   8.339421107081998 
  7.468957709762516   7.186699741967089   8.332337033467851 
  8.713207566047320   0.718706782463772   8.339263195192425 
 13.692326487398857   0.718976746552051   8.339430604256405 
 -0.003456214214932   1.434838283883622   5.002978606422314 
  3.733653857086926   7.885125720561533   5.002978606422314 
  4.993208431566308   1.382464948960917   5.002978606422314 
  8.710691127907033   7.903614865194602   5.002978606422314 
  9.957024918542228   1.436508795444992   5.002978606422314 
 -4.978729056751979  10.060784351267111  11.673616748318732 
  0.000076967522407  10.060754006638923  11.673616748318732 
  1.244799272418718   3.593180192687790  11.673616748318732 
  4.978843747609389  10.060761788210566  11.673616748318732 
  6.223553956393935   3.593145891540963  11.673616748318732 
 11.202353934639547   3.593120529382358  11.673616748318732 
 -2.499733771606276  10.054758024739659   5.002978606422314 
 -1.248507393975092   3.591330185251806   5.002978606422314 
  3.759955370431226   3.469291207986732   5.002978606422314 
  2.488173881780236  10.060652119536250   5.002978606422314 
  7.463116943530519  10.056973003428244   5.002978606422314 
  8.709270936793004   3.592621884119155   5.002978606422314 
 -6.223431927611918  12.216662198908990  11.673616748318732 
 -1.244635729396578  12.216659638528702  11.673616748318732 
  0.000009681025085   5.748958406576571  11.673616748318732 
  4.978651708415224   5.748920901724647  11.673616748318732 
  3.734192690362818  12.216683241153829  11.673616748318732 
  9.957749706130265   5.749023601879825  11.673616748318732 
 -2.504462127835073   5.747583186311023   5.002978606422314 
 -3.741229529606530  12.197405133948719   5.002978606422314 
  1.244328133443825  12.216393173482956   5.002978606422314 
  2.395086313424857   5.833313760400403   5.002978606422314 
  6.219230258482765  12.214871064951907   5.002978606422314 
  7.466935864966112   5.757904148290523   5.002978606422314 
 -1.244586901676021   7.904844899074383  11.673616748318732 
  0.000010180898777   1.437296946982537  11.673616748318732 
  3.734146908741828   7.904925378794480  11.673616748318732 
  4.978830686282142   1.437494970932787  11.673616748318732 
  8.712802768932148   7.904834021708988  11.673616748318732 
 -3.744862898650048   7.901429036439843   5.002978606422314 
  9.957668690974851   1.437306608408155  11.673616748318732 
  2.478985057220743   1.407305121738224   5.002978606422314 
  1.204468290391490   7.944755370151430   5.002978606422314 
  6.230573506425139   7.899346569849191   5.002978606422314 
  7.467481564012885   1.436238227391215   5.002978606422314 
  1.244936814747890   7.904788866500212  11.673616748318732 
 12.444594446573852   1.435899958345769   5.002978606422314 
 -2.489334263498625  10.060762183545112  11.673616748318732 
 -1.244644931715216   3.593102839930349  11.673616748318732 
  3.734078144077830   3.593358764372374  11.673616748318732 
  2.489395147709031  10.060878748851271  11.673616748318732 
  7.468289648216090  10.060894905600568  11.673616748318732 
  8.712911472785434   3.593166769302471  11.673616748318732 
 -4.987135941701295  10.053109063877816   5.002978606422314 
 -0.013525535687584  10.069417330484512   5.002978606422314 
  1.247895650711768   3.594967887528786   5.002978606422314 
  4.976551595202260  10.057881434149413   5.002978606422314 
  6.206160423550480   3.602618725398952   5.002978606422314 
 11.198618084407858   3.590318359859654   5.002978606422314 
 -2.489318914230846   5.748988738528806  11.673616748318732 
 -3.734039719396909  12.216703662412494  11.673616748318732 
  1.244763704951838  12.216644650810341  11.673616748318732 
  2.489593355863552   5.748869646806113  11.673616748318732 
  6.223524933590936  12.216705321396010  11.673616748318732 
 -6.232220778340961  12.204250567341660   5.002978606422314 
  7.468204860432638   5.748942051523664  11.673616748318732 
 -1.243934322470080  12.200547863270993   5.002978606422314 
 -0.031131176121677   5.754953970790741   5.002978606422314 
 -1.264894822686103   7.908267605016325   5.002978606422314 
  3.733179877852945  12.216524624354490   5.002978606422314 
  9.951766886875074   5.746504859302036   5.002978606422314 
 -3.734012462314870   7.904871968677920  11.673616748318732 
  2.489363174874632   1.437271677230028  11.673616748318732 
  6.223446600687136   7.904926600543908  11.673616748318732 
  7.468288463721347   1.437182560052793  11.673616748318732 
 12.447014254593268   1.437297035157158  11.673616748318732 
  1.233594607187036   0.703929774763521   5.002978606422314 
  5.000642563276906   7.265977070734092   5.002978606422314 
  6.235007050983099   0.688291395238706   5.002978606422314 
  9.958718945834033   7.182881401390032   5.002978606422314 
 11.203447835135856   0.719323628128193   5.002978606422314 
 -3.731692410241638   9.343486373093002  11.673616748318732 
  1.244588998091595   9.339833725565359  11.673616748318732 
  2.486760069919808   2.875433591251878  11.673616748318732 
  6.221514690525365   9.343983813686283  11.673616748318732 
  7.470725284715376   2.875335968816254  11.673616748318732 
 12.447174150364907   2.871898330467592  11.673616748318732 
 -1.256688832760104   9.342875966839646   5.002978606422314 
  0.001167002843006   2.875168767075273   5.002978606422314 
  4.976668367675464   2.791293251652710   5.002978606422314 
  3.732469944958284   9.356129313506937   5.002978606422314 
  8.710531547858206   9.344805392051372   5.002978606422314 
  9.962425514049748   2.869023765444333   5.002978606422314 
 -4.980925775410141  11.499436432348864  11.673616748318732 
  0.002227377510222  11.499265967684073  11.673616748318732 
  1.244192880845876   5.027623094545985  11.673616748318732 
  6.221959479263595   5.031131992163617  11.673616748318732 
  4.978898203280839  11.496080196470274  11.673616748318732 
 11.204902668922877   5.031559463878567  11.673616748318732 
 -1.262967320014253   5.028101876918257   5.002978606422314 
 -2.494719248822888  11.487207548776041   5.002978606422314 
  2.489596362404408  11.502171296316927   5.002978606422314 
  7.461744001229849  11.497876059916846   5.002978606422314 
  8.728725810134556   5.021319025601680   5.002978606422314 
  0.001936639047176   7.187283074844825  11.673616748318732 
  1.244585041074945   0.716151761996746  11.673616748318732 
  4.978682163604854   7.184551470782421  11.673616748318732 
  6.221442081474692   0.719671323339951  11.673616748318732 
  9.955899543737967   7.187502589455771  11.673616748318732 
 -2.501940595825455   7.183412916607389   5.002978606422314 
 11.204736673613283   0.720067739370078  11.673616748318732 
  3.725724028318896   0.691290815523077   5.002978606422314 
  2.416279358147755   7.226017103295689   5.002978606422314 
  7.488297127831442   7.197865360195130   5.002978606422314 
  8.716585031459520   0.716710543357696   5.002978606422314 
  2.486855344750722   7.187569495646190  11.673616748318732 
 13.689500451710543   0.720162185305600   5.002978606422314 
 -1.246929865028782   9.343357455742366  11.673616748318732 
  0.001916173381689   2.875601300887451  11.673616748318732 
  4.978659756037753   2.871637652772768  11.673616748318732 
  3.736090944734484   9.343912393354666  11.673616748318732 
  8.713123913070797   9.340053124179780  11.673616748318732 
  9.955960904693598   2.875554725167306  11.673616748318732 
 -3.741675196669182   9.337722808661830   5.002978606422314 
  1.224195667941214   9.367271297811785   5.002978606422314 
  2.482913262428510   2.841643475095399   5.002978606422314 
  6.223567050711196   9.360381277949188   5.002978606422314 
  7.479494948035144   2.866091630946841   5.002978606422314 
 12.447200355241346   2.871889070637984   5.002978606422314 
 -1.246887551641598   5.031508878247188  11.673616748318732 
 -2.489422783335879  11.495418318294799  11.673616748318732 
  2.487216181933428  11.499526829435052  11.673616748318732 
  3.735392223565049   5.031124703473838  11.673616748318732 
  7.470523959799043  11.499693122784572  11.673616748318732 
 -4.987494990390587  11.488519412970327   5.002978606422314 
  8.713499009432308   5.027740361674500  11.673616748318732 
 -0.001423001959573  11.497158420114490   5.002978606422314 
  1.213006378111883   5.041186719613306   5.002978606422314 
 -0.027848269228003   7.192668744757395   5.002978606422314 
  6.303456317176112   5.009437456181115   5.002978606422314 
  4.976474530927727  11.504944192259726   5.002978606422314 
 11.198939067034512   5.024864328147411   5.002978606422314 
 -2.489201572219767   7.183643513974030  11.673616748318732 
  3.735952355495789   0.719778137695083  11.673616748318732 
  7.470717926468137   7.187716003555929  11.673616748318732 
  8.713104765724895   0.715971480045111  11.673616748318732 
 13.689495368520022   0.720134861302060  11.673616748318732 
  0.000746848198701   1.437674267045486   1.668400428644441 
  3.732166057130195   7.907660927916671   1.675819762474620 
  4.979179844654811   1.434510292534017   1.670073162196842 
  8.716022559684721   7.906692968766616   1.668661811874929 
  9.958315147679260   1.436914986124388   1.669247898524459 
 -4.976974865190432  10.061830938492676   8.336310138709404 
 -0.000637289696347  10.061380956245422   8.337971061734466 
  1.244395163728315   3.592946880426603   8.328402516743372 
  4.979134159585000  10.062827900360741   8.338583564405106 
  6.224932585621207   3.590062649163118   8.330137450369941 
 11.203763389254906   3.593291553123629   8.336940206575909 
 -2.488714620463145  10.061119934618498   1.668877580456752 
 -1.243949829305374   3.593552152494732   1.668400428644441 
  3.733725452993947   3.587852231568643   1.706620068140930 
  2.488176171832827  10.062289361511139   1.667803648724202 
  7.470172782166914  10.062757237736008   1.668542951793352 
  8.714845984382375   3.592385217375798   1.667373648439549 
 -6.222339712239441  12.217335018625869   8.338364177277413 
 -1.244449903719825  12.215727598829160   8.337971061734466 
 -0.000718537464307   5.749806139672945   8.334970853877945 
  4.982174462683832   5.750954764849917   8.309679711658358 
  3.734176763868629  12.217438900224113   8.336709314320208 
  9.960304100045224   5.749723277652301   8.337414261051263 
 -2.488190127577615   5.749598214929320   1.667593035567227 
 -3.733366169556813  12.216149722218136   1.668648699488826 
  1.244603877010028  12.216552374105145   1.667823832887139 
  2.484648213026815   5.751317473769634   1.706620068140930 
  6.224377771803230  12.217840433027716   1.669017006268745 
  7.472115778899883   5.750016227589135   1.671309471733583 
 -1.244729853036494   7.905705180443852   8.337308513355827 
  0.000746848198701   1.437674267045486   8.337556784200187 
  3.732166057130196   7.907660927916671   8.330137450369941 
  4.979179844654812   1.434510292534018   8.335884050647746 
  8.716022559684721   7.906692968766617   8.337295400969673 
 -3.732228995409548   7.905867849520657   1.669647074135223 
  9.958315147679260   1.436914986124388   8.336709314320208 
  2.489733224027016   1.436217154970534   1.670986358966709 
  1.242526586618735   7.906583585720324   1.670073162196842 
  6.226332323681534   7.907776467256037   1.671309471733583 
  7.468900602181591   1.435421589647466   1.667803648724202 
  1.242526586618735   7.906583585720325   8.335884050647746 
 12.447769081617746   1.437732834742931   1.668905836252537 
 -2.488714620463145  10.061119934618498   8.337079632387915 
 -1.243949829305374   3.593552152494733   8.337556784200187 
  3.733725452993947   3.587852231568644   8.299337144703644 
  2.488176171832828  10.062289361511139   8.338153564120345 
  7.470172782166915  10.062757237736008   8.337414261051263 
  8.714845984382375   3.592385217375798   8.338583564405106 
 -4.976974865190432  10.061830938492676   1.669647074135223 
 -0.000637289696347  10.061380956245422   1.667986151110203 
  1.244395163728314   3.592946880426602   1.677554696101241 
  4.979134159585000  10.062827900360741   1.667373648439549 
  6.224932585621207   3.590062649163118   1.675819762474620 
 11.203763389254906   3.593291553123628   1.669017006268745 
 -2.488190127577615   5.749598214929321   8.338364177277413 
 -3.733366169556813  12.216149722218136   8.337308513355827 
  1.244603877010028  12.216552374105145   8.338133379957542 
  2.484648213026816   5.751317473769634   8.299337144703644 
  6.224377771803231  12.217840433027716   8.336940206575909 
 -6.222339712239441  12.217335018625869   1.667593035567227 
  7.472115778899884   5.750016227589136   8.334647741111059 
 -1.244449903719826  12.215727598829160   1.667986151110203 
 -0.000718537464307   5.749806139672944   1.670986358966709 
 -1.244729853036494   7.905705180443851   1.668648699488826 
  4.982174462683831   5.750954764849916   1.696277501186257 
  3.734176763868629  12.217438900224113   1.669247898524459 
  9.960304100045224   5.749723277652300   1.668542951793352 
 -3.732228995409548   7.905867849520658   8.336310138709404 
  2.489733224027017   1.436217154970534   8.334970853877945 
  6.226332323681535   7.907776467256038   8.334647741111059 
  7.468900602181592   1.435421589647466   8.338153564120345 
 12.447769081617746   1.437732834742931   8.337051376592118 
  3.999386230847522   5.183541714642824   5.002978606422314 
Generated by cif2cell 2.0.0.  :  Failed to get author information, No journal information. Species order: N B Al 
 1.0
 14.936314146199660   0.000000000000000   0.000000000000000
 -7.468157073099825  12.935227489513863   0.000000000000000
  0.000000000000001   0.000000000000001  13.341276283792837
 N B Al 
 143 143   1
Cartesian
  1.245490060486681   0.718970618801241   1.664333818801224 
  4.979670491407551   7.187050812150067   1.687585419604202 
  6.224078058851181   0.718521196892533   1.665377340751792 
  9.958299253782275   7.186670091894801   1.668569866750632 
 11.202628082554659   0.718850343754702   1.667649384258677 
 -3.733494900027778   9.342445705129812   8.338080620383080 
  1.244910948058835   9.342691612160870   8.340579872092889 
  2.490556499782297   2.874948316997796   8.327518847138501 
  6.224254786232951   9.342533532974150   8.336902085088848 
  7.468632160432134   2.874556874618531   8.336972897918564 
 12.447586753010283   2.874929208712867   8.339430604256405 
 -1.244304050854508   9.342475284461333   1.666593092435259 
  0.001012204976788   2.875079394485516   1.666015465087222 
  4.979840055551250   2.874590519716645   1.681108715016708 
  3.734369667225679   9.342489241650982   1.668984314926092 
  8.713602804056505   9.342547582820451   1.668569866750632 
  9.957967405897783   2.874798105765940   1.667556262189692 
 -4.978129910169588  11.498242942994583   8.339239316909133 
  0.000317059859808  11.498163045274350   8.339763405036932 
  1.245670835945321   5.031153536377563   8.327518847138501 
  6.224618136282049   5.030738238464211   8.318371793240400 
  4.979246202260347  11.498196187186515   8.338400950654975 
 11.202920208898576   5.030761429901572   8.339037941186776 
 -1.243993840333406   5.030883219646421   1.664333818801224 
 -2.488873858988612  11.498133425715865   1.666593092435259 
  2.489636423476211  11.498248205916495   1.666694017652190 
  3.736494725087277   5.031761233024461   1.756012335012431 
  7.468841612089716  11.498375279030061   1.666919271657824 
  8.713613077346768   5.030838494522150   1.669055127755780 
  0.000409308738842   7.186841642591527   8.339421107081998 
  1.245490060486681   0.718970618801242   8.341623394043431 
  4.979670491407552   7.187050812150068   8.318371793240400 
  6.224078058851182   0.718521196892534   8.340579872092889 
  9.958299253782275   7.186670091894802   8.337387346094008 
 -2.488837231699459   7.186661548975072   1.666717895935523 
 11.202628082554659   0.718850343754702   8.338307828585952 
  3.734806398796251   0.718676146974678   1.666536105762590 
  2.490002752294857   7.187115231537025   1.681108715016708 
  7.468957709762515   7.186699741967089   1.673620179376736 
  8.713207566047320   0.718706782463771   1.666694017652190 
  2.490002752294858   7.187115231537026   8.324848497827894 
 13.692326487398857   0.718976746552051   1.666526608588290 
 -1.244304050854507   9.342475284461333   8.339364120409369 
  0.001012204976789   2.875079394485517   8.339941747757432 
  4.979840055551251   2.874590519716646   8.324848497827894 
  3.734369667225680   9.342489241650982   8.336972897918564 
  8.713602804056505   9.342547582820451   8.337387346094008 
  9.957967405897783   2.874798105765941   8.338400950654975 
 -3.733494900027778   9.342445705129812   1.667876592461614 
  1.244910948058835   9.342691612160870   1.665377340751792 
  2.490556499782297   2.874948316997795   1.678438365706127 
  6.224254786232950   9.342533532974150   1.669055127755780 
  7.468632160432133   2.874556874618531   1.668984314926092 
 12.447586753010283   2.874929208712866   1.666526608588290 
 -1.243993840333406   5.030883219646422   8.341623394043431 
 -2.488873858988611  11.498133425715865   8.339364120409369 
  2.489636423476211  11.498248205916495   8.339263195192425 
  3.736494725087278   5.031761233024462   8.249944877832210 
  7.468841612089717  11.498375279030061   8.339037941186776 
 -4.978129910169589  11.498242942994583   1.666717895935523 
  8.713613077346768   5.030838494522150   8.336902085088848 
  0.000317059859808  11.498163045274350   1.666193807807697 
  1.245670835945321   5.031153536377563   1.678438365706127 
  0.000409308738841   7.186841642591526   1.666536105762590 
  6.224618136282048   5.030738238464210   1.687585419604202 
  4.979246202260346  11.498196187186515   1.667556262189692 
 11.202920208898576   5.030761429901571   1.666919271657824 
 -2.488837231699458   7.186661548975072   8.339239316909133 
  3.734806398796252   0.718676146974679   8.339421107081998 
  7.468957709762516   7.186699741967089   8.332337033467851 
  8.713207566047320   0.718706782463772   8.339263195192425 
 13.692326487398857   0.718976746552051   8.339430604256405 
 -0.003456214214932   1.434838283883622   5.002978606422314 
  3.733653857086926   7.885125720561533   5.002978606422314 
  4.993208431566308   1.382464948960917   5.002978606422314 
  8.710691127907033   7.903614865194602   5.002978606422314 
  9.957024918542228   1.436508795444992   5.002978606422314 
 -4.978729056751979  10.060784351267111  11.673616748318732 
  0.000076967522407  10.060754006638923  11.673616748318732 
  1.244799272418718   3.593180192687790  11.673616748318732 
  4.978843747609389  10.060761788210566  11.673616748318732 
  6.223553956393935   3.593145891540963  11.673616748318732 
 11.202353934639547   3.593120529382358  11.673616748318732 
 -2.499733771606276  10.054758024739659   5.002978606422314 
 -1.248507393975092   3.591330185251806   5.002978606422314 
  3.759955370431226   3.469291207986732   5.002978606422314 
  2.488173881780236  10.060652119536250   5.002978606422314 
  7.463116943530519  10.056973003428244   5.002978606422314 
  8.709270936793004   3.592621884119155   5.002978606422314 
 -6.223431927611918  12.216662198908990  11.673616748318732 
 -1.244635729396578  12.216659638528702  11.673616748318732 
  0.000009681025085   5.748958406576571  11.673616748318732 
  4.978651708415224   5.748920901724647  11.673616748318732 
  3.734192690362818  12.216683241153829  11.673616748318732 
  9.957749706130265   5.749023601879825  11.673616748318732 
 -2.504462127835073   5.747583186311023   5.002978606422314 
 -3.741229529606530  12.197405133948719   5.002978606422314 
  1.244328133443825  12.216393173482956   5.002978606422314 
  2.395086313424857   5.833313760400403   5.002978606422314 
  6.219230258482765  12.214871064951907   5.002978606422314 
  7.466935864966112   5.757904148290523   5.002978606422314 
 -1.244586901676021   7.904844899074383  11.673616748318732 
  0.000010180898777   1.437296946982537  11.673616748318732 
  3.734146908741828   7.904925378794480  11.673616748318732 
  4.978830686282142   1.437494970932787  11.673616748318732 
  8.712802768932148   7.904834021708988  11.673616748318732 
 -3.744862898650048   7.901429036439843   5.002978606422314 
  9.957668690974851   1.437306608408155  11.673616748318732 
  2.478985057220743   1.407305121738224   5.002978606422314 
  1.204468290391490   7.944755370151430   5.002978606422314 
  6.230573506425139   7.899346569849191   5.002978606422314 
  7.467481564012885   1.436238227391215   5.002978606422314 
  1.244936814747890   7.904788866500212  11.673616748318732 
 12.444594446573852   1.435899958345769   5.002978606422314 
 -2.489334263498625  10.060762183545112  11.673616748318732 
 -1.244644931715216   3.593102839930349  11.673616748318732 
  3.734078144077830   3.593358764372374  11.673616748318732 
  2.489395147709031  10.060878748851271  11.673616748318732 
  7.468289648216090  10.060894905600568  11.673616748318732 
  8.712911472785434   3.593166769302471  11.673616748318732 
 -4.987135941701295  10.053109063877816   5.002978606422314 
 -0.013525535687584  10.069417330484512   5.002978606422314 
  1.247895650711768   3.594967887528786   5.002978606422314 
  4.976551595202260  10.057881434149413   5.002978606422314 
  6.206160423550480   3.602618725398952   5.002978606422314 
 11.198618084407858   3.590318359859654   5.002978606422314 
 -2.489318914230846   5.748988738528806  11.673616748318732 
 -3.734039719396909  12.216703662412494  11.673616748318732 
  1.244763704951838  12.216644650810341  11.673616748318732 
  2.489593355863552   5.748869646806113  11.673616748318732 
  6.223524933590936  12.216705321396010  11.673616748318732 
 -6.232220778340961  12.204250567341660   5.002978606422314 
  7.468204860432638   5.748942051523664  11.673616748318732 
 -1.243934322470080  12.200547863270993   5.002978606422314 
 -0.031131176121677   5.754953970790741   5.002978606422314 
 -1.264894822686103   7.908267605016325   5.002978606422314 
  3.733179877852945  12.216524624354490   5.002978606422314 
  9.951766886875074   5.746504859302036   5.002978606422314 
 -3.734012462314870   7.904871968677920  11.673616748318732 
  2.489363174874632   1.437271677230028  11.673616748318732 
  6.223446600687136   7.904926600543908  11.673616748318732 
  7.468288463721347   1.437182560052793  11.673616748318732 
 12.447014254593268   1.437297035157158  11.673616748318732 
  1.233594607187036   0.703929774763521   5.002978606422314 
  5.000642563276906   7.265977070734092   5.002978606422314 
  6.235007050983099   0.688291395238706   5.002978606422314 
  9.958718945834033   7.182881401390032   5.002978606422314 
 11.203447835135856   0.719323628128193   5.002978606422314 
 -3.731692410241638   9.343486373093002  11.673616748318732 
  1.244588998091595   9.339833725565359  11.673616748318732 
  2.486760069919808   2.875433591251878  11.673616748318732 
  6.221514690525365   9.343983813686283  11.673616748318732 
  7.470725284715376   2.875335968816254  11.673616748318732 
 12.447174150364907   2.871898330467592  11.673616748318732 
 -1.256688832760104   9.342875966839646   5.002978606422314 
  0.001167002843006   2.875168767075273   5.002978606422314 
  4.976668367675464   2.791293251652710   5.002978606422314 
  3.732469944958284   9.356129313506937   5.002978606422314 
  8.710531547858206   9.344805392051372   5.002978606422314 
  9.962425514049748   2.869023765444333   5.002978606422314 
 -4.980925775410141  11.499436432348864  11.673616748318732 
  0.002227377510222  11.499265967684073  11.673616748318732 
  1.244192880845876   5.027623094545985  11.673616748318732 
  6.221959479263595   5.031131992163617  11.673616748318732 
  4.978898203280839  11.496080196470274  11.673616748318732 
 11.204902668922877   5.031559463878567  11.673616748318732 
 -1.262967320014253   5.028101876918257   5.002978606422314 
 -2.494719248822888  11.487207548776041   5.002978606422314 
  2.489596362404408  11.502171296316927   5.002978606422314 
  7.461744001229849  11.497876059916846   5.002978606422314 
  8.728725810134556   5.021319025601680   5.002978606422314 
  0.001936639047176   7.187283074844825  11.673616748318732 
  1.244585041074945   0.716151761996746  11.673616748318732 
  4.978682163604854   7.184551470782421  11.673616748318732 
  6.221442081474692   0.719671323339951  11.673616748318732 
  9.955899543737967   7.187502589455771  11.673616748318732 
 -2.501940595825455   7.183412916607389   5.002978606422314 
 11.204736673613283   0.720067739370078  11.673616748318732 
  3.725724028318896   0.691290815523077   5.002978606422314 
  2.416279358147755   7.226017103295689   5.002978606422314 
  7.488297127831442   7.197865360195130   5.002978606422314 
  8.716585031459520   0.716710543357696   5.002978606422314 
  2.486855344750722   7.187569495646190  11.673616748318732 
 13.689500451710543   0.720162185305600   5.002978606422314 
 -1.246929865028782   9.343357455742366  11.673616748318732 
  0.001916173381689   2.875601300887451  11.673616748318732 
  4.978659756037753   2.871637652772768  11.673616748318732 
  3.736090944734484   9.343912393354666  11.673616748318732 
  8.713123913070797   9.340053124179780  11.673616748318732 
  9.955960904693598   2.875554725167306  11.673616748318732 
 -3.741675196669182   9.337722808661830   5.002978606422314 
  1.224195667941214   9.367271297811785   5.002978606422314 
  2.482913262428510   2.841643475095399   5.002978606422314 
  6.223567050711196   9.360381277949188   5.002978606422314 
  7.479494948035144   2.866091630946841   5.002978606422314 