Ge B N                                  
   1.0000000000000000     
     8.7639499999999995  -15.1796066749929999    0.0000000000000000
     8.7639499999999995   15.1796066749929999    0.0000000000000000
     0.0000000000000000    0.0000000000000000   15.0000000000000000
   Ge   B    N 
     1    48    48
Selective dynamics
Direct
  0.4961985132079491  0.5038028887090474  0.1108209378716169   T   T   T
  0.9060036212967155  0.9532531058850691  0.1110127814301255   T   T   T
  0.9045386288616765  0.0954633923343209  0.1110338513754126   T   T   T
  0.9040900562027674  0.2382442727530074  0.1110424101778232   T   T   T
  0.9042204868477322  0.3810921657348716  0.1109950238919242   T   T   T
  0.9052986127091903  0.5239922012571759  0.1110327692152110   T   T   T
  0.9069201211112533  0.6672927323683361  0.1110990027866118   T   T   T
  0.9076465160331372  0.8111304038093226  0.1110561625718539   T   T   T
  0.0482781854895905  0.9517238357064127  0.1110074465560334   T   T   T
  0.0467489153109337  0.0939983998992806  0.1110127814301255   T   T   T
  0.0463664472273354  0.2372203861134901  0.1109877112765711   T   T   T
  0.0468594431354892  0.3804269537325958  0.1110096186586964   T   T   T
  0.0481309827461645  0.5233182305656360  0.1110115064990097   T   T   T
  0.0490143640816470  0.6661875300163084  0.1110667626896569   T   T   T
  0.0490961065127964  0.8091194608014932  0.1110541662986515   T   T   T
  0.1908825603945103  0.9509059146832075  0.1110541662986515   T   T   T
  0.1888716173866811  0.0923555051628589  0.1110561625718539   T   T   T
  0.1873087877108618  0.2346116021702015  0.1110166759038723   T   T   T
  0.1886332556613288  0.3791286975815996  0.1109960598743466   T   T   T
  0.1910867737415918  0.5225165108536424  0.1110394558378998   T   T   T
  0.1918850916871121  0.6655150138396366  0.1110299075358987   T   T   T
  0.1916302160941708  0.8083718051018323  0.1110088858041241   T   T   T
  0.3338144911806901  0.9509876571143566  0.1110667626896569   T   T   T
  0.3327092888286630  0.0930819000847427  0.1110990027866118   T   T   T
  0.3288805635133900  0.2323215562708437  0.1110271683262563   T   T   T
  0.3269958232058643  0.3750463685368713  0.1110279106225160   T   T   T
  0.3342809879674082  0.5208681343861529  0.1110886694308569   T   T   T
  0.3352253811796368  0.6647766400173627  0.1110754673670008   T   T   T
  0.3344870073573611  0.8081169295088912  0.1110299075358987   T   T   T
  0.4766837906313612  0.9518710384498390  0.1110115064990097   T   T   T
  0.4760098199398210  0.0947034084868063  0.1110327692152110   T   T   T
  0.4748088887541594  0.2370180036849795  0.1110124140254291   T   T   T
  0.4666691358857402  0.3720565459304450  0.1110434129308197   T   T   T
  0.4791338868108458  0.6657210332295888  0.1110886694308569   T   T   T
  0.4774855103433568  0.8089152474544120  0.1110394558378998   T   T   T
  0.6195750674634084  0.9531425780605146  0.1110096186586964   T   T   T
  0.6189098554611324  0.0957815343482646  0.1109950238919242   T   T   T
  0.6183852473231569  0.2388454708176535  0.1110133617919422   T   T   T
  0.6176298833459716  0.3823721378500314  0.1109944753845545   T   T   T
  0.6279454752655584  0.5333328853112584  0.1110434129308197   T   T   T
  0.6249556526591316  0.6730061979911345  0.1110279106225160   T   T   T
  0.6208733236144037  0.8113687655346746  0.1109960598743466   T   T   T
  0.7627816350825140  0.9536355739686676  0.1109877112765711   T   T   T
  0.7617577484429956  0.0959119649932285  0.1110424101778232   T   T   T
  0.7613325661533984  0.2386694550426056  0.1110360816575481   T   T   T
  0.7611565503783499  0.3816167738728463  0.1110133617919422   T   T   T
  0.7629840175110242  0.5251931324428391  0.1110124140254291   T   T   T
  0.7676804649251611  0.6711214576836081  0.1110271683262563   T   T   T
  0.7653904190258030  0.8126932334851403  0.1110166759038723   T   T   T
  0.9538149025511953  0.9055792672101701  0.1109963115798169   T   T   T
  0.9522322496788715  0.0477691522391339  0.1110044606257186   T   T   T
  0.9514763613860800  0.1903859914160875  0.1110107809771131   T   T   T
  0.9515998244995487  0.3333274589269547  0.1109939433883313   T   T   T
  0.9525821838530931  0.4761910430069521  0.1109813414224707   T   T   T
  0.9537222444885404  0.6190822959872418  0.1110771153592398   T   T   T
  0.9542127657281355  0.7623264579217525  0.1110682201362013   T   T   T
  0.0959862341126215  0.9040151678053767  0.1110068920330461   T   T   T
  0.0944221347078287  0.0461864993668106  0.1109963115798169   T   T   T
  0.0930258509100018  0.1885369603598727  0.1109838252048947   T   T   T
  0.0936822767943492  0.3322565986729164  0.1109692526165163   T   T   T
  0.0954758187897326  0.4755390676209695  0.1110021311097791   T   T   T
  0.0964157239864360  0.6184214402683238  0.1110221733502900   T   T   T
  0.0965036922246754  0.7612519696931328  0.1110179027127664   T   T   T
  0.2387494322248724  0.9034977096933227  0.1110179027127664   T   T   T
  0.2376749439962526  0.0457886361898701  0.1110682201362013   T   T   T
  0.2347583315670008  0.1865827166147629  0.1110180287726788   T   T   T
  0.2333049686046808  0.3289075917338634  0.1109891489226881   T   T   T
  0.2380790160957284  0.4743806836155828  0.1110266055915672   T   T   T
  0.2395331127043679  0.6177991669339764  0.1110333624446131   T   T   T
  0.2392680094693198  0.7607333924486855  0.1110019548442940   T   T   T
  0.3815799616496753  0.9035856779315623  0.1110221733502900   T   T   T
  0.3809191059307570  0.0462791574294654  0.1110771153592398   T   T   T
  0.3795573146646577  0.1880752587898865  0.1110308596192899   T   T   T
  0.3738920593716278  0.3261313727576634  0.1110121066161239   T   T   T
  0.3759191335428431  0.4681201230075122  0.1110190619589173   T   T   T
  0.3830974327170976  0.6169039692009011  0.1110942136015547   T   T   T
  0.3822022349840222  0.7604682892136385  0.1110333624446131   T   T   T
  0.5244623342960272  0.9045255831282661  0.1110021311097791   T   T   T
  0.5238103589100447  0.0474192180649131  0.1109813414224707   T   T   T
  0.5231453575097906  0.1903498599850135  0.1110055515891579   T   T   T
  0.5217021247261436  0.3333474313239251  0.1109947152233683   T   T   T
  0.5318812789094838  0.6240822683751542  0.1110190619589173   T   T   T
  0.5256207183014139  0.7619223858222774  0.1110266055915672   T   T   T
  0.6677448032440806  0.9063191251236490  0.1109692526165163   T   T   T
  0.6666739429900419  0.0484015774184569  0.1109939433883313   T   T   T
  0.6660902869275088  0.1912533677581608  0.1109975301861532   T   T   T
  0.6654323717770708  0.3345690301399264  0.1109833160719174   T   T   T
  0.6666539705930732  0.4782992771908531  0.1109947152233683   T   T   T
  0.6738700291593316  0.6261093425463712  0.1110121066161239   T   T   T
  0.6710938101831333  0.7666964333133250  0.1109891489226881   T   T   T
  0.8114644415581255  0.9069755510079962  0.1109838252048947   T   T   T
  0.8096154105019108  0.0485250405319256  0.1110107809771131   T   T   T
  0.8089479028647232  0.1910534990532759  0.1110420220132664   T   T   T
  0.8087480341598386  0.3339111149894888  0.1109975301861532   T   T   T
  0.8096515419329852  0.4768560444072050  0.1110055515891579   T   T   T
  0.8119261431281120  0.6204440872533419  0.1110308596192899   T   T   T
  0.8134186853032357  0.7652430703510047  0.1110180287726788   T   T   T

  0.00000000E+00  0.00000000E+00  0.00000000E+00
  0.00000000E+00  0.00000000E+00  0.00000000E+00
  0.00000000E+00  0.00000000E+00  0.00000000E+00
  0.00000000E+00  0.00000000E+00  0.00000000E+00
  0.00000000E+00  0.00000000E+00  0.00000000E+00
  0.00000000E+00  0.00000000E+00  0.00000000E+00
  0.00000000E+00  0.00000000E+00  0.00000000E+00
  0.00000000E+00  0.00000000E+00  0.00000000E+00
  0.00000000E+00  0.00000000E+00  0.00000000E+00
  0.00000000E+00  0.00000000E+00  0.00000000E+00
  0.00000000E+00  0.00000000E+00  0.00000000E+00
  0.00000000E+00  0.00000000E+00  0.00000000E+00
  0.00000000E+00  0.00000000E+00  0.00000000E+00
  0.00000000E+00  0.00000000E+00  0.00000000E+00
  0.00000000E+00  0.00000000E+00  0.00000000E+00
  0.00000000E+00  0.00000000E+00  0.00000000E+00
  0.00000000E+00  0.00000000E+00  0.00000000E+00
  0.00000000E+00  0.00000000E+00  0.00000000E+00
  0.00000000E+00  0.00000000E+00  0.00000000E+00
  0.00000000E+00  0.00000000E+00  0.00000000E+00
  0.00000000E+00  0.00000000E+00  0.00000000E+00
  0.00000000E+00  0.00000000E+00  0.00000000E+00
  0.00000000E+00  0.00000000E+00  0.00000000E+00
  0.00000000E+00  0.00000000E+00  0.00000000E+00
  0.00000000E+00  0.00000000E+00  0.00000000E+00
  0.00000000E+00  0.00000000E+00  0.00000000E+00
  0.00000000E+00  0.00000000E+00  0.00000000E+00
  0.00000000E+00  0.00000000E+00  0.00000000E+00
  0.00000000E+00  0.00000000E+00  0.00000000E+00
  0.00000000E+00  0.00000000E+00  0.00000000E+00
  0.00000000E+00  0.00000000E+00  0.00000000E+00
  0.00000000E+00  0.00000000E+00  0.00000000E+00
  0.00000000E+00  0.00000000E+00  0.00000000E+00
  0.00000000E+00  0.00000000E+00  0.00000000E+00
  0.00000000E+00  0.00000000E+00  0.00000000E+00
  0.00000000E+00  0.00000000E+00  0.00000000E+00
  0.00000000E+00  0.00000000E+00  0.00000000E+00
  0.00000000E+00  0.00000000E+00  0.00000000E+00
  0.00000000E+00  0.00000000E+00  0.00000000E+00
  0.00000000E+00  0.00000000E+00  0.00000000E+00
  0.00000000E+00  0.00000000E+00  0.00000000E+00
  0.00000000E+00  0.00000000E+00  0.00000000E+00
  0.00000000E+00  0.00000000E+00  0.00000000E+00
  0.00000000E+00  0.00000000E+00  0.00000000E+00
  0.00000000E+00  0.00000000E+00  0.00000000E+00
  0.00000000E+00  0.00000000E+00  0.00000000E+00
  0.00000000E+00  0.00000000E+00  0.00000000E+00
  0.00000000E+00  0.00000000E+00  0.00000000E+00
  0.00000000E+00  0.00000000E+00  0.00000000E+00
  0.00000000E+00  0.00000000E+00  0.00000000E+00
  0.00000000E+00  0.00000000E+00  0.00000000E+00
  0.00000000E+00  0.00000000E+00  0.00000000E+00
  0.00000000E+00  0.00000000E+00  0.00000000E+00
  0.00000000E+00  0.00000000E+00  0.00000000E+00
  0.00000000E+00  0.00000000E+00  0.00000000E+00
  0.00000000E+00  0.00000000E+00  0.00000000E+00
  0.00000000E+00  0.00000000E+00  0.00000000E+00
  0.00000000E+00  0.00000000E+00  0.00000000E+00
  0.00000000E+00  0.00000000E+00  0.00000000E+00
  0.00000000E+00  0.00000000E+00  0.00000000E+00
  0.00000000E+00  0.00000000E+00  0.00000000E+00
  0.00000000E+00  0.00000000E+00  0.00000000E+00
  0.00000000E+00  0.00000000E+00  0.00000000E+00
  0.00000000E+00  0.00000000E+00  0.00000000E+00
  0.00000000E+00  0.00000000E+00  0.00000000E+00
  0.00000000E+00  0.00000000E+00  0.00000000E+00
  0.00000000E+00  0.00000000E+00  0.00000000E+00
  0.00000000E+00  0.00000000E+00  0.00000000E+00
  0.00000000E+00  0.00000000E+00  0.00000000E+00
  0.00000000E+00  0.00000000E+00  0.00000000E+00
  0.00000000E+00  0.00000000E+00  0.00000000E+00
  0.00000000E+00  0.00000000E+00  0.00000000E+00
  0.00000000E+00  0.00000000E+00  0.00000000E+00
  0.00000000E+00  0.00000000E+00  0.00000000E+00
  0.00000000E+00  0.00000000E+00  0.00000000E+00
  0.00000000E+00  0.00000000E+00  0.00000000E+00
  0.00000000E+00  0.00000000E+00  0.00000000E+00
  0.00000000E+00  0.00000000E+00  0.00000000E+00
  0.00000000E+00  0.00000000E+00  0.00000000E+00
  0.00000000E+00  0.00000000E+00  0.00000000E+00
  0.00000000E+00  0.00000000E+00  0.00000000E+00
  0.00000000E+00  0.00000000E+00  0.00000000E+00
  0.00000000E+00  0.00000000E+00  0.00000000E+00
  0.00000000E+00  0.00000000E+00  0.00000000E+00
  0.00000000E+00  0.00000000E+00  0.00000000E+00
  0.00000000E+00  0.00000000E+00  0.00000000E+00
  0.00000000E+00  0.00000000E+00  0.00000000E+00
  0.00000000E+00  0.00000000E+00  0.00000000E+00
  0.00000000E+00  0.00000000E+00  0.00000000E+00
  0.00000000E+00  0.00000000E+00  0.00000000E+00
  0.00000000E+00  0.00000000E+00  0.00000000E+00
  0.00000000E+00  0.00000000E+00  0.00000000E+00
  0.00000000E+00  0.00000000E+00  0.00000000E+00
  0.00000000E+00  0.00000000E+00  0.00000000E+00
  0.00000000E+00  0.00000000E+00  0.00000000E+00
  0.00000000E+00  0.00000000E+00  0.00000000E+00
  0.00000000E+00  0.00000000E+00  0.00000000E+00
