 C N B 
 1.0
 17.527899999999772   0.000000000000000   0.000000000000000
 -8.763949999999658  15.179606674993195   0.000000000000000
  0.000000000000001   0.000000000000002  15.000000000000000
 C N B 
   2  48  47
Cartesian
  3.593214671805307   7.900426099259117   1.695846107373330 
  4.713517079675029   6.842609015229724   1.675303906837800 
  8.772081148004595  13.730549024032543   1.664025528108105 
 16.309747049755160   0.720906582235152   1.665851786495190 
 15.061797261799082   2.884790910312500   1.666218413265345 
 13.791993426263252   5.052170081538146   1.666079680262505 
 12.508087976479690   7.225865065377811   1.667396552010240 
 11.241129167874810   9.395754468842128   1.660452236334495 
  9.995780842326138  11.559766742591446   1.662913097052240 
 -6.261349136162136  13.768528015683795   1.663297858185450 
  1.296184902532362   0.788897348260040   1.666232727478185 
  0.045763034589389   2.929379973534282   1.667495767336905 
 -1.248728829139993   5.074349431741562   1.661934297407685 
 -2.539085569910471   7.240567744467657   1.662284532449175 
 -3.792069554955146   9.414688618076042   1.665612559155765 
 -5.033904870363627  11.588302739584538   1.668026547356070 
 -3.769301043540263  13.775255937001679   1.665862311332820 
  3.774491538016533   0.796320780006380   1.669899021687150 
  2.601805866606338   3.061804701869556   1.670735545148520 
  1.257716395307761   5.129247512072498   1.665444418656345 
 -0.071733081814332   7.259277087566592   1.670830448920515 
 -1.303589012158916   9.426744309136978   1.672970230853970 
 -2.535971081264665  11.597041805012358   1.662003466770600 
 -1.260730632105327  13.758743769808122   1.668800331581235 
  6.269484266691054   0.761956274373713   1.663229044294470 
  5.053832575662697   2.986606130366275   1.676894277404100 
  3.863097693895166   5.477547504790970   1.693453153589970 
  2.361225116979083   7.324423496651572   1.615202611112955 
  1.179587249395442   9.442496771297531   1.659400777574190 
 -0.030898882125355  11.593865519655040   1.674866208495195 
  1.267169605267700  13.714943656176281   1.660799619653730 
  8.803912942460810   0.700094714731955   1.667034607009905 
  7.593985974746348   2.854001998601016   1.681829370465930 
  6.386397350268877   5.011495450391394   1.563995118440565 
  3.691840216099112   9.299516142486475   1.659053238170160 
  2.497105935847710  11.535370695223214   1.670025621889485 
  3.777804646314213  13.689181815948597   1.663900662322095 
 11.311901200028631   0.686827792114036   1.665842936790285 
 10.084342496533822   2.851364574795886   1.664981306145015 
  8.856393070783266   5.011274539983279   1.702745170575495 
  7.509304895843635   7.151699683285431   1.674821836040025 
  6.190828806320757   9.225159454513822   1.665238943805735 
  4.992254858190936  11.475676786368705   1.664602197295530 
  6.272403678912471  13.688947223980835   1.665145417566375 
 13.809509736606746   0.693119005299621   1.666790209558275 
 12.568638010338118   2.864490604981423   1.665633573021300 
 11.316031415519477   5.035596806026152   1.655657898259380 
 10.016128029707316   7.205108147883408   1.665914688867510 
  8.733956291809015   9.354195029186272   1.669514623628565 
  7.484846096231128  11.494335047967018   1.662287665596060 
  7.522559446796890  14.442157963421851   1.665171034758045 
 15.056763774800617   1.434433019871189   1.667022655043460 
 13.806417041305522   3.602841427257783   1.666176746356725 
 12.538615024547202   5.774362636582770   1.662425884257540 
 11.245515740177611   7.940918094663349   1.663620203376420 
  9.977250905935467  10.101019117233749   1.664141744907735 
  8.737190626289548  12.260730195026250   1.663094995549785 
 -7.502011228441174  14.499404841178638   1.664649121501200 
  0.033967581339286   1.477873472350278   1.666789154580075 
 -1.220487476552464   3.627745180658213   1.665455731413120 
 -2.503865457774126   5.791318583161090   1.663811781772065 
 -3.788076743588086   7.963200021948625   1.665651609420750 
 -5.044644813378143  10.134289826018122   1.664636586673935 
 -6.284005731105354  12.309824778951517   1.664593190039550 
 -5.010756822255686  14.518186446457053   1.666372377345705 
  2.560141240898782   1.573468404723257   1.669446265441695 
  1.303006982180585   3.687951320653891   1.669042393609995 
 -0.013510574919216   5.819113791752715   1.665316660430925 
 -1.308240130943990   7.978759524440175   1.669770309098760 
 -2.547596493909203  10.148988993800881   1.667397803812950 
 -3.783907892048024  12.325668514242471   1.665506247371160 
 -2.510566421275144  14.503039947727467   1.665344049249375 
  5.028165077336610   1.540539510692994   1.671956817535500 
  3.916550175983072   3.884670791334178   1.679286055875375 
  2.480818266890485   5.902195862930708   1.657131509719920 
  1.142492270496322   8.013255358326044   1.641357990095505 
 -0.054697503915992  10.157311860523112   1.671702398630955 
 -1.278743647468842  12.320227874142290   1.669291821536040 
  0.015357131712323  14.449223055717471   1.665512697712275 
  7.555160232253659   1.443521885059249   1.672667550710205 
  6.366740110209966   3.659668349349270   1.638392292755340 
  2.467735663112405  10.090234816870385   1.658564797980930 
  1.247608281061314  12.275272173381525   1.668934418992545 
  2.530152016668875  14.423446395741296   1.663403330649810 
 10.060794667770962   1.416457254453949   1.665773239262010 
  8.830390109057285   3.579903835970240   1.683483475550280 
  7.559932565911955   5.683281056050761   1.644944376840420 
  6.167994294120036   7.673662233765062   1.669769879653680 
  4.974151777763195   9.998634283210908   1.660874276454990 
  3.761246356727016  12.235533900077865   1.666540455377055 
  5.029507397909608  14.420014401549885   1.665709802950275 
 12.559050255260161   1.417593527405344   1.666598982676110 
 11.315692737716560   3.588596843672350   1.661750943682695 
 10.056438049943113   5.751294079615297   1.677530164887375 
  8.731433631619929   7.897795214753084   1.672949994506835 
  7.445094617939646  10.007871077639187   1.666223633532765 
  6.245555844362771  12.222492658244681   1.663872091603695 
