 B C N 
 1.0
 14.936314146199660   0.000000000000000   0.000000000000000
 -7.468157073099825  12.935227489513863   0.000000000000000
  0.000000000000001   0.000000000000001  13.341276283792837
 B C N 
 143   3 142
Cartesian
  1.247168744228187   0.722868999399150   5.002978606422314 
  4.955041284263221   7.201292839319938   5.002978606422314 
  6.220988328871644   0.722868999399150   5.002978606422314 
  9.957448653301746   7.192993660248116   5.002978606422314 
 11.202235609649751   0.719098141449896   5.002978606422314 
 -3.734078536549858   9.341976676017584  11.673616748318732 
  1.244723303941555   9.341947584530757  11.673616748318732 
  2.489824334299660   2.874966442745625  11.673616748318732 
  6.223433769158268   9.341947584530757  11.673616748318732 
  7.467726460316602   2.874595391779276  11.673616748318732 
 12.446979678562034   2.874730619295953  11.673616748318732 
 -1.244575935046183   9.343460735185408   5.002978606422314 
 -0.009131757686370   2.858405855533252   5.002978606422314 
  4.984608175147612   2.887566474675764   5.002978606422314 
  3.734078536549911   9.364674239275368   5.002978606422314 
  8.712733008146108   9.343460735185408   5.002978606422314 
  9.959943063360853   2.874645021326728   5.002978606422314 
 -4.978659416242999  11.498095853391312  11.673616748318732 
 -0.000002207936855  11.497799861243495  11.673616748318732 
  1.244740793220281   5.030614554272523  11.673616748318732 
  6.223416279879658   5.030614554272523  11.673616748318732 
  4.978695238489292  11.497745282339944  11.673616748318732 
 11.202235609649701   5.030497898410989  11.673616748318732 
 -1.244716544178321   5.029552845995997   5.002978606422314 
 -2.492953547176003  11.499462825004395   5.002978606422314 
  2.488592221808255  11.507165733856665   5.002978606422314 
  7.473221896586719  11.498642512202727   5.002978606422314 
  8.712873617278275   5.029552845995997   5.002978606422314 
  0.000276711643146   7.186131312563630  11.673616748318732 
  1.244727144621257   0.718858240414558  11.673616748318732 
  4.978505050961695   7.186652329639427  11.673616748318732 
  6.223429928478560   0.718858240414558  11.673616748318732 
  9.957551099728700   7.186225202890736  11.673616748318732 
 -2.489291580201926   7.192993660248116   5.002978606422314 
 11.202235609649797   0.718468499478047  11.673616748318732 
  3.734078536549915   0.719610037016911   5.002978606422314 
  2.513115788836615   7.201292839319938   5.002978606422314 
  7.459399784334517   7.182537765392945   5.002978606422314 
  8.712804470650619   0.717541924252256   5.002978606422314 
  2.489652022138145   7.186652329639427  11.673616748318732 
 13.691666748648871   0.717541924252256   5.002978606422314 
 -1.244485366268720   9.342100429790099  11.673616748318732 
  0.000430612783335   2.874595391779276  11.673616748318732 
  4.978332738800174   2.874966442745625  11.673616748318732 
  3.734078536550023   9.341634844319355  11.673616748318732 
  8.712642439368665   9.342100429790099  11.673616748318732 
  9.957491540737562   2.874730619295953  11.673616748318732 
 -3.734078536549850   9.341954053925086   5.002978606422314 
  1.236817357809668   9.345752940310978   5.002978606422314 
  2.483548897952221   2.887566474675764   5.002978606422314 
  6.231339715290170   9.345752940310978   5.002978606422314 
  7.477288830786293   2.858405855533252   5.002978606422314 
 12.444528155938642   2.874645021326728   5.002978606422314 
 -1.244309533625459   5.030726480924081  11.673616748318732 
 -2.489497656856610  11.498095853391312  11.673616748318732 
  2.489461834610672  11.497745282339944  11.673616748318732 
  3.734078536549873   5.030251438696739  11.673616748318732 
  7.468159281036695  11.497799861243495  11.673616748318732 
 -4.975203525923817  11.499462825004395   5.002978606422314 
  8.712466606725400   5.030726480924081  11.673616748318732 
 -0.005064823486879  11.498642512202727   5.002978606422314 
  1.232737070048057   5.004981990366236   5.002978606422314 
  0.008757288765335   7.182537765392945   5.002978606422314 
  6.235420003051896   5.004981990366236   5.002978606422314 
  4.979564851291810  11.507165733856665   5.002978606422314 
 11.202235609649701   5.026421358784695   5.002978606422314 
 -2.489394026628863   7.186225202890736  11.673616748318732 
  3.734078536549916   0.718758161982230  11.673616748318732 
  7.467880361456692   7.186131312563630  11.673616748318732 
  8.712552624360402   0.718674421248636  11.673616748318732 
 13.691918594938969   0.718674421248636  11.673616748318732 
  0.000097263734389   1.438023941308928   1.667590387537385 
  3.734078536549919   7.902903152420016   1.668967974929270 
  4.978708790127193   1.439167981298649   1.667152223802727 
  8.711203962912521   7.903724371282021   1.667900152293058 
  9.957511403947265   1.437187039256860   1.666754629084840 
 -4.979300620777511  10.060349858612444   8.339202237583139 
  0.001134776871913  10.060006959663390   8.338192460141737 
  1.245338628462130   3.594770966730528   8.339487622438380 
  4.978136212944210  10.059603516280442   8.338630354250483 
  6.222818444637825   3.594770966730528   8.339487622438380 
 11.202235609649634   3.592576082649276   8.338767687897525 
 -2.488856452322190  10.060349858612444   1.666754975261489 
 -1.243995814324787   3.592967029980671   1.667262097294642 
  3.734078536549856   3.596195070556100   1.665097515920803 
  2.490020860155628  10.059603516280442   1.667326858594145 
  7.467022296227821  10.060006959663390   1.667764752702889 
  8.712152887424516   3.592967029980671   1.667262097294642 
 -6.223783414867423  12.217089418645889   8.338978512326710 
 -1.244373658232292  12.217089418645889   8.338978512326710 
  0.002439726538279   5.747589122171315   8.338035440786124 
  4.977256244337442   5.747377881523014   8.329740454716518 
  3.734078536549972  12.216267758902140   8.338839714013202 
  9.956693233675294   5.748002573043563   8.339214942909454 
 -2.488536160575459   5.748002573043562   1.666742269935175 
 -3.734078536549962  12.217385836885402   1.667328974292988 
  1.245033130774074  12.216486276210510   1.666676158915535 
  2.490900828762392   5.747377881523013   1.676216758128110 
  6.223123942325767  12.216486276210510   1.666676158915535 
  7.465717346561558   5.747589122171314   1.667921772058518 
 -1.243046889812788   7.903724371282022   8.338057060551570 
  0.000097263734389   1.438023941308929   8.338366825307242 
  3.734078536549920   7.902903152420017   8.336989237915358 
  4.978708790127194   1.439167981298650   8.338804989041900 
  8.711203962912521   7.903724371282022   8.338057060551570 
 -3.734078536549919   7.904078762938215   1.667301939086115 
  9.957511403947265   1.437187039256861   8.339202583759787 
  2.489448282972533   1.439167981298649   1.667152223802727 
  1.246876089937380   7.903144839358016   1.668900109593795 
  6.221280983162354   7.903144839358016   1.668900109593795 
  7.468059809365547   1.438023941308928   1.667590387537385 
  1.246876089937380   7.903144839358017   8.337057103250846 
 12.446959815352226   1.437187039256860   1.666754629084840 
 -2.488856452322190  10.060349858612444   8.339202237583139 
 -1.243995814324787   3.592967029980672   8.338695115549985 
  3.734078536549856   3.596195070556101   8.340859696923824 
  2.490020860155628  10.059603516280442   8.338630354250483 
  7.467022296227822  10.060006959663390   8.338192460141737 
  8.712152887424516   3.592967029980672   8.338695115549985 
 -4.979300620777512  10.060349858612444   1.666754975261489 
  0.001134776871912  10.060006959663390   1.667764752702889 
  1.245338628462129   3.594770966730527   1.666469590406248 
  4.978136212944209  10.059603516280442   1.667326858594145 
  6.222818444637824   3.594770966730527   1.666469590406248 
 11.202235609649634   3.592576082649275   1.667189524947103 
 -2.488536160575458   5.748002573043563   8.339214942909454 
 -3.734078536549962  12.217385836885402   8.338628238551641 
  1.245033130774074  12.216486276210510   8.339281053929106 
  2.490900828762393   5.747377881523014   8.329740454716518 
  6.223123942325768  12.216486276210510   8.339281053929106 
 -6.223783414867424  12.217089418645889   1.666978700517917 
  7.465717346561559   5.747589122171315   8.338035440786124 
 -1.244373658232292  12.217089418645889   1.666978700517917 
  0.002439726538278   5.747589122171314   1.667921772058518 
 -1.243046889812788   7.903724371282021   1.667900152293058 
  4.977256244337442   5.747377881523013   1.676216758128110 
  3.734078536549972  12.216267758902140   1.667117498831412 
  9.956693233675294   5.748002573043562   1.666742269935175 
 -3.734078536549919   7.904078762938216   8.338655273758512 
  2.489448282972534   1.439167981298650   8.338804989041900 
  6.221280983162355   7.903144839358017   8.337057103250846 
  7.468059809365548   1.438023941308929   8.338366825307242 
 12.446959815352212   1.437187039256861   8.339202583759787 
  2.523846764766573   5.711779225793046   5.002978606422314 
  3.734078536549925   5.024141502521846   5.002978606422314 
  4.944310308333382   5.711779225793046   5.002978606422314 
  1.244508039805815   0.718520341256623   1.668481430409775 
  4.978807980937867   7.186752362137248   1.661880354050868 
  6.223649033294016   0.718520341256623   1.668481430409775 
  9.957535034145778   7.185669151447533   1.668693691612674 
 11.202235609649753   0.718521153058514   1.667916382418173 
 -3.734078536549859   9.341774516339216   8.337767522463873 
  1.244943465602601   9.342246061779603   8.338020800275880 
  2.489205612730730   2.874327552019775   8.340066173063491 
  6.223213607497342   9.342246061779603   8.338020800275880 
  7.468611233614640   2.874071085350606   8.338680320345576 
 12.446721992005996   2.874065057897790   8.338035326050626 
 -1.244506364007748   9.341863075221957   1.668310228582283 
 -0.000454160514808   2.874071085350605   1.667276892499053 
  4.978951460369088   2.874327552019774   1.665891039781136 
  3.734078536549973   9.342390563879288   1.667339048084600 
  8.712663437107690   9.341863075221957   1.668310228582283 
  9.957749227293478   2.874065057897790   1.667921886794001 
 -4.978902410524635  11.497861444189486   8.337641941187560 
  0.000195447088173  11.498006662122670   8.337637362144511 
  1.243932871929545   5.029516551444349   8.346977829449337 
  6.224224201170412   5.029516551444349   8.346977829449337 
  4.978705386648202  11.498122189334058   8.337887034833122 
 11.202235609649748   5.029929071644636   8.337384477428246 
 -1.244949614954294   5.029814537984874   1.667871085970327 
 -2.489254662575079  11.497861444189486   1.668315271657068 
  2.489451686451742  11.498122189334058   1.668070178011507 
  3.734078536549910   5.029591708411584   1.653939265018369 
  7.467961626011665  11.498006662122670   1.668319850700117 
  8.713106688054232   5.029814537984874   1.667871085970327 
  0.000012553285644   7.185832590490600   8.337683011051240 
  1.244508039805815   0.718520341256624   8.337475782434867 
  4.978807980937868   7.186752362137249   8.344076858793761 
  6.223649033294016   0.718520341256624   8.337475782434867 
  9.957535034145778   7.185669151447533   8.337263521231952 
 -2.489377961045942   7.185669151447533   1.668693691612674 
 11.202235609649753   0.718521153058514   8.338040830426456 
  3.734078536549960   0.718615347212239   1.668266705648247 
  2.489349092161953   7.186752362137248   1.661880354050868 
  7.468144519814176   7.185832590490599   1.668274201793295 
  8.713040511826030   0.718467806235484   1.668204213733061 
  2.489349092161954   7.186752362137249   8.344076858793761 
 13.691430707473458   0.718467806235484   1.668204213733061 
 -1.244506364007747   9.341863075221957   8.337646984262346 
 -0.000454160514808   2.874071085350606   8.338680320345576 
  4.978951460369089   2.874327552019775   8.340066173063491 
  3.734078536549973   9.342390563879288   8.338618164760042 
  8.712663437107690   9.341863075221957   8.337646984262346 
  9.957749227293478   2.874065057897790   8.338035326050626 
 -3.734078536549859   9.341774516339216   1.668189690380755 
  1.244943465602601   9.342246061779603   1.667936412568749 
  2.489205612730729   2.874327552019774   1.665891039781136 
  6.223213607497341   9.342246061779603   1.667936412568749 
  7.468611233614639   2.874071085350605   1.667276892499053 
 12.446721992005996   2.874065057897790   1.667921886794001 
 -1.244949614954293   5.029814537984875   8.338086126874302 
 -2.489254662575079  11.497861444189486   8.337641941187560 
  2.489451686451743  11.498122189334058   8.337887034833122 
  3.734078536549910   5.029591708411584   8.352017947826258 
  7.467961626011665  11.498006662122670   8.337637362144511 
 -4.978902410524636  11.497861444189486   1.668315271657068 
  8.713106688054232   5.029814537984875   8.338086126874302 
  0.000195447088173  11.498006662122670   1.668319850700117 
  1.243932871929544   5.029516551444348   1.658979383395291 
  0.000012553285644   7.185832590490599   1.668274201793295 
  6.224224201170411   5.029516551444348   1.658979383395291 
  4.978705386648201  11.498122189334058   1.668070178011507 
 11.202235609649748   5.029929071644635   1.668572735416380 
 -2.489377961045941   7.185669151447533   8.337263521231952 
  3.734078536549961   0.718615347212240   8.337690507196287 
  7.468144519814177   7.185832590490600   8.337683011051240 
  8.713040511826030   0.718467806235484   8.337752999111567 
 13.691430707473458   0.718467806235484   8.337752999111567 
 -0.004329556863156   1.425259804546047   5.002978606422314 
  3.734078536549921   7.956653467992754   5.002978606422314 
  4.974975083435845   1.440022092853100   5.002978606422314 
  8.716009126094164   7.907157365602698   5.002978606422314 
  9.958398556063925   1.435970437854015   5.002978606422314 
 -4.978716106995268  10.060783099954895  11.673616748318732 
 -0.000110265688664  10.060845032738188  11.673616748318732 
  1.244778354250463   3.593124199288718  11.673616748318732 
  4.978824933283130  10.060823993875704  11.673616748318732 
  6.223378718849491   3.593124199288718  11.673616748318732 
 11.202235609649694   3.593219352061636  11.673616748318732 
 -2.491451095570274  10.062264143087280   5.002978606422314 
 -1.252843704232138   3.587701352153047   5.002978606422314 
  3.734078536549872   3.611609089914792   5.002978606422314 
  2.482641960007030  10.078349129691926   5.002978606422314 
  7.475223589031978  10.067906761971241   5.002978606422314 
  8.721000777331971   3.587701352153047   5.002978606422314 
 -6.223474450304325  12.216608551186647  11.673616748318732 
 -1.244682622795493  12.216608551186647  11.673616748318732 
 -0.000144881456083   5.749163963787434  11.673616748318732 
  4.978791211227402   5.749240292310938  11.673616748318732 
  3.734078536549914  12.216655679963955  11.673616748318732 
  9.957631847976032   5.749074880368452  11.673616748318732 
 -2.493855092905815   5.749854238269814   5.002978606422314 
 -3.734078536549962  12.217139016149005   5.002978606422314 
  1.242131239361716  12.218518426867309   5.002978606422314 
  6.226025833738125  12.218518426867309   5.002978606422314 
  7.483824391332381   5.744068137903739   5.002978606422314 
 -1.244843809746078   7.904936674134613  11.673616748318732 
  0.000013049105739   1.437180962589956  11.673616748318732 
  3.734078536549919   7.905152941298138  11.673616748318732 
  4.978775044938412   1.437160260006638  11.673616748318732 
  8.713000882845810   7.904936674134613  11.673616748318732 
 -3.734078536549851   7.907424811432730   5.002978606422314 
  9.957506302590264   1.437303300822898  11.673616748318732 
  2.493181989663867   1.440022092853100   5.002978606422314 
  1.237126057752092   7.920741089797280   5.002978606422314 
  6.231031015347744   7.920741089797280   5.002978606422314 
  7.472486629962972   1.425259804546047   5.002978606422314 
  1.244537905806263   7.905060305037950  11.673616748318732 
 12.446072663235462   1.435970437854015   5.002978606422314 
 -2.489440966104536  10.060783099954895  11.673616748318732 
 -1.244598279524458   3.593208173166892  11.673616748318732 
  3.734078536549820   3.593053436486081  11.673616748318732 
  2.489332139816709  10.060823993875704  11.673616748318732 
  7.468267338788295  10.060845032738188  11.673616748318732 
  8.712755352624292   3.593208173166892  11.673616748318732 
 -4.976705977529531  10.062264143087280   5.002978606422314 
 -0.007066515932229  10.067906761971241   5.002978606422314 
  1.222205387319446   3.561606817214052   5.002978606422314 
  4.985515113092811  10.078349129691926   5.002978606422314 
  6.245951685780387   3.561606817214052   5.002978606422314 
 11.202235609649689   3.592349442643911   5.002978606422314 
 -2.489474774876181   5.749074880368452  11.673616748318732 
 -3.734078536549969  12.216539901049597  11.673616748318732 
  1.244657622672092  12.216649471528539  11.673616748318732 
  2.489365861872329   5.749240292310938  11.673616748318732 
  6.223499450427840  12.216649471528539  11.673616748318732 
 -6.219371437495156  12.218386425146706   5.002978606422314 
  7.468301954555918   5.749163963787434  11.673616748318732 
 -1.248785635604662  12.218386425146706   5.002978606422314 
 -0.015667318232547   5.744068137903739   5.002978606422314 
 -1.247852052994448   7.907157365602698   5.002978606422314 
  3.734078536549921  12.222641291555700   5.002978606422314 
  9.962012166005650   5.749854238269814   5.002978606422314 
 -3.734078536549970   7.904892701279723  11.673616748318732 
  2.489382028161317   1.437160260006638  11.673616748318732 
  6.223619167293469   7.905060305037950  11.673616748318732 
  7.468144023994093   1.437180962589956  11.673616748318732 
 12.446964916709018   1.437303300822898  11.673616748318732 
Generated by cif2cell 2.0.0.  :  Failed to get author information, No journal information. Species order: B C N 
 1.0
 14.936314146199660   0.000000000000000   0.000000000000000
 -7.468157073099825  12.935227489513863   0.000000000000000
  0.000000000000001   0.000000000000001  13.341276283792837
 B C N 
 143   3 142
Cartesian
  1.247168744228187   0.722868999399150   5.002978606422314 
  4.955041284263221   7.201292839319938   5.002978606422314 
  6.220988328871644   0.722868999399150   5.002978606422314 
  9.957448653301746   7.192993660248116   5.002978606422314 
 11.202235609649751   0.719098141449896   5.002978606422314 
 -3.734078536549858   9.341976676017584  11.673616748318732 
  1.244723303941555   9.341947584530757  11.673616748318732 
  2.489824334299660   2.874966442745625  11.673616748318732 
  6.223433769158268   9.341947584530757  11.673616748318732 
  7.467726460316602   2.874595391779276  11.673616748318732 
 12.446979678562034   2.874730619295953  11.673616748318732 
 -1.244575935046183   9.343460735185408   5.002978606422314 
 -0.009131757686370   2.858405855533252   5.002978606422314 
  4.984608175147612   2.887566474675764   5.002978606422314 
  3.734078536549911   9.364674239275368   5.002978606422314 
  8.712733008146108   9.343460735185408   5.002978606422314 
  9.959943063360853   2.874645021326728   5.002978606422314 
 -4.978659416242999  11.498095853391312  11.673616748318732 
 -0.000002207936855  11.497799861243495  11.673616748318732 
  1.244740793220281   5.030614554272523  11.673616748318732 
  6.223416279879658   5.030614554272523  11.673616748318732 
  4.978695238489292  11.497745282339944  11.673616748318732 
 11.202235609649701   5.030497898410989  11.673616748318732 
 -1.244716544178321   5.029552845995997   5.002978606422314 
 -2.492953547176003  11.499462825004395   5.002978606422314 
  2.488592221808255  11.507165733856665   5.002978606422314 
  7.473221896586719  11.498642512202727   5.002978606422314 
  8.712873617278275   5.029552845995997   5.002978606422314 
  0.000276711643146   7.186131312563630  11.673616748318732 
  1.244727144621257   0.718858240414558  11.673616748318732 
  4.978505050961695   7.186652329639427  11.673616748318732 
  6.223429928478560   0.718858240414558  11.673616748318732 
  9.957551099728700   7.186225202890736  11.673616748318732 
 -2.489291580201926   7.192993660248116   5.002978606422314 
 11.202235609649797   0.718468499478047  11.673616748318732 
  3.734078536549915   0.719610037016911   5.002978606422314 
  2.513115788836615   7.201292839319938   5.002978606422314 
  7.459399784334517   7.182537765392945   5.002978606422314 
  8.712804470650619   0.717541924252256   5.002978606422314 
  2.489652022138145   7.186652329639427  11.673616748318732 
 13.691666748648871   0.717541924252256   5.002978606422314 
 -1.244485366268720   9.342100429790099  11.673616748318732 
  0.000430612783335   2.874595391779276  11.673616748318732 
  4.978332738800174   2.874966442745625  11.673616748318732 
  3.734078536550023   9.341634844319355  11.673616748318732 
  8.712642439368665   9.342100429790099  11.673616748318732 
  9.957491540737562   2.874730619295953  11.673616748318732 
 -3.734078536549850   9.341954053925086   5.002978606422314 
  1.236817357809668   9.345752940310978   5.002978606422314 
  2.483548897952221   2.887566474675764   5.002978606422314 
  6.231339715290170   9.345752940310978   5.002978606422314 
  7.477288830786293   2.858405855533252   5.002978606422314 
 12.444528155938642   2.874645021326728   5.002978606422314 
 -1.244309533625459   5.030726480924081  11.673616748318732 
 -2.489497656856610  11.498095853391312  11.673616748318732 
  2.489461834610672  11.497745282339944  11.673616748318732 
  3.734078536549873   5.030251438696739  11.673616748318732 
  7.468159281036695  11.497799861243495  11.673616748318732 
 -4.975203525923817  11.499462825004395   5.002978606422314 
  8.712466606725400   5.030726480924081  11.673616748318732 
 -0.005064823486879  11.498642512202727   5.002978606422314 
  1.232737070048057   5.004981990366236   5.002978606422314 
  0.008757288765335   7.182537765392945   5.002978606422314 
  6.235420003051896   5.004981990366236   5.002978606422314 
  4.979564851291810  11.507165733856665   5.002978606422314 
 11.202235609649701   5.026421358784695   5.002978606422314 
 -2.489394026628863   7.186225202890736  11.673616748318732 
  3.734078536549916   0.718758161982230  11.673616748318732 
  7.467880361456692   7.186131312563630  11.673616748318732 
  8.712552624360402   0.718674421248636  11.673616748318732 
 13.691918594938969   0.718674421248636  11.673616748318732 
  0.000097263734389   1.438023941308928   1.667590387537385 
  3.734078536549919   7.902903152420016   1.668967974929270 
  4.978708790127193   1.439167981298649   1.667152223802727 
  8.711203962912521   7.903724371282021   1.667900152293058 
  9.957511403947265   1.437187039256860   1.666754629084840 
 -4.979300620777511  10.060349858612444   8.339202237583139 
  0.001134776871913  10.060006959663390   8.338192460141737 
  1.245338628462130   3.594770966730528   8.339487622438380 
  4.978136212944210  10.059603516280442   8.338630354250483 
  6.222818444637825   3.594770966730528   8.339487622438380 
 11.202235609649634   3.592576082649276   8.338767687897525 
 -2.488856452322190  10.060349858612444   1.666754975261489 
 -1.243995814324787   3.592967029980671   1.667262097294642 
  3.734078536549856   3.596195070556100   1.665097515920803 
  2.490020860155628  10.059603516280442   1.667326858594145 
  7.467022296227821  10.060006959663390   1.667764752702889 
  8.712152887424516   3.592967029980671   1.667262097294642 
 -6.223783414867423  12.217089418645889   8.338978512326710 
 -1.244373658232292  12.217089418645889   8.338978512326710 
  0.002439726538279   5.747589122171315   8.338035440786124 
  4.977256244337442   5.747377881523014   8.329740454716518 
  3.734078536549972  12.216267758902140   8.338839714013202 
  9.956693233675294   5.748002573043563   8.339214942909454 
 -2.488536160575459   5.748002573043562   1.666742269935175 
 -3.734078536549962  12.217385836885402   1.667328974292988 
  1.245033130774074  12.216486276210510   1.666676158915535 
  2.490900828762392   5.747377881523013   1.676216758128110 
  6.223123942325767  12.216486276210510   1.666676158915535 
  7.465717346561558   5.747589122171314   1.667921772058518 
 -1.243046889812788   7.903724371282022   8.338057060551570 
  0.000097263734389   1.438023941308929   8.338366825307242 
  3.734078536549920   7.902903152420017   8.336989237915358 
  4.978708790127194   1.439167981298650   8.338804989041900 
  8.711203962912521   7.903724371282022   8.338057060551570 
 -3.734078536549919   7.904078762938215   1.667301939086115 
  9.957511403947265   1.437187039256861   8.339202583759787 
  2.489448282972533   1.439167981298649   1.667152223802727 
  1.246876089937380   7.903144839358016   1.668900109593795 
  6.221280983162354   7.903144839358016   1.668900109593795 
  7.468059809365547   1.438023941308928   1.667590387537385 
  1.246876089937380   7.903144839358017   8.337057103250846 
 12.446959815352226   1.437187039256860   1.666754629084840 
 -2.488856452322190  10.060349858612444   8.339202237583139 
 -1.243995814324787   3.592967029980672   8.338695115549985 
  3.734078536549856   3.596195070556101   8.340859696923824 
  2.490020860155628  10.059603516280442   8.338630354250483 
  7.467022296227822  10.060006959663390   8.338192460141737 
  8.712152887424516   3.592967029980672   8.338695115549985 
 -4.979300620777512  10.060349858612444   1.666754975261489 
  0.001134776871912  10.060006959663390   1.667764752702889 
  1.245338628462129   3.594770966730527   1.666469590406248 
  4.978136212944209  10.059603516280442   1.667326858594145 
  6.222818444637824   3.594770966730527   1.666469590406248 
 11.202235609649634   3.592576082649275   1.667189524947103 
 -2.488536160575458   5.748002573043563   8.339214942909454 
 -3.734078536549962  12.217385836885402   8.338628238551641 
  1.245033130774074  12.216486276210510   8.339281053929106 
  2.490900828762393   5.747377881523014   8.329740454716518 
  6.223123942325768  12.216486276210510   8.339281053929106 
 -6.223783414867424  12.217089418645889   1.666978700517917 
  7.465717346561559   5.747589122171315   8.338035440786124 
 -1.244373658232292  12.217089418645889   1.666978700517917 
  0.002439726538278   5.747589122171314   1.667921772058518 
 -1.243046889812788   7.903724371282021   1.667900152293058 
  4.977256244337442   5.747377881523013   1.676216758128110 
  3.734078536549972  12.216267758902140   1.667117498831412 
  9.956693233675294   5.748002573043562   1.666742269935175 
 -3.734078536549919   7.904078762938216   8.338655273758512 
  2.489448282972534   1.439167981298650   8.338804989041900 
  6.221280983162355   7.903144839358017   8.337057103250846 
  7.468059809365548   1.438023941308929   8.338366825307242 
 12.446959815352212   1.437187039256861   8.339202583759787 
  2.523846764766573   5.711779225793046   5.002978606422314 
  3.734078536549925   5.024141502521846   5.002978606422314 
  4.944310308333382   5.711779225793046   5.002978606422314 
  1.244508039805815   0.718520341256623   1.668481430409775 
  4.978807980937867   7.186752362137248   1.661880354050868 
  6.223649033294016   0.718520341256623   1.668481430409775 
  9.957535034145778   7.185669151447533   1.668693691612674 
 11.202235609649753   0.718521153058514   1.667916382418173 
 -3.734078536549859   9.341774516339216   8.337767522463873 
  1.244943465602601   9.342246061779603   8.338020800275880 
  2.489205612730730   2.874327552019775   8.340066173063491 
  6.223213607497342   9.342246061779603   8.338020800275880 
  7.468611233614640   2.874071085350606   8.338680320345576 
 12.446721992005996   2.874065057897790   8.338035326050626 
 -1.244506364007748   9.341863075221957   1.668310228582283 
 -0.000454160514808   2.874071085350605   1.667276892499053 
  4.978951460369088   2.874327552019774   1.665891039781136 
  3.734078536549973   9.342390563879288   1.667339048084600 
  8.712663437107690   9.341863075221957   1.668310228582283 
  9.957749227293478   2.874065057897790   1.667921886794001 
 -4.978902410524635  11.497861444189486   8.337641941187560 
  0.000195447088173  11.498006662122670   8.337637362144511 
  1.243932871929545   5.029516551444349   8.346977829449337 
  6.224224201170412   5.029516551444349   8.346977829449337 
  4.978705386648202  11.498122189334058   8.337887034833122 
 11.202235609649748   5.029929071644636   8.337384477428246 
 -1.244949614954294   5.029814537984874   1.667871085970327 
 -2.489254662575079  11.497861444189486   1.668315271657068 
  2.489451686451742  11.498122189334058   1.668070178011507 
  3.734078536549910   5.029591708411584   1.653939265018369 
  7.467961626011665  11.498006662122670   1.668319850700117 
  8.713106688054232   5.029814537984874   1.667871085970327 
  0.000012553285644   7.185832590490600   8.337683011051240 
  1.244508039805815   0.718520341256624   8.337475782434867 
  4.978807980937868   7.186752362137249   8.344076858793761 
  6.223649033294016   0.718520341256624   8.337475782434867 
  9.957535034145778   7.185669151447533   8.337263521231952 
 -2.489377961045942   7.185669151447533   1.668693691612674 
 11.202235609649753   0.718521153058514   8.338040830426456 
  3.734078536549960   0.718615347212239   1.668266705648247 
  2.489349092161953   7.186752362137248   1.661880354050868 
  7.468144519814176   7.185832590490599   1.668274201793295 
  8.713040511826030   0.718467806235484   1.668204213733061 
  2.489349092161954   7.186752362137249   8.344076858793761 
 13.691430707473458   0.718467806235484   1.668204213733061 
 -1.244506364007747   9.341863075221957   8.337646984262346 
 -0.000454160514808   2.874071085350606   8.338680320345576 
  4.978951460369089   2.874327552019775   8.340066173063491 
  3.734078536549973   9.342390563879288   8.338618164760042 
  8.712663437107690   9.341863075221957   8.337646984262346 
  9.957749227293478   2.874065057897790   8.338035326050626 