Species order:X N B                     
   2.51242800000000     
     5.9449720136058266    0.0000000000000000    0.0000000000000000
    -2.9724860068029120    5.1484967885702053   -0.0000000000000001
     0.0000000000000000    0.0000000000000009    5.3101128803662583
   C    N    B 
     3   142   143
Direct
  0.3897577395164177  0.4415677443959443  0.3750000000000000
  0.4442038323869737  0.3884076647739472  0.3750000000000000
  0.5518100048795338  0.4415677443959443  0.3750000000000000
  0.1110947410456513  0.0555475612500135  0.1250616054205145
  0.6111334632138463  0.5555953591046848  0.1245668194481320
  0.4444528202043622  0.0555475612500135  0.1250616054205145
  0.9444219581194804  0.5555116179651807  0.1250775155327402
  0.7777738120045046  0.0555476240090090  0.1250192520519480
  0.1110981918915750  0.7221963837831430  0.6249602620547412
  0.4444665316507056  0.7222328381432046  0.6249792465811554
  0.2777592489030555  0.2222092772894710  0.6251325582092263
  0.7777663064925060  0.7222328381432046  0.6249792465811554
  0.6111251316131699  0.2221894502961395  0.6250286811371651
  0.9444140025965424  0.2221889843242176  0.6249803353656490
  0.2777807668339577  0.7222032301167551  0.1250487729280421
  0.1110643186829697  0.2221894502961395  0.1249713188628351
  0.4444500283864154  0.2222092772894710  0.1248674417907739
  0.6111220046749438  0.7222440093498814  0.1249759777563486
  0.9444224632828042  0.7222032301167551  0.1250487729280421
  0.7777749817276751  0.2221889843242176  0.1250196646343509
  0.1110977563233260  0.8888797242654136  0.6249508490665350
  0.4444585607686788  0.8888909508119361  0.6249505058427720
  0.2776940526424940  0.3888232004826823  0.6256506238154561
  0.6111291478401956  0.3888232004826823  0.6256506238154561
  0.7777788558893700  0.8888998820202572  0.6249692201459093
  0.9444275458519079  0.3888550917038157  0.6249315507809858
  0.1110725943687558  0.3888462373052477  0.1250158568409587
  0.2777819679420949  0.8888797242654136  0.1250491509334651
  0.6111210261308941  0.8888998820202572  0.1250307798540908
  0.4444145053687264  0.3888290107374530  0.1239715923601402
  0.9444323900432570  0.8888909508119361  0.1250494941572280
  0.7777736429364991  0.3888462373052477  0.1250158568409587
  0.2777629670310965  0.5555242531541020  0.6249539274724389
  0.1110947410456513  0.0555475612500135  0.6249383945794855
  0.6111334632138463  0.5555953591046848  0.6254331805518681
  0.4444528202043622  0.0555475612500135  0.6249383945794855
  0.9444219581194804  0.5555116179651807  0.6249224844672595
  0.1110896598457007  0.5555116179651807  0.1250775155327402
  0.7777738120045046  0.0555476240090090  0.6249807479480521
  0.2777774529978263  0.0555549059956459  0.1250455106513969
  0.4444618958908384  0.5555953591046848  0.1245668194481320
  0.7777612861230049  0.5555242531541020  0.1250460725275538
  0.6111178436537252  0.0555434998586552  0.1250408265481778
  0.4444618958908384  0.5555953591046848  0.6254331805518681
  0.9444256562049301  0.0555434998586552  0.1250408265481778
  0.2777807668339577  0.7222032301167551  0.6249512270719580
  0.1110643186829697  0.2221894502961395  0.6250286811371651
  0.4444500283864154  0.2222092772894710  0.6251325582092263
  0.6111220046749438  0.7222440093498814  0.6250240222436516
  0.9444224632828042  0.7222032301167551  0.6249512270719580
  0.7777749817276751  0.2221889843242176  0.6249803353656490
  0.1110981918915750  0.7221963837831430  0.1250397379452587
  0.4444665316507056  0.7222328381432046  0.1250207534188448
  0.2777592489030555  0.2222092772894710  0.1248674417907739
  0.7777663064925060  0.7222328381432046  0.1250207534188448
  0.6111251316131699  0.2221894502961395  0.1249713188628351
  0.9444140025965424  0.2221889843242176  0.1250196646343509
  0.1110725943687558  0.3888462373052477  0.6249841431590415
  0.2777819679420949  0.8888797242654136  0.6249508490665350
  0.6111210261308941  0.8888998820202572  0.6249692201459093
  0.4444145053687264  0.3888290107374530  0.6260284076398598
  0.9444323900432570  0.8888909508119361  0.6249505058427720
  0.1110977563233260  0.8888797242654136  0.1250491509334651
  0.7777736429364991  0.3888462373052477  0.6249841431590415
  0.4444585607686788  0.8888909508119361  0.1250494941572280
  0.2776940526424940  0.3888232004826823  0.1243493761845440
  0.2777629670310965  0.5555242531541020  0.1250460725275538
  0.6111291478401956  0.3888232004826823  0.1243493761845440
  0.7777788558893700  0.8888998820202572  0.1250307798540908
  0.9444275458519079  0.3888550917038157  0.1250684492190139
  0.1110896598457007  0.5555116179651807  0.6249224844672595
  0.2777774529978263  0.0555549059956459  0.6249544893485959
  0.7777612861230049  0.5555242531541020  0.6249539274724389
  0.6111178436537252  0.0555434998586552  0.6249591734518224
  0.9444256562049301  0.0555434998586552  0.6249591734518224
  0.0548023138067779  0.1101843632592815  0.3750000000000000
  0.5575575390708406  0.6151150781416816  0.3750000000000000
  0.3887419727216258  0.1113256101618985  0.3750000000000000
  0.8891891553465224  0.6112886203209608  0.3750000000000000
  0.7222301545962058  0.1110123837418480  0.3750000000000000
  0.0555612124851589  0.7777816902030383  0.8750000000000000
  0.3888858566700467  0.7777864781190866  0.8750000000000000
  0.2222281578608925  0.2777781992780210  0.8750000000000000
  0.7222293444572058  0.7777848516411221  0.8750000000000000
  0.5555500414171356  0.2777781992780210  0.8750000000000000
  0.8888927776869191  0.2777855553738449  0.8750000000000000
  0.2221431461350495  0.7778961870786120  0.3750000000000000
  0.0548004433485791  0.2773589683723364  0.3750000000000000
  0.3896036170543775  0.2792072341087621  0.3750000000000000
  0.5557850124044038  0.7791396894922871  0.3750000000000000
  0.8896393138338629  0.7783324081569454  0.3750000000000000
  0.7225585250237572  0.2773589683723364  0.3750000000000000
  0.0555550571034716  0.9444448163814837  0.8750000000000000
  0.3888897592780121  0.9444448163814837  0.8750000000000000
  0.2222192468746629  0.4444578936433923  0.8750000000000000
  0.5555665581485028  0.4444637944691459  0.8750000000000000
  0.7222242299127543  0.9444484598255085  0.8750000000000000
  0.8888981342914618  0.4444510067587933  0.8750000000000000
  0.0552897315413300  0.4445112575662866  0.3750000000000000
  0.2222429128537908  0.9444858257075888  0.3750000000000000
  0.5554580642187980  0.9445924655575199  0.3750000000000000
  0.8891344013387222  0.9445924655575199  0.3750000000000000
  0.7230809134891282  0.4440639441834524  0.3750000000000000
  0.2222150307301181  0.6111169425155355  0.8750000000000000
  0.0555538573043719  0.1111059673094292  0.8750000000000000
  0.5555668308774071  0.6111336617548138  0.8750000000000000
  0.3888857619802916  0.1111043668286229  0.8750000000000000
  0.8889019117854103  0.6111169425155355  0.8750000000000000
  0.0556546480470908  0.6113092960941743  0.3750000000000000
  0.7222219380657703  0.1111154250660123  0.8750000000000000
  0.2225836374402655  0.1113256101618985  0.3750000000000000
  0.3889961071558048  0.6123387544763590  0.3750000000000000
  0.7233426473205543  0.6123387544763590  0.3750000000000000
  0.5553820494525034  0.1101843632592815  0.3750000000000000
  0.3888862100800156  0.6111265002062236  0.8750000000000000
  0.8887822291456354  0.1110123837418480  0.3750000000000000
  0.2222204777178796  0.7777816902030383  0.8750000000000000
  0.0555653435234531  0.2777846911528831  0.8750000000000000
  0.3888863643642395  0.2777727287284931  0.8750000000000000
  0.5555555071839161  0.7777848516411221  0.8750000000000000
  0.8889006214490257  0.7777864781190866  0.8750000000000000
  0.7222193476294300  0.2777846911528831  0.8750000000000000
  0.0557530409435625  0.7778961870786120  0.3750000000000000
  0.3886930943230757  0.7783324081569454  0.3750000000000000
  0.2194985998483258  0.2753416451393157  0.3750000000000000
  0.7233546770878827  0.7791396894922871  0.3750000000000000
  0.5558430452909905  0.2753416451393157  0.3750000000000000
  0.8888591520928413  0.2777183041856897  0.3750000000000000
  0.0555528724673316  0.4444510067587933  0.8750000000000000
  0.2222197545792305  0.9444395091584683  0.8750000000000000
  0.5555549650624915  0.9444479798621361  0.8750000000000000
  0.3888972363206359  0.4444637944691459  0.8750000000000000
  0.8888930147996514  0.9444479798621361  0.8750000000000000
  0.0558984797690898  0.9445822607334676  0.3750000000000000
  0.7222386467687293  0.4444578936433923  0.8750000000000000
  0.3886837809643778  0.9445822607334676  0.3750000000000000
  0.2209830306943244  0.4440639441834524  0.3750000000000000
  0.2220994649744311  0.6112886203209608  0.3750000000000000
  0.7224555985375658  0.9449111970751316  0.3750000000000000
  0.8892215260249565  0.4445112575662866  0.3750000000000000
  0.0555567715251954  0.6111135430503980  0.8750000000000000
  0.2222186048483243  0.1111043668286229  0.8750000000000000
  0.7222402901262005  0.6111265002062236  0.8750000000000000
  0.5555521100050573  0.1111059673094292  0.8750000000000000
  0.8888934870002279  0.1111154250660123  0.8750000000000000
  0.1114409712682454  0.0558837484679072  0.3750000000000000
  0.6101043104986167  0.5567194581740271  0.3750000000000000
  0.4444427771996617  0.0558837484679072  0.3750000000000000
  0.9446992973775544  0.5560778630355921  0.3750000000000000
  0.7777961149903568  0.0555922299807132  0.3750000000000000
  0.1111060061986111  0.7222120123972150  0.8750000000000000
  0.4444402542453725  0.7222097633848298  0.8750000000000000
  0.2778253686493203  0.2222586688232781  0.8750000000000000
  0.7777695091394574  0.7222097633848298  0.8750000000000000
  0.6110861618355793  0.2222299835166878  0.8750000000000000
  0.9444569816476078  0.2222404377214388  0.8750000000000000
  0.2778378651490573  0.7223267424372569  0.3750000000000000
  0.1098778196812710  0.2209783985515876  0.3750000000000000
  0.4453404897283201  0.2232327554360070  0.3750000000000000
  0.6119833608209434  0.7239667216418867  0.3750000000000000
  0.9444888772882062  0.7223267424372569  0.3750000000000000
  0.7779442790579556  0.2222338202909148  0.3750000000000000
  0.1111230858988630  0.8888978460342047  0.8750000000000000
  0.4444373338739322  0.8888749633946802  0.8750000000000000
  0.2777905860646647  0.3889080851767521  0.8750000000000000
  0.6111174991120945  0.3889080851767521  0.8750000000000000
  0.7777636074478067  0.8888707439943184  0.8750000000000000
  0.9444495333572197  0.3888990667144460  0.8750000000000000
  0.1110780831951786  0.3888260063515138  0.3750000000000000
  0.2775962241950626  0.8890035242384876  0.3750000000000000
  0.6114130545509163  0.8895990227605294  0.3750000000000000
  0.9448091482404167  0.8889401072786909  0.3750000000000000
  0.7777479231563426  0.3888260063515138  0.3750000000000000
  0.2777921995192785  0.5555473468394101  0.8750000000000000
  0.1111224715139033  0.0555736836477985  0.8750000000000000
  0.6111093151032621  0.5555876257657928  0.8750000000000000
  0.4444512121338952  0.0555736836477985  0.8750000000000000
  0.9444445274113442  0.5555546053377379  0.8750000000000000
  0.1113785656580374  0.5560778630355921  0.3750000000000000
  0.7777717767260215  0.0555435534520353  0.8750000000000000
  0.2778159018695368  0.0556318037390736  0.3750000000000000
  0.4466151476754104  0.5567194581740271  0.3750000000000000
  0.7770484594153906  0.5552695359409470  0.3750000000000000
  0.6110662513144023  0.0554719215285499  0.3750000000000000
  0.4444783106625305  0.5555876257657928  0.8750000000000000
  0.9444056702141476  0.0554719215285499  0.3750000000000000
  0.2777913473869173  0.7222215795867067  0.8750000000000000
  0.1111438216811157  0.2222299835166878  0.8750000000000000
  0.4444333001739577  0.2222586688232781  0.8750000000000000
  0.6110927929907872  0.7221855859815601  0.8750000000000000
  0.9444302321997966  0.7222215795867067  0.8750000000000000
  0.7777834560738378  0.2222404377214388  0.8750000000000000
  0.1111051317612455  0.7222102635224841  0.3750000000000000
  0.4440580365916772  0.7225039488394974  0.3750000000000000
  0.2778922657076868  0.2232327554360070  0.3750000000000000
  0.7784459122478200  0.7225039488394974  0.3750000000000000
  0.6111005788703234  0.2209783985515876  0.3750000000000000
  0.9442895412329586  0.2222338202909148  0.3750000000000000
  0.1111506987671267  0.3889167380320381  0.8750000000000000
  0.2777747601353562  0.8888978460342047  0.8750000000000000
  0.6111071365465189  0.8888707439943184  0.8750000000000000
  0.4444400066707176  0.3888800133414422  0.8750000000000000
  0.9444376295207478  0.8888749633946802  0.8750000000000000
  0.1114073000434250  0.8890035242384876  0.3750000000000000
  0.7777660392649183  0.3889167380320381  0.8750000000000000
  0.4441309590382737  0.8889401072786909  0.3750000000000000
  0.2759961212066555  0.3869264761229444  0.3750000000000000
  0.2782210765255567  0.5552695359409470  0.3750000000000000
  0.6109303549162960  0.3869264761229444  0.3750000000000000
  0.7781859682096277  0.8895990227605294  0.3750000000000000
  0.9442919582535118  0.3885839165070304  0.3750000000000000
  0.1111100779263938  0.5555546053377379  0.8750000000000000
  0.2777829733788950  0.0555659467577898  0.8750000000000000
  0.7777551473201313  0.5555473468394101  0.8750000000000000
  0.6110931656623172  0.0555594729069307  0.8750000000000000
  0.9444663072446062  0.0555594729069307  0.8750000000000000
  0.0555920801626611  0.1111711365319771  0.1249948169923745
  0.5554798672395450  0.6109597344790900  0.1250980745340501
  0.3889589328848730  0.1112595802791514  0.1249619742773794
  0.8887347458241740  0.6110232214848400  0.1250180355172803
  0.7222177856163212  0.1111064370860066  0.1249321724271343
  0.0555053321803021  0.7777481970663465  0.6250678016250750
  0.3889368184292730  0.7777216881433813  0.6249921134060530
  0.2223293231030465  0.2779055080124943  0.6250891927460719
  0.7221360574927349  0.7776904986352505  0.6250249359111436
  0.5555761849094546  0.2779055080124943  0.6250891927460719
  0.8888679126656824  0.2777358253313791  0.6250352298023820
  0.2222428648860516  0.7777481970663465  0.1249321983749248
  0.0555963579431856  0.2777660487914386  0.1249702098831474
  0.3890078015045085  0.2780156030090240  0.1248079629340700
  0.5555544411425155  0.7776904986352505  0.1249750640888561
  0.8887848697141009  0.7777216881433813  0.1250078865939473
  0.7221696908482458  0.2777660487914386  0.1249702098831474
  0.0555529591557624  0.9444819914106545  0.6250510322207342
  0.3889290322548993  0.9444819914106545  0.6250510322207342
  0.2223314146254859  0.4443361453697420  0.6249803439656876
  0.5553918008265720  0.4443198147216357  0.6243585904022986
  0.7222092351605541  0.9444184703211013  0.6250406285449124
  0.8887938440891965  0.4443681085395115  0.6250687539572236
  0.0555742644503151  0.4443681085395115  0.1249312460427764
  0.2222524534952907  0.9445049069905885  0.1249752226717979
  0.5555737975025721  0.9444353635151752  0.1249262906683245
  0.3889280138950640  0.4443198147216357  0.1256414095977013
  0.8888615660126029  0.9444353635151752  0.1249262906683245
  0.7220047307442562  0.4443361453697420  0.1250196560343125
  0.2222884756606589  0.6110232214848400  0.6249819644827197
  0.0555920801626611  0.1111711365319771  0.6250051830076258
  0.5554798672395450  0.6109597344790900  0.6249019254659497
  0.3889589328848730  0.1112595802791514  0.6250380257226207
  0.8887347458241740  0.6110232214848400  0.6249819644827197
  0.0555253094445295  0.6110506188890588  0.1249731962384722
  0.7222177856163212  0.1111064370860066  0.6250678275728656
  0.2223006473942712  0.1112595802791514  0.1249619742773794
  0.3889687129982807  0.6109784188770407  0.1250929876642457
  0.7220097058787535  0.6109784188770407  0.1250929876642457
  0.5555790563693227  0.1111711365319771  0.1249948169923745
  0.3889687129982807  0.6109784188770407  0.6249070123357545
  0.8888886514696855  0.1111064370860066  0.1249321724271343
  0.2222428648860516  0.7777481970663465  0.6250678016250750
  0.0555963579431856  0.2777660487914386  0.6250297901168526
  0.3890078015045085  0.2780156030090240  0.6251920370659302
  0.5555544411425155  0.7776904986352505  0.6250249359111436
  0.8887848697141009  0.7777216881433813  0.6249921134060530
  0.7221696908482458  0.2777660487914386  0.6250297901168526
  0.0555053321803021  0.7777481970663465  0.1249321983749248
  0.3889368184292730  0.7777216881433813  0.1250078865939473
  0.2223293231030465  0.2779055080124943  0.1249108072539280
  0.7221360574927349  0.7776904986352505  0.1249750640888561
  0.5555761849094546  0.2779055080124943  0.1249108072539281
  0.8888679126656824  0.2777358253313791  0.1249647701976180
  0.0555742644503151  0.4443681085395115  0.6250687539572236
  0.2222524534952907  0.9445049069905885  0.6250247773282021
  0.5555737975025721  0.9444353635151752  0.6250737093316756
  0.3889280138950640  0.4443198147216357  0.6243585904022986
  0.8888615660126029  0.9444353635151752  0.6250737093316756
  0.0555529591557624  0.9444819914106545  0.1249489677792657
  0.7220047307442562  0.4443361453697420  0.6249803439656876
  0.3889290322548993  0.9444819914106545  0.1249489677792657
  0.2223314146254859  0.4443361453697420  0.1250196560343125
  0.2222884756606589  0.6110232214848400  0.1250180355172803
  0.5553918008265720  0.4443198147216357  0.1256414095977013
  0.7222092351605541  0.9444184703211013  0.1249593714550874
  0.8887938440891965  0.4443681085395115  0.1249312460427764
  0.0555253094445295  0.6110506188890588  0.6250268037615277
  0.2223006473942712  0.1112595802791514  0.6250380257226207
  0.7220097058787535  0.6109784188770407  0.6249070123357545
  0.5555790563693227  0.1111711365319771  0.6250051830076258
  0.8888886514696854  0.1111064370860066  0.6250678275728656
 
  0.00000000E+00  0.00000000E+00  0.00000000E+00
  0.00000000E+00  0.00000000E+00  0.00000000E+00
  0.00000000E+00  0.00000000E+00  0.00000000E+00
  0.00000000E+00  0.00000000E+00  0.00000000E+00
  0.00000000E+00  0.00000000E+00  0.00000000E+00
  0.00000000E+00  0.00000000E+00  0.00000000E+00
  0.00000000E+00  0.00000000E+00  0.00000000E+00
  0.00000000E+00  0.00000000E+00  0.00000000E+00
  0.00000000E+00  0.00000000E+00  0.00000000E+00
  0.00000000E+00  0.00000000E+00  0.00000000E+00
  0.00000000E+00  0.00000000E+00  0.00000000E+00
  0.00000000E+00  0.00000000E+00  0.00000000E+00
  0.00000000E+00  0.00000000E+00  0.00000000E+00
  0.00000000E+00  0.00000000E+00  0.00000000E+00
  0.00000000E+00  0.00000000E+00  0.00000000E+00
  0.00000000E+00  0.00000000E+00  0.00000000E+00
  0.00000000E+00  0.00000000E+00  0.00000000E+00
  0.00000000E+00  0.00000000E+00  0.00000000E+00
  0.00000000E+00  0.00000000E+00  0.00000000E+00
  0.00000000E+00  0.00000000E+00  0.00000000E+00
  0.00000000E+00  0.00000000E+00  0.00000000E+00
  0.00000000E+00  0.00000000E+00  0.00000000E+00
  0.00000000E+00  0.00000000E+00  0.00000000E+00
  0.00000000E+00  0.00000000E+00  0.00000000E+00
  0.00000000E+00  0.00000000E+00  0.00000000E+00
  0.00000000E+00  0.00000000E+00  0.00000000E+00
  0.00000000E+00  0.00000000E+00  0.00000000E+00
  0.00000000E+00  0.00000000E+00  0.00000000E+00
  0.00000000E+00  0.00000000E+00  0.00000000E+00
  0.00000000E+00  0.00000000E+00  0.00000000E+00
  0.00000000E+00  0.00000000E+00  0.00000000E+00
  0.00000000E+00  0.00000000E+00  0.00000000E+00
  0.00000000E+00  0.00000000E+00  0.00000000E+00
  0.00000000E+00  0.00000000E+00  0.00000000E+00
  0.00000000E+00  0.00000000E+00  0.00000000E+00
  0.00000000E+00  0.00000000E+00  0.00000000E+00
  0.00000000E+00  0.00000000E+00  0.00000000E+00
  0.00000000E+00  0.00000000E+00  0.00000000E+00
  0.00000000E+00  0.00000000E+00  0.00000000E+00
  0.00000000E+00  0.00000000E+00  0.00000000E+00
  0.00000000E+00  0.00000000E+00  0.00000000E+00
  0.00000000E+00  0.00000000E+00  0.00000000E+00
  0.00000000E+00  0.00000000E+00  0.00000000E+00
  0.00000000E+00  0.00000000E+00  0.00000000E+00
  0.00000000E+00  0.00000000E+00  0.00000000E+00
  0.00000000E+00  0.00000000E+00  0.00000000E+00
  0.00000000E+00  0.00000000E+00  0.00000000E+00
  0.00000000E+00  0.00000000E+00  0.00000000E+00
  0.00000000E+00  0.00000000E+00  0.00000000E+00
  0.00000000E+00  0.00000000E+00  0.00000000E+00
  0.00000000E+00  0.00000000E+00  0.00000000E+00
  0.00000000E+00  0.00000000E+00  0.00000000E+00
  0.00000000E+00  0.00000000E+00  0.00000000E+00
  0.00000000E+00  0.00000000E+00  0.00000000E+00
  0.00000000E+00  0.00000000E+00  0.00000000E+00
  0.00000000E+00  0.00000000E+00  0.00000000E+00
  0.00000000E+00  0.00000000E+00  0.00000000E+00
  0.00000000E+00  0.00000000E+00  0.00000000E+00
  0.00000000E+00  0.00000000E+00  0.00000000E+00
  0.00000000E+00  0.00000000E+00  0.00000000E+00
  0.00000000E+00  0.00000000E+00  0.00000000E+00
  0.00000000E+00  0.00000000E+00  0.00000000E+00
  0.00000000E+00  0.00000000E+00  0.00000000E+00
  0.00000000E+00  0.00000000E+00  0.00000000E+00
  0.00000000E+00  0.00000000E+00  0.00000000E+00
  0.00000000E+00  0.00000000E+00  0.00000000E+00
  0.00000000E+00  0.00000000E+00  0.00000000E+00
  0.00000000E+00  0.00000000E+00  0.00000000E+00
  0.00000000E+00  0.00000000E+00  0.00000000E+00
  0.00000000E+00  0.00000000E+00  0.00000000E+00
  0.00000000E+00  0.00000000E+00  0.00000000E+00
  0.00000000E+00  0.00000000E+00  0.00000000E+00
  0.00000000E+00  0.00000000E+00  0.00000000E+00
  0.00000000E+00  0.00000000E+00  0.00000000E+00
  0.00000000E+00  0.00000000E+00  0.00000000E+00
  0.00000000E+00  0.00000000E+00  0.00000000E+00
  0.00000000E+00  0.00000000E+00  0.00000000E+00
  0.00000000E+00  0.00000000E+00  0.00000000E+00
  0.00000000E+00  0.00000000E+00  0.00000000E+00
  0.00000000E+00  0.00000000E+00  0.00000000E+00
  0.00000000E+00  0.00000000E+00  0.00000000E+00
  0.00000000E+00  0.00000000E+00  0.00000000E+00
  0.00000000E+00  0.00000000E+00  0.00000000E+00
  0.00000000E+00  0.00000000E+00  0.00000000E+00
  0.00000000E+00  0.00000000E+00  0.00000000E+00
  0.00000000E+00  0.00000000E+00  0.00000000E+00
  0.00000000E+00  0.00000000E+00  0.00000000E+00
  0.00000000E+00  0.00000000E+00  0.00000000E+00
  0.00000000E+00  0.00000000E+00  0.00000000E+00
  0.00000000E+00  0.00000000E+00  0.00000000E+00
  0.00000000E+00  0.00000000E+00  0.00000000E+00
  0.00000000E+00  0.00000000E+00  0.00000000E+00
  0.00000000E+00  0.00000000E+00  0.00000000E+00
  0.00000000E+00  0.00000000E+00  0.00000000E+00
  0.00000000E+00  0.00000000E+00  0.00000000E+00
  0.00000000E+00  0.00000000E+00  0.00000000E+00
  0.00000000E+00  0.00000000E+00  0.00000000E+00
  0.00000000E+00  0.00000000E+00  0.00000000E+00
  0.00000000E+00  0.00000000E+00  0.00000000E+00
  0.00000000E+00  0.00000000E+00  0.00000000E+00
  0.00000000E+00  0.00000000E+00  0.00000000E+00
  0.00000000E+00  0.00000000E+00  0.00000000E+00
  0.00000000E+00  0.00000000E+00  0.00000000E+00
  0.00000000E+00  0.00000000E+00  0.00000000E+00
  0.00000000E+00  0.00000000E+00  0.00000000E+00
  0.00000000E+00  0.00000000E+00  0.00000000E+00
  0.00000000E+00  0.00000000E+00  0.00000000E+00
  0.00000000E+00  0.00000000E+00  0.00000000E+00
  0.00000000E+00  0.00000000E+00  0.00000000E+00
  0.00000000E+00  0.00000000E+00  0.00000000E+00
  0.00000000E+00  0.00000000E+00  0.00000000E+00
  0.00000000E+00  0.00000000E+00  0.00000000E+00
  0.00000000E+00  0.00000000E+00  0.00000000E+00
  0.00000000E+00  0.00000000E+00  0.00000000E+00
  0.00000000E+00  0.00000000E+00  0.00000000E+00
  0.00000000E+00  0.00000000E+00  0.00000000E+00
  0.00000000E+00  0.00000000E+00  0.00000000E+00
  0.00000000E+00  0.00000000E+00  0.00000000E+00
  0.00000000E+00  0.00000000E+00  0.00000000E+00
  0.00000000E+00  0.00000000E+00  0.00000000E+00
  0.00000000E+00  0.00000000E+00  0.00000000E+00
  0.00000000E+00  0.00000000E+00  0.00000000E+00
  0.00000000E+00  0.00000000E+00  0.00000000E+00
  0.00000000E+00  0.00000000E+00  0.00000000E+00
  0.00000000E+00  0.00000000E+00  0.00000000E+00
  0.00000000E+00  0.00000000E+00  0.00000000E+00
  0.00000000E+00  0.00000000E+00  0.00000000E+00
  0.00000000E+00  0.00000000E+00  0.00000000E+00
  0.00000000E+00  0.00000000E+00  0.00000000E+00
  0.00000000E+00  0.00000000E+00  0.00000000E+00
  0.00000000E+00  0.00000000E+00  0.00000000E+00
  0.00000000E+00  0.00000000E+00  0.00000000E+00
  0.00000000E+00  0.00000000E+00  0.00000000E+00
  0.00000000E+00  0.00000000E+00  0.00000000E+00
  0.00000000E+00  0.00000000E+00  0.00000000E+00
  0.00000000E+00  0.00000000E+00  0.00000000E+00
  0.00000000E+00  0.00000000E+00  0.00000000E+00
  0.00000000E+00  0.00000000E+00  0.00000000E+00
  0.00000000E+00  0.00000000E+00  0.00000000E+00
  0.00000000E+00  0.00000000E+00  0.00000000E+00
  0.00000000E+00  0.00000000E+00  0.00000000E+00
  0.00000000E+00  0.00000000E+00  0.00000000E+00
  0.00000000E+00  0.00000000E+00  0.00000000E+00
  0.00000000E+00  0.00000000E+00  0.00000000E+00
  0.00000000E+00  0.00000000E+00  0.00000000E+00
  0.00000000E+00  0.00000000E+00  0.00000000E+00
  0.00000000E+00  0.00000000E+00  0.00000000E+00
  0.00000000E+00  0.00000000E+00  0.00000000E+00
  0.00000000E+00  0.00000000E+00  0.00000000E+00
  0.00000000E+00  0.00000000E+00  0.00000000E+00
  0.00000000E+00  0.00000000E+00  0.00000000E+00
  0.00000000E+00  0.00000000E+00  0.00000000E+00
  0.00000000E+00  0.00000000E+00  0.00000000E+00
  0.00000000E+00  0.00000000E+00  0.00000000E+00
  0.00000000E+00  0.00000000E+00  0.00000000E+00
  0.00000000E+00  0.00000000E+00  0.00000000E+00
  0.00000000E+00  0.00000000E+00  0.00000000E+00
  0.00000000E+00  0.00000000E+00  0.00000000E+00
  0.00000000E+00  0.00000000E+00  0.00000000E+00
  0.00000000E+00  0.00000000E+00  0.00000000E+00
  0.00000000E+00  0.00000000E+00  0.00000000E+00
  0.00000000E+00  0.00000000E+00  0.00000000E+00
  0.00000000E+00  0.00000000E+00  0.00000000E+00
  0.00000000E+00  0.00000000E+00  0.00000000E+00
  0.00000000E+00  0.00000000E+00  0.00000000E+00
  0.00000000E+00  0.00000000E+00  0.00000000E+00
  0.00000000E+00  0.00000000E+00  0.00000000E+00
  0.00000000E+00  0.00000000E+00  0.00000000E+00
  0.00000000E+00  0.00000000E+00  0.00000000E+00
  0.00000000E+00  0.00000000E+00  0.00000000E+00
  0.00000000E+00  0.00000000E+00  0.00000000E+00
  0.00000000E+00  0.00000000E+00  0.00000000E+00
  0.00000000E+00  0.00000000E+00  0.00000000E+00
  0.00000000E+00  0.00000000E+00  0.00000000E+00
  0.00000000E+00  0.00000000E+00  0.00000000E+00
  0.00000000E+00  0.00000000E+00  0.00000000E+00
  0.00000000E+00  0.00000000E+00  0.00000000E+00
  0.00000000E+00  0.00000000E+00  0.00000000E+00
  0.00000000E+00  0.00000000E+00  0.00000000E+00
  0.00000000E+00  0.00000000E+00  0.00000000E+00
  0.00000000E+00  0.00000000E+00  0.00000000E+00
  0.00000000E+00  0.00000000E+00  0.00000000E+00
  0.00000000E+00  0.00000000E+00  0.00000000E+00
  0.00000000E+00  0.00000000E+00  0.00000000E+00
  0.00000000E+00  0.00000000E+00  0.00000000E+00
  0.00000000E+00  0.00000000E+00  0.00000000E+00
  0.00000000E+00  0.00000000E+00  0.00000000E+00
  0.00000000E+00  0.00000000E+00  0.00000000E+00
  0.00000000E+00  0.00000000E+00  0.00000000E+00
  0.00000000E+00  0.00000000E+00  0.00000000E+00
  0.00000000E+00  0.00000000E+00  0.00000000E+00
  0.00000000E+00  0.00000000E+00  0.00000000E+00
  0.00000000E+00  0.00000000E+00  0.00000000E+00
  0.00000000E+00  0.00000000E+00  0.00000000E+00
  0.00000000E+00  0.00000000E+00  0.00000000E+00
  0.00000000E+00  0.00000000E+00  0.00000000E+00
  0.00000000E+00  0.00000000E+00  0.00000000E+00
  0.00000000E+00  0.00000000E+00  0.00000000E+00
  0.00000000E+00  0.00000000E+00  0.00000000E+00
  0.00000000E+00  0.00000000E+00  0.00000000E+00
  0.00000000E+00  0.00000000E+00  0.00000000E+00
  0.00000000E+00  0.00000000E+00  0.00000000E+00
  0.00000000E+00  0.00000000E+00  0.00000000E+00
  0.00000000E+00  0.00000000E+00  0.00000000E+00
  0.00000000E+00  0.00000000E+00  0.00000000E+00
  0.00000000E+00  0.00000000E+00  0.00000000E+00
  0.00000000E+00  0.00000000E+00  0.00000000E+00
  0.00000000E+00  0.00000000E+00  0.00000000E+00
  0.00000000E+00  0.00000000E+00  0.00000000E+00
  0.00000000E+00  0.00000000E+00  0.00000000E+00
  0.00000000E+00  0.00000000E+00  0.00000000E+00
  0.00000000E+00  0.00000000E+00  0.00000000E+00
  0.00000000E+00  0.00000000E+00  0.00000000E+00
  0.00000000E+00  0.00000000E+00  0.00000000E+00
  0.00000000E+00  0.00000000E+00  0.00000000E+00
  0.00000000E+00  0.00000000E+00  0.00000000E+00
  0.00000000E+00  0.00000000E+00  0.00000000E+00
  0.00000000E+00  0.00000000E+00  0.00000000E+00
  0.00000000E+00  0.00000000E+00  0.00000000E+00
  0.00000000E+00  0.00000000E+00  0.00000000E+00
  0.00000000E+00  0.00000000E+00  0.00000000E+00
  0.00000000E+00  0.00000000E+00  0.00000000E+00
  0.00000000E+00  0.00000000E+00  0.00000000E+00
  0.00000000E+00  0.00000000E+00  0.00000000E+00
  0.00000000E+00  0.00000000E+00  0.00000000E+00
  0.00000000E+00  0.00000000E+00  0.00000000E+00
  0.00000000E+00  0.00000000E+00  0.00000000E+00
  0.00000000E+00  0.00000000E+00  0.00000000E+00
  0.00000000E+00  0.00000000E+00  0.00000000E+00
  0.00000000E+00  0.00000000E+00  0.00000000E+00
  0.00000000E+00  0.00000000E+00  0.00000000E+00
  0.00000000E+00  0.00000000E+00  0.00000000E+00
  0.00000000E+00  0.00000000E+00  0.00000000E+00
  0.00000000E+00  0.00000000E+00  0.00000000E+00
  0.00000000E+00  0.00000000E+00  0.00000000E+00
  0.00000000E+00  0.00000000E+00  0.00000000E+00
  0.00000000E+00  0.00000000E+00  0.00000000E+00
  0.00000000E+00  0.00000000E+00  0.00000000E+00
  0.00000000E+00  0.00000000E+00  0.00000000E+00
  0.00000000E+00  0.00000000E+00  0.00000000E+00
  0.00000000E+00  0.00000000E+00  0.00000000E+00
  0.00000000E+00  0.00000000E+00  0.00000000E+00
  0.00000000E+00  0.00000000E+00  0.00000000E+00
  0.00000000E+00  0.00000000E+00  0.00000000E+00
  0.00000000E+00  0.00000000E+00  0.00000000E+00
  0.00000000E+00  0.00000000E+00  0.00000000E+00
  0.00000000E+00  0.00000000E+00  0.00000000E+00