 B O C N 
 1.0
 14.936314146199660   0.000000000000000   0.000000000000000
 -7.468157073099825  12.935227489513863   0.000000000000000
  0.000000000000001   0.000000000000001  13.341276283792837
 B O C N 
 143   1   1 143
Cartesian
  1.246902962627017   0.724481639179645   5.002978606422314 
  4.969243352131115   7.227812291947598   5.002978606422314 
  6.220408029328683   0.721740335671987   5.002978606422314 
  9.958765370766384   7.184730756647354   5.002978606422314 
 11.203436366449015   0.719317006678750   5.002978606422314 
 -3.734012431479200   9.342146908206987  11.673616748318732 
  1.244493874250479   9.342345736796775  11.673616748318732 
  2.488892521686807   2.874119851825609  11.673616748318732 
  6.223545530456689   9.342735934253735  11.673616748318732 
  7.468574357308571   2.874085338046356  11.673616748318732 
 12.446937829562966   2.874345782126095  11.673616748318732 
 -1.244600764139838   9.341099452907850   5.002978606422314 
 -0.000687192761467   2.874098246743900   5.002978606422314 
  4.971894146726161   2.877765476874734   5.002978606422314 
  3.733631952874952   9.349949780235846   5.002978606422314 
  8.712156348957873   9.343920919593449   5.002978606422314 
  9.961216723149665   2.872528948613988   5.002978606422314 
 -4.978842738810929  11.498020235487450  11.673616748318732 
  0.000021218739357  11.497992241323848  11.673616748318732 
  1.244121375012287   5.030126721661661  11.673616748318732 
  6.223771887256592   5.030128332832010  11.673616748318732 
  4.978746291045012  11.498445133415641  11.673616748318732 
 11.202498023800707   5.030171705138967  11.673616748318732 
 -1.238514705614766   5.029351318603812   5.002978606422314 
 -2.490213720707928  11.498564380249883   5.002978606422314 
  2.489508360131834  11.498969075273035   5.002978606422314 
  7.467956135301759  11.500981305426462   5.002978606422314 
  8.715631895527093   5.024747662980300   5.002978606422314 
 -0.000334105726342   7.186204026541153  11.673616748318732 
  1.244405197326153   0.718519211741358  11.673616748318732 
  4.978719173123419   7.186622891812208  11.673616748318732 
  6.223569985095146   0.718332938061304  11.673616748318732 
  9.957886819228721   7.186229098954013  11.673616748318732 
 -2.488405422442150   7.184742971157431   5.002978606422314 
 11.202348900867147   0.718689158132316  11.673616748318732 
  3.732704109073456   0.719447759926225   5.002978606422314 
  2.488779391437145   7.178646394059299   5.002978606422314 
  7.472976678828353   7.189020094839131   5.002978606422314 
  8.713767825550697   0.718235441675991   5.002978606422314 
  2.488945291770794   7.186380691199806  11.673616748318732 
 13.692460157416123   0.720258624092354   5.002978606422314 
 -1.244780693866273   9.342133296287869  11.673616748318732 
 -0.000395989392091   2.874266373087582  11.673616748318732 
  4.978675194697074   2.874042002207932  11.673616748318732 
  3.733932403013567   9.342674950963675  11.673616748318732 
  8.713014675690166   9.342410900489982  11.673616748318732 
  9.957933044048684   2.874240696839314  11.673616748318732 
 -3.734531268822316   9.341847357327300   5.002978606422314 
  1.245863789258885   9.337903703972046   5.002978606422314 
  2.487457679191034   2.883100976277501   5.002978606422314 
  6.219989380477720   9.347327296574816   5.002978606422314 
  7.474724319197152   2.870187725957670   5.002978606422314 
 12.448763726533389   2.874404031573339   5.002978606422314 
 -1.244927201894977   5.030169404119715  11.673616748318732 
 -2.489408350940486  11.497891634845834  11.673616748318732 
  2.489388377102407  11.498272190124135  11.673616748318732 
  3.733617336478177   5.030099971936442  11.673616748318732 
  7.468119802915126  11.498304518391514  11.673616748318732 
 -4.979575542670156  11.499576189689835   5.002978606422314 
  8.713433734108531   5.030123060362309  11.673616748318732 
 -0.000203292642848  11.497862619616894   5.002978606422314 
  1.251181835694290   5.024393549383946   5.002978606422314 
  0.000026400295348   7.184635199809738   5.002978606422314 
  6.254705043644306   5.001327331063304   5.002978606422314 
  4.978905713147511  11.502144757047589   5.002978606422314 
 11.204734355566798   5.028691571310566   5.002978606422314 
 -2.489386516378942   7.186155575016731  11.673616748318732 
  3.733882499866154   0.718351139187515  11.673616748318732 
  7.468550827835323   7.186464828576887  11.673616748318732 
  8.713104313793545   0.718479975898882  11.673616748318732 
 13.691496763429857   0.718706475654870  11.673616748318732 
 -0.000289451819457   1.436846122456276   1.666494465226579 
  3.732189835881987   7.906519950520770   1.666853342809830 
  4.978718370773442   1.435159659208145   1.666166529243257 
  8.714847473599534   7.906014532499091   1.665593025846376 
  9.957680872164644   1.436787423360307   1.666356929629343 
 -4.977807035460113  10.061133929145981   8.339549246037759 
 -0.000898595208105  10.061047831248596   8.339320762338021 
  1.243542080259958   3.592454352456480   8.339860102324682 
  4.978630768259671  10.062016750960519   8.340182060277817 
  6.223956359587132   3.590653730864150   8.339103870034773 
 11.202641610115275   3.593114497891475   8.339554955434890 
 -2.489340394815270  10.060758643627761   1.666742688429880 
 -1.245185173566731   3.593068762647695   1.666494465226579 
  3.733236571363090   3.591427935421715   1.665122107873391 
  2.488142759925939  10.061736356082859   1.665869028974410 
  7.469283650401386  10.061732443882910   1.665804015134113 
  8.713891812732845   3.592354842400142   1.665775152566798 
 -6.223066511027969  12.216423873117193   8.339413327696237 
 -1.244869051185614  12.215667864116279   8.339320762338021 
 -0.001272351936802   5.749358097336983   8.339382527167270 
  4.977658080777688   5.748347230540650   8.342928079355705 
  3.733749153517036  12.216953382897524   8.339600283215285 
  9.958972036652026   5.749465663882604   8.340153197710501 
 -2.489342602128959   5.749424361469391   1.666543885148377 
 -3.733913487355303  12.215770930268882   1.666546058280014 
  1.244241282942177  12.216343030322465   1.666464080345595 
  2.487500422584527   5.749106237931383   1.665122107873391 
  6.223663547904502  12.216957471411426   1.666402257409750 
  7.470249285100849   5.749359558097890   1.667249360835420 
 -1.245331555386519   7.905420585301004   8.339411154564614 
 -0.000289451819457   1.436846122456277   8.339462747618036 
  3.732189835881987   7.906519950520771   8.339103870034773 
  4.978718370773443   1.435159659208146   8.339790683601370 
  8.714847473599534   7.906014532499092   8.340364186998253 
 -3.733248708345272   7.905495673600133   1.666407966806841 
  9.957680872164644   1.436787423360307   8.339600283215285 
  2.489068300745862   1.435961558736338   1.666574685677357 
  1.242858217714246   7.905859254278759   1.666166529243257 
  6.224830384320761   7.906488370955600   1.667249360835420 
  7.468404979478835   1.435669156801437   1.665869028974410 
  1.242858217714246   7.905859254278760   8.339790683601370 
 12.446864066659518   1.437210324113186   1.666660346953394 
 -2.489340394815270  10.060758643627761   8.339214524414748 
 -1.245185173566730   3.593068762647696   8.339462747618036 
  3.733236571363091   3.591427935421716   8.340835104971237 
  2.488142759925939  10.061736356082859   8.340088183870231 
  7.469283650401387  10.061732443882910   8.340153197710501 
  8.713891812732845   3.592354842400143   8.340182060277817 
 -4.977807035460114  10.061133929145981   1.666407966806841 
 -0.000898595208105  10.061047831248596   1.666636450506620 
  1.243542080259957   3.592454352456479   1.666097110519946 
  4.978630768259670  10.062016750960519   1.665775152566798 
  6.223956359587131   3.590653730864149   1.666853342809830 
 11.202641610115275   3.593114497891474   1.666402257409750 
 -2.489342602128958   5.749424361469392   8.339413327696237 
 -3.733913487355303  12.215770930268882   8.339411154564614 
  1.244241282942177  12.216343030322465   8.339493132499019 
  2.487500422584528   5.749106237931384   8.340835104971237 
  6.223663547904503  12.216957471411426   8.339554955434890 
 -6.223066511027970  12.216423873117193   1.666543885148377 
  7.470249285100850   5.749359558097891   8.338707852009195 
 -1.244869051185614  12.215667864116279   1.666636450506620 
 -0.001272351936802   5.749358097336982   1.666574685677357 
 -1.245331555386520   7.905420585301003   1.666546058280014 
  4.977658080777688   5.748347230540650   1.663029133488896 
  3.733749153517035  12.216953382897524   1.666356929629343 
  9.958972036652026   5.749465663882603   1.665804015134113 
 -3.733248708345271   7.905495673600134   8.339549246037759 
  2.489068300745863   1.435961558736339   8.339382527167270 
  6.224830384320762   7.906488370955601   8.338707852009195 
  7.468404979478835   1.435669156801438   8.340088183870231 
 12.446864066659518   1.437210324113186   8.339296865891233 
  4.956576501897697   5.736175775299327   5.002978606422314 
  3.696679034962777   5.008773633613119   5.002978606422314 
  1.244774470954733   0.718509448004777   1.669612154131499 
  4.978587646453426   7.185773550477861   1.682379403546313 
  6.223384773572752   0.718430823454852   1.669690887258601 
  9.957657072101574   7.186390206492872   1.669367395205193 
 11.202087057833909   0.718537982986581   1.669129700773304 
 -3.734001463936640   9.342153240320652   8.336875582772587 
  1.244486039726747   9.342136396216546   8.336266325586040 
  2.489339998868987   2.874501832684632   8.334640646561494 
  6.223526425253922   9.341898702373699   8.334958174841043 
  7.468008732260068   2.874359980341604   8.335175447185609 
 12.446799105484420   2.874555423892061   8.336783512249845 
 -1.244775869577787   9.342146015224589   1.669151339286073 
 -0.000111194570263   2.874430799454636   1.669353565077197 
  4.978868531749857   2.874437641932567   1.672149460925929 
  3.733887437693936   9.342047784155055   1.670781765659018 
  8.713039325347964   9.342131379872033   1.669367395205193 
  9.957367027182856   2.874559516797344   1.669325152131904 
 -4.978663537494659  11.497907259879916   8.336794439890850 
 -0.000158926137066  11.497888234630958   8.336676109046685 
  1.244675918731067   5.030323257839505   8.334640646561494 
  6.222970572749568   5.030439098061693   8.323577809298314 
  4.978739388794987  11.497795538451847   8.336632060712736 
 11.202190741635903   5.030554239533719   8.336795963052984 
 -1.244751020724609   5.030494086331316   1.669612154131499 
 -2.489394923873955  11.497889453333894   1.669151339286073 
  2.489153898049722  11.497908610152367   1.669109623305050 
  3.734083220631617   5.030368950277860   1.671798006509797 
  7.468297446336407  11.497847137033272   1.669161249791670 
  8.712699117430194   5.030525130711358   1.670999038003598 
 -0.000097382774239   7.186330247009201   8.336299943573040 
  1.244774470954734   0.718509448004778   8.336345058713141 
  4.978587646453427   7.185773550477862   8.323577809298314 
  6.223384773572753   0.718430823454852   8.336266325586040 
  9.957657072101574   7.186390206492873   8.336589817639435 
 -2.489394755466948   7.186367255712792   1.669162772953790 
 11.202087057833909   0.718537982986582   8.336827512071324 
  3.734110171474012   0.718493037043670   1.669657269271600 
  2.489384594349445   7.186350306136728   1.672149460925929 
  7.468178133435638   7.186249653364972   1.672931491979894 
  8.712672204775338   0.718458701068498   1.669109623305050 
  2.489384594349445   7.186350306136729   8.333807751918698 
 13.691608956485597   0.718481516195761   1.669173700594769 
 -1.244775869577787   9.342146015224589   8.336805873558568 
 -0.000111194570263   2.874430799454637   8.336603647767431 
  4.978868531749858   2.874437641932567   8.333807751918698 
  3.733887437693937   9.342047784155055   8.335175447185609 
  8.713039325347964   9.342131379872033   8.336589817639435 
  9.957367027182856   2.874559516797345   8.336632060712736 
 -3.734001463936640   9.342153240320652   1.669081630072014 
  1.244486039726747   9.342136396216546   1.669690887258601 
  2.489339998868986   2.874501832684631   1.671316566283134 
  6.223526425253922   9.341898702373699   1.670999038003598 
  7.468008732260067   2.874359980341603   1.670781765659018 
 12.446799105484420   2.874555423892061   1.669173700594769 
 -1.244751020724608   5.030494086331317   8.336345058713141 
 -2.489394923873955  11.497889453333894   8.336805873558568 
  2.489153898049722  11.497908610152367   8.336847589539591 
  3.734083220631617   5.030368950277861   8.334159206334844 
  7.468297446336408  11.497847137033272   8.336795963052984 
 -4.978663537494660  11.497907259879916   1.669162772953790 
  8.712699117430194   5.030525130711359   8.334958174841043 
 -0.000158926137066  11.497888234630958   1.669281103797944 
  1.244675918731067   5.030323257839504   1.671316566283134 
 -0.000097382774239   7.186330247009200   1.669657269271600 
  6.222970572749567   5.030439098061692   1.682379403546313 
  4.978739388794986  11.497795538451847   1.669325152131904 
 11.202190741635903   5.030554239533719   1.669161249791670 
 -2.489394755466948   7.186367255712793   8.336794439890850 
  3.734110171474013   0.718493037043671   8.336299943573040 
  7.468178133435639   7.186249653364973   8.333025720864734 
  8.712672204775338   0.718458701068499   8.336847589539591 
 13.691608956485597   0.718481516195762   8.336783512249845 
  0.002723270598117   1.439914220780924   5.002978606422314 
  3.737663282181260   7.892322920608854   5.002978606422314 
  4.972394913010603   1.450504879666068   5.002978606422314 
  8.706084009291619   7.900954944021874   5.002978606422314 
  9.956618926175587   1.437967683615905   5.002978606422314 
 -4.978858629932222  10.060724219396038  11.673616748318732 
  0.000045831435909  10.060735572881894  11.673616748318732 
  1.244627111008434   3.593080795251183  11.673616748318732 
  4.978760661153018  10.060749939229853  11.673616748318732 
  6.223452781234768   3.593184687434853  11.673616748318732 
 11.202248453012821   3.593098078968322  11.673616748318732 
 -2.489697927515314  10.060552222027191   5.002978606422314 
 -1.241021761267497   3.594143807633555   5.002978606422314 
  3.743308495346179   3.631271592437471   5.002978606422314 
  2.491759226557860  10.055683712297466   5.002978606422314 
  7.463307191986416  10.055958202928361   5.002978606422314 
  8.708609318935423   3.594568795095509   5.002978606422314 
 -6.223544199709355  12.216605245589003  11.673616748318732 
 -1.244667261541723  12.216641890765372  11.673616748318732 
 -0.000032796811211   5.748915489768645  11.673616748318732 
  4.978780907803257   5.748995495026097  11.673616748318732 
  3.734069717296147  12.216612565215643  11.673616748318732 
  9.957536314197624   5.748925932938372  11.673616748318732 
 -2.485391143449167   5.747534110539106   5.002978606422314 
 -3.734849644669503  12.220037311581128   5.002978606422314 
  1.244572965503433  12.216534527338482   5.002978606422314 
  2.527042003731389   5.737906951457848   5.002978606422314 
  6.223632360182926  12.216402006943030   5.002978606422314 
  7.445821165693866   5.749355237754843   5.002978606422314 
 -1.244701047543957   7.904794990382613  11.673616748318732 
 -0.000062598837198   1.437214351742203  11.673616748318732 
  3.734129919391902   7.904818360589488  11.673616748318732 
  4.978755387464173   1.437316753403982  11.673616748318732 
  8.712781486269950   7.904821734158221  11.673616748318732 
 -3.736096296995431   7.902661068650088   5.002978606422314 
  9.957545997283638   1.437235448577479  11.673616748318732 
  2.497385117072661   1.451590736283964   5.002978606422314 
  1.252985839576045   7.892710368987449   5.002978606422314 
  6.212612583090408   7.885335159154049   5.002978606422314 
  7.464971469516586   1.441827430669317   5.002978606422314 
  1.244744824431547   7.904812764575405  11.673616748318732 
 12.447970408342625   1.437849070781735   5.002978606422314 
 -2.489410364506945  10.060718246607482  11.673616748318732 
 -1.244752851159571   3.593081108450294  11.673616748318732 
  3.734053035136042   3.593147216399921  11.673616748318732 
  2.489404635370421  10.060738000967172  11.673616748318732 
  7.468098368465279  10.060758937236718  11.673616748318732 
  8.712859668038956   3.593100738810874  11.673616748318732 
 -4.981685669681619  10.060085147510424   5.002978606422314 
  0.003045999652977  10.057231906142018   5.002978606422314 
  1.250351932598919   3.596386022537512   5.002978606422314 
  4.977906860637923  10.056335000788934   5.002978606422314 
  6.214398094174745   3.602492389361554   5.002978606422314 
 11.202144969913970   3.593365220766476   5.002978606422314 
 -2.489424373301496   5.748919984700269  11.673616748318732 
 -3.734140014525834  12.216629763537036  11.673616748318732 
  1.244699302215889  12.216607467873439  11.673616748318732 
  2.489397595474379   5.748953675810914  11.673616748318732 
  6.223452750148724  12.216625196834599  11.673616748318732 
 -6.222727787013214  12.220791062181016   5.002978606422314 
  7.468097574208213   5.748948616727931  11.673616748318732 
 -1.246201441836308  12.220991946026903   5.002978606422314 
  0.016421321023113   5.748746082780761   5.002978606422314 
 -1.242104839444998   7.902476658628871   5.002978606422314 
  3.734240315886946  12.215443580565728   5.002978606422314 
  9.950983168090339   5.747177019547840   5.002978606422314 
 -3.734129324632970   7.904789820947807  11.673616748318732 
  2.489304768910571   1.437256348748661  11.673616748318732 
  6.223398643208592   7.904830405345957  11.673616748318732 
  7.468171316308898   1.437261150550603  11.673616748318732 
 12.446919465076967   1.437242308404396  11.673616748318732 
Generated by cif2cell 2.0.0.  :  Failed to get author information, No journal information. Species order: B O C N 
 1.0
 14.936314146199660   0.000000000000000   0.000000000000000
 -7.468157073099825  12.935227489513863   0.000000000000000
  0.000000000000001   0.000000000000001  13.341276283792837
 B O C N 
 143   1   1 143
Cartesian
  1.246902962627017   0.724481639179645   5.002978606422314 
  4.969243352131115   7.227812291947598   5.002978606422314 
  6.220408029328683   0.721740335671987   5.002978606422314 
  9.958765370766384   7.184730756647354   5.002978606422314 
 11.203436366449015   0.719317006678750   5.002978606422314 
 -3.734012431479200   9.342146908206987  11.673616748318732 
  1.244493874250479   9.342345736796775  11.673616748318732 
  2.488892521686807   2.874119851825609  11.673616748318732 
  6.223545530456689   9.342735934253735  11.673616748318732 
  7.468574357308571   2.874085338046356  11.673616748318732 
 12.446937829562966   2.874345782126095  11.673616748318732 
 -1.244600764139838   9.341099452907850   5.002978606422314 
 -0.000687192761467   2.874098246743900   5.002978606422314 
  4.971894146726161   2.877765476874734   5.002978606422314 
  3.733631952874952   9.349949780235846   5.002978606422314 
  8.712156348957873   9.343920919593449   5.002978606422314 
  9.961216723149665   2.872528948613988   5.002978606422314 
 -4.978842738810929  11.498020235487450  11.673616748318732 
  0.000021218739357  11.497992241323848  11.673616748318732 
  1.244121375012287   5.030126721661661  11.673616748318732 
  6.223771887256592   5.030128332832010  11.673616748318732 
  4.978746291045012  11.498445133415641  11.673616748318732 
 11.202498023800707   5.030171705138967  11.673616748318732 
 -1.238514705614766   5.029351318603812   5.002978606422314 
 -2.490213720707928  11.498564380249883   5.002978606422314 
  2.489508360131834  11.498969075273035   5.002978606422314 
  7.467956135301759  11.500981305426462   5.002978606422314 
  8.715631895527093   5.024747662980300   5.002978606422314 
 -0.000334105726342   7.186204026541153  11.673616748318732 
  1.244405197326153   0.718519211741358  11.673616748318732 
  4.978719173123419   7.186622891812208  11.673616748318732 
  6.223569985095146   0.718332938061304  11.673616748318732 
  9.957886819228721   7.186229098954013  11.673616748318732 
 -2.488405422442150   7.184742971157431   5.002978606422314 
 11.202348900867147   0.718689158132316  11.673616748318732 
  3.732704109073456   0.719447759926225   5.002978606422314 
  2.488779391437145   7.178646394059299   5.002978606422314 
  7.472976678828353   7.189020094839131   5.002978606422314 
  8.713767825550697   0.718235441675991   5.002978606422314 
  2.488945291770794   7.186380691199806  11.673616748318732 
 13.692460157416123   0.720258624092354   5.002978606422314 
 -1.244780693866273   9.342133296287869  11.673616748318732 
 -0.000395989392091   2.874266373087582  11.673616748318732 
  4.978675194697074   2.874042002207932  11.673616748318732 
  3.733932403013567   9.342674950963675  11.673616748318732 
  8.713014675690166   9.342410900489982  11.673616748318732 
  9.957933044048684   2.874240696839314  11.673616748318732 
 -3.734531268822316   9.341847357327300   5.002978606422314 
  1.245863789258885   9.337903703972046   5.002978606422314 
  2.487457679191034   2.883100976277501   5.002978606422314 
  6.219989380477720   9.347327296574816   5.002978606422314 
  7.474724319197152   2.870187725957670   5.002978606422314 
 12.448763726533389   2.874404031573339   5.002978606422314 
 -1.244927201894977   5.030169404119715  11.673616748318732 
 -2.489408350940486  11.497891634845834  11.673616748318732 
  2.489388377102407  11.498272190124135  11.673616748318732 
  3.733617336478177   5.030099971936442  11.673616748318732 
  7.468119802915126  11.498304518391514  11.673616748318732 
 -4.979575542670156  11.499576189689835   5.002978606422314 
  8.713433734108531   5.030123060362309  11.673616748318732 
 -0.000203292642848  11.497862619616894   5.002978606422314 
  1.251181835694290   5.024393549383946   5.002978606422314 
  0.000026400295348   7.184635199809738   5.002978606422314 
  6.254705043644306   5.001327331063304   5.002978606422314 
  4.978905713147511  11.502144757047589   5.002978606422314 
 11.204734355566798   5.028691571310566   5.002978606422314 
 -2.489386516378942   7.186155575016731  11.673616748318732 
  3.733882499866154   0.718351139187515  11.673616748318732 
  7.468550827835323   7.186464828576887  11.673616748318732 
  8.713104313793545   0.718479975898882  11.673616748318732 
 13.691496763429857   0.718706475654870  11.673616748318732 
 -0.000289451819457   1.436846122456276   1.666494465226579 
  3.732189835881987   7.906519950520770   1.666853342809830 
  4.978718370773442   1.435159659208145   1.666166529243257 
  8.714847473599534   7.906014532499091   1.665593025846376 
  9.957680872164644   1.436787423360307   1.666356929629343 
 -4.977807035460113  10.061133929145981   8.339549246037759 
 -0.000898595208105  10.061047831248596   8.339320762338021 
  1.243542080259958   3.592454352456480   8.339860102324682 
  4.978630768259671  10.062016750960519   8.340182060277817 
  6.223956359587132   3.590653730864150   8.339103870034773 
 11.202641610115275   3.593114497891475   8.339554955434890 
 -2.489340394815270  10.060758643627761   1.666742688429880 
 -1.245185173566731   3.593068762647695   1.666494465226579 
  3.733236571363090   3.591427935421715   1.665122107873391 
  2.488142759925939  10.061736356082859   1.665869028974410 
  7.469283650401386  10.061732443882910   1.665804015134113 
  8.713891812732845   3.592354842400142   1.665775152566798 
 -6.223066511027969  12.216423873117193   8.339413327696237 
 -1.244869051185614  12.215667864116279   8.339320762338021 
 -0.001272351936802   5.749358097336983   8.339382527167270 
  4.977658080777688   5.748347230540650   8.342928079355705 
  3.733749153517036  12.216953382897524   8.339600283215285 
  9.958972036652026   5.749465663882604   8.340153197710501 
 -2.489342602128959   5.749424361469391   1.666543885148377 
 -3.733913487355303  12.215770930268882   1.666546058280014 
  1.244241282942177  12.216343030322465   1.666464080345595 
  2.487500422584527   5.749106237931383   1.665122107873391 
  6.223663547904502  12.216957471411426   1.666402257409750 
  7.470249285100849   5.749359558097890   1.667249360835420 
 -1.245331555386519   7.905420585301004   8.339411154564614 
 -0.000289451819457   1.436846122456277   8.339462747618036 
  3.732189835881987   7.906519950520771   8.339103870034773 
  4.978718370773443   1.435159659208146   8.339790683601370 
  8.714847473599534   7.906014532499092   8.340364186998253 
 -3.733248708345272   7.905495673600133   1.666407966806841 
  9.957680872164644   1.436787423360307   8.339600283215285 
  2.489068300745862   1.435961558736338   1.666574685677357 
  1.242858217714246   7.905859254278759   1.666166529243257 
  6.224830384320761   7.906488370955600   1.667249360835420 
  7.468404979478835   1.435669156801437   1.665869028974410 
  1.242858217714246   7.905859254278760   8.339790683601370 
 12.446864066659518   1.437210324113186   1.666660346953394 
 -2.489340394815270  10.060758643627761   8.339214524414748 
 -1.245185173566730   3.593068762647696   8.339462747618036 
  3.733236571363091   3.591427935421716   8.340835104971237 
  2.488142759925939  10.061736356082859   8.340088183870231 
  7.469283650401387  10.061732443882910   8.340153197710501 
  8.713891812732845   3.592354842400143   8.340182060277817 
 -4.977807035460114  10.061133929145981   1.666407966806841 
 -0.000898595208105  10.061047831248596   1.666636450506620 
  1.243542080259957   3.592454352456479   1.666097110519946 
  4.978630768259670  10.062016750960519   1.665775152566798 
  6.223956359587131   3.590653730864149   1.666853342809830 
 11.202641610115275   3.593114497891474   1.666402257409750 
 -2.489342602128958   5.749424361469392   8.339413327696237 
 -3.733913487355303  12.215770930268882   8.339411154564614 
  1.244241282942177  12.216343030322465   8.339493132499019 
  2.487500422584528   5.749106237931384   8.340835104971237 
  6.223663547904503  12.216957471411426   8.339554955434890 
 -6.223066511027970  12.216423873117193   1.666543885148377 
  7.470249285100850   5.749359558097891   8.338707852009195 
 -1.244869051185614  12.215667864116279   1.666636450506620 
 -0.001272351936802   5.749358097336982   1.666574685677357 
 -1.245331555386520   7.905420585301003   1.666546058280014 
  4.977658080777688   5.748347230540650   1.663029133488896 
  3.733749153517035  12.216953382897524   1.666356929629343 
  9.958972036652026   5.749465663882603   1.665804015134113 
 -3.733248708345271   7.905495673600134   8.339549246037759 
  2.489068300745863   1.435961558736339   8.339382527167270 
  6.224830384320762   7.906488370955601   8.338707852009195 
  7.468404979478835   1.435669156801438   8.340088183870231 
 12.446864066659518   1.437210324113186   8.339296865891233 
  4.956576501897697   5.736175775299327   5.002978606422314 
  3.696679034962777   5.008773633613119   5.002978606422314 
  1.244774470954733   0.718509448004777   1.669612154131499 
  4.978587646453426   7.185773550477861   1.682379403546313 
  6.223384773572752   0.718430823454852   1.669690887258601 
  9.957657072101574   7.186390206492872   1.669367395205193 
 11.202087057833909   0.718537982986581   1.669129700773304 
 -3.734001463936640   9.342153240320652   8.336875582772587 
  1.244486039726747   9.342136396216546   8.336266325586040 
  2.489339998868987   2.874501832684632   8.334640646561494 
  6.223526425253922   9.341898702373699   8.334958174841043 
  7.468008732260068   2.874359980341604   8.335175447185609 
 12.446799105484420   2.874555423892061   8.336783512249845 
 -1.244775869577787   9.342146015224589   1.669151339286073 
 -0.000111194570263   2.874430799454636   1.669353565077197 
  4.978868531749857   2.874437641932567   1.672149460925929 
  3.733887437693936   9.342047784155055   1.670781765659018 
  8.713039325347964   9.342131379872033   1.669367395205193 
  9.957367027182856   2.874559516797344   1.669325152131904 
 -4.978663537494659  11.497907259879916   8.336794439890850 
 -0.000158926137066  11.497888234630958   8.336676109046685 
  1.244675918731067   5.030323257839505   8.334640646561494 
  6.222970572749568   5.030439098061693   8.323577809298314 
  4.978739388794987  11.497795538451847   8.336632060712736 
 11.202190741635903   5.030554239533719   8.336795963052984 
 -1.244751020724609   5.030494086331316   1.669612154131499 
 -2.489394923873955  11.497889453333894   1.669151339286073 
  2.489153898049722  11.497908610152367   1.669109623305050 
  3.734083220631617   5.030368950277860   1.671798006509797 
  7.468297446336407  11.497847137033272   1.669161249791670 
  8.712699117430194   5.030525130711358   1.670999038003598 
 -0.000097382774239   7.186330247009201   8.336299943573040 
  1.244774470954734   0.718509448004778   8.336345058713141 
  4.978587646453427   7.185773550477862   8.323577809298314 
  6.223384773572753   0.718430823454852   8.336266325586040 
  9.957657072101574   7.186390206492873   8.336589817639435 
 -2.489394755466948   7.186367255712792   1.669162772953790 
 11.202087057833909   0.718537982986582   8.336827512071324 
  3.734110171474012   0.718493037043670   1.669657269271600 
  2.489384594349445   7.186350306136728   1.672149460925929 
  7.468178133435638   7.186249653364972   1.672931491979894 
  8.712672204775338   0.718458701068498   1.669109623305050 
  2.489384594349445   7.186350306136729   8.333807751918698 
 13.691608956485597   0.718481516195761   1.669173700594769 
 -1.244775869577787   9.342146015224589   8.336805873558568 
 -0.000111194570263   2.874430799454637   8.336603647767431 
  4.978868531749858   2.874437641932567   8.333807751918698 
  3.733887437693937   9.342047784155055   8.335175447185609 
  8.713039325347964   9.342131379872033   8.336589817639435 
  9.957367027182856   2.874559516797345   8.336632060712736 
 -3.734001463936640   9.342153240320652   1.669081630072014 