Species order: X N B                    
   2.51242800000000     
     5.9449720136058266    0.0000000000000000    0.0000000000000000
    -2.9724860068029120    5.1484967885702053   -0.0000000000000001
     0.0000000000000000    0.0000000000000009    5.3101128803662583
   Pb   N    B 
     1   143   143
Direct
  0.4997405127947882  0.4165369230640584  0.3750000000000000
  0.1111175362717274  0.0555515772723666  0.1249775839517641
  0.6111945657601386  0.5556691997752607  0.1228246101950217
  0.4444691605251866  0.0555493735913832  0.1250193978422793
  0.9444468174131044  0.5555530647416150  0.1250853116441742
  0.7778036925941998  0.0555685129637680  0.1249707494201560
  0.1111119679853676  0.7222226506593481  0.6249868233308786
  0.4444691605251866  0.7222531202671389  0.6249806021577204
  0.2777707046555968  0.2222043634761564  0.6254344591772442
  0.7778005630610940  0.7222575643071030  0.6250277144000883
  0.6111452133417488  0.2221978892248288  0.6251759850766621
  0.9444658782150916  0.2222303413501107  0.6250115431726361
  0.2777879536534598  0.7222313747536416  0.1250109852799573
  0.1111284796591738  0.2222309064962513  0.1249412469826625
  0.4444944558853657  0.2222208788301833  0.1244805597200284
  0.6111452133417488  0.7222806574502489  0.1248240149233375
  0.9444468174131044  0.7222270860048261  0.1250853116441742
  0.7778038383816864  0.2222147686777693  0.1250295261718623
  0.1111170141935268  0.8888904117996055  0.6249952085472061
  0.4444617797743830  0.8888975565538557  0.6249977964269365
  0.2777707046555968  0.3888996745127696  0.6254344591772442
  0.6111945657601386  0.3888586993182065  0.6271753898049781
  0.7778038383816864  0.8889224030372456  0.6249704738281379
  0.9444577589342339  0.3888895142946069  0.6249402030523945
  0.1111175362717274  0.3888992923326894  0.1249775839517641
  0.2777879536534598  0.8888899122331460  0.1250109852799573
  0.6111337601044781  0.8889166286599315  0.1250189325728044
  0.4444206974490999  0.3888770153912144  0.1239574210350509
  0.9444577589342339  0.8889015779729558  0.1250597969476054
  0.7778005630610940  0.3888763320873197  0.1249722855999123
  0.2777998814573377  0.5555760152229900  0.6250021991862438
  0.1111175362717274  0.0555515772723666  0.6250224160482367
  0.6111945657601386  0.5556691997752607  0.6271753898049781
  0.4444691605251866  0.0555493735913832  0.6249806021577204
  0.9444468174131044  0.5555530647416150  0.6249146883558260
  0.1111170141935268  0.5555599357272500  0.1250047914527943
  0.7778036925941998  0.0555685129637680  0.6250292505798440
  0.2777998814573377  0.0555571995676833  0.1249978008137563
  0.4444944558853657  0.5556069103885184  0.1244805597200284
  0.7777886656484512  0.5555609994908938  0.1247573745906980
  0.6111337601044781  0.0555504647778747  0.1250189325728044
  0.4444944558853657  0.5556069103885184  0.6255194402799715
  0.9444658782150916  0.0555688701983164  0.1249884568273638
  0.2777879536534598  0.7222313747536416  0.6249890147200430
  0.1111284796591738  0.2222309064962513  0.6250587530173379
  0.4444944558853657  0.2222208788301833  0.6255194402799715
  0.6111452133417488  0.7222806574502489  0.6251759850766621
  0.9444468174131044  0.7222270860048261  0.6249146883558260
  0.7778038383816864  0.2222147686777693  0.6249704738281379
  0.1111119679853676  0.7222226506593481  0.1250131766691208
  0.4444691605251866  0.7222531202671389  0.1250193978422793
  0.2777707046555968  0.2222043634761564  0.1245655408227555
  0.7778005630610940  0.7222575643071030  0.1249722855999123
  0.6111452133417488  0.2221978892248288  0.1248240149233375
  0.9444658782150916  0.2222303413501107  0.1249884568273638
  0.1111175362717274  0.3888992923326894  0.6250224160482367
  0.2777879536534598  0.8888899122331460  0.6249890147200430
  0.6111337601044781  0.8889166286599315  0.6249810674271958
  0.4444206974491000  0.3888770153912144  0.6260425789649493
  0.9444577589342339  0.8889015779729558  0.6249402030523945
  0.1111170141935268  0.8888904117996055  0.1250047914527943
  0.7778005630610940  0.3888763320873197  0.6250277144000883
  0.4444617797743830  0.8888975565538557  0.1250022035730630
  0.2777707046555968  0.3888996745127696  0.1245655408227555
  0.2777998814573377  0.5555760152229902  0.1249978008137563
  0.6111945657601386  0.3888586993182065  0.1228246101950217
  0.7778038383816864  0.8889224030372456  0.1250295261718623
  0.9444577589342339  0.3888895142946069  0.1250597969476054
  0.1111170141935268  0.5555599357272500  0.6249952085472061
  0.2777998814573377  0.0555571995676833  0.6250021991862438
  0.7777886656484512  0.5555609994908938  0.6252426254093018
  0.6111337601044781  0.0555504647778747  0.6249810674271958
  0.9444658782150916  0.0555688701983164  0.6250115431726361
  0.0582780805122606  0.1126330560719385  0.3750000000000000
  0.5557608733218335  0.6221724039639827  0.3750000000000000
  0.3873919856843511  0.1027303784515135  0.3750000000000000
  0.8876215705980124  0.6104774519656779  0.3750000000000000
  0.7244314526656928  0.1111420817730650  0.3750000000000000
  0.0555474271813135  0.7777744298717315  0.8750000000000000
  0.3888813327549978  0.7777745884671474  0.8750000000000000
  0.2222160806838671  0.2777747070086011  0.8750000000000000
  0.7222145020799655  0.7777707646654289  0.8750000000000000
  0.5555437292295256  0.2777696408728386  0.8750000000000000
  0.8888828251645033  0.2777768094342534  0.8750000000000000
  0.2205440544025332  0.7769386938679346  0.3750000000000000
  0.0582780805122606  0.2789783577736576  0.3750000000000000
  0.3867737597652512  0.2628385851507931  0.3750000000000000
  0.5561995811101114  0.7830130184552224  0.3750000000000000
  0.8899960058662185  0.7792334083657196  0.3750000000000000
  0.7243661193579982  0.2761116080903371  0.3750000000000000
  0.0555460347112463  0.9444393217091813  0.8750000000000000
  0.3888813327549978  0.9444400776211862  0.8750000000000000
  0.2222130329192381  0.4444406128048793  0.8750000000000000
  0.5555440873795178  0.4444387103564232  0.8750000000000000
  0.7222136527834487  0.9444387866181537  0.8750000000000000
  0.8888835914024610  0.4444427871977352  0.8750000000000000
  0.0558800835352432  0.4449809459887586  0.3750000000000000
  0.2206250557113180  0.9417534910474196  0.3750000000000000
  0.5562566567715322  0.9447949950524306  0.3750000000000000
  0.3867737597652512  0.4572685079477941  0.3750000000000000
  0.8912184725124296  0.9465317136189527  0.3750000000000000
  0.7241912494236555  0.4430227704617518  0.3750000000000000
  0.2222119942999732  0.6111057817088192  0.8750000000000000
  0.0555480579343045  0.1111064705209131  0.8750000000000000
  0.5555437292295256  0.6111074216900226  0.8750000000000000
  0.3888800864266620  0.1111054846581280  0.8750000000000000
  0.8888865542208402  0.6111099437770913  0.8750000000000000
  0.0542400586204264  0.6108030507429824  0.3750000000000000
  0.7222136527834487  0.1111081994986303  0.8750000000000000
  0.2218627330976890  0.1085220492512095  0.3750000000000000
  0.3873919856843512  0.6179949405661814  0.3750000000000000
  0.7241912494236555  0.6145018122952395  0.3750000000000000
  0.5561995811101113  0.1065198959882247  0.3750000000000000
  0.3888800864266620  0.6111079351018769  0.8750000000000000
  0.8916456836345960  0.1124895084839695  0.3750000000000000
  0.2222133075304173  0.7777733204318765  0.8750000000000000
  0.0555480579343045  0.2777749207467269  0.8750000000000000
  0.3888836145197582  0.2777733742615882  0.8750000000000000
  0.5555458710800156  0.7777726061724139  0.8750000000000000
  0.8888835914024610  0.7777741375380626  0.8750000000000000
  0.7222145020799655  0.2777770707478724  0.8750000000000000
  0.0542400586204264  0.7767703412107800  0.3750000000000000
  0.3878502613729211  0.7795896095357794  0.3750000000000000
  0.2263475118997922  0.2798404226165641  0.3750000000000000
  0.7243661193579984  0.7815878446009974  0.3750000000000000
  0.5557608733218335  0.2669218026911869  0.3750000000000000
  0.8912184725124296  0.2780200922268126  0.3750000000000000
  0.0555460347112463  0.4444400463353932  0.8750000000000000
  0.2222119942999732  0.9444395459244890  0.8750000000000000
  0.5555464006838328  0.9444398670085813  0.8750000000000000
  0.3888836145197582  0.4444435735915057  0.8750000000000000
  0.8888828251645033  0.9444393490635868  0.8750000000000000
  0.0558800835352431  0.9442324708798128  0.3750000000000000
  0.7222212054390300  0.4444461728071836  0.8750000000000000
  0.3878502613729211  0.9415939851704775  0.3750000000000000
  0.2218627330976890  0.4466740171798155  0.3750000000000000
  0.2206250557113180  0.6122048979972342  0.3750000000000000
  0.7244314526656928  0.9466227042259638  0.3750000000000000
  0.8899960058662184  0.4440959308338343  0.3750000000000000
  0.0555474271813135  0.6111063306429173  0.8750000000000000
  0.2222130329192381  0.1111057534476949  0.8750000000000000
  0.7222212054390300  0.6111083659651825  0.8750000000000000
  0.5555458710800156  0.1111065982409382  0.8750000000000000
  0.8888830669422632  0.1111082001378030  0.8750000000000000
  0.1118593748098705  0.0551510580196080  0.3750000000000000
  0.6170335422273823  0.5754611900716872  0.3750000000000000
  0.4446760802357997  0.0508253142468731  0.3750000000000000
  0.9436956221124317  0.5551581886615438  0.3750000000000000
  0.7807436487272633  0.0570384910302996  0.3750000000000000
  0.1111079698654620  0.7222206515993956  0.8750000000000000
  0.4444292167995288  0.7222121726214383  0.8750000000000000
  0.2777647635327887  0.2222181706763112  0.8750000000000000
  0.7777716912921908  0.7222192042065129  0.8750000000000000
  0.6110951450616161  0.2222152891107572  0.8750000000000000
  0.9444477215974236  0.2222210389037369  0.8750000000000000
  0.2766885837102648  0.7227720320408493  0.3750000000000000
  0.1150828400469371  0.2242080866901329  0.3750000000000000
  0.4427516496117393  0.2112414789799099  0.3750000000000000
  0.6133140866455511  0.7309128183215159  0.3750000000000000
  0.9436956221124317  0.7218707667842232  0.3750000000000000
  0.7805262222896777  0.2217641581750646  0.3750000000000000
  0.1111075319033191  0.8888937705652665  0.8750000000000000
  0.4444328870768925  0.8888831102051107  0.8750000000000000
  0.2777647635327887  0.3888799261898061  0.8750000000000000
  0.6110922172479579  0.3888814390403021  0.8750000000000000
  0.7777746364212264  0.8888895699199822  0.8750000000000000
  0.9444457377711736  0.3888835769483949  0.8750000000000000
  0.1118593748098705  0.3900416501235910  0.3750000000000000
  0.2766885837102648  0.8872498850027436  0.3750000000000000
  0.6132495079664039  0.8922781006888837  0.3750000000000000
  0.9456640474654183  0.8901703573253310  0.3750000000000000
  0.7801251428061081  0.3873960751309332  0.3750000000000000
  0.2777658021321536  0.5555431436817494  0.8750000000000000
  0.1111089904065266  0.0555602666448724  0.8750000000000000
  0.6110922172479579  0.5555441115409840  0.8750000000000000
  0.4444292167995288  0.0555503775114261  0.8750000000000000
  0.9444457828985946  0.5555536760429806  0.8750000000000000
  0.1101057097305640  0.5558247259703232  0.3750000000000000
  0.7777765985166308  0.0555549659249830  0.8750000000000000
  0.2766101477960805  0.0520598560275373  0.3750000000000000
  0.4427516496117393  0.5648435039651655  0.3750000000000000
  0.7768173874996184  0.5550753604164772  0.3750000000000000
  0.6132495079664039  0.0543047406108487  0.3750000000000000
  0.4444264296272390  0.5555455848779395  0.8750000000000000
  0.9474833732985208  0.0575544090512084  0.3750000000000000
  0.2777684968158227  0.7222142193588550  0.8750000000000000
  0.1111109456533893  0.2222221394933588  0.8750000000000000
  0.4444264296272390  0.2222141780826357  0.8750000000000000
  0.6110951450616161  0.7222131892841868  0.8750000000000000
  0.9444457828985946  0.7222254401889493  0.8750000000000000
  0.7777746364212264  0.2222183998345724  0.8750000000000000
  0.1097835094679426  0.7215584214006360  0.3750000000000000
  0.4446760802357997  0.7271840993222622  0.3750000000000000
  0.2791310661662452  0.2200749281562084  0.3750000000000000
  0.7801251428061081  0.7260624010085043  0.3750000000000000
  0.6133140866455511  0.2157346016573638  0.3750000000000000
  0.9474833732985208  0.2232622975806482  0.3750000000000000
  0.1111089904065266  0.3888820570949827  0.8750000000000000
  0.2777684968158227  0.8888876107902977  0.8750000000000000
  0.6111008707402947  0.8888839237047470  0.8750000000000000
  0.4444288319498975  0.3888810826416130  0.8750000000000000
  0.9444457377711736  0.8888954941561067  0.8750000000000000
  0.1101057097305640  0.8876143170935701  0.3750000000000000
  0.7777716912921908  0.3888858204190053  0.8750000000000000
  0.4448084478170958  0.8890708905752119  0.3750000000000000
  0.2791310661662452  0.3923894713433655  0.3750000000000000
  0.2766101477960805  0.5578836251018795  0.3750000000000000
  0.6170335422273822  0.3749056854890248  0.3750000000000000
  0.7805262222896777  0.8920953974479429  0.3750000000000000
  0.9456640474654183  0.3888270234734164  0.3750000000000000
  0.1111075319033191  0.5555470946713815  0.8750000000000000
  0.2777658021321536  0.0555559917837406  0.8750000000000000
  0.7777721671030831  0.5555527502182096  0.8750000000000000
  0.6111008707402947  0.0555502803688769  0.8750000000000000
  0.9444477215974236  0.0555600160270220  0.8750000000000000
  0.0555986005555122  0.1111437373276214  0.1250128792770347
  0.5555674423982744  0.6111630362551560  0.1239853417614561
  0.3888898183009720  0.1110957270455614  0.1249663363286610
  0.8889101811342098  0.6111217572337763  0.1249958646629148
  0.7222406601007567  0.1110981865532062  0.1249915305935309
  0.0555867598130141  0.7778042542744454  0.6249944921205108
  0.3888950384689040  0.7777858424551649  0.6249929301281163
  0.2222484763861762  0.2777909048597563  0.6251561553980530
  0.7222407665014110  0.7778386232089280  0.6251095424787162
  0.5555674423982744  0.2777377394764546  0.6260146582385431
  0.8889253003198953  0.2777671924407238  0.6249849366099072
  0.2222409896950718  0.7777871615142040  0.1249975820090175
  0.0555986005555122  0.2777881965612266  0.1250128792770347
  0.3887913211460936  0.2776363537579877  0.1244387945462561
  0.5555572341861630  0.7778143934922862  0.1249802693112337
  0.8889274531819564  0.7778260824630294  0.1250169751376891
  0.7222407665014110  0.2777354766258182  0.1248904575212841
  0.0555915375246477  0.9444842016714277  0.6249801728386406
  0.3888950384689040  0.9444425293470741  0.6249929301281163
  0.2222373550269926  0.4444480181560597  0.6250163825121302
  0.5556928138145175  0.4445130735739231  0.6265208949640518
  0.7222406601007567  0.9444758068808864  0.6250084694064694
  0.8889274531819564  0.4444347040522612  0.6249830248623111
  0.0555915375246477  0.4444406691865490  0.1250198271613590
  0.2222465758665785  0.9444701981952454  0.1250185764283931
  0.5555612284579785  0.9444472808956538  0.1250031074245164
  0.3887913211460936  0.4444883007214420  0.1244387945462561
  0.8889253003198953  0.9444914412125074  0.1250150633900928
  0.7222423447708487  0.4444245523365052  0.1240679360527769
  0.2222465758665785  0.6111097110046688  0.6249814235716070
  0.0555986005555122  0.1111437373276214  0.6249871207229654
  0.5555674423982744  0.6111630362551560  0.6260146582385431
  0.3888898183009720  0.1110957270455614  0.6250336636713391
  0.8889101811342098  0.6111217572337763  0.6250041353370854
  0.0555867598130141  0.6111158388719046  0.1250055078794895
  0.7222406601007567  0.1110981865532062  0.6250084694064694
  0.2222373550269926  0.1111226702042691  0.1249836174878700
  0.3888898183009720  0.6111274245887537  0.1249663363286610
  0.7222423447708487  0.6111511257676802  0.1240679360527769
  0.5555572341861630  0.1110761740272123  0.1249802693112337
  0.3888898183009720  0.6111274245887537  0.6250336636713391
  0.8889249029106870  0.1111291181220150  0.1249966321768055
  0.2222409896950718  0.7777871615142040  0.6250024179909824
  0.0555986005555122  0.2777881965612266  0.6249871207229654
  0.3887913211460936  0.2776363537579877  0.6255612054537442
  0.5555572341861630  0.7778143934922862  0.6250197306887664
  0.8889274531819564  0.7778260824630294  0.6249830248623111
  0.7222407665014110  0.2777354766258182  0.6251095424787162
  0.0555867598130141  0.7778042542744454  0.1250055078794895
  0.3888950384689040  0.7777858424551649  0.1250070698718835
  0.2222484763861762  0.2777909048597563  0.1248438446019473
  0.7222407665014110  0.7778386232089280  0.1248904575212841
  0.5555674423982744  0.2777377394764546  0.1239853417614561
  0.8889253003198953  0.2777671924407238  0.1250150633900928
  0.0555915375246477  0.4444406691865490  0.6249801728386406
  0.2222465758665785  0.9444701981952454  0.6249814235716070
  0.5555612284579785  0.9444472808956538  0.6249968925754842
  0.3887913211460936  0.4444883007214420  0.6255612054537442
  0.8889253003198953  0.9444914412125074  0.6249849366099072
  0.0555915375246477  0.9444842016714277  0.1250198271613590
  0.7222423447708487  0.4444245523365052  0.6259320639472234
  0.3888950384689040  0.9444425293470741  0.1250070698718835
  0.2222373550269926  0.4444480181560597  0.1249836174878700
  0.2222465758665785  0.6111097110046688  0.1250185764283931
  0.5556928138145175  0.4445130735739231  0.1234791050359483
  0.7222406601007567  0.9444758068808864  0.1249915305935309
  0.8889274531819564  0.4444347040522612  0.1250169751376891
  0.0555867598130141  0.6111158388719046  0.6249944921205108
  0.2222373550269926  0.1111226702042691  0.6250163825121302
  0.7222423447708487  0.6111511257676802  0.6259320639472234
  0.5555572341861630  0.1110761740272123  0.6250197306887664
  0.8889249029106870  0.1111291181220150  0.6250033678231951
 
  0.00000000E+00  0.00000000E+00  0.00000000E+00
  0.00000000E+00  0.00000000E+00  0.00000000E+00
  0.00000000E+00  0.00000000E+00  0.00000000E+00
  0.00000000E+00  0.00000000E+00  0.00000000E+00
  0.00000000E+00  0.00000000E+00  0.00000000E+00
  0.00000000E+00  0.00000000E+00  0.00000000E+00
  0.00000000E+00  0.00000000E+00  0.00000000E+00
  0.00000000E+00  0.00000000E+00  0.00000000E+00
  0.00000000E+00  0.00000000E+00  0.00000000E+00
  0.00000000E+00  0.00000000E+00  0.00000000E+00
  0.00000000E+00  0.00000000E+00  0.00000000E+00
  0.00000000E+00  0.00000000E+00  0.00000000E+00
  0.00000000E+00  0.00000000E+00  0.00000000E+00
  0.00000000E+00  0.00000000E+00  0.00000000E+00
  0.00000000E+00  0.00000000E+00  0.00000000E+00
  0.00000000E+00  0.00000000E+00  0.00000000E+00
  0.00000000E+00  0.00000000E+00  0.00000000E+00
  0.00000000E+00  0.00000000E+00  0.00000000E+00
  0.00000000E+00  0.00000000E+00  0.00000000E+00
  0.00000000E+00  0.00000000E+00  0.00000000E+00
  0.00000000E+00  0.00000000E+00  0.00000000E+00
  0.00000000E+00  0.00000000E+00  0.00000000E+00
  0.00000000E+00  0.00000000E+00  0.00000000E+00
  0.00000000E+00  0.00000000E+00  0.00000000E+00
  0.00000000E+00  0.00000000E+00  0.00000000E+00
  0.00000000E+00  0.00000000E+00  0.00000000E+00
  0.00000000E+00  0.00000000E+00  0.00000000E+00
  0.00000000E+00  0.00000000E+00  0.00000000E+00
  0.00000000E+00  0.00000000E+00  0.00000000E+00
  0.00000000E+00  0.00000000E+00  0.00000000E+00
  0.00000000E+00  0.00000000E+00  0.00000000E+00
  0.00000000E+00  0.00000000E+00  0.00000000E+00
  0.00000000E+00  0.00000000E+00  0.00000000E+00
  0.00000000E+00  0.00000000E+00  0.00000000E+00
  0.00000000E+00  0.00000000E+00  0.00000000E+00
  0.00000000E+00  0.00000000E+00  0.00000000E+00
  0.00000000E+00  0.00000000E+00  0.00000000E+00
  0.00000000E+00  0.00000000E+00  0.00000000E+00
  0.00000000E+00  0.00000000E+00  0.00000000E+00
  0.00000000E+00  0.00000000E+00  0.00000000E+00
  0.00000000E+00  0.00000000E+00  0.00000000E+00
  0.00000000E+00  0.00000000E+00  0.00000000E+00
  0.00000000E+00  0.00000000E+00  0.00000000E+00
  0.00000000E+00  0.00000000E+00  0.00000000E+00
  0.00000000E+00  0.00000000E+00  0.00000000E+00
  0.00000000E+00  0.00000000E+00  0.00000000E+00
  0.00000000E+00  0.00000000E+00  0.00000000E+00
  0.00000000E+00  0.00000000E+00  0.00000000E+00
  0.00000000E+00  0.00000000E+00  0.00000000E+00
  0.00000000E+00  0.00000000E+00  0.00000000E+00
  0.00000000E+00  0.00000000E+00  0.00000000E+00
  0.00000000E+00  0.00000000E+00  0.00000000E+00
  0.00000000E+00  0.00000000E+00  0.00000000E+00
  0.00000000E+00  0.00000000E+00  0.00000000E+00
  0.00000000E+00  0.00000000E+00  0.00000000E+00
  0.00000000E+00  0.00000000E+00  0.00000000E+00
  0.00000000E+00  0.00000000E+00  0.00000000E+00
  0.00000000E+00  0.00000000E+00  0.00000000E+00
  0.00000000E+00  0.00000000E+00  0.00000000E+00
  0.00000000E+00  0.00000000E+00  0.00000000E+00
  0.00000000E+00  0.00000000E+00  0.00000000E+00
  0.00000000E+00  0.00000000E+00  0.00000000E+00
  0.00000000E+00  0.00000000E+00  0.00000000E+00
  0.00000000E+00  0.00000000E+00  0.00000000E+00
  0.00000000E+00  0.00000000E+00  0.00000000E+00
  0.00000000E+00  0.00000000E+00  0.00000000E+00
  0.00000000E+00  0.00000000E+00  0.00000000E+00
  0.00000000E+00  0.00000000E+00  0.00000000E+00
  0.00000000E+00  0.00000000E+00  0.00000000E+00
  0.00000000E+00  0.00000000E+00  0.00000000E+00
  0.00000000E+00  0.00000000E+00  0.00000000E+00
  0.00000000E+00  0.00000000E+00  0.00000000E+00
  0.00000000E+00  0.00000000E+00  0.00000000E+00
  0.00000000E+00  0.00000000E+00  0.00000000E+00
  0.00000000E+00  0.00000000E+00  0.00000000E+00
  0.00000000E+00  0.00000000E+00  0.00000000E+00
  0.00000000E+00  0.00000000E+00  0.00000000E+00
  0.00000000E+00  0.00000000E+00  0.00000000E+00
  0.00000000E+00  0.00000000E+00  0.00000000E+00
  0.00000000E+00  0.00000000E+00  0.00000000E+00
  0.00000000E+00  0.00000000E+00  0.00000000E+00
  0.00000000E+00  0.00000000E+00  0.00000000E+00
  0.00000000E+00  0.00000000E+00  0.00000000E+00
  0.00000000E+00  0.00000000E+00  0.00000000E+00
  0.00000000E+00  0.00000000E+00  0.00000000E+00
  0.00000000E+00  0.00000000E+00  0.00000000E+00
  0.00000000E+00  0.00000000E+00  0.00000000E+00
  0.00000000E+00  0.00000000E+00  0.00000000E+00
  0.00000000E+00  0.00000000E+00  0.00000000E+00
  0.00000000E+00  0.00000000E+00  0.00000000E+00
  0.00000000E+00  0.00000000E+00  0.00000000E+00
  0.00000000E+00  0.00000000E+00  0.00000000E+00
  0.00000000E+00  0.00000000E+00  0.00000000E+00
  0.00000000E+00  0.00000000E+00  0.00000000E+00
  0.00000000E+00  0.00000000E+00  0.00000000E+00
  0.00000000E+00  0.00000000E+00  0.00000000E+00
  0.00000000E+00  0.00000000E+00  0.00000000E+00
  0.00000000E+00  0.00000000E+00  0.00000000E+00
  0.00000000E+00  0.00000000E+00  0.00000000E+00
  0.00000000E+00  0.00000000E+00  0.00000000E+00
  0.00000000E+00  0.00000000E+00  0.00000000E+00
  0.00000000E+00  0.00000000E+00  0.00000000E+00
  0.00000000E+00  0.00000000E+00  0.00000000E+00
  0.00000000E+00  0.00000000E+00  0.00000000E+00
  0.00000000E+00  0.00000000E+00  0.00000000E+00
  0.00000000E+00  0.00000000E+00  0.00000000E+00
  0.00000000E+00  0.00000000E+00  0.00000000E+00
  0.00000000E+00  0.00000000E+00  0.00000000E+00
  0.00000000E+00  0.00000000E+00  0.00000000E+00
  0.00000000E+00  0.00000000E+00  0.00000000E+00
  0.00000000E+00  0.00000000E+00  0.00000000E+00
  0.00000000E+00  0.00000000E+00  0.00000000E+00
  0.00000000E+00  0.00000000E+00  0.00000000E+00
  0.00000000E+00  0.00000000E+00  0.00000000E+00
  0.00000000E+00  0.00000000E+00  0.00000000E+00
  0.00000000E+00  0.00000000E+00  0.00000000E+00
  0.00000000E+00  0.00000000E+00  0.00000000E+00
  0.00000000E+00  0.00000000E+00  0.00000000E+00
  0.00000000E+00  0.00000000E+00  0.00000000E+00
  0.00000000E+00  0.00000000E+00  0.00000000E+00
  0.00000000E+00  0.00000000E+00  0.00000000E+00
  0.00000000E+00  0.00000000E+00  0.00000000E+00
  0.00000000E+00  0.00000000E+00  0.00000000E+00
  0.00000000E+00  0.00000000E+00  0.00000000E+00
  0.00000000E+00  0.00000000E+00  0.00000000E+00
  0.00000000E+00  0.00000000E+00  0.00000000E+00
  0.00000000E+00  0.00000000E+00  0.00000000E+00
  0.00000000E+00  0.00000000E+00  0.00000000E+00
  0.00000000E+00  0.00000000E+00  0.00000000E+00
  0.00000000E+00  0.00000000E+00  0.00000000E+00
  0.00000000E+00  0.00000000E+00  0.00000000E+00
  0.00000000E+00  0.00000000E+00  0.00000000E+00
  0.00000000E+00  0.00000000E+00  0.00000000E+00
  0.00000000E+00  0.00000000E+00  0.00000000E+00
  0.00000000E+00  0.00000000E+00  0.00000000E+00
  0.00000000E+00  0.00000000E+00  0.00000000E+00
  0.00000000E+00  0.00000000E+00  0.00000000E+00
  0.00000000E+00  0.00000000E+00  0.00000000E+00
  0.00000000E+00  0.00000000E+00  0.00000000E+00
  0.00000000E+00  0.00000000E+00  0.00000000E+00
  0.00000000E+00  0.00000000E+00  0.00000000E+00
  0.00000000E+00  0.00000000E+00  0.00000000E+00
  0.00000000E+00  0.00000000E+00  0.00000000E+00
  0.00000000E+00  0.00000000E+00  0.00000000E+00
  0.00000000E+00  0.00000000E+00  0.00000000E+00
  0.00000000E+00  0.00000000E+00  0.00000000E+00
  0.00000000E+00  0.00000000E+00  0.00000000E+00
  0.00000000E+00  0.00000000E+00  0.00000000E+00
  0.00000000E+00  0.00000000E+00  0.00000000E+00
  0.00000000E+00  0.00000000E+00  0.00000000E+00
  0.00000000E+00  0.00000000E+00  0.00000000E+00
  0.00000000E+00  0.00000000E+00  0.00000000E+00
  0.00000000E+00  0.00000000E+00  0.00000000E+00
  0.00000000E+00  0.00000000E+00  0.00000000E+00
  0.00000000E+00  0.00000000E+00  0.00000000E+00
  0.00000000E+00  0.00000000E+00  0.00000000E+00
  0.00000000E+00  0.00000000E+00  0.00000000E+00
  0.00000000E+00  0.00000000E+00  0.00000000E+00
  0.00000000E+00  0.00000000E+00  0.00000000E+00
  0.00000000E+00  0.00000000E+00  0.00000000E+00
  0.00000000E+00  0.00000000E+00  0.00000000E+00
  0.00000000E+00  0.00000000E+00  0.00000000E+00
  0.00000000E+00  0.00000000E+00  0.00000000E+00
  0.00000000E+00  0.00000000E+00  0.00000000E+00
  0.00000000E+00  0.00000000E+00  0.00000000E+00
  0.00000000E+00  0.00000000E+00  0.00000000E+00
  0.00000000E+00  0.00000000E+00  0.00000000E+00
  0.00000000E+00  0.00000000E+00  0.00000000E+00
  0.00000000E+00  0.00000000E+00  0.00000000E+00
  0.00000000E+00  0.00000000E+00  0.00000000E+00
  0.00000000E+00  0.00000000E+00  0.00000000E+00
  0.00000000E+00  0.00000000E+00  0.00000000E+00
  0.00000000E+00  0.00000000E+00  0.00000000E+00
  0.00000000E+00  0.00000000E+00  0.00000000E+00
  0.00000000E+00  0.00000000E+00  0.00000000E+00
  0.00000000E+00  0.00000000E+00  0.00000000E+00
  0.00000000E+00  0.00000000E+00  0.00000000E+00
  0.00000000E+00  0.00000000E+00  0.00000000E+00
  0.00000000E+00  0.00000000E+00  0.00000000E+00
  0.00000000E+00  0.00000000E+00  0.00000000E+00
  0.00000000E+00  0.00000000E+00  0.00000000E+00
  0.00000000E+00  0.00000000E+00  0.00000000E+00
  0.00000000E+00  0.00000000E+00  0.00000000E+00
  0.00000000E+00  0.00000000E+00  0.00000000E+00
  0.00000000E+00  0.00000000E+00  0.00000000E+00
  0.00000000E+00  0.00000000E+00  0.00000000E+00
  0.00000000E+00  0.00000000E+00  0.00000000E+00
  0.00000000E+00  0.00000000E+00  0.00000000E+00
  0.00000000E+00  0.00000000E+00  0.00000000E+00
  0.00000000E+00  0.00000000E+00  0.00000000E+00
  0.00000000E+00  0.00000000E+00  0.00000000E+00
  0.00000000E+00  0.00000000E+00  0.00000000E+00
  0.00000000E+00  0.00000000E+00  0.00000000E+00
  0.00000000E+00  0.00000000E+00  0.00000000E+00
  0.00000000E+00  0.00000000E+00  0.00000000E+00
  0.00000000E+00  0.00000000E+00  0.00000000E+00
  0.00000000E+00  0.00000000E+00  0.00000000E+00
  0.00000000E+00  0.00000000E+00  0.00000000E+00
  0.00000000E+00  0.00000000E+00  0.00000000E+00
  0.00000000E+00  0.00000000E+00  0.00000000E+00
  0.00000000E+00  0.00000000E+00  0.00000000E+00
  0.00000000E+00  0.00000000E+00  0.00000000E+00
  0.00000000E+00  0.00000000E+00  0.00000000E+00
  0.00000000E+00  0.00000000E+00  0.00000000E+00
  0.00000000E+00  0.00000000E+00  0.00000000E+00
  0.00000000E+00  0.00000000E+00  0.00000000E+00
  0.00000000E+00  0.00000000E+00  0.00000000E+00
  0.00000000E+00  0.00000000E+00  0.00000000E+00
  0.00000000E+00  0.00000000E+00  0.00000000E+00
  0.00000000E+00  0.00000000E+00  0.00000000E+00
  0.00000000E+00  0.00000000E+00  0.00000000E+00
  0.00000000E+00  0.00000000E+00  0.00000000E+00
  0.00000000E+00  0.00000000E+00  0.00000000E+00
  0.00000000E+00  0.00000000E+00  0.00000000E+00
  0.00000000E+00  0.00000000E+00  0.00000000E+00
  0.00000000E+00  0.00000000E+00  0.00000000E+00
  0.00000000E+00  0.00000000E+00  0.00000000E+00
  0.00000000E+00  0.00000000E+00  0.00000000E+00
  0.00000000E+00  0.00000000E+00  0.00000000E+00
  0.00000000E+00  0.00000000E+00  0.00000000E+00
  0.00000000E+00  0.00000000E+00  0.00000000E+00
  0.00000000E+00  0.00000000E+00  0.00000000E+00
  0.00000000E+00  0.00000000E+00  0.00000000E+00
  0.00000000E+00  0.00000000E+00  0.00000000E+00
  0.00000000E+00  0.00000000E+00  0.00000000E+00
  0.00000000E+00  0.00000000E+00  0.00000000E+00
  0.00000000E+00  0.00000000E+00  0.00000000E+00
  0.00000000E+00  0.00000000E+00  0.00000000E+00
  0.00000000E+00  0.00000000E+00  0.00000000E+00
  0.00000000E+00  0.00000000E+00  0.00000000E+00
  0.00000000E+00  0.00000000E+00  0.00000000E+00
  0.00000000E+00  0.00000000E+00  0.00000000E+00
  0.00000000E+00  0.00000000E+00  0.00000000E+00
  0.00000000E+00  0.00000000E+00  0.00000000E+00
  0.00000000E+00  0.00000000E+00  0.00000000E+00
  0.00000000E+00  0.00000000E+00  0.00000000E+00
  0.00000000E+00  0.00000000E+00  0.00000000E+00
  0.00000000E+00  0.00000000E+00  0.00000000E+00
  0.00000000E+00  0.00000000E+00  0.00000000E+00
  0.00000000E+00  0.00000000E+00  0.00000000E+00
  0.00000000E+00  0.00000000E+00  0.00000000E+00
  0.00000000E+00  0.00000000E+00  0.00000000E+00
  0.00000000E+00  0.00000000E+00  0.00000000E+00
  0.00000000E+00  0.00000000E+00  0.00000000E+00
  0.00000000E+00  0.00000000E+00  0.00000000E+00
  0.00000000E+00  0.00000000E+00  0.00000000E+00
  0.00000000E+00  0.00000000E+00  0.00000000E+00
  0.00000000E+00  0.00000000E+00  0.00000000E+00