 Pb B N 
 1.0
 14.936314146199660   0.000000000000000   0.000000000000000
 -7.468157073099825  12.935227489513863   0.000000000000000
  0.000000000000001   0.000000000000001  13.341276283792837
 Pb B N 
   1 143 143
Cartesian
  4.353518122497782   5.387999857615725   5.002978606422314 
  1.258889998319652   0.713391481771008   5.002978606422314 
  4.918572268522222   7.443721404963648   5.002978606422314 
  6.262250197617290   0.657437002009333   5.002978606422314 
  9.949325716922610   7.181097463003528   5.002978606422314 
 11.235459994813679   0.737805857135527   5.002978606422314 
 -3.734113725523767   9.342088426063123  11.673616748318732 
  1.244540452625657   9.341978748554359  11.673616748318732 
  2.489221563763004   2.874442590001703  11.673616748318732 
  6.223395856937792   9.342069703706915  11.673616748318732 
  7.467970376734328   2.874405316295736  11.673616748318732 
 12.446986240961106   2.874479691175950  11.673616748318732 
 -1.265067456361020   9.349220657506585   5.002978606422314 
  0.044492243316803   2.900182606325516   5.002978606422314 
  5.035493181973170   2.732456585826497   5.002978606422314 
  3.702080134460310   9.454523579990527   5.002978606422314 
  8.704289997441016   9.337562586383733   5.002978606422314 
 10.002015289029959   2.868569835015002   5.002978606422314 
 -4.978861299364497  11.498043136273472  11.673616748318732 
 -0.000129468354332  11.497905242089734  11.673616748318732 
  1.244565395509663   5.030250311370501  11.673616748318732 
  6.223237659547123   5.030269880435825  11.673616748318732 
  4.978719375731082  11.497988799971109  11.673616748318732 
 11.202294597590045   5.030297534763360  11.673616748318732 
 -1.242125545816297   5.045277474734023   5.002978606422314 
 -2.493413897326669  11.476779102555509   5.002978606422314 
  2.496014292156815  11.541820216322071   5.002978606422314 
  7.476803239387180  11.514556076425000   5.002978606422314 
  8.759059467720713   5.011056360363424   5.002978606422314 
 -0.000086178181977   7.186076943763110  11.673616748318732 
  1.244625986851759   0.718684688429470  11.673616748318732 
  4.978574643089434   7.186089463242494  11.673616748318732 
  6.223275453141920   0.718556770238671  11.673616748318732 
  9.957576792199902   7.186213182251648  11.673616748318732 
 -2.506412888833062   7.189719274722832   5.002978606422314 
 11.202222399288527   0.718616122411847  11.673616748318732 
  3.742744881492375   0.673406080787531   5.002978606422314 
  2.394737718017117   7.306379219763537   5.002978606422314 
  7.457398554926661   7.180026060811030   5.002978606422314 
  8.754130968292818   0.702444173560374   5.002978606422314 
  2.489191078650778   7.186108521191175  11.673616748318732 
 13.722083944843812   0.744479374101912   5.002978606422314 
 -1.244771702239308   9.342005223568458  11.673616748318732 
 -0.000001853496368   2.874493927553083  11.673616748318732 
  4.978562381995435   2.874390944894243  11.673616748318732 
  3.733907522019067   9.341991899318296  11.673616748318732 
  8.712845877907165   9.342150367558345  11.673616748318732 
  9.957524390036172   2.874445554215940  11.673616748318732 
 -3.748950642952421   9.333522327791735   5.002978606422314 
  1.211096552903318   9.406291751490704   5.002978606422314 
  2.525635160900958   2.846719260438971   5.002978606422314 
  6.229846150697401   9.391782328627640   5.002978606422314 
  7.549511977147651   2.790576149797658   5.002978606422314 
 12.484551405054237   2.887948609037223   5.002978606422314 
 -1.244673500116535   5.030277875113725  11.673616748318732 
 -2.489514769355575  11.497963458182964  11.673616748318732 
  2.489269818412867  11.497915764892589  11.673616748318732 
  3.733903641707574   5.030265270337706  11.673616748318732 
  7.468127061461067  11.498065431313087  11.673616748318732 
 -4.984269670561038  11.481493114554821   5.002978606422314 
  8.712781924770766   5.030326554566066  11.673616748318732 
  0.004077651543175  11.500334223895054   5.002978606422314 
  1.238763086399826   5.075647076316508   5.002978606422314 
 -0.034826477262185   7.216351603367474   5.002978606422314 
  6.416352278620332   4.849490328912675   5.002978606422314 
  4.995876303134444  11.539456908337428   5.002978606422314 
 11.220914004144806   5.029566002699184   5.002978606422314 
 -2.489375963993265   7.186128050712822  11.673616748318732 
  3.733896406724167   0.718629392128254  11.673616748318732 
  7.468094220999959   7.186201206497620  11.673616748318732 
  8.712736361143691   0.718555513677701  11.673616748318732 
 13.691636937767898   0.718681446630567  11.673616748318732 
  0.000399275932176   1.437669526367552   1.667831361467364 
  3.733868297035198   7.905532907142452   1.654122699580062 
  4.978900154675349   1.437048502447270   1.667210419134044 
  8.713088439365185   7.904998953610358   1.667604364799527 
  9.957914680707628   1.437080316738170   1.667546542782442 
 -4.978503036110307  10.061074971351632   8.338224195228522 
  0.000031623781506  10.060836810280749   8.338203356256427 
  1.244986950846975   3.593288548878847   8.340380989679154 
  4.978593962009126  10.061519541337743   8.339759113843884 
  6.223940785523463   3.592600842551282   8.351834513264551 
 11.202858515181555   3.592981823344342   8.338096712521521 
 -2.489175453380621  10.060853872609490   1.667627276388362 
 -1.244127720986173   3.593253516421264   1.667831361467364 
  3.733677410886695   3.591289395218722   1.660172338463735 
  2.489137311680078  10.061206124440972   1.667396302904008 
  7.468372334519088  10.061357323936649   1.667886005475969 
  8.713442813443256   3.592571572063516   1.666198099000743 
 -6.223223702805126  12.217118008871811   8.338033157732911 
 -1.244586691209687  12.216578967876275   8.338203356256427 
  0.000199339286293   5.749036222112225   8.338516240991073 
  4.980308981422843   5.749877728741708   8.358588357284571 
  3.734119710894366  12.217009420346423   8.338410670062187 
  9.958191515307965   5.748864001150766   8.338071207368660 
 -2.488820058820356   5.748941161519785   1.667924055111718 
 -3.733907115923393  12.216936870721741   1.667907368737662 
  1.244756394706196  12.216640430238085   1.667700992483104 
  2.487600863011100   5.749557286259302   1.660172338463735 
  6.223657100909397  12.217211653982588   1.667860500323106 
  7.468606187194151   5.748732686398053   1.655224612840040 
 -1.244318635619089   7.904843132896469   8.338049844106965 
  0.000399275932177   1.437669526367552   8.338125851377264 
  3.733868297035199   7.905532907142453   8.351834513264551 
  4.978900154675350   1.437048502447270   8.338746793710582 
  8.713088439365185   7.904998953610359   8.338352848045101 
 -3.733647767618026   7.904922398253190   1.667733017616105 
  9.957914680707628   1.437080316738170   8.338410670062187 
  2.489525394235921   1.437397018334444   1.667440971853556 
  1.244584895894040   7.905072262136262   1.667210419134044 
  6.223465948550424   7.905378842277440   1.655224612840040 
  7.468443061284153   1.436795579706819   1.667396302904008 
  1.244584895894041   7.905072262136263   8.338746793710582 
 12.447331892723781   1.437480423617322   1.667614604414385 
 -2.489175453380621  10.060853872609490   8.338329936456265 
 -1.244127720986173   3.593253516421265   8.338125851377264 
  3.733677410886696   3.591289395218723   8.345784874380893 
  2.489137311680078  10.061206124440972   8.338560909940620 
  7.468372334519088  10.061357323936649   8.338071207368660 
  8.713442813443256   3.592571572063517   8.339759113843884 
 -4.978503036110308  10.061074971351632   1.667733017616105 
  0.000031623781506  10.060836810280749   1.667753856588200 
  1.244986950846975   3.593288548878846   1.665576223165474 
  4.978593962009125  10.061519541337743   1.666198099000743 
  6.223940785523462   3.592600842551281   1.654122699580062 
 11.202858515181555   3.592981823344341   1.667860500323106 
 -2.488820058820356   5.748941161519786   8.338033157732911 
 -3.733907115923392  12.216936870721741   8.338049844106965 
  1.244756394706197  12.216640430238085   8.338256220361524 
  2.487600863011100   5.749557286259303   8.345784874380893 
  6.223657100909397  12.217211653982588   8.338096712521521 
 -6.223223702805127  12.217118008871811   1.667924055111718 
  7.468606187194152   5.748732686398053   8.350732600004587 
 -1.244586691209688  12.216578967876275   1.667753856588200 
  0.000199339286293   5.749036222112224   1.667440971853556 
 -1.244318635619089   7.904843132896468   1.667907368737662 
  4.980308981422843   5.749877728741708   1.647368855560058 
  3.734119710894365  12.217009420346423   1.667546542782442 
  9.958191515307965   5.748864001150765   1.667886005475969 
 -3.733647767618026   7.904922398253191   8.338224195228522 
  2.489525394235921   1.437397018334444   8.338516240991073 
  6.223465948550425   7.905378842277440   8.350732600004587 
  7.468443061284153   1.436795579706819   8.338560909940620 
 12.447331892723781   1.437480423617322   8.338342608430242 
  1.244818524177771   0.718572289419375   1.667360476781397 
  4.979169174038188   7.187707508009127   1.638637059060947 
  6.223879562609086   0.718543784304533   1.667918327447258 
  9.957596809328216   7.186205274929414   1.668797701689255 
 11.202525913529078   0.718791356440340   1.667269295406945 
 -3.734068937642577   9.342114284358367   8.338121883787279 
  1.244831261210386   9.342508415666659   8.338038885397356 
  2.489413416579143   2.874263990726704   8.344093917288165 
  6.223540615491538   9.342565900334565   8.338667422839137 
  7.468848157376319   2.874180244812965   8.340645542900097 
 12.447187961775743   2.874600020436006   8.338451678025852 
 -1.244609207982992   9.342227132502698   1.667806093129066 
  0.000194566567619   2.874607330729891   1.666875695237292 
  4.979528401321823   2.874477620588112   1.660729539186067 
  3.734151494718306   9.342864615394609   1.665311669944533 
  8.712849038529376   9.342171656561119   1.668797701689255 
  9.957987677740649   2.874398584376642   1.668053452290518 
 -4.978694585109590  11.497999689875549   8.338233753274999 
  0.000194194450363  11.498092108897144   8.338268278893478 
  1.244506650408479   5.030505760420578   8.344093917288165 
  6.224936192893865   5.029975736957465   8.367320153783680 
  4.978910342509270  11.498413503812106   8.337903760554109 
 11.202429808423801   5.030374335687296   8.337499909771596 
 -1.244674571851638   5.030500816834286   1.667360476781397 
 -2.489241343453021  11.497993227869754   1.667806093129066 
  2.489516818545989  11.498338810927928   1.667912120158646 
  3.733812517113067   5.030212659528537   1.653750201455049 
  7.468261178429100  11.498144126868031   1.668457303073030 
  8.713284022932443   5.030203820837223   1.667289790005491 
  0.000177351491638   7.186502144626995   8.338327017321804 
  1.244818524177771   0.718572289419376   8.338596736063245 
  4.979169174038189   7.187707508009128   8.367320153783680 
  6.223879562609087   0.718543784304534   8.338038885397356 
  9.957596809328216   7.186205274929415   8.337159511155372 
 -2.489330232550101   7.186294152691680   1.667723459569630 
 11.202525913529078   0.718791356440340   8.338687917437683 
  3.734396406310816   0.718645015088301   1.667630195522824 
  2.489749151666762   7.186901780621423   1.660729539186067 
  7.468279041592387   7.186307912716409   1.664422602855138 
  8.713226229823833   0.718557899050041   1.667912120158646 
  2.489749151666763   7.186901780621424   8.345227673658560 
 13.691842006371244   0.718795977350485   1.667505534818776 
 -1.244609207982992   9.342227132502698   8.338151119715562 
  0.000194566567620   2.874607330729892   8.339081517607337 
  4.979528401321824   2.874477620588113   8.345227673658560 
  3.734151494718307   9.342864615394609   8.340645542900097 
  8.712849038529376   9.342171656561119   8.337159511155372 
  9.957987677740649   2.874398584376642   8.337903760554109 
 -3.734068937642578   9.342114284358367   1.667835329057348 
  1.244831261210385   9.342508415666659   1.667918327447258 
  2.489413416579143   2.874263990726703   1.661863295556463 
  6.223540615491537   9.342565900334565   1.667289790005491 
  7.468848157376318   2.874180244812965   1.665311669944533 
 12.447187961775743   2.874600020436005   1.667505534818776 
 -1.244674571851637   5.030500816834287   8.338596736063245 
 -2.489241343453021  11.497993227869754   8.338151119715562 
  2.489516818545990  11.498338810927928   8.338045092685981 
  3.733812517113068   5.030212659528538   8.352207011389577 
  7.468261178429101  11.498144126868031   8.337499909771596 
 -4.978694585109591  11.497999689875549   1.667723459569630 
  8.713284022932443   5.030203820837224   8.338667422839137 
  0.000194194450363  11.498092108897144   1.667688933951150 
  1.244506650408478   5.030505760420577   1.661863295556463 
  0.000177351491638   7.186502144626994   1.667630195522824 
  6.224936192893864   5.029975736957464   1.638637059060947 
  4.978910342509269  11.498413503812106   1.668053452290518 
 11.202429808423801   5.030374335687295   1.668457303073030 
 -2.489330232550100   7.186294152691681   8.338233753274999 
  3.734396406310816   0.718645015088302   8.338327017321804 
  7.468279041592388   7.186307912716410   8.341534609989489 
  8.713226229823833   0.718557899050041   8.338045092685981 
 13.691842006371244   0.718795977350486   8.338451678025852 
  0.029298364000146   1.456934203129702   5.002978606422314 
  3.654537754750045   8.047941582971838   5.002978606422314 
  5.019001793446652   1.328840815354187   5.002978606422314 
  8.698653120529611   7.896664718394819   5.002978606422314 
  9.990309230290006   1.437648111392749   5.002978606422314 
 -4.978867787329501  10.060689185917802  11.673616748318732 
 -0.000089042516775  10.060691237385573  11.673616748318732 
  1.244624046556974   3.593079025989316  11.673616748318732 
  4.978708446621156  10.060641775640477  11.673616748318732 
  6.223348353546593   3.593013494370742  11.673616748318732 
 11.202152271698967   3.593106221343404  11.673616748318732 
 -2.508184922341977  10.049878750587510   5.002978606422314 
 -1.212994477480470   3.608648522453255   5.002978606422314 
  3.814054540583103   3.399876891947469   5.002978606422314 
  2.459907459339667  10.128451520969213   5.002978606422314 
  7.473822442198665  10.079561404639843   5.002978606422314 
  8.757315056669800   3.571566463144006   5.002978606422314 
 -6.223568176513139  12.216537476350426  11.673616748318732 
 -1.244773094184153  12.216547254244174  11.673616748318732 
 -0.000108639030032   5.748940432210059  11.673616748318732 
  4.978642912856592   5.748915823606493  11.673616748318732 
  3.733992794255776  12.216530554826265  11.673616748318732 
  9.957476015790371   5.748968558476303  11.673616748318732 
 -2.488545116982332   5.755929764863680   5.002978606422314 
 -3.737837854655195  12.181795645742236   5.002978606422314 
  1.252546746524236  12.221138191957321   5.002978606422314 
  2.362021337424427   5.914872174095295   5.002978606422314 
  6.242671566365180  12.243603041700545   5.002978606422314 
  7.508184366552346   5.730600318957445   5.002978606422314 
 -1.244805812162989   7.904792306560775  11.673616748318732 
 -0.000077330169850   1.437187471744977  11.673616748318732 
  3.733929448005341   7.904813520090727  11.673616748318732 
  4.978681924960116   1.437174719385580  11.673616748318732 
  8.712823765114884   7.904846143860700  11.673616748318732 
 -3.751426568814184   7.900876412649553   5.002978606422314 
  9.957436512682879   1.437209836465071  11.673616748318732 
  2.503351769178828   1.403757394692617   5.002978606422314 
  1.170925109372318   7.993905143592151   5.002978606422314 
  6.227551947395209   7.948720734757465   5.002978606422314 
  7.512064356794955   1.377859086767046   5.002978606422314 
  1.244585088111387   7.904820161189854  11.673616748318732 
 12.477810719435199   1.455077382423752   5.002978606422314 
 -2.489485555511274  10.060674835060892  11.673616748318732 
 -1.244783495586349   3.593081790740599  11.673616748318732 
  3.734032643066235   3.593061786603517  11.673616748318732 
  2.489279663025458  10.060665595952251  11.673616748318732 
  7.468105134060336  10.060685404515292  11.673616748318732 
  8.712739888356868   3.593109601494513  11.673616748318732 
 -4.990896363024484  10.047701070668746   5.002978606422314 
 -0.029044311018163  10.084168947806589   5.002978606422314 
  1.290905312442822   3.619799527306956   5.002978606422314 
  4.982339125688836  10.110016572952706   5.002978606422314 
  6.307605045368442   3.452694239721638   5.002978606422314 
 11.235221360114323   3.596253139609451   5.002978606422314 
 -2.489495051585597   5.748933104798392  11.673616748318732 
 -3.734194721093233  12.216540376626442  11.673616748318732 
  1.244590290486647  12.216544529922215  11.673616748318732 
  2.489313415065550   5.748978730658627  11.673616748318732 
  6.223411710995466  12.216537830185890  11.673616748318732 
 -6.217033923853331  12.213861813816155   5.002978606422314 
  7.468128978422237   5.749012352104717  11.673616748318732 
 -1.238918434787560  12.179732400938075   5.002978606422314 
 -0.022020241889816   5.777830025875931   5.002978606422314 
 -1.276717198537352   7.919009625788853   5.002978606422314 
  3.750808710280544  12.244780025901640   5.002978606422314 
  9.976681765489239   5.744481892503058   5.002978606422314 
 -3.734164243213724   7.904799407148209  11.673616748318732 
  2.489288448589058   1.437178196239775  11.673616748318732 
  6.223469541771006   7.904825734504722  11.673616748318732 
  7.468046125554134   1.437189123832555  11.673616748318732 
 12.446863236348538   1.437209844732919  11.673616748318732 
Generated by cif2cell 2.0.0.  :  Failed to get author information, No journal information. Species order: Pb B N 
 1.0
 14.936314146199660   0.000000000000000   0.000000000000000
 -7.468157073099825  12.935227489513863   0.000000000000000
  0.000000000000001   0.000000000000001  13.341276283792837
 Pb B N 
   1 143 143
Cartesian
  4.353518122497782   5.387999857615725   5.002978606422314 
  1.258889998319652   0.713391481771008   5.002978606422314 
  4.918572268522222   7.443721404963648   5.002978606422314 
  6.262250197617290   0.657437002009333   5.002978606422314 
  9.949325716922610   7.181097463003528   5.002978606422314 
 11.235459994813679   0.737805857135527   5.002978606422314 
 -3.734113725523767   9.342088426063123  11.673616748318732 
  1.244540452625657   9.341978748554359  11.673616748318732 
  2.489221563763004   2.874442590001703  11.673616748318732 
  6.223395856937792   9.342069703706915  11.673616748318732 
  7.467970376734328   2.874405316295736  11.673616748318732 
 12.446986240961106   2.874479691175950  11.673616748318732 
 -1.265067456361020   9.349220657506585   5.002978606422314 
  0.044492243316803   2.900182606325516   5.002978606422314 
  5.035493181973170   2.732456585826497   5.002978606422314 
  3.702080134460310   9.454523579990527   5.002978606422314 
  8.704289997441016   9.337562586383733   5.002978606422314 
 10.002015289029959   2.868569835015002   5.002978606422314 
 -4.978861299364497  11.498043136273472  11.673616748318732 
 -0.000129468354332  11.497905242089734  11.673616748318732 
  1.244565395509663   5.030250311370501  11.673616748318732 
  6.223237659547123   5.030269880435825  11.673616748318732 
  4.978719375731082  11.497988799971109  11.673616748318732 
 11.202294597590045   5.030297534763360  11.673616748318732 
 -1.242125545816297   5.045277474734023   5.002978606422314 
 -2.493413897326669  11.476779102555509   5.002978606422314 
  2.496014292156815  11.541820216322071   5.002978606422314 
  7.476803239387180  11.514556076425000   5.002978606422314 
  8.759059467720713   5.011056360363424   5.002978606422314 
 -0.000086178181977   7.186076943763110  11.673616748318732 
  1.244625986851759   0.718684688429470  11.673616748318732 
  4.978574643089434   7.186089463242494  11.673616748318732 
  6.223275453141920   0.718556770238671  11.673616748318732 
  9.957576792199902   7.186213182251648  11.673616748318732 
 -2.506412888833062   7.189719274722832   5.002978606422314 
 11.202222399288527   0.718616122411847  11.673616748318732 
  3.742744881492375   0.673406080787531   5.002978606422314 
  2.394737718017117   7.306379219763537   5.002978606422314 
  7.457398554926661   7.180026060811030   5.002978606422314 
  8.754130968292818   0.702444173560374   5.002978606422314 
  2.489191078650778   7.186108521191175  11.673616748318732 
 13.722083944843812   0.744479374101912   5.002978606422314 
 -1.244771702239308   9.342005223568458  11.673616748318732 
 -0.000001853496368   2.874493927553083  11.673616748318732 
  4.978562381995435   2.874390944894243  11.673616748318732 
  3.733907522019067   9.341991899318296  11.673616748318732 
  8.712845877907165   9.342150367558345  11.673616748318732 
  9.957524390036172   2.874445554215940  11.673616748318732 
 -3.748950642952421   9.333522327791735   5.002978606422314 
  1.211096552903318   9.406291751490704   5.002978606422314 
  2.525635160900958   2.846719260438971   5.002978606422314 
  6.229846150697401   9.391782328627640   5.002978606422314 
  7.549511977147651   2.790576149797658   5.002978606422314 
 12.484551405054237   2.887948609037223   5.002978606422314 
 -1.244673500116535   5.030277875113725  11.673616748318732 
 -2.489514769355575  11.497963458182964  11.673616748318732 
  2.489269818412867  11.497915764892589  11.673616748318732 
  3.733903641707574   5.030265270337706  11.673616748318732 
  7.468127061461067  11.498065431313087  11.673616748318732 
 -4.984269670561038  11.481493114554821   5.002978606422314 
  8.712781924770766   5.030326554566066  11.673616748318732 
  0.004077651543175  11.500334223895054   5.002978606422314 
  1.238763086399826   5.075647076316508   5.002978606422314 
 -0.034826477262185   7.216351603367474   5.002978606422314 
  6.416352278620332   4.849490328912675   5.002978606422314 
  4.995876303134444  11.539456908337428   5.002978606422314 
 11.220914004144806   5.029566002699184   5.002978606422314 
 -2.489375963993265   7.186128050712822  11.673616748318732 
  3.733896406724167   0.718629392128254  11.673616748318732 
  7.468094220999959   7.186201206497620  11.673616748318732 
  8.712736361143691   0.718555513677701  11.673616748318732 
 13.691636937767898   0.718681446630567  11.673616748318732 
  0.000399275932176   1.437669526367552   1.667831361467364 
  3.733868297035198   7.905532907142452   1.654122699580062 
  4.978900154675349   1.437048502447270   1.667210419134044 
  8.713088439365185   7.904998953610358   1.667604364799527 
  9.957914680707628   1.437080316738170   1.667546542782442 
 -4.978503036110307  10.061074971351632   8.338224195228522 
  0.000031623781506  10.060836810280749   8.338203356256427 
  1.244986950846975   3.593288548878847   8.340380989679154 
  4.978593962009126  10.061519541337743   8.339759113843884 
  6.223940785523463   3.592600842551282   8.351834513264551 
 11.202858515181555   3.592981823344342   8.338096712521521 
 -2.489175453380621  10.060853872609490   1.667627276388362 
 -1.244127720986173   3.593253516421264   1.667831361467364 
  3.733677410886695   3.591289395218722   1.660172338463735 
  2.489137311680078  10.061206124440972   1.667396302904008 
  7.468372334519088  10.061357323936649   1.667886005475969 
  8.713442813443256   3.592571572063516   1.666198099000743 
 -6.223223702805126  12.217118008871811   8.338033157732911 
 -1.244586691209687  12.216578967876275   8.338203356256427 
  0.000199339286293   5.749036222112225   8.338516240991073 
  4.980308981422843   5.749877728741708   8.358588357284571 
  3.734119710894366  12.217009420346423   8.338410670062187 
  9.958191515307965   5.748864001150766   8.338071207368660 
 -2.488820058820356   5.748941161519785   1.667924055111718 
 -3.733907115923393  12.216936870721741   1.667907368737662 
  1.244756394706196  12.216640430238085   1.667700992483104 
  2.487600863011100   5.749557286259302   1.660172338463735 
  6.223657100909397  12.217211653982588   1.667860500323106 
  7.468606187194151   5.748732686398053   1.655224612840040 
 -1.244318635619089   7.904843132896469   8.338049844106965 
  0.000399275932177   1.437669526367552   8.338125851377264 
  3.733868297035199   7.905532907142453   8.351834513264551 
  4.978900154675350   1.437048502447270   8.338746793710582 
  8.713088439365185   7.904998953610359   8.338352848045101 
 -3.733647767618026   7.904922398253190   1.667733017616105 
  9.957914680707628   1.437080316738170   8.338410670062187 
  2.489525394235921   1.437397018334444   1.667440971853556 
  1.244584895894040   7.905072262136262   1.667210419134044 
  6.223465948550424   7.905378842277440   1.655224612840040 
  7.468443061284153   1.436795579706819   1.667396302904008 
  1.244584895894041   7.905072262136263   8.338746793710582 
 12.447331892723781   1.437480423617322   1.667614604414385 
 -2.489175453380621  10.060853872609490   8.338329936456265 
 -1.244127720986173   3.593253516421265   8.338125851377264 
  3.733677410886696   3.591289395218723   8.345784874380893 
  2.489137311680078  10.061206124440972   8.338560909940620 
  7.468372334519088  10.061357323936649   8.338071207368660 
  8.713442813443256   3.592571572063517   8.339759113843884 
 -4.978503036110308  10.061074971351632   1.667733017616105 
  0.000031623781506  10.060836810280749   1.667753856588200 
  1.244986950846975   3.593288548878846   1.665576223165474 
  4.978593962009125  10.061519541337743   1.666198099000743 
  6.223940785523462   3.592600842551281   1.654122699580062 
 11.202858515181555   3.592981823344341   1.667860500323106 
 -2.488820058820356   5.748941161519786   8.338033157732911 
 -3.733907115923392  12.216936870721741   8.338049844106965 
  1.244756394706197  12.216640430238085   8.338256220361524 
  2.487600863011100   5.749557286259303   8.345784874380893 
  6.223657100909397  12.217211653982588   8.338096712521521 
 -6.223223702805127  12.217118008871811   1.667924055111718 
  7.468606187194152   5.748732686398053   8.350732600004587 
 -1.244586691209688  12.216578967876275   1.667753856588200 
  0.000199339286293   5.749036222112224   1.667440971853556 
 -1.244318635619089   7.904843132896468   1.667907368737662 
  4.980308981422843   5.749877728741708   1.647368855560058 
  3.734119710894365  12.217009420346423   1.667546542782442 
  9.958191515307965   5.748864001150765   1.667886005475969 
 -3.733647767618026   7.904922398253191   8.338224195228522 
  2.489525394235921   1.437397018334444   8.338516240991073 
  6.223465948550425   7.905378842277440   8.350732600004587 
  7.468443061284153   1.436795579706819   8.338560909940620 
 12.447331892723781   1.437480423617322   8.338342608430242 
  1.244818524177771   0.718572289419375   1.667360476781397 
  4.979169174038188   7.187707508009127   1.638637059060947 
  6.223879562609086   0.718543784304533   1.667918327447258 
  9.957596809328216   7.186205274929414   1.668797701689255 
 11.202525913529078   0.718791356440340   1.667269295406945 
 -3.734068937642577   9.342114284358367   8.338121883787279 
  1.244831261210386   9.342508415666659   8.338038885397356 
  2.489413416579143   2.874263990726704   8.344093917288165 
  6.223540615491538   9.342565900334565   8.338667422839137 
  7.468848157376319   2.874180244812965   8.340645542900097 
 12.447187961775743   2.874600020436006   8.338451678025852 
 -1.244609207982992   9.342227132502698   1.667806093129066 
  0.000194566567619   2.874607330729891   1.666875695237292 
  4.979528401321823   2.874477620588112   1.660729539186067 
  3.734151494718306   9.342864615394609   1.665311669944533 
  8.712849038529376   9.342171656561119   1.668797701689255 
  9.957987677740649   2.874398584376642   1.668053452290518 
 -4.978694585109590  11.497999689875549   8.338233753274999 
  0.000194194450363  11.498092108897144   8.338268278893478 
  1.244506650408479   5.030505760420578   8.344093917288165 
  6.224936192893865   5.029975736957465   8.367320153783680 
  4.978910342509270  11.498413503812106   8.337903760554109 
 11.202429808423801   5.030374335687296   8.337499909771596 
 -1.244674571851638   5.030500816834286   1.667360476781397 
 -2.489241343453021  11.497993227869754   1.667806093129066 
  2.489516818545989  11.498338810927928   1.667912120158646 
  3.733812517113067   5.030212659528537   1.653750201455049 
  7.468261178429100  11.498144126868031   1.668457303073030 
  8.713284022932443   5.030203820837223   1.667289790005491 
  0.000177351491638   7.186502144626995   8.338327017321804 
  1.244818524177771   0.718572289419376   8.338596736063245 
  4.979169174038189   7.187707508009128   8.367320153783680 
  6.223879562609087   0.718543784304534   8.338038885397356 
  9.957596809328216   7.186205274929415   8.337159511155372 
 -2.489330232550101   7.186294152691680   1.667723459569630 
 11.202525913529078   0.718791356440340   8.338687917437683 
  3.734396406310816   0.718645015088301   1.667630195522824 
  2.489749151666762   7.186901780621423   1.660729539186067 
  7.468279041592387   7.186307912716409   1.664422602855138 
  8.713226229823833   0.718557899050041   1.667912120158646 
  2.489749151666763   7.186901780621424   8.345227673658560 
 13.691842006371244   0.718795977350485   1.667505534818776 
 -1.244609207982992   9.342227132502698   8.338151119715562 
  0.000194566567620   2.874607330729892   8.339081517607337 
  4.979528401321824   2.874477620588113   8.345227673658560 
  3.734151494718307   9.342864615394609   8.340645542900097 
  8.712849038529376   9.342171656561119   8.337159511155372 
  9.957987677740649   2.874398584376642   8.337903760554109 
 -3.734068937642578   9.342114284358367   1.667835329057348 
  1.244831261210385   9.342508415666659   1.667918327447258 
  2.489413416579143   2.874263990726703   1.661863295556463 