 C B N 
 1.0
 14.936314146199660   0.000000000000000   0.000000000000000
 -7.468157073099825  12.935227489513863   0.000000000000000
  0.000000000000001   0.000000000000001  13.341276283792837
 C B N 
   1 142 144
Cartesian
  3.722203202314085   5.067958972626013   5.002978606422314 
  1.251600874554352   0.727042238162561   5.002978606422314 
  4.942963483184563   7.147825050723300   5.002978606422314 
  6.221797906877518   0.747467504331704   5.002978606422314 
  9.961930126678133   7.184636755448754   5.002978606422314 
 11.209626717783909   0.709702762311510   5.002978606422314 
 -3.734476850623484   9.341863342209477  11.673616748318732 
  1.244332249744577   9.342005930245081  11.673616748318732 
  2.489450705319206   2.874379206739118  11.673616748318732 
  6.223111859795392   9.341591284435649  11.673616748318732 
  7.467603937461866   2.874490574081865  11.673616748318732 
 12.446247227650286   2.874342860810079  11.673616748318732 
 -1.246749916603501   9.350707557913477   5.002978606422314 
 -0.005171061328693   2.867944759460845   5.002978606422314 
  4.992799334199596   2.946615662305708   5.002978606422314 
  3.728016100324199   9.344246416768245   5.002978606422314 
  8.712314607019664   9.335897679779888   5.002978606422314 
  9.979018851413922   2.865488918108167   5.002978606422314 
 -4.979035708892925  11.497752550493860  11.673616748318732 
 -0.000392379940244  11.497948669783085  11.673616748318732 
  1.244506124187240   5.030234314599713  11.673616748318732 
  6.223222002128378   5.030005461788550  11.673616748318732 
  4.978317891106880  11.497732287207254  11.673616748318732 
 11.201513591957596   5.030190073283502  11.673616748318732 
 -1.237585232594900   5.029222023234825   5.002978606422314 
 -2.488932724673385  11.513920883667788   5.002978606422314 
  2.488320761083395  11.498137929551634   5.002978606422314 
  7.469719159939109  11.489076730434817   5.002978606422314 
  8.740222793035731   5.019069948445310   5.002978606422314 
 -0.000385199123406   7.186122033944324  11.673616748318732 
  1.244466554493113   0.718423902521223  11.673616748318732 
  4.978632097380234   7.185672344955726  11.673616748318732 
  6.223252838885710   0.718621750012721  11.673616748318732 
  9.956985234268039   7.185873340439703  11.673616748318732 
 -2.486458130405764   7.189847241679206   5.002978606422314 
 11.201581827719355   0.718525502188574  11.673616748318732 
  3.741744054365419   0.744828153991931   5.002978606422314 
  2.488656887076905   7.188898634693659   5.002978606422314 
  7.458871976611770   7.150655757630047   5.002978606422314 
  8.718221978563008   0.720367050009308   5.002978606422314 
  2.489222737949029   7.186070569727574  11.673616748318732 
 13.695635125229231   0.709575573315354   5.002978606422314 
 -1.245074315177473   9.341984047476780  11.673616748318732 
 -0.000376579313625   2.874311974989771  11.673616748318732 
  4.978944567371483   2.874473381111219  11.673616748318732 
  3.733756668839060   9.341829560551437  11.673616748318732 
  8.712456954157648   9.341670994051546  11.673616748318732 
  9.956743712457181   2.874425570189528  11.673616748318732 
 -3.733443118652703   9.349602955719270   5.002978606422314 
  1.241062778314919   9.343676719051023   5.002978606422314 
  2.482827548053339   2.903686745261964   5.002978606422314 
  6.216158836011347   9.311616614112959   5.002978606422314 
  7.492161077768376   2.892117863266583   5.002978606422314 
 12.456298771374623   2.867346505362774   5.002978606422314 
 -1.245250308160099   5.030207235857502  11.673616748318732 
 -2.489605691677855  11.497875950222433  11.673616748318732 
  2.488881661819773  11.497884557580926  11.673616748318732 
  3.734270604631428   5.030230672396470  11.673616748318732 
  7.467790061476495  11.497663725722488  11.673616748318732 
 -4.975119637026574  11.506251302858388   5.002978606422314 
  8.712173659664129   5.030103357862379  11.673616748318732 
 -0.004093804302474  11.509189980800778   5.002978606422314 
  1.235112475995483   5.018701649415418   5.002978606422314 
 -0.002926020377276   7.189815693982400   5.002978606422314 
  4.981761186191641  11.486478652858827   5.002978606422314 
 11.222116949948509   5.027611925116322   5.002978606422314 
 -2.489924773655040   7.186034333158512  11.673616748318732 
  3.734082948150073   0.718532282457840  11.673616748318732 
  7.467741901449476   7.185635044640393  11.673616748318732 
  8.712244823480470   0.718616524247755  11.673616748318732 
 13.691132040032524   0.718406340837609  11.673616748318732 
 -0.000345590709138   1.436328319256261   1.667469357969541 
  3.735289664551339   7.903772339572577   1.669318884813445 
  4.979007357696836   1.438269365851989   1.669841023825140 
  8.711489317223622   7.903601113658253   1.670162623644375 
  9.956906789566638   1.437215658880882   1.667839737726909 
 -4.979494634511128  10.060146818999124   8.338365725735434 
 -0.000455972682274  10.060942683227113   8.338337909807453 
  1.244541835766768   3.592141290121332   8.338626917315047 
  4.979004970837783  10.059965901136675   8.337971575653182 
  6.223667723728494   3.595031967817708   8.328253626585598 
 11.201166107874180   3.592586174520510   8.338571530879346 
 -2.490035961408557  10.060767274394477   1.667610055877245 
 -1.245449315852039   3.592463095035223   1.667281040123103 
  3.735412426335959   3.592932743728112   1.668095323718249 
  2.489386518415292  10.060456069686042   1.667660072122661 
  7.467836239072621  10.059803166895193   1.667763926112045 
  8.711395274830855   3.593064949763841   1.671296280537278 
 -6.223724985010046  12.215855734401629   8.338442795313087 
 -1.245041202638501  12.217356240957869   8.338025820754558 
 -0.000602781855488   5.748544867235089   8.338584753000502 
  4.981349828195983   5.746780668294565   8.331480039132838 
  3.733847308309425  12.216258800687797   8.338398619670251 
  9.955767505109842   5.747874349617745   8.336085902184678 
 -2.490592204554642   5.748418500579178   1.667463375294457 
 -3.734312694548860  12.216572403707151   1.667644381551098 
  1.244255458269683  12.216959925583019   1.667715039695065 
  2.490684653205762   5.747901028051038   1.666334468402558 
  6.223214043221732  12.215842014055644   1.667565501195555 
  7.465834042241383   5.746954560263661   1.676538149044704 
 -1.245535578429421   7.904713300285780   8.338405515609184 
 -0.000345590709138   1.436328319256262   8.338487854875085 
  3.735289664551340   7.903772339572578   8.336638328031182 
  4.979007357696837   1.438269365851989   8.336116189019489 
  8.711489317223622   7.903601113658254   8.335794589200253 
 -3.735254735377418   7.904269004055882   1.668023757141378 
  9.956906789566638   1.437215658880882   8.338117475117718 
  2.489448891077193   1.436531171971197   1.667804578217284 
  1.244635502472385   7.904576283675889   1.667638919320709 
  6.223654250997633   7.903225977027490   1.672125769439782 
  7.467658658678780   1.438552146412461   1.670055156304175 
  1.244635502472386   7.904576283675889   8.338318293523919 
 12.446376678255994   1.436602845929887   1.667404407482137 
 -2.490035961408556  10.060767274394477   8.338347156967384 
 -1.245449315852039   3.592463095035224   8.338676172721526 
  3.735412426335960   3.592932743728113   8.337861889126380 
  2.489386518415292  10.060456069686042   8.338297140721966 
  7.467836239072622  10.059803166895193   8.338193286732583 
  8.711395274830855   3.593064949763842   8.334660932307337 
 -4.979494634511129  10.060146818999124   1.667591487109193 
 -0.000455972682275  10.060942683227113   1.667619303037175 
  1.244541835766768   3.592141290121331   1.667330295529568 
  4.979004970837782  10.059965901136675   1.667985637191446 
  6.223667723728493   3.595031967817707   1.677703586259030 
 11.201166107874180   3.592586174520509   1.667385681965282 
 -2.490592204554641   5.748418500579179   8.338493837550171 
 -3.734312694548859  12.216572403707151   8.338312831293530 
  1.244255458269684  12.216959925583019   8.338242173149577 
  2.490684653205762   5.747901028051039   8.339622744442069 
  6.223214043221733  12.215842014055644   8.338391711649074 
 -6.223724985010047  12.215855734401629   1.667514417531527 
  7.465834042241384   5.746954560263662   8.329419063799923 
 -1.245041202638501  12.217356240957869   1.667931392090057 
 -0.000602781855489   5.748544867235088   1.667372459844126 
 -1.245535578429422   7.904713300285779   1.667551697235444 
  4.981349828195982   5.746780668294564   1.674477173711790 
  3.733847308309424  12.216258800687797   1.667558593174376 
  9.955767505109842   5.747874349617744   1.669871310659950 
 -3.735254735377417   7.904269004055883   8.337933455703237 
  2.489448891077193   1.436531171971197   8.338152634627344 
  6.223654250997634   7.903225977027491   8.333831443404847 
  7.467658658678781   1.438552146412462   8.335902056540453 
 12.446376678255994   1.436602845929888   8.338552805362506 
  4.823015436995947   5.724389537571541   5.002978606422314 
  1.244309668437744   0.718118849634632   1.668478008413872 
  4.978567966280022   7.185498485397575   1.673343630114980 
  6.223094101008495   0.718571867536827   1.668399994992780 
  9.957060352727709   7.185709190515766   1.669498674021577 
 11.202142546086080   0.718027344731776   1.667643624147819 
 -3.734521415126966   9.341692629268477   8.337884157245634 
  1.244388499702331   9.341631387207457   8.337369750427163 
  2.488906433713256   2.874085339701030   8.335677491534359 
  6.223192061042240   9.341546078513835   8.336742459025700 
  7.468048827397348   2.874310079951961   8.335753378818461 
 12.446751426499612   2.873941840174077   8.338019138562016 
 -1.245105887797394   9.341776399199142   1.668151924594707 
 -0.000344999339251   2.873906045981450   1.668819139061697 
  4.978078640798374   2.874366000095926   1.670477207975021 
  3.733899754588165   9.341378879906479   1.669089382930207 
  8.712462017796318   9.341661394914855   1.668061105593386 
  9.957440786081429   2.873965250416037   1.668046144642709 
 -4.979151812065771  11.497651515872892   8.338157774466659 
 -0.000358099710986  11.497759322254719   8.338102798465730 
  1.244457026815144   5.029812767287884   8.335609851862143 
  6.222990483956578   5.029994944721447   8.344790617606593 
  4.978592806700530  11.497406541244466   8.337876850800955 
 11.201954416872351   5.029862887780824   8.338117608993237 
 -1.244997627737349   5.029898856511902   1.668498825756970 
 -2.489749454065638  11.497795474650623   1.667757937987182 
  2.489111325879966  11.497487740381144   1.668103080255885 
  3.733520309867879   5.029801144681954   1.669773021502507 
  7.467887585691964  11.497481128745930   1.668071784453143 
  8.712653216466959   5.029844057041274   1.671015126491933 
 -0.000320070212184   7.185785220266637   8.337123412122814 
  1.244309668437744   0.718118849634632   8.337479204430755 
  4.978567966280023   7.185498485397575   8.332613582729648 
  6.223094101008495   0.718571867536828   8.337557217851849 
  9.957060352727709   7.185709190515767   8.336458538823036 
 -2.489858158873402   7.185808358745651   1.668336287298292 
 11.202142546086080   0.718027344731777   8.338313588696902 
  3.733639175364394   0.718429676177720   1.668340358838738 
  2.489212229441522   7.185551994224899   1.670348820739081 
  7.467753783783632   7.185796077174957   1.671992057870645 
  8.712583565217459   0.718357630337797   1.668008698703647 
  2.489212229441522   7.185551994224900   8.335608392105639 
 13.691426753513529   0.718011636076583   1.668266664459498 
 -1.245105887797394   9.341776399199142   8.337805288249919 
 -0.000344999339251   2.873906045981451   8.337138073782931 
  4.978078640798375   2.874366000095927   8.335480004869606 
  3.733899754588166   9.341378879906479   8.336867829914421 
  8.712462017796318   9.341661394914855   8.337896107251336 
  9.957440786081429   2.873965250416038   8.337911068201919 
 -3.734521415126967   9.341692629268477   1.668073055598980 
  1.244388499702331   9.341631387207457   1.668587462417465 
  2.488906433713255   2.874085339701029   1.670279721310268 
  6.223192061042239   9.341546078513835   1.669214753818928 
  7.468048827397347   2.874310079951960   1.670203834026166 
 12.446751426499612   2.873941840174076   1.667938074282625 
 -1.244997627737349   5.029898856511902   8.337458387087670 
 -2.489749454065638  11.497795474650623   8.338199274857445 
  2.489111325879966  11.497487740381144   8.337854132588744 
  3.733520309867880   5.029801144681955   8.336184191342120 
  7.467887585691965  11.497481128745930   8.337885428391484 
 -4.979151812065772  11.497651515872892   1.667799438377956 
  8.712653216466959   5.029844057041275   8.334942086352694 
 -0.000358099710986  11.497759322254719   1.667854414378884 
  1.244457026815144   5.029812767287883   1.670347360982484 
 -0.000320070212185   7.185785220266636   1.668833800721813 
  6.222990483956577   5.029994944721446   1.661166595238128 
  4.978592806700529  11.497406541244466   1.668080362043673 
 11.201954416872351   5.029862887780823   1.667839603851391 
 -2.489858158873402   7.185808358745652   8.337620925546322 
  3.733639175364395   0.718429676177721   8.337616854005876 
  7.467753783783633   7.185796077174958   8.333965154973971 
  8.712583565217459   0.718357630337798   8.337948514140981 
 13.691426753513529   0.718011636076584   8.337690548385130 
  0.002515733131915   1.434604723358530   5.002978606422314 
  3.718519408366818   7.905562866125810   5.002978606422314 
  4.973745793544172   1.480048638072899   5.002978606422314 
  8.709371952949876   7.898376944507724   5.002978606422314 
  9.970490421671846   1.428937813456892   5.002978606422314 
 -4.979104521423603  10.060561149407041  11.673616748318732 
 -0.000362626823354  10.060506646702237  11.673616748318732 
  1.244358467837797   3.592959708041395  11.673616748318732 
  4.978358235156706  10.060533073641299  11.673616748318732 
  6.223078783576402   3.592852203417122  11.673616748318732 
 11.201868450348856   3.592956209885777  11.673616748318732 
 -2.490031994499431  10.071973684166680   5.002978606422314 
 -1.239121042648345   3.591798088180432   5.002978606422314 
  3.714538846080071   3.677567465471820   5.002978606422314 
  2.484951399605024  10.059878544587637   5.002978606422314 
  7.462013385888267  10.045490458086633   5.002978606422314 
  8.749913331646560   3.587344154565794   5.002978606422314 
 -6.223833428554691  12.216471526819321  11.673616748318732 
 -1.245017819703575  12.216357396044502  11.673616748318732 
 -0.000344263075226   5.748797214840815  11.673616748318732 
  4.978295720784003   5.748836020859353  11.673616748318732 
  3.733669700679726  12.216388327215640  11.673616748318732 
  9.957236342583727   5.748833385457577  11.673616748318732 
 -2.474105134479586   5.751836188109714   5.002978606422314 
 -3.732917845657566  12.236285862967659   5.002978606422314 
  1.245660835095943  12.217701358582936   5.002978606422314 
  2.497346548115783   5.728041874466991   5.002978606422314 
  6.226237429628600  12.207328564308630   5.002978606422314 
  7.521650939927544   5.731844761728603   5.002978606422314 
 -1.245040916037608   7.904622225538547  11.673616748318732 
 -0.000348034969346   1.437069005597606  11.673616748318732 
  3.733659069740834   7.904629725630895  11.673616748318732 
  4.978454306689522   1.436999169442987  11.673616748318732 
  8.712534143326021   7.904655609088442  11.673616748318732 
 -3.731623410246439   7.909619439061159   5.002978606422314 
  9.957118896855860   1.437011674381092  11.673616748318732 
  2.495265041753485   1.465774625420718   5.002978606422314 
  1.243340233035629   7.899341540448003   5.002978606422314 
  6.202636973285331   7.864670187778614   5.002978606422314 
  7.478793446570178   1.441272878191089   5.002978606422314 
  1.244332235381180   7.904633190154185  11.673616748318732 
 12.454958124337386   1.430062353753846   5.002978606422314 
 -2.489707021666423  10.060508733283099  11.673616748318732 
 -1.245041694391486   3.592948244836054  11.673616748318732 
  3.733715362156584   3.592961723699283  11.673616748318732 
  2.488974439017208  10.060500025222746  11.673616748318732 
  7.467780592318549  10.060580528943369  11.673616748318732 
  8.712471123325939   3.592900758846838  11.673616748318732 
 -4.979337847305750  10.065782458451929   5.002978606422314 
 -0.002012223927680  10.066660314781174   5.002978606422314 
  1.235724443566191   3.595050111019749   5.002978606422314 
  4.977889855085865  10.047128039782402   5.002978606422314 
  6.251426703470049   3.534220108641513   5.002978606422314 
 11.220398328706231   3.589389620150971   5.002978606422314 
 -2.489736070202456   5.748820219616687  11.673616748318732 
 -3.734401589853519  12.216410594284376  11.673616748318732 
  1.244269697430159  12.216364461554445  11.673616748318732 
  2.489005275962820   5.748834965229162  11.673616748318732 
  6.223107898894430  12.216446048882009  11.673616748318732 
 -6.221826024911597  12.221030917715515   5.002978606422314 
  7.467817167000457   5.748800626568132  11.673616748318732 
 -1.247453926816336  12.235628333479742   5.002978606422314 
  0.008132257795828   5.751346693888089   5.002978606422314 
 -1.243570470766732   7.910549018175288   5.002978606422314 
  3.738572937389073  12.207261739301860   5.002978606422314 
  9.986618643641020   5.747503230919518   5.002978606422314 
 -3.734391559204425   7.904650528096962  11.673616748318732 
  2.489039604736606   1.437072268172928  11.673616748318732 
  6.223029966851640   7.904638460470609  11.673616748318732 
  7.467771411445679   1.436962242887986  11.673616748318732 
 12.446572577291848   1.437047261483701  11.673616748318732 
Generated by cif2cell 2.0.0.  :  Failed to get author information, No journal information. Species order: C B N 
 1.0
 14.936314146199660   0.000000000000000   0.000000000000000
 -7.468157073099825  12.935227489513863   0.000000000000000
  0.000000000000001   0.000000000000001  13.341276283792837
 C B N 
   1 142 144
Cartesian
  3.722203202314085   5.067958972626013   5.002978606422314 
  1.251600874554352   0.727042238162561   5.002978606422314 
  4.942963483184563   7.147825050723300   5.002978606422314 
  6.221797906877518   0.747467504331704   5.002978606422314 
  9.961930126678133   7.184636755448754   5.002978606422314 
 11.209626717783909   0.709702762311510   5.002978606422314 
 -3.734476850623484   9.341863342209477  11.673616748318732 
  1.244332249744577   9.342005930245081  11.673616748318732 
  2.489450705319206   2.874379206739118  11.673616748318732 
  6.223111859795392   9.341591284435649  11.673616748318732 
  7.467603937461866   2.874490574081865  11.673616748318732 
 12.446247227650286   2.874342860810079  11.673616748318732 
 -1.246749916603501   9.350707557913477   5.002978606422314 
 -0.005171061328693   2.867944759460845   5.002978606422314 
  4.992799334199596   2.946615662305708   5.002978606422314 
  3.728016100324199   9.344246416768245   5.002978606422314 
  8.712314607019664   9.335897679779888   5.002978606422314 
  9.979018851413922   2.865488918108167   5.002978606422314 
 -4.979035708892925  11.497752550493860  11.673616748318732 
 -0.000392379940244  11.497948669783085  11.673616748318732 
  1.244506124187240   5.030234314599713  11.673616748318732 
  6.223222002128378   5.030005461788550  11.673616748318732 
  4.978317891106880  11.497732287207254  11.673616748318732 
 11.201513591957596   5.030190073283502  11.673616748318732 
 -1.237585232594900   5.029222023234825   5.002978606422314 
 -2.488932724673385  11.513920883667788   5.002978606422314 
  2.488320761083395  11.498137929551634   5.002978606422314 
  7.469719159939109  11.489076730434817   5.002978606422314 
  8.740222793035731   5.019069948445310   5.002978606422314 
 -0.000385199123406   7.186122033944324  11.673616748318732 
  1.244466554493113   0.718423902521223  11.673616748318732 
  4.978632097380234   7.185672344955726  11.673616748318732 
  6.223252838885710   0.718621750012721  11.673616748318732 
  9.956985234268039   7.185873340439703  11.673616748318732 
 -2.486458130405764   7.189847241679206   5.002978606422314 
 11.201581827719355   0.718525502188574  11.673616748318732 
  3.741744054365419   0.744828153991931   5.002978606422314 
  2.488656887076905   7.188898634693659   5.002978606422314 
  7.458871976611770   7.150655757630047   5.002978606422314 
  8.718221978563008   0.720367050009308   5.002978606422314 
  2.489222737949029   7.186070569727574  11.673616748318732 
 13.695635125229231   0.709575573315354   5.002978606422314 
 -1.245074315177473   9.341984047476780  11.673616748318732 
 -0.000376579313625   2.874311974989771  11.673616748318732 
  4.978944567371483   2.874473381111219  11.673616748318732 
  3.733756668839060   9.341829560551437  11.673616748318732 
  8.712456954157648   9.341670994051546  11.673616748318732 
  9.956743712457181   2.874425570189528  11.673616748318732 
 -3.733443118652703   9.349602955719270   5.002978606422314 
  1.241062778314919   9.343676719051023   5.002978606422314 
  2.482827548053339   2.903686745261964   5.002978606422314 
  6.216158836011347   9.311616614112959   5.002978606422314 
  7.492161077768376   2.892117863266583   5.002978606422314 
 12.456298771374623   2.867346505362774   5.002978606422314 
 -1.245250308160099   5.030207235857502  11.673616748318732 
 -2.489605691677855  11.497875950222433  11.673616748318732 
  2.488881661819773  11.497884557580926  11.673616748318732 
  3.734270604631428   5.030230672396470  11.673616748318732 
  7.467790061476495  11.497663725722488  11.673616748318732 
 -4.975119637026574  11.506251302858388   5.002978606422314 
  8.712173659664129   5.030103357862379  11.673616748318732 
 -0.004093804302474  11.509189980800778   5.002978606422314 
  1.235112475995483   5.018701649415418   5.002978606422314 
 -0.002926020377276   7.189815693982400   5.002978606422314 
  4.981761186191641  11.486478652858827   5.002978606422314 
 11.222116949948509   5.027611925116322   5.002978606422314 
 -2.489924773655040   7.186034333158512  11.673616748318732 
  3.734082948150073   0.718532282457840  11.673616748318732 
  7.467741901449476   7.185635044640393  11.673616748318732 
  8.712244823480470   0.718616524247755  11.673616748318732 
 13.691132040032524   0.718406340837609  11.673616748318732 
 -0.000345590709138   1.436328319256261   1.667469357969541 
  3.735289664551339   7.903772339572577   1.669318884813445 
  4.979007357696836   1.438269365851989   1.669841023825140 
  8.711489317223622   7.903601113658253   1.670162623644375 
  9.956906789566638   1.437215658880882   1.667839737726909 
 -4.979494634511128  10.060146818999124   8.338365725735434 
 -0.000455972682274  10.060942683227113   8.338337909807453 
  1.244541835766768   3.592141290121332   8.338626917315047 
  4.979004970837783  10.059965901136675   8.337971575653182 
  6.223667723728494   3.595031967817708   8.328253626585598 
 11.201166107874180   3.592586174520510   8.338571530879346 
 -2.490035961408557  10.060767274394477   1.667610055877245 
 -1.245449315852039   3.592463095035223   1.667281040123103 
  3.735412426335959   3.592932743728112   1.668095323718249 
  2.489386518415292  10.060456069686042   1.667660072122661 
  7.467836239072621  10.059803166895193   1.667763926112045 
  8.711395274830855   3.593064949763841   1.671296280537278 
 -6.223724985010046  12.215855734401629   8.338442795313087 
 -1.245041202638501  12.217356240957869   8.338025820754558 
 -0.000602781855488   5.748544867235089   8.338584753000502 
  4.981349828195983   5.746780668294565   8.331480039132838 
  3.733847308309425  12.216258800687797   8.338398619670251 
  9.955767505109842   5.747874349617745   8.336085902184678 
 -2.490592204554642   5.748418500579178   1.667463375294457 
 -3.734312694548860  12.216572403707151   1.667644381551098 
  1.244255458269683  12.216959925583019   1.667715039695065 
  2.490684653205762   5.747901028051038   1.666334468402558 
  6.223214043221732  12.215842014055644   1.667565501195555 
  7.465834042241383   5.746954560263661   1.676538149044704 
 -1.245535578429421   7.904713300285780   8.338405515609184 
 -0.000345590709138   1.436328319256262   8.338487854875085 
  3.735289664551340   7.903772339572578   8.336638328031182 
  4.979007357696837   1.438269365851989   8.336116189019489 
  8.711489317223622   7.903601113658254   8.335794589200253 
 -3.735254735377418   7.904269004055882   1.668023757141378 
  9.956906789566638   1.437215658880882   8.338117475117718 
  2.489448891077193   1.436531171971197   1.667804578217284 
  1.244635502472385   7.904576283675889   1.667638919320709 
  6.223654250997633   7.903225977027490   1.672125769439782 
  7.467658658678780   1.438552146412461   1.670055156304175 
  1.244635502472386   7.904576283675889   8.338318293523919 
 12.446376678255994   1.436602845929887   1.667404407482137 
 -2.490035961408556  10.060767274394477   8.338347156967384 
 -1.245449315852039   3.592463095035224   8.338676172721526 
  3.735412426335960   3.592932743728113   8.337861889126380 
  2.489386518415292  10.060456069686042   8.338297140721966 
  7.467836239072622  10.059803166895193   8.338193286732583 
  8.711395274830855   3.593064949763842   8.334660932307337 
 -4.979494634511129  10.060146818999124   1.667591487109193 
 -0.000455972682275  10.060942683227113   1.667619303037175 
  1.244541835766768   3.592141290121331   1.667330295529568 
  4.979004970837782  10.059965901136675   1.667985637191446 
  6.223667723728493   3.595031967817707   1.677703586259030 
 11.201166107874180   3.592586174520509   1.667385681965282 
 -2.490592204554641   5.748418500579179   8.338493837550171 
 -3.734312694548859  12.216572403707151   8.338312831293530 
  1.244255458269684  12.216959925583019   8.338242173149577 
  2.490684653205762   5.747901028051039   8.339622744442069 
  6.223214043221733  12.215842014055644   8.338391711649074 
 -6.223724985010047  12.215855734401629   1.667514417531527 
  7.465834042241384   5.746954560263662   8.329419063799923 
 -1.245041202638501  12.217356240957869   1.667931392090057 
 -0.000602781855489   5.748544867235088   1.667372459844126 
 -1.245535578429422   7.904713300285779   1.667551697235444 
  4.981349828195982   5.746780668294564   1.674477173711790 
  3.733847308309424  12.216258800687797   1.667558593174376 
  9.955767505109842   5.747874349617744   1.669871310659950 
 -3.735254735377417   7.904269004055883   8.337933455703237 
  2.489448891077193   1.436531171971197   8.338152634627344 
  6.223654250997634   7.903225977027491   8.333831443404847 
  7.467658658678781   1.438552146412462   8.335902056540453 
 12.446376678255994   1.436602845929888   8.338552805362506 
  4.823015436995947   5.724389537571541   5.002978606422314 
  1.244309668437744   0.718118849634632   1.668478008413872 
  4.978567966280022   7.185498485397575   1.673343630114980 
  6.223094101008495   0.718571867536827   1.668399994992780 
  9.957060352727709   7.185709190515766   1.669498674021577 
 11.202142546086080   0.718027344731776   1.667643624147819 
 -3.734521415126966   9.341692629268477   8.337884157245634 
  1.244388499702331   9.341631387207457   8.337369750427163 
  2.488906433713256   2.874085339701030   8.335677491534359 
  6.223192061042240   9.341546078513835   8.336742459025700 
  7.468048827397348   2.874310079951961   8.335753378818461 
 12.446751426499612   2.873941840174077   8.338019138562016 
 -1.245105887797394   9.341776399199142   1.668151924594707 
 -0.000344999339251   2.873906045981450   1.668819139061697 
  4.978078640798374   2.874366000095926   1.670477207975021 
  3.733899754588165   9.341378879906479   1.669089382930207 
  8.712462017796318   9.341661394914855   1.668061105593386 
  9.957440786081429   2.873965250416037   1.668046144642709 
 -4.979151812065771  11.497651515872892   8.338157774466659 
 -0.000358099710986  11.497759322254719   8.338102798465730 
  1.244457026815144   5.029812767287884   8.335609851862143 
  6.222990483956578   5.029994944721447   8.344790617606593 
  4.978592806700530  11.497406541244466   8.337876850800955 
 11.201954416872351   5.029862887780824   8.338117608993237 
 -1.244997627737349   5.029898856511902   1.668498825756970 
 -2.489749454065638  11.497795474650623   1.667757937987182 
  2.489111325879966  11.497487740381144   1.668103080255885 
  3.733520309867879   5.029801144681954   1.669773021502507 
  7.467887585691964  11.497481128745930   1.668071784453143 
  8.712653216466959   5.029844057041274   1.671015126491933 
 -0.000320070212184   7.185785220266637   8.337123412122814 
  1.244309668437744   0.718118849634632   8.337479204430755 
  4.978567966280023   7.185498485397575   8.332613582729648 
  6.223094101008495   0.718571867536828   8.337557217851849 
  9.957060352727709   7.185709190515767   8.336458538823036 
 -2.489858158873402   7.185808358745651   1.668336287298292 
 11.202142546086080   0.718027344731777   8.338313588696902 
  3.733639175364394   0.718429676177720   1.668340358838738 
  2.489212229441522   7.185551994224899   1.670348820739081 
  7.467753783783632   7.185796077174957   1.671992057870645 
  8.712583565217459   0.718357630337797   1.668008698703647 
  2.489212229441522   7.185551994224900   8.335608392105639 
 13.691426753513529   0.718011636076583   1.668266664459498 
 -1.245105887797394   9.341776399199142   8.337805288249919 
 -0.000344999339251   2.873906045981451   8.337138073782931 
  4.978078640798375   2.874366000095927   8.335480004869606 
  3.733899754588166   9.341378879906479   8.336867829914421 
  8.712462017796318   9.341661394914855   8.337896107251336 
  9.957440786081429   2.873965250416038   8.337911068201919 
 -3.734521415126967   9.341692629268477   1.668073055598980 
  1.244388499702331   9.341631387207457   1.668587462417465 
  2.488906433713255   2.874085339701029   1.670279721310268 