Species order: X N B                    
   2.51242800000000     
     5.9449720136058266    0.0000000000000000    0.0000000000000000
    -2.9724860068029120    5.1484967885702053   -0.0000000000000001
     0.0000000000000000    0.0000000000000009    5.3101128803662583
   Sn   N    B 
     1   143   143
Direct
  0.4876311346018904  0.4104822339676176  0.3750000000000000
  0.1110709282619569  0.0555126330033906  0.1248472948099983
  0.6111044007461415  0.5555929810480472  0.1251770983675039
  0.4444051104132964  0.0555090221814307  0.1248796102304947
  0.9444083507623738  0.5555409984930120  0.1252488361397641
  0.7777503141656896  0.0555418237495116  0.1252057150793301
  0.1110715165201934  0.7222024249267709  0.6247700424901211
  0.4444051104132964  0.7222294215652137  0.6251203897695091
  0.2777320123981722  0.2221780629284562  0.6246751462355346
  0.7777419123496967  0.7222016968225895  0.6248849617543321
  0.6110695485803305  0.2221811110677864  0.6250870030716472
  0.9444190219301265  0.2222155835375525  0.6249382654181869
  0.2777367954694573  0.7222150262442466  0.1250854121337098
  0.1110901870149083  0.2222117601741187  0.1248894942883563
  0.4444204544706979  0.2221840134176906  0.1254783648088460
  0.6110695485803305  0.7222217708458515  0.1249129969283786
  0.9444083507623738  0.7222006856027063  0.1252488361397641
  0.7777436681469742  0.2222083275854119  0.1251089607006701
  0.1110687005978245  0.8888510650605151  0.6249224570436621
  0.4444059149103949  0.8888696241218534  0.6249235191821425
  0.2777320123981722  0.3888872828030456  0.6246751462355346
  0.6111044007461415  0.3888447530314377  0.6248229016324718
  0.7777436681469742  0.8888686738949247  0.6248910392993259
  0.9444102758493885  0.3888826541765201  0.6248456223147887
  0.1110709282619569  0.3888916285919011  0.1248472948099983
  0.2777367954694573  0.8888551025585621  0.1250854121337098
  0.6110729888943457  0.8888806419928499  0.1250604172944427
  0.4443878180166045  0.3888605756749700  0.1276069555475851
  0.9444102758493885  0.8888609550062144  0.1251543776851997
  0.7777419123496967  0.3888735488604347  0.1251150382456699
  0.2777399689030038  0.5555662243979932  0.6250994391017960
  0.1110709282619569  0.0555126330033906  0.6251527051900281
  0.6111044007461415  0.5555929810480472  0.6248229016324718
  0.4444051104132964  0.0555090221814307  0.6251203897695091
  0.9444083507623738  0.5555409984930120  0.6247511638602303
  0.1110687005978245  0.5555509688706602  0.1250775429563439
  0.7777503141656896  0.0555418237495116  0.6247942849206629
  0.2777399689030038  0.0555070778383476  0.1249005608982107
  0.4444204544706979  0.5555697743863410  0.1254783648088460
  0.7777462872618621  0.5555398102976051  0.1252280540580349
  0.6110729888943457  0.0555256802348212  0.1250604172944427
  0.4444204544706979  0.5555697743863410  0.6245216351911601
  0.9444190219301265  0.0555367717258954  0.1250617345818007
  0.2777367954694577  0.7222150262442466  0.6249145878663022
  0.1110901870149083  0.2222117601741187  0.6251105057116505
  0.4444204544706979  0.2221840134176906  0.6245216351911601
  0.6110695485803305  0.7222217708458515  0.6250870030716472
  0.9444083507623738  0.7222006856027063  0.6247511638602303
  0.7777436681469742  0.2222083275854119  0.6248910392993259
  0.1110715165201934  0.7222024249267709  0.1252299575098872
  0.4444051104132964  0.7222294215652137  0.1248796102304947
  0.2777320123981722  0.2221780629284562  0.1253248537644441
  0.7777419123496967  0.7222016968225895  0.1251150382456699
  0.6110695485803305  0.2221811110677864  0.1249129969283786
  0.9444190219301265  0.2222155835375525  0.1250617345818007
  0.1110709282619569  0.3888916285919011  0.6251527051900281
  0.2777367954694573  0.8888551025585621  0.6249145878663022
  0.6110729888943457  0.8888806419928499  0.6249395827055669
  0.4443878180166045  0.3888605756749700  0.6223930444524309
  0.9444102758493885  0.8888609550062144  0.6248456223147887
  0.1110687005978245  0.8888510650605151  0.1250775429563439
  0.7777419123496967  0.3888735488604347  0.6248849617543321
  0.4444059149103949  0.8888696241218534  0.1250764808178807
  0.2777320123981722  0.3888872828030456  0.1253248537644441
  0.2777399689030038  0.5555662243979932  0.1249005608982107
  0.6111044007461415  0.3888447530314377  0.1251770983675039
  0.7777436681469742  0.8888686738949247  0.1251089607006701
  0.9444102758493885  0.3888826541765201  0.1251543776851997
  0.1110687005978245  0.5555509688706602  0.6249224570436621
  0.2777399689030038  0.0555070778383476  0.6250994391017960
  0.7777462872618621  0.5555398102976051  0.6247719459419724
  0.6110729888943457  0.0555256802348212  0.6249395827055669
  0.9444190219301265  0.0555367717258954  0.6249382654181869
  0.0578649791350250  0.1123490464042677  0.3750000000000000
  0.5554876650362268  0.6164810206191557  0.3750000000000000
  0.3881426898929937  0.1045221092401804  0.3750000000000000
  0.8894066796888556  0.6113700065111171  0.3750000000000000
  0.7242719671341001  0.1115481803497267  0.3750000000000000
  0.0555219953956778  0.7777632893213651  0.8750000000000000
  0.3888649490215675  0.7777647135984109  0.8750000000000000
  0.2221884189711780  0.2777608761522520  0.8750000000000000
  0.7221960074479785  0.7777669973193562  0.8750000000000000
  0.5555254709855776  0.2777633403551368  0.8750000000000000
  0.8888631435540379  0.2777647615972897  0.8750000000000000
  0.2215180365887730  0.7774256849610569  0.3750000000000000
  0.0578649791350250  0.2788492660640842  0.3750000000000000
  0.3871134866743246  0.2649823933115029  0.3750000000000000
  0.5565906066316491  0.7809407280318285  0.3750000000000000
  0.8901056264972815  0.7788540747098192  0.3750000000000000
  0.7240434905482436  0.2773268512927682  0.3750000000000000
  0.0555240904986534  0.9444309483545328  0.8750000000000000
  0.3888649490215675  0.9444335687564962  0.8750000000000000
  0.2221899413214812  0.4444235789958286  0.8750000000000000
  0.5555182778838651  0.4444258056086004  0.8750000000000000
  0.7221973043476599  0.9444332183332282  0.8750000000000000
  0.8888603278506700  0.4444272553731230  0.8750000000000000
  0.0560952952264174  0.4450687043707631  0.3750000000000000
  0.2214983428518418  0.9426022501174709  0.3750000000000000
  0.5567168530199489  0.9450250931766387  0.3750000000000000
  0.3871134866743246  0.4554644266961574  0.3750000000000000
  0.8908501438610622  0.9459687510179073  0.3750000000000000
  0.7247612927314704  0.4452456836050454  0.3750000000000000
  0.2221913173117527  0.6110906091820897  0.8750000000000000
  0.0555214288752064  0.1110943983368437  0.8750000000000000
  0.5555254709855776  0.6110954639637903  0.8750000000000000
  0.3888635071763032  0.1111025072864205  0.8750000000000000
  0.8888562486494952  0.6110947909914299  0.8750000000000000
  0.0552520784684669  0.6111772397457994  0.3750000000000000
  0.7221973043476599  0.1110974193477317  0.8750000000000000
  0.2221787054515869  0.1091263433534063  0.3750000000000000
  0.3881426898929937  0.6169539139861671  0.3750000000000000
  0.7247612927314633  0.6128489424597428  0.3750000000000000
  0.5565906066316491  0.1089832119331798  0.3750000000000000
  0.3888635071763032  0.6110943332232109  0.8750000000000000
  0.8912476670623479  0.1122905001978415  0.3750000000000000
  0.2221937526689431  0.7777635430011420  0.8750000000000000
  0.0555214288752064  0.2777603638716951  0.8750000000000000
  0.3888631966745653  0.2777703827416209  0.8750000000000000
  0.5555307016616222  0.7777670184638509  0.8750000000000000
  0.8888603278506700  0.7777664058108683  0.8750000000000000
  0.7221960074479785  0.2777623434619547  0.8750000000000000
  0.0552520784684669  0.7774081720559891  0.3750000000000000
  0.3887435818158335  0.7795183043407831  0.3750000000000000
  0.2255830062341718  0.2794581697837550  0.3750000000000000
  0.7240434905482436  0.7800499725887982  0.3750000000000000
  0.5554876650362268  0.2723399777503968  0.3750000000000000
  0.8908501438610622  0.2782147261764941  0.3750000000000000
  0.0555240904986534  0.4444264754774599  0.8750000000000000
  0.2221913173117527  0.9444340414630120  0.8750000000000000
  0.5555306352232778  0.9444319842783173  0.8750000000000000
  0.3888631966745653  0.4444261472662861  0.8750000000000000
  0.8888631435540379  0.9444317152900800  0.8750000000000000
  0.0560952952264174  0.9443599241889814  0.3750000000000000
  0.7221903647710494  0.4444278155909731  0.8750000000000000
  0.3887435818158335  0.9425586108083737  0.3750000000000000
  0.2221787054515869  0.4463856954315207  0.3750000000000000
  0.2214983428518418  0.6122294260677059  0.3750000000000000
  0.7242719671341072  0.9460571201177090  0.3750000000000000
  0.8901056264972886  0.4445848851207871  0.3750000000000000
  0.0555219953956778  0.6110920394076659  0.8750000000000000
  0.2221899413214812  0.1110996956589920  0.8750000000000000
  0.7221903647710494  0.6110958825134281  0.8750000000000000
  0.5555307016616222  0.1110970165311078  0.8750000000000000
  0.8888619721327257  0.1110976527330240  0.8750000000000000
  0.1116629957193705  0.0551750933014761  0.3750000000000000
  0.6189653383345596  0.5719621716008114  0.3750000000000000
  0.4451847888430557  0.0518949440239182  0.3750000000000000
  0.9450368943600402  0.5556452549507810  0.3750000000000000
  0.7803829842475241  0.0568581587904319  0.3750000000000000
  0.1110896835520743  0.7222115084426856  0.8750000000000000
  0.4444143638544468  0.7222355348105486  0.8750000000000000
  0.2776782531115922  0.2221637825789378  0.8750000000000000
  0.7777897985249000  0.7222660135410329  0.8750000000000000
  0.6111039145642417  0.2221681918272672  0.8750000000000000
  0.9444090697918039  0.2221956175918552  0.8750000000000000
  0.2774848524011690  0.7229827023659270  0.3750000000000000
  0.1139254681276454  0.2236294007304866  0.3750000000000000
  0.4429371218735161  0.2125229784566708  0.3750000000000000
  0.6134548868196261  0.7281313803642180  0.3750000000000000
  0.9450368943600402  0.7227249727425841  0.3750000000000000
  0.7802235081477641  0.2221564116578714  0.3750000000000000
  0.1110782563092262  0.8888763866155855  0.8750000000000000
  0.4444211894436318  0.8888772613884757  0.8750000000000000
  0.2776782531115922  0.3888478038660002  0.8750000000000000
  0.6111049948398266  0.3888512887923543  0.8750000000000000
  0.7777766446979183  0.8889218198284420  0.8750000000000000
  0.9444299381150432  0.3888595015642629  0.8750000000000000
  0.1116629957193705  0.3898212357512248  0.3750000000000000
  0.2774848524011690  0.8878354833685737  0.3750000000000000
  0.6132880807176405  0.8914031128304434  0.3750000000000000
  0.9457607500130930  0.8901120794660492  0.3750000000000000
  0.7804940505884589  0.3881215217727090  0.3750000000000000
  0.2777183568280627  0.5555377753960091  0.8750000000000000
  0.1110503921928259  0.0555287458330484  0.8750000000000000
  0.6111049948398266  0.5555870393808122  0.8750000000000000
  0.4444143638544468  0.0555121623772436  0.8750000000000000
  0.9444445414132565  0.5555428813404156  0.8750000000000000
  0.1108553566358373  0.5559662533244292  0.3750000000000000
  0.7777669183512865  0.0555501258423077  0.8750000000000000
  0.2770024557095714  0.0526947337134808  0.3750000000000000
  0.4429371218735161  0.5637474767501769  0.3750000000000000
  0.7799898895253515  0.5566616114293531  0.3750000000000000
  0.6132880807176405  0.0552183012205345  0.3750000000000000
  0.4443947585095708  0.5555705597229013  0.8750000000000000
  0.9469250063228020  0.0571452652773902  0.3750000000000000
  0.2777443877201938  0.7222098708518975  0.8750000000000000
  0.1110312114700243  0.2221822724016736  0.8750000000000000
  0.4443947585095708  0.2221575321199884  0.8750000000000000
  0.6111039145642417  0.7222690560703098  0.8750000000000000
  0.9444445414132565  0.7222349934061637  0.8750000000000000
  0.7777766446979183  0.2221881582028116  0.8750000000000000
  0.1107646631136598  0.7220489982235119  0.3750000000000000
  0.4451847888430568  0.7266231781524594  0.3750000000000000
  0.2778477049934301  0.2199108389634473  0.3750000000000000
  0.7804940505884589  0.7257058621490519  0.3750000000000000
  0.6134548868196261  0.2186568397887445  0.3750000000000000
  0.9469250063228032  0.2231130743787697  0.3750000000000000
  0.1110503921928259  0.3888549796931138  0.8750000000000000
  0.2777443877201938  0.8888678502016278  0.8750000000000000
  0.6111026134935756  0.8889054294021248  0.8750000000000000
  0.4443759843781414  0.3888546588557451  0.8750000000000000
  0.9444299381150432  0.8889037698840973  0.8750000000000000
  0.1108553566358373  0.8882224366447383  0.3750000000000000
  0.7777897985248858  0.3888571183171631  0.8750000000000000
  0.4453774237959888  0.8893553785646641  0.3750000000000000
  0.2778477049934301  0.3912701993633264  0.3750000000000000
  0.2770024557095714  0.5576410553294249  0.3750000000000000
  0.6189653383345596  0.3803365000670764  0.3750000000000000
  0.7802235081477641  0.8914004298232215  0.3750000000000000
  0.9457607500130930  0.3889820038803837  0.3750000000000000
  0.1110782563092262  0.5555352030269627  0.8750000000000000
  0.2777183568280627  0.0555139147653737  0.8750000000000000
  0.7777924942285320  0.5555629137809192  0.8750000000000000
  0.6111026134935756  0.0555305174248072  0.8750000000000000
  0.9444090697918039  0.0555467855332962  0.8750000000000000
  0.0555002559257916  0.1110674076004471  0.1247586901635356
  0.5554992249288709  0.6112888964401548  0.1246576558168196
  0.3887362308315133  0.1108538547435548  0.1247842573626192
  0.8890337561338412  0.6111835447335926  0.1248928288837565
  0.7221968736818137  0.1110557694862632  0.1249409632905980
  0.0555924857519330  0.7777876152776564  0.6250069515315618
  0.3887980853661246  0.7777969508586922  0.6251868048849153
  0.2220525268855369  0.2776929301094377  0.6249795029248399
  0.7222466739359830  0.7778950534542078  0.6253356469137652
  0.5554992249288709  0.2775436618220400  0.6253423441831895
  0.8888991667880278  0.2777541364849647  0.6250563825719000
  0.2221830124164746  0.7777581728749209  0.1249870665424111
  0.0555002559257916  0.2777661816586858  0.1247586901635356
  0.3885608586156487  0.2773473575154858  0.1256734352727023
  0.5554812757229520  0.7778702446192386  0.1246633504927436
  0.8889808655723525  0.7778589195854669  0.1248900659564623
  0.7222466739359830  0.2776849538151103  0.1246643530862445
  0.0555373542964667  0.9444113780697664  0.6251566812288881
  0.3887980853661246  0.9443344678407535  0.6251868048849153
  0.2220776603471379  0.4444811348883968  0.6252047206837550
  0.5557476476147639  0.4445404904740463  0.6245821106707302
  0.7221968736818137  0.9444744375288787  0.6250590367094032
  0.8889808655723525  0.4444552793202151  0.6251099340435307
  0.0555373542964667  0.4444593095600179  0.1248433187711164
  0.2221479680983179  0.9443357534058479  0.1248117701148960
  0.5554908552470602  0.9444120942901915  0.1248961476384186
  0.3885608586156487  0.4445468344334885  0.1256734352727023
  0.8888991667880278  0.9444783636363808  0.1249436174280742
  0.7223963071806048  0.4444718640297625  0.1245902635917306
  0.2221479680983179  0.6111455480258287  0.6251882298851034
  0.0555002559257916  0.1110674076004471  0.6252413098364797
  0.5554992249288709  0.6112888964401548  0.6253423441831895
  0.3887362308315133  0.1108538547435548  0.6252157426373872
  0.8890337561338412  0.6111835447335926  0.6251071711162548
  0.0555924857519330  0.6111382038076099  0.1249930484684343
  0.7221968736818137  0.1110557694862632  0.6250590367094032
  0.2220776603471379  0.1109298587920765  0.1247952793162412
  0.3887362308315133  0.6112157094213003  0.1247842573626192
  0.7223963071806119  0.6112577764842051  0.1245902635917306
  0.5554812757229520  0.1109443644370336  0.1246633504927436
  0.3887362308315133  0.6112157094213003  0.6252157426373872
  0.8888740211792293  0.1111036772562884  0.1249759716751790
  0.2221830124164746  0.7777581728749209  0.6250129334575955
  0.0555002559257916  0.2777661816586858  0.6252413098364797
  0.3885608586156487  0.2773473575154858  0.6243265647273010
  0.5554812757229520  0.7778702446192386  0.6253366495072648
  0.8889808655723525  0.7778589195854669  0.6251099340435307
  0.7222466739359830  0.2776849538151103  0.6253356469137652
  0.0555924857519330  0.7777876152776564  0.1249930484684343
  0.3887980853661246  0.7777969508586922  0.1248131951150713
  0.2220525268855369  0.2776929301094377  0.1250204970751675
  0.7222466739359830  0.7778950534542078  0.1246643530862445
  0.5554992249288709  0.2775436618220400  0.1246576558168196
  0.8888991667880278  0.2777541364849647  0.1249436174280742
  0.0555373542964667  0.4444593095600179  0.6251566812288881
  0.2221479680983179  0.9443357534058479  0.6251882298851034
  0.5554908552470602  0.9444120942901915  0.6251038523615935
  0.3885608586156487  0.4445468344334885  0.6243265647273010
  0.8888991667880278  0.9444783636363808  0.6250563825719000
  0.0555373542964668  0.9444113780697664  0.1248433187711164
  0.7223963071806119  0.4444718640297625  0.6254097364082803
  0.3887980853661246  0.9443344678407535  0.1248131951150714
  0.2220776603471379  0.4444811348883968  0.1247952793162412
  0.2221479680983179  0.6111455480258287  0.1248117701148960
  0.5557476476147639  0.4445404904740463  0.1254178893292643
  0.7221968736818137  0.9444744375288787  0.1249409632905980
  0.8889808655723525  0.4444552793202151  0.1248900659564623
  0.0555924857519330  0.6111382038076099  0.6250069515315618
  0.2220776603471379  0.1109298587920765  0.6252047206837550
  0.7223963071806119  0.6112577764842051  0.6254097364082803
  0.5554812757229520  0.1109443644370336  0.6253366495072648
  0.8888740211792293  0.1111036772562884  0.6250240283248367
 
  0.00000000E+00  0.00000000E+00  0.00000000E+00
  0.00000000E+00  0.00000000E+00  0.00000000E+00
  0.00000000E+00  0.00000000E+00  0.00000000E+00
  0.00000000E+00  0.00000000E+00  0.00000000E+00
  0.00000000E+00  0.00000000E+00  0.00000000E+00
  0.00000000E+00  0.00000000E+00  0.00000000E+00
  0.00000000E+00  0.00000000E+00  0.00000000E+00
  0.00000000E+00  0.00000000E+00  0.00000000E+00
  0.00000000E+00  0.00000000E+00  0.00000000E+00
  0.00000000E+00  0.00000000E+00  0.00000000E+00
  0.00000000E+00  0.00000000E+00  0.00000000E+00
  0.00000000E+00  0.00000000E+00  0.00000000E+00
  0.00000000E+00  0.00000000E+00  0.00000000E+00
  0.00000000E+00  0.00000000E+00  0.00000000E+00
  0.00000000E+00  0.00000000E+00  0.00000000E+00
  0.00000000E+00  0.00000000E+00  0.00000000E+00
  0.00000000E+00  0.00000000E+00  0.00000000E+00
  0.00000000E+00  0.00000000E+00  0.00000000E+00
  0.00000000E+00  0.00000000E+00  0.00000000E+00
  0.00000000E+00  0.00000000E+00  0.00000000E+00
  0.00000000E+00  0.00000000E+00  0.00000000E+00
  0.00000000E+00  0.00000000E+00  0.00000000E+00
  0.00000000E+00  0.00000000E+00  0.00000000E+00
  0.00000000E+00  0.00000000E+00  0.00000000E+00
  0.00000000E+00  0.00000000E+00  0.00000000E+00
  0.00000000E+00  0.00000000E+00  0.00000000E+00
  0.00000000E+00  0.00000000E+00  0.00000000E+00
  0.00000000E+00  0.00000000E+00  0.00000000E+00
  0.00000000E+00  0.00000000E+00  0.00000000E+00
  0.00000000E+00  0.00000000E+00  0.00000000E+00
  0.00000000E+00  0.00000000E+00  0.00000000E+00
  0.00000000E+00  0.00000000E+00  0.00000000E+00
  0.00000000E+00  0.00000000E+00  0.00000000E+00
  0.00000000E+00  0.00000000E+00  0.00000000E+00
  0.00000000E+00  0.00000000E+00  0.00000000E+00
  0.00000000E+00  0.00000000E+00  0.00000000E+00
  0.00000000E+00  0.00000000E+00  0.00000000E+00
  0.00000000E+00  0.00000000E+00  0.00000000E+00
  0.00000000E+00  0.00000000E+00  0.00000000E+00
  0.00000000E+00  0.00000000E+00  0.00000000E+00
  0.00000000E+00  0.00000000E+00  0.00000000E+00
  0.00000000E+00  0.00000000E+00  0.00000000E+00
  0.00000000E+00  0.00000000E+00  0.00000000E+00
  0.00000000E+00  0.00000000E+00  0.00000000E+00
  0.00000000E+00  0.00000000E+00  0.00000000E+00
  0.00000000E+00  0.00000000E+00  0.00000000E+00
  0.00000000E+00  0.00000000E+00  0.00000000E+00
  0.00000000E+00  0.00000000E+00  0.00000000E+00
  0.00000000E+00  0.00000000E+00  0.00000000E+00
  0.00000000E+00  0.00000000E+00  0.00000000E+00
  0.00000000E+00  0.00000000E+00  0.00000000E+00
  0.00000000E+00  0.00000000E+00  0.00000000E+00
  0.00000000E+00  0.00000000E+00  0.00000000E+00
  0.00000000E+00  0.00000000E+00  0.00000000E+00
  0.00000000E+00  0.00000000E+00  0.00000000E+00
  0.00000000E+00  0.00000000E+00  0.00000000E+00
  0.00000000E+00  0.00000000E+00  0.00000000E+00
  0.00000000E+00  0.00000000E+00  0.00000000E+00
  0.00000000E+00  0.00000000E+00  0.00000000E+00
  0.00000000E+00  0.00000000E+00  0.00000000E+00
  0.00000000E+00  0.00000000E+00  0.00000000E+00
  0.00000000E+00  0.00000000E+00  0.00000000E+00
  0.00000000E+00  0.00000000E+00  0.00000000E+00
  0.00000000E+00  0.00000000E+00  0.00000000E+00
  0.00000000E+00  0.00000000E+00  0.00000000E+00
  0.00000000E+00  0.00000000E+00  0.00000000E+00
  0.00000000E+00  0.00000000E+00  0.00000000E+00
  0.00000000E+00  0.00000000E+00  0.00000000E+00
  0.00000000E+00  0.00000000E+00  0.00000000E+00
  0.00000000E+00  0.00000000E+00  0.00000000E+00
  0.00000000E+00  0.00000000E+00  0.00000000E+00
  0.00000000E+00  0.00000000E+00  0.00000000E+00
  0.00000000E+00  0.00000000E+00  0.00000000E+00
  0.00000000E+00  0.00000000E+00  0.00000000E+00
  0.00000000E+00  0.00000000E+00  0.00000000E+00
  0.00000000E+00  0.00000000E+00  0.00000000E+00
  0.00000000E+00  0.00000000E+00  0.00000000E+00
  0.00000000E+00  0.00000000E+00  0.00000000E+00
  0.00000000E+00  0.00000000E+00  0.00000000E+00
  0.00000000E+00  0.00000000E+00  0.00000000E+00
  0.00000000E+00  0.00000000E+00  0.00000000E+00
  0.00000000E+00  0.00000000E+00  0.00000000E+00
  0.00000000E+00  0.00000000E+00  0.00000000E+00
  0.00000000E+00  0.00000000E+00  0.00000000E+00
  0.00000000E+00  0.00000000E+00  0.00000000E+00
  0.00000000E+00  0.00000000E+00  0.00000000E+00
  0.00000000E+00  0.00000000E+00  0.00000000E+00
  0.00000000E+00  0.00000000E+00  0.00000000E+00
  0.00000000E+00  0.00000000E+00  0.00000000E+00
  0.00000000E+00  0.00000000E+00  0.00000000E+00
  0.00000000E+00  0.00000000E+00  0.00000000E+00
  0.00000000E+00  0.00000000E+00  0.00000000E+00
  0.00000000E+00  0.00000000E+00  0.00000000E+00
  0.00000000E+00  0.00000000E+00  0.00000000E+00
  0.00000000E+00  0.00000000E+00  0.00000000E+00
  0.00000000E+00  0.00000000E+00  0.00000000E+00
  0.00000000E+00  0.00000000E+00  0.00000000E+00
  0.00000000E+00  0.00000000E+00  0.00000000E+00
  0.00000000E+00  0.00000000E+00  0.00000000E+00
  0.00000000E+00  0.00000000E+00  0.00000000E+00
  0.00000000E+00  0.00000000E+00  0.00000000E+00
  0.00000000E+00  0.00000000E+00  0.00000000E+00
  0.00000000E+00  0.00000000E+00  0.00000000E+00
  0.00000000E+00  0.00000000E+00  0.00000000E+00
  0.00000000E+00  0.00000000E+00  0.00000000E+00
  0.00000000E+00  0.00000000E+00  0.00000000E+00
  0.00000000E+00  0.00000000E+00  0.00000000E+00
  0.00000000E+00  0.00000000E+00  0.00000000E+00
  0.00000000E+00  0.00000000E+00  0.00000000E+00
  0.00000000E+00  0.00000000E+00  0.00000000E+00
  0.00000000E+00  0.00000000E+00  0.00000000E+00
  0.00000000E+00  0.00000000E+00  0.00000000E+00
  0.00000000E+00  0.00000000E+00  0.00000000E+00
  0.00000000E+00  0.00000000E+00  0.00000000E+00
  0.00000000E+00  0.00000000E+00  0.00000000E+00
  0.00000000E+00  0.00000000E+00  0.00000000E+00
  0.00000000E+00  0.00000000E+00  0.00000000E+00
  0.00000000E+00  0.00000000E+00  0.00000000E+00
  0.00000000E+00  0.00000000E+00  0.00000000E+00
  0.00000000E+00  0.00000000E+00  0.00000000E+00
  0.00000000E+00  0.00000000E+00  0.00000000E+00
  0.00000000E+00  0.00000000E+00  0.00000000E+00
  0.00000000E+00  0.00000000E+00  0.00000000E+00
  0.00000000E+00  0.00000000E+00  0.00000000E+00
  0.00000000E+00  0.00000000E+00  0.00000000E+00
  0.00000000E+00  0.00000000E+00  0.00000000E+00
  0.00000000E+00  0.00000000E+00  0.00000000E+00
  0.00000000E+00  0.00000000E+00  0.00000000E+00
  0.00000000E+00  0.00000000E+00  0.00000000E+00
  0.00000000E+00  0.00000000E+00  0.00000000E+00
  0.00000000E+00  0.00000000E+00  0.00000000E+00
  0.00000000E+00  0.00000000E+00  0.00000000E+00
  0.00000000E+00  0.00000000E+00  0.00000000E+00
  0.00000000E+00  0.00000000E+00  0.00000000E+00
  0.00000000E+00  0.00000000E+00  0.00000000E+00
  0.00000000E+00  0.00000000E+00  0.00000000E+00
  0.00000000E+00  0.00000000E+00  0.00000000E+00
  0.00000000E+00  0.00000000E+00  0.00000000E+00
  0.00000000E+00  0.00000000E+00  0.00000000E+00
  0.00000000E+00  0.00000000E+00  0.00000000E+00
  0.00000000E+00  0.00000000E+00  0.00000000E+00
  0.00000000E+00  0.00000000E+00  0.00000000E+00
  0.00000000E+00  0.00000000E+00  0.00000000E+00
  0.00000000E+00  0.00000000E+00  0.00000000E+00
  0.00000000E+00  0.00000000E+00  0.00000000E+00
  0.00000000E+00  0.00000000E+00  0.00000000E+00
  0.00000000E+00  0.00000000E+00  0.00000000E+00
  0.00000000E+00  0.00000000E+00  0.00000000E+00
  0.00000000E+00  0.00000000E+00  0.00000000E+00
  0.00000000E+00  0.00000000E+00  0.00000000E+00
  0.00000000E+00  0.00000000E+00  0.00000000E+00
  0.00000000E+00  0.00000000E+00  0.00000000E+00
  0.00000000E+00  0.00000000E+00  0.00000000E+00
  0.00000000E+00  0.00000000E+00  0.00000000E+00
  0.00000000E+00  0.00000000E+00  0.00000000E+00
  0.00000000E+00  0.00000000E+00  0.00000000E+00
  0.00000000E+00  0.00000000E+00  0.00000000E+00
  0.00000000E+00  0.00000000E+00  0.00000000E+00
  0.00000000E+00  0.00000000E+00  0.00000000E+00
  0.00000000E+00  0.00000000E+00  0.00000000E+00
  0.00000000E+00  0.00000000E+00  0.00000000E+00
  0.00000000E+00  0.00000000E+00  0.00000000E+00
  0.00000000E+00  0.00000000E+00  0.00000000E+00
  0.00000000E+00  0.00000000E+00  0.00000000E+00
  0.00000000E+00  0.00000000E+00  0.00000000E+00
  0.00000000E+00  0.00000000E+00  0.00000000E+00
  0.00000000E+00  0.00000000E+00  0.00000000E+00
  0.00000000E+00  0.00000000E+00  0.00000000E+00
  0.00000000E+00  0.00000000E+00  0.00000000E+00
  0.00000000E+00  0.00000000E+00  0.00000000E+00
  0.00000000E+00  0.00000000E+00  0.00000000E+00
  0.00000000E+00  0.00000000E+00  0.00000000E+00
  0.00000000E+00  0.00000000E+00  0.00000000E+00
  0.00000000E+00  0.00000000E+00  0.00000000E+00
  0.00000000E+00  0.00000000E+00  0.00000000E+00
  0.00000000E+00  0.00000000E+00  0.00000000E+00
  0.00000000E+00  0.00000000E+00  0.00000000E+00
  0.00000000E+00  0.00000000E+00  0.00000000E+00
  0.00000000E+00  0.00000000E+00  0.00000000E+00
  0.00000000E+00  0.00000000E+00  0.00000000E+00
  0.00000000E+00  0.00000000E+00  0.00000000E+00
  0.00000000E+00  0.00000000E+00  0.00000000E+00
  0.00000000E+00  0.00000000E+00  0.00000000E+00
  0.00000000E+00  0.00000000E+00  0.00000000E+00
  0.00000000E+00  0.00000000E+00  0.00000000E+00
  0.00000000E+00  0.00000000E+00  0.00000000E+00
  0.00000000E+00  0.00000000E+00  0.00000000E+00
  0.00000000E+00  0.00000000E+00  0.00000000E+00
  0.00000000E+00  0.00000000E+00  0.00000000E+00
  0.00000000E+00  0.00000000E+00  0.00000000E+00
  0.00000000E+00  0.00000000E+00  0.00000000E+00
  0.00000000E+00  0.00000000E+00  0.00000000E+00
  0.00000000E+00  0.00000000E+00  0.00000000E+00
  0.00000000E+00  0.00000000E+00  0.00000000E+00
  0.00000000E+00  0.00000000E+00  0.00000000E+00
  0.00000000E+00  0.00000000E+00  0.00000000E+00
  0.00000000E+00  0.00000000E+00  0.00000000E+00
  0.00000000E+00  0.00000000E+00  0.00000000E+00
  0.00000000E+00  0.00000000E+00  0.00000000E+00
  0.00000000E+00  0.00000000E+00  0.00000000E+00
  0.00000000E+00  0.00000000E+00  0.00000000E+00
  0.00000000E+00  0.00000000E+00  0.00000000E+00
  0.00000000E+00  0.00000000E+00  0.00000000E+00
  0.00000000E+00  0.00000000E+00  0.00000000E+00
  0.00000000E+00  0.00000000E+00  0.00000000E+00
  0.00000000E+00  0.00000000E+00  0.00000000E+00
  0.00000000E+00  0.00000000E+00  0.00000000E+00
  0.00000000E+00  0.00000000E+00  0.00000000E+00
  0.00000000E+00  0.00000000E+00  0.00000000E+00
  0.00000000E+00  0.00000000E+00  0.00000000E+00
  0.00000000E+00  0.00000000E+00  0.00000000E+00
  0.00000000E+00  0.00000000E+00  0.00000000E+00
  0.00000000E+00  0.00000000E+00  0.00000000E+00
  0.00000000E+00  0.00000000E+00  0.00000000E+00
  0.00000000E+00  0.00000000E+00  0.00000000E+00
  0.00000000E+00  0.00000000E+00  0.00000000E+00
  0.00000000E+00  0.00000000E+00  0.00000000E+00
  0.00000000E+00  0.00000000E+00  0.00000000E+00
  0.00000000E+00  0.00000000E+00  0.00000000E+00
  0.00000000E+00  0.00000000E+00  0.00000000E+00
  0.00000000E+00  0.00000000E+00  0.00000000E+00
  0.00000000E+00  0.00000000E+00  0.00000000E+00
  0.00000000E+00  0.00000000E+00  0.00000000E+00
  0.00000000E+00  0.00000000E+00  0.00000000E+00
  0.00000000E+00  0.00000000E+00  0.00000000E+00
  0.00000000E+00  0.00000000E+00  0.00000000E+00
  0.00000000E+00  0.00000000E+00  0.00000000E+00
  0.00000000E+00  0.00000000E+00  0.00000000E+00
  0.00000000E+00  0.00000000E+00  0.00000000E+00
  0.00000000E+00  0.00000000E+00  0.00000000E+00
  0.00000000E+00  0.00000000E+00  0.00000000E+00
  0.00000000E+00  0.00000000E+00  0.00000000E+00
  0.00000000E+00  0.00000000E+00  0.00000000E+00
  0.00000000E+00  0.00000000E+00  0.00000000E+00
  0.00000000E+00  0.00000000E+00  0.00000000E+00
  0.00000000E+00  0.00000000E+00  0.00000000E+00
  0.00000000E+00  0.00000000E+00  0.00000000E+00
  0.00000000E+00  0.00000000E+00  0.00000000E+00
  0.00000000E+00  0.00000000E+00  0.00000000E+00
  0.00000000E+00  0.00000000E+00  0.00000000E+00
  0.00000000E+00  0.00000000E+00  0.00000000E+00
  0.00000000E+00  0.00000000E+00  0.00000000E+00
  0.00000000E+00  0.00000000E+00  0.00000000E+00
  0.00000000E+00  0.00000000E+00  0.00000000E+00
  0.00000000E+00  0.00000000E+00  0.00000000E+00
  0.00000000E+00  0.00000000E+00  0.00000000E+00
  0.00000000E+00  0.00000000E+00  0.00000000E+00
  0.00000000E+00  0.00000000E+00  0.00000000E+00