Species order: N B                      
   2.51242800000000     
     5.9449720136058266    0.0000000000000000    0.0000000000000000
    -2.9724860068029120    5.1484967885702053   -0.0000000000000001
     0.0000000000000000    0.0000000000000009    5.3101128803662583
   N    B    C 
   142   142     4
Direct
  0.1128872679259470  0.0568826762249154  0.1250000000000000
  0.6065240739789638  0.5492334722195156  0.1250000000000000
  0.4440991632632388  0.0561792382161270  0.1250000000000000
  0.9466462062146326  0.5560825407396871  0.1250000000000000
  0.7778563273096902  0.0555800195332491  0.1250000000000000
  0.1111348730088430  0.7222248901188018  0.6250000000000000
  0.4444372658000993  0.7222253347086968  0.6250000000000000
  0.2777620548114780  0.2222113026143284  0.6250000000000000
  0.7777811162295826  0.7222404107658464  0.6250000000000000
  0.6111050888115842  0.2221922082013493  0.6250000000000000
  0.9444471222391275  0.2222199923036077  0.6250000000000000
  0.2781083286783814  0.7225801582957015  0.1250000000000000
  0.1135223412426418  0.2228778182335339  0.1250000000000000
  0.4407474587172145  0.2223469923154205  0.1250000000000000
  0.6100317971046879  0.7201784644764750  0.1250000000000000
  0.9467409933801003  0.7240353608896447  0.1250000000000000
  0.7771807837552293  0.2215260874486758  0.1250000000000000
  0.1111213720837660  0.8888928686414418  0.6250000000000000
  0.4444434836639325  0.8888836948437584  0.6250000000000000
  0.2777647944239762  0.3888896791979567  0.6250000000000000
  0.6111015528746429  0.3888700628474430  0.6250000000000000
  0.7777815067690165  0.8889053131611214  0.6250000000000000
  0.9444602796351600  0.3888860114852195  0.6250000000000000
  0.1108718317023867  0.3888741299400491  0.1250000000000000
  0.2781789305075434  0.8892136672579963  0.1250000000000000
  0.6108739194627906  0.8885621452785228  0.1250000000000000
  0.9445502383593329  0.8887905460924123  0.1250000000000000
  0.7761492105753754  0.3867319695457810  0.1250000000000000
  0.2777722631223862  0.5555588765083258  0.6250000000000000
  0.1111069167860084  0.0555518293369201  0.6250000000000000
  0.6110944109019213  0.5555592451097286  0.6250000000000000
  0.4444370179692592  0.0555333125562285  0.6250000000000000
  0.9444700582698475  0.5555553576092295  0.6250000000000000
  0.1118798441614209  0.5556096083935107  0.1250000000000000
  0.7777800640982923  0.0555577230145716  0.6250000000000000
  0.2777632903380293  0.0553304867518641  0.1250000000000000
  0.4427730032813504  0.5556598558058022  0.1250000000000000
  0.6107030333175503  0.0558540827576786  0.1250000000000000
  0.4444282938809042  0.5555603666484062  0.6250000000000000
  0.9452650788584235  0.0558769661405951  0.1250000000000000
  0.2777839614756258  0.7222205895406741  0.6250000000000000
  0.1111020461550830  0.2222179620561728  0.6250000000000000
  0.4444296409970658  0.2221970785751399  0.6250000000000000
  0.6111007130249645  0.7222374741960996  0.6250000000000000
  0.9444656501625491  0.7222348791671155  0.6250000000000000
  0.7777831884352749  0.2222085878895978  0.6250000000000000
  0.1120164445021124  0.7227970364204200  0.1250000000000000
  0.4442418440213785  0.7226127120302374  0.1250000000000000
  0.2842886264159884  0.2248926051606247  0.1250000000000000
  0.7758562626283030  0.7220316453751526  0.1250000000000000
  0.6091106007773253  0.2229009637357821  0.1250000000000000
  0.9450035885872677  0.2223404497893485  0.1250000000000000
  0.1111120055647557  0.3888887411124508  0.6250000000000000
  0.2777835460659547  0.8888830937746185  0.6250000000000000
  0.6111074490215445  0.8888947579348774  0.6250000000000000
  0.4444239194035144  0.3888797540190275  0.6250000000000000
  0.9444548341428963  0.8889019254289071  0.6250000000000000
  0.1121160924973299  0.8899363390888397  0.1250000000000000
  0.7777910139246857  0.3888764703653505  0.6250000000000000
  0.4445115805830079  0.8893805356916655  0.1250000000000000
  0.2775934204712781  0.3895880796287425  0.1250000000000000
  0.2775034910809885  0.5557910808516124  0.1250000000000000
  0.6080925593212474  0.3893658058317557  0.1250000000000000
  0.7775482247023545  0.8891140520710584  0.1250000000000000
  0.9439576214326688  0.3888591211465023  0.1250000000000000
  0.1111245691851981  0.5555528754910514  0.6250000000000000
  0.2777690839251391  0.0555413042698541  0.6250000000000000
  0.7777859646977058  0.5555570708756680  0.6250000000000000
  0.6111064586597298  0.0555406003652095  0.6250000000000000
  0.9444455071304142  0.0555576214909853  0.6250000000000000
  0.0555690921468556  0.1111376079187310  0.3752063803227560
  0.5555478021027298  0.6111230994461967  0.3754088358068701
  0.3888948171219073  0.1111189212539642  0.3750951096300906
  0.8889115405240632  0.6111372041013362  0.3753279658069579
  0.7222367313664533  0.1111000614655757  0.3753051810186822
  0.0555919730906482  0.7778261479252967  0.8745761632328287
  0.3889148424464597  0.7778026824637475  0.8746939444968559
  0.2222462758102715  0.2777898781755900  0.8748070046285005
  0.7222304522219983  0.7778321469161674  0.8746270979972079
  0.5555341674465949  0.2777753624897821  0.8748453315906317
  0.8889082921136278  0.2777659378681472  0.8747313782622107
  0.2222548063081159  0.7778073870924646  0.3753680014707511
  0.0555729877113374  0.2777725509856012  0.3752519609194341
  0.3888938487959862  0.2777871610140853  0.3756169243190871
  0.5555721532572266  0.7778036713147964  0.3752543675989803
  0.8888934258754200  0.7778050991470766  0.3752492091576710
  0.7222277226841004  0.2777462754505999  0.3753060852044047
  0.0555663384381038  0.9444856899906942  0.8747770875851946
  0.3889149587095113  0.9444630144123979  0.8747455682558393
  0.2222298689313068  0.4444439962690050  0.8747284904812145
  0.5555720683161989  0.4444719946193330  0.8737671222606946
  0.7222418989372069  0.9444785951859456  0.8746847259372644
  0.8888904641722667  0.4444476526680501  0.8747726480691050
  0.0555698713664965  0.4444347685699973  0.3752752828209813
  0.2222495985181801  0.9444828204638254  0.3752559974886905
  0.5555846582500079  0.9444618932072096  0.3752683156541032
  0.3888942655825617  0.4444639128832537  0.3756492211970313
  0.8889099020887122  0.9444890865294328  0.3752818078425599
  0.7222080773460935  0.4444360097542153  0.3753089941182015
  0.2222473629005328  0.6111228532449493  0.8746605557210799
  0.0555690921468556  0.1111376079187310  0.8747936196772461
  0.5555478021027298  0.6111230994461967  0.8745911641931323
  0.3888948171219067  0.1111189212539649  0.8749048903699079
  0.8889115405240632  0.6111372041013362  0.8746720341930437
  0.0555914512462281  0.6111246884829579  0.3754400037354291
  0.7222367313664533  0.1111000614655756  0.8746948189813136
  0.2222295648155240  0.1111427378250945  0.3750658581343599
  0.3888971012719584  0.6111345487678475  0.3753105891879579
  0.7222121533421293  0.6111434166249738  0.3754974289715116
  0.5555684147071085  0.1111095966286090  0.3751587554444867
  0.3888971012719584  0.6111345487678475  0.8746894108120447
  0.8889127150893810  0.1111245787924023  0.3752641483019320
  0.2222548063081159  0.7778073870924646  0.8746319985292468
  0.0555729877113374  0.2777725509856012  0.8747480390805569
  0.3888938487959862  0.2777871610140868  0.8743830756809094
  0.5555721532572266  0.7778036713147964  0.8747456324010198
  0.8888934258754200  0.7778050991470796  0.8747507908423252
  0.7222277226841004  0.2777462754505999  0.8746939147955946
  0.0555919730906481  0.7778261479252967  0.3754238367671698
  0.3889148424464597  0.7778026824637475  0.3753060555031471
  0.2222462758102715  0.2777898781755900  0.3751929953714987
  0.7222304522219983  0.7778321469161674  0.3753729020027943
  0.5555341674465949  0.2777753624897821  0.3751546684093686
  0.8889082921136278  0.2777659378681472  0.3752686217377903
  0.0555698713664966  0.4444347685699973  0.8747247171790148
  0.2222495985181801  0.9444828204638254  0.8747440025113088
  0.5555846582500079  0.9444618932072096  0.8747316843458890
  0.3888942655825617  0.4444639128832537  0.8743507788029717
  0.8889099020887122  0.9444890865294328  0.8747181921574525
  0.0555663384381038  0.9444856899906942  0.3752229124148064
  0.7222080773460935  0.4444360097542150  0.8746910058817988
  0.3889149587095113  0.9444630144123979  0.3752544317441652
  0.2222298689313068  0.4444439962690050  0.3752715095187906
  0.2222473629005328  0.6111228532449493  0.3753394442789252
  0.5555720683161989  0.4444719946193330  0.3762328777393074
  0.7222418989372069  0.9444785951859456  0.3753152740627322
  0.8888904641722667  0.4444476526680501  0.3752273519309026
  0.0555914512462281  0.6111246884829579  0.8745599962645689
  0.2222295648155240  0.1111427378250945  0.8749341418656427
  0.7222121533421293  0.6111434166249738  0.8745025710284927
  0.5555684147071085  0.1111095966286089  0.8748412445555178
  0.8889127150893810  0.1111245787924023  0.8747358516980727
  0.1110034294861829  0.0555294151017534  0.3755139780273838
  0.6110797467168708  0.5556537011816044  0.3765225051088970
  0.4444617059866848  0.0554417553605982  0.3755588273030850
  0.9445920683553034  0.5555824076206890  0.3757060921960091
  0.7778025397765536  0.0555498765841650  0.3754963824607978
  0.1111818405947338  0.7222528324344724  0.8743080426213533
  0.4444525841328625  0.7222878512411189  0.8744861855103369
  0.2776652689401806  0.2221903664707259  0.8739322315514576
  0.7778377050881888  0.7224276037229050  0.8741912366676842
  0.6111852794532505  0.2221055708178944  0.8742781552636314
  0.9444455674683832  0.2221830551181709  0.8745208611098527
  0.2778115801245212  0.7222367555423895  0.3755353215957845
  0.1110037460568612  0.2221930565672882  0.3755583820492716
  0.4443850570056136  0.2221270854681939  0.3761981083487178
  0.6111422699646983  0.7223784052959428  0.3757037014163242
  0.9445637242327122  0.7223670180471436  0.3757049064694886
  0.7778398159884125  0.2221358227251511  0.3755578027696305
  0.1111082435519586  0.8889041432601418  0.8744085889898332
  0.4444846187939806  0.8888707590353438  0.8744927882907677
  0.2777011552518935  0.3889415796459787  0.8742077518705740
  0.6110976693973860  0.3888982071578562  0.8735028038334030
  0.7778092317330763  0.8890051636375318  0.8744547800552123
  0.9445210154291762  0.3888299736295400  0.8744564233174460
  0.1110905952772483  0.3888761224345141  0.3755073713095086
  0.2777997733549562  0.8888564536344262  0.3755625148434799
  0.6111630983226904  0.8889467857280493  0.3754836328008269
  0.4444086911350549  0.3889638492901136  0.3765662799972632
  0.9444605714265791  0.8890033624555430  0.3755444934189041
  0.7778722675884434  0.3888018797994003  0.3757719287967215
  0.2777637631395242  0.5556027038847897  0.8744385522702898
  0.1110034294861827  0.0555294151017534  0.8744860219726155
  0.6110797467168708  0.5556537011816036  0.8734774948911040
  0.4444617059866848  0.0554417553605982  0.8744411726969131
  0.9445920683553034  0.5555824076206890  0.8742939078039923
  0.1111637241374929  0.5555632461700604  0.3755605834466074
  0.7778025397765536  0.0555498765841650  0.8745036175392107
  0.2777042059779831  0.0554528167383043  0.3756679571442676
  0.4443903583552851  0.5556617740712266  0.3758826832742612
  0.7778794593275511  0.5556595202166378  0.3761866689722907
  0.6111822986465749  0.0554914290269436  0.3754970372512915
  0.4443903583552851  0.5556617740712266  0.8741173167257366
  0.9444048557760962  0.0555762976112063  0.3754838835095847
  0.2778115801245212  0.7222367555423895  0.8744646784042187
  0.1110037460568616  0.2221930565672882  0.8744416179507316
  0.4443850570056136  0.2221270854681938  0.8738018916512799
  0.6111422699646983  0.7223784052959428  0.8742962985836793
  0.9445637242327122  0.7223670180471436  0.8742950935305066
  0.7778398159884125  0.2221358227251511  0.8744421972303642
  0.1111818405947338  0.7222528324344730  0.3756919573786488
  0.4444525841328625  0.7222878512411189  0.3755138144896706
  0.2776652689401806  0.2221903664707263  0.3760677684485459
  0.7778377050881888  0.7224276037229050  0.3758087633323147
  0.6111852794532505  0.2221055708178944  0.3757218447363699
  0.9444455674683832  0.2221830551181709  0.3754791388901561
  0.1110905952772483  0.3888761224345141  0.8744926286904915
  0.2777997733549562  0.8888564536344262  0.8744374851565194
  0.6111630983226904  0.8889467857280493  0.8745163671991765
  0.4444086911350549  0.3889638492901136  0.8734337200027327
  0.9444605714265791  0.8890033624555430  0.8744555065811018
  0.1111082435519586  0.8889041432601418  0.3755914110101677
  0.7778722675884395  0.3888018797994002  0.8742280712032842
  0.4444846187939806  0.8888707590353438  0.3755072117092310
  0.2777011552518934  0.3889415796459787  0.3757922481294212
  0.2777637631395242  0.5556027038847897  0.3755614477297043
  0.6110976693973860  0.3888982071578562  0.3764971961666004
  0.7778092317330763  0.8890051636375318  0.3755452199447893
  0.9445210154291762  0.3888299736295400  0.3755435766825547
  0.1111637241374929  0.5555632461700604  0.8744394165533976
  0.2777042059779834  0.0554528167383042  0.8743320428557380
  0.7778794593275511  0.5556595202166378  0.8738133310277110
  0.6111822986465749  0.0554914290269437  0.8745029627487113
  0.9444048557760962  0.0555762976112063  0.8745161164904254
  0.0562871138174673  0.1114764344031738  0.1250000000000000
  0.5521494585252557  0.6093416831941920  0.1250000000000000
  0.3869899933464459  0.1088433521786663  0.1250000000000000
  0.8956788614141711  0.6145488440517028  0.1250000000000000
  0.7219770470235184  0.1105967223468790  0.1250000000000000
  0.0555745729902959  0.7777824100798718  0.6250000000000000
  0.3888702113543589  0.7777541608727110  0.6250000000000000
  0.2222069020091266  0.2777904328415127  0.6250000000000000
  0.7222362034745822  0.7778183814752830  0.6250000000000000
  0.5555534708858241  0.2777494579512573  0.6250000000000000
  0.8888947578454608  0.2777617522789740  0.6250000000000000
  0.2230270585612011  0.7781257465298531  0.1250000000000000
  0.0562362391570412  0.2780083876209269  0.1250000000000000
  0.5549269907258587  0.7774829410058148  0.1250000000000000
  0.8889687482077239  0.7779141066886449  0.1250000000000000
  0.7212553201469765  0.2758883727462060  0.1250000000000000
  0.0555640282725753  0.9444389618525942  0.6250000000000000
  0.3888712371405761  0.9444147498282327  0.6250000000000000
  0.2221954932580464  0.4444453237295154  0.6250000000000000
  0.5555568842086747  0.4444573380081604  0.6250000000000000
  0.7222076964463859  0.9444322173168903  0.6250000000000000
  0.8889230942535279  0.4444569294023318  0.6250000000000000
  0.0555899994994936  0.4446564982565601  0.1250000000000000
  0.2222709700571878  0.9437194171786178  0.1250000000000000
  0.5554059663210215  0.9443889688598236  0.1250000000000000
  0.3872213949344464  0.4459344887592879  0.1250000000000000
  0.8888949336762431  0.9446761546596547  0.1250000000000000
  0.7202207683678334  0.4396590261891722  0.1250000000000000
  0.2222136836284672  0.6111287684827379  0.6250000000000000
  0.0555231973283762  0.1110865992559189  0.6250000000000000
  0.5555319530452303  0.6111324593859201  0.6250000000000000
  0.3888903576073485  0.1110680938364486  0.6250000000000000
  0.8889623986963997  0.6111403182188303  0.6250000000000000
  0.0577118632075617  0.6117067677744767  0.1250000000000000
  0.7222147182662797  0.1111039166363096  0.6250000000000000
  0.2232695258120323  0.1105592914168193  0.1250000000000000
  0.3879004090758663  0.6121302891104610  0.1250000000000000
  0.7189103841810437  0.6125038055049630  0.1250000000000000
  0.5548690400513177  0.1106955306523667  0.1250000000000000
  0.3888853729907099  0.6111404604917502  0.6250000000000000
  0.8891023480508545  0.1111449634809042  0.1250000000000000
  0.2222465984428879  0.7777715927701637  0.6250000000000000
  0.0555330180348484  0.2777908961936991  0.6250000000000000
  0.3888626351162134  0.2777535099468070  0.6250000000000000
  0.5555381569163508  0.7778059006866352  0.6250000000000000
  0.8889019448482905  0.7777805788079515  0.6250000000000000
  0.7222592743162445  0.2777617196402012  0.6250000000000000
  0.0576417244634659  0.7793232749048287  0.1250000000000000
  0.3889191165287308  0.7783257477582292  0.1250000000000000
  0.2241408608970506  0.2798350469650990  0.1250000000000000
  0.7213881626773018  0.7786214775575616  0.1250000000000000
  0.5531401143632776  0.2770274268392156  0.1250000000000000
  0.8887600347603524  0.2773506227804401  0.1250000000000000
  0.0555833571405667  0.4444622422302063  0.6250000000000000
  0.2222057489934540  0.9443895333235995  0.6250000000000000
  0.5555656843496229  0.9444384601031006  0.6250000000000000
  0.3888578183151567  0.4444689318937677  0.6250000000000000
  0.8888794620639342  0.9444596174292174  0.6250000000000000
  0.0563133749206793  0.9449704498800650  0.1250000000000000
  0.7222423299107437  0.4444186413320158  0.6250000000000000
  0.3888695415917364  0.9444330991432262  0.1250000000000000
  0.2214018422705916  0.4451356678921911  0.1250000000000000
  0.2225106298870998  0.6116426617934706  0.1250000000000000
  0.7220090497585179  0.9446040460572772  0.1250000000000000
  0.8891461052965256  0.4443963237611071  0.1250000000000000
  0.0555834277682985  0.6111003431490808  0.6250000000000000
  0.2221853596969776  0.1110897378929279  0.6250000000000000
  0.7222236433813976  0.6111534848501261  0.6250000000000000
  0.5555481498569675  0.1110519378414627  0.6250000000000000
  0.8889033158903277  0.1111205449988873  0.6250000000000000
  0.4467889490280147  0.3866285698602078  0.1250000000000000
  0.7780756246445354  0.5556240241627560  0.1250000000000000
  0.3893869163350796  0.2756720056882640  0.1250000000000000
  0.5555524110673743  0.4426779843526664  0.1250000000000000
 
  0.00000000E+00  0.00000000E+00  0.00000000E+00
  0.00000000E+00  0.00000000E+00  0.00000000E+00
  0.00000000E+00  0.00000000E+00  0.00000000E+00
  0.00000000E+00  0.00000000E+00  0.00000000E+00
  0.00000000E+00  0.00000000E+00  0.00000000E+00
  0.00000000E+00  0.00000000E+00  0.00000000E+00
  0.00000000E+00  0.00000000E+00  0.00000000E+00
  0.00000000E+00  0.00000000E+00  0.00000000E+00
  0.00000000E+00  0.00000000E+00  0.00000000E+00
  0.00000000E+00  0.00000000E+00  0.00000000E+00
  0.00000000E+00  0.00000000E+00  0.00000000E+00
  0.00000000E+00  0.00000000E+00  0.00000000E+00
  0.00000000E+00  0.00000000E+00  0.00000000E+00
  0.00000000E+00  0.00000000E+00  0.00000000E+00
  0.00000000E+00  0.00000000E+00  0.00000000E+00
  0.00000000E+00  0.00000000E+00  0.00000000E+00
  0.00000000E+00  0.00000000E+00  0.00000000E+00
  0.00000000E+00  0.00000000E+00  0.00000000E+00
  0.00000000E+00  0.00000000E+00  0.00000000E+00
  0.00000000E+00  0.00000000E+00  0.00000000E+00
  0.00000000E+00  0.00000000E+00  0.00000000E+00
  0.00000000E+00  0.00000000E+00  0.00000000E+00
  0.00000000E+00  0.00000000E+00  0.00000000E+00
  0.00000000E+00  0.00000000E+00  0.00000000E+00
  0.00000000E+00  0.00000000E+00  0.00000000E+00
  0.00000000E+00  0.00000000E+00  0.00000000E+00
  0.00000000E+00  0.00000000E+00  0.00000000E+00
  0.00000000E+00  0.00000000E+00  0.00000000E+00
  0.00000000E+00  0.00000000E+00  0.00000000E+00
  0.00000000E+00  0.00000000E+00  0.00000000E+00
  0.00000000E+00  0.00000000E+00  0.00000000E+00
  0.00000000E+00  0.00000000E+00  0.00000000E+00
  0.00000000E+00  0.00000000E+00  0.00000000E+00
  0.00000000E+00  0.00000000E+00  0.00000000E+00
  0.00000000E+00  0.00000000E+00  0.00000000E+00
  0.00000000E+00  0.00000000E+00  0.00000000E+00
  0.00000000E+00  0.00000000E+00  0.00000000E+00
  0.00000000E+00  0.00000000E+00  0.00000000E+00
  0.00000000E+00  0.00000000E+00  0.00000000E+00
  0.00000000E+00  0.00000000E+00  0.00000000E+00
  0.00000000E+00  0.00000000E+00  0.00000000E+00
  0.00000000E+00  0.00000000E+00  0.00000000E+00
  0.00000000E+00  0.00000000E+00  0.00000000E+00
  0.00000000E+00  0.00000000E+00  0.00000000E+00
  0.00000000E+00  0.00000000E+00  0.00000000E+00
  0.00000000E+00  0.00000000E+00  0.00000000E+00
  0.00000000E+00  0.00000000E+00  0.00000000E+00
  0.00000000E+00  0.00000000E+00  0.00000000E+00
  0.00000000E+00  0.00000000E+00  0.00000000E+00
  0.00000000E+00  0.00000000E+00  0.00000000E+00
  0.00000000E+00  0.00000000E+00  0.00000000E+00
  0.00000000E+00  0.00000000E+00  0.00000000E+00
  0.00000000E+00  0.00000000E+00  0.00000000E+00
  0.00000000E+00  0.00000000E+00  0.00000000E+00
  0.00000000E+00  0.00000000E+00  0.00000000E+00
  0.00000000E+00  0.00000000E+00  0.00000000E+00
  0.00000000E+00  0.00000000E+00  0.00000000E+00
  0.00000000E+00  0.00000000E+00  0.00000000E+00
  0.00000000E+00  0.00000000E+00  0.00000000E+00
  0.00000000E+00  0.00000000E+00  0.00000000E+00
  0.00000000E+00  0.00000000E+00  0.00000000E+00
  0.00000000E+00  0.00000000E+00  0.00000000E+00
  0.00000000E+00  0.00000000E+00  0.00000000E+00
  0.00000000E+00  0.00000000E+00  0.00000000E+00
  0.00000000E+00  0.00000000E+00  0.00000000E+00
  0.00000000E+00  0.00000000E+00  0.00000000E+00
  0.00000000E+00  0.00000000E+00  0.00000000E+00
  0.00000000E+00  0.00000000E+00  0.00000000E+00
  0.00000000E+00  0.00000000E+00  0.00000000E+00
  0.00000000E+00  0.00000000E+00  0.00000000E+00
  0.00000000E+00  0.00000000E+00  0.00000000E+00
  0.00000000E+00  0.00000000E+00  0.00000000E+00
  0.00000000E+00  0.00000000E+00  0.00000000E+00
  0.00000000E+00  0.00000000E+00  0.00000000E+00
  0.00000000E+00  0.00000000E+00  0.00000000E+00
  0.00000000E+00  0.00000000E+00  0.00000000E+00
  0.00000000E+00  0.00000000E+00  0.00000000E+00
  0.00000000E+00  0.00000000E+00  0.00000000E+00
  0.00000000E+00  0.00000000E+00  0.00000000E+00
  0.00000000E+00  0.00000000E+00  0.00000000E+00
  0.00000000E+00  0.00000000E+00  0.00000000E+00
  0.00000000E+00  0.00000000E+00  0.00000000E+00
  0.00000000E+00  0.00000000E+00  0.00000000E+00
  0.00000000E+00  0.00000000E+00  0.00000000E+00
  0.00000000E+00  0.00000000E+00  0.00000000E+00
  0.00000000E+00  0.00000000E+00  0.00000000E+00
  0.00000000E+00  0.00000000E+00  0.00000000E+00
  0.00000000E+00  0.00000000E+00  0.00000000E+00
  0.00000000E+00  0.00000000E+00  0.00000000E+00
  0.00000000E+00  0.00000000E+00  0.00000000E+00
  0.00000000E+00  0.00000000E+00  0.00000000E+00
  0.00000000E+00  0.00000000E+00  0.00000000E+00
  0.00000000E+00  0.00000000E+00  0.00000000E+00
  0.00000000E+00  0.00000000E+00  0.00000000E+00
  0.00000000E+00  0.00000000E+00  0.00000000E+00
  0.00000000E+00  0.00000000E+00  0.00000000E+00
  0.00000000E+00  0.00000000E+00  0.00000000E+00
  0.00000000E+00  0.00000000E+00  0.00000000E+00
  0.00000000E+00  0.00000000E+00  0.00000000E+00
  0.00000000E+00  0.00000000E+00  0.00000000E+00
  0.00000000E+00  0.00000000E+00  0.00000000E+00
  0.00000000E+00  0.00000000E+00  0.00000000E+00
  0.00000000E+00  0.00000000E+00  0.00000000E+00
  0.00000000E+00  0.00000000E+00  0.00000000E+00
  0.00000000E+00  0.00000000E+00  0.00000000E+00
  0.00000000E+00  0.00000000E+00  0.00000000E+00
  0.00000000E+00  0.00000000E+00  0.00000000E+00
  0.00000000E+00  0.00000000E+00  0.00000000E+00
  0.00000000E+00  0.00000000E+00  0.00000000E+00
  0.00000000E+00  0.00000000E+00  0.00000000E+00
  0.00000000E+00  0.00000000E+00  0.00000000E+00
  0.00000000E+00  0.00000000E+00  0.00000000E+00
  0.00000000E+00  0.00000000E+00  0.00000000E+00
  0.00000000E+00  0.00000000E+00  0.00000000E+00
  0.00000000E+00  0.00000000E+00  0.00000000E+00
  0.00000000E+00  0.00000000E+00  0.00000000E+00
  0.00000000E+00  0.00000000E+00  0.00000000E+00
  0.00000000E+00  0.00000000E+00  0.00000000E+00
  0.00000000E+00  0.00000000E+00  0.00000000E+00
  0.00000000E+00  0.00000000E+00  0.00000000E+00
  0.00000000E+00  0.00000000E+00  0.00000000E+00
  0.00000000E+00  0.00000000E+00  0.00000000E+00
  0.00000000E+00  0.00000000E+00  0.00000000E+00
  0.00000000E+00  0.00000000E+00  0.00000000E+00
  0.00000000E+00  0.00000000E+00  0.00000000E+00
  0.00000000E+00  0.00000000E+00  0.00000000E+00
  0.00000000E+00  0.00000000E+00  0.00000000E+00
  0.00000000E+00  0.00000000E+00  0.00000000E+00
  0.00000000E+00  0.00000000E+00  0.00000000E+00
  0.00000000E+00  0.00000000E+00  0.00000000E+00
  0.00000000E+00  0.00000000E+00  0.00000000E+00
  0.00000000E+00  0.00000000E+00  0.00000000E+00
  0.00000000E+00  0.00000000E+00  0.00000000E+00
  0.00000000E+00  0.00000000E+00  0.00000000E+00
  0.00000000E+00  0.00000000E+00  0.00000000E+00
  0.00000000E+00  0.00000000E+00  0.00000000E+00
  0.00000000E+00  0.00000000E+00  0.00000000E+00
  0.00000000E+00  0.00000000E+00  0.00000000E+00
  0.00000000E+00  0.00000000E+00  0.00000000E+00
  0.00000000E+00  0.00000000E+00  0.00000000E+00
  0.00000000E+00  0.00000000E+00  0.00000000E+00
  0.00000000E+00  0.00000000E+00  0.00000000E+00
  0.00000000E+00  0.00000000E+00  0.00000000E+00
  0.00000000E+00  0.00000000E+00  0.00000000E+00
  0.00000000E+00  0.00000000E+00  0.00000000E+00
  0.00000000E+00  0.00000000E+00  0.00000000E+00
  0.00000000E+00  0.00000000E+00  0.00000000E+00
  0.00000000E+00  0.00000000E+00  0.00000000E+00
  0.00000000E+00  0.00000000E+00  0.00000000E+00
  0.00000000E+00  0.00000000E+00  0.00000000E+00
  0.00000000E+00  0.00000000E+00  0.00000000E+00
  0.00000000E+00  0.00000000E+00  0.00000000E+00
  0.00000000E+00  0.00000000E+00  0.00000000E+00
  0.00000000E+00  0.00000000E+00  0.00000000E+00
  0.00000000E+00  0.00000000E+00  0.00000000E+00
  0.00000000E+00  0.00000000E+00  0.00000000E+00
  0.00000000E+00  0.00000000E+00  0.00000000E+00
  0.00000000E+00  0.00000000E+00  0.00000000E+00
  0.00000000E+00  0.00000000E+00  0.00000000E+00
  0.00000000E+00  0.00000000E+00  0.00000000E+00
  0.00000000E+00  0.00000000E+00  0.00000000E+00
  0.00000000E+00  0.00000000E+00  0.00000000E+00
  0.00000000E+00  0.00000000E+00  0.00000000E+00
  0.00000000E+00  0.00000000E+00  0.00000000E+00
  0.00000000E+00  0.00000000E+00  0.00000000E+00
  0.00000000E+00  0.00000000E+00  0.00000000E+00
  0.00000000E+00  0.00000000E+00  0.00000000E+00
  0.00000000E+00  0.00000000E+00  0.00000000E+00
  0.00000000E+00  0.00000000E+00  0.00000000E+00
  0.00000000E+00  0.00000000E+00  0.00000000E+00
  0.00000000E+00  0.00000000E+00  0.00000000E+00
  0.00000000E+00  0.00000000E+00  0.00000000E+00
  0.00000000E+00  0.00000000E+00  0.00000000E+00
  0.00000000E+00  0.00000000E+00  0.00000000E+00
  0.00000000E+00  0.00000000E+00  0.00000000E+00
  0.00000000E+00  0.00000000E+00  0.00000000E+00
  0.00000000E+00  0.00000000E+00  0.00000000E+00
  0.00000000E+00  0.00000000E+00  0.00000000E+00
  0.00000000E+00  0.00000000E+00  0.00000000E+00
  0.00000000E+00  0.00000000E+00  0.00000000E+00
  0.00000000E+00  0.00000000E+00  0.00000000E+00
  0.00000000E+00  0.00000000E+00  0.00000000E+00
  0.00000000E+00  0.00000000E+00  0.00000000E+00
  0.00000000E+00  0.00000000E+00  0.00000000E+00
  0.00000000E+00  0.00000000E+00  0.00000000E+00
  0.00000000E+00  0.00000000E+00  0.00000000E+00
  0.00000000E+00  0.00000000E+00  0.00000000E+00
  0.00000000E+00  0.00000000E+00  0.00000000E+00
  0.00000000E+00  0.00000000E+00  0.00000000E+00
  0.00000000E+00  0.00000000E+00  0.00000000E+00
  0.00000000E+00  0.00000000E+00  0.00000000E+00
  0.00000000E+00  0.00000000E+00  0.00000000E+00
  0.00000000E+00  0.00000000E+00  0.00000000E+00
  0.00000000E+00  0.00000000E+00  0.00000000E+00
  0.00000000E+00  0.00000000E+00  0.00000000E+00
  0.00000000E+00  0.00000000E+00  0.00000000E+00
  0.00000000E+00  0.00000000E+00  0.00000000E+00
  0.00000000E+00  0.00000000E+00  0.00000000E+00
  0.00000000E+00  0.00000000E+00  0.00000000E+00
  0.00000000E+00  0.00000000E+00  0.00000000E+00
  0.00000000E+00  0.00000000E+00  0.00000000E+00
  0.00000000E+00  0.00000000E+00  0.00000000E+00
  0.00000000E+00  0.00000000E+00  0.00000000E+00
  0.00000000E+00  0.00000000E+00  0.00000000E+00
  0.00000000E+00  0.00000000E+00  0.00000000E+00
  0.00000000E+00  0.00000000E+00  0.00000000E+00
  0.00000000E+00  0.00000000E+00  0.00000000E+00
  0.00000000E+00  0.00000000E+00  0.00000000E+00
  0.00000000E+00  0.00000000E+00  0.00000000E+00
  0.00000000E+00  0.00000000E+00  0.00000000E+00
  0.00000000E+00  0.00000000E+00  0.00000000E+00
  0.00000000E+00  0.00000000E+00  0.00000000E+00
  0.00000000E+00  0.00000000E+00  0.00000000E+00
  0.00000000E+00  0.00000000E+00  0.00000000E+00
  0.00000000E+00  0.00000000E+00  0.00000000E+00
  0.00000000E+00  0.00000000E+00  0.00000000E+00
  0.00000000E+00  0.00000000E+00  0.00000000E+00
  0.00000000E+00  0.00000000E+00  0.00000000E+00
  0.00000000E+00  0.00000000E+00  0.00000000E+00
  0.00000000E+00  0.00000000E+00  0.00000000E+00
  0.00000000E+00  0.00000000E+00  0.00000000E+00
  0.00000000E+00  0.00000000E+00  0.00000000E+00
  0.00000000E+00  0.00000000E+00  0.00000000E+00
  0.00000000E+00  0.00000000E+00  0.00000000E+00
  0.00000000E+00  0.00000000E+00  0.00000000E+00
  0.00000000E+00  0.00000000E+00  0.00000000E+00
  0.00000000E+00  0.00000000E+00  0.00000000E+00
  0.00000000E+00  0.00000000E+00  0.00000000E+00
  0.00000000E+00  0.00000000E+00  0.00000000E+00
  0.00000000E+00  0.00000000E+00  0.00000000E+00
  0.00000000E+00  0.00000000E+00  0.00000000E+00
  0.00000000E+00  0.00000000E+00  0.00000000E+00
  0.00000000E+00  0.00000000E+00  0.00000000E+00
  0.00000000E+00  0.00000000E+00  0.00000000E+00
  0.00000000E+00  0.00000000E+00  0.00000000E+00
  0.00000000E+00  0.00000000E+00  0.00000000E+00
  0.00000000E+00  0.00000000E+00  0.00000000E+00
  0.00000000E+00  0.00000000E+00  0.00000000E+00
  0.00000000E+00  0.00000000E+00  0.00000000E+00
  0.00000000E+00  0.00000000E+00  0.00000000E+00
  0.00000000E+00  0.00000000E+00  0.00000000E+00
  0.00000000E+00  0.00000000E+00  0.00000000E+00
  0.00000000E+00  0.00000000E+00  0.00000000E+00
  0.00000000E+00  0.00000000E+00  0.00000000E+00
  0.00000000E+00  0.00000000E+00  0.00000000E+00
  0.00000000E+00  0.00000000E+00  0.00000000E+00
  0.00000000E+00  0.00000000E+00  0.00000000E+00