 B N C 
 1.0
 14.936314146199660   0.000000000000000   0.000000000000000
 -7.468157073099825  12.935227489513863   0.000000000000000
  0.000000000000001   0.000000000000001  13.341276283792837
 B N C 
 142 142   4
Cartesian
  1.243279699953899   0.718285616700822   5.009835729289443 
  4.977569946669814   7.187507030174406   5.023290767723595 
  6.224571929131637   0.717151718007310   5.010434075867697 
  9.959547185801028   7.186584831745434   5.012398777491099 
 11.202647874092712   0.718550290630594   5.009600981974248 
 -3.733250700636242   9.342504692485635  11.664385153753594 
  1.244324294638224   9.342957668716025  11.666761807253522 
  2.487943127446566   2.874082936277296  11.659371354439617 
  6.222825499410426   9.344765398860151  11.662826813254103 
  7.470136045768056   2.872986085217792  11.663986418256831 
 12.447237735089878   2.873988362268741  11.667224424006973 
 -1.244296500164605   9.342296734229228   5.010120479732363 
 -0.001385824486413   2.874117733288293   5.010428135613562 
  4.978594848846353   2.873264382113779   5.018962900920479 
  3.733377535248823   9.344129006015269   5.012366881438789 
  8.713550161041283   9.343981709361573   5.012382958386000 
  9.959114631351373   2.873377400520152   5.010420407283826 
 -4.978928134871446  11.498177309441360  11.665726570634817 
  0.000735453299288  11.497745476899036  11.666849896771494 
  1.243154884549101   5.031047812851614  11.663047147138741 
  6.223193867628037   5.030486779850957  11.653642240609125 
  4.978372830137532  11.499484031003977  11.666342818399881 
 11.203819286343002   5.029604163639777  11.666364741615352 
 -1.244903934569649   5.030201108930486   5.009747587240943 
 -2.488814926607676  11.497560433283832   5.010483272362915 
  2.489729805668124  11.498728899464449   5.009430885238052 
  3.732984697838499   5.031335875764611   5.023874780603578 
  7.467543044194735  11.499460732305197   5.010242843558619 
  8.714911045659271   5.029240763555864   5.013277121770784 
 -0.000561438168057   7.186847368538769  11.666126319037764 
  1.243279699953899   0.718285616700823  11.666759625451590 
  4.977569946669814   7.187507030174406  11.653304587017466 
  6.224571929131637   0.717151718007311  11.666161278873322 
  9.959547185801028   7.186584831745434  11.664196577249959 
 -2.488657281060159   7.186336974022519   5.010457505063618 
 11.202647874092712   0.718550290630595  11.666994372766917 
  3.733746914660619   0.717294799444285   5.011890007229726 
  2.487784587655550   7.187611454838177   5.014754727855313 
  7.468899396251103   7.187582300716342   5.018810285039053 
  8.714392104997675   0.717794258181734   5.009609717715137 
  2.487784587655550   7.187611454838177  11.661840626885708 
 13.690875086966322   0.718892052625876   5.009434230012858 
 -1.244296500164604   9.342296734229230  11.666474875008738 
 -0.001385824486398   2.874117733288294  11.666167219127539 
  4.978594848846353   2.873264382113780  11.657632453820540 
  3.733377535248824   9.344129006015271  11.664228473302297 
  8.713550161041283   9.343981709361575  11.664212396354994 
  9.959114631351373   2.873377400520153  11.666174947457153 
 -3.733250700636251   9.342504692485646   5.012210200987480 
  1.244324294638224   9.342957668716023   5.009833547487631 
  2.487943127446565   2.874082936277295   5.017224000301483 
  6.222825499410425   9.344765398860149   5.013768541486929 
  7.470136045768055   2.872986085217791   5.012608936484227 
 12.447237735089878   2.873988362268740   5.009370930734195 
 -1.244903934569648   5.030201108930486  11.666847767500103 
 -2.488814926607676  11.497560433283834  11.666112082378117 
  2.489729805668125  11.498728899464451  11.667164469503035 
  3.732984697838499   5.031335875764611  11.652720574137415 
  7.467543044194736  11.499460732305199  11.666352511182508 
 -4.978928134871447  11.498177309441358   5.010868784106242 
  8.714911045659226   5.029240763555864  11.663318232970330 
  0.000735453299288  11.497745476899034   5.009745457969539 
  1.243154884549101   5.031047812851614   5.013548207602238 
 -0.000561438168057   7.186847368538769   5.010469035703204 
  6.223193867628036   5.030486779850957   5.022953114131960 
  4.978372830137531  11.499484031003975   5.010252536341178 
 11.203819286343002   5.029604163639777   5.010230613125707 
 -2.488657281060158   7.186336974022519  11.666137849677494 
  3.733746914660619   0.717294799444286  11.664705347511399 
  7.468899396251103   7.187582300716342  11.657785069702021 
  8.714392104997675   0.717794258181735  11.666985637025949 
 13.690875086966322   0.718892052625877  11.667161124728322 
  0.008198492288570   1.441973038724925   1.667659535474105 
  3.696418366906006   7.881973290960160   1.667659535474105 
  4.967344861625234   1.407913521152319   1.667659535474105 
  8.788593551722441   7.949329101226557   1.667659535474105 
  9.957722286432327   1.430593763151482   1.667659535474105 
 -4.978521926446660  10.060792411725505   8.338297677370523 
 -0.000102598766591  10.060427001804479   8.338297677370523 
  1.244369507997318   3.593282443215494   8.338297677370523 
  4.978676975653244  10.061257709908261   8.338297677370523 
  6.223644587213931   3.592752423688675   8.338297677370523 
 11.202442951171060   3.592911453614525   8.338297677370523 
 -2.479963087935037  10.065233546811450   1.667659535474105 
 -1.236248171941925   3.596101737869640   1.667659535474105 
  2.482199136599625  10.056918711126505   1.667659535474105 
  7.468331751253495  10.062495937319582   1.667659535474105 
  8.712518339022465   3.568678863183971   1.667659535474105 
 -6.223296731563004  12.216532821523609   8.338297677370523 
 -1.244734733516572  12.216219633480518   8.338297677370523 
 -0.000405798844755   5.749001369091912   8.338297677370523 
  4.978694936087881   5.749156776519307   8.338297677370523 
  3.733952889107943  12.216445579419966   8.338297677370523 
  9.957960426578289   5.749151491109968   8.338297677370523 
 -2.490454876643004   5.751732959639228   1.667659535474105 
 -3.727935806069442  12.207225347476861   1.667659535474105 
  1.242872834096413  12.215886150789247   1.667659535474105 
  2.453351592503701   5.768264057521453   1.667659535474105 
  6.221824066143429  12.219600964441820   1.667659535474105 
  7.474000984772407   5.687089521575073   1.667659535474105 
 -1.244952248660137   7.905089645710667   8.338297677370523 
 -0.000300254261639   1.436930432411775   8.338297677370523 
  3.733566569771545   7.905137388382967   8.338297677370523 
  4.979114579070901   1.436691060601141   8.338297677370523 
  8.713729760926189   7.905239044174460   8.338297677370523 
 -3.706319705587344   7.912566198038087   1.667659535474105 
  9.957484412157688   1.437154436666655   8.338297677370523 
  2.509149622610122   1.430109585556012   1.667659535474105 
  1.222317219117563   7.918044542865704   1.667659535474105 
  6.163596713710711   7.922876062399649   1.667659535474105 
  7.461006682004714   1.431871871060822   1.667659535474105 
  1.244421145172327   7.905240884507046   8.338297677370523 
 12.449863933451983   1.437685386939204   1.667659535474105 
 -2.488975409535354  10.060652487363608   8.338297677370523 
 -1.245127443396651   3.593288436781428   8.338297677370523 
  3.733867637927220   3.592804837172901   8.338297677370523 
  2.488915793191708  10.061096268067852   8.338297677370523 
  7.468331162477645  10.060768723806612   8.338297677370523 
  8.713523265026279   3.592911031424572   8.338297677370523 
 -4.959153723196808  10.080723848766914   1.667659535474105 
 -0.003640836360770  10.067820608198678   1.667659535474105 
  1.257986226064367   3.619729992032351   1.667659535474105 
  4.960012724209025  10.071645940428477   1.667659535474105 
  6.192990177802791   3.583412786999917   1.667659535474105 
 11.203501064521562   3.587593400023337   1.667659535474105 
 -2.489103354485401   5.749220213747130   8.338297677370523 
 -3.733914500994267  12.215893452256600   8.338297677370523 
  1.244888824367888  12.216526331279773   8.338297677370523 
  2.488738735065449   5.749306746067134   8.338297677370523 
  6.223210111330721  12.216800006106155   8.338297677370523 
 -6.216073490694147  12.223407740066898   1.667659535474105 
  7.468650109548938   5.748656226210296   8.338297677370523 
 -1.244897094333249  12.216456986044230   1.667659535474105 
 -0.017415617957171   5.757931127882182   1.667659535474105 
 -1.244354802020026   7.911736972590337   1.667659535474105 
  3.729702595750960  12.218668223266109   1.667659535474105 
  9.961744002022762   5.748367543353574   1.667659535474105 
 -3.733581811592642   7.904721957553349   8.338297677370523 
  2.488994719326557   1.436971031395493   8.338297677370523 
  6.223169000724358   7.905409357545545   8.338297677370523 
  7.468488374531516   1.436482079130678   8.338297677370523 
 12.447073487636345   1.437369528319366   8.338297677370523 
  1.261310936062207   0.735790357181637   1.667659535474105 
  4.957472265843294   7.104459908015032   1.667659535474105 
  6.213649239319020   0.726691226513194   1.667659535474105 
  9.986493361477450   7.193054167414712   1.667659535474105 
 11.203226149306376   0.718940196534200   1.667659535474105 
 -3.733743545651390   9.342143252275857   8.338297677370523 
  1.244562378491674   9.342149003147288   8.338297677370523 
  2.489232397216246   2.874353750057540   8.338297677370523 
  6.223378256847408   9.342344015376156   8.338297677370523 
  7.468291271564488   2.874106759481878   8.338297677370523 
 12.446985104931468   2.874466153165190   8.338297677370523 
 -1.242428756242791   9.346738726963844   1.667659535474105 
  0.031118796734355   2.882975281217283   1.667659535474105 
  4.922620239196597   2.876108927209148   1.667659535474105 
  3.733220667352194   9.315672271051984   1.667659535474105 
  8.733611090607919   9.365562103559828   1.667659535474105 
  9.953824717701806   2.865490336010566   1.667659535474105 
 -4.978647842372707  11.498031469683616   8.338297677370523 
  0.000024439425328  11.497912804523631   8.338297677370523 
  1.244493019913329   5.030376468749641   8.338297677370523 
  6.223462058595204   5.030122726793230   8.338297677370523 
  4.978704420406301  11.498192442376661   8.338297677370523 
 11.202493617935401   5.030329026051023   8.338297677370523 
 -1.248156575785886   5.030175335561307   1.667659535474105 
 -2.485819443715330  11.502181072767064   1.667659535474105 
  2.488283094665961  11.493753487748162   1.667659535474105 
  7.470471683698464  11.496707904234606   1.667659535474105 
  8.704633339721521   5.002466003542424   1.667659535474105 
 -0.000107170022258   7.186280451453937   8.338297677370523 
  1.244658025745327   0.718575549931711   8.338297677370523 
  4.978494388325688   7.186285219396938   8.338297677370523 
  6.223519417629571   0.718336031161100   8.338297677370523 
  9.957926818570080   7.186234933693605   8.338297677370523 
 -2.478307327783377   7.186936679929777   1.667659535474105 
 11.202253571926800   0.718651785992890   8.338297677370523 
  3.735542996776877   0.715712433240894   1.667659535474105 
  2.463641590092807   7.187586641638520   1.667659535474105 
  8.704525292459701   0.722485266688712   1.667659535474105 
  2.489108531145501   7.186299726754863   8.338297677370523 
 13.701478209355356   0.722781268452460   1.667659535474105 
 -1.244588290740736   9.342087623319435   8.338297677370523 
 -0.000103581441743   2.874439891452758   8.338297677370523 
  4.978738049831864   2.874169758874824   8.338297677370523 
  3.733809323332113   9.342306030178452   8.338297677370523 
  8.713072129831252   9.342272462888189   8.338297677370523 
  9.957725402750849   2.874318634475586   8.338297677370523 
 -3.724848995334867   9.349544094844571   1.667659535474105 
  1.238750502729885   9.347159816925688   1.667659535474105 
  2.566690932422624   2.909037008462104   1.667659535474105 
  6.196187131502368   9.339643587555605   1.667659535474105 
  7.433207874066385   2.883274673554220   1.667659535474105 
 12.454397065694939   2.876024298146051   1.667659535474105 
 -1.244678382058356   5.030364334400216   8.338297677370523 
 -2.489256255245339  11.497905029557568   8.338297677370523 
  2.489287161955767  11.498055908123993   8.338297677370523 
  3.733840188733681   5.030248084302322   8.338297677370523 
  7.468214897971247  11.498148621289801   8.338297677370523 
 -4.971583186990385  11.511528997299294   1.667659535474105 
  8.713140361349172   5.030205609495012   8.338297677370523 
 -0.002668929091474  11.504339553917404   1.667659535474105 
  1.236717560602333   5.039410437200619   1.667659535474105 
 -0.005855772175010   7.189284067458393   1.667659535474105 
  6.174816499143056   5.036535275071648   1.667659535474105 
  4.973661151207298  11.500892527662609   1.667659535474105 
 11.195186578388128   5.029981193402435   1.667659535474105 
 -2.489164661868223   7.186202826930317   8.338297677370523 
  3.734055113275875   0.718439405794870   8.338297677370523 
  7.468268038859156   7.186257095184743   8.338297677370523 
  8.712892115851657   0.718430300628156   8.338297677370523 
 13.691621744564211   0.718650472762196   8.338297677370523 
  0.000004304458892   1.437590241069183   5.005731983327740 
  3.733873197773331   7.905016315433363   5.008432997876474 
  4.978801600643656   1.437348524809402   5.004247490274607 
  8.712993384005850   7.905198762356247   5.007354088864577 
  9.957841997757789   1.437104569156199   5.007050110709120 
 -4.978588674181300  10.061358170705981  11.667962224908676 
  0.000201658382417  10.061054639622697  11.669533577293112 
  1.244961749792587   3.593275268485600  11.671041943746058 
  4.978488270663213  10.061435769017590  11.668641759672704 
  6.223162805818895   3.593087504787508  11.671553274336979 
 11.202613844614753   3.592965595162656  11.670032991499058 
 -2.489120131903106  10.061115495065405   5.007888215716445 
 -1.244393438856675   3.593051137341338   5.006340086661202 
  3.734082543797859   3.593240121383407   5.011209164209444 
  2.489440222517920  10.061067430635955   5.006372194837951 
  7.468020798678562  10.061085899971326   5.006303374647255 
  8.713167339570557   3.592711257318691   5.007062173700662 
 -6.223611199279999  12.217137260620095  11.670642812205731 
 -1.244442141923606  12.216843946856381  11.670222304124513 
  0.000117560693656   5.748984198088231  11.669994464814929 
  4.978812272813488   5.749346363119055  11.657168585774526 
  3.734117391044603  12.217045487706686  11.669410589942657 
  9.957542333542701   5.749031494441670  11.670583583395009 
 -2.489099604633616   5.748864835702358   5.006651230593203 
 -3.733956233733899  12.217100142637257   5.006393939646884 
  1.244997222402422  12.216829443812209   5.006558279694969 
  2.489320605660052   5.749241824024363   5.011640045781199 
  6.223444693234207  12.217181195621359   5.006738282708846 
  7.468008792377903   5.748880890702575   5.007100982323314 
 -1.244405028547410   7.905013130764211  11.669088128410708 
  0.000004304458892   1.437590241069184  11.670863371413333 
  3.733873197773332   7.905016315433363  11.668162356864599 
  4.978801600643649   1.437348524809416  11.672347864466426 
  8.712993384005850   7.905198762356247  11.669241265876495 
 -3.733643785183125   7.905036869985356   5.008848817822574 
  9.957841997757789   1.437104569156200  11.669545244031873 
  2.489259169045751   1.437656597574989   5.003857237988345 
  1.244640472148121   7.905164415013506   5.007122262589620 
  6.223072572975166   7.905279122762788   5.009614943762818 
  7.468360451820283   1.437227908659181   5.005096606668771 
  1.244640472148122   7.905164415013506  11.669473092151465 
 12.447183752022553   1.437421706356128   5.006502681898283 
 -2.489120131903106  10.061115495065406  11.668707139024574 
 -1.244393438856674   3.593051137341339  11.670255268079725 
  3.734082543797844   3.593240121383433  11.665386190531549 
  2.489440222517921  10.061067430635957  11.670223159903095 
  7.468020798678540  10.061085899971367  11.670291980093738 
  8.713167339570557   3.592711257318692  11.669533181040384 
 -4.978588674181301  10.061358170705979   5.008633129832359 
  0.000201658382416  10.061054639622695   5.007061777447973 
  1.244961749792586   3.593275268485599   5.005553410994976 
  4.978488270663212  10.061435769017589   5.007953595068368 
  6.223162805818895   3.593087504787507   5.005042080404080 
 11.202613844614753   3.592965595162656   5.006562363242003 
 -2.489099604633601   5.748864835702358  11.669944124147790 
 -3.733956233733899  12.217100142637259  11.670201415094148 
  1.244997222402422  12.216829443812211  11.670037075045970 
  2.489320605660052   5.749241824024363  11.664955308959886 
  6.223444693234208  12.217181195621361  11.669857072032373 
 -6.223611199280000  12.217137260620094   5.005952542535328 
  7.468008792377904   5.748880890702575  11.669494372417747 
 -1.244442141923606  12.216843946856379   5.006373050616586 
  0.000117560693656   5.748984198088231   5.006600889926184 
 -1.244405028547410   7.905013130764211   5.007507226330405 
  4.978812272813487   5.749346363119055   5.019426768966547 
  3.734117391044603  12.217045487706685   5.007184764798335 
  9.957542333542701   5.749031494441670   5.006011771346144 
 -3.733643785183125   7.905036869985356  11.667746536918447 
  2.489259169045751   1.437656597574990  11.672738116752740 
  6.223072572975167   7.905279122762788  11.666980410978296 
  7.468360451820284   1.437227908659181  11.671498748072342 
 12.447183752022553   1.437421706356129  11.670092672842829 
  3.785977211068837   5.001128505087194   1.667659535474105 
  7.472094473156029   7.187123151184397   1.667659535474105 
  3.757243467664295   3.565880106068255   1.667659535474105 
  4.991916616432011   5.726140432201193   1.667659535474105 
Generated by cif2cell 2.0.0.  :  Failed to get author information, No journal information. Species order: B N C 
 1.0
 14.936314146199660   0.000000000000000   0.000000000000000
 -7.468157073099825  12.935227489513863   0.000000000000000
  0.000000000000001   0.000000000000001  13.341276283792837
 B N C 
 142 142   4
Cartesian
  1.243279699953899   0.718285616700822   5.009835729289443 
  4.977569946669814   7.187507030174406   5.023290767723595 
  6.224571929131637   0.717151718007310   5.010434075867697 
  9.959547185801028   7.186584831745434   5.012398777491099 
 11.202647874092712   0.718550290630594   5.009600981974248 
 -3.733250700636242   9.342504692485635  11.664385153753594 
  1.244324294638224   9.342957668716025  11.666761807253522 
  2.487943127446566   2.874082936277296  11.659371354439617 
  6.222825499410426   9.344765398860151  11.662826813254103 
  7.470136045768056   2.872986085217792  11.663986418256831 
 12.447237735089878   2.873988362268741  11.667224424006973 
 -1.244296500164605   9.342296734229228   5.010120479732363 
 -0.001385824486413   2.874117733288293   5.010428135613562 
  4.978594848846353   2.873264382113779   5.018962900920479 
  3.733377535248823   9.344129006015269   5.012366881438789 
  8.713550161041283   9.343981709361573   5.012382958386000 
  9.959114631351373   2.873377400520152   5.010420407283826 
 -4.978928134871446  11.498177309441360  11.665726570634817 
  0.000735453299288  11.497745476899036  11.666849896771494 
  1.243154884549101   5.031047812851614  11.663047147138741 
  6.223193867628037   5.030486779850957  11.653642240609125 
  4.978372830137532  11.499484031003977  11.666342818399881 
 11.203819286343002   5.029604163639777  11.666364741615352 
 -1.244903934569649   5.030201108930486   5.009747587240943 
 -2.488814926607676  11.497560433283832   5.010483272362915 
  2.489729805668124  11.498728899464449   5.009430885238052 
  3.732984697838499   5.031335875764611   5.023874780603578 
  7.467543044194735  11.499460732305197   5.010242843558619 
  8.714911045659271   5.029240763555864   5.013277121770784 
 -0.000561438168057   7.186847368538769  11.666126319037764 
  1.243279699953899   0.718285616700823  11.666759625451590 
  4.977569946669814   7.187507030174406  11.653304587017466 
  6.224571929131637   0.717151718007311  11.666161278873322 
  9.959547185801028   7.186584831745434  11.664196577249959 
 -2.488657281060159   7.186336974022519   5.010457505063618 
 11.202647874092712   0.718550290630595  11.666994372766917 
  3.733746914660619   0.717294799444285   5.011890007229726 
  2.487784587655550   7.187611454838177   5.014754727855313 
  7.468899396251103   7.187582300716342   5.018810285039053 
  8.714392104997675   0.717794258181734   5.009609717715137 
  2.487784587655550   7.187611454838177  11.661840626885708 
 13.690875086966322   0.718892052625876   5.009434230012858 
 -1.244296500164604   9.342296734229230  11.666474875008738 
 -0.001385824486398   2.874117733288294  11.666167219127539 
  4.978594848846353   2.873264382113780  11.657632453820540 
  3.733377535248824   9.344129006015271  11.664228473302297 
  8.713550161041283   9.343981709361575  11.664212396354994 
  9.959114631351373   2.873377400520153  11.666174947457153 
 -3.733250700636251   9.342504692485646   5.012210200987480 
  1.244324294638224   9.342957668716023   5.009833547487631 
  2.487943127446565   2.874082936277295   5.017224000301483 
  6.222825499410425   9.344765398860149   5.013768541486929 
  7.470136045768055   2.872986085217791   5.012608936484227 
 12.447237735089878   2.873988362268740   5.009370930734195 
 -1.244903934569648   5.030201108930486  11.666847767500103 
 -2.488814926607676  11.497560433283834  11.666112082378117 
  2.489729805668125  11.498728899464451  11.667164469503035 
  3.732984697838499   5.031335875764611  11.652720574137415 
  7.467543044194736  11.499460732305199  11.666352511182508 
 -4.978928134871447  11.498177309441358   5.010868784106242 
  8.714911045659226   5.029240763555864  11.663318232970330 
  0.000735453299288  11.497745476899034   5.009745457969539 
  1.243154884549101   5.031047812851614   5.013548207602238 
 -0.000561438168057   7.186847368538769   5.010469035703204 
  6.223193867628036   5.030486779850957   5.022953114131960 
  4.978372830137531  11.499484031003975   5.010252536341178 
 11.203819286343002   5.029604163639777   5.010230613125707 
 -2.488657281060158   7.186336974022519  11.666137849677494 
  3.733746914660619   0.717294799444286  11.664705347511399 
  7.468899396251103   7.187582300716342  11.657785069702021 
  8.714392104997675   0.717794258181735  11.666985637025949 
 13.690875086966322   0.718892052625877  11.667161124728322 
  0.008198492288570   1.441973038724925   1.667659535474105 
  3.696418366906006   7.881973290960160   1.667659535474105 
  4.967344861625234   1.407913521152319   1.667659535474105 
  8.788593551722441   7.949329101226557   1.667659535474105 
  9.957722286432327   1.430593763151482   1.667659535474105 
 -4.978521926446660  10.060792411725505   8.338297677370523 
 -0.000102598766591  10.060427001804479   8.338297677370523 
  1.244369507997318   3.593282443215494   8.338297677370523 
  4.978676975653244  10.061257709908261   8.338297677370523 
  6.223644587213931   3.592752423688675   8.338297677370523 
 11.202442951171060   3.592911453614525   8.338297677370523 
 -2.479963087935037  10.065233546811450   1.667659535474105 
 -1.236248171941925   3.596101737869640   1.667659535474105 
  2.482199136599625  10.056918711126505   1.667659535474105 
  7.468331751253495  10.062495937319582   1.667659535474105 
  8.712518339022465   3.568678863183971   1.667659535474105 
 -6.223296731563004  12.216532821523609   8.338297677370523 
 -1.244734733516572  12.216219633480518   8.338297677370523 
 -0.000405798844755   5.749001369091912   8.338297677370523 
  4.978694936087881   5.749156776519307   8.338297677370523 
  3.733952889107943  12.216445579419966   8.338297677370523 
  9.957960426578289   5.749151491109968   8.338297677370523 
 -2.490454876643004   5.751732959639228   1.667659535474105 
 -3.727935806069442  12.207225347476861   1.667659535474105 
  1.242872834096413  12.215886150789247   1.667659535474105 
  2.453351592503701   5.768264057521453   1.667659535474105 
  6.221824066143429  12.219600964441820   1.667659535474105 
  7.474000984772407   5.687089521575073   1.667659535474105 
 -1.244952248660137   7.905089645710667   8.338297677370523 
 -0.000300254261639   1.436930432411775   8.338297677370523 
  3.733566569771545   7.905137388382967   8.338297677370523 
  4.979114579070901   1.436691060601141   8.338297677370523 
  8.713729760926189   7.905239044174460   8.338297677370523 
 -3.706319705587344   7.912566198038087   1.667659535474105 
  9.957484412157688   1.437154436666655   8.338297677370523 
  2.509149622610122   1.430109585556012   1.667659535474105 
  1.222317219117563   7.918044542865704   1.667659535474105 
  6.163596713710711   7.922876062399649   1.667659535474105 
  7.461006682004714   1.431871871060822   1.667659535474105 
  1.244421145172327   7.905240884507046   8.338297677370523 
 12.449863933451983   1.437685386939204   1.667659535474105 
 -2.488975409535354  10.060652487363608   8.338297677370523 
 -1.245127443396651   3.593288436781428   8.338297677370523 
  3.733867637927220   3.592804837172901   8.338297677370523 
  2.488915793191708  10.061096268067852   8.338297677370523 
  7.468331162477645  10.060768723806612   8.338297677370523 
  8.713523265026279   3.592911031424572   8.338297677370523 
 -4.959153723196808  10.080723848766914   1.667659535474105 
 -0.003640836360770  10.067820608198678   1.667659535474105 
  1.257986226064367   3.619729992032351   1.667659535474105 
  4.960012724209025  10.071645940428477   1.667659535474105 
  6.192990177802791   3.583412786999917   1.667659535474105 
 11.203501064521562   3.587593400023337   1.667659535474105 
 -2.489103354485401   5.749220213747130   8.338297677370523 
 -3.733914500994267  12.215893452256600   8.338297677370523 
  1.244888824367888  12.216526331279773   8.338297677370523 
  2.488738735065449   5.749306746067134   8.338297677370523 
  6.223210111330721  12.216800006106155   8.338297677370523 
 -6.216073490694147  12.223407740066898   1.667659535474105 
  7.468650109548938   5.748656226210296   8.338297677370523 
 -1.244897094333249  12.216456986044230   1.667659535474105 
 -0.017415617957171   5.757931127882182   1.667659535474105 
 -1.244354802020026   7.911736972590337   1.667659535474105 
  3.729702595750960  12.218668223266109   1.667659535474105 
  9.961744002022762   5.748367543353574   1.667659535474105 
 -3.733581811592642   7.904721957553349   8.338297677370523 
  2.488994719326557   1.436971031395493   8.338297677370523 
  6.223169000724358   7.905409357545545   8.338297677370523 
  7.468488374531516   1.436482079130678   8.338297677370523 
 12.447073487636345   1.437369528319366   8.338297677370523 
  1.261310936062207   0.735790357181637   1.667659535474105 
  4.957472265843294   7.104459908015032   1.667659535474105 
  6.213649239319020   0.726691226513194   1.667659535474105 
  9.986493361477450   7.193054167414712   1.667659535474105 
 11.203226149306376   0.718940196534200   1.667659535474105 
 -3.733743545651390   9.342143252275857   8.338297677370523 
  1.244562378491674   9.342149003147288   8.338297677370523 
  2.489232397216246   2.874353750057540   8.338297677370523 
  6.223378256847408   9.342344015376156   8.338297677370523 
  7.468291271564488   2.874106759481878   8.338297677370523 
 12.446985104931468   2.874466153165190   8.338297677370523 
 -1.242428756242791   9.346738726963844   1.667659535474105 
  0.031118796734355   2.882975281217283   1.667659535474105 
  4.922620239196597   2.876108927209148   1.667659535474105 
  3.733220667352194   9.315672271051984   1.667659535474105 
  8.733611090607919   9.365562103559828   1.667659535474105 
  9.953824717701806   2.865490336010566   1.667659535474105 
 -4.978647842372707  11.498031469683616   8.338297677370523 
  0.000024439425328  11.497912804523631   8.338297677370523 
  1.244493019913329   5.030376468749641   8.338297677370523 
  6.223462058595204   5.030122726793230   8.338297677370523 
  4.978704420406301  11.498192442376661   8.338297677370523 
 11.202493617935401   5.030329026051023   8.338297677370523 
 -1.248156575785886   5.030175335561307   1.667659535474105 
 -2.485819443715330  11.502181072767064   1.667659535474105 
  2.488283094665961  11.493753487748162   1.667659535474105 
  7.470471683698464  11.496707904234606   1.667659535474105 
  8.704633339721521   5.002466003542424   1.667659535474105 
 -0.000107170022258   7.186280451453937   8.338297677370523 
  1.244658025745327   0.718575549931711   8.338297677370523 
  4.978494388325688   7.186285219396938   8.338297677370523 
  6.223519417629571   0.718336031161100   8.338297677370523 
  9.957926818570080   7.186234933693605   8.338297677370523 
 -2.478307327783377   7.186936679929777   1.667659535474105 
 11.202253571926800   0.718651785992890   8.338297677370523 
  3.735542996776877   0.715712433240894   1.667659535474105 
  2.463641590092807   7.187586641638520   1.667659535474105 
  8.704525292459701   0.722485266688712   1.667659535474105 
  2.489108531145501   7.186299726754863   8.338297677370523 
 13.701478209355356   0.722781268452460   1.667659535474105 
 -1.244588290740736   9.342087623319435   8.338297677370523 
 -0.000103581441743   2.874439891452758   8.338297677370523 
  4.978738049831864   2.874169758874824   8.338297677370523 
  3.733809323332113   9.342306030178452   8.338297677370523 
  8.713072129831252   9.342272462888189   8.338297677370523 
  9.957725402750849   2.874318634475586   8.338297677370523 
 -3.724848995334867   9.349544094844571   1.667659535474105 
  1.238750502729885   9.347159816925688   1.667659535474105 
  2.566690932422624   2.909037008462104   1.667659535474105 
  6.196187131502368   9.339643587555605   1.667659535474105 
  7.433207874066385   2.883274673554220   1.667659535474105 
 12.454397065694939   2.876024298146051   1.667659535474105 