Species order:  N B                     
   2.51242800000000     
     5.9449720136058266    0.0000000000000000    0.0000000000000000
    -2.9724860068029120    5.1484967885702053   -0.0000000000000001
     0.0000000000000000    0.0000000000000009    5.3101128803662583
   N    B 
   144   143
Direct
  0.1111120028913737  0.0555479145954955  0.1252651202980386
  0.6111086839077196  0.5555611293042305  0.1266115283441770
  0.4444359117039921  0.0555479145954955  0.1252651202980386
  0.9444497648918457  0.5555644336498152  0.1250859079898825
  0.7777777777777786  0.0555555555555571  0.1249681860571581
  0.1111111111111143  0.7222222222222214  0.6250054217371208
  0.4444359117039921  0.7222213304408011  0.6247348797017482
  0.2777722040286733  0.2222246494257283  0.6233884716557249
  0.7777854187369930  0.7222213304408011  0.6247348797017482
  0.6111055911343117  0.2222277421991185  0.6245675915520308
  0.9444571207027787  0.2222354345301011  0.6250946557461863
  0.2777688996835355  0.7222186645745763  0.1250859079898825
  0.1111221510650183  0.2222277421991185  0.1254324084486643
  0.4444524453971430  0.2222246494257283  0.1266115283441805
  0.6111055911343117  0.7222111822682119  0.1254324084486682
  0.9444497648918457  0.7222186645745763  0.1250859079898825
  0.7777783138269296  0.2222354345301011  0.1249053442532209
  0.1111146687584556  0.8888835684414829  0.6249140920094249
  0.4444322060529741  0.8888827696924412  0.6251816340312208
  0.2777722040286733  0.3888808879361856  0.6233884716557249
  0.6111086839077196  0.3888808879361856  0.6233884716557249
  0.7777783138269296  0.8888762126305499  0.6250946557461863
  0.9444505636408874  0.3889011272803545  0.6251816340312208
  0.1111120028913737  0.3888974216293365  0.1252651202980386
  0.2777688996835355  0.8888835684414829  0.1250859079898825
  0.6110978988036111  0.8888762126305499  0.1249053442532209
  0.4444444444444429  0.3888888888888857  0.1266947017805246
  0.9444505636408874  0.8888827696924412  0.1248183659690879
  0.7777854187369930  0.3888974216293365  0.1252651202980386
  0.2777824605957732  0.5555508727379654  0.6241632650507041
  0.1111120028913737  0.0555479145954955  0.6247348797017482
  0.6111086839077196  0.5555611293042305  0.6233884716557249
  0.4444359117039921  0.0555479145954955  0.6247348797017482
  0.9444497648918457  0.5555644336498152  0.6249140920094249
  0.1111146687584556  0.5555644336498152  0.1250859079898825
  0.7777777777777786  0.0555555555555571  0.6250318139430293
  0.2777824605957732  0.0555649211911687  0.1258367349487967
  0.4444524453971430  0.5555611293042305  0.1266115283441770
  0.7777684121417893  0.5555508727379654  0.1258367349487967
  0.6110978988036111  0.0555550195069143  0.1249053442532209
  0.4444524453971430  0.5555611293042305  0.6233884716557249
  0.9444571207027787  0.0555550195069143  0.1249053442532209
  0.2777688996835355  0.7222186645745763  0.6249140920094249
  0.1111221510650183  0.2222277421991185  0.6245675915520308
  0.4444524453971430  0.2222246494257283  0.6233884716557249
  0.6111055911343117  0.7222111822682119  0.6245675915520308
  0.9444497648918457  0.7222186645745763  0.6249140920094249
  0.7777783138269296  0.2222354345301011  0.6250946557461863
  0.1111111111111143  0.7222222222222214  0.1249945782630647
  0.4444359117039921  0.7222213304408011  0.1252651202980386
  0.2777722040286733  0.2222246494257283  0.1266115283441770
  0.7777854187369930  0.7222213304408011  0.1252651202980386
  0.6111055911343117  0.2222277421991185  0.1254324084486682
  0.9444571207027787  0.2222354345301011  0.1249053442532209
  0.1111120028913737  0.3888974216293365  0.6247348797017482
  0.2777688996835355  0.8888835684414829  0.6249140920094249
  0.6110978988036111  0.8888762126305499  0.6250946557461863
  0.4444444444444429  0.3888888888888857  0.6233052982199745
  0.9444505636408874  0.8888827696924412  0.6251816340312208
  0.1111146687584556  0.8888835684414829  0.1250859079898825
  0.7777854187369930  0.3888974216293365  0.6247348797017482
  0.4444322060529741  0.8888827696924412  0.1248183659690879
  0.2777722040286733  0.3888808879361856  0.1266115283441770
  0.2777824605957732  0.5555508727379654  0.1258367349487967
  0.6111086839077196  0.3888808879361856  0.1266115283441810
  0.7777783138269296  0.8888762126305499  0.1249053442532209
  0.9444505636408874  0.3889011272803545  0.1248183659690879
  0.1111146687584556  0.5555644336498152  0.6249140920094249
  0.2777824605957732  0.0555649211911687  0.6241632650507041
  0.7777684121417893  0.5555508727379654  0.6241632650507041
  0.6110978988036111  0.0555550195068647  0.6250946557461863
  0.9444571207027787  0.0555550195068647  0.6250946557461863
  0.0550239368040625  0.1107529743773972  0.3750000000000000
  0.5562740092017742  0.6125480184035331  0.3750000000000000
  0.3892472336934473  0.1111246250608003  0.3750000000000000
  0.8885155481094456  0.6109244407214215  0.3750000000000000
  0.7223010291983378  0.1110323041353394  0.3750000000000000
  0.0555535761988088  0.7777797571352070  0.8750000000000000
  0.3888929272467956  0.7777790089376653  0.8750000000000000
  0.2222203822753852  0.2777768578048660  0.8750000000000000
  0.7222237941108516  0.7777822480860606  0.8750000000000000
  0.5555564755288772  0.2777768578048660  0.8750000000000000
  0.8888883984269262  0.2777767968550999  0.8750000000000000
  0.2222773893280233  0.7778053613303322  0.3750000000000000
  0.0550239368040625  0.2776042957597138  0.3750000000000000
  0.3869732432232915  0.2739464864467936  0.3750000000000000
  0.5557290375736119  0.7783093965302496  0.3750000000000000
  0.8889641626426400  0.7779113492215827  0.3750000000000000
  0.7225803589558215  0.2776042957597138  0.3750000000000000
  0.0555543243955572  0.9444472516426754  0.8750000000000000
  0.3888929272467956  0.9444472516426754  0.8750000000000000
  0.2222238154406099  0.4444406724087494  0.8750000000000000
  0.5555568258638824  0.4444450795986055  0.8750000000000000
  0.7222235172718942  0.9444470345409818  0.8750000000000000
  0.8888860816906532  0.4444404060865330  0.8750000000000000
  0.0554219841119987  0.4443861467551699  0.3750000000000000
  0.2224088926117438  0.9448177852238830  0.3750000000000000
  0.5556346810998938  0.9444840072164258  0.3750000000000000
  0.3869732432232915  0.4463600901100371  0.3750000000000000
  0.8888493261169028  0.9444840072164258  0.3750000000000000
  0.7222087082732490  0.4440860996398813  0.3750000000000000
  0.2222260901937985  0.6111072431403606  0.8750000000000000
  0.0555510852476628  0.1111095392216147  0.8750000000000000
  0.5555564755288772  0.6111129510569394  0.8750000000000000
  0.3888926609245792  0.1111164763651906  0.8750000000000000
  0.8888811529453251  0.6111072431403606  0.8750000000000000
  0.0555279720026836  0.6110559440056481  0.3750000000000000
  0.7222235172718942  0.1111098160623837  0.8750000000000000
  0.2218773913668440  0.1111246250608003  0.3750000000000000
  0.3892472336934473  0.6114559419664705  0.3750000000000000
  0.7222087082732417  0.6114559419664705  0.3750000000000000
  0.5557290375736119  0.1107529743773972  0.3750000000000000
  0.3888926609245792  0.6111095178936431  0.8750000000000000
  0.8887312749370446  0.1110323041353394  0.3750000000000000
  0.2222261809357690  0.7777797571352070  0.8750000000000000
  0.0555510852476628  0.2777748793597577  0.8750000000000000
  0.3888882537347231  0.2777765074702863  0.8750000000000000
  0.5555584539743837  0.7777822480860606  0.8750000000000000
  0.8888860816906532  0.7777790089376653  0.8750000000000000
  0.7222237941108516  0.2777748793597577  0.8750000000000000
  0.0555279720026836  0.7778053613303322  0.3750000000000000
  0.3889471865781587  0.7779113492215827  0.3750000000000000
  0.2207853149296041  0.2770593241315691  0.3750000000000000
  0.7225803589558333  0.7783093965302496  0.3750000000000000
  0.5562740092017742  0.2770593241315691  0.3750000000000000
  0.8888493261169028  0.2776986522332228  0.3750000000000000
  0.0555543243955572  0.4444404060865330  0.8750000000000000
  0.2222260901937985  0.9444521803880035  0.8750000000000000
  0.5555565364782511  0.9444449349064024  0.8750000000000000
  0.3888882537347231  0.4444450795986055  0.8750000000000000
  0.8888883984269262  0.9444449349064024  0.8750000000000000
  0.0554219841119986  0.9443691706906886  0.3750000000000000
  0.7222168569678463  0.4444406724087494  0.8750000000000000
  0.3889471865781587  0.9443691706906886  0.3750000000000000
  0.2218773913668440  0.4440860996398813  0.3750000000000000
  0.2224088926117438  0.6109244407214215  0.3750000000000000
  0.5593868468867456  0.4463600901100371  0.3750000000000000
  0.7223010291983378  0.9446020583962840  0.3750000000000000
  0.8889641626426400  0.4443861467551699  0.3750000000000000
  0.0555535761988088  0.6111071523982852  0.8750000000000000
  0.2222238154406099  0.1111164763651906  0.8750000000000000
  0.7222168569678463  0.6111095178936431  0.8750000000000000
  0.5555584539743837  0.1111095392216147  0.8750000000000000
  0.8888862987923468  0.1111098160623837  0.8750000000000000
  0.1097186042555772  0.0547194673616482  0.3750000000000000
  0.6126797063517956  0.5594207809326782  0.3750000000000000
  0.4450008631057332  0.0547194673616482  0.3750000000000000
  0.9445990236349091  0.5554246243161375  0.3750000000000000
  0.7777777777777786  0.0555555555555571  0.3750000000000000
  0.1111111111111143  0.7222222222222214  0.8750000000000000
  0.4444620895304559  0.7222673158358673  0.8750000000000000
  0.2777207722542556  0.2221796628642283  0.8750000000000000
  0.7778052263035794  0.7222673158358673  0.8750000000000000
  0.6111429998062761  0.2221903335258625  0.8750000000000000
  0.9444158405343367  0.2222039105883996  0.8750000000000000
  0.2779087090166093  0.7225077326508996  0.3750000000000000
  0.1085302193572974  0.2209317763455444  0.3750000000000000
  0.4467410745808512  0.2206536269817418  0.3750000000000000
  0.6124015569881935  0.7248031139764152  0.3750000000000000
  0.9445990236349091  0.7225077326508996  0.3750000000000000
  0.7781486792746503  0.2217777864952999  0.3750000000000000
  0.1110997696945852  0.8888781229969395  0.8750000000000000
  0.4444598535208673  0.8888965934262916  0.8750000000000000
  0.2777207722542556  0.3888744427226683  0.8750000000000000
  0.6111536704688029  0.3888744427226683  0.8750000000000000
  0.7777880700549872  0.8889174927989919  0.8750000000000000
  0.9444367399070370  0.3888734798124613  0.8750000000000000
  0.1097186042555772  0.3883324702275954  0.3750000000000000
  0.2779087090166093  0.8887343096984195  0.3750000000000000
  0.6115555468372257  0.8897042261122575  0.3750000000000000
  0.9443119582504822  0.8890213750828464  0.3750000000000000
  0.7786138659728202  0.3883324702275954  0.3750000000000000
  0.2777603226584505  0.5555730106748956  0.8750000000000000
  0.1110660174978819  0.0555281070291703  0.8750000000000000
  0.6111536704688029  0.5556125610790491  0.8750000000000000
  0.4444620895304559  0.0555281070291703  0.8750000000000000
  0.9444552103363891  0.5555549800312028  0.8750000000000000
  0.1108256006822325  0.5554246243161375  0.3750000000000000
  0.7777777777777786  0.0555555555555571  0.8750000000000000
  0.2774305986433023  0.0548611972870851  0.3750000000000000
  0.4467410745808512  0.5594207809326782  0.3750000000000000
  0.7784721360467312  0.5559027346896249  0.3750000000000000
  0.6115555468372257  0.0551846540596208  0.3750000000000000
  0.4444588906106603  0.5556125610790491  0.8750000000000000
  0.9436291072210711  0.0551846540596208  0.3750000000000000
  0.2777783533015258  0.7222335636380725  0.8750000000000000
  0.1110473337188574  0.2221903335258625  0.8750000000000000
  0.4444588906106603  0.2221796628642283  0.8750000000000000
  0.6111429998062761  0.7222859996149316  0.8750000000000000
  0.9444552103363891  0.7222335636380725  0.8750000000000000
  0.7777880700549872  0.2222039105883996  0.8750000000000000
  0.1111111111111143  0.7222222222222214  0.3750000000000000
  0.4450008631057332  0.7236147290781181  0.3750000000000000
  0.2739125524000765  0.2206536269817418  0.3750000000000000
  0.7786138659728202  0.7236147290781181  0.3750000000000000
  0.6124015569881935  0.2209317763455444  0.3750000000000000
  0.9436291072210711  0.2217777864952999  0.3750000000000000
  0.1110660174978819  0.3888712438028727  0.8750000000000000
  0.2777783533015258  0.8888781229969395  0.8750000000000000
  0.6111294227452345  0.8889174927989919  0.8750000000000000
  0.4444444444444429  0.3888888888888857  0.8750000000000000
  0.9444367399070370  0.8888965934262916  0.8750000000000000
  0.1108256006822325  0.8887343096984195  0.3750000000000000
  0.7778052263035794  0.3888712438028727  0.8750000000000000
  0.4447094168344357  0.8890213750828464  0.3750000000000000
  0.2739125524000765  0.3865922587524774  0.3750000000000000
  0.2774305986433023  0.5559027346896249  0.3750000000000000
  0.6126797063517956  0.3865922587524774  0.3750000000000000
  0.7781486792746503  0.8897042261122575  0.3750000000000000
  0.9443119582504822  0.3886239164988929  0.3750000000000000
  0.1110997696945852  0.5555549800312028  0.8750000000000000
  0.2777603226584505  0.0555206453168342  0.8750000000000000
  0.7778126880164347  0.5555730106748956  0.8750000000000000
  0.6111294227452345  0.0555452632787693  0.8750000000000000
  0.9444158405343367  0.0555452632787693  0.8750000000000000
  0.0554437076444027  0.1110141003339573  0.1246201095677130
  0.5556474490252503  0.6112948980504914  0.1253473784315337
  0.3888516541768361  0.1109111737194173  0.1251806072864462
  0.8890571431157821  0.6111952382237286  0.1248040842749066
  0.7222335549035461  0.1110997784308179  0.1245077239094410
  0.0555771398788334  0.7777561934538056  0.6254144390723820
  0.3888480348723123  0.7778272774966306  0.6254443209312079
  0.2220384352828409  0.2776858843080900  0.6246526215689158
  0.7223192329994315  0.7778896256884889  0.6253798904323766
  0.5556474490252503  0.2776858843080900  0.6246526215689158
  0.8888968389289078  0.2777936778585963  0.6255786041188517
  0.2221790535757208  0.7777561934538056  0.1245855609281337
  0.0554437076444027  0.2777629406442517  0.1246201095677130
  0.3888629418096348  0.2777258836193018  0.1257896961115512
  0.5555703926898856  0.7778896256884889  0.1246201095677130
  0.8889792426237141  0.7778272774966306  0.1245556790692431
  0.7223192329994315  0.2777629406442517  0.1246201095677130
  0.0555060558371504  0.9443540907096145  0.6254443209312079
  0.3888480348723123  0.9443540907096145  0.6254443209312079
  0.2220595195419121  0.4444816791564924  0.6248193927130963
  0.5556074497140590  0.4444703915236938  0.6242103038884671
  0.7222335549035461  0.9444671098054407  0.6254922760905145
  0.8889792426237141  0.4444852984610163  0.6254443209312079
  0.0555060558371502  0.4444852984610163  0.1245556790692431
  0.2221380951086712  0.9442761902175465  0.1248040842749066
  0.5555396554751204  0.9444364944044208  0.1244213958821666
  0.3888629418096348  0.4444703915236938  0.1257896961115512
  0.8888968389289078  0.9444364944044208  0.1244213958821666
  0.7224221596140775  0.4444816791564924  0.1251806072864460
  0.2221380951086712  0.6111952382237286  0.6251959157261651
  0.0554437076444027  0.1110141003339573  0.6253798904323766
  0.5556474490252503  0.6112948980504914  0.6246526215689158
  0.3888516541768361  0.1109111737194173  0.6248193927130963
  0.8890571431157821  0.6111952382237286  0.6251959157261651
  0.0555771398788334  0.6111542797578224  0.1245855609281337
  0.7222335549035461  0.1110997784308179  0.6254922760905145
  0.2220595195419121  0.1109111737194173  0.1251806072864462
  0.3888516541768361  0.6112738137907048  0.1251806072864462
  0.7224221596140775  0.6112738137907048  0.1251806072864462
  0.5555703926898856  0.1110141003339573  0.1246201095677130
  0.3888516541768361  0.6112738137907048  0.6248193927130963
  0.8888662235278879  0.1110997784308179  0.1245077239094410
  0.2221790535757208  0.7777561934538056  0.6254144390723820
  0.0554437076444027  0.2777629406442517  0.6253798904323766
  0.3888629418096348  0.2777258836193018  0.6242103038884671
  0.5555703926898856  0.7778896256884889  0.6253798904323766
  0.8889792426237141  0.7778272774966306  0.6254443209312079
  0.7223192329994315  0.2777629406442517  0.6253798904323766
  0.0555771398788334  0.7777561934538056  0.1245855609281337
  0.3888480348723123  0.7778272774966306  0.1245556790692431
  0.2220384352828409  0.2776858843080900  0.1253473784315337
  0.7223192329994315  0.7778896256884889  0.1246201095677130
  0.5556474490252503  0.2776858843080900  0.1253473784315337
  0.8888968389289078  0.2777936778585963  0.1244213958821666
  0.0555060558371504  0.4444852984610163  0.6254443209312079
  0.2221380951086712  0.9442761902175465  0.6251959157261651
  0.5555396554751204  0.9444364944044208  0.6255786041188517
  0.3888629418096348  0.4444703915236938  0.6242103038884671
  0.8888968389289078  0.9444364944044208  0.6255786041188517
  0.0555060558371504  0.9443540907096145  0.1245556790692431
  0.7224221596140775  0.4444816791564924  0.6248193927130963
  0.3888480348723123  0.9443540907096145  0.1245556790692431
  0.2220595195419121  0.4444816791564924  0.1251806072864460
  0.2221380951086712  0.6111952382237286  0.1248040842749066
  0.5556074497140590  0.4444703915236938  0.1257896961115512
  0.7222335549035461  0.9444671098054407  0.1245077239094410
  0.8889792426237141  0.4444852984610163  0.1245556790692431
  0.0555771398788334  0.6111542797578224  0.6254144390723820
  0.2220595195419121  0.1109111737194173  0.6248193927130963
  0.7224221596140775  0.6112738137907048  0.6248193927130963
  0.5555703926898856  0.1110141003339573  0.6253798904323766
  0.8888662235278879  0.1110997784308179  0.6254922760905145
 
  0.00000000E+00  0.00000000E+00  0.00000000E+00
  0.00000000E+00  0.00000000E+00  0.00000000E+00
  0.00000000E+00  0.00000000E+00  0.00000000E+00
  0.00000000E+00  0.00000000E+00  0.00000000E+00
  0.00000000E+00  0.00000000E+00  0.00000000E+00
  0.00000000E+00  0.00000000E+00  0.00000000E+00
  0.00000000E+00  0.00000000E+00  0.00000000E+00
  0.00000000E+00  0.00000000E+00  0.00000000E+00
  0.00000000E+00  0.00000000E+00  0.00000000E+00
  0.00000000E+00  0.00000000E+00  0.00000000E+00
  0.00000000E+00  0.00000000E+00  0.00000000E+00
  0.00000000E+00  0.00000000E+00  0.00000000E+00
  0.00000000E+00  0.00000000E+00  0.00000000E+00
  0.00000000E+00  0.00000000E+00  0.00000000E+00
  0.00000000E+00  0.00000000E+00  0.00000000E+00
  0.00000000E+00  0.00000000E+00  0.00000000E+00
  0.00000000E+00  0.00000000E+00  0.00000000E+00
  0.00000000E+00  0.00000000E+00  0.00000000E+00
  0.00000000E+00  0.00000000E+00  0.00000000E+00
  0.00000000E+00  0.00000000E+00  0.00000000E+00
  0.00000000E+00  0.00000000E+00  0.00000000E+00
  0.00000000E+00  0.00000000E+00  0.00000000E+00
  0.00000000E+00  0.00000000E+00  0.00000000E+00
  0.00000000E+00  0.00000000E+00  0.00000000E+00
  0.00000000E+00  0.00000000E+00  0.00000000E+00
  0.00000000E+00  0.00000000E+00  0.00000000E+00
  0.00000000E+00  0.00000000E+00  0.00000000E+00
  0.00000000E+00  0.00000000E+00  0.00000000E+00
  0.00000000E+00  0.00000000E+00  0.00000000E+00
  0.00000000E+00  0.00000000E+00  0.00000000E+00
  0.00000000E+00  0.00000000E+00  0.00000000E+00
  0.00000000E+00  0.00000000E+00  0.00000000E+00
  0.00000000E+00  0.00000000E+00  0.00000000E+00
  0.00000000E+00  0.00000000E+00  0.00000000E+00
  0.00000000E+00  0.00000000E+00  0.00000000E+00
  0.00000000E+00  0.00000000E+00  0.00000000E+00
  0.00000000E+00  0.00000000E+00  0.00000000E+00
  0.00000000E+00  0.00000000E+00  0.00000000E+00
  0.00000000E+00  0.00000000E+00  0.00000000E+00
  0.00000000E+00  0.00000000E+00  0.00000000E+00
  0.00000000E+00  0.00000000E+00  0.00000000E+00
  0.00000000E+00  0.00000000E+00  0.00000000E+00
  0.00000000E+00  0.00000000E+00  0.00000000E+00
  0.00000000E+00  0.00000000E+00  0.00000000E+00
  0.00000000E+00  0.00000000E+00  0.00000000E+00
  0.00000000E+00  0.00000000E+00  0.00000000E+00
  0.00000000E+00  0.00000000E+00  0.00000000E+00
  0.00000000E+00  0.00000000E+00  0.00000000E+00
  0.00000000E+00  0.00000000E+00  0.00000000E+00
  0.00000000E+00  0.00000000E+00  0.00000000E+00
  0.00000000E+00  0.00000000E+00  0.00000000E+00
  0.00000000E+00  0.00000000E+00  0.00000000E+00
  0.00000000E+00  0.00000000E+00  0.00000000E+00
  0.00000000E+00  0.00000000E+00  0.00000000E+00
  0.00000000E+00  0.00000000E+00  0.00000000E+00
  0.00000000E+00  0.00000000E+00  0.00000000E+00
  0.00000000E+00  0.00000000E+00  0.00000000E+00
  0.00000000E+00  0.00000000E+00  0.00000000E+00
  0.00000000E+00  0.00000000E+00  0.00000000E+00
  0.00000000E+00  0.00000000E+00  0.00000000E+00
  0.00000000E+00  0.00000000E+00  0.00000000E+00
  0.00000000E+00  0.00000000E+00  0.00000000E+00
  0.00000000E+00  0.00000000E+00  0.00000000E+00
  0.00000000E+00  0.00000000E+00  0.00000000E+00
  0.00000000E+00  0.00000000E+00  0.00000000E+00
  0.00000000E+00  0.00000000E+00  0.00000000E+00
  0.00000000E+00  0.00000000E+00  0.00000000E+00
  0.00000000E+00  0.00000000E+00  0.00000000E+00
  0.00000000E+00  0.00000000E+00  0.00000000E+00
  0.00000000E+00  0.00000000E+00  0.00000000E+00
  0.00000000E+00  0.00000000E+00  0.00000000E+00
  0.00000000E+00  0.00000000E+00  0.00000000E+00
  0.00000000E+00  0.00000000E+00  0.00000000E+00
  0.00000000E+00  0.00000000E+00  0.00000000E+00
  0.00000000E+00  0.00000000E+00  0.00000000E+00
  0.00000000E+00  0.00000000E+00  0.00000000E+00
  0.00000000E+00  0.00000000E+00  0.00000000E+00
  0.00000000E+00  0.00000000E+00  0.00000000E+00
  0.00000000E+00  0.00000000E+00  0.00000000E+00
  0.00000000E+00  0.00000000E+00  0.00000000E+00
  0.00000000E+00  0.00000000E+00  0.00000000E+00
  0.00000000E+00  0.00000000E+00  0.00000000E+00
  0.00000000E+00  0.00000000E+00  0.00000000E+00
  0.00000000E+00  0.00000000E+00  0.00000000E+00
  0.00000000E+00  0.00000000E+00  0.00000000E+00
  0.00000000E+00  0.00000000E+00  0.00000000E+00
  0.00000000E+00  0.00000000E+00  0.00000000E+00
  0.00000000E+00  0.00000000E+00  0.00000000E+00
  0.00000000E+00  0.00000000E+00  0.00000000E+00
  0.00000000E+00  0.00000000E+00  0.00000000E+00
  0.00000000E+00  0.00000000E+00  0.00000000E+00
  0.00000000E+00  0.00000000E+00  0.00000000E+00
  0.00000000E+00  0.00000000E+00  0.00000000E+00
  0.00000000E+00  0.00000000E+00  0.00000000E+00
  0.00000000E+00  0.00000000E+00  0.00000000E+00
  0.00000000E+00  0.00000000E+00  0.00000000E+00
  0.00000000E+00  0.00000000E+00  0.00000000E+00
  0.00000000E+00  0.00000000E+00  0.00000000E+00
  0.00000000E+00  0.00000000E+00  0.00000000E+00
  0.00000000E+00  0.00000000E+00  0.00000000E+00
  0.00000000E+00  0.00000000E+00  0.00000000E+00
  0.00000000E+00  0.00000000E+00  0.00000000E+00
  0.00000000E+00  0.00000000E+00  0.00000000E+00
  0.00000000E+00  0.00000000E+00  0.00000000E+00
  0.00000000E+00  0.00000000E+00  0.00000000E+00
  0.00000000E+00  0.00000000E+00  0.00000000E+00
  0.00000000E+00  0.00000000E+00  0.00000000E+00
  0.00000000E+00  0.00000000E+00  0.00000000E+00
  0.00000000E+00  0.00000000E+00  0.00000000E+00
  0.00000000E+00  0.00000000E+00  0.00000000E+00
  0.00000000E+00  0.00000000E+00  0.00000000E+00
  0.00000000E+00  0.00000000E+00  0.00000000E+00
  0.00000000E+00  0.00000000E+00  0.00000000E+00
  0.00000000E+00  0.00000000E+00  0.00000000E+00
  0.00000000E+00  0.00000000E+00  0.00000000E+00
  0.00000000E+00  0.00000000E+00  0.00000000E+00
  0.00000000E+00  0.00000000E+00  0.00000000E+00
  0.00000000E+00  0.00000000E+00  0.00000000E+00
  0.00000000E+00  0.00000000E+00  0.00000000E+00
  0.00000000E+00  0.00000000E+00  0.00000000E+00
  0.00000000E+00  0.00000000E+00  0.00000000E+00
  0.00000000E+00  0.00000000E+00  0.00000000E+00
  0.00000000E+00  0.00000000E+00  0.00000000E+00
  0.00000000E+00  0.00000000E+00  0.00000000E+00
  0.00000000E+00  0.00000000E+00  0.00000000E+00
  0.00000000E+00  0.00000000E+00  0.00000000E+00
  0.00000000E+00  0.00000000E+00  0.00000000E+00
  0.00000000E+00  0.00000000E+00  0.00000000E+00
  0.00000000E+00  0.00000000E+00  0.00000000E+00
  0.00000000E+00  0.00000000E+00  0.00000000E+00
  0.00000000E+00  0.00000000E+00  0.00000000E+00
  0.00000000E+00  0.00000000E+00  0.00000000E+00
  0.00000000E+00  0.00000000E+00  0.00000000E+00
  0.00000000E+00  0.00000000E+00  0.00000000E+00
  0.00000000E+00  0.00000000E+00  0.00000000E+00
  0.00000000E+00  0.00000000E+00  0.00000000E+00
  0.00000000E+00  0.00000000E+00  0.00000000E+00
  0.00000000E+00  0.00000000E+00  0.00000000E+00
  0.00000000E+00  0.00000000E+00  0.00000000E+00
  0.00000000E+00  0.00000000E+00  0.00000000E+00
  0.00000000E+00  0.00000000E+00  0.00000000E+00
  0.00000000E+00  0.00000000E+00  0.00000000E+00
  0.00000000E+00  0.00000000E+00  0.00000000E+00
  0.00000000E+00  0.00000000E+00  0.00000000E+00
  0.00000000E+00  0.00000000E+00  0.00000000E+00
  0.00000000E+00  0.00000000E+00  0.00000000E+00
  0.00000000E+00  0.00000000E+00  0.00000000E+00
  0.00000000E+00  0.00000000E+00  0.00000000E+00
  0.00000000E+00  0.00000000E+00  0.00000000E+00
  0.00000000E+00  0.00000000E+00  0.00000000E+00
  0.00000000E+00  0.00000000E+00  0.00000000E+00
  0.00000000E+00  0.00000000E+00  0.00000000E+00
  0.00000000E+00  0.00000000E+00  0.00000000E+00
  0.00000000E+00  0.00000000E+00  0.00000000E+00
  0.00000000E+00  0.00000000E+00  0.00000000E+00
  0.00000000E+00  0.00000000E+00  0.00000000E+00
  0.00000000E+00  0.00000000E+00  0.00000000E+00
  0.00000000E+00  0.00000000E+00  0.00000000E+00
  0.00000000E+00  0.00000000E+00  0.00000000E+00
  0.00000000E+00  0.00000000E+00  0.00000000E+00
  0.00000000E+00  0.00000000E+00  0.00000000E+00
  0.00000000E+00  0.00000000E+00  0.00000000E+00
  0.00000000E+00  0.00000000E+00  0.00000000E+00
  0.00000000E+00  0.00000000E+00  0.00000000E+00
  0.00000000E+00  0.00000000E+00  0.00000000E+00
  0.00000000E+00  0.00000000E+00  0.00000000E+00
  0.00000000E+00  0.00000000E+00  0.00000000E+00
  0.00000000E+00  0.00000000E+00  0.00000000E+00
  0.00000000E+00  0.00000000E+00  0.00000000E+00
  0.00000000E+00  0.00000000E+00  0.00000000E+00
  0.00000000E+00  0.00000000E+00  0.00000000E+00
  0.00000000E+00  0.00000000E+00  0.00000000E+00
  0.00000000E+00  0.00000000E+00  0.00000000E+00
  0.00000000E+00  0.00000000E+00  0.00000000E+00
  0.00000000E+00  0.00000000E+00  0.00000000E+00
  0.00000000E+00  0.00000000E+00  0.00000000E+00
  0.00000000E+00  0.00000000E+00  0.00000000E+00
  0.00000000E+00  0.00000000E+00  0.00000000E+00
  0.00000000E+00  0.00000000E+00  0.00000000E+00
  0.00000000E+00  0.00000000E+00  0.00000000E+00
  0.00000000E+00  0.00000000E+00  0.00000000E+00
  0.00000000E+00  0.00000000E+00  0.00000000E+00
  0.00000000E+00  0.00000000E+00  0.00000000E+00
  0.00000000E+00  0.00000000E+00  0.00000000E+00
  0.00000000E+00  0.00000000E+00  0.00000000E+00
  0.00000000E+00  0.00000000E+00  0.00000000E+00
  0.00000000E+00  0.00000000E+00  0.00000000E+00
  0.00000000E+00  0.00000000E+00  0.00000000E+00
  0.00000000E+00  0.00000000E+00  0.00000000E+00
  0.00000000E+00  0.00000000E+00  0.00000000E+00
  0.00000000E+00  0.00000000E+00  0.00000000E+00
  0.00000000E+00  0.00000000E+00  0.00000000E+00
  0.00000000E+00  0.00000000E+00  0.00000000E+00
  0.00000000E+00  0.00000000E+00  0.00000000E+00
  0.00000000E+00  0.00000000E+00  0.00000000E+00
  0.00000000E+00  0.00000000E+00  0.00000000E+00
  0.00000000E+00  0.00000000E+00  0.00000000E+00
  0.00000000E+00  0.00000000E+00  0.00000000E+00
  0.00000000E+00  0.00000000E+00  0.00000000E+00
  0.00000000E+00  0.00000000E+00  0.00000000E+00
  0.00000000E+00  0.00000000E+00  0.00000000E+00
  0.00000000E+00  0.00000000E+00  0.00000000E+00
  0.00000000E+00  0.00000000E+00  0.00000000E+00
  0.00000000E+00  0.00000000E+00  0.00000000E+00
  0.00000000E+00  0.00000000E+00  0.00000000E+00
  0.00000000E+00  0.00000000E+00  0.00000000E+00
  0.00000000E+00  0.00000000E+00  0.00000000E+00
  0.00000000E+00  0.00000000E+00  0.00000000E+00
  0.00000000E+00  0.00000000E+00  0.00000000E+00
  0.00000000E+00  0.00000000E+00  0.00000000E+00
  0.00000000E+00  0.00000000E+00  0.00000000E+00
  0.00000000E+00  0.00000000E+00  0.00000000E+00
  0.00000000E+00  0.00000000E+00  0.00000000E+00
  0.00000000E+00  0.00000000E+00  0.00000000E+00
  0.00000000E+00  0.00000000E+00  0.00000000E+00
  0.00000000E+00  0.00000000E+00  0.00000000E+00
  0.00000000E+00  0.00000000E+00  0.00000000E+00
  0.00000000E+00  0.00000000E+00  0.00000000E+00
  0.00000000E+00  0.00000000E+00  0.00000000E+00
  0.00000000E+00  0.00000000E+00  0.00000000E+00
  0.00000000E+00  0.00000000E+00  0.00000000E+00
  0.00000000E+00  0.00000000E+00  0.00000000E+00
  0.00000000E+00  0.00000000E+00  0.00000000E+00
  0.00000000E+00  0.00000000E+00  0.00000000E+00
  0.00000000E+00  0.00000000E+00  0.00000000E+00
  0.00000000E+00  0.00000000E+00  0.00000000E+00
  0.00000000E+00  0.00000000E+00  0.00000000E+00
  0.00000000E+00  0.00000000E+00  0.00000000E+00
  0.00000000E+00  0.00000000E+00  0.00000000E+00
  0.00000000E+00  0.00000000E+00  0.00000000E+00
  0.00000000E+00  0.00000000E+00  0.00000000E+00
  0.00000000E+00  0.00000000E+00  0.00000000E+00
  0.00000000E+00  0.00000000E+00  0.00000000E+00
  0.00000000E+00  0.00000000E+00  0.00000000E+00
  0.00000000E+00  0.00000000E+00  0.00000000E+00
  0.00000000E+00  0.00000000E+00  0.00000000E+00
  0.00000000E+00  0.00000000E+00  0.00000000E+00
  0.00000000E+00  0.00000000E+00  0.00000000E+00
  0.00000000E+00  0.00000000E+00  0.00000000E+00
  0.00000000E+00  0.00000000E+00  0.00000000E+00
  0.00000000E+00  0.00000000E+00  0.00000000E+00
  0.00000000E+00  0.00000000E+00  0.00000000E+00
  0.00000000E+00  0.00000000E+00  0.00000000E+00
  0.00000000E+00  0.00000000E+00  0.00000000E+00
  0.00000000E+00  0.00000000E+00  0.00000000E+00
  0.00000000E+00  0.00000000E+00  0.00000000E+00
  0.00000000E+00  0.00000000E+00  0.00000000E+00
  0.00000000E+00  0.00000000E+00  0.00000000E+00