B C N                                   
   1.0000000000000000     
     8.7639499999999995  -15.1796066749929999    0.0000000000000000
     8.7639499999999995   15.1796066749929999    0.0000000000000000
     0.0000000000000000    0.0000000000000000   15.0000000000000000
   B    C    N 
    49     1    48
Selective dynamics
Direct
  0.9048647575930385  0.9525083878843424  0.1110236870157545   T   T   T
  0.9047527664923982  0.0952490124426028  0.1110447444327699   T   T   T
  0.9047480054872639  0.2380609909169925  0.1110454642316485   T   T   T
  0.9048565854104534  0.3809283649021794  0.1110164665636845   T   T   T
  0.9053981897492462  0.5239149957853397  0.1110308073289065   T   T   T
  0.9054514188038848  0.6670027227678543  0.1110739616040149   T   T   T
  0.9053963177984403  0.8100489748659189  0.1110577712068161   T   T   T
  0.0476433316857810  0.9523583999362186  0.1110252199513813   T   T   T
  0.0474933339896573  0.0951369357339619  0.1110236855017514   T   T   T
  0.0474964330669045  0.2380223758230998  0.1110125777207223   T   T   T
  0.0475044552343623  0.3809203039260974  0.1110293300551167   T   T   T
  0.0476449498787163  0.5238576633899638  0.1110250045279155   T   T   T
  0.0478559662733739  0.6667915266355217  0.1110331531581148   T   T   T
  0.0478631562556609  0.8096405506122127  0.1110097469163430   T   T   T
  0.1903611810877833  0.9521385424613389  0.1110097440313406   T   T   T
  0.1899527837800816  0.0946054205805578  0.1110577676028154   T   T   T
  0.1901750656921950  0.2378134345205505  0.1110135719907539   T   T   T
  0.1901797722231521  0.3809323963863558  0.1110118523633355   T   T   T
  0.1899582858037877  0.5239125540570910  0.1110458909396582   T   T   T
  0.1903572626553238  0.6667902587312124  0.1110548516906557   T   T   T
  0.1904725159175758  0.8095290844854202  0.1110120614826480   T   T   T
  0.3332100908634806  0.9521455914676271  0.1110331552791204   T   T   T
  0.3329990700331469  0.0945502618001161  0.1110739604710119   T   T   T
  0.3320619239126912  0.2364768829131257  0.1110482020495046   T   T   T
  0.3330348716227692  0.3808136955345858  0.1110320360389121   T   T   T
  0.3320600252809102  0.5241615707230520  0.1110133833406462   T   T   T
  0.3329898970512478  0.6670120318827494  0.1110598288748735   T   T   T
  0.3332113917097874  0.8096444786006760  0.1110548532196513   T   T   T
  0.4761439517760352  0.9523567150542859  0.1110250114249122   T   T   T
  0.4760866871146591  0.0946031671867502  0.1110308156169043   T   T   T
  0.4758505703280193  0.2364814115904302  0.1110597659384890   T   T   T
  0.4739305312176034  0.3764621022214529  0.1110489481719363   T   T   T
  0.4739373952301295  0.5260641478098702  0.1110690236898583   T   T   T
  0.4758401623639518  0.6679418427690889  0.1110133837676468   T   T   T
  0.4760892132799057  0.8100438090722076  0.1110458985706598   T   T   T
  0.6190814554239017  0.9524973815706356  0.1110293338031160   T   T   T
  0.6190733392478222  0.0951450156725460  0.1110164696416846   T   T   T
  0.6190614968305836  0.2378217810187176  0.1110308077680977   T   T   T
  0.6191910561639522  0.3808106960030494  0.1110151507223715   T   T   T
  0.6235397624645456  0.5260712446443999  0.1110489465399333   T   T   T
  0.6191879341584171  0.6669667006322323  0.1110320333929149   T   T   T
  0.6190692714386475  0.8098220033248410  0.1110118535373368   T   T   T
  0.7619793495678948  0.9525053513150959  0.1110125850547241   T   T   T
  0.7619407614440088  0.0952537385517400  0.1110454665746490   T   T   T
  0.7619685060601431  0.2380331254128616  0.1110584232173953   T   T   T
  0.7621797798362868  0.3809401792194138  0.1110308026490991   T   T   T
  0.7635202435555705  0.5241512652549800  0.1110597626314952   T   T   T
  0.7635249388418737  0.6679398350693033  0.1110482061755055   T   T   T
  0.7621882224494491  0.8098265901808045  0.1110135801917529   T   T   T
  0.5237946004050900  0.4762072572839100  0.1111180972272933   T   T   T
  0.9526179138173581  0.9050473162714234  0.1110073501565500   T   T   T
  0.9523453424297578  0.0476563874092414  0.1109990823447813   T   T   T
  0.9523273831081204  0.1904445175678447  0.1110068219855018   T   T   T
  0.9523449667083590  0.3332560937393318  0.1109997507886923   T   T   T
  0.9526174013462394  0.4761391944150199  0.1109731000029673   T   T   T
  0.9527899961763245  0.6191659474531188  0.1110165818529251   T   T   T
  0.9527915310183492  0.7621869755604755  0.1110196266190013   T   T   T
  0.0952565263817511  0.9047452010922492  0.1109699071105321   T   T   T
  0.0949544249095715  0.0473838063066391  0.1110073625675503   T   T   T
  0.0950513515683621  0.1903690384895448  0.1109783442616425   T   T   T
  0.0950551190352342  0.3332408445141731  0.1109819116856357   T   T   T
  0.0949584814466163  0.4761384032982398  0.1110055279017473   T   T   T
  0.0952529613027380  0.6190805556666744  0.1110077241051536   T   T   T
  0.0953598355970017  0.7619665743556567  0.1109819136674087   T   T   T
  0.2380350471393454  0.9046417531229947  0.1109819119164111   T   T   T
  0.2378147957995217  0.0472101845416542  0.1110196241609995   T   T   T
  0.2371690362411787  0.1895430810473813  0.1110107317017369   T   T   T
  0.2378763345121834  0.3332241836189388  0.1109904349965759   T   T   T
  0.2371697739519743  0.4761946991338562  0.1109939575966380   T   T   T
  0.2378095455875270  0.6191690878568155  0.1110288869060427   T   T   T
  0.2380328707605620  0.7619687957674379  0.1110068564659237   T   T   T
  0.3809210766603244  0.9047486793282603  0.1110077268951493   T   T   T
  0.3808357246028824  0.0472114836766800  0.1110165910109257   T   T   T
  0.3804922509372061  0.1895485726901078  0.1110425599301190   T   T   T
  0.3792498550259837  0.3311955774691289  0.1110035721073599   T   T   T
  0.3792532939200021  0.4766407759967591  0.1109983122036300   T   T   T
  0.3804862122972033  0.6195155811867928  0.1109929140854648   T   T   T
  0.3808327145441864  0.7621924444944709  0.1110288904340437   T   T   T
  0.5238633898297600  0.9050435814253832  0.1110055355627409   T   T   T
  0.5238625402729787  0.0473840602417597  0.1109731054589691   T   T   T
  0.5238033591343485  0.1895422327805691  0.1110176980331374   T   T   T
  0.5233590026805683  0.3311981913362706  0.1109958028813698   T   T   T
  0.5233607098402375  0.6207482218430008  0.1109983108066320   T   T   T
  0.5238069446151457  0.7628322375100270  0.1109939653606389   T   T   T
  0.6667608735238267  0.9049466933657614  0.1109819127606371   T   T   T
  0.6667456860306705  0.0476567950636386  0.1109997541536948   T   T   T
  0.6667518478577268  0.1903791120429243  0.1110106149037189   T   T   T
  0.6667703544132902  0.3332312620167076  0.1109934511883621   T   T   T
  0.6688036010597351  0.4766427490414274  0.1109958023263649   T   T   T
  0.6688063017068682  0.6207518697030265  0.1110035656553618   T   T   T
  0.6667774269980663  0.7621252759658110  0.1109904343715754   T   T   T
  0.8096326296224540  0.9049503556816380  0.1109783554626452   T   T   T
  0.8095572504111559  0.0476744083178810  0.1110068282485026   T   T   T
  0.8095537573456746  0.1904479397983260  0.1110181353871271   T   T   T
  0.8096224377830713  0.3332498089882759  0.1110106099497226   T   T   T
  0.8104590893524329  0.4761983269946480  0.1110176871511399   T   T   T
  0.8104531853208876  0.6195095260277940  0.1110425596101190   T   T   T
  0.8104586771126221  0.7628326914548165  0.1110107493707320   T   T   T

  0.00000000E+00  0.00000000E+00  0.00000000E+00
  0.00000000E+00  0.00000000E+00  0.00000000E+00
  0.00000000E+00  0.00000000E+00  0.00000000E+00
  0.00000000E+00  0.00000000E+00  0.00000000E+00
  0.00000000E+00  0.00000000E+00  0.00000000E+00
  0.00000000E+00  0.00000000E+00  0.00000000E+00
  0.00000000E+00  0.00000000E+00  0.00000000E+00
  0.00000000E+00  0.00000000E+00  0.00000000E+00
  0.00000000E+00  0.00000000E+00  0.00000000E+00
  0.00000000E+00  0.00000000E+00  0.00000000E+00
  0.00000000E+00  0.00000000E+00  0.00000000E+00
  0.00000000E+00  0.00000000E+00  0.00000000E+00
  0.00000000E+00  0.00000000E+00  0.00000000E+00
  0.00000000E+00  0.00000000E+00  0.00000000E+00
  0.00000000E+00  0.00000000E+00  0.00000000E+00
  0.00000000E+00  0.00000000E+00  0.00000000E+00
  0.00000000E+00  0.00000000E+00  0.00000000E+00
  0.00000000E+00  0.00000000E+00  0.00000000E+00
  0.00000000E+00  0.00000000E+00  0.00000000E+00
  0.00000000E+00  0.00000000E+00  0.00000000E+00
  0.00000000E+00  0.00000000E+00  0.00000000E+00
  0.00000000E+00  0.00000000E+00  0.00000000E+00
  0.00000000E+00  0.00000000E+00  0.00000000E+00
  0.00000000E+00  0.00000000E+00  0.00000000E+00
  0.00000000E+00  0.00000000E+00  0.00000000E+00
  0.00000000E+00  0.00000000E+00  0.00000000E+00
  0.00000000E+00  0.00000000E+00  0.00000000E+00
  0.00000000E+00  0.00000000E+00  0.00000000E+00
  0.00000000E+00  0.00000000E+00  0.00000000E+00
  0.00000000E+00  0.00000000E+00  0.00000000E+00
  0.00000000E+00  0.00000000E+00  0.00000000E+00
  0.00000000E+00  0.00000000E+00  0.00000000E+00
  0.00000000E+00  0.00000000E+00  0.00000000E+00
  0.00000000E+00  0.00000000E+00  0.00000000E+00
  0.00000000E+00  0.00000000E+00  0.00000000E+00
  0.00000000E+00  0.00000000E+00  0.00000000E+00
  0.00000000E+00  0.00000000E+00  0.00000000E+00
  0.00000000E+00  0.00000000E+00  0.00000000E+00
  0.00000000E+00  0.00000000E+00  0.00000000E+00
  0.00000000E+00  0.00000000E+00  0.00000000E+00
  0.00000000E+00  0.00000000E+00  0.00000000E+00
  0.00000000E+00  0.00000000E+00  0.00000000E+00
  0.00000000E+00  0.00000000E+00  0.00000000E+00
  0.00000000E+00  0.00000000E+00  0.00000000E+00
  0.00000000E+00  0.00000000E+00  0.00000000E+00
  0.00000000E+00  0.00000000E+00  0.00000000E+00
  0.00000000E+00  0.00000000E+00  0.00000000E+00
  0.00000000E+00  0.00000000E+00  0.00000000E+00
  0.00000000E+00  0.00000000E+00  0.00000000E+00
  0.00000000E+00  0.00000000E+00  0.00000000E+00
  0.00000000E+00  0.00000000E+00  0.00000000E+00
  0.00000000E+00  0.00000000E+00  0.00000000E+00
  0.00000000E+00  0.00000000E+00  0.00000000E+00
  0.00000000E+00  0.00000000E+00  0.00000000E+00
  0.00000000E+00  0.00000000E+00  0.00000000E+00
  0.00000000E+00  0.00000000E+00  0.00000000E+00
  0.00000000E+00  0.00000000E+00  0.00000000E+00
  0.00000000E+00  0.00000000E+00  0.00000000E+00
  0.00000000E+00  0.00000000E+00  0.00000000E+00
  0.00000000E+00  0.00000000E+00  0.00000000E+00
  0.00000000E+00  0.00000000E+00  0.00000000E+00
  0.00000000E+00  0.00000000E+00  0.00000000E+00
  0.00000000E+00  0.00000000E+00  0.00000000E+00
  0.00000000E+00  0.00000000E+00  0.00000000E+00
  0.00000000E+00  0.00000000E+00  0.00000000E+00
  0.00000000E+00  0.00000000E+00  0.00000000E+00
  0.00000000E+00  0.00000000E+00  0.00000000E+00
  0.00000000E+00  0.00000000E+00  0.00000000E+00
  0.00000000E+00  0.00000000E+00  0.00000000E+00
  0.00000000E+00  0.00000000E+00  0.00000000E+00
  0.00000000E+00  0.00000000E+00  0.00000000E+00
  0.00000000E+00  0.00000000E+00  0.00000000E+00
  0.00000000E+00  0.00000000E+00  0.00000000E+00
  0.00000000E+00  0.00000000E+00  0.00000000E+00
  0.00000000E+00  0.00000000E+00  0.00000000E+00
  0.00000000E+00  0.00000000E+00  0.00000000E+00
  0.00000000E+00  0.00000000E+00  0.00000000E+00
  0.00000000E+00  0.00000000E+00  0.00000000E+00
  0.00000000E+00  0.00000000E+00  0.00000000E+00
  0.00000000E+00  0.00000000E+00  0.00000000E+00
  0.00000000E+00  0.00000000E+00  0.00000000E+00
  0.00000000E+00  0.00000000E+00  0.00000000E+00
  0.00000000E+00  0.00000000E+00  0.00000000E+00
  0.00000000E+00  0.00000000E+00  0.00000000E+00
  0.00000000E+00  0.00000000E+00  0.00000000E+00
  0.00000000E+00  0.00000000E+00  0.00000000E+00
  0.00000000E+00  0.00000000E+00  0.00000000E+00
  0.00000000E+00  0.00000000E+00  0.00000000E+00
  0.00000000E+00  0.00000000E+00  0.00000000E+00
  0.00000000E+00  0.00000000E+00  0.00000000E+00
  0.00000000E+00  0.00000000E+00  0.00000000E+00
  0.00000000E+00  0.00000000E+00  0.00000000E+00
  0.00000000E+00  0.00000000E+00  0.00000000E+00
  0.00000000E+00  0.00000000E+00  0.00000000E+00
  0.00000000E+00  0.00000000E+00  0.00000000E+00
  0.00000000E+00  0.00000000E+00  0.00000000E+00
  0.00000000E+00  0.00000000E+00  0.00000000E+00
  0.00000000E+00  0.00000000E+00  0.00000000E+00
