B N S                                   
   1.0000000000000000     
     8.7639499999999995  -15.1796066749929999    0.0000000000000000
     8.7639499999999995   15.1796066749929999    0.0000000000000000
     0.0000000000000000    0.0000000000000000   15.0000000000000000
   B    N    S 
    48    49     1
Selective dynamics
Direct
  0.9046360124991564  0.9521718151266415  0.0940097143533096   T   T   T
  0.9048440812495723  0.0951579399464215  0.0905877950426691   T   T   T
  0.9048996188949789  0.2381641562929933  0.0902960567152549   T   T   T
  0.9048440812495723  0.3811148349941478  0.0905877950426691   T   T   T
  0.9046360124991564  0.5238946026205186  0.0940097143533096   T   T   T
  0.9038140920858388  0.6664342967120886  0.1006829432920484   T   T   T
  0.9038140920858388  0.8088102006217578  0.1006829432920484   T   T   T
  0.0475835169294837  0.9524185042665270  0.0937908252167767   T   T   T
  0.0478302060693659  0.0953660086968370  0.0940097143533096   T   T   T
  0.0478577994670298  0.2382034235754060  0.0967465512043371   T   T   T
  0.0478577994670298  0.3810847811386273  0.0967465512043371   T   T   T
  0.0478302060693659  0.5238946026205186  0.0940097143533096   T   T   T
  0.0475835169294837  0.6665971294669605  0.0937908252167767   T   T   T
  0.0473562625251213  0.8093941896645601  0.0944855582765516   T   T   T
  0.1906078315314407  0.9526457586708761  0.0944855582765516   T   T   T
  0.1911918205742476  0.0961879291101521  0.1006829432920484   T   T   T
  0.1899968292788518  0.2377642127195604  0.1120145360667047   T   T   T
  0.1892044334802558  0.3803174193636279  0.1205380606626423   T   T   T
  0.1899968292788518  0.5236630218072984  0.1120145360667046   T   T   T
  0.1911918205742476  0.6664342967120886  0.1006829432920484   T   T   T
  0.1906078315314407  0.8093941896645601  0.0944855582765516   T   T   T
  0.3334048917300358  0.9524185042665270  0.0937908252167767   T   T   T
  0.3335677244849083  0.0961879291101521  0.1006829432920484   T   T   T
  0.3341502551362407  0.2397288943224833  0.1245808214353083   T   T   T
  0.3259543921165072  0.3758887832927954  0.1614239841630388   T   T   T
  0.3259543921165072  0.5214960140707106  0.1614239841630388   T   T   T
  0.3341502551362407  0.6658517660607610  0.1245808214353083   T   T   T
  0.3335677244849083  0.8088102006217578  0.1006829432920484   T   T   T
  0.4761074185764774  0.9521718151266415  0.0940097143533096   T   T   T
  0.4761074185764774  0.0953660086968370  0.0940097143533096   T   T   T
  0.4763389993896983  0.2377642127195604  0.1120145360667047   T   T   T
  0.4785060071262837  0.3758887832927954  0.1614239841630388   T   T   T
  0.4785060071262837  0.6740476290804895  0.1614239841630388   T   T   T
  0.4763389993896974  0.8100051919171550  0.1120145360667047   T   T   T
  0.6189172400573901  0.9521442217289795  0.0967465512043371   T   T   T
  0.6188871862018596  0.0951579399464215  0.0905877950426691   T   T   T
  0.6189172400573901  0.2382034235754060  0.0967465512043371   T   T   T
  0.6196846018323754  0.3803174193636279  0.1205380606626423   T   T   T
  0.6241132379032109  0.5214960140707106  0.1614239841630388   T   T   T
  0.6241132379032103  0.6740476290804895  0.1614239841630388   T   T   T
  0.6196846018323754  0.8107975877157475  0.1205380606626423   T   T   T
  0.7617985976205937  0.9521442217289795  0.0967465512043371   T   T   T
  0.7618378649030093  0.0951024023010140  0.0902960567152549   T   T   T
  0.7618378649030093  0.2381641562929932  0.0902960567152549   T   T   T
  0.7617985976205937  0.3810847811386273  0.0967465512043371   T   T   T
  0.7622378084764465  0.5236630218072984  0.1120145360667046   T   T   T
  0.7602731268735204  0.6658517660607610  0.1245808214353083   T   T   T
  0.7622378084764465  0.8100051919171550  0.1120145360667047   T   T   T
  0.9519580615318971  0.9042694823148935  0.0947695228648608   T   T   T
  0.9524863983508205  0.0475150035671836  0.0910469246723096   T   T   T
  0.9526323174766033  0.1905530775648080  0.0909690112246779   T   T   T
  0.9526323174766033  0.3335062220297915  0.0909690112246779   T   T   T
  0.9524863983508205  0.4763983769016364  0.0910469246723096   T   T   T
  0.9519580615318971  0.6191172728920110  0.0947695228648608   T   T   T
  0.9518331722719044  0.7616309329734483  0.0979169508847893   T   T   T
  0.0952155818769685  0.9047858200410310  0.0936865976628089   T   T   T
  0.0957319196031092  0.0480433403861019  0.0947695228648608   T   T   T
  0.0955589376391797  0.1906267189760536  0.0983090383411770   T   T   T
  0.0954966584051846  0.3334626760395918  0.1023721801937299   T   T   T
  0.0955589376391797  0.4763609123371275  0.0983090383411770   T   T   T
  0.0957319196031092  0.6191172728920110  0.0947695228648608   T   T   T
  0.0952155818769685  0.7618601670669463  0.0936865976628089   T   T   T
  0.2381412348510616  0.9047858200410310  0.0936865976628089   T   T   T
  0.2383704689445531  0.0481682296461038  0.0979169508847893   T   T   T
  0.2390157355021595  0.1915172581323773  0.1117304530235999   T   T   T
  0.2358506918863554  0.3315152180837421  0.1289423038718869   T   T   T
  0.2358506918863554  0.4757641674766085  0.1289423038718869   T   T   T
  0.2390157355021595  0.6189271710447891  0.1117304530235999   T   T   T
  0.2383704689445531  0.7616309329734483  0.0979169508847893   T   T   T
  0.3808841290259857  0.9042694823148935  0.0947695228648608   T   T   T
  0.3808841290259857  0.0480433403861019  0.0947695228648608   T   T   T
  0.3810742308732212  0.1915172581323773  0.1117304530235999   T   T   T
  0.3810126552682594  0.3334526022935162  0.1523652348415097   T   T   T
  0.3552953172640090  0.4633620054689996  0.1985713238476328   T   T   T
  0.3810126552682594  0.6189887466497374  0.1523652348415097   T   T   T
  0.3810742308732212  0.7609856664158466  0.1117304530235999   T   T   T
  0.5236404895798675  0.9044424642788128  0.0983090383411770   T   T   T
  0.5236030250153605  0.0475150035671836  0.0910469246723096   T   T   T
  0.5236404895798721  0.1906267189760536  0.0983090383411770   T   T   T
  0.5242372344403843  0.3315152180837423  0.1289423038718869   T   T   T
  0.5366393964479967  0.4633620054689996  0.1985713238476327   T   T   T
  0.5366393964479967  0.6447060846539932  0.1985713238476330   T   T   T
  0.5242372344403843  0.7641507100316476  0.1289423038718869   T   T   T
  0.6665387258774093  0.9045047435128158  0.1023721801937299   T   T   T
  0.6664951798872061  0.0473690844414057  0.0909690112246779   T   T   T
  0.6664951798872061  0.1905530775648079  0.0909690112246779   T   T   T
  0.6665387258774093  0.3334626760395918  0.1023721801937299   T   T   T
  0.6684861838332555  0.4757641674766085  0.1289423038718869   T   T   T
  0.6665487996234808  0.6189887466497374  0.1523652348415097   T   T   T
  0.6684861838332555  0.7641507100316476  0.1289423038718869   T   T   T
  0.8093746829419454  0.9044424642788128  0.0983090383411770   T   T   T
  0.8094483243531891  0.0473690844414056  0.0909690112246779   T   T   T
  0.8095252739059973  0.1904761280120013  0.0894080974533932   T   T   T
  0.8094483243531891  0.3335062220297915  0.0909690112246779   T   T   T
  0.8093746829419454  0.4763609123371275  0.0983090383411770   T   T   T
  0.8084841437856227  0.6189271710447891  0.1117304530235999   T   T   T
  0.8084841437856227  0.7609856664158466  0.1117304530235999   T   T   T
  0.4761912123819982  0.5238108088150000  0.2022485637567881   T   T   T

  0.00000000E+00  0.00000000E+00  0.00000000E+00
  0.00000000E+00  0.00000000E+00  0.00000000E+00
  0.00000000E+00  0.00000000E+00  0.00000000E+00
  0.00000000E+00  0.00000000E+00  0.00000000E+00
  0.00000000E+00  0.00000000E+00  0.00000000E+00
  0.00000000E+00  0.00000000E+00  0.00000000E+00
  0.00000000E+00  0.00000000E+00  0.00000000E+00
  0.00000000E+00  0.00000000E+00  0.00000000E+00
  0.00000000E+00  0.00000000E+00  0.00000000E+00
  0.00000000E+00  0.00000000E+00  0.00000000E+00
  0.00000000E+00  0.00000000E+00  0.00000000E+00
  0.00000000E+00  0.00000000E+00  0.00000000E+00
  0.00000000E+00  0.00000000E+00  0.00000000E+00
  0.00000000E+00  0.00000000E+00  0.00000000E+00
  0.00000000E+00  0.00000000E+00  0.00000000E+00
  0.00000000E+00  0.00000000E+00  0.00000000E+00
  0.00000000E+00  0.00000000E+00  0.00000000E+00
  0.00000000E+00  0.00000000E+00  0.00000000E+00
  0.00000000E+00  0.00000000E+00  0.00000000E+00
  0.00000000E+00  0.00000000E+00  0.00000000E+00
  0.00000000E+00  0.00000000E+00  0.00000000E+00
  0.00000000E+00  0.00000000E+00  0.00000000E+00
  0.00000000E+00  0.00000000E+00  0.00000000E+00
  0.00000000E+00  0.00000000E+00  0.00000000E+00
  0.00000000E+00  0.00000000E+00  0.00000000E+00
  0.00000000E+00  0.00000000E+00  0.00000000E+00
  0.00000000E+00  0.00000000E+00  0.00000000E+00
  0.00000000E+00  0.00000000E+00  0.00000000E+00
  0.00000000E+00  0.00000000E+00  0.00000000E+00
  0.00000000E+00  0.00000000E+00  0.00000000E+00
  0.00000000E+00  0.00000000E+00  0.00000000E+00
  0.00000000E+00  0.00000000E+00  0.00000000E+00
  0.00000000E+00  0.00000000E+00  0.00000000E+00
  0.00000000E+00  0.00000000E+00  0.00000000E+00
  0.00000000E+00  0.00000000E+00  0.00000000E+00
  0.00000000E+00  0.00000000E+00  0.00000000E+00
  0.00000000E+00  0.00000000E+00  0.00000000E+00
  0.00000000E+00  0.00000000E+00  0.00000000E+00
  0.00000000E+00  0.00000000E+00  0.00000000E+00
  0.00000000E+00  0.00000000E+00  0.00000000E+00
  0.00000000E+00  0.00000000E+00  0.00000000E+00
  0.00000000E+00  0.00000000E+00  0.00000000E+00
  0.00000000E+00  0.00000000E+00  0.00000000E+00
  0.00000000E+00  0.00000000E+00  0.00000000E+00
  0.00000000E+00  0.00000000E+00  0.00000000E+00
  0.00000000E+00  0.00000000E+00  0.00000000E+00
  0.00000000E+00  0.00000000E+00  0.00000000E+00
  0.00000000E+00  0.00000000E+00  0.00000000E+00
  0.00000000E+00  0.00000000E+00  0.00000000E+00
  0.00000000E+00  0.00000000E+00  0.00000000E+00
  0.00000000E+00  0.00000000E+00  0.00000000E+00
  0.00000000E+00  0.00000000E+00  0.00000000E+00
  0.00000000E+00  0.00000000E+00  0.00000000E+00
  0.00000000E+00  0.00000000E+00  0.00000000E+00
  0.00000000E+00  0.00000000E+00  0.00000000E+00
  0.00000000E+00  0.00000000E+00  0.00000000E+00
  0.00000000E+00  0.00000000E+00  0.00000000E+00
  0.00000000E+00  0.00000000E+00  0.00000000E+00
  0.00000000E+00  0.00000000E+00  0.00000000E+00
  0.00000000E+00  0.00000000E+00  0.00000000E+00
  0.00000000E+00  0.00000000E+00  0.00000000E+00
  0.00000000E+00  0.00000000E+00  0.00000000E+00
  0.00000000E+00  0.00000000E+00  0.00000000E+00
  0.00000000E+00  0.00000000E+00  0.00000000E+00
  0.00000000E+00  0.00000000E+00  0.00000000E+00
  0.00000000E+00  0.00000000E+00  0.00000000E+00
  0.00000000E+00  0.00000000E+00  0.00000000E+00
  0.00000000E+00  0.00000000E+00  0.00000000E+00
  0.00000000E+00  0.00000000E+00  0.00000000E+00
  0.00000000E+00  0.00000000E+00  0.00000000E+00
  0.00000000E+00  0.00000000E+00  0.00000000E+00
  0.00000000E+00  0.00000000E+00  0.00000000E+00
  0.00000000E+00  0.00000000E+00  0.00000000E+00
  0.00000000E+00  0.00000000E+00  0.00000000E+00
  0.00000000E+00  0.00000000E+00  0.00000000E+00
  0.00000000E+00  0.00000000E+00  0.00000000E+00
  0.00000000E+00  0.00000000E+00  0.00000000E+00
  0.00000000E+00  0.00000000E+00  0.00000000E+00
  0.00000000E+00  0.00000000E+00  0.00000000E+00
  0.00000000E+00  0.00000000E+00  0.00000000E+00
  0.00000000E+00  0.00000000E+00  0.00000000E+00
  0.00000000E+00  0.00000000E+00  0.00000000E+00
  0.00000000E+00  0.00000000E+00  0.00000000E+00
  0.00000000E+00  0.00000000E+00  0.00000000E+00
  0.00000000E+00  0.00000000E+00  0.00000000E+00
  0.00000000E+00  0.00000000E+00  0.00000000E+00
  0.00000000E+00  0.00000000E+00  0.00000000E+00
  0.00000000E+00  0.00000000E+00  0.00000000E+00
  0.00000000E+00  0.00000000E+00  0.00000000E+00
  0.00000000E+00  0.00000000E+00  0.00000000E+00
  0.00000000E+00  0.00000000E+00  0.00000000E+00
  0.00000000E+00  0.00000000E+00  0.00000000E+00
  0.00000000E+00  0.00000000E+00  0.00000000E+00
  0.00000000E+00  0.00000000E+00  0.00000000E+00
  0.00000000E+00  0.00000000E+00  0.00000000E+00
  0.00000000E+00  0.00000000E+00  0.00000000E+00
  0.00000000E+00  0.00000000E+00  0.00000000E+00
  0.00000000E+00  0.00000000E+00  0.00000000E+00
