 B N O 
 1.0
 17.527899999999772   0.000000000000000   0.000000000000000
 -8.763949999999658  15.179606674993195   0.000000000000000
  0.000000000000001   0.000000000000002  15.000000000000000
 B N O 
  47  48   2
Cartesian
  7.500246243725620  14.437433395979356   1.664612947321335 
 15.031207122419872   1.435507391132443   1.665892528423845 
 13.791382022617118   3.607050330941540   1.666265833017525 
 12.550207992211265   5.779599945840642   1.666670736009420 
 11.296998515337282   7.952284678827597   1.666432620809445 
 10.003114542334327  10.116667155452717   1.665751013073840 
  8.735111997822230  12.260525248256474   1.664373503887935 
 -7.529506990563013  14.456115479341422   1.664901968635815 
 -0.000701706906634   1.452047597597683   1.665350943050025 
 -1.243063836684955   3.619193489620709   1.665277312721820 
 -2.495387542924103   5.788909373135490   1.665530319831120 
 -3.754105332056049   7.963342996824902   1.665963923183370 
 -5.023375537180643  10.133926666346618   1.665426302443875 
 -6.279634053835548  12.298409596387987   1.664650840972950 
 -5.022169543966704  14.481745917183005   1.664663786613525 
  2.496824798332749   1.463732949585465   1.666269409743960 
  1.260460263585104   3.649454878816377   1.665460958877915 
 -0.008012626561163   5.806758025954864   1.664169969168780 
 -1.276694226334389   7.974673002835031   1.664820111934485 
 -2.534051487466030  10.145582092486402   1.665734760152550 
 -3.778992244469155  12.313982939131018   1.664826945636840 
 -2.518664190598236  14.488903477270773   1.665218834799270 
  5.009099043344142   1.484114787043788   1.666685965332075 
  3.774382933225382   3.637760529613171   1.665421639588455 
  2.513345452503156   5.870879024246856   1.662577538797290 
  1.184183555442644   8.014421672878179   1.664264593690230 
 -0.055665377383977  10.161678783422753   1.665538320958440 
 -1.281826160594293  12.322038991645872   1.666067493697680 
 -0.009545417312804  14.476633767890847   1.664911909822725 
  7.520320783784492   1.467142553626785   1.664979989581245 
  6.285639661214817   3.670759718286591   1.667125262651775 
  2.419931902744818  10.161744515223569   1.663511125388175 
  1.222454708478926  12.314714880809168   1.664852325668355 
  2.506209505681255  14.450362427553950   1.665146196681075 
 10.032999042201073   1.439580150556119   1.665208354830630 
  8.801746532221335   3.603387049579680   1.664502848081175 
  7.597195648456768   5.755729523014850   1.661627048269200 
  6.321381375076392   7.777788755540374   1.676307997104375 
  4.970234687685962  10.036823612833171   1.664275415303415 
  3.743057186099826  12.269646898881012   1.663340781899505 
  5.008015875998945  14.436154862803043   1.665071739142065 
 12.535406859167427   1.432321108631879   1.666095324841455 
 11.298638340904732   3.601652806312089   1.665868343099340 
 10.073047509556286   5.769822777791548   1.664516393036175 
  8.827248295593570   7.936860949679827   1.661619710789910 
  7.469142036398418  10.049094407459842   1.664477714641335 
  6.234673760816395  12.241040156578148   1.663585256064060 
  8.747564570557545  13.715764352916390   1.664240530893540 
 16.276908691726447   0.711254210525646   1.664942210552460 
 15.038363377377179   2.883340580315762   1.665723334016925 
 13.795420263918560   5.054106375821210   1.666072471893615 
 12.545057899525832   7.228601321210411   1.666708757970675 
 11.267497898034721   9.403358891197687   1.666101964963560 
 10.001087612910474  11.565166056033776   1.665040858670100 
 -6.274212506339783  13.744858734080305   1.664247926021715 
  1.243245062862420   0.725045750200133   1.665375588057630 
  0.006098852045682   2.903653537930532   1.665149535967845 
 -1.250161312256337   5.066796504414948   1.664540652187470 
 -2.510045449469733   7.237937802639046   1.665030101725500 
 -3.771937465741784   9.412376403046025   1.665357940463610 
 -5.025304917451636  11.581842194965891   1.664359429913880 
 -3.771906837103016  13.757555767914400   1.664334458966310 
  3.749760627377646   0.744284182310052   1.665643829698800 
  2.496496074588984   2.905689257756384   1.666143751344930 
  1.243737409617898   5.107680711469627   1.664233426098735 
 -0.036523765371226   7.254005652889368   1.663743010888815 
 -1.291985667472628   9.423428762918833   1.665287854012530 
 -2.530162261705046  11.591855911457221   1.665619089806415 
 -1.268900119141570  13.761250030363287   1.665192326793225 
  6.258204581103556   0.745314769808859   1.665217974949035 
  5.021386647414640   2.916529660005259   1.668137415819930 
  3.628192359648022   5.033121218149696   1.657885704292275 
  2.410790498278584   7.327368157539262   1.661838323848140 
  1.175429725192060   9.449935855445398   1.665054715903875 
 -0.036746813347777  11.602555491500754   1.665583402169040 
  1.240576596345355  13.750845451255241   1.664843969027130 
  8.772304653753469   0.730983591400578   1.664396920833945 
  7.544088264499671   2.892832082832614   1.665140426403030 
  6.399961331893678   5.052438377772191   1.664346394419405 
  3.634192898821233   9.449651692561867   1.661212524938895 
  2.467573071628035  11.594878669706596   1.663316309882505 
  3.754609515938677  13.718618776953486   1.664361158766675 
 11.283956872806655   0.711509318085166   1.665450423383805 
 10.055290004466590   2.874036989758876   1.665089489589165 
  8.856000806017974   5.033478472584036   1.662529336985325 
  7.645082848497879   7.199209510615479   1.658014747274910 
  6.215442733963298   9.292177162469695   1.666871178488685 
  4.977590901785697  11.512082042520602   1.662798281382000 
  6.249634761231702  13.700965805415922   1.664126305851855 
 13.782819506673006   0.705138128116701   1.665751449742890 
 12.547871919051785   2.876188327805717   1.666002577268685 
 11.320288734965231   5.045075374416049   1.666075108968000 
 10.080585894032531   7.218745169061808   1.664255568816855 
  8.766228442598903   9.387856261357065   1.664393190125820 
  7.483381544443900  11.517887430317026   1.663444026144630 
  3.631090445144291   8.038761213951478   1.664747334256605 
  5.377871080921215   6.853237698282024   1.704219525118575 
