B N O                                   
   1.0000000000000000     
     8.7639499999999995  -15.1796066749929999    0.0000000000000000
     8.7639499999999995   15.1796066749929999    0.0000000000000000
     0.0000000000000000    0.0000000000000000   15.0000000000000000
   B    N    O 
    47    48     2
Selective dynamics
Direct
  0.9034569059215029  0.9511072127951449  0.1109741964880888   T   T   T
  0.9048430046448266  0.0945681546213773  0.1110595018949227   T   T   T
  0.9056369275364918  0.2376247559091091  0.1110843888678351   T   T   T
  0.9063870501743394  0.3807476747972612  0.1111113824006276   T   T   T
  0.9064549783676868  0.5238794949758578  0.1110955080539635   T   T   T
  0.9039288818304995  0.6664643802740199  0.1110500675382563   T   T   T
  0.9022033187266740  0.8076971630927965  0.1109582335925292   T   T   T
  0.0465962935018344  0.9523379484632065  0.1109934645757211   T   T   T
  0.0477888602994383  0.0956577880235712  0.1110233962033349   T   T   T
  0.0482932067616114  0.2384247212138209  0.1110184875147884   T   T   T
  0.0483138791281285  0.3813609599431921  0.1110353546554077   T   T   T
  0.0481251542289707  0.5246079932982505  0.1110642615455576   T   T   T
  0.0472075805762419  0.6676013999125021  0.1110284201629253   T   T   T
  0.0468313966443836  0.8101929028667344  0.1109767227315302   T   T   T
  0.1904888982510407  0.9540264268533488  0.1109775857742347   T   T   T
  0.1906623959971046  0.0964275940032629  0.1110846273162643   T   T   T
  0.1921207914390829  0.2404182767678999  0.1110307305918614   T   T   T
  0.1908112599251954  0.3825367909908292  0.1109446646112517   T   T   T
  0.1898393634463652  0.5253543898454540  0.1109880074622990   T   T   T
  0.1896121648752148  0.6683692344413755  0.1110489840101697   T   T   T
  0.1900107326168224  0.8112188413562134  0.1109884630424564   T   T   T
  0.3335543979750186  0.9544979515931535  0.1110145889866183   T   T   T
  0.3346637711963343  0.0977703058333325  0.1111123976888052   T   T   T
  0.3351596571320546  0.2396478780709119  0.1110281093058965   T   T   T
  0.3367716062695342  0.3867609451250485  0.1108385025864864   T   T   T
  0.3315463954996292  0.5279729471568650  0.1109509729126818   T   T   T
  0.3315390094445732  0.6694296499897490  0.1110358880638960   T   T   T
  0.3327441603499189  0.8117495568541403  0.1110711662465122   T   T   T
  0.4763002405044767  0.9536896493991235  0.1109941273215151   T   T   T
  0.4773746958883009  0.0966522114201913  0.1109986659720826   T   T   T
  0.4795185830988336  0.2418217939950830  0.1111416841767846   T   T   T
  0.4727787033269959  0.6694339802601060  0.1109007416925453   T   T   T
  0.4753768939751736  0.8112670601074513  0.1109901550445573   T   T   T
  0.6189634892438363  0.9519589497242636  0.1110097464454046   T   T   T
  0.6198198888426339  0.0948364592955935  0.1110138903220420   T   T   T
  0.6208480773675477  0.2373834267732296  0.1109668565387453   T   T   T
  0.6230220184934926  0.3791751424295345  0.1107751365512799   T   T   T
  0.6168388572953781  0.5123840770099441  0.1117538664736246   T   T   T
  0.6141635622273015  0.6612044585692582  0.1109516943535611   T   T   T
  0.6176975636573878  0.8082980779135711  0.1108893854599674   T   T   T
  0.7612283144073899  0.9510229857658363  0.1110047826094714   T   T   T
  0.7623479045865261  0.0943582491495965  0.1110730216560974   T   T   T
  0.7632433753134537  0.2372691785384294  0.1110578895399559   T   T   T
  0.7647382882998384  0.3801035758915103  0.1109677595357446   T   T   T
  0.7650429943924750  0.5228634127098279  0.1107746473859935   T   T   T
  0.7571351615229026  0.6620128322570223  0.1109651809760887   T   T   T
  0.7589067481202961  0.8064135269554764  0.1109056837376037   T   T   T
  0.9508477805016706  0.9035652007710891  0.1109493687262363   T   T   T
  0.9520565214107732  0.0468559051465649  0.1109961473701644   T   T   T
  0.9529413584963410  0.1899483064383845  0.1110482222677947   T   T   T
  0.9535317944826284  0.3329537111226553  0.1110714981262410   T   T   T
  0.9538217823122693  0.4762047842200530  0.1111139171980449   T   T   T
  0.9525687438400722  0.6194731584638965  0.1110734643309036   T   T   T
  0.9515252453850315  0.7618883877331402  0.1110027239113395   T   T   T
  0.0947851929640519  0.9054818763336936  0.1109498617347814   T   T   T
  0.0948117242747434  0.0477644622633450  0.1110250392038422   T   T   T
  0.0959911914036052  0.1912864806117800  0.1110099690645231   T   T   T
  0.0955707765046930  0.3337897096347005  0.1109693768124983   T   T   T
  0.0952070635536239  0.4768198516344158  0.1110020067816998   T   T   T
  0.0948374068924831  0.6200672128449761  0.1110238626975739   T   T   T
  0.0947902938471512  0.7629869760753257  0.1109572953275917   T   T   T
  0.2379647127661292  0.9063183297481960  0.1109556305977542   T   T   T
  0.2384468932609139  0.0490318489962047  0.1110429219799201   T   T   T
  0.2381401394197842  0.1914205894770120  0.1110762500896618   T   T   T
  0.2391991193080461  0.3364830736941289  0.1109488950732495   T   T   T
  0.2368554333963244  0.4778783672201186  0.1109162007259209   T   T   T
  0.2366874220806648  0.6207953186588780  0.1110191902675025   T   T   T
  0.2374727645172528  0.7636466582861849  0.1110412726537612   T   T   T
  0.3808876870745632  0.9065616998517823  0.1110128217862151   T   T   T
  0.3815923335986501  0.0490997418949390  0.1110145316632688   T   T   T
  0.3825470154278741  0.1921347319762860  0.1112091610546622   T   T   T
  0.3727808950194125  0.3315712538481797  0.1105257136194852   T   T   T
  0.3788958447095955  0.4827113320143095  0.1107892215898757   T   T   T
  0.3783312738638432  0.6225415491834296  0.1110036477269246   T   T   T
  0.3800792863353632  0.7643515237199623  0.1110388934779363   T   T   T
  0.5237153862820052  0.9058762684482674  0.1109895979351421   T   T   T
  0.5245544661380940  0.0481556345333240  0.1109597947222627   T   T   T
  0.5256913632690465  0.1905735863102595  0.1110093617602016   T   T   T
  0.5315518681282110  0.3328438269810741  0.1109564262946272   T   T   T
  0.5185990248272728  0.6225228291408347  0.1107475016625925   T   T   T
  0.5227026279704974  0.7638457911302757  0.1108877539921670   T   T   T
  0.6660842291274198  0.9037532441175478  0.1109574105844455   T   T   T
  0.6672075359360902  0.0468727110865994  0.1110300282255872   T   T   T
  0.6683411038495719  0.1893354058042586  0.1110059659726108   T   T   T
  0.6710490678931645  0.3315947890057099  0.1108352891323552   T   T   T
  0.6733007603537358  0.4742685146430983  0.1105343164849940   T   T   T
  0.6606771900839714  0.6121487441290276  0.1111247452325790   T   T   T
  0.6631766822019722  0.7583913265345368  0.1108532187588005   T   T   T
  0.8078486902108265  0.9025903041339547  0.1109417537234572   T   T   T
  0.8095625371411985  0.0464529907272458  0.1110500966495259   T   T   T
  0.8106185010383791  0.1894771313504411  0.1110668384845787   T   T   T
  0.8120233662028181  0.3323587680784426  0.1110716739312002   T   T   T
  0.8128943205176731  0.4755554820108704  0.1109503712544570   T   T   T
  0.8093559286741088  0.6184518783890869  0.1109595460083875   T   T   T
  0.8063280229139372  0.7587737730577394  0.1108962684096419   T   T   T
  0.4719488013949333  0.5295763840307204  0.1109831556171070   T   T   T
  0.5325560797839337  0.4514766321035191  0.1136146350079051   T   T   T

  0.00000000E+00  0.00000000E+00  0.00000000E+00
  0.00000000E+00  0.00000000E+00  0.00000000E+00
  0.00000000E+00  0.00000000E+00  0.00000000E+00
  0.00000000E+00  0.00000000E+00  0.00000000E+00
  0.00000000E+00  0.00000000E+00  0.00000000E+00
  0.00000000E+00  0.00000000E+00  0.00000000E+00
  0.00000000E+00  0.00000000E+00  0.00000000E+00
  0.00000000E+00  0.00000000E+00  0.00000000E+00
  0.00000000E+00  0.00000000E+00  0.00000000E+00
  0.00000000E+00  0.00000000E+00  0.00000000E+00
  0.00000000E+00  0.00000000E+00  0.00000000E+00
  0.00000000E+00  0.00000000E+00  0.00000000E+00
  0.00000000E+00  0.00000000E+00  0.00000000E+00
  0.00000000E+00  0.00000000E+00  0.00000000E+00
  0.00000000E+00  0.00000000E+00  0.00000000E+00
  0.00000000E+00  0.00000000E+00  0.00000000E+00
  0.00000000E+00  0.00000000E+00  0.00000000E+00
  0.00000000E+00  0.00000000E+00  0.00000000E+00
  0.00000000E+00  0.00000000E+00  0.00000000E+00
  0.00000000E+00  0.00000000E+00  0.00000000E+00
  0.00000000E+00  0.00000000E+00  0.00000000E+00
  0.00000000E+00  0.00000000E+00  0.00000000E+00
  0.00000000E+00  0.00000000E+00  0.00000000E+00
  0.00000000E+00  0.00000000E+00  0.00000000E+00
  0.00000000E+00  0.00000000E+00  0.00000000E+00
  0.00000000E+00  0.00000000E+00  0.00000000E+00
  0.00000000E+00  0.00000000E+00  0.00000000E+00
  0.00000000E+00  0.00000000E+00  0.00000000E+00
  0.00000000E+00  0.00000000E+00  0.00000000E+00
  0.00000000E+00  0.00000000E+00  0.00000000E+00
  0.00000000E+00  0.00000000E+00  0.00000000E+00
  0.00000000E+00  0.00000000E+00  0.00000000E+00
  0.00000000E+00  0.00000000E+00  0.00000000E+00
  0.00000000E+00  0.00000000E+00  0.00000000E+00
  0.00000000E+00  0.00000000E+00  0.00000000E+00
  0.00000000E+00  0.00000000E+00  0.00000000E+00
  0.00000000E+00  0.00000000E+00  0.00000000E+00
  0.00000000E+00  0.00000000E+00  0.00000000E+00
  0.00000000E+00  0.00000000E+00  0.00000000E+00
  0.00000000E+00  0.00000000E+00  0.00000000E+00
  0.00000000E+00  0.00000000E+00  0.00000000E+00
  0.00000000E+00  0.00000000E+00  0.00000000E+00
  0.00000000E+00  0.00000000E+00  0.00000000E+00
  0.00000000E+00  0.00000000E+00  0.00000000E+00
  0.00000000E+00  0.00000000E+00  0.00000000E+00
  0.00000000E+00  0.00000000E+00  0.00000000E+00
  0.00000000E+00  0.00000000E+00  0.00000000E+00
  0.00000000E+00  0.00000000E+00  0.00000000E+00
  0.00000000E+00  0.00000000E+00  0.00000000E+00
  0.00000000E+00  0.00000000E+00  0.00000000E+00
  0.00000000E+00  0.00000000E+00  0.00000000E+00
  0.00000000E+00  0.00000000E+00  0.00000000E+00
  0.00000000E+00  0.00000000E+00  0.00000000E+00
  0.00000000E+00  0.00000000E+00  0.00000000E+00
  0.00000000E+00  0.00000000E+00  0.00000000E+00
  0.00000000E+00  0.00000000E+00  0.00000000E+00
  0.00000000E+00  0.00000000E+00  0.00000000E+00
  0.00000000E+00  0.00000000E+00  0.00000000E+00
  0.00000000E+00  0.00000000E+00  0.00000000E+00
  0.00000000E+00  0.00000000E+00  0.00000000E+00
  0.00000000E+00  0.00000000E+00  0.00000000E+00
  0.00000000E+00  0.00000000E+00  0.00000000E+00
  0.00000000E+00  0.00000000E+00  0.00000000E+00
  0.00000000E+00  0.00000000E+00  0.00000000E+00
  0.00000000E+00  0.00000000E+00  0.00000000E+00
  0.00000000E+00  0.00000000E+00  0.00000000E+00
  0.00000000E+00  0.00000000E+00  0.00000000E+00
  0.00000000E+00  0.00000000E+00  0.00000000E+00
  0.00000000E+00  0.00000000E+00  0.00000000E+00
  0.00000000E+00  0.00000000E+00  0.00000000E+00
  0.00000000E+00  0.00000000E+00  0.00000000E+00
  0.00000000E+00  0.00000000E+00  0.00000000E+00
  0.00000000E+00  0.00000000E+00  0.00000000E+00
  0.00000000E+00  0.00000000E+00  0.00000000E+00
  0.00000000E+00  0.00000000E+00  0.00000000E+00
  0.00000000E+00  0.00000000E+00  0.00000000E+00
  0.00000000E+00  0.00000000E+00  0.00000000E+00
  0.00000000E+00  0.00000000E+00  0.00000000E+00
  0.00000000E+00  0.00000000E+00  0.00000000E+00
  0.00000000E+00  0.00000000E+00  0.00000000E+00
  0.00000000E+00  0.00000000E+00  0.00000000E+00
  0.00000000E+00  0.00000000E+00  0.00000000E+00
  0.00000000E+00  0.00000000E+00  0.00000000E+00
  0.00000000E+00  0.00000000E+00  0.00000000E+00
  0.00000000E+00  0.00000000E+00  0.00000000E+00
  0.00000000E+00  0.00000000E+00  0.00000000E+00
  0.00000000E+00  0.00000000E+00  0.00000000E+00
  0.00000000E+00  0.00000000E+00  0.00000000E+00
  0.00000000E+00  0.00000000E+00  0.00000000E+00
  0.00000000E+00  0.00000000E+00  0.00000000E+00
  0.00000000E+00  0.00000000E+00  0.00000000E+00
  0.00000000E+00  0.00000000E+00  0.00000000E+00
  0.00000000E+00  0.00000000E+00  0.00000000E+00
  0.00000000E+00  0.00000000E+00  0.00000000E+00
  0.00000000E+00  0.00000000E+00  0.00000000E+00
  0.00000000E+00  0.00000000E+00  0.00000000E+00
  0.00000000E+00  0.00000000E+00  0.00000000E+00
