Species order: X N B                    
   2.51242800000000     
     5.9449720136058266    0.0000000000000000    0.0000000000000000
    -2.9724860068029120    5.1484967885702053   -0.0000000000000001
     0.0000000000000000    0.0000000000000009    5.3101128803662583
   Sb   N    B 
     1   143   143
Direct
  0.4946891499486462  0.4140112416409871  0.3750000000000000
  0.1116729247827352  0.0558265569920469  0.1250196673838876
  0.6117330594730784  0.5559479644433772  0.1269021197855663
  0.4449537265140852  0.0557855624742796  0.1249102032367670
  0.9449587970439575  0.5558136330455938  0.1250359472558454
  0.7783251417895594  0.0558292375614434  0.1248846192533187
  0.1116110306884174  0.7224721820108740  0.6248287327818662
  0.4449537265140852  0.7225014973731508  0.6250897967632345
  0.2783897647129858  0.2224994185481723  0.6224071885922156
  0.7783369962819520  0.7225277100514302  0.6251781051841906
  0.6116380829258210  0.2224445290963711  0.6250426442260850
  0.9450222002900254  0.2225106269673493  0.6251086441120648
  0.2782769068626533  0.7224804551757747  0.1249996496791179
  0.1117495742128834  0.2225414537731061  0.1254880819985469
  0.4449971106641522  0.2224690979508706  0.1274463487416014
  0.6116380829258210  0.7225268871627644  0.1249573557739165
  0.9449587970439575  0.7224784973316969  0.1250359472558454
  0.7783184342444766  0.2224795455670891  0.1247159655869428
  0.1116242081480265  0.8891348462085319  0.6249825677334345
  0.4449424785481658  0.8891379059407472  0.6252379030023985
  0.2783897647129858  0.3892236794981395  0.6224071885922156
  0.6117330594730784  0.3891184283630388  0.6230978802144413
  0.7783184342444766  0.8891722220107169  0.6252840344130554
  0.9449917222202602  0.3891567943190099  0.6251931020239087
  0.1116729247827352  0.3891797011240170  0.1250196673838876
  0.2782769068626533  0.8891297850202090  0.1249996496791179
  0.6116290279456837  0.8891643453910351  0.1246851688427414
  0.4452000745054433  0.3892667039193848  0.1351922017872880
  0.9449917222202602  0.8891682612345739  0.1248068979760898
  0.7783369962819520  0.3891426195638504  0.1248218948158090
  0.2783052772897701  0.5558387325546787  0.6245345735385153
  0.1116729247827352  0.0558265569920469  0.6249803326161132
  0.6117330594730784  0.5559479644433772  0.6230978802144413
  0.4449537265140852  0.0557855624742796  0.6250897967632345
  0.9449587970439575  0.5558136330455938  0.6249640527441531
  0.1116242081480265  0.5558226952728289  0.1250174322665712
  0.7783251417895594  0.0558292375614434  0.6251153807466797
  0.2783052772897701  0.0557998780684216  0.1254654264614834
  0.4449971106641522  0.5558613460466196  0.1274463487416014
  0.7782966143475335  0.5558149738404399  0.1253126361731525
  0.6116290279456837  0.0557980158879797  0.1246851688427414
  0.4449971106641522  0.5558613460466196  0.6225536512584058
  0.9450222002900254  0.0558449066560135  0.1248913558879392
  0.2782769068626533  0.7224804551757747  0.6250003503208842
  0.1117495742128834  0.2225414537731061  0.6245119180014518
  0.4449971106641522  0.2224690979508706  0.6225536512584058
  0.6116380829258210  0.7225268871627644  0.6250426442260850
  0.9449587970439575  0.7224784973316969  0.6249640527441531
  0.7783184342444766  0.2224795455670891  0.6252840344130554
  0.1116110306884174  0.7224721820108740  0.1251712672181365
  0.4449537265140852  0.7225014973731508  0.1249102032367670
  0.2783897647129858  0.2224994185481723  0.1275928114077874
  0.7783369962819520  0.7225277100514302  0.1248218948158090
  0.6116380829258210  0.2224445290963711  0.1249573557739165
  0.9450222002900254  0.2225106269673493  0.1248913558879392
  0.1116729247827352  0.3891797011240170  0.6249803326161132
  0.2782769068626533  0.8891297850202090  0.6250003503208842
  0.6116290279456837  0.8891643453910351  0.6253148311572592
  0.4452000745054433  0.3892667039193848  0.6148077982127086
  0.9449917222202602  0.8891682612345739  0.6251931020239087
  0.1116242081480265  0.8891348462085319  0.1250174322665712
  0.7783369962819520  0.3891426195638504  0.6251781051841906
  0.4449424785481658  0.8891379059407472  0.1247620969976044
  0.2783897647129858  0.3892236794981395  0.1275928114077874
  0.2783052772897701  0.5558387325546787  0.1254654264614834
  0.6117330594730784  0.3891184283630388  0.1269021197855663
  0.7783184342444766  0.8891722220107169  0.1247159655869428
  0.9449917222202602  0.3891567943190099  0.1248068979760898
  0.1116242081480265  0.5558226952728289  0.6249825677334345
  0.2783052772897701  0.0557998780684216  0.6245345735385153
  0.7782966143475335  0.5558149738404399  0.6246873638268516
  0.6116290279456837  0.0557980158879797  0.6253148311572592
  0.9450222002900254  0.0558449066560135  0.6251086441120648
  0.0562084900643290  0.1116485488515060  0.3750000000000000
  0.5534037453821576  0.6231858470643191  0.3750000000000000
  0.3849070995113303  0.1025978503564157  0.3750000000000000
  0.8817998434838290  0.6075665884085827  0.3750000000000000
  0.7220322608667882  0.1097054607463638  0.3750000000000000
  0.0558818425707874  0.7779445251193139  0.8750000000000000
  0.3892300889577592  0.7779442626897799  0.8750000000000000
  0.2225682136086800  0.2779507734710106  0.8750000000000000
  0.7225485933923295  0.7779422239714215  0.8750000000000000
  0.5558779326986986  0.2779441726056465  0.8750000000000000
  0.8892230642705534  0.2779418713787953  0.8750000000000000
  0.2173408459385832  0.7753370896359558  0.3750000000000000
  0.0562084900643290  0.2778932745461596  0.3750000000000000
  0.3872941305277558  0.2667944858617002  0.3750000000000000
  0.5534723293810221  0.7825512656675427  0.3750000000000000
  0.8860346144328188  0.7772939769412894  0.3750000000000000
  0.7215349206856499  0.2739785483432874  0.3750000000000000
  0.0558900882807095  0.9446174435956163  0.8750000000000000
  0.3892300889577592  0.9446191596013165  0.8750000000000000
  0.2225661609903196  0.4446045784711932  0.8750000000000000
  0.5558586049608711  0.4445959691470999  0.8750000000000000
  0.7225566836012767  0.9446135036042194  0.8750000000000000
  0.8892135793902761  0.4446026824998103  0.8750000000000000
  0.0532947176988952  0.4435292022907770  0.3750000000000000
  0.2177869606124903  0.9405996328658159  0.3750000000000000
  0.5534968728199183  0.9434151030766164  0.3750000000000000
  0.3872941305277558  0.4538329779993882  0.3750000000000000
  0.8888543359162080  0.9454770823696681  0.3750000000000000
  0.7174222933556603  0.4387960686201469  0.3750000000000000
  0.2225638749044209  0.6112709847717902  0.8750000000000000
  0.0558949335717790  0.1112836814867170  0.8750000000000000
  0.5558779326986986  0.6112670934263810  0.8750000000000000
  0.3892342953960229  0.1112998854570206  0.8750000000000000
  0.8892022931271976  0.6112678132302747  0.8750000000000000
  0.0503370280456819  0.6089063333311245  0.3750000000000000
  0.7225566836012767  0.1112765133303957  0.8750000000000000
  0.2203845683643841  0.1085577401237258  0.3750000000000000
  0.3849070995113303  0.6156425824882568  0.3750000000000000
  0.7174222933556603  0.6119595580688469  0.3750000000000000
  0.5534723293810221  0.1042543970468180  0.3750000000000000
  0.3892342953960229  0.6112677432723419  0.8750000000000000
  0.8895178978943560  0.1114256156138511  0.3750000000000000
  0.2225581364395360  0.7779457348864351  0.8750000000000000
  0.0558949335717790  0.2779445854183967  0.8750000000000000
  0.3892309993394031  0.2779648920946102  0.8750000000000000
  0.5558892846932243  0.7779437014905617  0.8750000000000000
  0.8892135793902761  0.7779442302237950  0.8750000000000000
  0.7225485933923295  0.2779397027542374  0.8750000000000000
  0.0503370280456819  0.7747640280478897  0.3750000000000000
  0.3849908121916686  0.7779189024532727  0.3750000000000000
  0.2244756933832044  0.2789045133582754  0.3750000000000000
  0.7215349206856499  0.7808897056757053  0.3750000000000000
  0.5534037453821576  0.2635512316511746  0.3750000000000000
  0.8888543359162080  0.2767105868798709  0.3750000000000000
  0.0558900882807095  0.4446059780184136  0.8750000000000000
  0.2225638749044209  0.9446262234659695  0.8750000000000000
  0.5558912167213078  0.9446122750273193  0.8750000000000000
  0.3892309993394031  0.4445994405781313  0.8750000000000000
  0.8892230642705534  0.9446145262250966  0.8750000000000000
  0.0532947176988952  0.9430988487414508  0.3750000000000000
  0.7225335098035738  0.4445992909780089  0.8750000000000000
  0.3849908121916688  0.9404052430717221  0.3750000000000000
  0.2203845683643841  0.4451601615739940  0.3750000000000000
  0.2177869606124903  0.6105206610800048  0.3750000000000000
  0.7220322608667882  0.9456601334537702  0.3750000000000000
  0.8860346144328188  0.4420739708248576  0.3750000000000000
  0.0558818425707874  0.6112706507848137  0.8750000000000000
  0.2225661609903196  0.1112949158524596  0.8750000000000000
  0.7225335098035738  0.6112675521589022  0.8750000000000000
  0.5558892846932243  0.1112789165360093  0.8750000000000000
  0.8892272312745807  0.1112802823039637  0.8750000000000000
  0.1095637701247607  0.0541401896201898  0.3750000000000000
  0.6097547192597781  0.5731669866112765  0.3750000000000000
  0.4420715012217116  0.0495188791536357  0.3750000000000000
  0.9394036284371434  0.5530879408110254  0.3750000000000000
  0.7785837721322847  0.0559585527328089  0.3750000000000000
  0.1114437513180016  0.7223885423256697  0.8750000000000000
  0.4447799511573374  0.7224175038369889  0.8750000000000000
  0.2780544937353393  0.2223522695256170  0.8750000000000000
  0.7781402687294157  0.7224400597161701  0.8750000000000000
  0.6114634939556288  0.2223477182871766  0.8750000000000000
  0.9447676807973102  0.2223754360173367  0.8750000000000000
  0.2736853018799134  0.7212733440211547  0.3750000000000000
  0.1123422150683870  0.2228377742008575  0.3750000000000000
  0.4409329855892126  0.2103948703775718  0.3750000000000000
  0.6112076712425666  0.7318906863705547  0.3750000000000000
  0.9394036284371434  0.7196490209594592  0.3750000000000000
  0.7783169339982940  0.2201114769544101  0.3750000000000000
  0.1114367074340586  0.8890562992630483  0.8750000000000000
  0.4447859333581738  0.8890596333457499  0.8750000000000000
  0.2780544937353393  0.3890355575430522  0.8750000000000000
  0.6114714856457260  0.3890177866623877  0.8750000000000000
  0.7781296341134666  0.8890955022995551  0.8750000000000000
  0.9447830082728421  0.3890367664485303  0.8750000000000000
  0.1095637701247607  0.3887569138379006  0.3750000000000000
  0.2736853018799134  0.8857452911920873  0.3750000000000000
  0.6108906912492686  0.8916904134764867  0.3750000000000000
  0.9427347314760938  0.8886606370599525  0.3750000000000000
  0.7760126448489195  0.3849825246202654  0.3750000000000000
  0.2780928594097946  0.5557237234364713  0.8750000000000000
  0.1114202781434893  0.0557124757749905  0.8750000000000000
  0.6114714856457260  0.5557870323166589  0.8750000000000000
  0.4447799511573374  0.0556957806536897  0.8750000000000000
  0.9447937141554162  0.5557180310107501  0.8750000000000000
  0.1068721495397689  0.5543254053810599  0.3750000000000000
  0.7781236882141405  0.0557285107737394  0.8750000000000000
  0.2737668908639397  0.0507500688989971  0.3750000000000000
  0.4409329855892126  0.5638714485449758  0.3750000000000000
  0.7706452400265275  0.5519892866799286  0.3750000000000000
  0.6108906912492686  0.0525336111061076  0.3750000000000000
  0.4447635946934897  0.5557487220533197  0.8750000000000000
  0.9451701124419701  0.0564210154181040  0.3750000000000000
  0.2781078645115921  0.7223924582935131  0.8750000000000000
  0.1114029236180973  0.2223681284757129  0.8750000000000000
  0.4447635946934897  0.2223482059735064  0.8750000000000000
  0.6114634939556288  0.7224491090017834  0.8750000000000000
  0.9447937141554162  0.7224090164780000  0.8750000000000000
  0.7781296341134666  0.2223674651472420  0.8750000000000000
  0.1062337923937245  0.7197835628635225  0.3750000000000000
  0.4420715012217116  0.7258859554014157  0.3750000000000000
  0.2768019860714956  0.2195501452259239  0.3750000000000000
  0.7760126448489195  0.7243634535619777  0.3750000000000000
  0.6112076712425666  0.2126503182053390  0.3750000000000000
  0.9451701124419701  0.2220824303572023  0.3750000000000000
  0.1114202781434893  0.3890411357018219  0.8750000000000000
  0.2781078645115921  0.8890487395514037  0.8750000000000000
  0.6114635732356659  0.8890861628126118  0.8750000000000000
  0.4447174162095092  0.3890253747714188  0.8750000000000000
  0.9447830082728421  0.8890795751576313  0.8750000000000000
  0.1068721495397689  0.8858800774920341  0.3750000000000000
  0.7781402687294157  0.3890335423465734  0.8750000000000000
  0.4420581370339052  0.8876957351836221  0.3750000000000000
  0.2768019860714956  0.3905851741789003  0.3750000000000000
  0.2737668908639397  0.5563501552982804  0.3750000000000000
  0.6097547192597781  0.3699210659818269  0.3750000000000000
  0.7783169339982940  0.8915387903772124  0.3750000000000000
  0.9427347314760938  0.3874074277494832  0.3750000000000000
  0.1114367074340586  0.5557137415043553  0.8750000000000000
  0.2780928594097946  0.0557024693066575  0.8750000000000000
  0.7781403377579393  0.5557368355456344  0.8750000000000000
  0.6114635732356659  0.0557107437563861  0.8750000000000000
  0.9447676807973102  0.0557255781133068  0.8750000000000000
  0.0560838422560188  0.1113581280105189  0.1249415998106268
  0.5561285137546788  0.6116446172060959  0.1259690244745431
  0.3892935974120410  0.1111002921282071  0.1254915668508771
  0.8895905099643692  0.6114619216488536  0.1248105988122991
  0.7227665966893710  0.1113372777208118  0.1246011226176047
  0.0561195903429599  0.7780490343046781  0.6250943999910082
  0.3893389325287641  0.7780717178955225  0.6253442715183544
  0.2226861958138955  0.2780097645736111  0.6232083548503001
  0.7228359036080270  0.7781960983729362  0.6255093516646578
  0.5561285137546788  0.2778172298819079  0.6240309755254662
  0.8894689178085380  0.2780379937558513  0.6253728598222271
  0.2227024599291496  0.7780178966312398  0.1248927107250906
  0.0560838422560188  0.2780590475788369  0.1249415998106268
  0.3891489045032458  0.2775081717155970  0.1297599732305637
  0.5560580421906174  0.7781624725619145  0.1245652647276419
  0.8895499430212794  0.7781520126924547  0.1246200000169690
  0.7228359036080270  0.2779731385684209  0.1244906483353420
  0.0560934647745648  0.9446948222136633  0.6252659074272768
  0.3893389325287641  0.9446005479665837  0.6253442715183544
  0.2226580737825090  0.4447734119709733  0.6243477525664255
  0.5566629167135534  0.4449981250234445  0.6214567882662011
  0.7227665966893710  0.9447626523018882  0.6253988773823870
  0.8895499430212794  0.4447312636621648  0.6253799999830304
  0.0560934647745648  0.4447319758942276  0.1247340925727203
  0.2226829732521022  0.9445949808806097  0.1249090054044312
  0.5560448718615906  0.9446891025974636  0.1245238287418511
  0.3891489045032458  0.4449740661209838  0.1297599732305637
  0.8894689178085380  0.9447642573860254  0.1246271401777756
  0.7230583211677993  0.4447706019526774  0.1250396697831314
  0.2226829732521022  0.6114213257048320  0.6250909945955702
  0.0560838422560188  0.1113581280105189  0.6250584001893755
  0.5561285137546788  0.6116446172060959  0.6240309755254662
  0.3892935974120410  0.1111002921282071  0.6245084331491279
  0.8895905099643692  0.6114619216488536  0.6251894011877002
  0.0561195903429599  0.6114038893716192  0.1249056000089892
  0.7227665966893710  0.1113372777208118  0.6253988773823870
  0.2226580737825090  0.1112179951448739  0.1256522474335778
  0.3892935974120410  0.6115266386171816  0.1254915668508771
  0.7230583211677993  0.6116210525484591  0.1250396697831314
  0.5560580421906174  0.1112289029620404  0.1245652647276419
  0.3892935974120410  0.6115266386171816  0.6245084331491279
  0.8894434723641361  0.1113884028487366  0.1247623842631491
  0.2227024599291496  0.7780178966312398  0.6251072892749059
  0.0560838422560188  0.2780590475788369  0.6250584001893755
  0.3891489045032458  0.2775081717155970  0.6202400267694342
  0.5560580421906174  0.7781624725619145  0.6254347352723628
  0.8895499430212794  0.7781520126924547  0.6253799999830304
  0.7228359036080270  0.2779731385684209  0.6255093516646578
  0.0561195903429599  0.7780490343046781  0.1249056000089892
  0.3893389325287641  0.7780717178955225  0.1246557284816441
  0.2226861958138955  0.2780097645736111  0.1267916451496981
  0.7228359036080270  0.7781960983729362  0.1244906483353420
  0.5561285137546788  0.2778172298819079  0.1259690244745431
  0.8894689178085380  0.2780379937558513  0.1246271401777756
  0.0560934647745648  0.4447319758942276  0.6252659074272768
  0.2226829732521022  0.9445949808806097  0.6250909945955702
  0.5560448718615906  0.9446891025974636  0.6254761712581525
  0.3891489045032458  0.4449740661209838  0.6202400267694342
  0.8894689178085380  0.9447642573860254  0.6253728598222271
  0.0560934647745648  0.9446948222136633  0.1247340925727203
  0.7230583211677993  0.4447706019526774  0.6249603302168683
  0.3893389325287641  0.9446005479665837  0.1246557284816441
  0.2226580737825090  0.4447734119709733  0.1256522474335778
  0.2226829732521022  0.6114213257048320  0.1249090054044312
  0.5566629167135534  0.4449981250234445  0.1285432117337942
  0.7227665966893710  0.9447626523018882  0.1246011226176047
  0.8895499430212794  0.4447312636621648  0.1246200000169690
  0.0561195903429599  0.6114038893716192  0.6250943999910082
  0.2226580737825090  0.1112179951448739  0.6243477525664255
  0.7230583211677993  0.6116210525484591  0.6249603302168683
  0.5560580421906174  0.1112289029620404  0.6254347352723628
  0.8894434723641361  0.1113884028487366  0.6252376157368490
 
  0.00000000E+00  0.00000000E+00  0.00000000E+00
  0.00000000E+00  0.00000000E+00  0.00000000E+00
  0.00000000E+00  0.00000000E+00  0.00000000E+00
  0.00000000E+00  0.00000000E+00  0.00000000E+00
  0.00000000E+00  0.00000000E+00  0.00000000E+00
  0.00000000E+00  0.00000000E+00  0.00000000E+00
  0.00000000E+00  0.00000000E+00  0.00000000E+00
  0.00000000E+00  0.00000000E+00  0.00000000E+00
  0.00000000E+00  0.00000000E+00  0.00000000E+00
  0.00000000E+00  0.00000000E+00  0.00000000E+00
  0.00000000E+00  0.00000000E+00  0.00000000E+00
  0.00000000E+00  0.00000000E+00  0.00000000E+00
  0.00000000E+00  0.00000000E+00  0.00000000E+00
  0.00000000E+00  0.00000000E+00  0.00000000E+00
  0.00000000E+00  0.00000000E+00  0.00000000E+00
  0.00000000E+00  0.00000000E+00  0.00000000E+00
  0.00000000E+00  0.00000000E+00  0.00000000E+00
  0.00000000E+00  0.00000000E+00  0.00000000E+00
  0.00000000E+00  0.00000000E+00  0.00000000E+00
  0.00000000E+00  0.00000000E+00  0.00000000E+00
  0.00000000E+00  0.00000000E+00  0.00000000E+00
  0.00000000E+00  0.00000000E+00  0.00000000E+00
  0.00000000E+00  0.00000000E+00  0.00000000E+00
  0.00000000E+00  0.00000000E+00  0.00000000E+00
  0.00000000E+00  0.00000000E+00  0.00000000E+00
  0.00000000E+00  0.00000000E+00  0.00000000E+00
  0.00000000E+00  0.00000000E+00  0.00000000E+00
  0.00000000E+00  0.00000000E+00  0.00000000E+00
  0.00000000E+00  0.00000000E+00  0.00000000E+00
  0.00000000E+00  0.00000000E+00  0.00000000E+00
  0.00000000E+00  0.00000000E+00  0.00000000E+00
  0.00000000E+00  0.00000000E+00  0.00000000E+00
  0.00000000E+00  0.00000000E+00  0.00000000E+00
  0.00000000E+00  0.00000000E+00  0.00000000E+00
  0.00000000E+00  0.00000000E+00  0.00000000E+00
  0.00000000E+00  0.00000000E+00  0.00000000E+00
  0.00000000E+00  0.00000000E+00  0.00000000E+00
  0.00000000E+00  0.00000000E+00  0.00000000E+00
  0.00000000E+00  0.00000000E+00  0.00000000E+00
  0.00000000E+00  0.00000000E+00  0.00000000E+00
  0.00000000E+00  0.00000000E+00  0.00000000E+00
  0.00000000E+00  0.00000000E+00  0.00000000E+00
  0.00000000E+00  0.00000000E+00  0.00000000E+00
  0.00000000E+00  0.00000000E+00  0.00000000E+00
  0.00000000E+00  0.00000000E+00  0.00000000E+00
  0.00000000E+00  0.00000000E+00  0.00000000E+00
  0.00000000E+00  0.00000000E+00  0.00000000E+00
  0.00000000E+00  0.00000000E+00  0.00000000E+00
  0.00000000E+00  0.00000000E+00  0.00000000E+00
  0.00000000E+00  0.00000000E+00  0.00000000E+00
  0.00000000E+00  0.00000000E+00  0.00000000E+00
  0.00000000E+00  0.00000000E+00  0.00000000E+00
  0.00000000E+00  0.00000000E+00  0.00000000E+00
  0.00000000E+00  0.00000000E+00  0.00000000E+00
  0.00000000E+00  0.00000000E+00  0.00000000E+00
  0.00000000E+00  0.00000000E+00  0.00000000E+00
  0.00000000E+00  0.00000000E+00  0.00000000E+00
  0.00000000E+00  0.00000000E+00  0.00000000E+00
  0.00000000E+00  0.00000000E+00  0.00000000E+00
  0.00000000E+00  0.00000000E+00  0.00000000E+00
  0.00000000E+00  0.00000000E+00  0.00000000E+00
  0.00000000E+00  0.00000000E+00  0.00000000E+00
  0.00000000E+00  0.00000000E+00  0.00000000E+00
  0.00000000E+00  0.00000000E+00  0.00000000E+00
  0.00000000E+00  0.00000000E+00  0.00000000E+00
  0.00000000E+00  0.00000000E+00  0.00000000E+00
  0.00000000E+00  0.00000000E+00  0.00000000E+00
  0.00000000E+00  0.00000000E+00  0.00000000E+00
  0.00000000E+00  0.00000000E+00  0.00000000E+00
  0.00000000E+00  0.00000000E+00  0.00000000E+00
  0.00000000E+00  0.00000000E+00  0.00000000E+00
  0.00000000E+00  0.00000000E+00  0.00000000E+00
  0.00000000E+00  0.00000000E+00  0.00000000E+00
  0.00000000E+00  0.00000000E+00  0.00000000E+00
  0.00000000E+00  0.00000000E+00  0.00000000E+00
  0.00000000E+00  0.00000000E+00  0.00000000E+00
  0.00000000E+00  0.00000000E+00  0.00000000E+00
  0.00000000E+00  0.00000000E+00  0.00000000E+00
  0.00000000E+00  0.00000000E+00  0.00000000E+00
  0.00000000E+00  0.00000000E+00  0.00000000E+00
  0.00000000E+00  0.00000000E+00  0.00000000E+00
  0.00000000E+00  0.00000000E+00  0.00000000E+00
  0.00000000E+00  0.00000000E+00  0.00000000E+00
  0.00000000E+00  0.00000000E+00  0.00000000E+00
  0.00000000E+00  0.00000000E+00  0.00000000E+00
  0.00000000E+00  0.00000000E+00  0.00000000E+00
  0.00000000E+00  0.00000000E+00  0.00000000E+00
  0.00000000E+00  0.00000000E+00  0.00000000E+00
  0.00000000E+00  0.00000000E+00  0.00000000E+00
  0.00000000E+00  0.00000000E+00  0.00000000E+00
  0.00000000E+00  0.00000000E+00  0.00000000E+00
  0.00000000E+00  0.00000000E+00  0.00000000E+00
  0.00000000E+00  0.00000000E+00  0.00000000E+00
  0.00000000E+00  0.00000000E+00  0.00000000E+00
  0.00000000E+00  0.00000000E+00  0.00000000E+00
  0.00000000E+00  0.00000000E+00  0.00000000E+00
  0.00000000E+00  0.00000000E+00  0.00000000E+00
  0.00000000E+00  0.00000000E+00  0.00000000E+00
  0.00000000E+00  0.00000000E+00  0.00000000E+00
  0.00000000E+00  0.00000000E+00  0.00000000E+00
  0.00000000E+00  0.00000000E+00  0.00000000E+00
  0.00000000E+00  0.00000000E+00  0.00000000E+00
  0.00000000E+00  0.00000000E+00  0.00000000E+00
  0.00000000E+00  0.00000000E+00  0.00000000E+00
  0.00000000E+00  0.00000000E+00  0.00000000E+00
  0.00000000E+00  0.00000000E+00  0.00000000E+00
  0.00000000E+00  0.00000000E+00  0.00000000E+00
  0.00000000E+00  0.00000000E+00  0.00000000E+00
  0.00000000E+00  0.00000000E+00  0.00000000E+00
  0.00000000E+00  0.00000000E+00  0.00000000E+00
  0.00000000E+00  0.00000000E+00  0.00000000E+00
  0.00000000E+00  0.00000000E+00  0.00000000E+00
  0.00000000E+00  0.00000000E+00  0.00000000E+00
  0.00000000E+00  0.00000000E+00  0.00000000E+00
  0.00000000E+00  0.00000000E+00  0.00000000E+00
  0.00000000E+00  0.00000000E+00  0.00000000E+00
  0.00000000E+00  0.00000000E+00  0.00000000E+00
  0.00000000E+00  0.00000000E+00  0.00000000E+00
  0.00000000E+00  0.00000000E+00  0.00000000E+00
  0.00000000E+00  0.00000000E+00  0.00000000E+00
  0.00000000E+00  0.00000000E+00  0.00000000E+00
  0.00000000E+00  0.00000000E+00  0.00000000E+00
  0.00000000E+00  0.00000000E+00  0.00000000E+00
  0.00000000E+00  0.00000000E+00  0.00000000E+00
  0.00000000E+00  0.00000000E+00  0.00000000E+00
  0.00000000E+00  0.00000000E+00  0.00000000E+00
  0.00000000E+00  0.00000000E+00  0.00000000E+00
  0.00000000E+00  0.00000000E+00  0.00000000E+00
  0.00000000E+00  0.00000000E+00  0.00000000E+00
  0.00000000E+00  0.00000000E+00  0.00000000E+00
  0.00000000E+00  0.00000000E+00  0.00000000E+00
  0.00000000E+00  0.00000000E+00  0.00000000E+00
  0.00000000E+00  0.00000000E+00  0.00000000E+00
  0.00000000E+00  0.00000000E+00  0.00000000E+00
  0.00000000E+00  0.00000000E+00  0.00000000E+00
  0.00000000E+00  0.00000000E+00  0.00000000E+00
  0.00000000E+00  0.00000000E+00  0.00000000E+00
  0.00000000E+00  0.00000000E+00  0.00000000E+00
  0.00000000E+00  0.00000000E+00  0.00000000E+00
  0.00000000E+00  0.00000000E+00  0.00000000E+00
  0.00000000E+00  0.00000000E+00  0.00000000E+00
  0.00000000E+00  0.00000000E+00  0.00000000E+00
  0.00000000E+00  0.00000000E+00  0.00000000E+00
  0.00000000E+00  0.00000000E+00  0.00000000E+00
  0.00000000E+00  0.00000000E+00  0.00000000E+00
  0.00000000E+00  0.00000000E+00  0.00000000E+00
  0.00000000E+00  0.00000000E+00  0.00000000E+00
  0.00000000E+00  0.00000000E+00  0.00000000E+00
  0.00000000E+00  0.00000000E+00  0.00000000E+00
  0.00000000E+00  0.00000000E+00  0.00000000E+00
  0.00000000E+00  0.00000000E+00  0.00000000E+00
  0.00000000E+00  0.00000000E+00  0.00000000E+00
  0.00000000E+00  0.00000000E+00  0.00000000E+00
  0.00000000E+00  0.00000000E+00  0.00000000E+00
  0.00000000E+00  0.00000000E+00  0.00000000E+00
  0.00000000E+00  0.00000000E+00  0.00000000E+00
  0.00000000E+00  0.00000000E+00  0.00000000E+00
  0.00000000E+00  0.00000000E+00  0.00000000E+00
  0.00000000E+00  0.00000000E+00  0.00000000E+00
  0.00000000E+00  0.00000000E+00  0.00000000E+00
  0.00000000E+00  0.00000000E+00  0.00000000E+00
  0.00000000E+00  0.00000000E+00  0.00000000E+00
  0.00000000E+00  0.00000000E+00  0.00000000E+00
  0.00000000E+00  0.00000000E+00  0.00000000E+00
  0.00000000E+00  0.00000000E+00  0.00000000E+00
  0.00000000E+00  0.00000000E+00  0.00000000E+00
  0.00000000E+00  0.00000000E+00  0.00000000E+00
  0.00000000E+00  0.00000000E+00  0.00000000E+00
  0.00000000E+00  0.00000000E+00  0.00000000E+00
  0.00000000E+00  0.00000000E+00  0.00000000E+00
  0.00000000E+00  0.00000000E+00  0.00000000E+00
  0.00000000E+00  0.00000000E+00  0.00000000E+00
  0.00000000E+00  0.00000000E+00  0.00000000E+00
  0.00000000E+00  0.00000000E+00  0.00000000E+00
  0.00000000E+00  0.00000000E+00  0.00000000E+00
  0.00000000E+00  0.00000000E+00  0.00000000E+00
  0.00000000E+00  0.00000000E+00  0.00000000E+00
  0.00000000E+00  0.00000000E+00  0.00000000E+00
  0.00000000E+00  0.00000000E+00  0.00000000E+00
  0.00000000E+00  0.00000000E+00  0.00000000E+00
  0.00000000E+00  0.00000000E+00  0.00000000E+00
  0.00000000E+00  0.00000000E+00  0.00000000E+00
  0.00000000E+00  0.00000000E+00  0.00000000E+00
  0.00000000E+00  0.00000000E+00  0.00000000E+00
  0.00000000E+00  0.00000000E+00  0.00000000E+00
  0.00000000E+00  0.00000000E+00  0.00000000E+00
  0.00000000E+00  0.00000000E+00  0.00000000E+00
  0.00000000E+00  0.00000000E+00  0.00000000E+00
  0.00000000E+00  0.00000000E+00  0.00000000E+00
  0.00000000E+00  0.00000000E+00  0.00000000E+00
  0.00000000E+00  0.00000000E+00  0.00000000E+00
  0.00000000E+00  0.00000000E+00  0.00000000E+00
  0.00000000E+00  0.00000000E+00  0.00000000E+00
  0.00000000E+00  0.00000000E+00  0.00000000E+00
  0.00000000E+00  0.00000000E+00  0.00000000E+00
  0.00000000E+00  0.00000000E+00  0.00000000E+00
  0.00000000E+00  0.00000000E+00  0.00000000E+00
  0.00000000E+00  0.00000000E+00  0.00000000E+00
  0.00000000E+00  0.00000000E+00  0.00000000E+00
  0.00000000E+00  0.00000000E+00  0.00000000E+00
  0.00000000E+00  0.00000000E+00  0.00000000E+00
  0.00000000E+00  0.00000000E+00  0.00000000E+00
  0.00000000E+00  0.00000000E+00  0.00000000E+00
  0.00000000E+00  0.00000000E+00  0.00000000E+00
  0.00000000E+00  0.00000000E+00  0.00000000E+00
  0.00000000E+00  0.00000000E+00  0.00000000E+00
  0.00000000E+00  0.00000000E+00  0.00000000E+00
  0.00000000E+00  0.00000000E+00  0.00000000E+00
  0.00000000E+00  0.00000000E+00  0.00000000E+00
  0.00000000E+00  0.00000000E+00  0.00000000E+00
  0.00000000E+00  0.00000000E+00  0.00000000E+00
  0.00000000E+00  0.00000000E+00  0.00000000E+00
  0.00000000E+00  0.00000000E+00  0.00000000E+00
  0.00000000E+00  0.00000000E+00  0.00000000E+00
  0.00000000E+00  0.00000000E+00  0.00000000E+00
  0.00000000E+00  0.00000000E+00  0.00000000E+00
  0.00000000E+00  0.00000000E+00  0.00000000E+00
  0.00000000E+00  0.00000000E+00  0.00000000E+00
  0.00000000E+00  0.00000000E+00  0.00000000E+00
  0.00000000E+00  0.00000000E+00  0.00000000E+00
  0.00000000E+00  0.00000000E+00  0.00000000E+00
  0.00000000E+00  0.00000000E+00  0.00000000E+00
  0.00000000E+00  0.00000000E+00  0.00000000E+00
  0.00000000E+00  0.00000000E+00  0.00000000E+00
  0.00000000E+00  0.00000000E+00  0.00000000E+00
  0.00000000E+00  0.00000000E+00  0.00000000E+00
  0.00000000E+00  0.00000000E+00  0.00000000E+00
  0.00000000E+00  0.00000000E+00  0.00000000E+00
  0.00000000E+00  0.00000000E+00  0.00000000E+00
  0.00000000E+00  0.00000000E+00  0.00000000E+00
  0.00000000E+00  0.00000000E+00  0.00000000E+00
  0.00000000E+00  0.00000000E+00  0.00000000E+00
  0.00000000E+00  0.00000000E+00  0.00000000E+00
  0.00000000E+00  0.00000000E+00  0.00000000E+00
  0.00000000E+00  0.00000000E+00  0.00000000E+00
  0.00000000E+00  0.00000000E+00  0.00000000E+00
  0.00000000E+00  0.00000000E+00  0.00000000E+00
  0.00000000E+00  0.00000000E+00  0.00000000E+00
  0.00000000E+00  0.00000000E+00  0.00000000E+00
  0.00000000E+00  0.00000000E+00  0.00000000E+00
  0.00000000E+00  0.00000000E+00  0.00000000E+00
  0.00000000E+00  0.00000000E+00  0.00000000E+00
  0.00000000E+00  0.00000000E+00  0.00000000E+00
  0.00000000E+00  0.00000000E+00  0.00000000E+00
  0.00000000E+00  0.00000000E+00  0.00000000E+00
  0.00000000E+00  0.00000000E+00  0.00000000E+00
  0.00000000E+00  0.00000000E+00  0.00000000E+00
  0.00000000E+00  0.00000000E+00  0.00000000E+00