B N                                     
   1.0000000000000000     
     8.7639499999999995  -15.1796066749929999    0.0000000000000000
     8.7639499999999995   15.1796066749929999    0.0000000000000000
     0.0000000000000000    0.0000000000000000   15.0000000000000000
   B    N 
    48    49
Selective dynamics
Direct
  0.9036545769241563  0.9507467773293287  0.1099630537737883   T   T   T
  0.9055754890873468  0.0944262797836553  0.1103307501968044   T   T   T
  0.9062098170499672  0.2374050939917405  0.1115327618065435   T   T   T
  0.9061168706895910  0.3803145156109586  0.1135571144374196   T   T   T
  0.9046483508010625  0.5230692653791790  0.1142983208127636   T   T   T
  0.9022053461344867  0.6652348584914901  0.1129429544418194   T   T   T
  0.9010203503543376  0.8065359214170624  0.1106838841893585   T   T   T
  0.0472184412860640  0.9527832808699357  0.1102216773144634   T   T   T
  0.0492549284376700  0.0963471252678447  0.1099630549637911   T   T   T
  0.0497689455015128  0.2387872547208316  0.1102354095808327   T   T   T
  0.0490294992214947  0.3812126907311204  0.1113595447035806   T   T   T
  0.0473925204676668  0.5240654790038743  0.1124275743486478   T   T   T
  0.0461282831707069  0.6668703867524481  0.1123467141002478   T   T   T
  0.0460368976208520  0.8095915223273019  0.1111614188050787   T   T   T
  0.1904102206926983  0.9539648544181524  0.1111614152690770   T   T   T
  0.1934657888929397  0.0989813931026604  0.1106838821283582   T   T   T
  0.1950033534125564  0.2420893667898466  0.1098209385409334   T   T   T
  0.1931262734341105  0.3829239581182852  0.1093188644958344   T   T   T
  0.1899484811410852  0.5250562422371792  0.1107954896009619   T   T   T
  0.1889201741331632  0.6678043754553940  0.1113203588343564   T   T   T
  0.1893409812055931  0.8106606551323979  0.1114451446818089   T   T   T
  0.3331312807095534  0.9538733581882918  0.1123467112172491   T   T   T
  0.3347668933555045  0.0977963936145090  0.1129429534378225   T   T   T
  0.3410237854327721  0.2462840779080276  0.1121736199103405   T   T   T
  0.3410640762578337  0.3881218430332911  0.1051487858125907   T   T   T
  0.3323400568401250  0.5277688822553211  0.1040765375808917   T   T   T
  0.3310793307323751  0.6689224918796243  0.1082441957732955   T   T   T
  0.3321972765705999  0.8110815104538354  0.1113203570523578   T   T   T
  0.4759361649121259  0.9526090709833360  0.1124275796446497   T   T   T
  0.4769324550418176  0.0953533184239373  0.1142983348327665   T   T   T
  0.4785840962872056  0.2387670363009678  0.1161226111520774   T   T   T
  0.4935672579373447  0.3930913735020752  0.1161384992185260   T   T   T
  0.4722328467336773  0.6676617054108709  0.1040765372518891   T   T   T
  0.4749455447738219  0.8100533486879171  0.1107954895759579   T   T   T
  0.6187890541588721  0.9509722285025102  0.1113595474365838   T   T   T
  0.6196871424260421  0.0938847432164104  0.1135571216554182   T   T   T
  0.6205027820704880  0.2362026301277337  0.1164407538661451   T   T   T
  0.6221529962578243  0.3778488030211738  0.1186799299363186   T   T   T
  0.6069103605629261  0.5064343777736562  0.1161384990445211   T   T   T
  0.6118798145927102  0.6589375216761613  0.1051487833985928   T   T   T
  0.6170777666117130  0.8068754901788889  0.1093188626608365   T   T   T
  0.7612144678811620  0.9502328027484866  0.1102354119348324   T   T   T
  0.7625966069112585  0.0937918719580348  0.1115327613105421   T   T   T
  0.7632827729417746  0.2367188502892259  0.1142040887190833   T   T   T
  0.7637991022522653  0.3794989425565096  0.1164407472891484   T   T   T
  0.7612348327940335  0.5214176756977993  0.1161226039180774   T   T   T
  0.7537177111699711  0.6589779071242269  0.1121736214693352   T   T   T
  0.7579122888791495  0.8049983102894445  0.1098209395609389   T   T   T
  0.9508095790676220  0.9029772895013454  0.1100471137561785   T   T   T
  0.9530998665165002  0.0469018536124984  0.1099295238005339   T   T   T
  0.9540625560347779  0.1900809956220654  0.1105060920109829   T   T   T
  0.9538281417939879  0.3328401875228126  0.1119931799401789   T   T   T
  0.9525219014118121  0.4756986308745886  0.1135103113925136   T   T   T
  0.9508229321926968  0.6184406341833310  0.1132957036383200   T   T   T
  0.9501274404934775  0.7606115092348109  0.1114435703275036   T   T   T
  0.0947015307127611  0.9053002348602415  0.1105689799899291   T   T   T
  0.0970244254176561  0.0491921474253745  0.1100471242631799   T   T   T
  0.0985534142193171  0.1924094928848611  0.1099463577481404   T   T   T
  0.0975278051136451  0.3342482329569326  0.1103052776335539   T   T   T
  0.0951943311869394  0.4765819408841728  0.1117008266265423   T   T   T
  0.0939368272235872  0.6194620263696499  0.1121026687309636   T   T   T
  0.0938789687100569  0.7623278088253161  0.1115113577394509   T   T   T
  0.2376738588016810  0.9061226836689420  0.1115113568164488   T   T   T
  0.2393902339371884  0.0498743368615179  0.1114435601205003   T   T   T
  0.2438570402402951  0.1959050260331734  0.1105343888524975   T   T   T
  0.2440345328781784  0.3381611288509868  0.1084544438178163   T   T   T
  0.2381605997636585  0.4780117368564274  0.1097572469228456   T   T   T
  0.2363918959235121  0.6203120223464289  0.1102542393765115   T   T   T
  0.2368816712628201  0.7631199781801730  0.1113214239882665   T   T   T
  0.3805396172213486  0.9060647959954121  0.1121026594469624   T   T   T
  0.3815610711306677  0.0491786986593084  0.1132957091983240   T   T   T
  0.3838230333131712  0.1937675451945330  0.1140777107035027   T   T   T
  0.3937926772901417  0.3451943256322819  0.1112454243137425   T   T   T
  0.3828977317970218  0.4839097383045923  0.0964878488687276   T   T   T
  0.3781969710498456  0.6218047837851515  0.1037321879158494   T   T   T
  0.3796897764265695  0.7636099629314879  0.1102542462585087   T   T   T
  0.5234198354328330  0.9048074718760605  0.1117008318945416   T   T   T
  0.5243030259464110  0.0474796426941867  0.1135103293895095   T   T   T
  0.5253235113306810  0.1901994977069253  0.1160006739367423   T   T   T
  0.5277111776928510  0.3333694577252366  0.1180486950906469   T   T   T
  0.4709138360347942  0.5290877027081985  0.0739282166321428   T   T   T
  0.5160918084694094  0.6171037681659759  0.0964878524017237   T   T   T
  0.5219899994455756  0.7618412133193444  0.1097572418958481   T   T   T
  0.6657535222690626  0.9024739790423602  0.1103052763385542   T   T   T
  0.6671615249671841  0.0461735325880098  0.1119931826511765   T   T   T
  0.6679781783148586  0.1888508201535331  0.1149957237397134   T   T   T
  0.6690736666208016  0.3309280915481969  0.1179350260438122   T   T   T
  0.6666324772417658  0.4722905973341510  0.1180486902476444   T   T   T
  0.6548074695567174  0.6062089708598614  0.1112454256217380   T   T   T
  0.6618404745280114  0.7559671169838285  0.1084544390328154   T   T   T
  0.8075921903731375  0.9014482938676807  0.1099463594211417   T   T   T
  0.8099207742129366  0.0459392271272275  0.1105060954769820   T   T   T
  0.8108068405701148  0.1891948168608850  0.1122251632571382   T   T   T
  0.8111508081704676  0.3320234649461417  0.1149957182237133   T   T   T
  0.8098022273340767  0.4746782067043206  0.1160006546077417   T   T   T
  0.8062342883544672  0.6161787177328284  0.1140777100735000   T   T   T
  0.8040967018108277  0.7561446534227069  0.1105343936044936   T   T   T

  0.00000000E+00  0.00000000E+00  0.00000000E+00
  0.00000000E+00  0.00000000E+00  0.00000000E+00
  0.00000000E+00  0.00000000E+00  0.00000000E+00
  0.00000000E+00  0.00000000E+00  0.00000000E+00
  0.00000000E+00  0.00000000E+00  0.00000000E+00
  0.00000000E+00  0.00000000E+00  0.00000000E+00
  0.00000000E+00  0.00000000E+00  0.00000000E+00
  0.00000000E+00  0.00000000E+00  0.00000000E+00
  0.00000000E+00  0.00000000E+00  0.00000000E+00
  0.00000000E+00  0.00000000E+00  0.00000000E+00
  0.00000000E+00  0.00000000E+00  0.00000000E+00
  0.00000000E+00  0.00000000E+00  0.00000000E+00
  0.00000000E+00  0.00000000E+00  0.00000000E+00
  0.00000000E+00  0.00000000E+00  0.00000000E+00
  0.00000000E+00  0.00000000E+00  0.00000000E+00
  0.00000000E+00  0.00000000E+00  0.00000000E+00
  0.00000000E+00  0.00000000E+00  0.00000000E+00
  0.00000000E+00  0.00000000E+00  0.00000000E+00
  0.00000000E+00  0.00000000E+00  0.00000000E+00
  0.00000000E+00  0.00000000E+00  0.00000000E+00
  0.00000000E+00  0.00000000E+00  0.00000000E+00
  0.00000000E+00  0.00000000E+00  0.00000000E+00
  0.00000000E+00  0.00000000E+00  0.00000000E+00
  0.00000000E+00  0.00000000E+00  0.00000000E+00
  0.00000000E+00  0.00000000E+00  0.00000000E+00
  0.00000000E+00  0.00000000E+00  0.00000000E+00
  0.00000000E+00  0.00000000E+00  0.00000000E+00
  0.00000000E+00  0.00000000E+00  0.00000000E+00
  0.00000000E+00  0.00000000E+00  0.00000000E+00
  0.00000000E+00  0.00000000E+00  0.00000000E+00
  0.00000000E+00  0.00000000E+00  0.00000000E+00
  0.00000000E+00  0.00000000E+00  0.00000000E+00
  0.00000000E+00  0.00000000E+00  0.00000000E+00
  0.00000000E+00  0.00000000E+00  0.00000000E+00
  0.00000000E+00  0.00000000E+00  0.00000000E+00
  0.00000000E+00  0.00000000E+00  0.00000000E+00
  0.00000000E+00  0.00000000E+00  0.00000000E+00
  0.00000000E+00  0.00000000E+00  0.00000000E+00
  0.00000000E+00  0.00000000E+00  0.00000000E+00
  0.00000000E+00  0.00000000E+00  0.00000000E+00
  0.00000000E+00  0.00000000E+00  0.00000000E+00
  0.00000000E+00  0.00000000E+00  0.00000000E+00
  0.00000000E+00  0.00000000E+00  0.00000000E+00
  0.00000000E+00  0.00000000E+00  0.00000000E+00
  0.00000000E+00  0.00000000E+00  0.00000000E+00
  0.00000000E+00  0.00000000E+00  0.00000000E+00
  0.00000000E+00  0.00000000E+00  0.00000000E+00
  0.00000000E+00  0.00000000E+00  0.00000000E+00
  0.00000000E+00  0.00000000E+00  0.00000000E+00
  0.00000000E+00  0.00000000E+00  0.00000000E+00
  0.00000000E+00  0.00000000E+00  0.00000000E+00
  0.00000000E+00  0.00000000E+00  0.00000000E+00
  0.00000000E+00  0.00000000E+00  0.00000000E+00
  0.00000000E+00  0.00000000E+00  0.00000000E+00
  0.00000000E+00  0.00000000E+00  0.00000000E+00
  0.00000000E+00  0.00000000E+00  0.00000000E+00
  0.00000000E+00  0.00000000E+00  0.00000000E+00
  0.00000000E+00  0.00000000E+00  0.00000000E+00
  0.00000000E+00  0.00000000E+00  0.00000000E+00
  0.00000000E+00  0.00000000E+00  0.00000000E+00
  0.00000000E+00  0.00000000E+00  0.00000000E+00
  0.00000000E+00  0.00000000E+00  0.00000000E+00
  0.00000000E+00  0.00000000E+00  0.00000000E+00
  0.00000000E+00  0.00000000E+00  0.00000000E+00
  0.00000000E+00  0.00000000E+00  0.00000000E+00
  0.00000000E+00  0.00000000E+00  0.00000000E+00
  0.00000000E+00  0.00000000E+00  0.00000000E+00
  0.00000000E+00  0.00000000E+00  0.00000000E+00
  0.00000000E+00  0.00000000E+00  0.00000000E+00
  0.00000000E+00  0.00000000E+00  0.00000000E+00
  0.00000000E+00  0.00000000E+00  0.00000000E+00
  0.00000000E+00  0.00000000E+00  0.00000000E+00
  0.00000000E+00  0.00000000E+00  0.00000000E+00
  0.00000000E+00  0.00000000E+00  0.00000000E+00
  0.00000000E+00  0.00000000E+00  0.00000000E+00
  0.00000000E+00  0.00000000E+00  0.00000000E+00
  0.00000000E+00  0.00000000E+00  0.00000000E+00
  0.00000000E+00  0.00000000E+00  0.00000000E+00
  0.00000000E+00  0.00000000E+00  0.00000000E+00
  0.00000000E+00  0.00000000E+00  0.00000000E+00
  0.00000000E+00  0.00000000E+00  0.00000000E+00
  0.00000000E+00  0.00000000E+00  0.00000000E+00
  0.00000000E+00  0.00000000E+00  0.00000000E+00
  0.00000000E+00  0.00000000E+00  0.00000000E+00
  0.00000000E+00  0.00000000E+00  0.00000000E+00
  0.00000000E+00  0.00000000E+00  0.00000000E+00
  0.00000000E+00  0.00000000E+00  0.00000000E+00
  0.00000000E+00  0.00000000E+00  0.00000000E+00
  0.00000000E+00  0.00000000E+00  0.00000000E+00
  0.00000000E+00  0.00000000E+00  0.00000000E+00
  0.00000000E+00  0.00000000E+00  0.00000000E+00
  0.00000000E+00  0.00000000E+00  0.00000000E+00
  0.00000000E+00  0.00000000E+00  0.00000000E+00
  0.00000000E+00  0.00000000E+00  0.00000000E+00
  0.00000000E+00  0.00000000E+00  0.00000000E+00
  0.00000000E+00  0.00000000E+00  0.00000000E+00
  0.00000000E+00  0.00000000E+00  0.00000000E+00
