B N C                                   
   1.0000000000000000     
     8.7639499999999995  -15.1796066749929999    0.0000000000000000
     8.7639499999999995   15.1796066749929999    0.0000000000000000
     0.0000000000000000    0.0000000000000000   15.0000000000000000
   B    N    C 
    48    48     1
Selective dynamics
Direct
  0.9043538389271693  0.9508217488101244  0.1174863653902159   T   T   T
  0.9058705777004661  0.0942746424598527  0.1190425149386407   T   T   T
  0.9063633403018613  0.2372506488051469  0.1183902659453186   T   T   T
  0.9061631826417916  0.3801345982207885  0.1169266644722424   T   T   T
  0.9044778187573946  0.5228159308611450  0.1150654797369641   T   T   T
  0.9024512206443637  0.6649772879438484  0.1138585414739125   T   T   T
  0.9019133825578520  0.8067211412870865  0.1149315950767140   T   T   T
  0.0476643611961875  0.9525041089066502  0.1188792444677291   T   T   T
  0.0493369728047208  0.0958109797504446  0.1175491950019062   T   T   T
  0.0497051190127266  0.2383061078197715  0.1148008499910093   T   T   T
  0.0489667641674001  0.3809292986787154  0.1132376712791197   T   T   T
  0.0473838013306617  0.5238308736070699  0.1145875631170352   T   T   T
  0.0463980593516919  0.6665971459448206  0.1166831636540131   T   T   T
  0.0464430306500129  0.8093294050178454  0.1183845191656132   T   T   T
  0.1908343710432210  0.9537140159864318  0.1181858806314695   T   T   T
  0.1934482355803642  0.0982507782106066  0.1148815849972651   T   T   T
  0.1941963068760983  0.2405092122816045  0.1094652425786588   T   T   T
  0.1924600576833959  0.3820993665343601  0.1048961511104457   T   T   T
  0.1896601360589529  0.5247255772676320  0.1055898517984371   T   T   T
  0.1892629887273991  0.6675476107694370  0.1115496247904712   T   T   T
  0.1897453907488897  0.8104102529222217  0.1168855832088687   T   T   T
  0.3335605615977675  0.9537564641927970  0.1159992773018298   T   T   T
  0.3351910703213961  0.0977004572735238  0.1133566261134237   T   T   T
  0.3405214409676626  0.2450920928179642  0.1066406547904860   T   T   T
  0.3386472320016550  0.3841742932046677  0.1001307379530429   T   T   T
  0.3312972703737448  0.5269486161423320  0.0959743210715979   T   T   T
  0.3314416699331436  0.6686879755961864  0.1017902834601466   T   T   T
  0.3325878151615306  0.8108762067609301  0.1113039806701793   T   T   T
  0.4763159689327947  0.9527606194493836  0.1137915843765384   T   T   T
  0.4773458676022236  0.0956691125582227  0.1141018344692589   T   T   T
  0.4791680215060838  0.2394255569609956  0.1078054476249339   T   T   T
  0.4935462913244524  0.3935526095639107  0.1002822631184286   T   T   T
  0.4731875148621874  0.6688187256516912  0.0961804257598611   T   T   T
  0.4754062920685659  0.8104664544294129  0.1055602318073314   T   T   T
  0.6192160566401053  0.9511791362065718  0.1128321105718344   T   T   T
  0.6200184708582243  0.0939792658459276  0.1161303179152203   T   T   T
  0.6208817810327300  0.2362992412340450  0.1124261977266587   T   T   T
  0.6224613069650267  0.3776957505648217  0.1057045669790585   T   T   T
  0.6066293959278507  0.5066225925365613  0.1003538463499534   T   T   T
  0.6159690803533335  0.6614801867105128  0.1003158184951388   T   T   T
  0.6180446303599246  0.8076764916653190  0.1050686415778187   T   T   T
  0.7618496306321708  0.9504429957922562  0.1146575455569653   T   T   T
  0.7628989490298486  0.0937867109049187  0.1180898617582234   T   T   T
  0.7634803178495821  0.2366623111943585  0.1172128105611362   T   T   T
  0.7638541500640996  0.3792694029998100  0.1128731576555531   T   T   T
  0.7607439685348083  0.5209970874000112  0.1082183864486823   T   T   T
  0.7550736689111237  0.6596408259379226  0.1067575949493603   T   T   T
  0.7596525897848683  0.8059597250119065  0.1094916319659191   T   T   T
  0.9514210889027405  0.9030397081090957  0.1178961690029632   T   T   T
  0.9533838761691624  0.0467715021928633  0.1192389493621103   T   T   T
  0.9542390058414741  0.1898824312232423  0.1184996782003579   T   T   T
  0.9540477983401333  0.3326753118882444  0.1171341398538844   T   T   T
  0.9526519609744727  0.4755321066064192  0.1165550647294979   T   T   T
  0.9512151032128660  0.6182474529714471  0.1158174948852112   T   T   T
  0.9507262660583955  0.7605554959040398  0.1162297829440699   T   T   T
  0.0951331495750836  0.9050348894161785  0.1194405903243174   T   T   T
  0.0971310901772766  0.0487517571718480  0.1179344117910908   T   T   T
  0.0982198049442485  0.1917067946648792  0.1143127201094190   T   T   T
  0.0974035234765399  0.3338208941994029  0.1109667991186722   T   T   T
  0.0952446193430125  0.4763221856271692  0.1114111923455004   T   T   T
  0.0943568710966116  0.6192190316534103  0.1149215476665532   T   T   T
  0.0943544799816855  0.7620731935893154  0.1180860496060505   T   T   T
  0.2380824074180231  0.9058037968205060  0.1177437187702643   T   T   T
  0.2396080511316241  0.0494394437078451  0.1159715896353652   T   T   T
  0.2431947529078008  0.1947728984990237  0.1101234980695683   T   T   T
  0.2428365586394374  0.3366528318277160  0.1039390795410141   T   T   T
  0.2375892311330970  0.4773656763482361  0.1005118668380491   T   T   T
  0.2367590420627727  0.6200306890868217  0.1056853264881296   T   T   T
  0.2373231611420055  0.7628157307581663  0.1134542458510534   T   T   T
  0.3809261240733913  0.9057945433446164  0.1142349386455807   T   T   T
  0.3819064872198375  0.0489344493803335  0.1149380594609723   T   T   T
  0.3838926079766350  0.1931812983744071  0.1089020502787403   T   T   T
  0.3916654565063347  0.3427968102819387  0.1015869775186983   T   T   T
  0.3821644714286792  0.4819068999574400  0.0956982797605722   T   T   T
  0.3788005528673259  0.6213269941232428  0.0953768173633879   T   T   T
  0.3801064779028228  0.7633666749962963  0.1056554042124948   T   T   T
  0.5238235857941628  0.9048931324236735  0.1109859451340171   T   T   T
  0.5246266338880804  0.0474982249957940  0.1154729353544609   T   T   T
  0.5256874768032296  0.1903768925680356  0.1114034895365179   T   T   T
  0.5283172500959366  0.3338217980217641  0.1038107919646033   T   T   T
  0.5182268562620682  0.6179577901202087  0.0959045608171276   T   T   T
  0.5227680149542994  0.7625146741634905  0.1008109657166370   T   T   T
  0.6663227451022571  0.9027296945217607  0.1108724715436193   T   T   T
  0.6674787236004206  0.0461104689258357  0.1164952185365353   T   T   T
  0.6682889048807400  0.1887204692279643  0.1158932521976198   T   T   T
  0.6694741226376006  0.3306809637502367  0.1100287016726758   T   T   T
  0.6663515408554873  0.4718451401046412  0.1039644522833239   T   T   T
  0.6573678459421165  0.6084921128825097  0.1016731316042754   T   T   T
  0.6634846238540627  0.7572956260923481  0.1041290602625638   T   T   T
  0.8084454975024641  0.9019332158416630  0.1142261381599961   T   T   T
  0.8102605164940160  0.0459084831810710  0.1183092138175445   T   T   T
  0.8110911084540318  0.1890511778468573  0.1189361763988672   T   T   T
  0.8114188441284628  0.3318610780853118  0.1164259461750702   T   T   T
  0.8097670473312348  0.4744682514997079  0.1121187517823268   T   T   T
  0.8069786137315911  0.6162579591826913  0.1092335306169006   T   T   T
  0.8053900481140147  0.7569706676725338  0.1101352572294702   T   T   T
  0.4698080811412301  0.5303109661682419  0.0978213753616465   T   T   T

  0.00000000E+00  0.00000000E+00  0.00000000E+00
  0.00000000E+00  0.00000000E+00  0.00000000E+00
  0.00000000E+00  0.00000000E+00  0.00000000E+00
  0.00000000E+00  0.00000000E+00  0.00000000E+00
  0.00000000E+00  0.00000000E+00  0.00000000E+00
  0.00000000E+00  0.00000000E+00  0.00000000E+00
  0.00000000E+00  0.00000000E+00  0.00000000E+00
  0.00000000E+00  0.00000000E+00  0.00000000E+00
  0.00000000E+00  0.00000000E+00  0.00000000E+00
  0.00000000E+00  0.00000000E+00  0.00000000E+00
  0.00000000E+00  0.00000000E+00  0.00000000E+00
  0.00000000E+00  0.00000000E+00  0.00000000E+00
  0.00000000E+00  0.00000000E+00  0.00000000E+00
  0.00000000E+00  0.00000000E+00  0.00000000E+00
  0.00000000E+00  0.00000000E+00  0.00000000E+00
  0.00000000E+00  0.00000000E+00  0.00000000E+00
  0.00000000E+00  0.00000000E+00  0.00000000E+00
  0.00000000E+00  0.00000000E+00  0.00000000E+00
  0.00000000E+00  0.00000000E+00  0.00000000E+00
  0.00000000E+00  0.00000000E+00  0.00000000E+00
  0.00000000E+00  0.00000000E+00  0.00000000E+00
  0.00000000E+00  0.00000000E+00  0.00000000E+00
  0.00000000E+00  0.00000000E+00  0.00000000E+00
  0.00000000E+00  0.00000000E+00  0.00000000E+00
  0.00000000E+00  0.00000000E+00  0.00000000E+00
  0.00000000E+00  0.00000000E+00  0.00000000E+00
  0.00000000E+00  0.00000000E+00  0.00000000E+00
  0.00000000E+00  0.00000000E+00  0.00000000E+00
  0.00000000E+00  0.00000000E+00  0.00000000E+00
  0.00000000E+00  0.00000000E+00  0.00000000E+00
  0.00000000E+00  0.00000000E+00  0.00000000E+00
  0.00000000E+00  0.00000000E+00  0.00000000E+00
  0.00000000E+00  0.00000000E+00  0.00000000E+00
  0.00000000E+00  0.00000000E+00  0.00000000E+00
  0.00000000E+00  0.00000000E+00  0.00000000E+00
  0.00000000E+00  0.00000000E+00  0.00000000E+00
  0.00000000E+00  0.00000000E+00  0.00000000E+00
  0.00000000E+00  0.00000000E+00  0.00000000E+00
  0.00000000E+00  0.00000000E+00  0.00000000E+00
  0.00000000E+00  0.00000000E+00  0.00000000E+00
  0.00000000E+00  0.00000000E+00  0.00000000E+00
  0.00000000E+00  0.00000000E+00  0.00000000E+00
  0.00000000E+00  0.00000000E+00  0.00000000E+00
  0.00000000E+00  0.00000000E+00  0.00000000E+00
  0.00000000E+00  0.00000000E+00  0.00000000E+00
  0.00000000E+00  0.00000000E+00  0.00000000E+00
  0.00000000E+00  0.00000000E+00  0.00000000E+00
  0.00000000E+00  0.00000000E+00  0.00000000E+00
  0.00000000E+00  0.00000000E+00  0.00000000E+00
  0.00000000E+00  0.00000000E+00  0.00000000E+00
  0.00000000E+00  0.00000000E+00  0.00000000E+00
  0.00000000E+00  0.00000000E+00  0.00000000E+00
  0.00000000E+00  0.00000000E+00  0.00000000E+00
  0.00000000E+00  0.00000000E+00  0.00000000E+00
  0.00000000E+00  0.00000000E+00  0.00000000E+00
  0.00000000E+00  0.00000000E+00  0.00000000E+00
  0.00000000E+00  0.00000000E+00  0.00000000E+00
  0.00000000E+00  0.00000000E+00  0.00000000E+00
  0.00000000E+00  0.00000000E+00  0.00000000E+00
  0.00000000E+00  0.00000000E+00  0.00000000E+00
  0.00000000E+00  0.00000000E+00  0.00000000E+00
  0.00000000E+00  0.00000000E+00  0.00000000E+00
  0.00000000E+00  0.00000000E+00  0.00000000E+00
  0.00000000E+00  0.00000000E+00  0.00000000E+00
  0.00000000E+00  0.00000000E+00  0.00000000E+00
  0.00000000E+00  0.00000000E+00  0.00000000E+00
  0.00000000E+00  0.00000000E+00  0.00000000E+00
  0.00000000E+00  0.00000000E+00  0.00000000E+00
  0.00000000E+00  0.00000000E+00  0.00000000E+00
  0.00000000E+00  0.00000000E+00  0.00000000E+00
  0.00000000E+00  0.00000000E+00  0.00000000E+00
  0.00000000E+00  0.00000000E+00  0.00000000E+00
  0.00000000E+00  0.00000000E+00  0.00000000E+00
  0.00000000E+00  0.00000000E+00  0.00000000E+00
  0.00000000E+00  0.00000000E+00  0.00000000E+00
  0.00000000E+00  0.00000000E+00  0.00000000E+00
  0.00000000E+00  0.00000000E+00  0.00000000E+00
  0.00000000E+00  0.00000000E+00  0.00000000E+00
  0.00000000E+00  0.00000000E+00  0.00000000E+00
  0.00000000E+00  0.00000000E+00  0.00000000E+00
  0.00000000E+00  0.00000000E+00  0.00000000E+00
  0.00000000E+00  0.00000000E+00  0.00000000E+00
  0.00000000E+00  0.00000000E+00  0.00000000E+00
  0.00000000E+00  0.00000000E+00  0.00000000E+00
  0.00000000E+00  0.00000000E+00  0.00000000E+00
  0.00000000E+00  0.00000000E+00  0.00000000E+00
  0.00000000E+00  0.00000000E+00  0.00000000E+00
  0.00000000E+00  0.00000000E+00  0.00000000E+00
  0.00000000E+00  0.00000000E+00  0.00000000E+00
  0.00000000E+00  0.00000000E+00  0.00000000E+00
  0.00000000E+00  0.00000000E+00  0.00000000E+00
  0.00000000E+00  0.00000000E+00  0.00000000E+00
  0.00000000E+00  0.00000000E+00  0.00000000E+00
  0.00000000E+00  0.00000000E+00  0.00000000E+00
  0.00000000E+00  0.00000000E+00  0.00000000E+00
  0.00000000E+00  0.00000000E+00  0.00000000E+00
  0.00000000E+00  0.00000000E+00  0.00000000E+00
