Species order:X N B                     
   2.51242800000000     
     5.9449720136058266    0.0000000000000000    0.0000000000000000
    -2.9724860068029120    5.1484967885702053   -0.0000000000000001
     0.0000000000000000    0.0000000000000009    5.3101128803662583
   S    N    B 
     2   143   143
Direct
  0.4124265199110784  0.3728799266222037  0.3750000000000000
  0.5576938245473597  0.4455135789403441  0.3750000000000000
  0.1112021255523740  0.0555970051830166  0.1252424522492143
  0.6111921213082449  0.5556542985042765  0.1246766481693623
  0.4445105249938956  0.0555670102378675  0.1252158498758695
  0.9444940688583916  0.5555822866642913  0.1252198342360532
  0.7778647378657131  0.0555990355995243  0.1250283447239917
  0.1111565323820374  0.7222449328576832  0.6248929019352482
  0.4445105249938956  0.7222768480893630  0.6247841501241314
  0.2779045739229731  0.2222845337939512  0.6246516185945157
  0.7778420725298688  0.7222721500783175  0.6247359621186923
  0.6111918080798127  0.2222099015540598  0.6248593005051338
  0.9445379540777343  0.2222679443905108  0.6249200853965462
  0.2778269360886577  0.7222527608712779  0.1251302627133295
  0.1112252034488024  0.2222792683910656  0.1253361769404457
  0.4445620170671061  0.2222623856295164  0.1250830885142661
  0.6111918080798127  0.7223152398590824  0.1251406994948664
  0.9444940688583916  0.7222451155274354  0.1252198342360532
  0.7778615736423256  0.2222425179320794  0.1250567864838293
  0.1111692164383671  0.8889121801631541  0.6248684309792422
  0.4444980933887532  0.8889157133610404  0.6249096219181594
  0.2779045739229731  0.3889533734623505  0.6246516185945157
  0.6111921213082449  0.3888711561372962  0.6253233518306378
  0.7778615736423256  0.8889523890435745  0.6249432135161704
  0.9445183450879306  0.3889237942142481  0.6248874177241915
  0.1112021255523740  0.3889384537026861  0.1252424522492143
  0.2778269360886577  0.8889075085507093  0.1251302627133295
  0.6111809238091922  0.8889469986746097  0.1250588469245484
  0.4446342763740221  0.3889838048536751  0.1229020261685178
  0.9445183450879306  0.8889278842070107  0.1251125822758078
  0.7778420725298688  0.3889032557848794  0.1252640378813075
  0.2778558597568841  0.5556043344584847  0.6246776810212253
  0.1112021255523740  0.0555970051830166  0.6247575477507850
  0.6111921213082449  0.5556542985042765  0.6253233518306378
  0.4445105249938956  0.0555670102378675  0.6247841501241314
  0.9444940688583916  0.5555822866642913  0.6247801657639475
  0.1111692164383671  0.5555903696085415  0.1251315690207579
  0.7778647378657131  0.0555990355995243  0.6249716552760082
  0.2778558597568841  0.0555848586317349  0.1253223189787743
  0.4445620170671061  0.5556329647709256  0.1250830885142661
  0.7778132070629623  0.5555732701981481  0.1254020313709088
  0.6111809238091922  0.0555672584679125  0.1250588469245484
  0.4445620170671061  0.5556329647709256  0.6249169114857335
  0.9445379540777343  0.0556033430205583  0.1250799146034544
  0.2778269360886577  0.7222527608712779  0.6248697372866704
  0.1112252034488024  0.2222792683910656  0.6246638230595550
  0.4445620170671061  0.2222623856295164  0.6249169114857335
  0.6111918080798127  0.7223152398590824  0.6248593005051338
  0.9444940688583916  0.7222451155274354  0.6247801657639475
  0.7778615736423256  0.2222425179320794  0.6249432135161704
  0.1111565323820374  0.7222449328576832  0.1251070980647516
  0.4445105249938956  0.7222768480893630  0.1252158498758695
  0.2779045739229731  0.2222845337939512  0.1253483814054846
  0.7778420725298688  0.7222721500783175  0.1252640378813075
  0.6111918080798127  0.2222099015540598  0.1251406994948664
  0.9445379540777343  0.2222679443905108  0.1250799146034544
  0.1112021255523740  0.3889384537026861  0.6247575477507850
  0.2778269360886577  0.8889075085507093  0.6248697372866704
  0.6111809238091922  0.8889469986746097  0.6249411530754514
  0.4446342763740221  0.3889838048536751  0.6270979738314814
  0.9445183450879306  0.8889278842070107  0.6248874177241915
  0.1111692164383671  0.8889121801631541  0.1251315690207579
  0.7778420725298688  0.3889032557848794  0.6247359621186923
  0.4444980933887532  0.8889157133610404  0.1250903780818417
  0.2779045739229731  0.3889533734623505  0.1253483814054846
  0.2778558597568841  0.5556043344584847  0.1253223189787743
  0.6111921213082449  0.3888711561372962  0.1246766481693623
  0.7778615736423256  0.8889523890435745  0.1250567864838293
  0.9445183450879306  0.3889237942142481  0.1251125822758078
  0.1111692164383671  0.5555903696085415  0.6248684309792422
  0.2778558597568841  0.0555848586317349  0.6246776810212253
  0.7778132070629623  0.5555732701981481  0.6245979686290918
  0.6111809238091922  0.0555672584679125  0.6249411530754514
  0.9445379540777343  0.0556033430205583  0.6249200853965462
  0.0573469080846367  0.1119409462659606  0.3750000000000000
  0.5565776387891601  0.6217335578653032  0.3750000000000000
  0.3872154890306397  0.1009573153840813  0.3750000000000000
  0.8881433244739119  0.6107383289036277  0.3750000000000000
  0.7243437022104459  0.1110315751327952  0.3750000000000000
  0.0555468996048045  0.7777759231256903  0.8750000000000000
  0.3888873567541886  0.7777756324874027  0.8750000000000000
  0.2222163418683679  0.2777748376008511  0.8750000000000000
  0.7222188746934136  0.7777757871729361  0.8750000000000000
  0.5555511771330609  0.2777767537593956  0.8750000000000000
  0.8888866769898748  0.2777760376846923  0.8750000000000000
  0.2203772221893442  0.7768552777613399  0.3750000000000000
  0.0573469080846367  0.2787392951520120  0.3750000000000000
  0.3805862841402722  0.2504368770616159  0.3750000000000000
  0.5564615566062400  0.7829973420724803  0.3750000000000000
  0.8901874269835572  0.7793353503122771  0.3750000000000000
  0.7244981281860123  0.2759548154869372  0.3750000000000000
  0.0555488467607463  0.9444440993808286  0.8750000000000000
  0.3888873567541886  0.9444450576001203  0.8750000000000000
  0.2222153833033442  0.4444383039504915  0.8750000000000000
  0.5555582990566892  0.4444458161950089  0.8750000000000000
  0.7222184436697072  0.9444425742018513  0.8750000000000000
  0.8888842602433478  0.4444396888339885  0.8750000000000000
  0.0543828231257008  0.4452288746712980  0.3750000000000000
  0.2201279124542898  0.9404067225878942  0.3750000000000000
  0.5564672364560328  0.9449002848946814  0.3750000000000000
  0.3805862841402722  0.4634827404119912  0.3750000000000000
  0.8908309807932220  0.9463214426717592  0.3750000000000000
  0.7264009062248832  0.4431416861666030  0.3750000000000000
  0.2222154171480016  0.6111043944767718  0.8750000000000000
  0.0555493887574947  0.1111088570352863  0.8750000000000000
  0.5555511771330609  0.6111077567070020  0.8750000000000000
  0.3888849892307577  0.1111119842004460  0.8750000000000000
  0.8888826280518606  0.6111079806926009  0.8750000000000000
  0.0540518687212245  0.6109805030306903  0.3750000000000000
  0.7222184436697072  0.1111092028011923  0.8750000000000000
  0.2178077834795667  0.1031649030069090  0.3750000000000000
  0.3872154890306397  0.6195915069799016  0.3750000000000000
  0.7264009062248832  0.6165925533916156  0.3750000000000000
  0.5564615566062400  0.1067975478670960  0.3750000000000000
  0.3888849892307577  0.6111063383636549  0.8750000000000000
  0.8911538617302135  0.1122435975317781  0.3750000000000000
  0.2222162990350886  0.7777748161842122  0.8750000000000000
  0.0555493887574947  0.2777738650555444  0.8750000000000000
  0.3888819837495338  0.2777717941433625  0.8750000000000000
  0.5555524421300908  0.7777755730380121  0.8750000000000000
  0.8888842602433478  0.7777779047426947  0.8750000000000000
  0.7222188746934136  0.2777764208538137  0.8750000000000000
  0.0540518687212245  0.7764046990238684  0.3750000000000000
  0.3878967884550901  0.7801017670332117  0.3750000000000000
  0.2256431210767145  0.2794882272050249  0.3750000000000000
  0.7244981281860123  0.7818766460324112  0.3750000000000000
  0.5565776387891601  0.2681774142571933  0.3750000000000000
  0.8908309807932220  0.2778428714547982  0.3750000000000000
  0.0555488467607463  0.4444380807132461  0.8750000000000000
  0.2222154171480016  0.9444443560045668  0.8750000000000000
  0.5555516281848563  0.9444424807590927  0.8750000000000000
  0.3888819837495338  0.4444435229395068  0.8750000000000000
  0.8888866769898748  0.9444439726385181  0.8750000000000000
  0.0543828231257008  0.9424872817877303  0.3750000000000000
  0.7222189401516332  0.4444432461225225  0.8750000000000000
  0.3878967884550901  0.9411283547552147  0.3750000000000000
  0.2178077834795667  0.4479762138059935  0.3750000000000000
  0.2201279124542898  0.6130545231997304  0.3750000000000000
  0.7243437022104459  0.9466454604109863  0.3750000000000000
  0.8901874269835572  0.4441854100046160  0.3750000000000000
  0.0555468996048045  0.6111043098124503  0.8750000000000000
  0.2222153833033442  0.1111104126861887  0.8750000000000000
  0.7222189401516332  0.6111090273624475  0.8750000000000000
  0.5555524421300908  0.1111102024254142  0.8750000000000000
  0.8888854143427778  0.1111093738380604  0.8750000000000000
  0.1084191840816231  0.0520717466139593  0.3750000000000000
  0.6198967067463080  0.5782712683647423  0.3750000000000000
  0.4449779798945824  0.0497117866067287  0.3750000000000000
  0.9439797539460776  0.5551669551407782  0.3750000000000000
  0.7804418687879795  0.0568876010606581  0.3750000000000000
  0.1111141195053646  0.7222237264193473  0.8750000000000000
  0.4444384081143584  0.7222332125248693  0.8750000000000000
  0.2777476161455275  0.2222042386937082  0.8750000000000000
  0.7777938559634960  0.7222553547854331  0.8750000000000000
  0.6111119803814866  0.2221967016110213  0.8750000000000000
  0.9444371077089875  0.2222112380777606  0.8750000000000000
  0.2767403640207630  0.7234280341555414  0.3750000000000000
  0.1129550414800777  0.2231441874067030  0.3750000000000000
  0.4447052829380055  0.2086459356767368  0.3750000000000000
  0.6139265108418143  0.7315348141659482  0.3750000000000000
  0.9439797539460776  0.7221461321386342  0.3750000000000000
  0.7804499936665119  0.2213105603521857  0.3750000000000000
  0.1111069605763555  0.8888925714255952  0.8750000000000000
  0.4444441680319991  0.8888887506826639  0.8750000000000000
  0.2777476161455275  0.3888767107851477  0.8750000000000000
  0.6111073159693686  0.3888739333950805  0.8750000000000000
  0.7777868451247626  0.8889154446199845  0.8750000000000000
  0.9444496482637097  0.3888736218993616  0.8750000000000000
  0.1084191840816231  0.3896807708009919  0.3750000000000000
  0.2767403640207630  0.8866456631985499  0.3750000000000000
  0.6134608619281102  0.8924804694528276  0.3750000000000000
  0.9448432466320819  0.8896609506742250  0.3750000000000000
  0.7813574765832039  0.3868924889812348  0.3750000000000000
  0.2777591549490415  0.5555520303578776  0.8750000000000000
  0.1110918334619824  0.0555505139896586  0.8750000000000000
  0.6111073159693686  0.5555667159076160  0.8750000000000000
  0.4444384081143584  0.0555385289228244  0.8750000000000000
  0.9444587541962923  0.5555526866572457  0.8750000000000000
  0.1095416982982351  0.5561235971995091  0.3750000000000000
  0.7777801054700145  0.0555567194016751  0.8750000000000000
  0.2758038450063688  0.0495609338263616  0.3750000000000000
  0.4447052829380055  0.5693926805946044  0.3750000000000000
  0.7787306533192853  0.5560319933263107  0.3750000000000000
  0.6134608619281102  0.0543137258086105  0.3750000000000000
  0.4444207026751402  0.5555570436855125  0.8750000000000000
  0.9464991824673630  0.0571086975662793  0.3750000000000000
  0.2777733782744625  0.7222226093492170  0.8750000000000000
  0.1110861251453272  0.2222097292393280  0.8750000000000000
  0.4444207026751402  0.2221969923229626  0.8750000000000000
  0.6111119803814866  0.7222486121037943  0.8750000000000000
  0.9444587541962923  0.7222394008723836  0.8750000000000000
  0.7777868451247626  0.2222047338381073  0.8750000000000000
  0.1097620800805457  0.7215477067069382  0.3750000000000000
  0.4449779798945824  0.7285995266211894  0.3750000000000000
  0.2716120331767168  0.2110516178625343  0.3750000000000000
  0.7813574765832039  0.7277983209352979  0.3750000000000000
  0.6139265108418143  0.2157250300091950  0.3750000000000000
  0.9464991824673630  0.2227238182344187  0.3750000000000000
  0.1110918334619824  0.3888746528056523  0.8750000000000000
  0.2777733782744625  0.8888841022585739  0.8750000000000000
  0.6111143596765218  0.8889033114604068  0.8750000000000000
  0.4444140518960511  0.3888736926146904  0.8750000000000000
  0.9444496482637097  0.8889093596976767  0.8750000000000000
  0.1095416982982351  0.8867514344320547  0.3750000000000000
  0.7777938559634960  0.3888718345113909  0.8750000000000000
  0.4451868374810244  0.8892600854071762  0.3750000000000000
  0.2716120331767168  0.3938937486475108  0.3750000000000000
  0.2758038450063688  0.5595762445133434  0.3750000000000000
  0.6198967067463080  0.3749587717148955  0.3750000000000000
  0.7804499936665119  0.8924727666476548  0.3750000000000000
  0.9448432466320819  0.3885156292911864  0.3750000000000000
  0.1111069605763555  0.5555477224840883  0.8750000000000000
  0.2777591549490415  0.0555404579245002  0.8750000000000000
  0.7777969094380410  0.5555651213856888  0.8750000000000000
  0.6111143596765218  0.0555443815494430  0.8750000000000000
  0.9444371077089875  0.0555592029645621  0.8750000000000000
  0.0556195431841223  0.1111397840714750  0.1249642370755721
  0.5556073657225253  0.6112854746502426  0.1243069618434381
  0.3889209267779288  0.1110368110776550  0.1249513057028027
  0.8890630807399243  0.6111982070366340  0.1249235375589038
  0.7222965690361896  0.1111009713080367  0.1248249155635965
  0.0556675246036586  0.7778292718629952  0.6251113011262579
  0.3889181762754184  0.7778365768471204  0.6250863289917596
  0.2222880752487664  0.2778107042910510  0.6250042820723345
  0.7223324792766734  0.7779485454025208  0.6252286484388500
  0.5556073657225253  0.2776552244056184  0.6256930381565617
  0.8889886398697658  0.2777909314579630  0.6251545247252113
  0.2222778574504081  0.7778055953918728  0.1248863804703864
  0.0556195431841223  0.2778130924459832  0.1249642370755721
  0.3889619839030153  0.2777992317644353  0.1240572155606884
  0.5556010327426545  0.7779177416189922  0.1248462482213596
  0.8890414872137816  0.7778946912025275  0.1248837655218964
  0.7223324792766734  0.2777172672074878  0.1247713515611508
  0.0556427442170008  0.9444797651539825  0.6250945450718949
  0.3889181762754184  0.9444149327616346  0.6250863289917596
  0.2222767016874543  0.4445140054750351  0.6249830099244442
  0.5556022978441936  0.4444678155887611  0.6268083811734084
  0.7222965690361896  0.9445289310614885  0.6251750844364045
  0.8890414872137816  0.4444801293445902  0.6251162344781032
  0.0556427442170008  0.4444963123963466  0.1249054549281063
  0.2222731828062273  0.9444270870879676  0.1249468172367537
  0.5555981529039520  0.9444657431186404  0.1248543713248456
  0.3889619839030153  0.4444960854719158  0.1240572155606884
  0.8889886398697658  0.9445310417451368  0.1248454752747886
  0.7223797831081955  0.4444552621666594  0.1245124707948845
  0.2222731828062273  0.6111794290515966  0.6250531827632467
  0.0556195431841223  0.1111397840714750  0.6250357629244279
  0.5556073657225253  0.6112854746502426  0.6256930381565619
  0.3889209267779288  0.1110368110776550  0.6250486942971970
  0.8890630807399243  0.6111982070366340  0.6250764624410955
  0.0556675246036586  0.6111715860739987  0.1248886988737419
  0.7222965690361896  0.1111009713080367  0.6251750844364045
  0.2222767016874543  0.1110960295457546  0.1250169900755553
  0.3889209267779288  0.6112174490336165  0.1249513057028027
  0.7223797831081955  0.6112578542748727  0.1245124707948845
  0.5556010327426545  0.1110166244569973  0.1248462482213596
  0.3889209267779288  0.6112174490336165  0.6250486942971970
  0.8889688019195251  0.1111510676264341  0.1248586125161498
  0.2222778574504081  0.7778055953918728  0.6251136195296139
  0.0556195431841223  0.2778130924459832  0.6250357629244279
  0.3889619839030153  0.2777992317644353  0.6259427844393116
  0.5556010327426545  0.7779177416189922  0.6251537517786405
  0.8890414872137816  0.7778946912025275  0.6251162344781032
  0.7223324792766734  0.2777172672074878  0.6252286484388500
  0.0556675246036586  0.7778292718629952  0.1248886988737419
  0.3889181762754184  0.7778365768471204  0.1249136710082399
  0.2222880752487664  0.2778107042910510  0.1249957179276647
  0.7223324792766734  0.7779485454025208  0.1247713515611508
  0.5556073657225253  0.2776552244056184  0.1243069618434381
  0.8889886398697658  0.2777909314579630  0.1248454752747886
  0.0556427442170008  0.4444963123963466  0.6250945450718949
  0.2222731828062273  0.9444270870879676  0.6250531827632467
  0.5555981529039520  0.9444657431186404  0.6251456286751536
  0.3889619839030153  0.4444960854719158  0.6259427844393116
  0.8889886398697658  0.9445310417451368  0.6251545247252113
  0.0556427442170008  0.9444797651539825  0.1249054549281063
  0.7223797831081955  0.4444552621666594  0.6254875292051155
  0.3889181762754184  0.9444149327616346  0.1249136710082399
  0.2222767016874543  0.4445140054750351  0.1250169900755553
  0.2222731828062273  0.6111794290515966  0.1249468172367537
  0.5556022978441936  0.4444678155887611  0.1231916188265919
  0.7222965690361896  0.9445289310614885  0.1248249155635965
  0.8890414872137816  0.4444801293445902  0.1248837655218964
  0.0556675246036586  0.6111715860739987  0.6251113011262579
  0.2222767016874543  0.1110960295457546  0.6249830099244442
  0.7223797831081955  0.6112578542748727  0.6254875292051155
  0.5556010327426545  0.1110166244569973  0.6251537517786405
  0.8889688019195251  0.1111510676264341  0.6251413874838503
 
  0.00000000E+00  0.00000000E+00  0.00000000E+00
  0.00000000E+00  0.00000000E+00  0.00000000E+00
  0.00000000E+00  0.00000000E+00  0.00000000E+00
  0.00000000E+00  0.00000000E+00  0.00000000E+00
  0.00000000E+00  0.00000000E+00  0.00000000E+00
  0.00000000E+00  0.00000000E+00  0.00000000E+00
  0.00000000E+00  0.00000000E+00  0.00000000E+00
  0.00000000E+00  0.00000000E+00  0.00000000E+00
  0.00000000E+00  0.00000000E+00  0.00000000E+00
  0.00000000E+00  0.00000000E+00  0.00000000E+00
  0.00000000E+00  0.00000000E+00  0.00000000E+00
  0.00000000E+00  0.00000000E+00  0.00000000E+00
  0.00000000E+00  0.00000000E+00  0.00000000E+00
  0.00000000E+00  0.00000000E+00  0.00000000E+00
  0.00000000E+00  0.00000000E+00  0.00000000E+00
  0.00000000E+00  0.00000000E+00  0.00000000E+00
  0.00000000E+00  0.00000000E+00  0.00000000E+00
  0.00000000E+00  0.00000000E+00  0.00000000E+00
  0.00000000E+00  0.00000000E+00  0.00000000E+00
  0.00000000E+00  0.00000000E+00  0.00000000E+00
  0.00000000E+00  0.00000000E+00  0.00000000E+00
  0.00000000E+00  0.00000000E+00  0.00000000E+00
  0.00000000E+00  0.00000000E+00  0.00000000E+00
  0.00000000E+00  0.00000000E+00  0.00000000E+00
  0.00000000E+00  0.00000000E+00  0.00000000E+00
  0.00000000E+00  0.00000000E+00  0.00000000E+00
  0.00000000E+00  0.00000000E+00  0.00000000E+00
  0.00000000E+00  0.00000000E+00  0.00000000E+00
  0.00000000E+00  0.00000000E+00  0.00000000E+00
  0.00000000E+00  0.00000000E+00  0.00000000E+00
  0.00000000E+00  0.00000000E+00  0.00000000E+00
  0.00000000E+00  0.00000000E+00  0.00000000E+00
  0.00000000E+00  0.00000000E+00  0.00000000E+00
  0.00000000E+00  0.00000000E+00  0.00000000E+00
  0.00000000E+00  0.00000000E+00  0.00000000E+00
  0.00000000E+00  0.00000000E+00  0.00000000E+00
  0.00000000E+00  0.00000000E+00  0.00000000E+00
  0.00000000E+00  0.00000000E+00  0.00000000E+00
  0.00000000E+00  0.00000000E+00  0.00000000E+00
  0.00000000E+00  0.00000000E+00  0.00000000E+00
  0.00000000E+00  0.00000000E+00  0.00000000E+00
  0.00000000E+00  0.00000000E+00  0.00000000E+00
  0.00000000E+00  0.00000000E+00  0.00000000E+00
  0.00000000E+00  0.00000000E+00  0.00000000E+00
  0.00000000E+00  0.00000000E+00  0.00000000E+00
  0.00000000E+00  0.00000000E+00  0.00000000E+00
  0.00000000E+00  0.00000000E+00  0.00000000E+00
  0.00000000E+00  0.00000000E+00  0.00000000E+00
  0.00000000E+00  0.00000000E+00  0.00000000E+00
  0.00000000E+00  0.00000000E+00  0.00000000E+00
  0.00000000E+00  0.00000000E+00  0.00000000E+00
  0.00000000E+00  0.00000000E+00  0.00000000E+00
  0.00000000E+00  0.00000000E+00  0.00000000E+00
  0.00000000E+00  0.00000000E+00  0.00000000E+00
  0.00000000E+00  0.00000000E+00  0.00000000E+00
  0.00000000E+00  0.00000000E+00  0.00000000E+00
  0.00000000E+00  0.00000000E+00  0.00000000E+00
  0.00000000E+00  0.00000000E+00  0.00000000E+00
  0.00000000E+00  0.00000000E+00  0.00000000E+00
  0.00000000E+00  0.00000000E+00  0.00000000E+00
  0.00000000E+00  0.00000000E+00  0.00000000E+00
  0.00000000E+00  0.00000000E+00  0.00000000E+00
  0.00000000E+00  0.00000000E+00  0.00000000E+00
  0.00000000E+00  0.00000000E+00  0.00000000E+00
  0.00000000E+00  0.00000000E+00  0.00000000E+00
  0.00000000E+00  0.00000000E+00  0.00000000E+00
  0.00000000E+00  0.00000000E+00  0.00000000E+00
  0.00000000E+00  0.00000000E+00  0.00000000E+00
  0.00000000E+00  0.00000000E+00  0.00000000E+00
  0.00000000E+00  0.00000000E+00  0.00000000E+00
  0.00000000E+00  0.00000000E+00  0.00000000E+00
  0.00000000E+00  0.00000000E+00  0.00000000E+00
  0.00000000E+00  0.00000000E+00  0.00000000E+00
  0.00000000E+00  0.00000000E+00  0.00000000E+00
  0.00000000E+00  0.00000000E+00  0.00000000E+00
  0.00000000E+00  0.00000000E+00  0.00000000E+00
  0.00000000E+00  0.00000000E+00  0.00000000E+00
  0.00000000E+00  0.00000000E+00  0.00000000E+00
  0.00000000E+00  0.00000000E+00  0.00000000E+00
  0.00000000E+00  0.00000000E+00  0.00000000E+00
  0.00000000E+00  0.00000000E+00  0.00000000E+00
  0.00000000E+00  0.00000000E+00  0.00000000E+00
  0.00000000E+00  0.00000000E+00  0.00000000E+00
  0.00000000E+00  0.00000000E+00  0.00000000E+00
  0.00000000E+00  0.00000000E+00  0.00000000E+00
  0.00000000E+00  0.00000000E+00  0.00000000E+00
  0.00000000E+00  0.00000000E+00  0.00000000E+00
  0.00000000E+00  0.00000000E+00  0.00000000E+00
  0.00000000E+00  0.00000000E+00  0.00000000E+00
  0.00000000E+00  0.00000000E+00  0.00000000E+00
  0.00000000E+00  0.00000000E+00  0.00000000E+00
  0.00000000E+00  0.00000000E+00  0.00000000E+00
  0.00000000E+00  0.00000000E+00  0.00000000E+00
  0.00000000E+00  0.00000000E+00  0.00000000E+00
  0.00000000E+00  0.00000000E+00  0.00000000E+00
  0.00000000E+00  0.00000000E+00  0.00000000E+00
  0.00000000E+00  0.00000000E+00  0.00000000E+00
  0.00000000E+00  0.00000000E+00  0.00000000E+00
  0.00000000E+00  0.00000000E+00  0.00000000E+00
  0.00000000E+00  0.00000000E+00  0.00000000E+00
  0.00000000E+00  0.00000000E+00  0.00000000E+00
  0.00000000E+00  0.00000000E+00  0.00000000E+00
  0.00000000E+00  0.00000000E+00  0.00000000E+00
  0.00000000E+00  0.00000000E+00  0.00000000E+00
  0.00000000E+00  0.00000000E+00  0.00000000E+00
  0.00000000E+00  0.00000000E+00  0.00000000E+00
  0.00000000E+00  0.00000000E+00  0.00000000E+00
  0.00000000E+00  0.00000000E+00  0.00000000E+00
  0.00000000E+00  0.00000000E+00  0.00000000E+00
  0.00000000E+00  0.00000000E+00  0.00000000E+00
  0.00000000E+00  0.00000000E+00  0.00000000E+00
  0.00000000E+00  0.00000000E+00  0.00000000E+00
  0.00000000E+00  0.00000000E+00  0.00000000E+00
  0.00000000E+00  0.00000000E+00  0.00000000E+00
  0.00000000E+00  0.00000000E+00  0.00000000E+00
  0.00000000E+00  0.00000000E+00  0.00000000E+00
  0.00000000E+00  0.00000000E+00  0.00000000E+00
  0.00000000E+00  0.00000000E+00  0.00000000E+00
  0.00000000E+00  0.00000000E+00  0.00000000E+00
  0.00000000E+00  0.00000000E+00  0.00000000E+00
  0.00000000E+00  0.00000000E+00  0.00000000E+00
  0.00000000E+00  0.00000000E+00  0.00000000E+00
  0.00000000E+00  0.00000000E+00  0.00000000E+00
  0.00000000E+00  0.00000000E+00  0.00000000E+00
  0.00000000E+00  0.00000000E+00  0.00000000E+00
  0.00000000E+00  0.00000000E+00  0.00000000E+00
  0.00000000E+00  0.00000000E+00  0.00000000E+00
  0.00000000E+00  0.00000000E+00  0.00000000E+00
  0.00000000E+00  0.00000000E+00  0.00000000E+00
  0.00000000E+00  0.00000000E+00  0.00000000E+00
  0.00000000E+00  0.00000000E+00  0.00000000E+00
  0.00000000E+00  0.00000000E+00  0.00000000E+00
  0.00000000E+00  0.00000000E+00  0.00000000E+00
  0.00000000E+00  0.00000000E+00  0.00000000E+00
  0.00000000E+00  0.00000000E+00  0.00000000E+00
  0.00000000E+00  0.00000000E+00  0.00000000E+00
  0.00000000E+00  0.00000000E+00  0.00000000E+00
  0.00000000E+00  0.00000000E+00  0.00000000E+00
  0.00000000E+00  0.00000000E+00  0.00000000E+00
  0.00000000E+00  0.00000000E+00  0.00000000E+00
  0.00000000E+00  0.00000000E+00  0.00000000E+00
  0.00000000E+00  0.00000000E+00  0.00000000E+00
  0.00000000E+00  0.00000000E+00  0.00000000E+00
  0.00000000E+00  0.00000000E+00  0.00000000E+00
  0.00000000E+00  0.00000000E+00  0.00000000E+00
  0.00000000E+00  0.00000000E+00  0.00000000E+00
  0.00000000E+00  0.00000000E+00  0.00000000E+00
  0.00000000E+00  0.00000000E+00  0.00000000E+00
  0.00000000E+00  0.00000000E+00  0.00000000E+00
  0.00000000E+00  0.00000000E+00  0.00000000E+00
  0.00000000E+00  0.00000000E+00  0.00000000E+00
  0.00000000E+00  0.00000000E+00  0.00000000E+00
  0.00000000E+00  0.00000000E+00  0.00000000E+00
  0.00000000E+00  0.00000000E+00  0.00000000E+00
  0.00000000E+00  0.00000000E+00  0.00000000E+00
  0.00000000E+00  0.00000000E+00  0.00000000E+00
  0.00000000E+00  0.00000000E+00  0.00000000E+00
  0.00000000E+00  0.00000000E+00  0.00000000E+00
  0.00000000E+00  0.00000000E+00  0.00000000E+00
  0.00000000E+00  0.00000000E+00  0.00000000E+00
  0.00000000E+00  0.00000000E+00  0.00000000E+00
  0.00000000E+00  0.00000000E+00  0.00000000E+00
  0.00000000E+00  0.00000000E+00  0.00000000E+00
  0.00000000E+00  0.00000000E+00  0.00000000E+00
  0.00000000E+00  0.00000000E+00  0.00000000E+00
  0.00000000E+00  0.00000000E+00  0.00000000E+00
  0.00000000E+00  0.00000000E+00  0.00000000E+00
  0.00000000E+00  0.00000000E+00  0.00000000E+00
  0.00000000E+00  0.00000000E+00  0.00000000E+00
  0.00000000E+00  0.00000000E+00  0.00000000E+00
  0.00000000E+00  0.00000000E+00  0.00000000E+00
  0.00000000E+00  0.00000000E+00  0.00000000E+00
  0.00000000E+00  0.00000000E+00  0.00000000E+00
  0.00000000E+00  0.00000000E+00  0.00000000E+00
  0.00000000E+00  0.00000000E+00  0.00000000E+00
  0.00000000E+00  0.00000000E+00  0.00000000E+00
  0.00000000E+00  0.00000000E+00  0.00000000E+00
  0.00000000E+00  0.00000000E+00  0.00000000E+00
  0.00000000E+00  0.00000000E+00  0.00000000E+00
  0.00000000E+00  0.00000000E+00  0.00000000E+00
  0.00000000E+00  0.00000000E+00  0.00000000E+00
  0.00000000E+00  0.00000000E+00  0.00000000E+00
  0.00000000E+00  0.00000000E+00  0.00000000E+00
  0.00000000E+00  0.00000000E+00  0.00000000E+00
  0.00000000E+00  0.00000000E+00  0.00000000E+00
  0.00000000E+00  0.00000000E+00  0.00000000E+00
  0.00000000E+00  0.00000000E+00  0.00000000E+00
  0.00000000E+00  0.00000000E+00  0.00000000E+00
  0.00000000E+00  0.00000000E+00  0.00000000E+00
  0.00000000E+00  0.00000000E+00  0.00000000E+00
  0.00000000E+00  0.00000000E+00  0.00000000E+00
  0.00000000E+00  0.00000000E+00  0.00000000E+00
  0.00000000E+00  0.00000000E+00  0.00000000E+00
  0.00000000E+00  0.00000000E+00  0.00000000E+00
  0.00000000E+00  0.00000000E+00  0.00000000E+00
  0.00000000E+00  0.00000000E+00  0.00000000E+00
  0.00000000E+00  0.00000000E+00  0.00000000E+00
  0.00000000E+00  0.00000000E+00  0.00000000E+00
  0.00000000E+00  0.00000000E+00  0.00000000E+00
  0.00000000E+00  0.00000000E+00  0.00000000E+00
  0.00000000E+00  0.00000000E+00  0.00000000E+00
  0.00000000E+00  0.00000000E+00  0.00000000E+00
  0.00000000E+00  0.00000000E+00  0.00000000E+00
  0.00000000E+00  0.00000000E+00  0.00000000E+00
  0.00000000E+00  0.00000000E+00  0.00000000E+00
  0.00000000E+00  0.00000000E+00  0.00000000E+00
  0.00000000E+00  0.00000000E+00  0.00000000E+00
  0.00000000E+00  0.00000000E+00  0.00000000E+00
  0.00000000E+00  0.00000000E+00  0.00000000E+00
  0.00000000E+00  0.00000000E+00  0.00000000E+00
  0.00000000E+00  0.00000000E+00  0.00000000E+00
  0.00000000E+00  0.00000000E+00  0.00000000E+00
  0.00000000E+00  0.00000000E+00  0.00000000E+00
  0.00000000E+00  0.00000000E+00  0.00000000E+00
  0.00000000E+00  0.00000000E+00  0.00000000E+00
  0.00000000E+00  0.00000000E+00  0.00000000E+00
  0.00000000E+00  0.00000000E+00  0.00000000E+00
  0.00000000E+00  0.00000000E+00  0.00000000E+00
  0.00000000E+00  0.00000000E+00  0.00000000E+00
  0.00000000E+00  0.00000000E+00  0.00000000E+00
  0.00000000E+00  0.00000000E+00  0.00000000E+00
  0.00000000E+00  0.00000000E+00  0.00000000E+00
  0.00000000E+00  0.00000000E+00  0.00000000E+00
  0.00000000E+00  0.00000000E+00  0.00000000E+00
  0.00000000E+00  0.00000000E+00  0.00000000E+00
  0.00000000E+00  0.00000000E+00  0.00000000E+00
  0.00000000E+00  0.00000000E+00  0.00000000E+00
  0.00000000E+00  0.00000000E+00  0.00000000E+00
  0.00000000E+00  0.00000000E+00  0.00000000E+00
  0.00000000E+00  0.00000000E+00  0.00000000E+00
  0.00000000E+00  0.00000000E+00  0.00000000E+00
  0.00000000E+00  0.00000000E+00  0.00000000E+00
  0.00000000E+00  0.00000000E+00  0.00000000E+00
  0.00000000E+00  0.00000000E+00  0.00000000E+00
  0.00000000E+00  0.00000000E+00  0.00000000E+00
  0.00000000E+00  0.00000000E+00  0.00000000E+00
  0.00000000E+00  0.00000000E+00  0.00000000E+00
  0.00000000E+00  0.00000000E+00  0.00000000E+00
  0.00000000E+00  0.00000000E+00  0.00000000E+00
  0.00000000E+00  0.00000000E+00  0.00000000E+00
  0.00000000E+00  0.00000000E+00  0.00000000E+00
  0.00000000E+00  0.00000000E+00  0.00000000E+00
  0.00000000E+00  0.00000000E+00  0.00000000E+00
  0.00000000E+00  0.00000000E+00  0.00000000E+00
  0.00000000E+00  0.00000000E+00  0.00000000E+00
  0.00000000E+00  0.00000000E+00  0.00000000E+00
  0.00000000E+00  0.00000000E+00  0.00000000E+00