 B N S 
 1.0
 14.936314146199660   0.000000000000000   0.000000000000000
 -7.468157073099825  12.935227489513863   0.000000000000000
  0.000000000000001   0.000000000000001  13.341276283792837
 B N S 
 143 143   2
Cartesian
  1.240095116988634   0.673491875212347   5.002978606422314 
  4.920167131988481   7.442742319447245   5.002978606422314 
  6.290938730628018   0.622792316154804   5.002978606422314 
  9.940242041110515   7.177200545626550   5.002978606422314 
 11.240547975004541   0.740743403868343   5.002978606422314 
 -3.734299298822748   9.341981285269028  11.673616748318732 
  1.244289713919340   9.341633001029194  11.673616748318732 
  2.489147940833411   2.874543559285437  11.673616748318732 
  6.223099442505383   9.341972502572037  11.673616748318732 
  7.467510705420596   2.874262056559004  11.673616748318732 
 12.446959588118061   2.874411681118273  11.673616748318732 
 -1.275805958519544   9.360853605930014   5.002978606422314 
  0.032746298649888   2.893401082010178   5.002978606422314 
  5.105802816121213   2.654626097296194   5.002978606422314 
  3.708860477675893   9.466801138272832   5.002978606422314 
  8.696373330090051   9.331644351059220   5.002978606422314 
 10.008575952436292   2.865901053524384   5.002978606422314 
 -4.979018491840017  11.498040056695956  11.673616748318732 
 -0.000418061933695  11.497738622508978  11.673616748318732 
  1.244616026009582   5.030136067401306  11.673616748318732 
  6.222674789662469   5.030050820289650  11.673616748318732 
  4.978494905561944  11.497883674263411  11.673616748318732 
 11.202227935562872   5.030162323025876  11.673616748318732 
 -1.286077059362618   5.048950433319591   5.002978606422314 
 -2.488708719550341  11.461662812675945   5.002978606422314 
  2.503149946566022  11.550254630752992   5.002978606422314 
  7.468460529723808  11.502403583475020   5.002978606422314 
  8.764930939681728   5.003483339247707   5.002978606422314 
 -0.000178600341494   7.185833596590019  11.673616748318732 
  1.244565288342914   0.718774596317345  11.673616748318732 
  4.978103496495556   7.185711533696460  11.673616748318732 
  6.222850657648658   0.718512497911896  11.673616748318732 
  9.957414325613030   7.186058363236006  11.673616748318732 
 -2.524983657558729   7.195228005478529   5.002978606422314 
 11.202027581129720   0.718503644095409  11.673616748318732 
  3.761121032703223   0.628549822278723   5.002978606422314 
  2.362489354834942   7.406184393331684   5.002978606422314 
  7.457099503139905   7.179853403181411   5.002978606422314 
  8.765003212660652   0.704406624335902   5.002978606422314 
  2.488858179809124   7.185521416321060  11.673616748318732 
 13.720210140900198   0.741828943653946   5.002978606422314 
 -1.244963953259831   9.341839152462910  11.673616748318732 
  0.000101702861158   2.874553715843986  11.673616748318732 
  4.977887484842388   2.874396198475563  11.673616748318732 
  3.733553619790851   9.341665442151580  11.673616748318732 
  8.712630567413186   9.342087076874684  11.673616748318732 
  9.957321113418161   2.874303720200900  11.673616748318732 
 -3.757931242295335   9.328337376343603   5.002978606422314 
  1.195437641352531   9.448459092802567   5.002978606422314 
  2.529000378751740   2.727849085283164   5.002978606422314 
  6.226223458008287   9.400653683061371   5.002978606422314 
  7.563534826124362   2.790309320127577   5.002978606422314 
 12.481319162983521   2.887651062444337   5.002978606422314 
 -1.244625986856065   5.030180354719168  11.673616748318732 
 -2.489754716662075  11.497879999468063  11.673616748318732 
  2.488980398682900  11.497710676257988  11.673616748318732 
  3.733354073745501   5.029947977126865  11.673616748318732 
  7.467976633647930  11.498075306172829  11.673616748318732 
 -4.988784354146838  11.462655991692754   5.002978606422314 
  8.712549538902467   5.030118452705016  11.673616748318732 
  0.011409115958982  11.504567046849084   5.002978606422314 
  1.137501103887969   5.137996528042483   5.002978606422314 
 -0.064485061044118   7.254693946394269   5.002978606422314 
  6.416301797423763   4.851361063948228   5.002978606422314 
  4.996845402269615  11.546473000258249   5.002978606422314 
 11.206218281699105   5.028417250669333   5.002978606422314 
 -2.489457227223387   7.185993457824496  11.673616748318732 
  3.733639450810565   0.718671025776799  11.673616748318732 
  7.467795279707809   7.186028612662098  11.673616748318732 
  8.712414039311122   0.718407413156481  11.673616748318732 
 13.691564712908706   0.718692369620256  11.673616748318732 
  0.002667791652607   1.439458850672647   1.670167762258787 
  3.734236059137761   7.906208406274437   1.657328242957002 
  4.980588682550738   1.439258897884269   1.669260711677262 
  8.714683425361820   7.905919819204859   1.667636707691672 
  9.959718263131762   1.437823504332322   1.666463185432060 
 -4.976712180075821  10.062334764236178   8.338373771688513 
  0.002015402489251  10.061752245969513   8.337867283257944 
  1.248543571149237   3.595341964567764   8.332288188483712 
  4.979613977654865  10.062832808601522   8.340398984412150 
  6.224709665983269   3.592581584308673   8.348628969887638 
 11.204939633219340   3.593729149583854   8.338821779967764 
 -2.487234857835682  10.061974275969751   1.667452663006358 
 -1.241443862822129   3.594323446511480   1.670167762258787 
  3.735899719114435   3.596414244964172   1.659329355629634 
  2.490485173105857  10.062415997420405   1.666715629022385 
  7.469819905984280  10.062643806528989   1.667596777223791 
  8.715090144078520   3.592798297893093   1.665558228432451 
 -6.221299284762173  12.218847622744859   8.337391211250393 
 -1.242802011293806  12.217839252788275   8.337867283257944 
  0.003896600750752   5.749827093958030   8.334603502873836 
  4.978622356524155   5.748903955402427   8.366996834862096 
  3.735665121442736  12.218199774746482   8.339494027412567 
  9.960029427647029   5.749474393517286   8.338360435620823 
 -2.486359960246075   5.749742949495948   1.668566001594247 
 -3.731976767048272  12.218628399268839   1.668938643446618 
  1.246449469022777  12.217617927150512   1.667071476507310 
  2.493150267195107   5.748919436766838   1.659329355629634 
  6.225344863436599  12.218640291951866   1.667135432876850 
  7.469635871214683   5.748839277731559   1.660263615189610 
 -1.241888554488506   7.905669099786927   8.337018569397996 
  0.002667791652607   1.439458850672648   8.335789450585814 
  3.734236059137762   7.906208406274438   8.348628969887638 
  4.980588682550739   1.439258897884270   8.336696501167339 
  8.714683425361820   7.905919819204860   8.338320505152955 
 -3.731661326959246   7.905843428631277   1.667583441156102 
  9.959718263131762   1.437823504332323   8.339494027412567 
  2.492058940077763   1.440203504764183   1.671353709970778 
  1.247343418432577   7.905429372452859   1.669260711677262 
  6.224073101363352   7.906217279130298   1.660263615189610 
  7.470164772732571   1.437357925452633   1.666715629022385 
  1.247343418432578   7.905429372452860   8.336696501167339 
 12.449342292611181   1.438641128533490   1.667014031652628 
 -2.487234857835682  10.061974275969751   8.338504549838255 
 -1.241443862822129   3.594323446511481   8.335789450585814 
  3.735899719114435   3.596414244964173   8.346627857215008 
  2.490485173105858  10.062415997420405   8.339241583822229 
  7.469819905984281  10.062643806528989   8.338360435620823 
  8.715090144078520   3.592798297893093   8.340398984412150 
 -4.976712180075822  10.062334764236178   1.667583441156102 
  0.002015402489251  10.061752245969513   1.668089929586709 
  1.248543571149237   3.595341964567763   1.673669024360929 
  4.979613977654864  10.062832808601522   1.665558228432451 
  6.224709665983268   3.592581584308673   1.657328242957002 
 11.204939633219340   3.593729149583853   1.667135432876850 
 -2.486359960246074   5.749742949495949   8.337391211250393 
 -3.731976767048271  12.218628399268839   8.337018569397996 
  1.246449469022778  12.217617927150512   8.338885736337332 
  2.493150267195108   5.748919436766839   8.346627857215008 
  6.225344863436600  12.218640291951866   8.338821779967764 
 -6.221299284762174  12.218847622744859   1.668566001594247 
  7.469635871214684   5.748839277731560   8.345693597655018 
 -1.242802011293806  12.217839252788275   1.668089929586709 
  0.003896600750752   5.749827093958029   1.671353709970778 
 -1.241888554488506   7.905669099786926   1.668938643446618 
  4.978622356524154   5.748903955402426   1.638960377982531 
  3.735665121442736  12.218199774746482   1.666463185432060 
  9.960029427647029   5.749474393517285   1.667596777223791 
 -3.731661326959245   7.905843428631278   8.338373771688513 
  2.492058940077763   1.440203504764184   8.334603502873836 
  6.224073101363353   7.906217279130299   8.345693597655018 
  7.470164772732572   1.437357925452633   8.339241583822229 
 12.449342292611181   1.438641128533491   8.338943181192013 
  1.246913775972962   0.719988124199413   1.670455972896765 
  4.980326824473847   7.188499103266984   1.653254131947227 
  6.225746389187959   0.719552542670168   1.668397160683713 
  9.959060648175420   7.187059452982305   1.669579691441857 
 11.204467496656367   0.719912329981533   1.666522560844091 
 -3.732501619946175   9.343019175652316   8.338004934202550 
  1.246638284870735   9.343620755725619   8.337560052160940 
  2.492114320015616   2.875988112773403   8.337654278031867 
  6.224975596900250   9.343539198158444   8.337110668392288 
  7.470831583924700   2.874779009966831   8.340371449766876 
 12.449213936295589   2.875695912114807   8.338349818235439 
 -1.242911944317289   9.343185180789357   1.668286041078931 
  0.002531208363637   2.875956391499839   1.671789350556545 
  4.981516075385996   2.875824368374811   1.661326026865623 
  3.735661753826639   9.344282930595126   1.665585763077766 
  8.714320697846130   9.343012289163411   1.669579691441857 
  9.959922097943839   2.875285495469167   1.667189865713664 
 -4.976995437263555  11.499056754054939   8.337381086820701 
  0.001941830542692  11.499101107065441   8.338317642134704 
  1.247350235618396   5.031982750386357   8.337654278031867 
  6.226200559714507   5.030582494014533   8.352703080897401 
  4.980645640147904  11.499645305303373   8.338767347130977 
 11.204241456823137   5.031315205936522   8.337547622508193 
 -1.242400797066969   5.031607440726229   1.670455972896765 
 -2.487563017465895  11.498984077177884   1.668286041078931 
  2.491265398367736  11.499617340459764   1.666975034190334 
  3.738174068721437   5.032730802523723   1.620552913803950 
  7.469981820166256  11.499242625279980   1.668409590336447 
  8.714844414277726   5.030959902279189   1.668846544452325 
  0.002167337795516   7.187570276994570   8.335396244897074 
  1.246913775972962   0.719988124199413   8.335501239947849 
  4.980326824473848   7.188499103266985   8.352703080897401 
  6.225746389187960   0.719552542670168   8.337560052160940 
  9.959060648175420   7.187059452982306   8.336377521402785 
 -2.487565214194317   7.187237125801462   1.668576126023915 
 11.204467496656367   0.719912329981534   8.339434652000548 
  3.736316429227673   0.719834327596867   1.670560967947553 
  2.491909306494597   7.187949782962132   1.661326026865623 
  7.469461368447876   7.186990529444670   1.668805540475740 
  8.715207758788768   0.719432948830298   1.666975034190334 
  2.491909306494597   7.187949782962133   8.344631185979004 
 13.693804063664812   0.720002576912677   1.667607394609214 
 -1.242911944317288   9.343185180789357   8.337671171765724 
  0.002531208363638   2.875956391499840   8.334167862288096 
  4.981516075385997   2.875824368374812   8.344631185979004 
  3.735661753826639   9.344282930595126   8.340371449766876 
  8.714320697846130   9.343012289163411   8.336377521402785 
  9.959922097943839   2.875285495469168   8.338767347130977 
 -3.732501619946175   9.343019175652316   1.667952278642053 
  1.246638284870735   9.343620755725619   1.668397160683713 
  2.492114320015616   2.875988112773402   1.668302934812762 
  6.224975596900249   9.343539198158444   1.668846544452325 
  7.470831583924699   2.874779009966830   1.665585763077766 
 12.449213936295589   2.875695912114806   1.667607394609214 
 -1.242400797066968   5.031607440726230   8.335501239947849 
 -2.487563017465895  11.498984077177884   8.337671171765724 
  2.491265398367737  11.499617340459764   8.338982178654279 
  3.738174068721438   5.032730802523724   8.385404299040651 
  7.469981820166256  11.499242625279980   8.337547622508193 
 -4.976995437263556  11.499056754054939   1.668576126023915 
  8.714844414277726   5.030959902279190   8.337110668392288 
  0.001941830542692  11.499101107065441   1.667639570709924 
  1.247350235618396   5.031982750386356   1.668302934812762 
  0.002167337795515   7.187570276994570   1.670560967947553 
  6.226200559714506   5.030582494014532   1.653254131947227 
  4.980645640147904  11.499645305303373   1.667189865713664 
 11.204241456823137   5.031315205936521   1.668409590336447 
 -2.487565214194316   7.187237125801463   8.337381086820701 
  3.736316429227673   0.719834327596867   8.335396244897074 
  7.469461368447877   7.186990529444671   8.337151672368902 
  8.715207758788768   0.719432948830299   8.338982178654279 
 13.693804063664812   0.720002576912677   8.338349818235439 
  0.026689630601568   1.446821271605485   5.002978606422314 
  3.667969471569140   8.061070625235969   5.002978606422314 
  5.054518075235484   1.259171277772824   5.002978606422314 
  8.690157669247204   7.891759867310043   5.002978606422314 
  9.998231857115920   1.438740825445876   5.002978606422314 
 -4.979126751409741  10.060529623691405  11.673616748318732 
 -0.000364165672392  10.060542581045429  11.673616748318732 
  1.244382015772205   3.592939289450596  11.673616748318732 
  4.978504286603599  10.060520691809280  11.673616748318732 
  6.223138863976252   3.592926961794893  11.673616748318732 
 11.201954424806825   3.593000261995828  11.673616748318732 
 -2.518957947835127  10.043658941419061   5.002978606422314 
 -1.223056899786464   3.611445758820493   5.002978606422314 
  3.880555548161152   3.194454903951189   5.002978606422314 
  2.464549223432807  10.140967209787323   5.002978606422314 
  7.468974859836945  10.073603355913136   5.002978606422314 
  8.767025470779874   3.568341555078932   5.002978606422314 
 -6.223771478473997  12.216396442536086  11.673616748318732 
 -1.245039395928983  12.216383318772351  11.673616748318732 
 -0.000377078379449   5.748834124191019  11.673616748318732 
  4.978613097995949   5.748898609988676  11.673616748318732 
  3.733775424940258  12.216406225334573  11.673616748318732 
  9.957266019201001   5.748845814735970  11.673616748318732 
 -2.518072346816605   5.761856237418114   5.002978606422314 
 -3.736241231536730  12.149194617671542   5.002978606422314 
  1.260076799543325  12.225485670094868   5.002978606422314 
  2.217371181112772   6.075174730033288   5.002978606422314 
  6.242565546940654  12.242412393720869   5.002978606422314 
  7.521334055210408   5.722585167141898   5.002978606422314 
 -1.245089511611384   7.904675564930999  11.673616748318732 
 -0.000277364199585   1.437062406578015  11.673616748318732 
  3.733749763811239   7.904675363088894  11.673616748318732 
  4.978421619956942   1.437004509222192  11.673616748318732 
  8.712588921395700   7.904710556776211  11.673616748318732 
 -3.767309436429798   7.899715428519346   5.002978606422314 
  9.957220155526882   1.437083753861661  11.673616748318732 
  2.494005454035773   1.321604969311745   5.002978606422314 
  1.128347660851344   8.059497914659953   5.002978606422314 
  6.227185466636795   7.964116275094963   5.002978606422314 
  7.525224143303884   1.375621127980999   5.002978606422314 
  1.244307529284340   7.904679835526041  11.673616748318732 
 12.479714320695036   1.456176427123549   5.002978606422314 
 -2.489777039174260  10.060506546889586  11.673616748318732 
 -1.244991822212941   3.592971088772721  11.673616748318732 
  3.733753995393483   3.592814451301313  11.673616748318732 
  2.489030508566299  10.060535844958748  11.673616748318732 
  7.467893836568375  10.060564914004340  11.673616748318732 
  8.712532946674278   3.592993335648481  11.673616748318732 
 -4.999843238582417  10.034526595893743   5.002978606422314 
 -0.043216788189386  10.102814169251312   5.002978606422314 
  1.278365306486353   3.612559551492358   5.002978606422314 
  4.984401480434664  10.120038492285808   5.002978606422314 
  6.325690987906087   3.457761926571347   5.002978606422314 
 11.234137219004682   3.596756648084381   5.002978606422314 
 -2.489718841432046   5.748827557042834  11.673616748318732 
 -3.734437672034503  12.216353056511993  11.673616748318732 
  1.244338874723222  12.216399374963540  11.673616748318732 
  2.488959892574198   5.748861082346447  11.673616748318732 
  6.223221024062608  12.216419469425054  11.673616748318732 
 -6.226665062983519  12.185327246399115   5.002978606422314 
  7.467912112975665   5.748886587527780  11.673616748318732 
 -1.229857437942883  12.158136064950929   5.002978606422314 
 -0.097839486823683   5.810812092220707   5.002978606422314 
 -1.304152205476808   7.936692856005021   5.002978606422314 
  3.755716341822589  12.251094864971011   5.002978606422314 
  9.969098152754071   5.743262787394237   5.002978606422314 
 -3.734431910195395   7.904654918789265  11.673616748318732 
  2.489062163469234   1.436998874953325  11.673616748318732 
  6.223252193729196   7.904700805807256  11.673616748318732 
  7.467809180668037   1.437038225238169  11.673616748318732 
 12.446658876129986   1.437091857305718  11.673616748318732 
  3.283307981388560   4.770113744556862   5.002978606422314 
  4.929502584133061   5.720544641589897   5.002978606422314 
Generated by cif2cell 2.0.0.  :  Failed to get author information, No journal information. Species order: B N S 
 1.0
 14.936314146199660   0.000000000000000   0.000000000000000
 -7.468157073099825  12.935227489513863   0.000000000000000
  0.000000000000001   0.000000000000001  13.341276283792837
 B N S 
 143 143   2
Cartesian
  1.240095116988634   0.673491875212347   5.002978606422314 
  4.920167131988481   7.442742319447245   5.002978606422314 
  6.290938730628018   0.622792316154804   5.002978606422314 
  9.940242041110515   7.177200545626550   5.002978606422314 
 11.240547975004541   0.740743403868343   5.002978606422314 
 -3.734299298822748   9.341981285269028  11.673616748318732 
  1.244289713919340   9.341633001029194  11.673616748318732 
  2.489147940833411   2.874543559285437  11.673616748318732 
  6.223099442505383   9.341972502572037  11.673616748318732 
  7.467510705420596   2.874262056559004  11.673616748318732 
 12.446959588118061   2.874411681118273  11.673616748318732 
 -1.275805958519544   9.360853605930014   5.002978606422314 
  0.032746298649888   2.893401082010178   5.002978606422314 
  5.105802816121213   2.654626097296194   5.002978606422314 
  3.708860477675893   9.466801138272832   5.002978606422314 
  8.696373330090051   9.331644351059220   5.002978606422314 
 10.008575952436292   2.865901053524384   5.002978606422314 
 -4.979018491840017  11.498040056695956  11.673616748318732 
 -0.000418061933695  11.497738622508978  11.673616748318732 
  1.244616026009582   5.030136067401306  11.673616748318732 
  6.222674789662469   5.030050820289650  11.673616748318732 
  4.978494905561944  11.497883674263411  11.673616748318732 
 11.202227935562872   5.030162323025876  11.673616748318732 
 -1.286077059362618   5.048950433319591   5.002978606422314 
 -2.488708719550341  11.461662812675945   5.002978606422314 
  2.503149946566022  11.550254630752992   5.002978606422314 
  7.468460529723808  11.502403583475020   5.002978606422314 
  8.764930939681728   5.003483339247707   5.002978606422314 
 -0.000178600341494   7.185833596590019  11.673616748318732 
  1.244565288342914   0.718774596317345  11.673616748318732 
  4.978103496495556   7.185711533696460  11.673616748318732 
  6.222850657648658   0.718512497911896  11.673616748318732 
  9.957414325613030   7.186058363236006  11.673616748318732 
 -2.524983657558729   7.195228005478529   5.002978606422314 
 11.202027581129720   0.718503644095409  11.673616748318732 
  3.761121032703223   0.628549822278723   5.002978606422314 
  2.362489354834942   7.406184393331684   5.002978606422314 
  7.457099503139905   7.179853403181411   5.002978606422314 
  8.765003212660652   0.704406624335902   5.002978606422314 
  2.488858179809124   7.185521416321060  11.673616748318732 
 13.720210140900198   0.741828943653946   5.002978606422314 
 -1.244963953259831   9.341839152462910  11.673616748318732 
  0.000101702861158   2.874553715843986  11.673616748318732 
  4.977887484842388   2.874396198475563  11.673616748318732 
  3.733553619790851   9.341665442151580  11.673616748318732 
  8.712630567413186   9.342087076874684  11.673616748318732 
  9.957321113418161   2.874303720200900  11.673616748318732 
 -3.757931242295335   9.328337376343603   5.002978606422314 
  1.195437641352531   9.448459092802567   5.002978606422314 
  2.529000378751740   2.727849085283164   5.002978606422314 
  6.226223458008287   9.400653683061371   5.002978606422314 
  7.563534826124362   2.790309320127577   5.002978606422314 
 12.481319162983521   2.887651062444337   5.002978606422314 
 -1.244625986856065   5.030180354719168  11.673616748318732 
 -2.489754716662075  11.497879999468063  11.673616748318732 
  2.488980398682900  11.497710676257988  11.673616748318732 
  3.733354073745501   5.029947977126865  11.673616748318732 
  7.467976633647930  11.498075306172829  11.673616748318732 
 -4.988784354146838  11.462655991692754   5.002978606422314 
  8.712549538902467   5.030118452705016  11.673616748318732 
  0.011409115958982  11.504567046849084   5.002978606422314 
  1.137501103887969   5.137996528042483   5.002978606422314 
 -0.064485061044118   7.254693946394269   5.002978606422314 
  6.416301797423763   4.851361063948228   5.002978606422314 
  4.996845402269615  11.546473000258249   5.002978606422314 
 11.206218281699105   5.028417250669333   5.002978606422314 
 -2.489457227223387   7.185993457824496  11.673616748318732 
  3.733639450810565   0.718671025776799  11.673616748318732 
  7.467795279707809   7.186028612662098  11.673616748318732 
  8.712414039311122   0.718407413156481  11.673616748318732 
 13.691564712908706   0.718692369620256  11.673616748318732 
  0.002667791652607   1.439458850672647   1.670167762258787 
  3.734236059137761   7.906208406274437   1.657328242957002 
  4.980588682550738   1.439258897884269   1.669260711677262 
  8.714683425361820   7.905919819204859   1.667636707691672 
  9.959718263131762   1.437823504332322   1.666463185432060 
 -4.976712180075821  10.062334764236178   8.338373771688513 
  0.002015402489251  10.061752245969513   8.337867283257944 
  1.248543571149237   3.595341964567764   8.332288188483712 
  4.979613977654865  10.062832808601522   8.340398984412150 
  6.224709665983269   3.592581584308673   8.348628969887638 
 11.204939633219340   3.593729149583854   8.338821779967764 
 -2.487234857835682  10.061974275969751   1.667452663006358 
 -1.241443862822129   3.594323446511480   1.670167762258787 
  3.735899719114435   3.596414244964172   1.659329355629634 
  2.490485173105857  10.062415997420405   1.666715629022385 
  7.469819905984280  10.062643806528989   1.667596777223791 
  8.715090144078520   3.592798297893093   1.665558228432451 
 -6.221299284762173  12.218847622744859   8.337391211250393 
 -1.242802011293806  12.217839252788275   8.337867283257944 
  0.003896600750752   5.749827093958030   8.334603502873836 
  4.978622356524155   5.748903955402427   8.366996834862096 
  3.735665121442736  12.218199774746482   8.339494027412567 
  9.960029427647029   5.749474393517286   8.338360435620823 
 -2.486359960246075   5.749742949495948   1.668566001594247 
 -3.731976767048272  12.218628399268839   1.668938643446618 
  1.246449469022777  12.217617927150512   1.667071476507310 
  2.493150267195107   5.748919436766838   1.659329355629634 
  6.225344863436599  12.218640291951866   1.667135432876850 
  7.469635871214683   5.748839277731559   1.660263615189610 
 -1.241888554488506   7.905669099786927   8.337018569397996 
  0.002667791652607   1.439458850672648   8.335789450585814 
  3.734236059137762   7.906208406274438   8.348628969887638 
  4.980588682550739   1.439258897884270   8.336696501167339 
  8.714683425361820   7.905919819204860   8.338320505152955 
 -3.731661326959246   7.905843428631277   1.667583441156102 
  9.959718263131762   1.437823504332323   8.339494027412567 
  2.492058940077763   1.440203504764183   1.671353709970778 
  1.247343418432577   7.905429372452859   1.669260711677262 
  6.224073101363352   7.906217279130298   1.660263615189610 
  7.470164772732571   1.437357925452633   1.666715629022385 
  1.247343418432578   7.905429372452860   8.336696501167339 
 12.449342292611181   1.438641128533490   1.667014031652628 
 -2.487234857835682  10.061974275969751   8.338504549838255 
 -1.241443862822129   3.594323446511481   8.335789450585814 
  3.735899719114435   3.596414244964173   8.346627857215008 
  2.490485173105858  10.062415997420405   8.339241583822229 
  7.469819905984281  10.062643806528989   8.338360435620823 
  8.715090144078520   3.592798297893093   8.340398984412150 
 -4.976712180075822  10.062334764236178   1.667583441156102 
  0.002015402489251  10.061752245969513   1.668089929586709 
  1.248543571149237   3.595341964567763   1.673669024360929 
  4.979613977654864  10.062832808601522   1.665558228432451 
  6.224709665983268   3.592581584308673   1.657328242957002 
 11.204939633219340   3.593729149583853   1.667135432876850 
 -2.486359960246074   5.749742949495949   8.337391211250393 
 -3.731976767048271  12.218628399268839   8.337018569397996 
  1.246449469022778  12.217617927150512   8.338885736337332 
  2.493150267195108   5.748919436766839   8.346627857215008 
  6.225344863436600  12.218640291951866   8.338821779967764 
 -6.221299284762174  12.218847622744859   1.668566001594247 
  7.469635871214684   5.748839277731560   8.345693597655018 
 -1.242802011293806  12.217839252788275   1.668089929586709 
  0.003896600750752   5.749827093958029   1.671353709970778 
 -1.241888554488506   7.905669099786926   1.668938643446618 
  4.978622356524154   5.748903955402426   1.638960377982531 
  3.735665121442736  12.218199774746482   1.666463185432060 
  9.960029427647029   5.749474393517285   1.667596777223791 
 -3.731661326959245   7.905843428631278   8.338373771688513 
  2.492058940077763   1.440203504764184   8.334603502873836 
  6.224073101363353   7.906217279130299   8.345693597655018 
  7.470164772732572   1.437357925452633   8.339241583822229 
 12.449342292611181   1.438641128533491   8.338943181192013 
  1.246913775972962   0.719988124199413   1.670455972896765 
  4.980326824473847   7.188499103266984   1.653254131947227 
  6.225746389187959   0.719552542670168   1.668397160683713 
  9.959060648175420   7.187059452982305   1.669579691441857 
 11.204467496656367   0.719912329981533   1.666522560844091 
 -3.732501619946175   9.343019175652316   8.338004934202550 
  1.246638284870735   9.343620755725619   8.337560052160940 
  2.492114320015616   2.875988112773403   8.337654278031867 
  6.224975596900250   9.343539198158444   8.337110668392288 
  7.470831583924700   2.874779009966831   8.340371449766876 
 12.449213936295589   2.875695912114807   8.338349818235439 
 -1.242911944317289   9.343185180789357   1.668286041078931 
  0.002531208363637   2.875956391499839   1.671789350556545 
  4.981516075385996   2.875824368374811   1.661326026865623 
  3.735661753826639   9.344282930595126   1.665585763077766 
  8.714320697846130   9.343012289163411   1.669579691441857 
  9.959922097943839   2.875285495469167   1.667189865713664 
 -4.976995437263555  11.499056754054939   8.337381086820701 
  0.001941830542692  11.499101107065441   8.338317642134704 
  1.247350235618396   5.031982750386357   8.337654278031867 
  6.226200559714507   5.030582494014533   8.352703080897401 
  4.980645640147904  11.499645305303373   8.338767347130977 
 11.204241456823137   5.031315205936522   8.337547622508193 
 -1.242400797066969   5.031607440726229   1.670455972896765 
 -2.487563017465895  11.498984077177884   1.668286041078931 
  2.491265398367736  11.499617340459764   1.666975034190334 
  3.738174068721437   5.032730802523723   1.620552913803950 
  7.469981820166256  11.499242625279980   1.668409590336447 
  8.714844414277726   5.030959902279189   1.668846544452325 
  0.002167337795516   7.187570276994570   8.335396244897074 
  1.246913775972962   0.719988124199413   8.335501239947849 
  4.980326824473848   7.188499103266985   8.352703080897401 
  6.225746389187960   0.719552542670168   8.337560052160940 
  9.959060648175420   7.187059452982306   8.336377521402785 
 -2.487565214194317   7.187237125801462   1.668576126023915 
 11.204467496656367   0.719912329981534   8.339434652000548 
  3.736316429227673   0.719834327596867   1.670560967947553 
  2.491909306494597   7.187949782962132   1.661326026865623 
  7.469461368447876   7.186990529444670   1.668805540475740 
  8.715207758788768   0.719432948830298   1.666975034190334 
  2.491909306494597   7.187949782962133   8.344631185979004 
 13.693804063664812   0.720002576912677   1.667607394609214 
 -1.242911944317288   9.343185180789357   8.337671171765724 
  0.002531208363638   2.875956391499840   8.334167862288096 
  4.981516075385997   2.875824368374812   8.344631185979004 
  3.735661753826639   9.344282930595126   8.340371449766876 
  8.714320697846130   9.343012289163411   8.336377521402785 
  9.959922097943839   2.875285495469168   8.338767347130977 
 -3.732501619946175   9.343019175652316   1.667952278642053 
  1.246638284870735   9.343620755725619   1.668397160683713 
  2.492114320015616   2.875988112773402   1.668302934812762 