Species order: X N B                    
   2.51242800000000     
     5.9449720136058266    0.0000000000000000    0.0000000000000000
    -2.9724860068029120    5.1484967885702053   -0.0000000000000001
     0.0000000000000000    0.0000000000000009    5.3101128803662583
   Pb   N    B 
     1   143   143
Direct
  0.4877891483504548  0.4105612408417952  0.3750000000000000
  0.1115762283329258  0.0557783273914921  0.1248337210026139
  0.6115763343980060  0.5558405055876551  0.1302836090715598
  0.4448260798862865  0.0557214074461298  0.1250750172129973
  0.9448558271042431  0.5557656554576479  0.1254249640496730
  0.7781791247148553  0.0557562290240298  0.1248892212381501
  0.1115049538371746  0.7224191435855416  0.6248470023998847
  0.4448260798862865  0.7224380057742377  0.6249249827873350
  0.2782975705550189  0.2224681341763158  0.6223054940601797
  0.7781966433350328  0.7224294204579357  0.6238893905608929
  0.6114930257635154  0.2223912866277804  0.6238520917903992
  0.9448922216525043  0.2224516184364517  0.6251657896160441
  0.2781582079793357  0.7224236135874785  0.1248562530538127
  0.1116296422832617  0.2224814878082739  0.1254276716566294
  0.4448805038374671  0.2224123569713062  0.1284388806858368
  0.6114930257635219  0.7224350724688352  0.1261479082098032
  0.9448558271042431  0.7224235049800078  0.1254249640496730
  0.7781750308503280  0.2224300935723208  0.1250099400860313
  0.1115189133039783  0.8890815619097522  0.6251063188874285
  0.4448103325526413  0.8890718329423501  0.6253857821821553
  0.2782975705550189  0.3891627697119222  0.6223054940601797
  0.6115763343980060  0.3890691621443237  0.6197163909283342
  0.7781750308503280  0.8890782706110419  0.6249900599141557
  0.9448717443894725  0.3891087375463099  0.6251275228066221
  0.1115762283329258  0.3891312342749462  0.1248337210026114
  0.2781582079793357  0.8890679277250012  0.1248562530538127
  0.6114850049731528  0.8890869147077004  0.1247918809159409
  0.4450689687800625  0.3892011510567698  0.1373572134760288
  0.9448717443894725  0.8890963401769177  0.1248724771930922
  0.7781966433350328  0.3891005562100800  0.1261106094386746
  0.2782014563177646  0.5557905749191260  0.6246426231702839
  0.1115762283329258  0.0557783273914921  0.6251662789964598
  0.6115763343980060  0.5558405055876551  0.6197163909283342
  0.4448260798862865  0.0557214074461298  0.6249249827873350
  0.9448558271042431  0.5557656554576479  0.6245750359497041
  0.1115189133039786  0.5557706847279418  0.1248936811125467
  0.7781791247148553  0.0557562290240315  0.6251107787621571
  0.2782014563177646  0.0557442147322703  0.1253573768300877
  0.4448805038374671  0.5558014801991440  0.1284388806857911
  0.7781960244846824  0.5557646789095577  0.1272358746149483
  0.6114850049731528  0.0557314235983051  0.1247918809159409
  0.4448805038374671  0.5558014801991440  0.6215611193139096
  0.9448922216525043  0.0557739365492379  0.1248342103840173
  0.2781582079793357  0.7224236135874785  0.6251437469460722
  0.1116296422832617  0.2224814878082739  0.6245723283438510
  0.4448805038374671  0.2224123569714160  0.6215611193139096
  0.6114930257635154  0.7224350724688352  0.6238520917903992
  0.9448558271042419  0.7224235049800078  0.6245750359497041
  0.7781750308503280  0.2224300935723139  0.6249900599141557
  0.1115049538371755  0.7224191435855416  0.1251529975998224
  0.4448260798862865  0.7224380057742377  0.1250750172130496
  0.2782975705550189  0.2224681341763158  0.1276945059401130
  0.7781966433350328  0.7224294204579357  0.1261106094386746
  0.6114930257635154  0.2223912866277804  0.1261479082098072
  0.9448922216525043  0.2224516184364517  0.1248342103840173
  0.1115762283329258  0.3891312342749462  0.6251662789964598
  0.2781582079793357  0.8890679277250012  0.6251437469460722
  0.6114850049731528  0.8890869147077004  0.6252081190837945
  0.4450689687800912  0.3892011510567698  0.6126427865235302
  0.9448717443894725  0.8890963401769177  0.6251275228066221
  0.1115189133039787  0.8890815619097741  0.1248936811125467
  0.7781966433350328  0.3891005562100800  0.6238893905608929
  0.4448103325526413  0.8890718329423501  0.1246142178179029
  0.2782975705550189  0.3891627697119222  0.1276945059401111
  0.2782014563177646  0.5557905749191260  0.1253573768300877
  0.6115763343980060  0.3890691621443237  0.1302836090713723
  0.7781750308503280  0.8890782706110419  0.1250099400860313
  0.9448717443894725  0.3891087375463099  0.1248724771930922
  0.1115189133039787  0.5557706847279418  0.6251063188874285
  0.2782014563177646  0.0557442147322735  0.6246426231702839
  0.7781960244846824  0.5557646789095577  0.6227641253849459
  0.6114850049731528  0.0557314235983051  0.6252081190837945
  0.9448922216525043  0.0557739365492380  0.6251657896160441
  0.0549064840894479  0.1108894508170096  0.3750000000000000
  0.5525465240682762  0.6172256901543249  0.3750000000000000
  0.3848336927615478  0.1020072976512228  0.3750000000000000
  0.8856120509465152  0.6094726921402757  0.3750000000000000
  0.7215069191891619  0.1099111402985505  0.3750000000000000
  0.0559267317247920  0.7779682071858398  0.8750000000000000
  0.3892809986297533  0.7779641377574970  0.8750000000000000
  0.2226168349419871  0.2779750841377444  0.8750000000000000
  0.7226032433086452  0.7779660047577652  0.8750000000000000
  0.5559431156797480  0.2779862856913627  0.8750000000000000
  0.8892675959648323  0.2779622886139996  0.8750000000000000
  0.2183628099581288  0.7758480716457063  0.3750000000000000
  0.0549064840894026  0.2773503666055815  0.3750000000000000
  0.3828558402254571  0.2609135754818257  0.3750000000000000
  0.5536356527529930  0.7804722026991721  0.3750000000000000
  0.8873572337386635  0.7777098375184462  0.3750000000000000
  0.7213764650639114  0.2752341368059399  0.3750000000000000
  0.0559330196030208  0.9446438878438655  0.8750000000000000
  0.3892809986297533  0.9446501942059763  0.8750000000000000
  0.2226102018705145  0.4446174439808058  0.8750000000000000
  0.5559321624960661  0.4446327479146974  0.8750000000000000
  0.7226029650542830  0.9446341702017841  0.8750000000000000
  0.8892609145486698  0.4446261719020871  0.8750000000000000
  0.0530934200095668  0.4436158636229316  0.3750000000000000
  0.2182413718995487  0.9407638875453046  0.3750000000000000
  0.5537852800711586  0.9435593067025645  0.3750000000000000
  0.3828558402255692  0.4552755980768501  0.3750000000000000
  0.8881285071346997  0.9447917367935348  0.3750000000000000
  0.7216518965334591  0.4429261579502582  0.3750000000000000
  0.2226064081226422  0.6112857054404719  0.8750000000000000
  0.0559339238256745  0.1113066772023098  0.8750000000000000
  0.5559431156797480  0.6112901633218347  0.8750000000000000
  0.3892828219534716  0.1113341694596988  0.8750000000000000
  0.8892504114057671  0.6112918723694523  0.8750000000000000
  0.0519630532705124  0.6096248487580969  0.3750000000000000
  0.7226029650542830  0.1113021281864336  0.8750000000000000
  0.2187829802861148  0.1071699173684298  0.3750000000000000
  0.3848336927615478  0.6161597284444507  0.3750000000000000
  0.7216518965334591  0.6120590719166920  0.3750000000000000
  0.5536356527529978  0.1064967833874298  0.3750000000000000
  0.3892828219534716  0.6112819858266854  0.8750000000000000
  0.8884425534096824  0.1108879433716278  0.3750000000000000
  0.2226057254528507  0.7779695293930227  0.8750000000000000
  0.0559339238256650  0.2779605799568138  0.8750000000000000
  0.3892947761337134  0.2780042086754312  0.8750000000000000
  0.5559447403297517  0.7779620521648649  0.8750000000000000
  0.8892609145486698  0.7779680759797726  0.8750000000000000
  0.7226032433086452  0.2779705718839574  0.8750000000000000
  0.0519630532704864  0.7756715378463152  0.3750000000000000
  0.3856299973225694  0.7782234952740773  0.3750000000000000
  0.2225670847403008  0.2779502090368542  0.3750000000000000
  0.7213764650642266  0.7794756615919767  0.3750000000000000
  0.5525465240682506  0.2686541672473365  0.3750000000000000
  0.8881285071346997  0.2766701036747658  0.3750000000000000
  0.0559330196030219  0.4446224650929411  0.8750000000000000
  0.2226064081226422  0.9446540360163814  0.8750000000000000
  0.5559429037574101  0.9446381185456270  0.8750000000000000
  0.3892947761337134  0.4446239007921087  0.8750000000000000
  0.8892675959648323  0.9446386406840482  0.8750000000000000
  0.0530934200095672  0.9428108897204790  0.3750000000000000
  0.7225903266801338  0.4446298566686283  0.8750000000000000
  0.3856299973225694  0.9407398353806794  0.3750000000000000
  0.2187829802861148  0.4449463962509707  0.3750000000000000
  0.2182413718995487  0.6108108176872237  0.3750000000000000
  0.7215069191891619  0.9449291122233150  0.3750000000000000
  0.8873572337386635  0.4429807295542996  0.3750000000000000
  0.0559267317247920  0.6112918578724409  0.8750000000000000
  0.2226102018705145  0.1113260912230115  0.8750000000000000
  0.7225903266801338  0.6112938033452415  0.8750000000000000
  0.5559447403297517  0.1113160214981414  0.8750000000000000
  0.8892647137054511  0.1112990235192881  0.8750000000000000
  0.1082942149985529  0.0534470776370863  0.3750000000000000
  0.6192653497650246  0.5798795551601477  0.3750000000000000
  0.4420911727678203  0.0495236881889993  0.3750000000000000
  0.9420989462303068  0.5540466355783885  0.3750000000000000
  0.7778031784659087  0.0555682558999638  0.3750000000000000
  0.1115072528412786  0.7224202930871426  0.8750000000000000
  0.4448208703725425  0.7224525754160568  0.8750000000000000
  0.2780544509624480  0.2223510708468828  0.8750000000000000
  0.7782302319539467  0.7225200048652127  0.8750000000000000
  0.6115297199074636  0.2223460384879924  0.8750000000000000
  0.9448149363857847  0.2223860501026344  0.8750000000000000
  0.2743132606060709  0.7215365372831271  0.3750000000000000
  0.1106005782585719  0.2219669557959454  0.3750000000000000
  0.4388761996491527  0.2089699257430930  0.3750000000000000
  0.6112230905752899  0.7295987542982515  0.3750000000000000
  0.9420989462303068  0.7213856439850558  0.3750000000000000
  0.7778719019298111  0.2201549659577599  0.3750000000000000
  0.1114854841236553  0.8890898947056621  0.8750000000000000
  0.4448309812185762  0.8890821572761116  0.8750000000000000
  0.2780544509624480  0.3890367134487926  0.8750000000000000
  0.6115445369653945  0.3890311677278740  0.8750000000000000
  0.7782021311420634  0.8891620237351934  0.8750000000000000
  0.9448472576326447  0.3890448352009147  0.8750000000000000
  0.1082942149986320  0.3881804706945866  0.3750000000000000
  0.2743132606060709  0.8861100566564366  0.3750000000000000
  0.6106843525050046  0.8907909239583977  0.3750000000000000
  0.9430946442439900  0.8891583363631961  0.3750000000000000
  0.7786426435624426  0.3856834876202349  0.3750000000000000
  0.2781074501156547  0.5557340727427674  0.8750000000000000
  0.1114365470821866  0.0557329313447217  0.8750000000000000
  0.6115445369653945  0.5558467025709702  0.8750000000000000
  0.4448208703725425  0.0557016282898966  0.8750000000000000
  0.9448751646590644  0.5557450082775898  0.8750000000000000
  0.1076566460210652  0.5544590769250380  0.3750000000000000
  0.7781829564204576  0.0557581448771980  0.8750000000000000
  0.2733580635101813  0.0504987489516413  0.3750000000000000
  0.4388761996491527  0.5632396072399892  0.3750000000000000
  0.7770601019244856  0.5551967176292033  0.3750000000000000
  0.6106843525050046  0.0532267618805841  0.3750000000000000
  0.4447880838529017  0.5557874593535659  0.8750000000000000
  0.9441033643019722  0.0559009496132908  0.3750000000000000
  0.2781505459479806  0.7224131701552419  0.8750000000000000
  0.1114222050023902  0.2223777691677082  0.8750000000000000
  0.4447880838529017  0.2223339578334930  0.8750000000000000
  0.6115297199074636  0.7225170147531376  0.8750000000000000
  0.9448751646590644  0.7224634897149123  0.8750000000000000
  0.7782021311420634  0.2223734407393952  0.8750000000000000
  0.1076990019344052  0.7205161676344287  0.3750000000000000
  0.4420911727675549  0.7259008179118980  0.3750000000000000
  0.2735619729100867  0.2175289969456775  0.3750000000000000
  0.7786426435624426  0.7262924892755043  0.3750000000000000
  0.6112230905752905  0.2149576696097715  0.3750000000000000
  0.9441033643019722  0.2215357480223269  0.3750000000000000
  0.1114365470821866  0.3890369490707740  0.8750000000000000
  0.2781505459479806  0.8890707091267747  0.8750000000000000
  0.6115190467537809  0.8891269571634649  0.8750000000000000
  0.4447440775338546  0.3890387054335073  0.8750000000000000
  0.9448472576326447  0.8891357557647040  0.8750000000000000
  0.1076566460210652  0.8865309024295199  0.3750000000000000
  0.7782302319539467  0.3890435604218085  0.8750000000000000
  0.4424433658378448  0.8878883495856554  0.3750000000000000
  0.2735619729100949  0.3893663092977397  0.3750000000000000
  0.2733580635101813  0.5561926478924952  0.3750000000000000
  0.6192653497652869  0.3727191279381601  0.3750000000000000
  0.7778719019298111  0.8910502693061084  0.3750000000000000
  0.9430946442439900  0.3872696412141686  0.3750000000000000
  0.1114854841236552  0.5557289227514339  0.8750000000000000
  0.2781074501156547  0.0557067107063281  0.8750000000000000
  0.7782396800919792  0.5557865067122897  0.8750000000000000
  0.6115190467533936  0.0557254229231647  0.8750000000000000
  0.9448149363857847  0.0557622196155367  0.8750000000000000
  0.0559635153355326  0.1112965877171631  0.1246867792931259
  0.5558956349040624  0.6117023219317304  0.1272448575143725
  0.3890793936920330  0.1108868926344987  0.1255310276790450
  0.8896819857564860  0.6115076595446202  0.1252697475943203
  0.7226293292861192  0.1112366672556480  0.1245039044817795
  0.0561175413085939  0.7780509839910241  0.6252618382063209
  0.3891679410179769  0.7780292473957959  0.6256286262458098
  0.2224689721396827  0.2779011527361539  0.6233509442582725
  0.7227489112795220  0.7782351205642841  0.6249413450989950
  0.5558956349040624  0.2775266463054620  0.6227551424858774
  0.8893887803168146  0.2779698070081564  0.6254996150246322
  0.2226087414197998  0.7779710373762277  0.1246024248365883
  0.0559635153355326  0.2780002609517820  0.1246867792931259
  0.3888503111428037  0.2772680857617506  0.1303868595606522
  0.5558636853783854  0.7781715381795038  0.1247375929948112
  0.8895681122205268  0.7781902644341475  0.1248449155890154
  0.7227489112795220  0.2778471240483837  0.1250586549007194
  0.0560282173103894  0.9446614504261849  0.6255691953774449
  0.3891679410179769  0.9444720269554466  0.6256286262458098
  0.2225008129224920  0.4447424828947016  0.6246404732884795
  0.5564205292819235  0.4448769313076261  0.6196239193965735
  0.7226293292861192  0.9447259953637018  0.6254960955184750
  0.8895681122205268  0.4447111811187293  0.6251550844115463
  0.0560282173103894  0.4447001002172492  0.1244308046221664
  0.2225658580391878  0.9445023751629614  0.1245849146749358
  0.5558710103109596  0.9446021718214561  0.1242892300980906
  0.3888503111428037  0.4449155587144490  0.1303868595606522
  0.8893887803168146  0.9447523066413549  0.1245003849750092
  0.7231097528159169  0.4447592638990446  0.1267117353257962
  0.2225658580391878  0.6113968162099603  0.6254150853250017
  0.0559635153355326  0.1112965877171624  0.6253132207063032
  0.5558956349040624  0.6117023219317304  0.6227551424858774
  0.3890793936920330  0.1108868926344987  0.6244689723210267
  0.8896819857564860  0.6115076595446202  0.6247302524050066
  0.0561175413085934  0.6113998906506383  0.1247381617932393
  0.7226293292861192  0.1112366672556480  0.6254960955184750
  0.2225008129224910  0.1110916633611184  0.1253595267112822
  0.3890793936920330  0.6115258343906076  0.1255310276790450
  0.7231097528159169  0.6116838222500119  0.1267117353257962
  0.5558636853783854  0.1110254805327595  0.1247375929948112
  0.3890793936920330  0.6115258343906076  0.6244689723210267
  0.8893301247693279  0.1113317290515953  0.1245595281422781
  0.2226087414197998  0.7779710373762277  0.6253975751634167
  0.0559635153355326  0.2780002609517820  0.6253132207063032
  0.3888503111428037  0.2772680857617506  0.6196131404402144
  0.5558636853783854  0.7781715381795038  0.6252624070048086
  0.8895681122205268  0.7781902644341475  0.6251550844115463
  0.7227489112795220  0.2778471240483837  0.6249413450989950
  0.0561175413085939  0.7780509839910241  0.1247381617932393
  0.3891679410179769  0.7780292473957959  0.1243713737546481
  0.2224689721397272  0.2779011527361539  0.1266490557416247
  0.7227489112795220  0.7782351205642841  0.1250586549007194
  0.5558956349040624  0.2775266463056110  0.1272448575143892
  0.8893887803168146  0.2779698070081564  0.1245003849750092
  0.0560282173103892  0.4447001002172492  0.6255691953774449
  0.2225658580390964  0.9445023751629614  0.6254150853250017
  0.5558710103109596  0.9446021718214561  0.6257107699012893
  0.3888503111428037  0.4449155587144490  0.6196131404402144
  0.8893887803168146  0.9447523066413549  0.6254996150246322
  0.0560282173103882  0.9446614504261849  0.1244308046221664
  0.7231097528159169  0.4447592638990446  0.6232882646740242
  0.3891679410179769  0.9444720269554466  0.1243713737546481
  0.2225008129224910  0.4447424828947016  0.1253595267112822
  0.2225658580391878  0.6113968162099639  0.1245849146749358
  0.5564205292819235  0.4448769313076261  0.1303760806026856
  0.7226293292861192  0.9447259953637018  0.1245039044817795
  0.8895681122205268  0.4447111811187293  0.1248449155890154
  0.0561175413085964  0.6113998906506383  0.6252618382063209
  0.2225008129224909  0.1110916633611186  0.6246404732884795
  0.7231097528159169  0.6116838222500119  0.6232882646740242
  0.5558636853783854  0.1110254805326726  0.6252624070048086
  0.8893301247693279  0.1113317290515953  0.6254404718578525
 
  0.00000000E+00  0.00000000E+00  0.00000000E+00
  0.00000000E+00  0.00000000E+00  0.00000000E+00
  0.00000000E+00  0.00000000E+00  0.00000000E+00
  0.00000000E+00  0.00000000E+00  0.00000000E+00
  0.00000000E+00  0.00000000E+00  0.00000000E+00
  0.00000000E+00  0.00000000E+00  0.00000000E+00
  0.00000000E+00  0.00000000E+00  0.00000000E+00
  0.00000000E+00  0.00000000E+00  0.00000000E+00
  0.00000000E+00  0.00000000E+00  0.00000000E+00
  0.00000000E+00  0.00000000E+00  0.00000000E+00
  0.00000000E+00  0.00000000E+00  0.00000000E+00
  0.00000000E+00  0.00000000E+00  0.00000000E+00
  0.00000000E+00  0.00000000E+00  0.00000000E+00
  0.00000000E+00  0.00000000E+00  0.00000000E+00
  0.00000000E+00  0.00000000E+00  0.00000000E+00
  0.00000000E+00  0.00000000E+00  0.00000000E+00
  0.00000000E+00  0.00000000E+00  0.00000000E+00
  0.00000000E+00  0.00000000E+00  0.00000000E+00
  0.00000000E+00  0.00000000E+00  0.00000000E+00
  0.00000000E+00  0.00000000E+00  0.00000000E+00
  0.00000000E+00  0.00000000E+00  0.00000000E+00
  0.00000000E+00  0.00000000E+00  0.00000000E+00
  0.00000000E+00  0.00000000E+00  0.00000000E+00
  0.00000000E+00  0.00000000E+00  0.00000000E+00
  0.00000000E+00  0.00000000E+00  0.00000000E+00
  0.00000000E+00  0.00000000E+00  0.00000000E+00
  0.00000000E+00  0.00000000E+00  0.00000000E+00
  0.00000000E+00  0.00000000E+00  0.00000000E+00
  0.00000000E+00  0.00000000E+00  0.00000000E+00
  0.00000000E+00  0.00000000E+00  0.00000000E+00
  0.00000000E+00  0.00000000E+00  0.00000000E+00
  0.00000000E+00  0.00000000E+00  0.00000000E+00
  0.00000000E+00  0.00000000E+00  0.00000000E+00
  0.00000000E+00  0.00000000E+00  0.00000000E+00
  0.00000000E+00  0.00000000E+00  0.00000000E+00
  0.00000000E+00  0.00000000E+00  0.00000000E+00
  0.00000000E+00  0.00000000E+00  0.00000000E+00
  0.00000000E+00  0.00000000E+00  0.00000000E+00
  0.00000000E+00  0.00000000E+00  0.00000000E+00
  0.00000000E+00  0.00000000E+00  0.00000000E+00
  0.00000000E+00  0.00000000E+00  0.00000000E+00
  0.00000000E+00  0.00000000E+00  0.00000000E+00
  0.00000000E+00  0.00000000E+00  0.00000000E+00
  0.00000000E+00  0.00000000E+00  0.00000000E+00
  0.00000000E+00  0.00000000E+00  0.00000000E+00
  0.00000000E+00  0.00000000E+00  0.00000000E+00
  0.00000000E+00  0.00000000E+00  0.00000000E+00
  0.00000000E+00  0.00000000E+00  0.00000000E+00
  0.00000000E+00  0.00000000E+00  0.00000000E+00
  0.00000000E+00  0.00000000E+00  0.00000000E+00
  0.00000000E+00  0.00000000E+00  0.00000000E+00
  0.00000000E+00  0.00000000E+00  0.00000000E+00
  0.00000000E+00  0.00000000E+00  0.00000000E+00
  0.00000000E+00  0.00000000E+00  0.00000000E+00
  0.00000000E+00  0.00000000E+00  0.00000000E+00
  0.00000000E+00  0.00000000E+00  0.00000000E+00
  0.00000000E+00  0.00000000E+00  0.00000000E+00
  0.00000000E+00  0.00000000E+00  0.00000000E+00
  0.00000000E+00  0.00000000E+00  0.00000000E+00
  0.00000000E+00  0.00000000E+00  0.00000000E+00
  0.00000000E+00  0.00000000E+00  0.00000000E+00
  0.00000000E+00  0.00000000E+00  0.00000000E+00
  0.00000000E+00  0.00000000E+00  0.00000000E+00
  0.00000000E+00  0.00000000E+00  0.00000000E+00
  0.00000000E+00  0.00000000E+00  0.00000000E+00
  0.00000000E+00  0.00000000E+00  0.00000000E+00
  0.00000000E+00  0.00000000E+00  0.00000000E+00
  0.00000000E+00  0.00000000E+00  0.00000000E+00
  0.00000000E+00  0.00000000E+00  0.00000000E+00
  0.00000000E+00  0.00000000E+00  0.00000000E+00
  0.00000000E+00  0.00000000E+00  0.00000000E+00
  0.00000000E+00  0.00000000E+00  0.00000000E+00
  0.00000000E+00  0.00000000E+00  0.00000000E+00
  0.00000000E+00  0.00000000E+00  0.00000000E+00
  0.00000000E+00  0.00000000E+00  0.00000000E+00
  0.00000000E+00  0.00000000E+00  0.00000000E+00
  0.00000000E+00  0.00000000E+00  0.00000000E+00
  0.00000000E+00  0.00000000E+00  0.00000000E+00
  0.00000000E+00  0.00000000E+00  0.00000000E+00
  0.00000000E+00  0.00000000E+00  0.00000000E+00
  0.00000000E+00  0.00000000E+00  0.00000000E+00
  0.00000000E+00  0.00000000E+00  0.00000000E+00
  0.00000000E+00  0.00000000E+00  0.00000000E+00
  0.00000000E+00  0.00000000E+00  0.00000000E+00
  0.00000000E+00  0.00000000E+00  0.00000000E+00
  0.00000000E+00  0.00000000E+00  0.00000000E+00
  0.00000000E+00  0.00000000E+00  0.00000000E+00
  0.00000000E+00  0.00000000E+00  0.00000000E+00
  0.00000000E+00  0.00000000E+00  0.00000000E+00
  0.00000000E+00  0.00000000E+00  0.00000000E+00
  0.00000000E+00  0.00000000E+00  0.00000000E+00
  0.00000000E+00  0.00000000E+00  0.00000000E+00
  0.00000000E+00  0.00000000E+00  0.00000000E+00
  0.00000000E+00  0.00000000E+00  0.00000000E+00
  0.00000000E+00  0.00000000E+00  0.00000000E+00
  0.00000000E+00  0.00000000E+00  0.00000000E+00
  0.00000000E+00  0.00000000E+00  0.00000000E+00
  0.00000000E+00  0.00000000E+00  0.00000000E+00
  0.00000000E+00  0.00000000E+00  0.00000000E+00
  0.00000000E+00  0.00000000E+00  0.00000000E+00
  0.00000000E+00  0.00000000E+00  0.00000000E+00
  0.00000000E+00  0.00000000E+00  0.00000000E+00
  0.00000000E+00  0.00000000E+00  0.00000000E+00
  0.00000000E+00  0.00000000E+00  0.00000000E+00
  0.00000000E+00  0.00000000E+00  0.00000000E+00
  0.00000000E+00  0.00000000E+00  0.00000000E+00
  0.00000000E+00  0.00000000E+00  0.00000000E+00
  0.00000000E+00  0.00000000E+00  0.00000000E+00
  0.00000000E+00  0.00000000E+00  0.00000000E+00
  0.00000000E+00  0.00000000E+00  0.00000000E+00
  0.00000000E+00  0.00000000E+00  0.00000000E+00
  0.00000000E+00  0.00000000E+00  0.00000000E+00
  0.00000000E+00  0.00000000E+00  0.00000000E+00
  0.00000000E+00  0.00000000E+00  0.00000000E+00
  0.00000000E+00  0.00000000E+00  0.00000000E+00
  0.00000000E+00  0.00000000E+00  0.00000000E+00
  0.00000000E+00  0.00000000E+00  0.00000000E+00
  0.00000000E+00  0.00000000E+00  0.00000000E+00
  0.00000000E+00  0.00000000E+00  0.00000000E+00
  0.00000000E+00  0.00000000E+00  0.00000000E+00
  0.00000000E+00  0.00000000E+00  0.00000000E+00
  0.00000000E+00  0.00000000E+00  0.00000000E+00
  0.00000000E+00  0.00000000E+00  0.00000000E+00
  0.00000000E+00  0.00000000E+00  0.00000000E+00
  0.00000000E+00  0.00000000E+00  0.00000000E+00
  0.00000000E+00  0.00000000E+00  0.00000000E+00
  0.00000000E+00  0.00000000E+00  0.00000000E+00
  0.00000000E+00  0.00000000E+00  0.00000000E+00
  0.00000000E+00  0.00000000E+00  0.00000000E+00
  0.00000000E+00  0.00000000E+00  0.00000000E+00
  0.00000000E+00  0.00000000E+00  0.00000000E+00
  0.00000000E+00  0.00000000E+00  0.00000000E+00
  0.00000000E+00  0.00000000E+00  0.00000000E+00
  0.00000000E+00  0.00000000E+00  0.00000000E+00
  0.00000000E+00  0.00000000E+00  0.00000000E+00
  0.00000000E+00  0.00000000E+00  0.00000000E+00
  0.00000000E+00  0.00000000E+00  0.00000000E+00
  0.00000000E+00  0.00000000E+00  0.00000000E+00
  0.00000000E+00  0.00000000E+00  0.00000000E+00
  0.00000000E+00  0.00000000E+00  0.00000000E+00
  0.00000000E+00  0.00000000E+00  0.00000000E+00
  0.00000000E+00  0.00000000E+00  0.00000000E+00
  0.00000000E+00  0.00000000E+00  0.00000000E+00
  0.00000000E+00  0.00000000E+00  0.00000000E+00
  0.00000000E+00  0.00000000E+00  0.00000000E+00
  0.00000000E+00  0.00000000E+00  0.00000000E+00
  0.00000000E+00  0.00000000E+00  0.00000000E+00
  0.00000000E+00  0.00000000E+00  0.00000000E+00
  0.00000000E+00  0.00000000E+00  0.00000000E+00
  0.00000000E+00  0.00000000E+00  0.00000000E+00
  0.00000000E+00  0.00000000E+00  0.00000000E+00
  0.00000000E+00  0.00000000E+00  0.00000000E+00
  0.00000000E+00  0.00000000E+00  0.00000000E+00
  0.00000000E+00  0.00000000E+00  0.00000000E+00
  0.00000000E+00  0.00000000E+00  0.00000000E+00
  0.00000000E+00  0.00000000E+00  0.00000000E+00
  0.00000000E+00  0.00000000E+00  0.00000000E+00
  0.00000000E+00  0.00000000E+00  0.00000000E+00
  0.00000000E+00  0.00000000E+00  0.00000000E+00
  0.00000000E+00  0.00000000E+00  0.00000000E+00
  0.00000000E+00  0.00000000E+00  0.00000000E+00
  0.00000000E+00  0.00000000E+00  0.00000000E+00
  0.00000000E+00  0.00000000E+00  0.00000000E+00
  0.00000000E+00  0.00000000E+00  0.00000000E+00
  0.00000000E+00  0.00000000E+00  0.00000000E+00
  0.00000000E+00  0.00000000E+00  0.00000000E+00
  0.00000000E+00  0.00000000E+00  0.00000000E+00
  0.00000000E+00  0.00000000E+00  0.00000000E+00
  0.00000000E+00  0.00000000E+00  0.00000000E+00
  0.00000000E+00  0.00000000E+00  0.00000000E+00
  0.00000000E+00  0.00000000E+00  0.00000000E+00
  0.00000000E+00  0.00000000E+00  0.00000000E+00
  0.00000000E+00  0.00000000E+00  0.00000000E+00
  0.00000000E+00  0.00000000E+00  0.00000000E+00
  0.00000000E+00  0.00000000E+00  0.00000000E+00
  0.00000000E+00  0.00000000E+00  0.00000000E+00
  0.00000000E+00  0.00000000E+00  0.00000000E+00
  0.00000000E+00  0.00000000E+00  0.00000000E+00
  0.00000000E+00  0.00000000E+00  0.00000000E+00
  0.00000000E+00  0.00000000E+00  0.00000000E+00
  0.00000000E+00  0.00000000E+00  0.00000000E+00
  0.00000000E+00  0.00000000E+00  0.00000000E+00
  0.00000000E+00  0.00000000E+00  0.00000000E+00
  0.00000000E+00  0.00000000E+00  0.00000000E+00
  0.00000000E+00  0.00000000E+00  0.00000000E+00
  0.00000000E+00  0.00000000E+00  0.00000000E+00
  0.00000000E+00  0.00000000E+00  0.00000000E+00
  0.00000000E+00  0.00000000E+00  0.00000000E+00
  0.00000000E+00  0.00000000E+00  0.00000000E+00
  0.00000000E+00  0.00000000E+00  0.00000000E+00
  0.00000000E+00  0.00000000E+00  0.00000000E+00
  0.00000000E+00  0.00000000E+00  0.00000000E+00
  0.00000000E+00  0.00000000E+00  0.00000000E+00
  0.00000000E+00  0.00000000E+00  0.00000000E+00
  0.00000000E+00  0.00000000E+00  0.00000000E+00
  0.00000000E+00  0.00000000E+00  0.00000000E+00
  0.00000000E+00  0.00000000E+00  0.00000000E+00
  0.00000000E+00  0.00000000E+00  0.00000000E+00
  0.00000000E+00  0.00000000E+00  0.00000000E+00
  0.00000000E+00  0.00000000E+00  0.00000000E+00
  0.00000000E+00  0.00000000E+00  0.00000000E+00
  0.00000000E+00  0.00000000E+00  0.00000000E+00
  0.00000000E+00  0.00000000E+00  0.00000000E+00
  0.00000000E+00  0.00000000E+00  0.00000000E+00
  0.00000000E+00  0.00000000E+00  0.00000000E+00
  0.00000000E+00  0.00000000E+00  0.00000000E+00
  0.00000000E+00  0.00000000E+00  0.00000000E+00
  0.00000000E+00  0.00000000E+00  0.00000000E+00
  0.00000000E+00  0.00000000E+00  0.00000000E+00
  0.00000000E+00  0.00000000E+00  0.00000000E+00
  0.00000000E+00  0.00000000E+00  0.00000000E+00
  0.00000000E+00  0.00000000E+00  0.00000000E+00
  0.00000000E+00  0.00000000E+00  0.00000000E+00
  0.00000000E+00  0.00000000E+00  0.00000000E+00
  0.00000000E+00  0.00000000E+00  0.00000000E+00
  0.00000000E+00  0.00000000E+00  0.00000000E+00
  0.00000000E+00  0.00000000E+00  0.00000000E+00
  0.00000000E+00  0.00000000E+00  0.00000000E+00
  0.00000000E+00  0.00000000E+00  0.00000000E+00
  0.00000000E+00  0.00000000E+00  0.00000000E+00
  0.00000000E+00  0.00000000E+00  0.00000000E+00
  0.00000000E+00  0.00000000E+00  0.00000000E+00
  0.00000000E+00  0.00000000E+00  0.00000000E+00
  0.00000000E+00  0.00000000E+00  0.00000000E+00
  0.00000000E+00  0.00000000E+00  0.00000000E+00
  0.00000000E+00  0.00000000E+00  0.00000000E+00
  0.00000000E+00  0.00000000E+00  0.00000000E+00
  0.00000000E+00  0.00000000E+00  0.00000000E+00
  0.00000000E+00  0.00000000E+00  0.00000000E+00
  0.00000000E+00  0.00000000E+00  0.00000000E+00
  0.00000000E+00  0.00000000E+00  0.00000000E+00
  0.00000000E+00  0.00000000E+00  0.00000000E+00
  0.00000000E+00  0.00000000E+00  0.00000000E+00
  0.00000000E+00  0.00000000E+00  0.00000000E+00
  0.00000000E+00  0.00000000E+00  0.00000000E+00
  0.00000000E+00  0.00000000E+00  0.00000000E+00
  0.00000000E+00  0.00000000E+00  0.00000000E+00
  0.00000000E+00  0.00000000E+00  0.00000000E+00
  0.00000000E+00  0.00000000E+00  0.00000000E+00
  0.00000000E+00  0.00000000E+00  0.00000000E+00
  0.00000000E+00  0.00000000E+00  0.00000000E+00
  0.00000000E+00  0.00000000E+00  0.00000000E+00
  0.00000000E+00  0.00000000E+00  0.00000000E+00
  0.00000000E+00  0.00000000E+00  0.00000000E+00
  0.00000000E+00  0.00000000E+00  0.00000000E+00
  0.00000000E+00  0.00000000E+00  0.00000000E+00
  0.00000000E+00  0.00000000E+00  0.00000000E+00
  0.00000000E+00  0.00000000E+00  0.00000000E+00