 B Pb N 
 1.0
 14.936314146199660   0.000000000000000   0.000000000000000
 -7.468157073099825  12.935227489513863   0.000000000000000
  0.000000000000001   0.000000000000001  13.341276283792837
 B Pb N 
 143   1 143
Cartesian
  1.218365244542555   0.691350107885417   5.002978606422314 
  4.918910202531385   7.500873962514618   5.002978606422314 
  6.233361955487325   0.640600172844453   5.002978606422314 
  9.933778517377620   7.166719271006247   5.002978606422314 
 11.202520154140277   0.718788031261556   5.002978606422314 
 -3.729640863552536   9.344670834123475  11.673616748318732 
  1.248594947597634   9.345088413391871  11.673616748318732 
  2.492555906867724   2.876161683941447  11.673616748318732 
  6.227998337743722   9.345960628656195  11.673616748318732 
  7.473484866265547   2.876096589234383  11.673616748318732 
 12.451238746847013   2.876614148572000  11.673616748318732 
 -1.291319159530329   9.333239251753350   5.002978606422314 
 -0.005719109300551   2.871193068375417   5.002978606422314 
  4.994572560246564   2.703073527953728   5.002978606422314 
  3.680661996806276   9.437525862913809   5.002978606422314 
  8.684064518139859   9.331287412616158   5.002978606422314 
  9.974387226529975   2.847754567609806   5.002978606422314 
 -4.974680772155602  11.500580046645668  11.673616748318732 
  0.004330076014447  11.500479961234253  11.673616748318732 
  1.247721346086080   5.032278390232956  11.673616748318732 
  6.228875451584131   5.032206655071275  11.673616748318732 
  4.983069843290184  11.501513052051250  11.673616748318732 
 11.207087522417760   5.032383446944267  11.673616748318732 
 -1.281476312421344   5.021202695421053   5.002978606422314 
 -2.520380052283044  11.462035163597031   5.002978606422314 
  2.468806793770248  11.522583246996124   5.002978606422314 
  7.445983757210169  11.501465355055627   5.002978606422314 
  8.749706265827148   4.988903651316845   5.002978606422314 
  0.003590895209507   7.188546654601738  11.673616748318732 
  1.248228989160642   0.720918145601438  11.673616748318732 
  4.983070835142733   7.190003547051648  11.673616748318732 
  6.227995749373873   0.720513233466160  11.673616748318732 
  9.962561273881704   7.188688108232393  11.673616748318732 
 -2.532793992185280   7.172054293651235   5.002978606422314 
 11.206774516266790   0.721244288379829  11.673616748318732 
  3.705829321818972   0.653212805625327   5.002978606422314 
  2.348830932590699   7.285632450753698   5.002978606422314 
  7.460117499097711   7.181595843965133   5.002978606422314 
  8.723867514966603   0.688500273455539   5.002978606422314 
  2.492786503201627   7.189237222557317  11.673616748318732 
 13.683947363450738   0.723091500127772   5.002978606422314 
 -1.240551092179351   9.344578697378944  11.673616748318732 
  0.003484947067979   2.876507032794906  11.673616748318732 
  4.983069629128663   2.875940323220216  11.673616748318732 
  3.738129452111753   9.345921950876287  11.673616748318732 
  8.717481467519107   9.345229592330448  11.673616748318732 
  9.962751715652463   2.876451043590006  11.673616748318732 
 -3.772301787477402   9.320040538224045   5.002978606422314 
  1.182071310060341   9.389692214514580   5.002978606422314 
  2.461466848695045   2.813787061058112   5.002978606422314 
  6.205984740953882   9.394758572703953   5.002978606422314 
  7.524082453530306   2.780526357018162   5.002978606422314 
 12.446960672160833   2.865615297728421   5.002978606422314 
 -1.240937768312762   5.032281438056882  11.673616748318732 
 -2.485175770635013  11.500331876818246  11.673616748318732 
  2.493700814674975  11.501059457968669  11.673616748318732 
  3.737435097014593   5.032304157008387  11.673616748318732 
  7.472329976816298  11.501173269877286  11.673616748318732 
 -5.012758544603749  11.467478899409860   5.002978606422314 
  8.718452805025917   5.032366957386519  11.673616748318732 
 -0.022416554025043  11.485037787179460   5.002978606422314 
  1.178158809030649   5.036541787518685   5.002978606422314 
 -0.070772146379595   7.194478428484508   5.002978606422314 
  6.466016812359570   4.821206709573323   5.002978606422314 
  4.964035721519558  11.525937938067099   5.002978606422314 
 11.194167365796217   5.009420908887691   5.002978606422314 
 -2.485088671560201   7.188480038292277  11.673616748318732 
  3.737873775745386   0.720578975678891  11.673616748318732 
  7.473331411654892   7.189224899925696  11.673616748318732 
  8.717674377338136   0.720821022460511  11.673616748318732 
 13.695611685046213   0.721296996047205  11.673616748318732 
  0.004708247005377   1.439646680928138   1.663480771485894 
  3.734742813262147   7.912508690050773   1.697608799791103 
  4.983291320454704   1.434347181832544   1.674744122454585 
  8.721734376590732   7.909990687789854   1.671258312656816 
  9.962685770121713   1.438871596127165   1.661040988102380 
 -4.972417733227347  10.064266476364004   8.341790933222704 
  0.002289995656759  10.063985308559884   8.346684353795117 
  1.247456996231342   3.594714630240291   8.316297169112769 
  4.983222667517876  10.066648324828263   8.337515146130817 
  6.230419248848374   3.589870304363004   8.308348413056860 
 11.208268040601153   3.595602688866764   8.344963179449673 
 -2.485055811911824  10.063232348714601   1.662355375375451 
 -1.240260969373465   3.595996617555518   1.663480771485894 
  3.737308787249933   3.586525764910289   1.739527117174754 
  2.491047350335617  10.065825872216807   1.664158691119076 
  7.475221651016279  10.066068100580653   1.665590511499845 
  8.720198822992344   3.594015756873025   1.668442066709995 
 -6.218025037885540  12.219410761836826   8.345891470160476 
 -1.240730825778044  12.216960526150975   8.346684353795117 
  0.001935320257096   5.752845190494199   8.333501132180718 
  4.988461021545512   5.754584311300976   8.266573900716264 
  3.738056549058328  12.220245665286905   8.344916224745649 
  9.965695825809171   5.752440294901163   8.340366701352268 
 -2.484235144046137   5.752296960919729   1.660065742678963 
 -3.729378519741063  12.217353087119069   1.662121767471078 
  1.248226644016026  12.218643979599396   1.658176957838532 
  2.485291126330930   5.755083965595560   1.739527117174754 
  6.228631599746296  12.220586007648887   1.660994033390166 
  7.479062387724998   5.753062256602878   1.690496269380277 
 -1.241693883557337   7.908556904040331   8.343835445372722 
  0.004708247005385   1.439646680928126   8.342476441351117 
  3.734742813262148   7.912508690050774   8.308348413056860 
  4.983291320454705   1.434347181832545   8.331213090391003 
  8.721734376590732   7.909990687789855   8.334698900178832 
 -3.727841191757541   7.908596672629903   1.664166279616053 
  9.962685770121713   1.438871596127166   8.344916224745649 
  2.493692048102368   1.436995937764554   1.672456080660721 
  1.244441066509608   7.910225783557295   1.674744122454585 
  6.232443566602158   7.912269392459268   1.690496269380277 
  7.473398899540818   1.436139847823831   1.664158691119076 
  1.244441066509608   7.910225783557296   8.331213090391003 
 12.451871283456521   1.440101242083301   1.661783078725000 
 -2.485055811911823  10.063232348714601   8.343601837469244 
 -1.240260969373464   3.595996617555519   8.342476441351117 
  3.737308787249934   3.586525764910290   8.266430095681427 
  2.491047350335617  10.065825872216807   8.341798521720483 
  7.475221651016279  10.066068100580653   8.340366701352268 
  8.720198822992344   3.594015756873026   8.337515146130817 
 -4.972417733227348  10.064266476364004   1.664166279616053 
  0.002289995656758  10.063985308559884   1.659272859055620 
  1.247456996231999   3.594714630240290   1.689660043730498 
  4.983222667517875  10.066648324828263   1.668442066709995 
  6.230419248847261   3.589870304364931   1.697608799791317 
 11.208268040601153   3.595602688866763   1.660994033390166 
 -2.484235144046136   5.752296960919730   8.345891470160476 
 -3.729378519742436  12.217353087119069   8.343835445372722 
  1.248226644016027  12.218643979599396   8.347780254997824 
  2.485291126330931   5.755083965595561   8.266430095681427 
  6.228631599746297  12.220586007648887   8.344963179449673 
 -6.218025037885555  12.219410761836826   1.660065742678963 
  7.479062387724999   5.753062256602879   8.315460943461948 
 -1.240730825778044  12.216960526150975   1.659272859055620 
  0.001935320257080   5.752845190494198   1.672456080660721 
 -1.241693883557367   7.908556904040382   1.662121767471078 
  4.988461021545511   5.754584311300975   1.739383312118478 
  3.738056549058328  12.220245665286905   1.661040988102380 
  9.965695825809171   5.752440294901162   1.665590511499845 
 -3.727841191757495   7.908596672629904   8.341790933222704 
  2.493692048102361   1.436995937764568   8.333501132180718 
  6.232443566602159   7.912269392459269   8.315460943461948 
  7.473398899541462   1.436139847822719   8.341798521720483 
 12.451871283456521   1.440101242083302   8.344174134121362 
  4.219636122136293   5.310703048665710   5.002978606422314 
  1.249976287394237   0.721505353793532   1.665441161429786 
  4.983592051630043   7.189923387662719   1.738149623873341 
  6.227925846462180   0.720769081351583   1.668660360838738 
  9.962118245704289   7.188955184203459   1.673329098271471 
 11.206731592600574   0.721219506383264   1.666181605405887 
 -3.729666617541546   9.344655965058767   8.336256494116631 
  1.248781566905067   9.344899951760498   8.337296852010319 
  2.495312970145754   2.877675924738342   8.302349529179063 
  6.228173146161804   9.344788898741063   8.323480730000009 
  7.472598870788998   2.876681884216017   8.322983116797802 
 12.451903429253628   2.877462289886044   8.340509522443149 
 -1.240514642864362   9.344713785550699   1.665741767750072 
  0.005808708361560   2.877848657005529   1.673365221203939 
  4.983864545975929   2.876954433902808   1.713538592810855 
  3.738193334700613   9.344862008787814   1.682974096049521 
  8.717491248006272   9.344712380688355   1.673329098271471 
  9.961923844926726   2.877183860871827   1.667792148908129 
 -4.974119232787932  11.500472260034945   8.339716107021898 
  0.004098764799550  11.500346413628364   8.343444504048017 
  1.250411248722721   5.033908956673007   8.302349529179063 
  6.229066639756716   5.032698121491388   8.267807588969873 
  4.983290546305899  11.500429686337396   8.338165063938995 
 11.206976031557415   5.033210038319065   8.339998994366152 
 -1.239555581985817   5.033501038621741   1.665441161429746 
 -2.485040556182367  11.500295898753558   1.665741767750072 
  2.493491399294665  11.500541499694108   1.664882961273743 
  3.741074605300940   5.034405428099969   1.832520534555615 
  7.472990080509416  11.500663420282638   1.665958218474660 
  8.717525461362762   5.033104210873761   1.682476482838856 
  0.004573034247892   7.189277523106593   8.333529814347855 
  1.249976287394238   0.721505353793532   8.340516051402489 
  4.983592051630044   7.189923387662720   8.267807588969873 
  6.227925846462181   0.720769081351584   8.337296852010319 
  9.962118245704289   7.188955184203460   8.332628114564844 
 -2.484901247821477   7.189020238958818   1.666241105822409 
 11.206731592600558   0.721219506383290   8.339775607442837 
  3.738997795955182   0.721064098786223   1.672427398501735 
  2.494062207247402   7.189418585384463   1.713538592810242 
  7.472842371249423   7.188942552331761   1.697488956448045 
  8.717121104629870   0.720898642558537   1.664882961273743 
  2.494062207247402   7.189418585384463   8.292418620030398 
 13.696678538167507   0.721448557250106   1.665447690402291 
 -1.240514642864361   9.344713785550699   8.340215445093021 
  0.005808708361560   2.877848657005530   8.332591991647092 
  4.983864545975108   2.876954433904232   8.292418620030398 
  3.738193334700509   9.344862008787814   8.322983116797802 
  8.717491248006258   9.344712380688355   8.332628114564844 
  9.961923844926780   2.877183860871738   8.338165063938995 
 -3.729666617541546   9.344655965058767   1.669700718724087 
  1.248781566905066   9.344899951760498   1.668660360839445 
  2.495312970145754   2.877675924738341   1.703607683669473 
  6.228173146161804   9.344788898741063   1.682476482838856 
  7.472598870788997   2.876681884216016   1.682974096049574 
 12.451903429253628   2.877462289886043   1.665447690402291 
 -1.239555581985817   5.033501038621742   8.340516051402489 
 -2.485040556182366  11.500295898753558   8.340215445093021 
  2.493491399294665  11.500541499694108   8.341074251567349 
  3.741074605301358   5.034405428099970   8.173436678283128 
  7.472990080509417  11.500663420282638   8.339998994366152 
 -4.974119232788084  11.500472260035231   1.666241105822409 
  8.717525461362762   5.033104210873762   8.323480730000009 
  0.004098764799550  11.500346413628364   1.662512708797384 
  1.250411248722720   5.033908956673006   1.703607683669446 
  0.004573034247891   7.189277523106592   1.672427398501735 
  6.229066639756715   5.032698121491387   1.738149623870832 
  4.983290546305899  11.500429686337396   1.667792148908129 
 11.206976031557415   5.033210038319064   1.665958218474660 
 -2.484901247821477   7.189020238958819   8.339716107021898 
  3.738997795955160   0.721064098786262   8.333529814347855 
  7.472842371249424   7.188942552331762   8.308468256395168 
  8.717121104629870   0.720898642558537   8.341074251567349 
 13.696678538167507   0.721448557250106   8.340509522443149 
 -0.008039341427899   1.434380272505284   5.002978606422314 
  3.643470060249498   7.983954714518393   5.002978606422314 
  4.986190407666783   1.319487600709123   5.002978606422314 
  8.676142007928732   7.883667921480919   5.002978606422314 
  9.955820343832933   1.421725603393619   5.002978606422314 
 -4.974649534929996  10.063195739558097  11.673616748318732 
  0.004464908668654  10.063143100576726  11.673616748318732 
  1.249113390177384   3.595670949738477  11.673616748318732 
  4.983056724057755  10.063167250649917  11.673616748318732 
  6.227695777499033   3.595815844382775  11.673616748318732 
 11.206514141598824   3.595505436728001  11.673616748318732 
 -2.532619736530228  10.035771304037858   5.002978606422314 
 -1.251195607069662   3.587590086343260   5.002978606422314 
  3.769911538112286   3.374976453959866   5.002978606422314 
  2.440587031109392  10.095585491155765   5.002978606422314 
  7.445787179140692  10.059853669133963   5.002978606422314 
  8.719213734323791   3.560216172464815   5.002978606422314 
 -6.219315780625418  12.219183585839229  11.673616748318732 
 -1.240372742784171  12.219265160067751  11.673616748318732 
  0.004502998198115   5.751227783697913  11.673616748318732 
  4.982990221746404   5.751425743564277  11.673616748318732 
  3.738348529341869  12.219057885928235  11.673616748318732 
  9.961742287059877   5.751340681345193  11.673616748318732 
 -2.519972949295870   5.738272113919784   5.002978606422314 
 -3.766050790499102  12.168994899317958   5.002978606422314 
  1.224861802444073  12.205154282045649   5.002978606422314 
  2.318385424328943   5.889093431548535   5.002978606422314 
  6.209513293018300  12.221096045637280   5.002978606422314 
  7.470977311467367   5.729350614142938   5.002978606422314 
 -1.240258422093163   7.907119660960468  11.673616748318732 
  0.004190909058199   1.439777190713768  11.673616748318732 
  3.738530066281426   7.907177324670020  11.673616748318732 
  4.982989455288023   1.440132809317295  11.673616748318732 
  8.716899779029465   7.907199431589737  11.673616748318732 
 -3.776637638546118   7.885636101946468   5.002978606422314 
  9.961803113159524   1.439718348158558  11.673616748318732 
  2.467449546976657   1.386267261193045   5.002978606422314 
  1.146419294986870   7.970166257306061   5.002978606422314 
  6.207866143734959   7.917123332263137   5.002978606422314 
  7.473941325937872   1.377560120017888   5.002978606422314 
  1.249300634306104   7.907071546909961  11.673616748318732 
 12.441928499966464   1.434360773356339   5.002978606422314 
 -2.485089597486190  10.063212842608797  11.673616748318732 
 -1.240406613557675   3.595483334858598  11.673616748318732 
  3.738449974436668   3.596047682258985  11.673616748318732 
  2.493822487014282  10.063116122961581  11.673616748318732 
  7.472292588361544  10.063194042377772  11.673616748318732 
  8.717101152591892   3.595612582709252  11.673616748318732 
 -5.016700394125490  10.033487799183147   5.002978606422314 
 -0.052004516475541  10.066497949054803   5.002978606422314 
  1.248556076696820   3.595349184649639   5.002978606422314 
  4.953458824447030  10.082695005231546   5.002978606422314 
  6.246656944528132   3.475102769350196   5.002978606422314 
 11.199150593085241   3.578790730580484   5.002978606422314 
 -2.485077255606646   5.751292732925630  11.673616748318732 
 -3.729905478031118  12.219314854759313  11.673616748318732 
  1.249032011334885  12.219108958654051  11.673616748318732 
  2.494107942237784   5.751311304020974  11.673616748318732 
  6.227670427418508  12.219115712633309  11.673616748318732 
 -6.248039814302518  12.195473338125364   5.002978606422314 
  7.472270509308345   5.751388344638647  11.673616748318732 
 -1.265702071336958  12.168683779096906   5.002978606422314 
 -0.055118252916745   5.755482856145689   5.002978606422314 
 -1.301909438047474   7.900976879840222   5.002978606422314 
  3.719774970637528  12.222873028072955   5.002978606422314 
  9.945596734355524   5.730056510255689   5.002978606422314 
 -3.729884377886678   7.907199244067601  11.673616748318732 
  2.493575171699243   1.440028315488034  11.673616748318732 
  6.227597977104658   7.907224409200857  11.673616748318732 
  7.472439756191900   1.439898061306071  11.673616748318732 
 12.451138533310244   1.439678188582745  11.673616748318732 
Generated by cif2cell 2.0.0.  :  Failed to get author information, No journal information. Species order: B Pb N 
 1.0
 14.936314146199660   0.000000000000000   0.000000000000000
 -7.468157073099825  12.935227489513863   0.000000000000000
  0.000000000000001   0.000000000000001  13.341276283792837
 B Pb N 
 143   1 143
Cartesian
  1.218365244542555   0.691350107885417   5.002978606422314 
  4.918910202531385   7.500873962514618   5.002978606422314 
  6.233361955487325   0.640600172844453   5.002978606422314 
  9.933778517377620   7.166719271006247   5.002978606422314 
 11.202520154140277   0.718788031261556   5.002978606422314 
 -3.729640863552536   9.344670834123475  11.673616748318732 
  1.248594947597634   9.345088413391871  11.673616748318732 
  2.492555906867724   2.876161683941447  11.673616748318732 
  6.227998337743722   9.345960628656195  11.673616748318732 
  7.473484866265547   2.876096589234383  11.673616748318732 
 12.451238746847013   2.876614148572000  11.673616748318732 
 -1.291319159530329   9.333239251753350   5.002978606422314 
 -0.005719109300551   2.871193068375417   5.002978606422314 
  4.994572560246564   2.703073527953728   5.002978606422314 
  3.680661996806276   9.437525862913809   5.002978606422314 
  8.684064518139859   9.331287412616158   5.002978606422314 
  9.974387226529975   2.847754567609806   5.002978606422314 
 -4.974680772155602  11.500580046645668  11.673616748318732 
  0.004330076014447  11.500479961234253  11.673616748318732 
  1.247721346086080   5.032278390232956  11.673616748318732 
  6.228875451584131   5.032206655071275  11.673616748318732 
  4.983069843290184  11.501513052051250  11.673616748318732 
 11.207087522417760   5.032383446944267  11.673616748318732 
 -1.281476312421344   5.021202695421053   5.002978606422314 
 -2.520380052283044  11.462035163597031   5.002978606422314 
  2.468806793770248  11.522583246996124   5.002978606422314 
  7.445983757210169  11.501465355055627   5.002978606422314 
  8.749706265827148   4.988903651316845   5.002978606422314 
  0.003590895209507   7.188546654601738  11.673616748318732 
  1.248228989160642   0.720918145601438  11.673616748318732 
  4.983070835142733   7.190003547051648  11.673616748318732 
  6.227995749373873   0.720513233466160  11.673616748318732 
  9.962561273881704   7.188688108232393  11.673616748318732 
 -2.532793992185280   7.172054293651235   5.002978606422314 
 11.206774516266790   0.721244288379829  11.673616748318732 
  3.705829321818972   0.653212805625327   5.002978606422314 
  2.348830932590699   7.285632450753698   5.002978606422314 
  7.460117499097711   7.181595843965133   5.002978606422314 
  8.723867514966603   0.688500273455539   5.002978606422314 
  2.492786503201627   7.189237222557317  11.673616748318732 
 13.683947363450738   0.723091500127772   5.002978606422314 
 -1.240551092179351   9.344578697378944  11.673616748318732 
  0.003484947067979   2.876507032794906  11.673616748318732 
  4.983069629128663   2.875940323220216  11.673616748318732 
  3.738129452111753   9.345921950876287  11.673616748318732 
  8.717481467519107   9.345229592330448  11.673616748318732 
  9.962751715652463   2.876451043590006  11.673616748318732 
 -3.772301787477402   9.320040538224045   5.002978606422314 
  1.182071310060341   9.389692214514580   5.002978606422314 
  2.461466848695045   2.813787061058112   5.002978606422314 
  6.205984740953882   9.394758572703953   5.002978606422314 
  7.524082453530306   2.780526357018162   5.002978606422314 
 12.446960672160833   2.865615297728421   5.002978606422314 
 -1.240937768312762   5.032281438056882  11.673616748318732 
 -2.485175770635013  11.500331876818246  11.673616748318732 
  2.493700814674975  11.501059457968669  11.673616748318732 
  3.737435097014593   5.032304157008387  11.673616748318732 
  7.472329976816298  11.501173269877286  11.673616748318732 
 -5.012758544603749  11.467478899409860   5.002978606422314 
  8.718452805025917   5.032366957386519  11.673616748318732 
 -0.022416554025043  11.485037787179460   5.002978606422314 
  1.178158809030649   5.036541787518685   5.002978606422314 
 -0.070772146379595   7.194478428484508   5.002978606422314 
  6.466016812359570   4.821206709573323   5.002978606422314 
  4.964035721519558  11.525937938067099   5.002978606422314 
 11.194167365796217   5.009420908887691   5.002978606422314 
 -2.485088671560201   7.188480038292277  11.673616748318732 
  3.737873775745386   0.720578975678891  11.673616748318732 
  7.473331411654892   7.189224899925696  11.673616748318732 
  8.717674377338136   0.720821022460511  11.673616748318732 
 13.695611685046213   0.721296996047205  11.673616748318732 
  0.004708247005377   1.439646680928138   1.663480771485894 
  3.734742813262147   7.912508690050773   1.697608799791103 
  4.983291320454704   1.434347181832544   1.674744122454585 
  8.721734376590732   7.909990687789854   1.671258312656816 
  9.962685770121713   1.438871596127165   1.661040988102380 
 -4.972417733227347  10.064266476364004   8.341790933222704 
  0.002289995656759  10.063985308559884   8.346684353795117 
  1.247456996231342   3.594714630240291   8.316297169112769 
  4.983222667517876  10.066648324828263   8.337515146130817 
  6.230419248848374   3.589870304363004   8.308348413056860 
 11.208268040601153   3.595602688866764   8.344963179449673 
 -2.485055811911824  10.063232348714601   1.662355375375451 
 -1.240260969373465   3.595996617555518   1.663480771485894 
  3.737308787249933   3.586525764910289   1.739527117174754 
  2.491047350335617  10.065825872216807   1.664158691119076 
  7.475221651016279  10.066068100580653   1.665590511499845 
  8.720198822992344   3.594015756873025   1.668442066709995 
 -6.218025037885540  12.219410761836826   8.345891470160476 
 -1.240730825778044  12.216960526150975   8.346684353795117 
  0.001935320257096   5.752845190494199   8.333501132180718 
  4.988461021545512   5.754584311300976   8.266573900716264 
  3.738056549058328  12.220245665286905   8.344916224745649 
  9.965695825809171   5.752440294901163   8.340366701352268 
 -2.484235144046137   5.752296960919729   1.660065742678963 
 -3.729378519741063  12.217353087119069   1.662121767471078 
  1.248226644016026  12.218643979599396   1.658176957838532 
  2.485291126330930   5.755083965595560   1.739527117174754 
  6.228631599746296  12.220586007648887   1.660994033390166 
  7.479062387724998   5.753062256602878   1.690496269380277 
 -1.241693883557337   7.908556904040331   8.343835445372722 
  0.004708247005385   1.439646680928126   8.342476441351117 
  3.734742813262148   7.912508690050774   8.308348413056860 
  4.983291320454705   1.434347181832545   8.331213090391003 
  8.721734376590732   7.909990687789855   8.334698900178832 
 -3.727841191757541   7.908596672629903   1.664166279616053 
  9.962685770121713   1.438871596127166   8.344916224745649 
  2.493692048102368   1.436995937764554   1.672456080660721 
  1.244441066509608   7.910225783557295   1.674744122454585 
  6.232443566602158   7.912269392459268   1.690496269380277 
  7.473398899540818   1.436139847823831   1.664158691119076 
  1.244441066509608   7.910225783557296   8.331213090391003 
 12.451871283456521   1.440101242083301   1.661783078725000 
 -2.485055811911823  10.063232348714601   8.343601837469244 
 -1.240260969373464   3.595996617555519   8.342476441351117 
  3.737308787249934   3.586525764910290   8.266430095681427 
  2.491047350335617  10.065825872216807   8.341798521720483 
  7.475221651016279  10.066068100580653   8.340366701352268 
  8.720198822992344   3.594015756873026   8.337515146130817 
 -4.972417733227348  10.064266476364004   1.664166279616053 
  0.002289995656758  10.063985308559884   1.659272859055620 
  1.247456996231999   3.594714630240290   1.689660043730498 
  4.983222667517875  10.066648324828263   1.668442066709995 
  6.230419248847261   3.589870304364931   1.697608799791317 
 11.208268040601153   3.595602688866763   1.660994033390166 
 -2.484235144046136   5.752296960919730   8.345891470160476 
 -3.729378519742436  12.217353087119069   8.343835445372722 
  1.248226644016027  12.218643979599396   8.347780254997824 
  2.485291126330931   5.755083965595561   8.266430095681427 
  6.228631599746297  12.220586007648887   8.344963179449673 
 -6.218025037885555  12.219410761836826   1.660065742678963 
  7.479062387724999   5.753062256602879   8.315460943461948 
 -1.240730825778044  12.216960526150975   1.659272859055620 
  0.001935320257080   5.752845190494198   1.672456080660721 
 -1.241693883557367   7.908556904040382   1.662121767471078 
  4.988461021545511   5.754584311300975   1.739383312118478 
  3.738056549058328  12.220245665286905   1.661040988102380 
  9.965695825809171   5.752440294901162   1.665590511499845 
 -3.727841191757495   7.908596672629904   8.341790933222704 
  2.493692048102361   1.436995937764568   8.333501132180718 
  6.232443566602159   7.912269392459269   8.315460943461948 
  7.473398899541462   1.436139847822719   8.341798521720483 
 12.451871283456521   1.440101242083302   8.344174134121362 
  4.219636122136293   5.310703048665710   5.002978606422314 
  1.249976287394237   0.721505353793532   1.665441161429786 
  4.983592051630043   7.189923387662719   1.738149623873341 
  6.227925846462180   0.720769081351583   1.668660360838738 
  9.962118245704289   7.188955184203459   1.673329098271471 
 11.206731592600574   0.721219506383264   1.666181605405887 
 -3.729666617541546   9.344655965058767   8.336256494116631 
  1.248781566905067   9.344899951760498   8.337296852010319 
  2.495312970145754   2.877675924738342   8.302349529179063 
  6.228173146161804   9.344788898741063   8.323480730000009 
  7.472598870788998   2.876681884216017   8.322983116797802 
 12.451903429253628   2.877462289886044   8.340509522443149 
 -1.240514642864362   9.344713785550699   1.665741767750072 
  0.005808708361560   2.877848657005529   1.673365221203939 
  4.983864545975929   2.876954433902808   1.713538592810855 
  3.738193334700613   9.344862008787814   1.682974096049521 
  8.717491248006272   9.344712380688355   1.673329098271471 
  9.961923844926726   2.877183860871827   1.667792148908129 
 -4.974119232787932  11.500472260034945   8.339716107021898 
  0.004098764799550  11.500346413628364   8.343444504048017 
  1.250411248722721   5.033908956673007   8.302349529179063 
  6.229066639756716   5.032698121491388   8.267807588969873 
  4.983290546305899  11.500429686337396   8.338165063938995 
 11.206976031557415   5.033210038319065   8.339998994366152 
 -1.239555581985817   5.033501038621741   1.665441161429746 
 -2.485040556182367  11.500295898753558   1.665741767750072 
  2.493491399294665  11.500541499694108   1.664882961273743 
  3.741074605300940   5.034405428099969   1.832520534555615 
  7.472990080509416  11.500663420282638   1.665958218474660 
  8.717525461362762   5.033104210873761   1.682476482838856 
  0.004573034247892   7.189277523106593   8.333529814347855 
  1.249976287394238   0.721505353793532   8.340516051402489 
  4.983592051630044   7.189923387662720   8.267807588969873 
  6.227925846462181   0.720769081351584   8.337296852010319 
  9.962118245704289   7.188955184203460   8.332628114564844 
 -2.484901247821477   7.189020238958818   1.666241105822409 
 11.206731592600558   0.721219506383290   8.339775607442837 
  3.738997795955182   0.721064098786223   1.672427398501735 
  2.494062207247402   7.189418585384463   1.713538592810242 
  7.472842371249423   7.188942552331761   1.697488956448045 
  8.717121104629870   0.720898642558537   1.664882961273743 
  2.494062207247402   7.189418585384463   8.292418620030398 
 13.696678538167507   0.721448557250106   1.665447690402291 
 -1.240514642864361   9.344713785550699   8.340215445093021 
  0.005808708361560   2.877848657005530   8.332591991647092 
  4.983864545975108   2.876954433904232   8.292418620030398 
  3.738193334700509   9.344862008787814   8.322983116797802 
  8.717491248006258   9.344712380688355   8.332628114564844 
  9.961923844926780   2.877183860871738   8.338165063938995 
 -3.729666617541546   9.344655965058767   1.669700718724087 
  1.248781566905066   9.344899951760498   1.668660360839445 
  2.495312970145754   2.877675924738341   1.703607683669473 