 In N B 
 1.0
 17.527899999999772   0.000000000000000   0.000000000000000
 -8.763949999999658  15.179606674993195   0.000000000000000
  0.000000000000001   0.000000000000002  15.000000000000000
 In N B 
   1  48  48
Cartesian
  3.087640911755794   7.216747562690273   1.673269328885025 
  8.808573582497752  13.767441648907573   1.658884292302200 
 16.287403952367136   0.751136910598410   1.659639895864875 
 15.023330465304467   2.924003831868224   1.660442060987145 
 13.765140312765526   5.086725809953958   1.659537206872305 
 12.501806631351457   7.241951672009233   1.657992103487070 
 11.294277044670242   9.396811593036405   1.659009456703140 
 10.066434494809664  11.573438181281022   1.659910831100790 
 -6.215502075307525  13.691740519710445   1.657694470184850 
  1.261388512475519   0.659513032865518   1.659001857751590 
 -0.020037892366698   2.827559615713370   1.659814547855400 
 -1.238428250271938   5.059868891664398   1.658349756996615 
 -2.495252375339862   7.230551812005947   1.659346246224180 
 -3.717345933632504   9.385723183089913   1.659127763894520 
 -4.957347490541393  11.537315519823427   1.657709208789525 
 -3.697540419537223  13.676880039996911   1.658440188427200 
  3.797752815915366   0.619038801337404   1.659427104518865 
  2.489168357469445   2.709564171560789   1.660309170851265 
  1.218075664407314   4.888128391799414   1.655638090220445 
  0.018703819097262   7.225026504019803   1.659284191802310 
 -1.193956176479763   9.398431053588626   1.660682199074610 
 -2.443114172116521  11.542102912501260   1.658822020296795 
 -1.188295354557138  13.710630498566877   1.658730216409425 
  6.329000405635389   0.637273567810444   1.659436802468970 
  5.079529022547153   2.703819728166560   1.661855576386500 
  3.787344357799854   4.643302464724137   1.675172582884215 
  1.314955505359031   9.501453391929159   1.665190565635575 
  0.063868756321221  11.599407081088316   1.659664770662160 
  1.310559756567321  13.755494505669857   1.658934502816395 
  8.805986736502387   0.717961287296006   1.659079133311275 
  7.535199532940400   2.854319118012588   1.660986164494785 
  6.221527319815259   4.977067604054927   1.659902739352320 
  4.686557255830135   8.304230843337812   1.687753890822855 
  4.053065303600341   9.610059511332864   1.676182068601515 
  2.606049478688223  11.610550513713129   1.662690469042935 
  3.788936356705257  13.836725485642907   1.660952722439730 
 11.281532022446545   0.782414445424324   1.657979465662500 
 10.004078437773357   2.934704128155017   1.658238160130625 
  8.693734371182515   5.109379334172647   1.660057311537645 
  7.339553136727502   7.316701806140228   1.664788693984065 
  6.391838681580098   9.670683841176473   1.656612135825900 
  5.100680063203081  11.800795538291448   1.662205182958725 
  6.309950729281432  13.853091741412541   1.660804245753495 
 13.783734626110757   0.795095463199601   1.659513594824370 
 12.511611099913498   2.943369940094239   1.658781159345660 
 11.232342234218587   5.100392077129853   1.658279880620385 
  9.947222532727508   7.261781533482858   1.658899226132085 
  8.799199560068718   9.443000262626157   1.662741459981870 
  7.595122849642661  11.697286538575501   1.663820393568615 
  7.562267500675169  14.511455272595770   1.659764059048815 
 15.039905604350361   1.489007793845069   1.660261781765715 
 13.770074829482613   3.649782573036486   1.660102263696900 
 12.501053460927061   5.804320972012458   1.658732826017040 
 11.233904670841889   7.957627994253682   1.658546088386205 
 10.054161375705657  10.128368952565564   1.661252890804935 
  8.840477909495835  12.344918570197422   1.661392794489885 
 -7.465845426574123  14.424668034888876   1.658490179990340 
  0.015929942475318   1.409304081362160   1.659957609761475 
 -1.241586184543602   3.615028451085878   1.659706889491545 
 -2.491086725432640   5.788910556500148   1.659549806468025 
 -3.750066507845734   7.945774644167821   1.659060306117690 
 -4.969037154025170  10.099210486335554   1.658778956901300 
 -6.206864446987080  12.260314182191285   1.658208534659610 
 -4.956660661279722  14.379642044391989   1.658813166099825 
  2.521976547775192   1.312014569754072   1.659570657746010 
  1.239701184742483   3.472561527436019   1.658907401806560 
  0.040707950130445   5.760020881033560   1.657536704880420 
 -1.224886444621037   7.942420751132086   1.659871845015090 
 -2.447514452821074  10.098939212754935   1.659824423564910 
 -3.698308523047606  12.243821648404495   1.658420653677615 
 -2.442749476891138  14.393601815874986   1.659265169958390 
  5.070825779455870   1.302471559263152   1.660030725797550 
  3.792503080314621   3.289201165645148   1.667050029330435 
  2.553632053052158   5.312193567698710   1.662066163933725 
  1.216701361170529   8.066116282061760   1.666353366151035 
  0.061907435051525  10.165788224605766   1.661620108744815 
 -1.191668454203490  12.277687691089863   1.658872963934790 
  0.052896750048925  14.451870504604630   1.659195769001355 
  7.550272993360061   1.411098790984844   1.660329174507540 
  6.270049704630152   3.530361793292216   1.661376045290805 
  4.897295479419242   5.526924400933150   1.664987806025955 
  2.658265012284247  10.139302117282995   1.668915665802075 
  1.331810559530475  12.303789470475149   1.660434863518350 
  2.532755957673363  14.521430694400225   1.659578565249480 
 10.025966828930297   1.487062713087658   1.658420844477510 
  8.739316685012572   3.650395799600099   1.659939366436725 
  7.398011006987936   5.838191622347090   1.661866190771550 
  6.106274928143237   8.269338073290044   1.669481143595880 
  5.184235748539221  10.414990182562715   1.663547032625025 
  3.813281734097531  12.404880645701379   1.662560985053535 
  5.041340212871374  14.543067266603366   1.660727620555800 
 12.526933485383617   1.505505877306094   1.658749260626925 
 11.250966246596391   3.659692536735236   1.658607418177560 
  9.957525679123780   5.819472312255158   1.659247949817960 
  8.660627555351891   7.991731738803761   1.661939226081705 
  7.625875310612634  10.270329856565816   1.661261120020770 
  6.353620043250612  12.439692619019061   1.662462428498250 
