 B N S Al 
 1.0
 17.527899999999772   0.000000000000000   0.000000000000000
 -8.763949999999658  15.179606674993195   0.000000000000000
  0.000000000000001   0.000000000000002  15.000000000000000
 B N S Al 
  48  48   1   1
Cartesian
  7.531933731453986  14.482465596652430   1.664828657738625 
 15.016966697928133   1.449708471841618   1.665182219325135 
 13.756803978094300   3.610615719877250   1.665839717082945 
 12.516022528770655   5.780499135351379   1.664030013755460 
 11.300534048846799   7.957095452530910   1.665231340570035 
 10.052539771415137  10.136404037511092   1.666599139398765 
  8.805415017537939  12.322308100288275   1.665590886788790 
 -7.496823816269152  14.448051485692691   1.665376864380045 
 -0.012248536747894   1.415558606566848   1.664828657738625 
 -1.283731789781448   3.584003420898782   1.663856090474700 
 -2.536492580990552   5.767889949127902   1.663322521199085 
 -3.768618677538395   7.950580766414345   1.664202603831090 
 -4.986914525346538  10.119737783328796   1.666091677662375 
 -6.235755688446021  12.288588989895180   1.666287478423350 
 -4.996140372476547  14.435665698993907   1.666287478423350 
  2.495243374321200   1.392770209756863   1.665590886788790 
  1.200300679034485   3.522801968836664   1.662945390625350 
 -0.064981519831837   5.725997139182748   1.662467421594090 
 -1.318754181648897   7.941545336952216   1.663519310724435 
 -2.497440244581920  10.119737783328796   1.665396327337410 
 -3.741857375905086  12.280120600550408   1.665422857258905 
 -2.493474976333681  14.438563129740748   1.666091677662375 
  5.011854199877826   1.405680522599318   1.666599139398765 
  3.717211466272947   3.512213570566883   1.664635293652365 
  2.396163434913476   5.618271763002590   1.666074441158940 
  1.104366765703781   7.880301850332608   1.667978657714670 
  0.009380288317316  10.114342525327586   1.665901326454290 
 -1.248737835951588  12.282615160530895   1.665396327337410 
 -0.005746543646220  14.468066484670544   1.664202603831090 
  7.523187935872941   1.414540067055736   1.665231340570035 
  6.295536847112855   3.529259566949387   1.665686582675595 
  5.000314820330933   5.489096255231139   1.674558011868645 
  2.491609504643681  10.283076756607727   1.667978657714670 
  1.227010615747426  12.350939310132290   1.663519310724435 
  2.500582200987465  14.492359393038633   1.663322521199085 
 10.015919880277643   1.450194324023922   1.664030013755460 
  8.777111542295625   3.596202937703588   1.664096558275350 
  7.551262635382610   5.760034722042422   1.666565195420115 
  6.510428322970764   8.104689567026041   1.674558011868645 
  5.096483358984337  10.295363068212369   1.666074441158940 
  3.772617969215331  12.372914433313113   1.662467421594090 
  5.018263809021553  14.499379987100506   1.663856090474700 
 12.515484765990220   1.460587776102834   1.665839717082945 
 11.268123782351028   3.614103938300224   1.665961450291275 
 10.038120383593093   5.780334319623928   1.664096558275350 
  8.855307695679961   7.962912732433570   1.665686582675595 
  7.580907271161212  10.204331009653782   1.664635293652365 
  6.313282055663094  12.378745491311481   1.662945390625350 
  8.782756028306132  13.753991284970859   1.664840452121370 
 16.268073137998538   0.727375564951422   1.664442980717955 
 14.999521947313486   2.882844873950168   1.664608229748300 
 13.752873668191237   5.050632069488552   1.663452427923705 
 12.528212296253015   7.224536374303334   1.663594428482880 
 11.297148476151072   9.403355151766355   1.666088887184310 
 10.046680600541169  11.580542244551468   1.666430681825985 
 -6.245255064756122  13.725451663166382   1.665316909693755 
  1.244034444276980   0.696542477317862   1.664840452121370 
 -0.045685145905855   2.839430199655141   1.663741179274620 
 -1.304496760971605   5.023870181597808   1.662930001360650 
 -2.545368455902518   7.214964952530697   1.663206058443390 
 -3.744851653081946   9.395471834290063   1.665081399961155 
 -4.988149873121551  11.563269153584855   1.665502557072870 
 -3.744197488023142  13.717857886772567   1.665502557072870 
  3.758258813230661   0.688676209503518   1.666430681825985 
  2.465338263710852   2.814925322960072   1.663831946221755 
  1.152459444357442   4.940037176614882   1.661337146417895 
 -0.122065864440417   7.184881278894744   1.662250085079030 
 -1.250944566456554   9.391019164397182   1.664819248193265 
 -2.493359351628771  11.559293663221128   1.665208958667300 
 -1.245180829237911  13.725028703385016   1.665081399961155 
  6.268992082178178   0.694332809002262   1.666088887184310 
  5.008415025590240   2.834125612250332   1.665521186935515 
  3.674501550557348   4.927593881859297   1.666070290248690 
  2.207787470149347   7.012758113658841   1.672276683602445 
  1.272929964981818   9.384825512429641   1.666518085868415 
  0.005628839317136  11.567468146636038   1.664819248193265 
  1.242935122063961  13.776499224094639   1.663206058443390 
  8.771436403737003   0.717609655845583   1.663594428482880 
  7.544452084204854   2.840056571289252   1.664384571268710 
  6.330573239402620   4.940509368635834   1.667596467399375 
  3.794629344372962   9.761248863421550   1.672276683602445 
  2.480639643403813  11.692899455649828   1.662250085079030 
  3.760914703256658  13.797420198914686   1.662930001360650 
 11.266423443071435   0.743973949121325   1.663452427923705 
 10.024116686271512   2.887688981904265   1.664123495904375 
  8.792555135179908   5.043367896200707   1.663807907727195 
  7.650642285157942   7.226936025383408   1.667596467399375 
  6.333791580377495   9.533619325599121   1.666070290248690 
  5.061994317911830  11.711550211605845   1.661337146417895 
  6.282101028212146  13.799477352659395   1.663741179274620 
 13.767106363985462   0.748238467585457   1.664608229748300 
 12.512371339089935   2.895731009547606   1.667573606243460 
 11.275208612926063   5.054643763778880   1.664123495904375 
 10.076627189529535   7.225912507341692   1.664384571268710 
  8.813745021409883   9.425150504574976   1.665521186935515 
  7.558834578754441  11.637119728781666   1.663831946221755 
  5.114802105720504   7.166719597771809   1.669642142069670 
  3.396383443637300   8.158855341857093   1.672628401438020 
