B N Al S                                
   1.0000000000000000     
     8.7639499999999995  -15.1796066749929999    0.0000000000000000
     8.7639499999999995   15.1796066749929999    0.0000000000000000
     0.0000000000000000    0.0000000000000000   15.0000000000000000
   B    N    Al   S 
    48    48     1     1
Selective dynamics
Direct
  0.9067480498069184  0.9540738377965202  0.1109885771825745   T   T   T
  0.9044983297709682  0.0955036914250135  0.1110121479550091   T   T   T
  0.9037816244904331  0.2378596361014649  0.1110559811388633   T   T   T
  0.9044663228690412  0.3808069114777620  0.1109353342503635   T   T   T
  0.9068151490100416  0.5241964184513020  0.1110154227046686   T   T   T
  0.9073987968374411  0.6677646038226902  0.1111066092932511   T   T   T
  0.9082493006165508  0.8117672851555492  0.1110393924525862   T   T   T
  0.0481953113756253  0.9518067098203762  0.1110251242920032   T   T   T
  0.0459281833994463  0.0932539713890503  0.1109885771825745   T   T   T
  0.0448138995573313  0.2361064748010270  0.1109237393649803   T   T   T
  0.0452764012685192  0.3799762452758337  0.1108881680799395   T   T   T
  0.0468767660794868  0.5237672448728257  0.1109468402554058   T   T   T
  0.0488203839585221  0.6668325774026134  0.1110727785108245   T   T   T
  0.0490112604950053  0.8095459423292787  0.1110858318948895   T   T   T
  0.1904560788667658  0.9509907607010097  0.1110858318948895   T   T   T
  0.1882347360404625  0.0917527205794671  0.1110393924525862   T   T   T
  0.1845167615084549  0.2320746541239513  0.1108630260416898   T   T   T
  0.1849008991296321  0.3772164366166170  0.1108311614396060   T   T   T
  0.1863485732131041  0.5231720101176984  0.1109012873816294   T   T   T
  0.1908496219599171  0.6665273512522769  0.1110264218224939   T   T   T
  0.1910139582325066  0.8089880629634896  0.1110281904839275   T   T   T
  0.3331694437943604  0.9511816372374627  0.1110727785108245   T   T   T
  0.3322374173743115  0.0926032243585752  0.1111066092932511   T   T   T
  0.3277625338284222  0.2313771131074746  0.1109756862434911   T   T   T
  0.3217655366394983  0.3701197193902328  0.1110716294105963   T   T   T
  0.3225749325526009  0.5191374202939384  0.1111985771809780   T   T   T
  0.3336907825804092  0.6663112386166044  0.1110600884302856   T   T   T
  0.3334746699446501  0.8091523992360891  0.1110264218224939   T   T   T
  0.4762347763241199  0.9531252551164692  0.1109468402554058   T   T   T
  0.4758056027457458  0.0931868721859598  0.1110154227046686   T   T   T
  0.4754223727960102  0.2325000668669150  0.1110457721783734   T   T   T
  0.4660824183670830  0.3616099134026867  0.1116372007912430   T   T   T
  0.4808646009030536  0.6774270886443993  0.1111985771809780   T   T   T
  0.4768300110793016  0.8136534479828885  0.1109012873816294   T   T   T
  0.6200257759201604  0.9547256199275087  0.1108881680799395   T   T   T
  0.6191951097182335  0.0955356983269512  0.1109353342503635   T   T   T
  0.6192059674256118  0.2369101528584367  0.1109397705516899   T   T   T
  0.6205432614685966  0.3794587597273834  0.1111043463613407   T   T   T
  0.6383921077933798  0.5339196028298722  0.1116372007912431   T   T   T
  0.6298823018057854  0.6782364845574621  0.1110716294105963   T   T   T
  0.6227855845793715  0.8151011220663704  0.1108311614396060   T   T   T
  0.7638955463949813  0.9551881216386656  0.1109237393649803   T   T   T
  0.7621423850945299  0.0962203967056013  0.1110559811388633   T   T   T
  0.7619125887304273  0.2380894324656045  0.1110640966860853   T   T   T
  0.7630918683375681  0.3807960537703804  0.1109397705516899   T   T   T
  0.7675019543290412  0.5245796484010108  0.1110457721783734   T   T   T
  0.7686249080885240  0.6722394873685592  0.1109756862434911   T   T   T
  0.7679273670720154  0.8154852596875357  0.1108630260416898   T   T   T
  0.9541146742687814  0.9060835092406654  0.1109893634747576   T   T   T
  0.9520834564451764  0.0479179454728363  0.1109628653811972   T   T   T
  0.9507090530708590  0.1899156503639421  0.1109738819832199   T   T   T
  0.9509899904203197  0.3327248312572508  0.1108968285282465   T   T   T
  0.9527268136358238  0.4759369942177094  0.1109062952321923   T   T   T
  0.9542602424882081  0.6194729121181644  0.1110725924789536   T   T   T
  0.9546328871567491  0.7629013381242081  0.1110953787883986   T   T   T
  0.0957980218806551  0.9042033800373513  0.1110211273129167   T   T   T
  0.0939178926773007  0.0458867276492315  0.1109893634747576   T   T   T
  0.0909213678883473  0.1870555845384849  0.1109160786183082   T   T   T
  0.0910568887743284  0.3309618153594264  0.1108620000907104   T   T   T
  0.0924351178198566  0.4753064494363083  0.1108804038962259   T   T   T
  0.0958258855658010  0.6189535760348860  0.1110054266640771   T   T   T
  0.0962982836171218  0.7617634238596003  0.1110335038048578   T   T   T
  0.2382379780583993  0.9037031183009041  0.1110335038048578   T   T   T
  0.2371000637938401  0.0453685147611923  0.1110953787883986   T   T   T
  0.2333728602211642  0.1854412557077230  0.1109221297481170   T   T   T
  0.2284695393106280  0.3254390764125047  0.1107558097611932   T   T   T
  0.2296982111961429  0.4733246014029522  0.1108166723386019   T   T   T
  0.2379613573829703  0.6186602436720505  0.1109879498795507   T   T   T
  0.2384998748551574  0.7615015270628753  0.1110139305778198   T   T   T
  0.3810478258831112  0.9041755163521827  0.1110054266640771   T   T   T
  0.3805284897998558  0.0457411594297829  0.1110725924789536   T   T   T
  0.3790926586037238  0.1867061296732583  0.1110347457957010   T   T   T
  0.3719469648221383  0.3246193387854366  0.1110713526832459   T   T   T
  0.3569512180484795  0.4619854956592270  0.1114851122401632   T   T   T
  0.3817491827817729  0.6182522191362280  0.1111012057245606   T   T   T
  0.3813411582459806  0.7620400445350293  0.1109879498795507   T   T   T
  0.5246949524806460  0.9075662840981232  0.1108804038962259   T   T   T
  0.5240644076993036  0.0472745882821698  0.1109062952321923   T   T   T
  0.5239737509999791  0.1870968485611649  0.1109589714179142   T   T   T
  0.5239063238219301  0.3254701834122490  0.1111730978266247   T   T   T
  0.5380159062578087  0.6430501838695318  0.1114851122401632   T   T   T
  0.5266768005140582  0.7703031907218419  0.1108166723386019   T   T   T
  0.6690395865575629  0.9089445131437091  0.1108620000907104   T   T   T
  0.6672765706597393  0.0490114114976998  0.1108968285282465   T   T   T
  0.6670122888258119  0.1902347698284848  0.1109415663936247   T   T   T
  0.6677551188490206  0.3322462830680006  0.1109205271818134   T   T   T
  0.6745312185047418  0.4760950780950753  0.1111730978266247   T   T   T
  0.6753820631315518  0.6280544370958413  0.1110713526832459   T   T   T
  0.6745623255044926  0.7715318626074413  0.1107558097611932   T   T   T
  0.8129458173794979  0.9090800340296422  0.1109160786183082   T   T   T
  0.8100857515540443  0.0492923488470949  0.1109738819832199   T   T   T
  0.8092368405201490  0.1907645613978928  0.1111715737495640   T   T   T
  0.8097666320895001  0.3329891130911764  0.1109415663936247   T   T   T
  0.8129045533568761  0.4760276509170437  0.1109589714179142   T   T   T
  0.8132952722447628  0.6209087433142729  0.1110347457957010   T   T   T
  0.8145601462102355  0.7666285416968407  0.1109221297481170   T   T   T
  0.4625140930480919  0.5374879281488857  0.1115085600958684   T   T   T
  0.5278732531963667  0.4721281487206271  0.1113094761379779   T   T   T

  0.00000000E+00  0.00000000E+00  0.00000000E+00
  0.00000000E+00  0.00000000E+00  0.00000000E+00
  0.00000000E+00  0.00000000E+00  0.00000000E+00
  0.00000000E+00  0.00000000E+00  0.00000000E+00
  0.00000000E+00  0.00000000E+00  0.00000000E+00
  0.00000000E+00  0.00000000E+00  0.00000000E+00
  0.00000000E+00  0.00000000E+00  0.00000000E+00
  0.00000000E+00  0.00000000E+00  0.00000000E+00
  0.00000000E+00  0.00000000E+00  0.00000000E+00
  0.00000000E+00  0.00000000E+00  0.00000000E+00
  0.00000000E+00  0.00000000E+00  0.00000000E+00
  0.00000000E+00  0.00000000E+00  0.00000000E+00
  0.00000000E+00  0.00000000E+00  0.00000000E+00
  0.00000000E+00  0.00000000E+00  0.00000000E+00
  0.00000000E+00  0.00000000E+00  0.00000000E+00
  0.00000000E+00  0.00000000E+00  0.00000000E+00
  0.00000000E+00  0.00000000E+00  0.00000000E+00
  0.00000000E+00  0.00000000E+00  0.00000000E+00
  0.00000000E+00  0.00000000E+00  0.00000000E+00
  0.00000000E+00  0.00000000E+00  0.00000000E+00
  0.00000000E+00  0.00000000E+00  0.00000000E+00
  0.00000000E+00  0.00000000E+00  0.00000000E+00
  0.00000000E+00  0.00000000E+00  0.00000000E+00
  0.00000000E+00  0.00000000E+00  0.00000000E+00
  0.00000000E+00  0.00000000E+00  0.00000000E+00
  0.00000000E+00  0.00000000E+00  0.00000000E+00
  0.00000000E+00  0.00000000E+00  0.00000000E+00
  0.00000000E+00  0.00000000E+00  0.00000000E+00
  0.00000000E+00  0.00000000E+00  0.00000000E+00
  0.00000000E+00  0.00000000E+00  0.00000000E+00
  0.00000000E+00  0.00000000E+00  0.00000000E+00
  0.00000000E+00  0.00000000E+00  0.00000000E+00
  0.00000000E+00  0.00000000E+00  0.00000000E+00
  0.00000000E+00  0.00000000E+00  0.00000000E+00
  0.00000000E+00  0.00000000E+00  0.00000000E+00
  0.00000000E+00  0.00000000E+00  0.00000000E+00
  0.00000000E+00  0.00000000E+00  0.00000000E+00
  0.00000000E+00  0.00000000E+00  0.00000000E+00
  0.00000000E+00  0.00000000E+00  0.00000000E+00
  0.00000000E+00  0.00000000E+00  0.00000000E+00
  0.00000000E+00  0.00000000E+00  0.00000000E+00
  0.00000000E+00  0.00000000E+00  0.00000000E+00
  0.00000000E+00  0.00000000E+00  0.00000000E+00
  0.00000000E+00  0.00000000E+00  0.00000000E+00
  0.00000000E+00  0.00000000E+00  0.00000000E+00
  0.00000000E+00  0.00000000E+00  0.00000000E+00
  0.00000000E+00  0.00000000E+00  0.00000000E+00
  0.00000000E+00  0.00000000E+00  0.00000000E+00
  0.00000000E+00  0.00000000E+00  0.00000000E+00
  0.00000000E+00  0.00000000E+00  0.00000000E+00
  0.00000000E+00  0.00000000E+00  0.00000000E+00
  0.00000000E+00  0.00000000E+00  0.00000000E+00
  0.00000000E+00  0.00000000E+00  0.00000000E+00
  0.00000000E+00  0.00000000E+00  0.00000000E+00
  0.00000000E+00  0.00000000E+00  0.00000000E+00
  0.00000000E+00  0.00000000E+00  0.00000000E+00
  0.00000000E+00  0.00000000E+00  0.00000000E+00
  0.00000000E+00  0.00000000E+00  0.00000000E+00
  0.00000000E+00  0.00000000E+00  0.00000000E+00
  0.00000000E+00  0.00000000E+00  0.00000000E+00
  0.00000000E+00  0.00000000E+00  0.00000000E+00
  0.00000000E+00  0.00000000E+00  0.00000000E+00
  0.00000000E+00  0.00000000E+00  0.00000000E+00
  0.00000000E+00  0.00000000E+00  0.00000000E+00
  0.00000000E+00  0.00000000E+00  0.00000000E+00
  0.00000000E+00  0.00000000E+00  0.00000000E+00
  0.00000000E+00  0.00000000E+00  0.00000000E+00
  0.00000000E+00  0.00000000E+00  0.00000000E+00
  0.00000000E+00  0.00000000E+00  0.00000000E+00
  0.00000000E+00  0.00000000E+00  0.00000000E+00
  0.00000000E+00  0.00000000E+00  0.00000000E+00
  0.00000000E+00  0.00000000E+00  0.00000000E+00
  0.00000000E+00  0.00000000E+00  0.00000000E+00
  0.00000000E+00  0.00000000E+00  0.00000000E+00
  0.00000000E+00  0.00000000E+00  0.00000000E+00
  0.00000000E+00  0.00000000E+00  0.00000000E+00
  0.00000000E+00  0.00000000E+00  0.00000000E+00
  0.00000000E+00  0.00000000E+00  0.00000000E+00
  0.00000000E+00  0.00000000E+00  0.00000000E+00
  0.00000000E+00  0.00000000E+00  0.00000000E+00
  0.00000000E+00  0.00000000E+00  0.00000000E+00
  0.00000000E+00  0.00000000E+00  0.00000000E+00
  0.00000000E+00  0.00000000E+00  0.00000000E+00
  0.00000000E+00  0.00000000E+00  0.00000000E+00
  0.00000000E+00  0.00000000E+00  0.00000000E+00
  0.00000000E+00  0.00000000E+00  0.00000000E+00
  0.00000000E+00  0.00000000E+00  0.00000000E+00
  0.00000000E+00  0.00000000E+00  0.00000000E+00
  0.00000000E+00  0.00000000E+00  0.00000000E+00
  0.00000000E+00  0.00000000E+00  0.00000000E+00
  0.00000000E+00  0.00000000E+00  0.00000000E+00
  0.00000000E+00  0.00000000E+00  0.00000000E+00
  0.00000000E+00  0.00000000E+00  0.00000000E+00
  0.00000000E+00  0.00000000E+00  0.00000000E+00
  0.00000000E+00  0.00000000E+00  0.00000000E+00
  0.00000000E+00  0.00000000E+00  0.00000000E+00
  0.00000000E+00  0.00000000E+00  0.00000000E+00
  0.00000000E+00  0.00000000E+00  0.00000000E+00
