Species order: X N B                    
   2.51242800000000     
     5.9449720136058266    0.0000000000000000    0.0000000000000000
    -2.9724860068029120    5.1484967885702053   -0.0000000000000001
     0.0000000000000000    0.0000000000000009    5.3101128803662583
   In   N    B 
     1   144   143
Direct
  0.4444444444444429  0.3888888888888857  0.3750000000000000
  0.1110970630135941  0.0555443930143907  0.1254897000462968
  0.6111258134688371  0.5555753267307081  0.1256494506344106
  0.4444473300007965  0.0555443930143907  0.1254897000462968
  0.9444454627286671  0.5555533220013239  0.1256766972866122
  0.7777777777777786  0.0555555555555571  0.1256114911369972
  0.1111111111111143  0.7222222222222214  0.6243578205945928
  0.4444473300007965  0.7222362703197421  0.6245102999537037
  0.2777580066026281  0.2222075198644991  0.6243505493655895
  0.7777889403189451  0.7222362703197421  0.6245102999537037
  0.6111126957328213  0.2222206376005147  0.6245438240290159
  0.9444427036488268  0.2222213175017334  0.6243832515043207
  0.2777800113320104  0.7222254740606756  0.1256766972866122
  0.1111079418677009  0.2222206376005147  0.1254561759709827
  0.4444495132618712  0.2222075198644991  0.1256494506344106
  0.6111126957328213  0.7222253914656357  0.1254561759709827
  0.9444454627286671  0.7222254740606756  0.1256766972866122
  0.7777786138529081  0.2222213175017334  0.1256167484956799
  0.1111078592726584  0.8888878706046615  0.6243233027133881
  0.4444488412306439  0.8888910872819860  0.6243840185016156
  0.2777580066026281  0.3888838200714574  0.6243505493655895
  0.6111258134688371  0.3888838200714574  0.6243505493655895
  0.7777786138529081  0.8888906296845018  0.6243832515043207
  0.9444422460513426  0.3888844921026847  0.6243840185016156
  0.1110970630135941  0.3888860033325321  0.1254897000462968
  0.2777800113320104  0.8888878706046615  0.1256766972866122
  0.6111120158316027  0.8888906296845018  0.1256167484956799
  0.4444444444444429  0.3888888888888857  0.1309524814029763
  0.9444422460513426  0.8888910872819860  0.1256159814983842
  0.7777889403189451  0.3888860033325321  0.1254897000462968
  0.2777735806968154  0.5555597526365219  0.6243900348731967
  0.1110970630135941  0.0555443930143907  0.6245102999537037
  0.6111258134688371  0.5555753267307081  0.6243505493655895
  0.4444473300007965  0.0555443930143907  0.6245102999537037
  0.9444454627286671  0.5555533220013239  0.6243233027133881
  0.1111078592726584  0.5555533220013239  0.1256766972866122
  0.7777777777777786  0.0555555555555571  0.6243885088630019
  0.2777735806968154  0.0555471613936294  0.1256099651268030
  0.4444495132618712  0.5555753267307081  0.1256494506344106
  0.7777861719397049  0.5555597526365219  0.1256099651268030
  0.6111120158316027  0.0555547194804290  0.1256167484956799
  0.4444495132618712  0.5555753267307081  0.6243505493655895
  0.9444427036488268  0.0555547194804290  0.1256167484956799
  0.2777800113320104  0.7222254740606756  0.6243233027133881
  0.1111079418677009  0.2222206376005147  0.6245438240290159
  0.4444495132618712  0.2222075198644991  0.6243505493655895
  0.6111126957328213  0.7222253914656357  0.6245438240290159
  0.9444454627286671  0.7222254740606756  0.6243233027133881
  0.7777786138529081  0.2222213175017334  0.6243832515043207
  0.1111111111111143  0.7222222222222214  0.1256421794054071
  0.4444473300007965  0.7222362703197421  0.1254897000462968
  0.2777580066026281  0.2222075198644991  0.1256494506344106
  0.7777889403189451  0.7222362703197421  0.1254897000462968
  0.6111126957328213  0.2222206376005147  0.1254561759709827
  0.9444427036488268  0.2222213175017334  0.1256167484956799
  0.1110970630135941  0.3888860033325321  0.6245102999537037
  0.2777800113320104  0.8888878706046615  0.6243233027133881
  0.6111120158316027  0.8888906296845018  0.6243832515043207
  0.4444444444444429  0.3888888888888857  0.6190475185970229
  0.9444422460513426  0.8888910872819860  0.6243840185016156
  0.1111078592726584  0.8888878706046615  0.1256766972866122
  0.7777889403189451  0.3888860033325321  0.6245102999537037
  0.4444488412306439  0.8888910872819860  0.1256159814983842
  0.2777580066026281  0.3888838200714574  0.1256494506344106
  0.2777735806968154  0.5555597526365219  0.1256099651268030
  0.6111258134688371  0.3888838200714574  0.1256494506344106
  0.7777786138529081  0.8888906296845018  0.1256167484956799
  0.9444422460513426  0.3888844921026847  0.1256159814983842
  0.1111078592726584  0.5555533220013239  0.6243233027133881
  0.2777735806968154  0.0555471613936294  0.6243900348731967
  0.7777861719397049  0.5555597526365219  0.6243900348731967
  0.6111120158316027  0.0555547194804290  0.6243832515043207
  0.9444427036488268  0.0555547194804290  0.6243832515043207
  0.0539548672023818  0.1100907763320012  0.3750000000000000
  0.5562776017393678  0.6125552034787380  0.3750000000000000
  0.3872424785675435  0.1014801936376805  0.3750000000000000
  0.8921855028804377  0.6127594181068893  0.3750000000000000
  0.7225182564558854  0.1108150768774496  0.3750000000000000
  0.0555562053110408  0.7777771280222948  0.8750000000000000
  0.3888847271089069  0.7777766065868070  0.8750000000000000
  0.2222202523637495  0.2777767928485429  0.8750000000000000
  0.7222262539793523  0.7777809319987813  0.8750000000000000
  0.5555565404847932  0.2777767928485429  0.8750000000000000
  0.8888920996536346  0.2777841993072768  0.8750000000000000
  0.2215915696722864  0.7774624515028116  0.3750000000000000
  0.0539548672023818  0.2771974242037157  0.3750000000000000
  0.3725669985958946  0.2451339971917973  0.3750000000000000
  0.5561359091296185  0.7793784661309543  0.3750000000000000
  0.8915945323062618  0.7799798463660572  0.3750000000000000
  0.7232425570013348  0.2771974242037157  0.3750000000000000
  0.0555567267465297  0.9444414538554357  0.8750000000000000
  0.3888847271089069  0.9444414538554357  0.8750000000000000
  0.2222237597394642  0.4444450391857894  0.8750000000000000
  0.5555371599021826  0.4444352466177556  0.8750000000000000
  0.7222220801563095  0.9444441603126212  0.8750000000000000
  0.8888918794778929  0.4444486062244217  0.8750000000000000
  0.0533534869672786  0.4449480192735406  0.3750000000000000
  0.2205739152264455  0.9411478304528909  0.3750000000000000
  0.5560203077610072  0.9446768205471670  0.3750000000000000
  0.3725669985958946  0.4607663347374340  0.3750000000000000
  0.8886565127861616  0.9446768205471670  0.3750000000000000
  0.7318531396956554  0.4460908547657851  0.3750000000000000
  0.2222208836715380  0.6111124496617976  0.8750000000000000
  0.0555524013345549  0.1111070793539845  0.8750000000000000
  0.5555565404847932  0.6111130809695856  0.8750000000000000
  0.3888882941475392  0.1111120538870105  0.8750000000000000
  0.8888915659902510  0.6111124496617976  0.8750000000000000
  0.0558708818305246  0.6117417636610487  0.3750000000000000
  0.7222220801563095  0.1111112531770252  0.8750000000000000
  0.2142377150701295  0.1014801936376805  0.3750000000000000
  0.3872424785675435  0.6190956182632057  0.3750000000000000
  0.7318531396956556  0.6190956182632057  0.3750000000000000
  0.5561359091296185  0.1100907763320012  0.3750000000000000
  0.3888882941475392  0.6111095735938726  0.8750000000000000
  0.8882968204215549  0.1108150768774496  0.3750000000000000
  0.2222209227112545  0.7777771280222948  0.8750000000000000
  0.0555524013345549  0.2777786553139062  0.8750000000000000
  0.3888980867155730  0.2777961734311522  0.8750000000000000
  0.5555546780194301  0.7777809319987813  0.8750000000000000
  0.8888918794778929  0.7777766065868070  0.8750000000000000
  0.7222262539793523  0.2777786553139062  0.8750000000000000
  0.0558708818305246  0.7774624515028116  0.3750000000000000
  0.3883853140597880  0.7799798463660572  0.3750000000000000
  0.2207781298545982  0.2770557315939667  0.3750000000000000
  0.7232425570013348  0.7793784661309543  0.3750000000000000
  0.5562776017393678  0.2770557315939667  0.3750000000000000
  0.8886565127861616  0.2773130255723288  0.3750000000000000
  0.0555567267465297  0.4444486062244217  0.8750000000000000
  0.2222208836715380  0.9444417673430776  0.8750000000000000
  0.5555491340260595  0.9444412336796940  0.8750000000000000
  0.3888980867155730  0.4444352466177556  0.8750000000000000
  0.8888920996536346  0.9444412336796940  0.8750000000000000
  0.0533534869672786  0.9417388010270668  0.3750000000000000
  0.7222212794463247  0.4444450391857894  0.8750000000000000
  0.3883853140597880  0.9417388010270668  0.3750000000000000
  0.2142377150701296  0.4460908547657851  0.3750000000000000
  0.2205739152264455  0.6127594181068893  0.3750000000000000
  0.5881993361415393  0.4607663347374339  0.3750000000000000
  0.7225182564558854  0.9450365129117737  0.3750000000000000
  0.8915945323062618  0.4449480192735406  0.3750000000000000
  0.0555562053110408  0.6111124106220822  0.8750000000000000
  0.2222237597394642  0.1111120538870105  0.8750000000000000
  0.7222212794463247  0.6111095735938726  0.8750000000000000
  0.5555546780194301  0.1111070793539845  0.8750000000000000
  0.8888891730207074  0.1111112531770252  0.8750000000000000
  0.1059469821829983  0.0508490086243547  0.3750000000000000
  0.6229695942856998  0.5653887067170864  0.3750000000000000
  0.4449020264413564  0.0508490086243547  0.3750000000000000
  0.9458779203373544  0.5559615196748028  0.3750000000000000
  0.7777777777777786  0.0555555555555571  0.3750000000000000
  0.1111111111111143  0.7222222222222214  0.8750000000000000
  0.4444447102027607  0.7222202893237379  0.8750000000000000
  0.2777756628232285  0.2222225551611663  0.8750000000000000
  0.7777755791209775  0.7222202893237379  0.8750000000000000
  0.6111154280838168  0.2222179052495185  0.8750000000000000
  0.9444483105002508  0.2222247277817096  0.8750000000000000
  0.2773718136585330  0.7232497339958872  0.3750000000000000
  0.1096514302739353  0.2214923818036322  0.3750000000000000
  0.4424191124313858  0.2103637390476358  0.3750000000000000
  0.6118409515297033  0.7236819030594012  0.3750000000000000
  0.9458779203373544  0.7232497339958872  0.3750000000000000
  0.7779626232998926  0.2214933164039663  0.3750000000000000
  0.1111193872179364  0.8888872275391434  0.8750000000000000
  0.4444396793447511  0.8888865063390391  0.8750000000000000
  0.2777756628232285  0.3888864409953900  0.8750000000000000
  0.6111107781721692  0.3888864409953900  0.8750000000000000
  0.7777764172814580  0.8888850228330778  0.8750000000000000
  0.9444468269942895  0.3888936539885775  0.8750000000000000
  0.1059469821829983  0.3884313068919722  0.3750000000000000
  0.2773718136585331  0.8874554129959734  0.3750000000000000
  0.6118400169293695  0.8898026402292547  0.3750000000000000
  0.9441634510827080  0.8891698822506205  0.3750000000000000
  0.7824843247089813  0.3884313068919722  0.3750000000000000
  0.2777778486934967  0.5555554846398408  0.8750000000000000
  0.1111130440095980  0.0555577542123587  0.8750000000000000
  0.6111107781721692  0.5555576705101096  0.8750000000000000
  0.4444447102027607  0.0555577542123587  0.8750000000000000
  0.9444461057941852  0.5555654930121212  0.8750000000000000
  0.1100835993374485  0.5559615196748028  0.3750000000000000
  0.7777777777777786  0.0555555555555571  0.8750000000000000
  0.2753370951413853  0.0506741902827717  0.3750000000000000
  0.4424191124313858  0.5653887067170864  0.3750000000000000
  0.7826591430505652  0.5579962381919495  0.3750000000000000
  0.6118400169293695  0.0553707100334434  0.3750000000000000
  0.4444468923379385  0.5555576705101096  0.8750000000000000
  0.9435306931040739  0.0553707100334434  0.3750000000000000
  0.2777678403212139  0.7222139461153992  0.8750000000000000
  0.1111024771657078  0.2222179052495185  0.8750000000000000
  0.4444468923379385  0.2222225551611663  0.8750000000000000
  0.6111154280838168  0.7222308561676279  0.8750000000000000
  0.9444461057941852  0.7222139461153992  0.8750000000000000
  0.7777764172814580  0.2222247277817096  0.8750000000000000
  0.1111111111111143  0.7222222222222214  0.3750000000000000
  0.4449020264413564  0.7273863511503383  0.3750000000000000
  0.2679446266162500  0.2103637390476358  0.3750000000000000
  0.7824843247089813  0.7273863511503383  0.3750000000000000
  0.6118409515297033  0.2214923818036322  0.3750000000000000
  0.9435306931040739  0.2214933164039663  0.3750000000000000
  0.1111130440095980  0.3888886231305679  0.8750000000000000
  0.2777678403212139  0.8888872275391434  0.8750000000000000
  0.6111086055516255  0.8888850228330778  0.8750000000000000
  0.4444444444444429  0.3888888888888857  0.8750000000000000
  0.9444468269942895  0.8888865063390391  0.8750000000000000
  0.1100835993374485  0.8874554129959734  0.3750000000000000
  0.7777755791209775  0.3888886231305679  0.8750000000000000
  0.4450064311679112  0.8891698822506205  0.3750000000000000
  0.2679446266162500  0.3909142209019428  0.3750000000000000
  0.2753370951413853  0.5579962381919495  0.3750000000000000
  0.6229695942856998  0.3909142209019428  0.3750000000000000
  0.7779626232998926  0.8898026402292547  0.3750000000000000
  0.9441634510827080  0.3883269021654174  0.3750000000000000
  0.1111193872179364  0.5555654930121212  0.8750000000000000
  0.2777778486934967  0.0555556973869924  0.8750000000000000
  0.7777776359463423  0.5555554846398408  0.8750000000000000
  0.6111086055516255  0.0555569160518772  0.8750000000000000
  0.9444483105002508  0.0555569160518772  0.8750000000000000
  0.0555179796675832  0.1110797242979417  0.1256845527503130
  0.5556073272091450  0.6112146544182911  0.1256989230268333
  0.3888452194978487  0.1109887927230178  0.1256523852896335
  0.8889279218742597  0.6111306276038021  0.1257948931966191
  0.7222265156867177  0.1111068176466182  0.1257656564011959
  0.0555580761021914  0.7777752572311444  0.6242143402862911
  0.3888843308399750  0.7777969668102642  0.6242595826333752
  0.2221186789150441  0.2777260061241901  0.6243010769731674
  0.7222536090353954  0.7778153536657537  0.6243154472496872
  0.5556073272091450  0.2777260061241901  0.6243010769731674
  0.8888858237155977  0.2777716474312034  0.6242383777140250
  0.2222171811289531  0.7777752572311444  0.1257856597137081
  0.0555179796675832  0.2777715887029776  0.1256845527503130
  0.3886861574273830  0.2773723148547735  0.1271667785937655
  0.5555617446303583  0.7778153536657537  0.1256845527503130
  0.8889126359702817  0.7777969668102642  0.1257404173666244
  0.7222536090353954  0.2777715887029776  0.1256845527503130
  0.0555363665230719  0.9444206973630469  0.6242595826333752
  0.3888843308399750  0.9444206973630469  0.6242595826333752
  0.2221435732251620  0.4444881138354799  0.6243476147103660
  0.5559610184785626  0.4446471759059456  0.6228332214062349
  0.7222265156867177  0.9444530313734353  0.6242343435988047
  0.8889126359702817  0.4444490024933536  0.6242595826333752
  0.0555363665230719  0.4444490024933536  0.1257404173666244
  0.2222027057295344  0.9444054114590689  0.1257948931966191
  0.5555616859021320  0.9444475096177309  0.1257616222859741
  0.3886861574273830  0.4446471759059456  0.1271667785937655
  0.8888858237155977  0.9444475096177309  0.1257616222859741
  0.7223445406103174  0.4444881138354799  0.1256523852896335
  0.2222027057295344  0.6111306276038021  0.6242051068033811
  0.0555179796675832  0.1110797242979417  0.6243154472496872
  0.5556073272091450  0.6112146544182911  0.6243010769731674
  0.3888452194978487  0.1109887927230178  0.6243476147103660
  0.8889279218742597  0.6111306276038021  0.6242051068033811
  0.0555580761021914  0.6111161522043823  0.1257856597137081
  0.7222265156867177  0.1111068176466182  0.6242343435988047
  0.2221435732251620  0.1109887927230178  0.1256523852896335
  0.3888452194978487  0.6111897601081731  0.1256523852896335
  0.7223445406103174  0.6111897601081731  0.1256523852896335
  0.5555617446303583  0.1110797242979417  0.1256845527503130
  0.3888452194978487  0.6111897601081731  0.6243476147103660
  0.8888803019598933  0.1111068176466182  0.1257656564011959
  0.2222171811289531  0.7777752572311444  0.6242143402862911
  0.0555179796675832  0.2777715887029776  0.6243154472496872
  0.3886861574273830  0.2773723148547735  0.6228332214062349
  0.5555617446303583  0.7778153536657537  0.6243154472496872
  0.8889126359702817  0.7777969668102642  0.6242595826333752
  0.7222536090353954  0.2777715887029776  0.6243154472496872
  0.0555580761021914  0.7777752572311444  0.1257856597137081
  0.3888843308399750  0.7777969668102642  0.1257404173666244
  0.2221186789150441  0.2777260061241901  0.1256989230268333
  0.7222536090353954  0.7778153536657537  0.1256845527503130
  0.5556073272091450  0.2777260061241901  0.1256989230268333
  0.8888858237155977  0.2777716474312034  0.1257616222859741
  0.0555363665230719  0.4444490024933536  0.6242595826333752
  0.2222027057295344  0.9444054114590689  0.6242051068033811
  0.5555616859021320  0.9444475096177309  0.6242383777140250
  0.3886861574273830  0.4446471759059456  0.6228332214062349
  0.8888858237155977  0.9444475096177309  0.6242383777140250
  0.0555363665230719  0.9444206973630469  0.1257404173666244
  0.7223445406103174  0.4444881138354799  0.6243476147103660
  0.3888843308399750  0.9444206973630469  0.1257404173666244
  0.2221435732251620  0.4444881138354799  0.1256523852896335
  0.2222027057295344  0.6111306276038021  0.1257948931966191
  0.5559610184785626  0.4446471759059456  0.1271667785937655
  0.7222265156867177  0.9444530313734353  0.1257656564011959
  0.8889126359702817  0.4444490024933536  0.1257404173666244
  0.0555580761021914  0.6111161522043823  0.6242143402862911
  0.2221435732251620  0.1109887927230178  0.6243476147103660
  0.7223445406103174  0.6111897601081731  0.6243476147103660
  0.5555617446303583  0.1110797242979417  0.6243154472496872
  0.8888803019598933  0.1111068176466182  0.6242343435988047
 
  0.00000000E+00  0.00000000E+00  0.00000000E+00
  0.00000000E+00  0.00000000E+00  0.00000000E+00
  0.00000000E+00  0.00000000E+00  0.00000000E+00
  0.00000000E+00  0.00000000E+00  0.00000000E+00
  0.00000000E+00  0.00000000E+00  0.00000000E+00
  0.00000000E+00  0.00000000E+00  0.00000000E+00
  0.00000000E+00  0.00000000E+00  0.00000000E+00
  0.00000000E+00  0.00000000E+00  0.00000000E+00
  0.00000000E+00  0.00000000E+00  0.00000000E+00
  0.00000000E+00  0.00000000E+00  0.00000000E+00
  0.00000000E+00  0.00000000E+00  0.00000000E+00
  0.00000000E+00  0.00000000E+00  0.00000000E+00
  0.00000000E+00  0.00000000E+00  0.00000000E+00
  0.00000000E+00  0.00000000E+00  0.00000000E+00
  0.00000000E+00  0.00000000E+00  0.00000000E+00
  0.00000000E+00  0.00000000E+00  0.00000000E+00
  0.00000000E+00  0.00000000E+00  0.00000000E+00
  0.00000000E+00  0.00000000E+00  0.00000000E+00
  0.00000000E+00  0.00000000E+00  0.00000000E+00
  0.00000000E+00  0.00000000E+00  0.00000000E+00
  0.00000000E+00  0.00000000E+00  0.00000000E+00
  0.00000000E+00  0.00000000E+00  0.00000000E+00
  0.00000000E+00  0.00000000E+00  0.00000000E+00
  0.00000000E+00  0.00000000E+00  0.00000000E+00
  0.00000000E+00  0.00000000E+00  0.00000000E+00
  0.00000000E+00  0.00000000E+00  0.00000000E+00
  0.00000000E+00  0.00000000E+00  0.00000000E+00
  0.00000000E+00  0.00000000E+00  0.00000000E+00
  0.00000000E+00  0.00000000E+00  0.00000000E+00
  0.00000000E+00  0.00000000E+00  0.00000000E+00
  0.00000000E+00  0.00000000E+00  0.00000000E+00
  0.00000000E+00  0.00000000E+00  0.00000000E+00
  0.00000000E+00  0.00000000E+00  0.00000000E+00
  0.00000000E+00  0.00000000E+00  0.00000000E+00
  0.00000000E+00  0.00000000E+00  0.00000000E+00
  0.00000000E+00  0.00000000E+00  0.00000000E+00
  0.00000000E+00  0.00000000E+00  0.00000000E+00
  0.00000000E+00  0.00000000E+00  0.00000000E+00
  0.00000000E+00  0.00000000E+00  0.00000000E+00
  0.00000000E+00  0.00000000E+00  0.00000000E+00
  0.00000000E+00  0.00000000E+00  0.00000000E+00
  0.00000000E+00  0.00000000E+00  0.00000000E+00
  0.00000000E+00  0.00000000E+00  0.00000000E+00
  0.00000000E+00  0.00000000E+00  0.00000000E+00
  0.00000000E+00  0.00000000E+00  0.00000000E+00
  0.00000000E+00  0.00000000E+00  0.00000000E+00
  0.00000000E+00  0.00000000E+00  0.00000000E+00
  0.00000000E+00  0.00000000E+00  0.00000000E+00
  0.00000000E+00  0.00000000E+00  0.00000000E+00
  0.00000000E+00  0.00000000E+00  0.00000000E+00
  0.00000000E+00  0.00000000E+00  0.00000000E+00
  0.00000000E+00  0.00000000E+00  0.00000000E+00
  0.00000000E+00  0.00000000E+00  0.00000000E+00
  0.00000000E+00  0.00000000E+00  0.00000000E+00
  0.00000000E+00  0.00000000E+00  0.00000000E+00
  0.00000000E+00  0.00000000E+00  0.00000000E+00
  0.00000000E+00  0.00000000E+00  0.00000000E+00
  0.00000000E+00  0.00000000E+00  0.00000000E+00
  0.00000000E+00  0.00000000E+00  0.00000000E+00
  0.00000000E+00  0.00000000E+00  0.00000000E+00
  0.00000000E+00  0.00000000E+00  0.00000000E+00
  0.00000000E+00  0.00000000E+00  0.00000000E+00
  0.00000000E+00  0.00000000E+00  0.00000000E+00
  0.00000000E+00  0.00000000E+00  0.00000000E+00
  0.00000000E+00  0.00000000E+00  0.00000000E+00
  0.00000000E+00  0.00000000E+00  0.00000000E+00
  0.00000000E+00  0.00000000E+00  0.00000000E+00
  0.00000000E+00  0.00000000E+00  0.00000000E+00
  0.00000000E+00  0.00000000E+00  0.00000000E+00
  0.00000000E+00  0.00000000E+00  0.00000000E+00
  0.00000000E+00  0.00000000E+00  0.00000000E+00
  0.00000000E+00  0.00000000E+00  0.00000000E+00
  0.00000000E+00  0.00000000E+00  0.00000000E+00
  0.00000000E+00  0.00000000E+00  0.00000000E+00
  0.00000000E+00  0.00000000E+00  0.00000000E+00
  0.00000000E+00  0.00000000E+00  0.00000000E+00
  0.00000000E+00  0.00000000E+00  0.00000000E+00
  0.00000000E+00  0.00000000E+00  0.00000000E+00
  0.00000000E+00  0.00000000E+00  0.00000000E+00
  0.00000000E+00  0.00000000E+00  0.00000000E+00
  0.00000000E+00  0.00000000E+00  0.00000000E+00
  0.00000000E+00  0.00000000E+00  0.00000000E+00
  0.00000000E+00  0.00000000E+00  0.00000000E+00
  0.00000000E+00  0.00000000E+00  0.00000000E+00
  0.00000000E+00  0.00000000E+00  0.00000000E+00
  0.00000000E+00  0.00000000E+00  0.00000000E+00
  0.00000000E+00  0.00000000E+00  0.00000000E+00
  0.00000000E+00  0.00000000E+00  0.00000000E+00
  0.00000000E+00  0.00000000E+00  0.00000000E+00
  0.00000000E+00  0.00000000E+00  0.00000000E+00
  0.00000000E+00  0.00000000E+00  0.00000000E+00
  0.00000000E+00  0.00000000E+00  0.00000000E+00
  0.00000000E+00  0.00000000E+00  0.00000000E+00
  0.00000000E+00  0.00000000E+00  0.00000000E+00
  0.00000000E+00  0.00000000E+00  0.00000000E+00
  0.00000000E+00  0.00000000E+00  0.00000000E+00
  0.00000000E+00  0.00000000E+00  0.00000000E+00
  0.00000000E+00  0.00000000E+00  0.00000000E+00
  0.00000000E+00  0.00000000E+00  0.00000000E+00
  0.00000000E+00  0.00000000E+00  0.00000000E+00
  0.00000000E+00  0.00000000E+00  0.00000000E+00
  0.00000000E+00  0.00000000E+00  0.00000000E+00
  0.00000000E+00  0.00000000E+00  0.00000000E+00
  0.00000000E+00  0.00000000E+00  0.00000000E+00
  0.00000000E+00  0.00000000E+00  0.00000000E+00
  0.00000000E+00  0.00000000E+00  0.00000000E+00
  0.00000000E+00  0.00000000E+00  0.00000000E+00
  0.00000000E+00  0.00000000E+00  0.00000000E+00
  0.00000000E+00  0.00000000E+00  0.00000000E+00
  0.00000000E+00  0.00000000E+00  0.00000000E+00
  0.00000000E+00  0.00000000E+00  0.00000000E+00
  0.00000000E+00  0.00000000E+00  0.00000000E+00
  0.00000000E+00  0.00000000E+00  0.00000000E+00
  0.00000000E+00  0.00000000E+00  0.00000000E+00
  0.00000000E+00  0.00000000E+00  0.00000000E+00
  0.00000000E+00  0.00000000E+00  0.00000000E+00
  0.00000000E+00  0.00000000E+00  0.00000000E+00
  0.00000000E+00  0.00000000E+00  0.00000000E+00
  0.00000000E+00  0.00000000E+00  0.00000000E+00
  0.00000000E+00  0.00000000E+00  0.00000000E+00
  0.00000000E+00  0.00000000E+00  0.00000000E+00
  0.00000000E+00  0.00000000E+00  0.00000000E+00
  0.00000000E+00  0.00000000E+00  0.00000000E+00
  0.00000000E+00  0.00000000E+00  0.00000000E+00
  0.00000000E+00  0.00000000E+00  0.00000000E+00
  0.00000000E+00  0.00000000E+00  0.00000000E+00
  0.00000000E+00  0.00000000E+00  0.00000000E+00
  0.00000000E+00  0.00000000E+00  0.00000000E+00
  0.00000000E+00  0.00000000E+00  0.00000000E+00
  0.00000000E+00  0.00000000E+00  0.00000000E+00
  0.00000000E+00  0.00000000E+00  0.00000000E+00
  0.00000000E+00  0.00000000E+00  0.00000000E+00
  0.00000000E+00  0.00000000E+00  0.00000000E+00
  0.00000000E+00  0.00000000E+00  0.00000000E+00
  0.00000000E+00  0.00000000E+00  0.00000000E+00
  0.00000000E+00  0.00000000E+00  0.00000000E+00
  0.00000000E+00  0.00000000E+00  0.00000000E+00
  0.00000000E+00  0.00000000E+00  0.00000000E+00
  0.00000000E+00  0.00000000E+00  0.00000000E+00
  0.00000000E+00  0.00000000E+00  0.00000000E+00
  0.00000000E+00  0.00000000E+00  0.00000000E+00
  0.00000000E+00  0.00000000E+00  0.00000000E+00
  0.00000000E+00  0.00000000E+00  0.00000000E+00
  0.00000000E+00  0.00000000E+00  0.00000000E+00
  0.00000000E+00  0.00000000E+00  0.00000000E+00
  0.00000000E+00  0.00000000E+00  0.00000000E+00
  0.00000000E+00  0.00000000E+00  0.00000000E+00
  0.00000000E+00  0.00000000E+00  0.00000000E+00
  0.00000000E+00  0.00000000E+00  0.00000000E+00
  0.00000000E+00  0.00000000E+00  0.00000000E+00
  0.00000000E+00  0.00000000E+00  0.00000000E+00
  0.00000000E+00  0.00000000E+00  0.00000000E+00
  0.00000000E+00  0.00000000E+00  0.00000000E+00
  0.00000000E+00  0.00000000E+00  0.00000000E+00
  0.00000000E+00  0.00000000E+00  0.00000000E+00
  0.00000000E+00  0.00000000E+00  0.00000000E+00
  0.00000000E+00  0.00000000E+00  0.00000000E+00
  0.00000000E+00  0.00000000E+00  0.00000000E+00
  0.00000000E+00  0.00000000E+00  0.00000000E+00
  0.00000000E+00  0.00000000E+00  0.00000000E+00
  0.00000000E+00  0.00000000E+00  0.00000000E+00
  0.00000000E+00  0.00000000E+00  0.00000000E+00
  0.00000000E+00  0.00000000E+00  0.00000000E+00
  0.00000000E+00  0.00000000E+00  0.00000000E+00
  0.00000000E+00  0.00000000E+00  0.00000000E+00
  0.00000000E+00  0.00000000E+00  0.00000000E+00
  0.00000000E+00  0.00000000E+00  0.00000000E+00
  0.00000000E+00  0.00000000E+00  0.00000000E+00
  0.00000000E+00  0.00000000E+00  0.00000000E+00
  0.00000000E+00  0.00000000E+00  0.00000000E+00
  0.00000000E+00  0.00000000E+00  0.00000000E+00
  0.00000000E+00  0.00000000E+00  0.00000000E+00
  0.00000000E+00  0.00000000E+00  0.00000000E+00
  0.00000000E+00  0.00000000E+00  0.00000000E+00
  0.00000000E+00  0.00000000E+00  0.00000000E+00
  0.00000000E+00  0.00000000E+00  0.00000000E+00
  0.00000000E+00  0.00000000E+00  0.00000000E+00
  0.00000000E+00  0.00000000E+00  0.00000000E+00
  0.00000000E+00  0.00000000E+00  0.00000000E+00
  0.00000000E+00  0.00000000E+00  0.00000000E+00
  0.00000000E+00  0.00000000E+00  0.00000000E+00
  0.00000000E+00  0.00000000E+00  0.00000000E+00
  0.00000000E+00  0.00000000E+00  0.00000000E+00
  0.00000000E+00  0.00000000E+00  0.00000000E+00
  0.00000000E+00  0.00000000E+00  0.00000000E+00
  0.00000000E+00  0.00000000E+00  0.00000000E+00
  0.00000000E+00  0.00000000E+00  0.00000000E+00
  0.00000000E+00  0.00000000E+00  0.00000000E+00
  0.00000000E+00  0.00000000E+00  0.00000000E+00
  0.00000000E+00  0.00000000E+00  0.00000000E+00
  0.00000000E+00  0.00000000E+00  0.00000000E+00
  0.00000000E+00  0.00000000E+00  0.00000000E+00
  0.00000000E+00  0.00000000E+00  0.00000000E+00
  0.00000000E+00  0.00000000E+00  0.00000000E+00
  0.00000000E+00  0.00000000E+00  0.00000000E+00
  0.00000000E+00  0.00000000E+00  0.00000000E+00
  0.00000000E+00  0.00000000E+00  0.00000000E+00
  0.00000000E+00  0.00000000E+00  0.00000000E+00
  0.00000000E+00  0.00000000E+00  0.00000000E+00
  0.00000000E+00  0.00000000E+00  0.00000000E+00
  0.00000000E+00  0.00000000E+00  0.00000000E+00
  0.00000000E+00  0.00000000E+00  0.00000000E+00
  0.00000000E+00  0.00000000E+00  0.00000000E+00
  0.00000000E+00  0.00000000E+00  0.00000000E+00
  0.00000000E+00  0.00000000E+00  0.00000000E+00
  0.00000000E+00  0.00000000E+00  0.00000000E+00
  0.00000000E+00  0.00000000E+00  0.00000000E+00
  0.00000000E+00  0.00000000E+00  0.00000000E+00
  0.00000000E+00  0.00000000E+00  0.00000000E+00
  0.00000000E+00  0.00000000E+00  0.00000000E+00
  0.00000000E+00  0.00000000E+00  0.00000000E+00
  0.00000000E+00  0.00000000E+00  0.00000000E+00
  0.00000000E+00  0.00000000E+00  0.00000000E+00
  0.00000000E+00  0.00000000E+00  0.00000000E+00
  0.00000000E+00  0.00000000E+00  0.00000000E+00
  0.00000000E+00  0.00000000E+00  0.00000000E+00
  0.00000000E+00  0.00000000E+00  0.00000000E+00
  0.00000000E+00  0.00000000E+00  0.00000000E+00
  0.00000000E+00  0.00000000E+00  0.00000000E+00
  0.00000000E+00  0.00000000E+00  0.00000000E+00
  0.00000000E+00  0.00000000E+00  0.00000000E+00
  0.00000000E+00  0.00000000E+00  0.00000000E+00
  0.00000000E+00  0.00000000E+00  0.00000000E+00
  0.00000000E+00  0.00000000E+00  0.00000000E+00
  0.00000000E+00  0.00000000E+00  0.00000000E+00
  0.00000000E+00  0.00000000E+00  0.00000000E+00
  0.00000000E+00  0.00000000E+00  0.00000000E+00
  0.00000000E+00  0.00000000E+00  0.00000000E+00
  0.00000000E+00  0.00000000E+00  0.00000000E+00
  0.00000000E+00  0.00000000E+00  0.00000000E+00
  0.00000000E+00  0.00000000E+00  0.00000000E+00
  0.00000000E+00  0.00000000E+00  0.00000000E+00
  0.00000000E+00  0.00000000E+00  0.00000000E+00
  0.00000000E+00  0.00000000E+00  0.00000000E+00
  0.00000000E+00  0.00000000E+00  0.00000000E+00
  0.00000000E+00  0.00000000E+00  0.00000000E+00
  0.00000000E+00  0.00000000E+00  0.00000000E+00
  0.00000000E+00  0.00000000E+00  0.00000000E+00
  0.00000000E+00  0.00000000E+00  0.00000000E+00
  0.00000000E+00  0.00000000E+00  0.00000000E+00
  0.00000000E+00  0.00000000E+00  0.00000000E+00
  0.00000000E+00  0.00000000E+00  0.00000000E+00
  0.00000000E+00  0.00000000E+00  0.00000000E+00
  0.00000000E+00  0.00000000E+00  0.00000000E+00
  0.00000000E+00  0.00000000E+00  0.00000000E+00
  0.00000000E+00  0.00000000E+00  0.00000000E+00
  0.00000000E+00  0.00000000E+00  0.00000000E+00