 N B In 
 1.0
 14.936314146199660   0.000000000000000   0.000000000000000
 -7.468157073099825  12.935227489513863   0.000000000000000
  0.000000000000001   0.000000000000001  13.341276283792837
 N B In 
 144 143   1
Cartesian
  1.244566382329718   0.718479359408112   1.674192759087939 
  4.978843326858682   7.186493238822700   1.676324035820466 
  6.223590690770112   0.718479359408112   1.674192759087939 
  9.957574654079981   7.186208602642274   1.676687540935288 
 11.202235609649751   0.718623749417456   1.675817607677872 
 -3.734078536549858   9.342108742426664   8.329730184499226 
  1.244631031693955   9.342290457763893   8.331764453756701 
  2.489200182067024   2.874304819327966   8.329633177024174 
  6.223526041405884   9.342290457763893   8.331764453756701 
  7.468192575711305   2.874474500227481   8.332211707707598 
 12.446909210690899   2.874483294904406   8.330069465292055 
 -1.244683769689309   9.342150805696839   1.676687540935288 
 -0.000035502611367   2.874474500227480   1.673745505137016 
  4.978956891032809   2.874304819327965   1.676324035820466 
  3.734078536549963   9.342149737311207   1.673745505137016 
  8.712840842789159   9.342150805696839   1.676687540935288 
  9.957562008608624   2.874483294904405   1.675887747552585 
 -4.978812347840678  11.497966818940853   8.329269671909339 
  0.000049253834958  11.498008427393811   8.330079698014877 
  1.244435391758321   5.030300679615475   8.329633177024174 
  6.223721681341634   5.030300679615475   8.329633177024174 
  4.978770869412283  11.498002508266259   8.330069465292055 
 11.202235609649755   5.030309372492288   8.330079698014877 
 -1.244881122526192   5.030328920594147   1.674192759087939 
 -2.489344725259038  11.497966818940853   1.676687540935288 
  2.489386203687692  11.498002508266259   1.675887747552585 
  3.734078536549917   5.030366245922020   1.747073234445346 
  7.468107819264898  11.498008427393811   1.675877514829750 
  8.713038195626130   5.030328920594147   1.674192759087939 
 -0.000094033379659   7.186291784371463   8.330159964090365 
  1.244566382329719   0.718479359408113   8.331764453756701 
  4.978843326858683   7.186493238822701   8.329633177024174 
  6.223590690770113   0.718479359408113   8.331764453756701 
  9.957574654079981   7.186208602642274   8.329269671909339 
 -2.489417580980130   7.186208602642274   1.676687540935288 
 11.202235609649751   0.718623749417456   8.330139605166742 
  3.734078536549923   0.718515169023333   1.675797248754262 
  2.489313746241154   7.186493238822700   1.676324035820466 
  7.468251106479467   7.186291784371462   1.675797248754262 
  8.712869675746321   0.718612934595477   1.675887747552585 
  2.489313746241155   7.186493238822701   8.329633177024174 
 13.691601543553185   0.718612934595477   1.675887747552585 
 -1.244683769689308   9.342150805696839   8.329269671909339 
 -0.000035502611367   2.874474500227481   8.332211707707598 
  4.978956891032810   2.874304819327966   8.329633177024174 
  3.734078536549963   9.342149737311207   8.332211707707598 
  8.712840842789159   9.342150805696839   8.329269671909339 
  9.957562008608624   2.874483294904406   8.330069465292055 
 -3.734078536549859   9.342108742426664   1.676227028345401 
  1.244631031693954   9.342290457763893   1.674192759087939 
  2.489200182067024   2.874304819327965   1.676324035820466 
  6.223526041405883   9.342290457763893   1.674192759087939 
  7.468192575711304   2.874474500227480   1.673745505137016 
 12.446909210690899   2.874483294904405   1.675887747552585 
 -1.244881122526191   5.030328920594148   8.331764453756701 
 -2.489344725259037  11.497966818940853   8.329269671909339 
  2.489386203687693  11.498002508266259   8.330069465292055 
  3.734078536549917   5.030366245922021   8.258883978399268 
  7.468107819264898  11.498008427393811   8.330079698014877 
 -4.978812347840678  11.497966818940853   1.676687540935288 
  8.713038195626130   5.030328920594148   8.331764453756701 
  0.000049253834957  11.498008427393811   1.675877514829750 
  1.244435391758321   5.030300679615474   1.676324035820466 
 -0.000094033379660   7.186291784371462   1.675797248754262 
  6.223721681341633   5.030300679615474   1.676324035820466 
  4.978770869412282  11.498002508266259   1.675887747552585 
 11.202235609649755   5.030309372492288   1.675877514829750 
 -2.489417580980129   7.186208602642274   8.329269671909339 
  3.734078536549923   0.718515169023334   8.330159964090365 
  7.468251106479467   7.186291784371463   8.330159964090365 
  8.712869675746321   0.718612934595477   8.330069465292055 
 13.691601543553185   0.718612934595477   8.330069465292055 
 -0.016288363695621   1.424049236351622   5.002978606422314 
  3.734078536549904   7.923540906882931   5.002978606422314 
  5.026105284743039   1.312669390383322   5.002978606422314 
  8.749779365263846   7.926182469554751   5.002978606422314 
  9.964175254601118   1.433418228677784   5.002978606422314 
 -4.978756824638495  10.060724087109136  11.673616748318732 
 -0.000053415015080  10.060717342222478  11.673616748318732 
  1.244670778697907   3.593106006803473  11.673616748318732 
  4.978808045439716  10.060773292410346  11.673616748318732 
  6.223486294401927   3.593106006803473  11.673616748318732 
 11.202235609649694   3.593201811032089  11.673616748318732 
 -2.496450409485502  10.056653674744013   5.002978606422314 
 -1.264267057960772   3.585611741582343   5.002978606422314 
  3.734078536549864   3.170864019089747   5.002978606422314 
  2.486099842284761  10.081437759832266   5.002978606422314 
  7.492124019046306  10.089216749981020   5.002978606422314 
  8.732424131060620   3.585611741582343   5.002978606422314 
 -6.223424400118410  12.216565056147276  11.673616748318732 
 -1.244732672981393  12.216565056147276  11.673616748318732 
  0.000018523218753   5.748997688454085  11.673616748318732 
  4.978565309623300   5.748871019358872  11.673616748318732 
  3.734078536549912  12.216600064786656  11.673616748318732 
  9.957556351683381   5.749043828910267  11.673616748318732 
 -2.526037255161003   5.755503850311853   5.002978606422314 
 -3.734078536549901  12.173961288170569   5.002978606422314 
  1.249899109222238  12.219609577848269   5.002978606422314 
  2.123702369719366   5.960117359338204   5.002978606422314 
  6.218257963877631  12.219609577848269   5.002978606422314 
  7.599711831112604   5.770286687387120   5.002978606422314 
 -1.244722835036934   7.904878558049448  11.673616748318732 
 -0.000017002640251   1.437195347139266  11.673616748318732 
  3.734078536549919   7.904886724159302  11.673616748318732 
  4.978755458024420   1.437259693855599  11.673616748318732 
  8.712879908136637   7.904878558049448  11.673616748318732 
 -3.734078536549904   7.913018877792095   5.002978606422314 
  9.957539581221452   1.437249336489790  11.673616748318732 
  2.442051788356688   1.312669390383322   5.002978606422314 
  1.160471990180356   8.008142659995803   5.002978606422314 
  6.307685082919392   8.008142659995803   5.002978606422314 
  7.484445436795452   1.424049236351622   5.002978606422314 
  1.244695444693241   7.904841355456562  11.673616748318732 
 12.440295964698221   1.433418228677784   5.002978606422314 
 -2.489400248461325  10.060724087109136  11.673616748318732 
 -1.244746511530030   3.593130098216634  11.673616748318732 
  3.734078536549872   3.593356699048399  11.673616748318732 
  2.489349027660141  10.060773292410346  11.673616748318732 
  7.468210488114816  10.060717342222478  11.673616748318732 
  8.712903584629879   3.593130098216634  11.673616748318732 
 -4.971706663614335  10.056653674744013   5.002978606422314 
 -0.023966945946574  10.089216749981020   5.002978606422314 
  1.228515782572406   3.583778915441657   5.002978606422314 
  4.982057230815078  10.081437759832266   5.002978606422314 
  6.239641290527413   3.583778915441657   5.002978606422314 
 11.202235609649708   3.587107071583452   5.002978606422314 
 -2.489399278583530   5.749043828910267  11.673616748318732 
 -3.734078536549925  12.216569111181242  11.673616748318732 
  1.244620910030280  12.216562208123966  11.673616748318732 
  2.489591763476536   5.748871019358872  11.673616748318732 
  6.223536163069577  12.216562208123966  11.673616748318732 
 -6.236148845764390  12.181605626987142   5.002978606422314 
  7.468138549881083   5.748997688454085  11.673616748318732 
 -1.232008227335429  12.181605626987142   5.002978606422314 
 -0.131554758012769   5.770286687387120   5.002978606422314 
 -1.281622292164086   7.926182469554751   5.002978606422314 
  5.344454703380467   5.960117359338204   5.002978606422314 
  3.734078536549890  12.224262280410702   5.002978606422314 
  9.994194328260837   5.755503850311853   5.002978606422314 
 -3.734078536549911   7.904878053061839  11.673616748318732 
  2.489401615075309   1.437259693855599  11.673616748318732 
  6.223461628406461   7.904841355456562  11.673616748318732 
  7.468174075740084   1.437195347139266  11.673616748318732 
 12.446931638077919   1.437249336489790  11.673616748318732 
  1.202709025308986   0.657743494172285   5.002978606422314 
  5.082457894661795   7.313431541387543   5.002978606422314 
  6.265448047790831   0.657743494172285   5.002978606422314 
  9.975921806582029   7.191488732409415   5.002978606422314 
 11.202235609649751   0.718623749417456   5.002978606422314 
 -3.734078536549858   9.342108742426666  11.673616748318732 
  1.244711250155832   9.342083739945075  11.673616748318732 
  2.489351614967406   2.874499304310727  11.673616748318732 
  6.223445822944019   9.342083739945075  11.673616748318732 
  7.468253792590556   2.874439156645767  11.673616748318732 
 12.446967487878608   2.874527407651712  11.673616748318732 
 -1.258430072453948   9.355399840967188   5.002978606422314 
 -0.016351688652920   2.865054345824241   5.002978606422314 
  5.037081401865680   2.721102820125902   5.002978606422314 
  3.734078536549956   9.360990046117671   5.002978606422314 
  8.726587145553786   9.355399840967188   5.002978606422314 
  9.965747258062173   2.865066435092174   5.002978606422314 
 -4.978635360314247  11.497958500742088  11.673616748318732 
 -0.000053379769440  11.497949171854678  11.673616748318732 
  1.244679537144244   5.030334581862781  11.673616748318732 
  6.223477535955712   5.030334581862781  11.673616748318732 
  4.978779933578180  11.497929982367591  11.673616748318732 
 11.202235609649762   5.030427883570548  11.673616748318732 
 -1.318408603251613   5.024447318696833   5.002978606422314 
 -2.484743875521600  11.479437653903389   5.002978606422314 
  2.493448818782179  11.509799572135474   5.002978606422314 
  7.461861565414029  11.501614703736038   5.002978606422314 
  8.786565676351552   5.024447318696833   5.002978606422314 
  0.000001588829159   7.186236576863468  11.673616748318732 
  1.244705295981294   0.718652189543362  11.673616748318732 
  4.978750614373111   7.186264851592661  11.673616748318732 
  6.223451777118537   0.718652189543362  11.673616748318732 
  9.957493364088203   7.186366037435711  11.673616748318732 
 -2.507764733482192   7.191488732409415   5.002978606422314 
 11.202235609649751   0.718623749417457  11.673616748318732 
  3.734078536549901   0.655482179154569   5.002978606422314 
  2.385699178438041   7.313431541387543   5.002978606422314 
  7.522839276982353   7.217808279305838   5.002978606422314 
  8.725117540294372   0.716232730538494   5.002978606422314 
  2.489406458726681   7.186264851592661  11.673616748318732 
 13.679353679005134   0.716232730538494   5.002978606422314 
 -1.244779467223976   9.342001689102196  11.673616748318732 
 -0.000096719490632   2.874439156645767  11.673616748318732 
  4.978805458132443   2.874499304310727  11.673616748318732 
  3.734078536549964   9.342220424474638  11.673616748318732 
  8.712936540323813   9.342001689102196  11.673616748318732 
  9.957503731420870   2.874527407651712  11.673616748318732 
 -3.734078536549858   9.342108742426664   5.002978606422314 
  1.212960907989252   9.408907924897036   5.002978606422314 
  2.431075671234153   2.721102820125902   5.002978606422314 
  6.255196165110571   9.408907924897036   5.002978606422314 
  7.484508761752842   2.865054345824241   5.002978606422314 
 12.438723961237335   2.865066435092174   5.002978606422314 
 -1.244661990412739   5.030362808277721  11.673616748318732 
 -2.489521712785466  11.497958500742088  11.673616748318732 
  2.489377139521735  11.497929982367591  11.673616748318732 
  3.734078536549918   5.030366245922021  11.673616748318732 
  7.468210452869311  11.497949171854678  11.673616748318732 
 -4.983413197578087  11.479437653903389   5.002978606422314 
  8.712819063512692   5.030362808277721  11.673616748318732 
  0.006295507685781  11.501614703736038   5.002978606422314 
  1.082696313122329   5.056564376252709   5.002978606422314 
 -0.054682203882515   7.217808279305838   5.002978606422314 
  6.385460759977610   5.056564376252709   5.002978606422314 
  4.974708254317779  11.509799572135474   5.002978606422314 
 11.202235609649740   5.023096819807863   5.002978606422314 
 -2.489336290988367   7.186366037435711  11.673616748318732 
  3.734078536549930   0.718625584039334  11.673616748318732 
  7.468155484270649   7.186236576863468  11.673616748318732 
  8.712802334392647   0.718641347746855  11.673616748318732 
 13.691668884906830   0.718641347746855  11.673616748318732 
 -0.000326843616309   1.436841503266361   1.676792342846861 
  3.734078536549910   7.906200599825194   1.676984060676188 
  4.979032615258617   1.435665282658739   1.676363187866581 
  8.713287175315106   7.905113693864560   1.678264425226306 
  9.957638956934813   1.437191961894937   1.677874369060915 
 -4.978714910552011  10.060699888000011   8.327815974064885 
 -0.000211387159155  10.060980706344630   8.328419564717061 
  1.243532928993817   3.592449068970519   8.328973152168439 
  4.978959562734588  10.061218544503209   8.329164869997767 
  6.224624144106001   3.592449068970519   8.328973152168439 
 11.202235609649694   3.593039449659650   8.328136664029437 
 -2.489442162547812  10.060699888000011   1.678141238779729 
 -1.245207869800976   3.593038689996700   1.676792342846861 
  3.734078536549864   3.587873991939554   1.696567127339331 
  2.489197510365236  10.061218544503209   1.676792342846861 
  7.468368460258889  10.060980706344630   1.677537648127554 
  8.713364942900808   3.593038689996700   1.676792342846861 
 -6.223573494066618  12.216296566196339   8.328419564717061 
 -1.244583579033201  12.216296566196339   8.328419564717061 
 -0.001500855998912   5.749554868846869   8.329594024978034 
  4.983313473261080   5.751612372913300   8.309390085505296 
  3.734078536549929  12.216714813976354   8.328082843783726 
  9.957863417775648   5.749048954739049   8.328419564717061 
 -2.489706344675814   5.749048954739048   1.677537648127554 
 -3.734078536549918  12.216098839551000   1.678264425226306 
  1.244761519103372  12.216643388810184   1.677820548815178 
  2.484843599838756   5.751612372913299   1.696567127339331 
  6.223395553996451  12.216643388810184   1.677820548815178 
  7.469657929098734   5.749554868846868   1.676363187866581 
 -1.245130102215389   7.905113693864561   8.327692787618322 
 -0.000326843616308   1.436841503266361   8.329164869997767 
  3.734078536549910   7.906200599825195   8.328973152168439 
  4.979032615258618   1.435665282658739   8.329594024978034 
  8.713287175315106   7.905113693864561   8.327692787618322 
 -3.734078536549911   7.904926451280060   1.678141238779729 
  9.957638956934813   1.437191961894938   8.328082843783726 
  2.489124457841110   1.435665282658739   1.676363187866581 
  1.243453222709796   7.905878586260624   1.676363187866581 
  6.224703850389935   7.905878586260624   1.676363187866581 
  7.468483916716125   1.436841503266361   1.676792342846861 
  1.243453222709797   7.905878586260624   8.329594024978034 
 12.446832262364572   1.437191961894937   1.677874369060915 
 -2.489442162547811  10.060699888000011   8.327815974064885 
 -1.245207869800975   3.593038689996701   8.329164869997767 
  3.734078536549865   3.587873991939555   8.309390085505296 
  2.489197510365237  10.061218544503209   8.329164869997767 
  7.468368460258890  10.060980706344630   8.328419564717061 
  8.713364942900808   3.593038689996701   8.329164869997767 
 -4.978714910552012  10.060699888000011   1.678141238779729 
 -0.000211387159155  10.060980706344630   1.677537648127554 
  1.243532928993817   3.592449068970518   1.676984060676188 
  4.978959562734587  10.061218544503209   1.676792342846861 
  6.224624144106000   3.592449068970518   1.676984060676188 
 11.202235609649694   3.593039449659650   1.677820548815178 
 -2.489706344675813   5.749048954739049   8.328419564717061 
 -3.734078536549917  12.216098839551000   8.327692787618322 
  1.244761519103373  12.216643388810184   8.328136664029437 
  2.484843599838757   5.751612372913300   8.309390085505296 
  6.223395553996451  12.216643388810184   8.328136664029437 
 -6.223573494066619  12.216296566196339   1.677537648127554 
  7.469657929098735   5.749554868846869   8.329594024978034 
 -1.244583579033201  12.216296566196339   1.677537648127554 
 -0.001500855998912   5.749554868846868   1.676363187866581 
 -1.245130102215390   7.905113693864560   1.678264425226306 
  4.983313473261079   5.751612372913299   1.696567127339331 
  3.734078536549928  12.216714813976354   1.677874369060915 
  9.957863417775648   5.749048954739048   1.677537648127554 
 -3.734078536549911   7.904926451280061   8.327815974064885 
  2.489124457841111   1.435665282658739   8.329594024978034 
  6.224703850389936   7.905878586260624   8.329594024978034 
  7.468483916716126   1.436841503266361   8.329164869997767 
 12.446832262364572   1.437191961894938   8.328082843783726 
  3.734078536549917   5.030366245922021   5.002978606422314 
Generated by cif2cell 2.0.0.  :  Failed to get author information, No journal information. Species order: N B In 
 1.0
 14.936314146199660   0.000000000000000   0.000000000000000
 -7.468157073099825  12.935227489513863   0.000000000000000
  0.000000000000001   0.000000000000001  13.341276283792837
 N B In 
 144 143   1
Cartesian
  1.244566382329718   0.718479359408112   1.674192759087939 
  4.978843326858682   7.186493238822700   1.676324035820466 
  6.223590690770112   0.718479359408112   1.674192759087939 
  9.957574654079981   7.186208602642274   1.676687540935288 
 11.202235609649751   0.718623749417456   1.675817607677872 
 -3.734078536549858   9.342108742426664   8.329730184499226 
  1.244631031693955   9.342290457763893   8.331764453756701 
  2.489200182067024   2.874304819327966   8.329633177024174 
  6.223526041405884   9.342290457763893   8.331764453756701 
  7.468192575711305   2.874474500227481   8.332211707707598 
 12.446909210690899   2.874483294904406   8.330069465292055 
 -1.244683769689309   9.342150805696839   1.676687540935288 
 -0.000035502611367   2.874474500227480   1.673745505137016 
  4.978956891032809   2.874304819327965   1.676324035820466 
  3.734078536549963   9.342149737311207   1.673745505137016 
  8.712840842789159   9.342150805696839   1.676687540935288 
  9.957562008608624   2.874483294904405   1.675887747552585 
 -4.978812347840678  11.497966818940853   8.329269671909339 
  0.000049253834958  11.498008427393811   8.330079698014877 
  1.244435391758321   5.030300679615475   8.329633177024174 
  6.223721681341634   5.030300679615475   8.329633177024174 
  4.978770869412283  11.498002508266259   8.330069465292055 
 11.202235609649755   5.030309372492288   8.330079698014877 
 -1.244881122526192   5.030328920594147   1.674192759087939 
 -2.489344725259038  11.497966818940853   1.676687540935288 
  2.489386203687692  11.498002508266259   1.675887747552585 
  3.734078536549917   5.030366245922020   1.747073234445346 
  7.468107819264898  11.498008427393811   1.675877514829750 
  8.713038195626130   5.030328920594147   1.674192759087939 
 -0.000094033379659   7.186291784371463   8.330159964090365 
  1.244566382329719   0.718479359408113   8.331764453756701 
  4.978843326858683   7.186493238822701   8.329633177024174 
  6.223590690770113   0.718479359408113   8.331764453756701 
  9.957574654079981   7.186208602642274   8.329269671909339 
 -2.489417580980130   7.186208602642274   1.676687540935288 
 11.202235609649751   0.718623749417456   8.330139605166742 
  3.734078536549923   0.718515169023333   1.675797248754262 
  2.489313746241154   7.186493238822700   1.676324035820466 
  7.468251106479467   7.186291784371462   1.675797248754262 
  8.712869675746321   0.718612934595477   1.675887747552585 
  2.489313746241155   7.186493238822701   8.329633177024174 
 13.691601543553185   0.718612934595477   1.675887747552585 
 -1.244683769689308   9.342150805696839   8.329269671909339 
 -0.000035502611367   2.874474500227481   8.332211707707598 
  4.978956891032810   2.874304819327966   8.329633177024174 
  3.734078536549963   9.342149737311207   8.332211707707598 
  8.712840842789159   9.342150805696839   8.329269671909339 
  9.957562008608624   2.874483294904406   8.330069465292055 
 -3.734078536549859   9.342108742426664   1.676227028345401 
  1.244631031693954   9.342290457763893   1.674192759087939 
  2.489200182067024   2.874304819327965   1.676324035820466 
  6.223526041405883   9.342290457763893   1.674192759087939 
  7.468192575711304   2.874474500227480   1.673745505137016 
 12.446909210690899   2.874483294904405   1.675887747552585 
 -1.244881122526191   5.030328920594148   8.331764453756701 
 -2.489344725259037  11.497966818940853   8.329269671909339 
  2.489386203687693  11.498002508266259   8.330069465292055 
  3.734078536549917   5.030366245922021   8.258883978399268 
  7.468107819264898  11.498008427393811   8.330079698014877 
 -4.978812347840678  11.497966818940853   1.676687540935288 
  8.713038195626130   5.030328920594148   8.331764453756701 
  0.000049253834957  11.498008427393811   1.675877514829750 
  1.244435391758321   5.030300679615474   1.676324035820466 
 -0.000094033379660   7.186291784371462   1.675797248754262 
  6.223721681341633   5.030300679615474   1.676324035820466 
  4.978770869412282  11.498002508266259   1.675887747552585 
 11.202235609649755   5.030309372492288   1.675877514829750 
 -2.489417580980129   7.186208602642274   8.329269671909339 
  3.734078536549923   0.718515169023334   8.330159964090365 
  7.468251106479467   7.186291784371463   8.330159964090365 
  8.712869675746321   0.718612934595477   8.330069465292055 
 13.691601543553185   0.718612934595477   8.330069465292055 
 -0.016288363695621   1.424049236351622   5.002978606422314 
  3.734078536549904   7.923540906882931   5.002978606422314 
  5.026105284743039   1.312669390383322   5.002978606422314 
  8.749779365263846   7.926182469554751   5.002978606422314 
  9.964175254601118   1.433418228677784   5.002978606422314 
 -4.978756824638495  10.060724087109136  11.673616748318732 
 -0.000053415015080  10.060717342222478  11.673616748318732 
  1.244670778697907   3.593106006803473  11.673616748318732 
  4.978808045439716  10.060773292410346  11.673616748318732 
  6.223486294401927   3.593106006803473  11.673616748318732 
 11.202235609649694   3.593201811032089  11.673616748318732 
 -2.496450409485502  10.056653674744013   5.002978606422314 
 -1.264267057960772   3.585611741582343   5.002978606422314 
  3.734078536549864   3.170864019089747   5.002978606422314 
  2.486099842284761  10.081437759832266   5.002978606422314 
  7.492124019046306  10.089216749981020   5.002978606422314 
  8.732424131060620   3.585611741582343   5.002978606422314 
 -6.223424400118410  12.216565056147276  11.673616748318732 
 -1.244732672981393  12.216565056147276  11.673616748318732 
  0.000018523218753   5.748997688454085  11.673616748318732 
  4.978565309623300   5.748871019358872  11.673616748318732 
  3.734078536549912  12.216600064786656  11.673616748318732 
  9.957556351683381   5.749043828910267  11.673616748318732 
 -2.526037255161003   5.755503850311853   5.002978606422314 
 -3.734078536549901  12.173961288170569   5.002978606422314 
  1.249899109222238  12.219609577848269   5.002978606422314 
  2.123702369719366   5.960117359338204   5.002978606422314 
  6.218257963877631  12.219609577848269   5.002978606422314 
  7.599711831112604   5.770286687387120   5.002978606422314 
 -1.244722835036934   7.904878558049448  11.673616748318732 
 -0.000017002640251   1.437195347139266  11.673616748318732 
  3.734078536549919   7.904886724159302  11.673616748318732 
  4.978755458024420   1.437259693855599  11.673616748318732 
  8.712879908136637   7.904878558049448  11.673616748318732 
 -3.734078536549904   7.913018877792095   5.002978606422314 
  9.957539581221452   1.437249336489790  11.673616748318732 
  2.442051788356688   1.312669390383322   5.002978606422314 
  1.160471990180356   8.008142659995803   5.002978606422314 
  6.307685082919392   8.008142659995803   5.002978606422314 
  7.484445436795452   1.424049236351622   5.002978606422314 
  1.244695444693241   7.904841355456562  11.673616748318732 
 12.440295964698221   1.433418228677784   5.002978606422314 
 -2.489400248461325  10.060724087109136  11.673616748318732 
 -1.244746511530030   3.593130098216634  11.673616748318732 
  3.734078536549872   3.593356699048399  11.673616748318732 
  2.489349027660141  10.060773292410346  11.673616748318732 
  7.468210488114816  10.060717342222478  11.673616748318732 
  8.712903584629879   3.593130098216634  11.673616748318732 
 -4.971706663614335  10.056653674744013   5.002978606422314 
 -0.023966945946574  10.089216749981020   5.002978606422314 
  1.228515782572406   3.583778915441657   5.002978606422314 
  4.982057230815078  10.081437759832266   5.002978606422314 
  6.239641290527413   3.583778915441657   5.002978606422314 
 11.202235609649708   3.587107071583452   5.002978606422314 
 -2.489399278583530   5.749043828910267  11.673616748318732 
 -3.734078536549925  12.216569111181242  11.673616748318732 
  1.244620910030280  12.216562208123966  11.673616748318732 
  2.489591763476536   5.748871019358872  11.673616748318732 
  6.223536163069577  12.216562208123966  11.673616748318732 
 -6.236148845764390  12.181605626987142   5.002978606422314 
  7.468138549881083   5.748997688454085  11.673616748318732 
 -1.232008227335429  12.181605626987142   5.002978606422314 
 -0.131554758012769   5.770286687387120   5.002978606422314 
 -1.281622292164086   7.926182469554751   5.002978606422314 
  5.344454703380467   5.960117359338204   5.002978606422314 
  3.734078536549890  12.224262280410702   5.002978606422314 
  9.994194328260837   5.755503850311853   5.002978606422314 
 -3.734078536549911   7.904878053061839  11.673616748318732 
  2.489401615075309   1.437259693855599  11.673616748318732 
  6.223461628406461   7.904841355456562  11.673616748318732 
  7.468174075740084   1.437195347139266  11.673616748318732 
 12.446931638077919   1.437249336489790  11.673616748318732 
  1.202709025308986   0.657743494172285   5.002978606422314 
  5.082457894661795   7.313431541387543   5.002978606422314 
  6.265448047790831   0.657743494172285   5.002978606422314 
  9.975921806582029   7.191488732409415   5.002978606422314 
 11.202235609649751   0.718623749417456   5.002978606422314 
 -3.734078536549858   9.342108742426666  11.673616748318732 
  1.244711250155832   9.342083739945075  11.673616748318732 
  2.489351614967406   2.874499304310727  11.673616748318732 
  6.223445822944019   9.342083739945075  11.673616748318732 
  7.468253792590556   2.874439156645767  11.673616748318732 
 12.446967487878608   2.874527407651712  11.673616748318732 
 -1.258430072453948   9.355399840967188   5.002978606422314 
 -0.016351688652920   2.865054345824241   5.002978606422314 
  5.037081401865680   2.721102820125902   5.002978606422314 
  3.734078536549956   9.360990046117671   5.002978606422314 
  8.726587145553786   9.355399840967188   5.002978606422314 
  9.965747258062173   2.865066435092174   5.002978606422314 
 -4.978635360314247  11.497958500742088  11.673616748318732 
 -0.000053379769440  11.497949171854678  11.673616748318732 
  1.244679537144244   5.030334581862781  11.673616748318732 
  6.223477535955712   5.030334581862781  11.673616748318732 
  4.978779933578180  11.497929982367591  11.673616748318732 
 11.202235609649762   5.030427883570548  11.673616748318732 
 -1.318408603251613   5.024447318696833   5.002978606422314 
 -2.484743875521600  11.479437653903389   5.002978606422314 
  2.493448818782179  11.509799572135474   5.002978606422314 
  7.461861565414029  11.501614703736038   5.002978606422314 
  8.786565676351552   5.024447318696833   5.002978606422314 
  0.000001588829159   7.186236576863468  11.673616748318732 
  1.244705295981294   0.718652189543362  11.673616748318732 
  4.978750614373111   7.186264851592661  11.673616748318732 
  6.223451777118537   0.718652189543362  11.673616748318732 
  9.957493364088203   7.186366037435711  11.673616748318732 
 -2.507764733482192   7.191488732409415   5.002978606422314 
 11.202235609649751   0.718623749417457  11.673616748318732 
  3.734078536549901   0.655482179154569   5.002978606422314 
  2.385699178438041   7.313431541387543   5.002978606422314 
  7.522839276982353   7.217808279305838   5.002978606422314 
  8.725117540294372   0.716232730538494   5.002978606422314 
  2.489406458726681   7.186264851592661  11.673616748318732 
 13.679353679005134   0.716232730538494   5.002978606422314 
 -1.244779467223976   9.342001689102196  11.673616748318732 
 -0.000096719490632   2.874439156645767  11.673616748318732 
  4.978805458132443   2.874499304310727  11.673616748318732 
  3.734078536549964   9.342220424474638  11.673616748318732 
  8.712936540323813   9.342001689102196  11.673616748318732 
  9.957503731420870   2.874527407651712  11.673616748318732 
 -3.734078536549858   9.342108742426664   5.002978606422314 
  1.212960907989252   9.408907924897036   5.002978606422314 
  2.431075671234153   2.721102820125902   5.002978606422314 