B C N                                   
   1.0000000000000000     
     8.7639499999999995  -15.1796066749929999    0.0000000000000000
     8.7639499999999995   15.1796066749929999    0.0000000000000000
     0.0000000000000000    0.0000000000000000   15.0000000000000000
   B    C    N 
    48     3    47
Selective dynamics
Direct
  0.9049923613244151  0.9526765294498916  0.1110137506157069   T   T   T
  0.9049461450708256  0.0954208599467139  0.1110462407957473   T   T   T
  0.9050079173976479  0.2382410203897557  0.1110584813853715   T   T   T
  0.9049302441771253  0.3809485641383191  0.1109962910446166   T   T   T
  0.9049260668792529  0.5237118311798951  0.1109985996409692   T   T   T
  0.9052541209233709  0.6667432525798258  0.1111158140411772   T   T   T
  0.9052918821710821  0.8099497058548624  0.1110719088679712   T   T   T
  0.0475108217190730  0.9522241017579557  0.1110106129465021   T   T   T
  0.0476668689208452  0.0952223440939679  0.1110042220880212   T   T   T
  0.0479000797573714  0.2382021402081314  0.1109866325050357   T   T   T
  0.0478997693546654  0.3811349071187040  0.1110209454163550   T   T   T
  0.0476442463930480  0.5238595020638062  0.1110180416725990   T   T   T
  0.0474916460361740  0.6667161346634342  0.1110314369367857   T   T   T
  0.0476586800913630  0.8095579930875049  0.1110038928429361   T   T   T
  0.1902394632682619  0.9520829266922423  0.1109929921759459   T   T   T
  0.1898188403860230  0.0942950580603235  0.1110638407625714   T   T   T
  0.1905037830593097  0.2376894750311839  0.1110108832307836   T   T   T
  0.1909182797476826  0.3811483342396597  0.1110189172318265   T   T   T
  0.1905109168481993  0.5242521190509344  0.1111068659361334   T   T   T
  0.1897791448237307  0.6669541037729571  0.1111013311894879   T   T   T
  0.1902332416625725  0.8096086496911089  0.1109918638089055   T   T   T
  0.3331606335859094  0.9523077475176641  0.1110138381635817   T   T   T
  0.3330317093428273  0.0944852470780458  0.1111049176106276   T   T   T
  0.3319770076349772  0.2357941351799503  0.1110659120486559   T   T   T
  0.3336121035242079  0.3787334684781410  0.1110761593711145   T   T   T
  0.3337066228941674  0.5263087279436399  0.1110493831669000   T   T   T
  0.3318913667677925  0.6676027625539456  0.1111285140036925   T   T   T
  0.3330082029390331  0.8100098781803591  0.1110843211275857   T   T   T
  0.4761771647124534  0.9527048209295937  0.1110029923234438   T   T   T
  0.4761998011367535  0.0949595475349843  0.1109947898561825   T   T   T
  0.4760474726746713  0.2370716460742255  0.1110513107877850   T   T   T
  0.4743275774004566  0.3778887166256009  0.1111415009564436   T   T   T
  0.4740068426701942  0.6680162882816600  0.1108840564731634   T   T   T
  0.4760028006906480  0.8104777260131023  0.1110433192693710   T   T   T
  0.6191690010303047  0.9525995880924468  0.1110098116525133   T   T   T
  0.6192127631569547  0.0953265923461316  0.1109902684313318   T   T   T
  0.6192005019552184  0.2380194772068282  0.1109999624328997   T   T   T
  0.6190738941563744  0.3809459395785249  0.1110175213262374   T   T   T
  0.6200215079607967  0.5247051392431307  0.1111078158264493   T   T   T
  0.6207204537830099  0.6670417815846552  0.1108118770532397   T   T   T
  0.6191320187789784  0.8095199740714312  0.1109083130578207   T   T   T
  0.7620319089448133  0.9525878790987611  0.1109916030592723   T   T   T
  0.7621058201489633  0.0954037838308938  0.1110469374773667   T   T   T
  0.7621158211806018  0.2381482973164397  0.1110546360317945   T   T   T
  0.7619960953368282  0.3808335086337161  0.1110032129550688   T   T   T
  0.7620728180460522  0.5234698773288973  0.1110697550208863   T   T   T
  0.7640165046038587  0.6676822500418207  0.1110335379803305   T   T   T
  0.7622166641273088  0.8101406743516066  0.1109493434219854   T   T   T
  0.4745245178312921  0.5225590195581937  0.1110973558822055   T   T   T
  0.5211744262879654  0.4757409766109167  0.1113081696356531   T   T   T
  0.5213012175066846  0.6167121823832328  0.1106993466614770   T   T   T
  0.9526213330526607  0.9050371029639176  0.1110174759275124   T   T   T
  0.9526563383786423  0.0479468978403587  0.1110024820184669   T   T   T
  0.9528286670057790  0.1907958927567751  0.1110234936840126   T   T   T
  0.9528272418574477  0.3334874439877446  0.1110068435663984   T   T   T
  0.9526131932135402  0.4761231606871466  0.1109484127202350   T   T   T
  0.9525901435470866  0.6189893263560612  0.1110386457658039   T   T   T
  0.9526129829186244  0.7620163206743908  0.1110744906241769   T   T   T
  0.0951427006265800  0.9046789549767797  0.1109586763400110   T   T   T
  0.0949466510803410  0.0473492897492560  0.1110118523930464   T   T   T
  0.0955144200940227  0.1906666427596366  0.1109607422561648   T   T   T
  0.0960188166651410  0.3337228744836865  0.1109765764785266   T   T   T
  0.0955159393864518  0.4762807762900406  0.1110329314183250   T   T   T
  0.0949079388719000  0.6190182333667494  0.1110312335266523   T   T   T
  0.0951252404504798  0.7619012910851569  0.1109718900909873   T   T   T
  0.2379181760689009  0.9046908749039412  0.1109658640289676   T   T   T
  0.2377572859248133  0.0471338372761056  0.1110588319471419   T   T   T
  0.2371440129366068  0.1893627522889190  0.1110403863843430   T   T   T
  0.2389559959916829  0.3337191002229631  0.1110146582051727   T   T   T
  0.2390330654935163  0.4766638736750720  0.1110534930686584   T   T   T
  0.2370777344865022  0.6192038336193222  0.1111310268781395   T   T   T
  0.2377333150093840  0.7620640342129190  0.1110514743768513   T   T   T
  0.3808432928521827  0.9050187416136328  0.1110088178971065   T   T   T
  0.3808640677707131  0.0473031243541471  0.1110261153781855   T   T   T
  0.3805017978863324  0.1893470516653237  0.1110847874173606   T   T   T
  0.3788394813678504  0.3302731726174147  0.1110417240096340   T   T   T
  0.3839432840634381  0.4775684033754618  0.1110503609130148   T   T   T
  0.3786860006923730  0.6200042612878495  0.1110370017640167   T   T   T
  0.3804620212309359  0.7625977360302595  0.1110961505526123   T   T   T
  0.5238367797021918  0.9054355615657694  0.1110105595750907   T   T   T
  0.5239500198799092  0.0477155815967023  0.1109470904517584   T   T   T
  0.5238622733535065  0.1899022511148893  0.1109916323164072   T   T   T
  0.5233725626520306  0.3317851531605559  0.1110209726136453   T   T   T
  0.5233065194714008  0.7630261563845394  0.1109277749290089   T   T   T
  0.6667968224812635  0.9050217460854064  0.1109582359253271   T   T   T
  0.6669099850398863  0.0478417637120111  0.1110014462691415   T   T   T
  0.6669264226983351  0.1905120035792946  0.1110056267523505   T   T   T
  0.6667974206488555  0.3331691534245217  0.1109821144633597   T   T   T
  0.6673924787650144  0.4760882824263220  0.1110298329459932   T   T   T
  0.6690445101583248  0.6201921915270963  0.1109425347264374   T   T   T
  0.6676413879597493  0.7628853241974334  0.1108443788992394   T   T   T
  0.8100192357210493  0.9053825671860792  0.1109738759829693   T   T   T
  0.8098172087038918  0.0479374277196497  0.1110272233271395   T   T   T
  0.8098687542951472  0.1906613171001576  0.1110562879437628   T   T   T
  0.8098099958686311  0.3333061273272131  0.1110090419560060   T   T   T
  0.8099190974776985  0.4760428759519073  0.1110008296437328   T   T   T
  0.8103784809512008  0.6191644280023224  0.1110972044298820   T   T   T
  0.8103930107238450  0.7626117423724220  0.1110128490086782   T   T   T

  0.00000000E+00  0.00000000E+00  0.00000000E+00
  0.00000000E+00  0.00000000E+00  0.00000000E+00
  0.00000000E+00  0.00000000E+00  0.00000000E+00
  0.00000000E+00  0.00000000E+00  0.00000000E+00
  0.00000000E+00  0.00000000E+00  0.00000000E+00
  0.00000000E+00  0.00000000E+00  0.00000000E+00
  0.00000000E+00  0.00000000E+00  0.00000000E+00
  0.00000000E+00  0.00000000E+00  0.00000000E+00
  0.00000000E+00  0.00000000E+00  0.00000000E+00
  0.00000000E+00  0.00000000E+00  0.00000000E+00
  0.00000000E+00  0.00000000E+00  0.00000000E+00
  0.00000000E+00  0.00000000E+00  0.00000000E+00
  0.00000000E+00  0.00000000E+00  0.00000000E+00
  0.00000000E+00  0.00000000E+00  0.00000000E+00
  0.00000000E+00  0.00000000E+00  0.00000000E+00
  0.00000000E+00  0.00000000E+00  0.00000000E+00
  0.00000000E+00  0.00000000E+00  0.00000000E+00
  0.00000000E+00  0.00000000E+00  0.00000000E+00
  0.00000000E+00  0.00000000E+00  0.00000000E+00
  0.00000000E+00  0.00000000E+00  0.00000000E+00
  0.00000000E+00  0.00000000E+00  0.00000000E+00
  0.00000000E+00  0.00000000E+00  0.00000000E+00
  0.00000000E+00  0.00000000E+00  0.00000000E+00
  0.00000000E+00  0.00000000E+00  0.00000000E+00
  0.00000000E+00  0.00000000E+00  0.00000000E+00
  0.00000000E+00  0.00000000E+00  0.00000000E+00
  0.00000000E+00  0.00000000E+00  0.00000000E+00
  0.00000000E+00  0.00000000E+00  0.00000000E+00
  0.00000000E+00  0.00000000E+00  0.00000000E+00
  0.00000000E+00  0.00000000E+00  0.00000000E+00
  0.00000000E+00  0.00000000E+00  0.00000000E+00
  0.00000000E+00  0.00000000E+00  0.00000000E+00
  0.00000000E+00  0.00000000E+00  0.00000000E+00
  0.00000000E+00  0.00000000E+00  0.00000000E+00
  0.00000000E+00  0.00000000E+00  0.00000000E+00
  0.00000000E+00  0.00000000E+00  0.00000000E+00
  0.00000000E+00  0.00000000E+00  0.00000000E+00
  0.00000000E+00  0.00000000E+00  0.00000000E+00
  0.00000000E+00  0.00000000E+00  0.00000000E+00
  0.00000000E+00  0.00000000E+00  0.00000000E+00
  0.00000000E+00  0.00000000E+00  0.00000000E+00
  0.00000000E+00  0.00000000E+00  0.00000000E+00
  0.00000000E+00  0.00000000E+00  0.00000000E+00
  0.00000000E+00  0.00000000E+00  0.00000000E+00
  0.00000000E+00  0.00000000E+00  0.00000000E+00
  0.00000000E+00  0.00000000E+00  0.00000000E+00
  0.00000000E+00  0.00000000E+00  0.00000000E+00
  0.00000000E+00  0.00000000E+00  0.00000000E+00
  0.00000000E+00  0.00000000E+00  0.00000000E+00
  0.00000000E+00  0.00000000E+00  0.00000000E+00
  0.00000000E+00  0.00000000E+00  0.00000000E+00
  0.00000000E+00  0.00000000E+00  0.00000000E+00
  0.00000000E+00  0.00000000E+00  0.00000000E+00
  0.00000000E+00  0.00000000E+00  0.00000000E+00
  0.00000000E+00  0.00000000E+00  0.00000000E+00
  0.00000000E+00  0.00000000E+00  0.00000000E+00
  0.00000000E+00  0.00000000E+00  0.00000000E+00
  0.00000000E+00  0.00000000E+00  0.00000000E+00
  0.00000000E+00  0.00000000E+00  0.00000000E+00
  0.00000000E+00  0.00000000E+00  0.00000000E+00
  0.00000000E+00  0.00000000E+00  0.00000000E+00
  0.00000000E+00  0.00000000E+00  0.00000000E+00
  0.00000000E+00  0.00000000E+00  0.00000000E+00
  0.00000000E+00  0.00000000E+00  0.00000000E+00
  0.00000000E+00  0.00000000E+00  0.00000000E+00
  0.00000000E+00  0.00000000E+00  0.00000000E+00
  0.00000000E+00  0.00000000E+00  0.00000000E+00
  0.00000000E+00  0.00000000E+00  0.00000000E+00
  0.00000000E+00  0.00000000E+00  0.00000000E+00
  0.00000000E+00  0.00000000E+00  0.00000000E+00
  0.00000000E+00  0.00000000E+00  0.00000000E+00
  0.00000000E+00  0.00000000E+00  0.00000000E+00
  0.00000000E+00  0.00000000E+00  0.00000000E+00
  0.00000000E+00  0.00000000E+00  0.00000000E+00
  0.00000000E+00  0.00000000E+00  0.00000000E+00
  0.00000000E+00  0.00000000E+00  0.00000000E+00
  0.00000000E+00  0.00000000E+00  0.00000000E+00
  0.00000000E+00  0.00000000E+00  0.00000000E+00
  0.00000000E+00  0.00000000E+00  0.00000000E+00
  0.00000000E+00  0.00000000E+00  0.00000000E+00
  0.00000000E+00  0.00000000E+00  0.00000000E+00
  0.00000000E+00  0.00000000E+00  0.00000000E+00
  0.00000000E+00  0.00000000E+00  0.00000000E+00
  0.00000000E+00  0.00000000E+00  0.00000000E+00
  0.00000000E+00  0.00000000E+00  0.00000000E+00
  0.00000000E+00  0.00000000E+00  0.00000000E+00
  0.00000000E+00  0.00000000E+00  0.00000000E+00
  0.00000000E+00  0.00000000E+00  0.00000000E+00
  0.00000000E+00  0.00000000E+00  0.00000000E+00
  0.00000000E+00  0.00000000E+00  0.00000000E+00
  0.00000000E+00  0.00000000E+00  0.00000000E+00
  0.00000000E+00  0.00000000E+00  0.00000000E+00
  0.00000000E+00  0.00000000E+00  0.00000000E+00
  0.00000000E+00  0.00000000E+00  0.00000000E+00
  0.00000000E+00  0.00000000E+00  0.00000000E+00
  0.00000000E+00  0.00000000E+00  0.00000000E+00
  0.00000000E+00  0.00000000E+00  0.00000000E+00
  0.00000000E+00  0.00000000E+00  0.00000000E+00
