 B N C 
 1.0
 17.527899999999772   0.000000000000000   0.000000000000000
 -8.763949999999658  15.179606674993195   0.000000000000000
  0.000000000000001   0.000000000000002  15.000000000000000
 B N C 
  47  48   3
Cartesian
  7.509821301178691  14.455940699715354   1.665262699969440 
 15.024176457870132   1.446470520016161   1.665852234813345 
 13.772397170573599   3.614316155690079   1.665934703400660 
 12.517628686199480   5.781646942790940   1.665111302376390 
 11.269987646413094   7.950212940064960   1.664888107909680 
 10.018437246703296  10.119737783328796   1.665309642768450 
  8.764104786994185  12.290810620153708   1.665556542550785 
 -7.511235084504161  14.459867140695827   1.665040527761265 
  0.001607973339699   1.449562113187547   1.665595383482715 
 -1.248443100658701   3.616231669121219   1.665726888836100 
 -2.499679870699623   5.782198413805969   1.665734200525665 
 -3.752980455562755   7.950365096385458   1.665036607281435 
 -5.006365890618679  10.119737783328796   1.665071151672885 
 -6.258893343223630  12.289356339092929   1.664824927087995 
 -5.007522182936441  14.457058910733664   1.664392314516075 
  2.506442452013399   1.450922508149312   1.665339899827440 
  1.259708841105700   3.622649141523773   1.664973909555510 
  0.011494026517434   5.785109699215472   1.664750766454095 
 -1.246056601628436   7.950466528666039   1.665564414673800 
 -2.503314690077864  10.119737783328796   1.665160972183965 
 -3.754958870793793  12.288693589195086   1.664260428375855 
 -2.504192587819796  14.457126577370484   1.664847891899910 
  5.008453310550152   1.444842182119352   1.665518976325845 
  3.764136891094565   3.617413639112701   1.665821085570150 
  2.529557208355395   5.797359884687160   1.665722875019475 
  1.259207870773819   7.956355575376503   1.665821934238890 
  0.000000000000152  10.119737783328796   1.665914347254300 
 -1.252208540959817  12.288626597943232   1.665382743555735 
  0.000510623114083  14.457040322080024   1.664814565233300 
  7.507160165754788   1.454114946665210   1.664843914060710 
  6.243267192329324   3.628877867755289   1.665490945867725 
  2.508662766732537  10.097746226252863   1.665482909450385 
  1.257346850051302  12.279906893459867   1.665436026998385 
  2.504843540912736  14.454350252101843   1.665384046621605 
 10.013871241803081   1.447688218284684   1.665096932401275 
  8.756526499468219   3.619506314392519   1.665163767195885 
  7.486978256359851   5.793483783200065   1.665168305853495 
  6.272719817612056   7.958800585430095   1.666205961935865 
  5.004743790875605  10.092870549708195   1.665222862613865 
  3.757261582562035  12.279645433916047   1.665056466730650 
  5.006989249983290  14.454252821702651   1.665474371742615 
 12.519471960155869   1.445730451962094   1.666215871151955 
 11.264603088735543   3.614864812165100   1.666091749333980 
 10.004164377206173   5.782312524048811   1.665282208772475 
  8.768419267112208   7.952288343945694   1.665512185942785 
  7.515122770723359  10.123237083413192   1.665429120291225 
  6.253668744385362  12.278963275945411   1.665358363524975 
  8.764179695155843  13.736599052804504   1.665048007405620 
 16.276989422898982   0.723749320977530   1.664645978754975 
 15.026355628003774   2.893022868357487   1.664651010085830 
 13.773469716718449   5.059868891664398   1.664723247692595 
 12.522141905526837   7.227495269774056   1.664430888956415 
 11.269647069540087   9.396455719355771   1.665291286347435 
 10.016432284951552  11.567109142896843   1.665447670750770 
 -6.260148863089088  13.735540800239026   1.664786927829045 
  1.254114368733696   0.727441796457588   1.664931522206670 
  0.006474268087486   2.897727187919503   1.664546906434665 
 -1.241674278352554   5.059868891664398   1.664500385012085 
 -2.498880111457645   7.227902469635086   1.665035769412725 
 -3.754589331269902   9.395845629155007   1.665287132424810 
 -5.007252079395045  11.565738545290149   1.665017919472650 
 -3.755301684154617  13.734794659255808   1.665480113113185 
  3.755625888179715   0.723861128265516   1.665373330250730 
  2.508827367860241   2.899846212000556   1.665130851240510 
  1.274438413961169   5.072669285364187   1.664438784380370 
  0.010059965862206   7.228181241425081   1.665194328256650 
 -1.250982333931900   9.395767035252069   1.665778801666410 
 -2.502615503074405  11.565309202372607   1.665965507708850 
 -1.250629937340162  13.734559007574124   1.665442928227455 
  6.260214670888994   0.724226284361974   1.665163057266900 
  5.006584735008970   2.888019635324243   1.665527653322670 
  3.785304792168863   5.059868891664398   1.665922071048780 
  2.520159265478807   7.251134954497220   1.665847847011545 
  1.248817498041769   9.397032437812516   1.665611942871945 
  0.001787403277628  11.564708343072727   1.665618419138040 
  1.254014867968129  13.729197024175566   1.665079536853725 
  8.760651119903793   0.726814343229794   1.664582158248240 
  7.500573084090692   2.905702613597572   1.664838647993310 
  6.212492509250472   5.082007762495922   1.665570530673840 
  3.751533028186062   9.344549640133497   1.665722695546680 
  2.511196109135563  11.548420393869414   1.665075694005660 
  3.755673061790343  13.728243053631576   1.664737714822500 
 11.268376292776914   0.722075308763200   1.664743556078520 
 10.010304285310863   2.894017833849843   1.664979515369280 
  8.745600638632919   5.059868891664398   1.664672522115585 
  7.517774192876312   7.233041812131682   1.664930051454915 
  6.266904918596429   9.399853402883268   1.664874031779660 
  5.000470511160676  11.547216410057572   1.664673251984235 
  6.257095302499110  13.728244589680051   1.664589507248040 
 13.771677643662018   0.721650513885803   1.664722486010220 
 12.518318874782198   2.892204093232281   1.664970654664725 
 11.261418653187492   5.059868891664398   1.664837914646505 
 10.017817464225512   7.227824698926180   1.665049651452510 
  8.766828234068624   9.398605515114667   1.665371403527835 
  7.512327973027928  11.567670685310947   1.665250449768780 
  4.989887708850755   5.796624537306823   1.667529537418635 
  3.758971335430794   7.928266823186549   1.667847087946050 
  4.953427207854570   7.197281662881209   1.668763056369915 
