B C N                                   
   1.0000000000000000     
     8.7639499999999995  -15.1796066749929999    0.0000000000000000
     8.7639499999999995   15.1796066749929999    0.0000000000000000
     0.0000000000000000    0.0000000000000000   15.0000000000000000
   B    C    N 
    47     3    48
Selective dynamics
Direct
  0.9046127919230788  0.9523264343555089  0.1110175133312958   T   T   T
  0.9048030056068610  0.0952903820886920  0.1110568156542228   T   T   T
  0.9047931341460078  0.2381034128930552  0.1110623135600443   T   T   T
  0.9045957647510137  0.3808825265753162  0.1110074201584264   T   T   T
  0.9048457161139949  0.5237430132601590  0.1109925405273124   T   T   T
  0.9049042144259498  0.6667318984412035  0.1110206428512302   T   T   T
  0.9048549801800898  0.8096922985759256  0.1110371028367195   T   T   T
  0.0477623161715051  0.9525850998838415  0.1110027018507511   T   T   T
  0.0478387627494218  0.0954940496301234  0.1110396922321810   T   T   T
  0.0478887503329224  0.2382296028182721  0.1110484592557403   T   T   T
  0.0478479418537865  0.3809188563055151  0.1110489467017105   T   T   T
  0.0477618524176343  0.5237530369929047  0.1110024404854295   T   T   T
  0.0477106466099440  0.6666822758654359  0.1110047434448585   T   T   T
  0.0477164889871964  0.8095964936521277  0.1109883284725335   T   T   T
  0.1905113944548791  0.9524000997041743  0.1109594876344049   T   T   T
  0.1907891391819160  0.0955836695386552  0.1110226599884956   T   T   T
  0.1911949690575592  0.2386523721653278  0.1109982606370342   T   T   T
  0.1912110788315161  0.3811106455574916  0.1109833844302727   T   T   T
  0.1907899627953095  0.5237597191344615  0.1110376276449196   T   T   T
  0.1905144736822600  0.6666612999326504  0.1110107314789307   T   T   T
  0.1905488781266788  0.8095528331072906  0.1109506952250574   T   T   T
  0.3333932324242462  0.9524045574373856  0.1109898594599937   T   T   T
  0.3333138350012800  0.0951831106730566  0.1110345984217226   T   T   T
  0.3339048961602082  0.2383074684716311  0.1110547390380099   T   T   T
  0.3352748759616741  0.3819176615582343  0.1110481916679652   T   T   T
  0.3339140401294932  0.5241476769278723  0.1110547956159257   T   T   T
  0.3333248500690703  0.6666752875282157  0.1110609564836199   T   T   T
  0.3334054410813805  0.8095484198669949  0.1110255162370493   T   T   T
  0.4762285695806156  0.9523988751234556  0.1109876376822198   T   T   T
  0.4761947421907184  0.0957939805555515  0.1109895942707140   T   T   T
  0.4757216098981707  0.2390627073185946  0.1110327297245149   T   T   T
  0.4757329325628315  0.6652179099533475  0.1110321939633588   T   T   T
  0.4762210190960556  0.8089739843977459  0.1110290684665588   T   T   T
  0.6190169130314941  0.9522216590706445  0.1110256031081069   T   T   T
  0.6189956825593765  0.0953706014444758  0.1110064621600852   T   T   T
  0.6187991399093080  0.2384453294402732  0.1110109178130595   T   T   T
  0.6179774917780315  0.3816623122879866  0.1110112203902330   T   T   T
  0.6200249589532491  0.5243087489573353  0.1110803974623914   T   T   T
  0.6179784982596669  0.6648967108176225  0.1110148575075911   T   T   T
  0.6188372925100279  0.8089567600025811  0.1110037644487098   T   T   T
  0.7617658708418068  0.9522152405644680  0.1110316247828406   T   T   T
  0.7618804777396019  0.0952416279892010  0.1110810580767969   T   T   T
  0.7617367888408347  0.2381395572073823  0.1110727832889317   T   T   T
  0.7612197735897831  0.3809263736440918  0.1110188139181646   T   T   T
  0.7621948483938631  0.5238797364259944  0.1110341457295189   T   T   T
  0.7622006301897171  0.6668971930669428  0.1110286080194152   T   T   T
  0.7612395949955156  0.8089118208954459  0.1110238909016646   T   T   T
  0.4756171843664124  0.3818692184466245  0.1111686358279093   T   T   T
  0.4756050821835288  0.5222972500498010  0.1111898058630698   T   T   T
  0.5196731903623690  0.4741415121603891  0.1112508704246608   T   T   T
  0.9524819776494864  0.9049377462088066  0.1110032004937082   T   T   T
  0.9524727028446855  0.0476790562808079  0.1109763985836649   T   T   T
  0.9525752177854658  0.1905861548523145  0.1109767340057224   T   T   T
  0.9524692851616692  0.3333884640328447  0.1109815498461731   T   T   T
  0.9524779491609211  0.4761319199186229  0.1109620592637612   T   T   T
  0.9524639750648146  0.6190183922772808  0.1110194190898292   T   T   T
  0.9524646912835435  0.7620163941370390  0.1110298447167182   T   T   T
  0.0952806277645212  0.9048680307946904  0.1109857951886025   T   T   T
  0.0955107620272983  0.0479223086627117  0.1109954348137784   T   T   T
  0.0958174019746157  0.1908960653567663  0.1109697937623111   T   T   T
  0.0958267897645483  0.3334928827155954  0.1109666923341386   T   T   T
  0.0955135141723999  0.4761587453739693  0.1110023846275152   T   T   T
  0.0952826449253331  0.6189782008405842  0.1110191421616536   T   T   T
  0.0952898055731058  0.7619261021000948  0.1110011946315096   T   T   T
  0.2381623417312252  0.9048188766236244  0.1110320075408787   T   T   T
  0.2381088039890553  0.0476864219056476  0.1110248886833824   T   T   T
  0.2386511994572812  0.1910356621280411  0.1110087234160339   T   T   T
  0.2397974310314465  0.3341765958745739  0.1109625856253580   T   T   T
  0.2386624952989398  0.4761771102628600  0.1110129552171099   T   T   T
  0.2381155924619475  0.6189730232424671  0.1110519201110942   T   T   T
  0.2381699392497956  0.7618978179075766  0.1110643671805898   T   T   T
  0.3810508619334529  0.9048033523951815  0.1110295285484975   T   T   T
  0.3810123808967215  0.0477104776077672  0.1110108704844603   T   T   T
  0.3807634484957337  0.1902565525681208  0.1110351768881775   T   T   T
  0.3826254975687615  0.3334858873697789  0.1110614714032520   T   T   T
  0.3826245005612775  0.4776892517539797  0.1110565231341030   T   T   T
  0.3807756037857569  0.6190563852549055  0.1110407961914630   T   T   T
  0.3810310920446855  0.7618582345828743  0.1110412279425360   T   T   T
  0.5237689891905564  0.9044501164047269  0.1110053024569154   T   T   T
  0.5237522793157480  0.0478809733869553  0.1109721438832162   T   T   T
  0.5236326810534239  0.1914214693312455  0.1109892431995536   T   T   T
  0.5218303994746253  0.3347917947615865  0.1110380353782559   T   T   T
  0.5218315530310473  0.6155989308687203  0.1110481797031116   T   T   T
  0.5236611192584923  0.7607852193492091  0.1110050462670440   T   T   T
  0.6664619198138411  0.9043872708669987  0.1109825143215001   T   T   T
  0.6665414861469533  0.0475687759388876  0.1109829037385677   T   T   T
  0.6664327307163861  0.1906517010495029  0.1109986343579518   T   T   T
  0.6656198007348065  0.3335058066016339  0.1109781681410389   T   T   T
  0.6671519594572287  0.4764973142583040  0.1109953367636607   T   T   T
  0.6671599456349062  0.6192422243962710  0.1109916021186440   T   T   T
  0.6656392958596414  0.7607059034724790  0.1109782167989491   T   T   T
  0.8091728622283231  0.9043873720585851  0.1109726338165358   T   T   T
  0.8094707730027547  0.0475407913615210  0.1109814990673480   T   T   T
  0.8094599858831533  0.1905322156994281  0.1109980436443155   T   T   T
  0.8091519988050039  0.3333795351215753  0.1109891943097674   T   T   T
  0.8096123323276608  0.4761536220061131  0.1110033100968337   T   T   T
  0.8097442168330024  0.6191600162208338  0.1110247602351889   T   T   T
  0.8096192788120140  0.7620533873494536  0.1110166966512523   T   T   T

  0.00000000E+00  0.00000000E+00  0.00000000E+00
  0.00000000E+00  0.00000000E+00  0.00000000E+00
  0.00000000E+00  0.00000000E+00  0.00000000E+00
  0.00000000E+00  0.00000000E+00  0.00000000E+00
  0.00000000E+00  0.00000000E+00  0.00000000E+00
  0.00000000E+00  0.00000000E+00  0.00000000E+00
  0.00000000E+00  0.00000000E+00  0.00000000E+00
  0.00000000E+00  0.00000000E+00  0.00000000E+00
  0.00000000E+00  0.00000000E+00  0.00000000E+00
  0.00000000E+00  0.00000000E+00  0.00000000E+00
  0.00000000E+00  0.00000000E+00  0.00000000E+00
  0.00000000E+00  0.00000000E+00  0.00000000E+00
  0.00000000E+00  0.00000000E+00  0.00000000E+00
  0.00000000E+00  0.00000000E+00  0.00000000E+00
  0.00000000E+00  0.00000000E+00  0.00000000E+00
  0.00000000E+00  0.00000000E+00  0.00000000E+00
  0.00000000E+00  0.00000000E+00  0.00000000E+00
  0.00000000E+00  0.00000000E+00  0.00000000E+00
  0.00000000E+00  0.00000000E+00  0.00000000E+00
  0.00000000E+00  0.00000000E+00  0.00000000E+00
  0.00000000E+00  0.00000000E+00  0.00000000E+00
  0.00000000E+00  0.00000000E+00  0.00000000E+00
  0.00000000E+00  0.00000000E+00  0.00000000E+00
  0.00000000E+00  0.00000000E+00  0.00000000E+00
  0.00000000E+00  0.00000000E+00  0.00000000E+00
  0.00000000E+00  0.00000000E+00  0.00000000E+00
  0.00000000E+00  0.00000000E+00  0.00000000E+00
  0.00000000E+00  0.00000000E+00  0.00000000E+00
  0.00000000E+00  0.00000000E+00  0.00000000E+00
  0.00000000E+00  0.00000000E+00  0.00000000E+00
  0.00000000E+00  0.00000000E+00  0.00000000E+00
  0.00000000E+00  0.00000000E+00  0.00000000E+00
  0.00000000E+00  0.00000000E+00  0.00000000E+00
  0.00000000E+00  0.00000000E+00  0.00000000E+00
  0.00000000E+00  0.00000000E+00  0.00000000E+00
  0.00000000E+00  0.00000000E+00  0.00000000E+00
  0.00000000E+00  0.00000000E+00  0.00000000E+00
  0.00000000E+00  0.00000000E+00  0.00000000E+00
  0.00000000E+00  0.00000000E+00  0.00000000E+00
  0.00000000E+00  0.00000000E+00  0.00000000E+00
  0.00000000E+00  0.00000000E+00  0.00000000E+00
  0.00000000E+00  0.00000000E+00  0.00000000E+00
  0.00000000E+00  0.00000000E+00  0.00000000E+00
  0.00000000E+00  0.00000000E+00  0.00000000E+00
  0.00000000E+00  0.00000000E+00  0.00000000E+00
  0.00000000E+00  0.00000000E+00  0.00000000E+00
  0.00000000E+00  0.00000000E+00  0.00000000E+00
  0.00000000E+00  0.00000000E+00  0.00000000E+00
  0.00000000E+00  0.00000000E+00  0.00000000E+00
  0.00000000E+00  0.00000000E+00  0.00000000E+00
  0.00000000E+00  0.00000000E+00  0.00000000E+00
  0.00000000E+00  0.00000000E+00  0.00000000E+00
  0.00000000E+00  0.00000000E+00  0.00000000E+00
  0.00000000E+00  0.00000000E+00  0.00000000E+00
  0.00000000E+00  0.00000000E+00  0.00000000E+00
  0.00000000E+00  0.00000000E+00  0.00000000E+00
  0.00000000E+00  0.00000000E+00  0.00000000E+00
  0.00000000E+00  0.00000000E+00  0.00000000E+00
  0.00000000E+00  0.00000000E+00  0.00000000E+00
  0.00000000E+00  0.00000000E+00  0.00000000E+00
  0.00000000E+00  0.00000000E+00  0.00000000E+00
  0.00000000E+00  0.00000000E+00  0.00000000E+00
  0.00000000E+00  0.00000000E+00  0.00000000E+00
  0.00000000E+00  0.00000000E+00  0.00000000E+00
  0.00000000E+00  0.00000000E+00  0.00000000E+00
  0.00000000E+00  0.00000000E+00  0.00000000E+00
  0.00000000E+00  0.00000000E+00  0.00000000E+00
  0.00000000E+00  0.00000000E+00  0.00000000E+00
  0.00000000E+00  0.00000000E+00  0.00000000E+00
  0.00000000E+00  0.00000000E+00  0.00000000E+00
  0.00000000E+00  0.00000000E+00  0.00000000E+00
  0.00000000E+00  0.00000000E+00  0.00000000E+00
  0.00000000E+00  0.00000000E+00  0.00000000E+00
  0.00000000E+00  0.00000000E+00  0.00000000E+00
  0.00000000E+00  0.00000000E+00  0.00000000E+00
  0.00000000E+00  0.00000000E+00  0.00000000E+00
  0.00000000E+00  0.00000000E+00  0.00000000E+00
  0.00000000E+00  0.00000000E+00  0.00000000E+00
  0.00000000E+00  0.00000000E+00  0.00000000E+00
  0.00000000E+00  0.00000000E+00  0.00000000E+00
  0.00000000E+00  0.00000000E+00  0.00000000E+00
  0.00000000E+00  0.00000000E+00  0.00000000E+00
  0.00000000E+00  0.00000000E+00  0.00000000E+00
  0.00000000E+00  0.00000000E+00  0.00000000E+00
  0.00000000E+00  0.00000000E+00  0.00000000E+00
  0.00000000E+00  0.00000000E+00  0.00000000E+00
  0.00000000E+00  0.00000000E+00  0.00000000E+00
  0.00000000E+00  0.00000000E+00  0.00000000E+00
  0.00000000E+00  0.00000000E+00  0.00000000E+00
  0.00000000E+00  0.00000000E+00  0.00000000E+00
  0.00000000E+00  0.00000000E+00  0.00000000E+00
  0.00000000E+00  0.00000000E+00  0.00000000E+00
  0.00000000E+00  0.00000000E+00  0.00000000E+00
  0.00000000E+00  0.00000000E+00  0.00000000E+00
  0.00000000E+00  0.00000000E+00  0.00000000E+00
  0.00000000E+00  0.00000000E+00  0.00000000E+00
  0.00000000E+00  0.00000000E+00  0.00000000E+00
  0.00000000E+00  0.00000000E+00  0.00000000E+00
