 B N In 
 1.0
 17.527899999999772   0.000000000000000   0.000000000000000
 -8.763949999999658  15.179606674993195   0.000000000000000
  0.000000000000001   0.000000000000002  15.000000000000000
 B N In 
  47  49   1
Cartesian
  7.523451045712338  14.533754402154202   1.664550975409815 
 15.041345143493455   1.505238771307847   1.664713004312580 
 13.785882635346805   3.647801531355344   1.665273565853325 
 12.506092312125965   5.787699008033476   1.663561614257145 
 11.143786491535257   7.919959708599473   1.666175675704275 
  9.882175844646241  10.069188770218908   1.667714605772835 
  8.721371363363746  12.320584772704960   1.664869669897710 
 -7.523085109528587  14.472222072987988   1.663663538529000 
  0.020812480280067   1.485943093955812   1.663541693455170 
 -1.224914866288526   3.652429452194539   1.664457877421925 
 -2.498650207931291   5.802752808540463   1.664429787322875 
 -3.816137619864049   7.941856137371894   1.665176682672450 
 -5.095837698495019  10.082629726122393   1.666310445672465 
 -6.328914555418793  12.249608900108642   1.664514266758350 
 -5.044413037226948  14.410619340346981   1.664172842728245 
  2.518794699488936   1.450050340750237   1.663887246667815 
  1.288295968642003   3.625054408565283   1.663454956233585 
  0.036137068684289   5.804357809253183   1.664225826148620 
 -1.269785288769399   7.955768922414248   1.665371932677375 
 -2.554955526885160  10.097669465340774   1.665863409837735 
 -3.813886484411442  12.243713097994279   1.664269732469490 
 -2.537573948688943  14.395690823913508   1.664370226728990 
  4.995495467590825   1.363765011818495   1.665626773840950 
  3.821226158815612   3.612257445896260   1.664860316236575 
  2.560932576147253   5.776377206654520   1.668341614268430 
  1.275217226165302   7.967703274392993   1.667863678060110 
 -0.024982625605536  10.124732962092436   1.666457200036740 
 -1.296712423689966  12.261635599396264   1.663946197139850 
 -0.028479066929679  14.433309475681671   1.664024208702240 
  7.524717325656361   1.332901354307440   1.666394239175220 
  6.321235552067145   3.384830323936995   1.660581597403440 
  5.310780735012385   5.603027084739197   1.668062400319515 
  2.433697826168309  10.289170479585263   1.663098352420575 
  1.190785392994622  12.355301330905480   1.666798504241520 
  2.479441082279294  14.511464182382319   1.664418404721420 
 10.023055799016488   1.417063361463578   1.666035501844470 
  8.805559617223079   3.499436691669411   1.664883569592690 
  7.590554961578833   5.535323229081436   1.660529248338210 
  4.988769371706094  10.425361271208768   1.663266100951575 
  3.707984282960992  12.436363478134286   1.668173530296660 
  5.005897719833541  14.547464994446077   1.664778457619400 
 12.526892656854770   1.486672473852531   1.665072326865075 
 11.280216584854399   3.610845938053591   1.665374883183465 
 10.005630916333908   5.743073011265215   1.664671618466625 
  8.522075149262195   7.883679928359361   1.670029768504905 
  7.365103861730640  10.173629245815050   1.670069285667495 
  6.260531664205070  12.432752597706410   1.666957784159490 
  8.753862911021647  13.777304200309830   1.663743858899280 
 16.293933066517450   0.791074372541752   1.664053952359365 
 15.044339075298749   2.942166616588045   1.665133483367040 
 13.773671715588630   5.085377592228653   1.663549458226920 
 12.444507834864231   7.225225441353901   1.663620120052590 
 11.163347659321289   9.363571686254613   1.667004540980910 
  9.944070384718895  11.537439839763946   1.664952662780025 
 -6.298361425341127  13.704498905217843   1.663314940188120 
  1.260950531788404   0.743704872321926   1.663113773520915 
  0.026199006460986   2.923107597649684   1.663177361235825 
 -1.232351806538043   5.091218645099596   1.664044261979625 
 -2.536952736279297   7.240394072839802   1.664567679291090 
 -3.822191592559787   9.380673496944830   1.665984313248855 
 -5.074256928222992  11.527540265495354   1.664916141559320 
 -3.797621762300976  13.684868083257760   1.663525388383935 
  3.737678867449179   0.673255852752159   1.664719198338900 
  2.545740026945464   2.900496800425548   1.663436907493095 
  1.290747797681612   5.053761442445474   1.663650067344075 
 -0.004959877303511   7.248599854102197   1.664852389955970 
 -1.289100037846133   9.398224999435348   1.665954463758420 
 -2.555948590133913  11.538345023338083   1.664247939359010 
 -1.283498460141995  13.700378891573198   1.663231118109495 
  6.248423660174190   0.646650154690470   1.665546581554890 
  5.020703516079617   2.788323075435267   1.664547427942650 
  3.887055896978931   5.073526841504315   1.667434254051105 
  2.464173891000117   7.175822438571831   1.672712750162190 
  1.234792199652722   9.437199694692112   1.666709450015835 
 -0.042114104176297  11.575815289282252   1.664882966971245 
  1.222531860716705  13.779856369645993   1.663491120629925 
  8.776210711048627   0.672227337219267   1.665571242231450 
  7.575900478831535   2.736607475658918   1.665670214811960 
  6.411090067685812   4.750095549190626   1.652222813501865 
  5.910850114117029   6.883048082467530   1.683468828298275 
  3.707422669857960   9.824725817021108   1.647890774931660 
  2.435241169491993  11.723946412448580   1.670840087755710 
  3.735377488463897  13.857927018256856   1.665033783113085 
 11.277017198017875   0.755868850168834   1.664619091416105 
 10.057078002399113   2.840809656494071   1.666331849225295 
  8.844297204570587   4.920703451101939   1.662514747186860 
  7.343814495618186   6.931029628705679   1.670839199453085 
  6.114343744976690   9.607018273902348   1.671984542564370 
  4.984725282380687  11.829320742976069   1.668746266587240 
  6.268567757754582  13.862871778645935   1.664739108490830 
 13.783951706847338   0.799778167501226   1.664166329655885 
 12.537810179330915   2.921526462283992   1.665409077371985 
 11.272278816672479   5.051847706148386   1.663724581023450 
  9.870431274332466   7.185757133954237   1.666054766735400 
  8.611284881865629   9.351216897765850   1.670053372754520 
  7.474119446327259  11.652668110446305   1.665904317174990 
  4.359059838953729   8.020605796879265   1.673248990198095 
