 B Ge N 
 1.0
 17.527899999999772   0.000000000000000   0.000000000000000
 -8.763949999999658  15.179606674993195   0.000000000000000
  0.000000000000001   0.000000000000002  15.000000000000000
 B Ge N 
  48   1  48
Cartesian
  7.513574746501291  14.477695963359739   1.665249315529890 
 15.005268121393840   1.456458222735037   1.665152081196030 
 13.745493557249581   3.623647317916357   1.665774967074030 
 12.496096209512046   5.792075470676973   1.664926704985905 
 11.263015245444198   7.961453288397957   1.664857776555765 
 10.036630563275747  10.136778132095001   1.666156451032095 
  8.788513168864494  12.320169162326740   1.665707721061920 
 -7.507020919431112  14.453935763729367   1.665092690677545 
 -0.017306334696266   1.433842321749089   1.665352344067545 
 -1.279929885887566   3.608011086878733   1.665045623897265 
 -2.525880734934115   5.781819208948956   1.664741522247330 
 -3.755541025330865   7.950774629364603   1.664637213281355 
 -4.991276837470425  10.119737783328796   1.665513007472205 
 -6.242287479718124  12.289270809454699   1.665575876226660 
 -5.000008369178004  14.440980819129491   1.665435967773945 
  2.488630000629567   1.408469620425749   1.665880375186515 
  1.213410249542700   3.567979602454303   1.665751865168835 
 -0.029928071030811   5.762144576854755   1.665312963945030 
 -1.243247376755609   7.939026346535760   1.665067978048980 
 -2.481590301627973  10.109447643829064   1.665028213242105 
 -3.737820461797464  12.277788989351247   1.664690436582630 
 -2.495653413995646  14.442336294452394   1.665398971767570 
  5.003535893108786   1.419250163453782   1.666184989252035 
  3.715047742860565   3.532800519447387   1.665702245931435 
  2.431122199394977   5.699132159130722   1.665792915623955 
  1.280720073005728   7.913629812637237   1.665700407168060 
  0.037142929217085  10.098304201182371   1.665648376355190 
 -1.231871201683068  12.274026055357666   1.665034899632415 
  0.000597964455471  14.456636601609850   1.664756544637185 
  7.500640282536039   1.444847278001233   1.664854948450305 
  6.231483253795986   3.604971003759533   1.665113385964515 
  4.905256641550251   5.655368888709972   1.666263532257345 
  2.550808542431254  10.113744030480142   1.666154175817605 
  1.266925410405786  12.286784965037802   1.665222616126230 
  2.493827884098513  14.476187018378724   1.664809796280090 
  9.995918458518855   1.461663685943231   1.665000316730565 
  8.731986060754384   3.633211187752779   1.665570019872000 
  7.460796308166357   5.812249093329646   1.665383718797415 
  6.318922209258529   8.103921502811378   1.666986836877870 
  5.043966011591901  10.224717662879437   1.666509229753770 
  3.758836151771180  12.324483437475063   1.665326572622295 
  4.999367735563180  14.484068013073697   1.664951924291700 
 12.498577665910741   1.463884870832542   1.665816221808525 
 11.239168786418420   3.630818804737008   1.666302312156645 
  9.983502906514204   5.800890645305167   1.665636167752935 
  8.757702634624650   7.980493110997938   1.665328409225670 
  7.562015442867428  10.195909255071030   1.665807005596125 
  6.280736870842525  12.344810106341018   1.665350455431555 
  4.266414938914362   7.656587797304277   1.664861646906825 
  8.769425361342611  13.753913090972290   1.665061965783165 
 16.259141396323155   0.732531371646744   1.664975903656320 
 14.995502100998046   2.897231160196960   1.664991893786010 
 13.745224524969302   5.066945262686319   1.664827042459170 
 12.510627949692093   7.235578714621845   1.664213897661315 
 11.279275487475861   9.404795877047091   1.665424902486285 
 10.032421612269193  11.579490598043902   1.665854259394665 
 -6.252692643168658  13.729746133594720   1.664901034939695 
  1.237433012828247   0.708137906250325   1.665061510496355 
 -0.035414578663134   2.868889336343453   1.665112899867075 
 -1.283210540619956   5.050474691658456   1.664678756735040 
 -2.507127122842133   7.225511389980221   1.664430749633160 
 -3.741971780938774   9.394380555867484   1.664844944537370 
 -4.992153677254743  11.562610837697862   1.664967458913405 
 -3.745638393379491  13.721663414532683   1.664771407904880 
  3.752045630244659   0.701570470743103   1.665783367237785 
  2.466154535175226   2.838682598520936   1.665588691889040 
  1.193011802394922   4.999334875233822   1.665525938357010 
  0.002039984664815   7.207988050501331   1.665093499511595 
 -1.228532138491879   9.385200997468621   1.664993586734670 
 -2.485568232945154  11.554807566278804   1.664591326851300 
 -1.242810203185600  13.723104751783344   1.664880761892255 
  6.258821432683748   0.709085815669859   1.665347381261685 
  4.991325504411548   2.861350278219604   1.665403289612940 
  3.681811504744616   4.956912247800557   1.665783166962480 
  2.472269933395379   7.112348412070340   1.665140029481175 
  1.295920296343513   9.371549732402421   1.665589762977915 
  0.021863939732875  11.550968687305193   1.665018203719800 
  1.252895865733350  13.738087589191895   1.664539292916585 
  8.753076637709466   0.727322875000112   1.664331781699860 
  7.487884550407834   2.896774235127672   1.664702040072360 
  6.209066345982158   5.067517156499441   1.665125483207535 
  3.840627405530135   9.482470996945434   1.666113618758970 
  2.522660854160976  11.573892331624998   1.665374921761200 
  3.748488978176251  13.765699699694165   1.664612345137845 
 11.248444911606772   0.742429435306472   1.664869728411930 
  9.985551951512448   2.910906558372710   1.665503699510685 
  8.717779423931091   5.086522155455701   1.665421729865880 
  7.479901583900027   7.268651131861422   1.665474078549270 
  6.312086014074213   9.512662232484081   1.666529692603140 
  5.030932480738949  11.646815356733175   1.665456387644910 
  6.261722121106865  13.775866073420445   1.664814613281030 
 13.752613865192412   0.744505267647499   1.665027979354110 
 12.491275853718047   2.907883401613941   1.666134998587500 
 11.235806364462778   5.076420388674643   1.665524879586675 
  9.999216653504002   7.246534681596074   1.664800567813260 
  8.781614466006769   9.426323267317267   1.665432610353750 
  7.538701154434030  11.624536614219666   1.665094482968415 
