 B Ge N 
 1.0
 14.936314146199660   0.000000000000000   0.000000000000000
 -7.468157073099825  12.935227489513863   0.000000000000000
  0.000000000000001   0.000000000000001  13.341276283792837
 B Ge N 
 143   1 143
Cartesian
  1.261960786797625   0.723594791932906   5.002978606422314 
  4.965737607018109   7.319380878512194   5.002978606422314 
  6.254778524880225   0.686711545330396   5.002978606422314 
  9.962568374500053   7.187018748916368   5.002978606422314 
 11.228449950899057   0.733758606394319   5.002978606422314 
 -3.734698970452836   9.341750534745595  11.673616748318732 
  1.243803097900134   9.342015874259113  11.673616748318732 
  2.488069967210595   2.873598099322794  11.673616748318732 
  6.222875305362178   9.342285027649279  11.673616748318732 
  7.467909136610228   2.873680071061673  11.673616748318732 
 12.446190030794044   2.873911068361761  11.673616748318732 
 -1.249067766428808   9.350366707611332   5.002978606422314 
  0.032826783756645   2.893447550108299   5.002978606422314 
  5.022120090567378   2.784728705946105   5.002978606422314 
  3.733543599128292   9.396341239081314   5.002978606422314 
  8.716039310253382   9.346070421302906   5.002978606422314 
  9.987768961296494   2.877091051360707   5.002978606422314 
 -4.979575148159896  11.497603827502186  11.673616748318732 
 -0.000611403955499  11.497626996440841  11.673616748318732 
  1.243258246852257   5.029675244840671  11.673616748318732 
  6.223108316582804   5.029735073687795  11.673616748318732 
  4.978069376294089  11.498041797042909  11.673616748318732 
 11.201767356812413   5.029760462861635  11.673616748318732 
 -1.231753825774467   5.042835200484738   5.002978606422314 
 -2.484421543855745  11.490062215436936   5.002978606422314 
  2.503887021809466  11.522630284388507   5.002978606422314 
  7.478514596639611  11.509565249891855   5.002978606422314 
  8.737098606030489   5.024007237488386   5.002978606422314 
 -0.001092598975048   7.185814059486582  11.673616748318732 
  1.243613168607501   0.718059557439546  11.673616748318732 
  4.978046815377470   7.186244852323428  11.673616748318732 
  6.222938927582661   0.717899639462300  11.673616748318732 
  9.957171556032714   7.185857010916795  11.673616748318732 
 -2.491619272652945   7.190985512801361   5.002978606422314 
 11.201662094291413   0.718292630171117  11.673616748318732 
  3.745782373160440   0.695680300000626   5.002978606422314 
  2.433320156247308   7.268661722819470   5.002978606422314 
  7.483646287141569   7.195180196071346   5.002978606422314 
  8.741448364567887   0.718857123403297   5.002978606422314 
  2.488222890138268   7.186109270391246  11.673616748318732 
 13.716439276731588   0.737313980579890   5.002978606422314 
 -1.245456330119076   9.341760800702495  11.673616748318732 
 -0.001224181915084   2.873788215911500  11.673616748318732 
  4.978078936565685   2.873552094446358  11.673616748318732 
  3.733248821160225   9.342301486432333  11.673616748318732 
  8.712334806399497   9.341977508410443  11.673616748318732 
  9.957245287128067   2.873856139655353  11.673616748318732 
 -3.736099033350631   9.340942208055099   5.002978606422314 
  1.232713214735061   9.385183821431214   5.002978606422314 
  2.518127910088442   2.871956405698341   5.002978606422314 
  6.230081508443843   9.366288225952349   5.002978606422314 
  7.514856324202684   2.846915479945695   5.002978606422314 
 12.475523658179934   2.886642879817128   5.002978606422314 
 -1.245721288556639   5.029713314279756  11.673616748318732 
 -2.490068759706640  11.497492764479913  11.673616748318732 
  2.488722113486369  11.497899006080242  11.673616748318732 
  3.732981040755273   5.029732606429618  11.673616748318732 
  7.467398323161803  11.497877363356427  11.673616748318732 
 -4.975776268127571  11.493671642941091   5.002978606422314 
  8.712708124987142   5.029768081706332  11.673616748318732 
  0.010873600857379  11.504257867061259   5.002978606422314 
  1.256865469907017   5.056527033770887   5.002978606422314 
 -0.014017691740052   7.207845038709085   5.002978606422314 
  6.332252893241498   4.952506973453740   5.002978606422314 
  4.996132729094407  11.522858618436459   5.002978606422314 
 11.217447500207184   5.033543494821570   5.002978606422314 
 -2.490113340946892   7.185729493906996  11.673616748318732 
  3.733165531865851   0.717889248292912  11.673616748318732 
  7.467846334193406   7.186058088983119  11.673616748318732 
  8.712447995123211   0.718089566703749  11.673616748318732 
 13.690746390882257   0.718276219805975  11.673616748318732 
  0.000118080279838   1.437015937244281   1.666184377710772 
  3.732766118388223   7.906932194749142   1.666290846124444 
  4.979032757249903   1.434774316677796   1.665918133630402 
  8.714644270768837   7.905897213289405   1.666449912851022 
  9.958114993347776   1.436936152289624   1.666116228642759 
 -4.977867635247144  10.061085533467152   8.339021691796832 
 -0.000793295107433  10.061266022418515   8.340011048461852 
  1.243700804138911   3.592545991730789   8.338547211592708 
  4.978817689078336  10.062278513549728   8.340673187882969 
  6.224601514814518   3.590946684040238   8.339666366720090 
 11.203010023638178   3.593216064893199   8.339392678059747 
 -2.489347343558396  10.060754631769012   1.667111718261026 
 -1.244834343596732   3.593336788404540   1.666184377710772 
  3.733361323049036   3.589476916185689   1.671024153617622 
  2.488386895177572  10.062056857892555   1.664990528308658 
  7.469283828056407  10.061854354786849   1.666386618670100 
  8.714211966194043   3.592385839283258   1.665284024961766 
 -6.222954171795624  12.216448462029875   8.339706551969833 
 -1.244627442039403  12.215649961093796   8.340011048461852 
 -0.001532689094843   5.749709610869011   8.339722597753690 
  4.980225390978835   5.749829467776366   8.331768473060968 
  3.734095017139571  12.217254978405945   8.339840984201869 
  9.959077703419137   5.749404862284759   8.339570594174141 
 -2.489265137889736   5.749509355642077   1.666250660874701 
 -3.733803984707458  12.215608018950435   1.666118983233550 
  1.244588122922316  12.216543278478484   1.665938694478138 
  2.485873166205897   5.750189785678473   1.671024153617622 
  6.223935714269694  12.217225743380391   1.666564534784774 
  7.470371455214571   5.749391625007690   1.666079445143011 
 -1.245417889402673   7.905596873034590   8.339838229611185 
  0.000118080279839   1.437015937244282   8.339772835133855 
  3.732766118388224   7.906932194749143   8.339666366720090 
  4.979032757249904   1.434774316677797   8.340039079214225 
  8.714644270768837   7.905897213289406   8.339507299993793 
 -3.733320920126356   7.905467390484982   1.666935521047689 
  9.958114993347776   1.436936152289625   8.339840984201869 
  2.489242551815352   1.435560343377911   1.666234615090950 
  1.242681694532290   7.906324192218716   1.665918133630402 
  6.224919240135898   7.906578139923168   1.666079445143011 
  7.468804609813927   1.435720333226256   1.664990528308658 
  1.242681694532290   7.906324192218717   8.340039079214225 
 12.447323075852186   1.437475333194185   1.666808843114810 
 -2.489347343558395  10.060754631769012   8.338845494583602 
 -1.244834343596732   3.593336788404541   8.339772835133855 
  3.733361323049029   3.589476916185704   8.334933059227192 
  2.488386895177573  10.062056857892555   8.340966684535770 
  7.469283828056408  10.061854354786849   8.339570594174141 
  8.714211966194043   3.592385839283259   8.340673187882969 
 -4.977867635247144  10.061085533467152   1.666935521047689 
 -0.000793295107433  10.061266022418515   1.665946164382603 
  1.243700804138910   3.592545991730788   1.667410001252094 
  4.978817689078335  10.062278513549728   1.665284024961766 
  6.224601514814517   3.590946684040237   1.666290846124444 
 11.203010023638178   3.593216064893198   1.666564534784774 
 -2.489265137889736   5.749509355642078   8.339706551969833 
 -3.733803984707458  12.215608018950435   8.339838229611185 
  1.244588122922317  12.216543278478484   8.340018518366584 
  2.485873166205898   5.750189785678474   8.334933059227192 
  6.223935714269695  12.217225743380391   8.339392678059747 
 -6.222954171795624  12.216448462029875   1.666250660874701 
  7.470371455214572   5.749391625007691   8.339877767701696 
 -1.244627442039404  12.215649961093796   1.665946164382603 
 -0.001532689094739   5.749709610869010   1.666234615090950 
 -1.245417889402674   7.905596873034589   1.666118983233550 
  4.980225390978834   5.749829467776365   1.674188739783753 
  3.734095017139571  12.217254978405945   1.666116228642759 
  9.959077703419137   5.749404862284758   1.666386618670100 
 -3.733320920126355   7.905467390484983   8.339021691796832 
  2.489242551815352   1.435560343377912   8.339722597753690 
  6.224919240135847   7.906578139923259   8.339877767701696 
  7.468804609813928   1.435720333226256   8.340966684535770 
 12.447323075852132   1.437475333194276   8.339148369729898 
  4.141454777387462   5.265565028230796   5.002978606422314 
  1.245049265794228   0.718471114103428   1.668191824958798 
  4.978855765288062   7.186705061005419   1.675583955919590 
  6.223756742461431   0.718390506550519   1.668333150293771 
  9.957606723862416   7.186349538418456   1.670346513378676 
 11.202511599787943   0.718783092398034   1.669092204451686 
 -3.733986817439407   9.342161696480021   8.336137330996021 
  1.244637108707852   9.342478689175518   8.337624062550843 
  2.489649477314642   2.874311003578763   8.334337522149847 
  6.223565852455319   9.342066371171400   8.334673121330193 
  7.468337359180175   2.874352088827822   8.336097603434210 
 12.447216778154591   2.874782408621148   8.336834105419237 
 -1.244675193283274   9.342329444058809   1.669230599159021 
  0.000401971969270   2.874727076294366   1.668895069092409 
  4.979161723850574   2.874277291626878   1.673674007314093 
  3.734044916902441   9.342336329173369   1.669859609410310 
  8.712978931642519   9.342108111055609   1.670346513378676 
  9.957681376743059   2.874655751793069   1.669294854424714 
 -4.978542318455258  11.497853512766712   8.336913194616971 
  0.000134102702590  11.498057414909786   8.337136001863486 
  1.244665395100468   5.030686688588237   8.334337522149847 
  6.223911343947434   5.030205540520305   8.330373256924839 
  4.978979905526134  11.498019655658764   8.336662358419726 
 11.202321077670087   5.030630054692788   8.336413827781604 
 -1.244646821437152   5.030751232593642   1.668191824958798 
 -2.489185731696471  11.497884927145380   1.669230599159021 
  2.489471837423292  11.498168819299801   1.668502219087246 
  3.733801809697538   5.030206477599549   1.687446263842334 
  7.468428272207177  11.497922103770485   1.669543385063305 
  8.712864036468936   5.030475441270841   1.671284091514527 
 -0.000057608656364   7.186667637667936   8.337350521935241 
  1.245049265794228   0.718471114103429   8.337765387885829 
  4.978855765288063   7.186705061005420   8.330373256924839 
  6.223756742461432   0.718390506550519   8.337624062550843 
  9.957606723862416   7.186349538418457   8.335610699466057 
 -2.489380692312803   7.186499108037182   1.669044018227658 
 11.202511599787943   0.718783092398035   8.336865008392941 
  3.734422247414420   0.718358787110783   1.668606690909480 
  2.489392322961587   7.186684393096958   1.673674007314093 
  7.468222041313223   7.186275003589640   1.673273370711196 
  8.713056522194194   0.718603940068989   1.668502219087246 
  2.489392322961587   7.186684393096959   8.332283205530349 
 13.692014367362193   0.718729738974312   1.669123107425392 
 -1.244675193283273   9.342329444058809   8.336726613685606 
  0.000401971969270   2.874727076294366   8.337062143752405 
  4.979161723850575   2.874277291626879   8.332283205530349 
  3.734044916902441   9.342336329173369   8.336097603434210 
  8.712978931642519   9.342108111055609   8.335610699466057 
  9.957681376743059   2.874655751793070   8.336662358419726 
 -3.733986817439408   9.342161696480021   1.669819881848806 
  1.244637108707852   9.342478689175518   1.668333150293771 
  2.489649477314642   2.874311003578762   1.671619690694968 
  6.223565852455318   9.342066371171400   1.671284091514527 
  7.468337359180174   2.874352088827821   1.669859609410310 
 12.447216778154591   2.874782408621147   1.669123107425392 
 -1.244646821437151   5.030751232593643   8.337765387885829 
 -2.489185731696471  11.497884927145380   8.336726613685606 
  2.489471837423292  11.498168819299801   8.337454993757195 
  3.733801809697538   5.030206477599550   8.318510949002199 
  7.468428272207178  11.497922103770485   8.336413827781604 
 -4.978542318455259  11.497853512766712   1.669044018227658 
  8.712864036468936   5.030475441270842   8.334673121330193 
  0.000134102702590  11.498057414909786   1.668821210981142 
  1.244665395100467   5.030686688588236   1.671619690694968 
 -0.000057608656364   7.186667637667935   1.668606690909480 
  6.223911343947329   5.030205540520305   1.675583955919590 
  4.978979905526081  11.498019655658855   1.669294854424714 
 11.202321077670087   5.030630054692788   1.669543385063305 
 -2.489380692312803   7.186499108037183   8.336913194616971 
  3.734422247414421   0.718358787110784   8.337350521935241 
  7.468222041313224   7.186275003589641   8.332683842133431 
  8.713056522194194   0.718603940068990   8.337454993757195 
 13.692014367362193   0.718729738974313   8.336834105419237 
  0.026751294345032   1.454967618287975   5.002978606422314 
  3.708971542262868   7.943857763972519   5.002978606422314 
  5.009736463334584   1.381196150574137   5.002978606422314 
  8.712493238764253   7.904655314383318   5.002978606422314 
  9.980836859085969   1.444650422767540   5.002978606422314 
 -4.979504731536278  10.060323950748286  11.673616748318732 
 -0.000665837353373  10.060342532425706  11.673616748318732 
  1.243927405417249   3.592676820039889  11.673616748318732 
  4.978063578851623  10.060304249234768  11.673616748318732 
  6.222683523045446   3.592727408244382  11.673616748318732 
 11.201524460252291   3.592728044414081  11.673616748318732 
 -2.493203250991716  10.058528422574476   5.002978606422314 
 -1.215971124739660   3.607425987847581   5.002978606422314 
  3.810302644526682   3.503971701776571   5.002978606422314 
  2.489347183228932  10.088199823540076   5.002978606422314 
  7.472284257145779  10.065012879971963   5.002978606422314 
  8.733896967870839   3.592959321379673   5.002978606422314 
 -6.224214321158246  12.216183169440487  11.673616748318732 
 -1.245363478956117  12.216222087742830  11.673616748318732 
 -0.000749577282624   5.748526667698695  11.673616748318732 
  4.977967222997436   5.748525713884370  11.673616748318732 
  3.733376407701405  12.216183732603932  11.673616748318732 
  9.956834152615308   5.748575950254518  11.673616748318732 
 -2.480676038601212   5.755766788556142   5.002978606422314 
 -3.729548326596534  12.203242400660534   5.002978606422314 
  1.257750934111093  12.224142831061437   5.002978606422314 
  2.450294139110440   5.859575531883332   5.002978606422314 
  6.240800380561590  12.232795954737917   5.002978606422314 
  7.465689489115294   5.757260476825460   5.002978606422314 
 -1.245406767197858   7.904421288875382  11.673616748318732 
 -0.000757784063831   1.436802526514281  11.673616748318732 
  3.733349274901558   7.904380803050898  11.673616748318732 
  4.978047447091384   1.436875112434592  11.673616748318732 
  8.712119517987865   7.904439546592657  11.673616748318732 
 -3.737649893180284   7.904752844293739   5.002978606422314 
  9.956827962550390   1.436849441161885  11.673616748318732 
  2.512043526286525   1.435102590555600   5.002978606422314 
  1.211633494640576   7.959703464730392   5.002978606422314 
  6.229392882659332   7.898589012432368   5.002978606422314 
  7.491925226220451   1.423480484250222   5.002978606422314 
  1.244008381946203   7.904420490713083  11.673616748318732 
 12.472061806706977   1.451758246112790   5.002978606422314 
 -2.490078423271345  10.060332542700083  11.673616748318732 
 -1.245457094882232   3.592684972997733  11.673616748318732 
  3.733335311976167   3.592738987988814  11.673616748318732 
  2.488698307256585  10.060314104589805  11.673616748318732 
  7.467444193778593  10.060325838811536  11.673616748318732 
  8.712125148030303   3.592719892826880  11.673616748318732 
 -4.980650936927627  10.057693805925295   5.002978606422314 
 -0.007054520798350  10.078153453633561   5.002978606422314 
  1.286796959406775   3.617427568575728   5.002978606422314 
  4.989156839981000  10.079039484026893   5.002978606422314 
  6.244682707748654   3.551877192031232   5.002978606422314 
 11.224926555362028   3.600036188649760   5.002978606422314 
 -2.490124962692790   5.748550680575999  11.673616748318732 
 -3.734816509351538  12.216205443142526  11.673616748318732 
  1.244003393385352  12.216205684722736  11.673616748318732 
  2.488685197719936   5.748536223527028  11.673616748318732 
  6.222770294444275  12.216183217988830  11.673616748318732 
 -6.213240526285314  12.220758123752347   5.002978606422314 
  7.467381476406887   5.748565114173285  11.673616748318732 
 -1.233133110448029  12.201783864979213   5.002978606422314 
  0.009471372567968   5.769684710403243   5.002978606422314 
 -1.253998999920097   7.915465190213991   5.002978606422314 
  3.752136704214311  12.233075556117461   5.002978606422314 
  9.963313281012685   5.750424047505747   5.002978606422314 
 -3.734799018252434   7.904430414869392  11.673616748318732 
  2.488609648884684   1.436830009686546  11.673616748318732 
  6.222708471352959   7.904401997736137  11.673616748318732 
  7.467451047220512   1.436861400649464  11.673616748318732 
 12.446216129535729   1.436836237440531  11.673616748318732 
Generated by cif2cell 2.0.0.  :  Failed to get author information, No journal information. Species order: B Ge N 
 1.0
 14.936314146199660   0.000000000000000   0.000000000000000
 -7.468157073099825  12.935227489513863   0.000000000000000
  0.000000000000001   0.000000000000001  13.341276283792837
 B Ge N 
 143   1 143
Cartesian
  1.261960786797625   0.723594791932906   5.002978606422314 
  4.965737607018109   7.319380878512194   5.002978606422314 
  6.254778524880225   0.686711545330396   5.002978606422314 
  9.962568374500053   7.187018748916368   5.002978606422314 
 11.228449950899057   0.733758606394319   5.002978606422314 
 -3.734698970452836   9.341750534745595  11.673616748318732 
  1.243803097900134   9.342015874259113  11.673616748318732 
  2.488069967210595   2.873598099322794  11.673616748318732 
  6.222875305362178   9.342285027649279  11.673616748318732 
  7.467909136610228   2.873680071061673  11.673616748318732 
 12.446190030794044   2.873911068361761  11.673616748318732 
 -1.249067766428808   9.350366707611332   5.002978606422314 
  0.032826783756645   2.893447550108299   5.002978606422314 
  5.022120090567378   2.784728705946105   5.002978606422314 
  3.733543599128292   9.396341239081314   5.002978606422314 
  8.716039310253382   9.346070421302906   5.002978606422314 
  9.987768961296494   2.877091051360707   5.002978606422314 
 -4.979575148159896  11.497603827502186  11.673616748318732 
 -0.000611403955499  11.497626996440841  11.673616748318732 
  1.243258246852257   5.029675244840671  11.673616748318732 
  6.223108316582804   5.029735073687795  11.673616748318732 
  4.978069376294089  11.498041797042909  11.673616748318732 
 11.201767356812413   5.029760462861635  11.673616748318732 
 -1.231753825774467   5.042835200484738   5.002978606422314 
 -2.484421543855745  11.490062215436936   5.002978606422314 
  2.503887021809466  11.522630284388507   5.002978606422314 
  7.478514596639611  11.509565249891855   5.002978606422314 
  8.737098606030489   5.024007237488386   5.002978606422314 
 -0.001092598975048   7.185814059486582  11.673616748318732 
  1.243613168607501   0.718059557439546  11.673616748318732 
  4.978046815377470   7.186244852323428  11.673616748318732 
  6.222938927582661   0.717899639462300  11.673616748318732 
  9.957171556032714   7.185857010916795  11.673616748318732 
 -2.491619272652945   7.190985512801361   5.002978606422314 
 11.201662094291413   0.718292630171117  11.673616748318732 
  3.745782373160440   0.695680300000626   5.002978606422314 
  2.433320156247308   7.268661722819470   5.002978606422314 
  7.483646287141569   7.195180196071346   5.002978606422314 
  8.741448364567887   0.718857123403297   5.002978606422314 
  2.488222890138268   7.186109270391246  11.673616748318732 
 13.716439276731588   0.737313980579890   5.002978606422314 
 -1.245456330119076   9.341760800702495  11.673616748318732 
 -0.001224181915084   2.873788215911500  11.673616748318732 
  4.978078936565685   2.873552094446358  11.673616748318732 
  3.733248821160225   9.342301486432333  11.673616748318732 
  8.712334806399497   9.341977508410443  11.673616748318732 
  9.957245287128067   2.873856139655353  11.673616748318732 
 -3.736099033350631   9.340942208055099   5.002978606422314 
  1.232713214735061   9.385183821431214   5.002978606422314 
  2.518127910088442   2.871956405698341   5.002978606422314 
  6.230081508443843   9.366288225952349   5.002978606422314 
  7.514856324202684   2.846915479945695   5.002978606422314 
 12.475523658179934   2.886642879817128   5.002978606422314 
 -1.245721288556639   5.029713314279756  11.673616748318732 
 -2.490068759706640  11.497492764479913  11.673616748318732 
  2.488722113486369  11.497899006080242  11.673616748318732 
  3.732981040755273   5.029732606429618  11.673616748318732 
  7.467398323161803  11.497877363356427  11.673616748318732 
 -4.975776268127571  11.493671642941091   5.002978606422314 
  8.712708124987142   5.029768081706332  11.673616748318732 
  0.010873600857379  11.504257867061259   5.002978606422314 
  1.256865469907017   5.056527033770887   5.002978606422314 
 -0.014017691740052   7.207845038709085   5.002978606422314 
  6.332252893241498   4.952506973453740   5.002978606422314 
  4.996132729094407  11.522858618436459   5.002978606422314 
 11.217447500207184   5.033543494821570   5.002978606422314 
 -2.490113340946892   7.185729493906996  11.673616748318732 
  3.733165531865851   0.717889248292912  11.673616748318732 
  7.467846334193406   7.186058088983119  11.673616748318732 
  8.712447995123211   0.718089566703749  11.673616748318732 
 13.690746390882257   0.718276219805975  11.673616748318732 
  0.000118080279838   1.437015937244281   1.666184377710772 
  3.732766118388223   7.906932194749142   1.666290846124444 
  4.979032757249903   1.434774316677796   1.665918133630402 
  8.714644270768837   7.905897213289405   1.666449912851022 
  9.958114993347776   1.436936152289624   1.666116228642759 
 -4.977867635247144  10.061085533467152   8.339021691796832 
 -0.000793295107433  10.061266022418515   8.340011048461852 
  1.243700804138911   3.592545991730789   8.338547211592708 
  4.978817689078336  10.062278513549728   8.340673187882969 
  6.224601514814518   3.590946684040238   8.339666366720090 
 11.203010023638178   3.593216064893199   8.339392678059747 
 -2.489347343558396  10.060754631769012   1.667111718261026 
 -1.244834343596732   3.593336788404540   1.666184377710772 
  3.733361323049036   3.589476916185689   1.671024153617622 
  2.488386895177572  10.062056857892555   1.664990528308658 
  7.469283828056407  10.061854354786849   1.666386618670100 
  8.714211966194043   3.592385839283258   1.665284024961766 
 -6.222954171795624  12.216448462029875   8.339706551969833 
 -1.244627442039403  12.215649961093796   8.340011048461852 
 -0.001532689094843   5.749709610869011   8.339722597753690 
  4.980225390978835   5.749829467776366   8.331768473060968 
  3.734095017139571  12.217254978405945   8.339840984201869 
  9.959077703419137   5.749404862284759   8.339570594174141 
 -2.489265137889736   5.749509355642077   1.666250660874701 
 -3.733803984707458  12.215608018950435   1.666118983233550 
  1.244588122922316  12.216543278478484   1.665938694478138 
  2.485873166205897   5.750189785678473   1.671024153617622 
  6.223935714269694  12.217225743380391   1.666564534784774 
  7.470371455214571   5.749391625007690   1.666079445143011 
 -1.245417889402673   7.905596873034590   8.339838229611185 
  0.000118080279839   1.437015937244282   8.339772835133855 
  3.732766118388224   7.906932194749143   8.339666366720090 
  4.979032757249904   1.434774316677797   8.340039079214225 
  8.714644270768837   7.905897213289406   8.339507299993793 
 -3.733320920126356   7.905467390484982   1.666935521047689 
  9.958114993347776   1.436936152289625   8.339840984201869 
  2.489242551815352   1.435560343377911   1.666234615090950 
  1.242681694532290   7.906324192218716   1.665918133630402 
  6.224919240135898   7.906578139923168   1.666079445143011 
  7.468804609813927   1.435720333226256   1.664990528308658 
  1.242681694532290   7.906324192218717   8.340039079214225 
 12.447323075852186   1.437475333194185   1.666808843114810 
 -2.489347343558395  10.060754631769012   8.338845494583602 
 -1.244834343596732   3.593336788404541   8.339772835133855 
  3.733361323049029   3.589476916185704   8.334933059227192 
  2.488386895177573  10.062056857892555   8.340966684535770 
  7.469283828056408  10.061854354786849   8.339570594174141 
  8.714211966194043   3.592385839283259   8.340673187882969 
 -4.977867635247144  10.061085533467152   1.666935521047689 
 -0.000793295107433  10.061266022418515   1.665946164382603 
  1.243700804138910   3.592545991730788   1.667410001252094 
  4.978817689078335  10.062278513549728   1.665284024961766 
  6.224601514814517   3.590946684040237   1.666290846124444 
 11.203010023638178   3.593216064893198   1.666564534784774 
 -2.489265137889736   5.749509355642078   8.339706551969833 
 -3.733803984707458  12.215608018950435   8.339838229611185 
  1.244588122922317  12.216543278478484   8.340018518366584 
  2.485873166205898   5.750189785678474   8.334933059227192 
  6.223935714269695  12.217225743380391   8.339392678059747 
 -6.222954171795624  12.216448462029875   1.666250660874701 
  7.470371455214572   5.749391625007691   8.339877767701696 
 -1.244627442039404  12.215649961093796   1.665946164382603 
 -0.001532689094739   5.749709610869010   1.666234615090950 
 -1.245417889402674   7.905596873034589   1.666118983233550 
  4.980225390978834   5.749829467776365   1.674188739783753 
  3.734095017139571  12.217254978405945   1.666116228642759 
  9.959077703419137   5.749404862284758   1.666386618670100 
 -3.733320920126355   7.905467390484983   8.339021691796832 
  2.489242551815352   1.435560343377912   8.339722597753690 
  6.224919240135847   7.906578139923259   8.339877767701696 
  7.468804609813928   1.435720333226256   8.340966684535770 
 12.447323075852132   1.437475333194276   8.339148369729898 
  4.141454777387462   5.265565028230796   5.002978606422314 
  1.245049265794228   0.718471114103428   1.668191824958798 
  4.978855765288062   7.186705061005419   1.675583955919590 
  6.223756742461431   0.718390506550519   1.668333150293771 
  9.957606723862416   7.186349538418456   1.670346513378676 
 11.202511599787943   0.718783092398034   1.669092204451686 
 -3.733986817439407   9.342161696480021   8.336137330996021 
  1.244637108707852   9.342478689175518   8.337624062550843 
  2.489649477314642   2.874311003578763   8.334337522149847 
  6.223565852455319   9.342066371171400   8.334673121330193 
  7.468337359180175   2.874352088827822   8.336097603434210 
 12.447216778154591   2.874782408621148   8.336834105419237 
 -1.244675193283274   9.342329444058809   1.669230599159021 
  0.000401971969270   2.874727076294366   1.668895069092409 
  4.979161723850574   2.874277291626878   1.673674007314093 
  3.734044916902441   9.342336329173369   1.669859609410310 
  8.712978931642519   9.342108111055609   1.670346513378676 
  9.957681376743059   2.874655751793069   1.669294854424714 
 -4.978542318455258  11.497853512766712   8.336913194616971 
  0.000134102702590  11.498057414909786   8.337136001863486 
  1.244665395100468   5.030686688588237   8.334337522149847 
  6.223911343947434   5.030205540520305   8.330373256924839 
  4.978979905526134  11.498019655658764   8.336662358419726 
 11.202321077670087   5.030630054692788   8.336413827781604 
 -1.244646821437152   5.030751232593642   1.668191824958798 
 -2.489185731696471  11.497884927145380   1.669230599159021 
  2.489471837423292  11.498168819299801   1.668502219087246 
  3.733801809697538   5.030206477599549   1.687446263842334 
  7.468428272207177  11.497922103770485   1.669543385063305 
  8.712864036468936   5.030475441270841   1.671284091514527 
 -0.000057608656364   7.186667637667936   8.337350521935241 
  1.245049265794228   0.718471114103429   8.337765387885829 
  4.978855765288063   7.186705061005420   8.330373256924839 
  6.223756742461432   0.718390506550519   8.337624062550843 
  9.957606723862416   7.186349538418457   8.335610699466057 
 -2.489380692312803   7.186499108037182   1.669044018227658 
 11.202511599787943   0.718783092398035   8.336865008392941 
  3.734422247414420   0.718358787110783   1.668606690909480 
  2.489392322961587   7.186684393096958   1.673674007314093 
  7.468222041313223   7.186275003589640   1.673273370711196 
  8.713056522194194   0.718603940068989   1.668502219087246 
  2.489392322961587   7.186684393096959   8.332283205530349 
 13.692014367362193   0.718729738974312   1.669123107425392 
 -1.244675193283273   9.342329444058809   8.336726613685606 
  0.000401971969270   2.874727076294366   8.337062143752405 
  4.979161723850575   2.874277291626879   8.332283205530349 
  3.734044916902441   9.342336329173369   8.336097603434210 
  8.712978931642519   9.342108111055609   8.335610699466057 
  9.957681376743059   2.874655751793070   8.336662358419726 
 -3.733986817439408   9.342161696480021   1.669819881848806 
  1.244637108707852   9.342478689175518   1.668333150293771 
  2.489649477314642   2.874311003578762   1.671619690694968 