Species order: X N B                    
   2.51242800000000     
     5.9449720136058266    0.0000000000000000    0.0000000000000000
    -2.9724860068029120    5.1484967885702053   -0.0000000000000001
     0.0000000000000000    0.0000000000000009    5.3101128803662583
   Ge   N    B 
     1   143   143
Direct
  0.4808100642218494  0.4070716987775747  0.3750000000000000
  0.1111290737915509  0.0555437555841878  0.1250398979432979
  0.6111348340359106  0.5555917023362311  0.1255939776882605
  0.4444550127844440  0.0555375239540932  0.1250504910328923
  0.9444530575803579  0.5555642175017159  0.1252014033625727
  0.7778024148366491  0.0555678740849922  0.1251073862010730
  0.1111192986831085  0.7222263160082329  0.6248380704867701
  0.4444550127844440  0.7222508221636722  0.6249495089671071
  0.2777883263804559  0.2222079979582007  0.6247031651892639
  0.7777829438325170  0.7222189465739730  0.6247283201424492
  0.6111176574130317  0.2222111741875403  0.6248350926935688
  0.9444748575553308  0.2222444414643372  0.6248902974557939
  0.2777874906412495  0.7222392842825774  0.1251177596244541
  0.1111469943029359  0.2222401638181324  0.1250926098517135
  0.4444621629484192  0.2222053917456768  0.1254508168268196
  0.6111176574130317  0.7222398165588408  0.1251649073064235
  0.9444530575803579  0.7222221734120201  0.1252014033625727
  0.7777932718309999  0.2222346498446555  0.1251225759002229
  0.1111215582370264  0.8888791111008774  0.6248962256140942
  0.4444564155104868  0.8888948744218725  0.6249129262086833
  0.2777883263804559  0.3889136617555768  0.6247031651892639
  0.6111348340359106  0.3888764650330361  0.6244060223117254
  0.7777932718309999  0.8888919553196730  0.6248774240997625
  0.9444603639064222  0.3889092834873558  0.6248587953994172
  0.1111290737915509  0.3889186515406776  0.1250398979432979
  0.2777874906412495  0.8888815396920011  0.1251177596244541
  0.6111241776978982  0.8889034869020248  0.1250631636430591
  0.4444197416206567  0.3888765374770066  0.1264831211008103
  0.9444603639064222  0.8888844137524019  0.1251412046006036
  0.7777829438325170  0.3888973305918946  0.1252716798575582
  0.2777905476488156  0.5555888092029243  0.6249290056352077
  0.1111290737915509  0.0555437555841878  0.6249601020567022
  0.6111348340359106  0.5555917023362311  0.6244060223117254
  0.4444550127844440  0.0555375239540932  0.6249495089671071
  0.9444530575803579  0.5555642175017159  0.6247985966374349
  0.1111215582370264  0.5555757804694986  0.1251037743859061
  0.7778024148366491  0.0555678740849922  0.6248926137989270
  0.2777905476488156  0.0555350717792272  0.1250709943647990
  0.4444621629484192  0.5555901045360784  0.1254508168268196
  0.7777835773534656  0.5555584553433870  0.1254207869710266
  0.6111241776978982  0.0555540241291884  0.1250631636430591
  0.4444621629484192  0.5555901045360784  0.6245491831731658
  0.9444748575553308  0.0555637494243499  0.1251097025442063
  0.2777874906412495  0.7222392842825774  0.6248822403755462
  0.1111469943029359  0.2222401638181324  0.6249073901483011
  0.4444621629484192  0.2222053917456768  0.6245491831731658
  0.6111176574130317  0.7222398165588408  0.6248350926935688
  0.9444530575803579  0.7222221734120201  0.6247985966374349
  0.7777932718309999  0.2222346498446555  0.6248774240997625
  0.1111192986831085  0.7222263160082329  0.1251619295132447
  0.4444550127844440  0.7222508221636722  0.1250504910328923
  0.2777883263804559  0.2222079979582007  0.1252968348107500
  0.7777829438325170  0.7222189465739730  0.1252716798575582
  0.6111176574130317  0.2222111741875403  0.1251649073064235
  0.9444748575553308  0.2222444414643372  0.1251097025442063
  0.1111290737915509  0.3889186515406776  0.6249601020567022
  0.2777874906412495  0.8888815396920011  0.6248822403755462
  0.6111241776978982  0.8889034869020248  0.6249368363569268
  0.4444197416206567  0.3888765374770066  0.6235168788991828
  0.9444603639064222  0.8888844137524019  0.6248587953994172
  0.1111215582370264  0.8888791111008774  0.1251037743859061
  0.7777829438325170  0.3888973305918946  0.6247283201424492
  0.4444564155104868  0.8888948744218725  0.1250870737913170
  0.2777883263804559  0.3889136617555768  0.1252968348107500
  0.2777905476488156  0.5555888092029243  0.1250709943647990
  0.6111348340359035  0.3888764650330361  0.1255939776882605
  0.7777932718309999  0.8888919553196801  0.1251225759002229
  0.9444603639064222  0.3889092834873558  0.1251412046006036
  0.1111215582370264  0.5555757804694986  0.6248962256140942
  0.2777905476488156  0.0555350717792272  0.6249290056352077
  0.7777835773534656  0.5555584553433870  0.6245792130289733
  0.6111241776978982  0.0555540241291884  0.6249368363569268
  0.9444748575553308  0.0555637494243499  0.6248902974557939
  0.0580315352195716  0.1124810228090277  0.3750000000000000
  0.5553819958190362  0.6141258644590775  0.3750000000000000
  0.3887954133684174  0.1067778786027404  0.3750000000000000
  0.8888570488290508  0.6110951910812040  0.3750000000000000
  0.7240679369553435  0.1116834183193660  0.3750000000000000
  0.0554906653308390  0.7777461941743068  0.8750000000000000
  0.3888292369212175  0.7777476306915568  0.8750000000000000
  0.2221538929952708  0.2777436131643101  0.8750000000000000
  0.7221582807978941  0.7777446710844713  0.8750000000000000
  0.5554881598035563  0.2777475240506497  0.8750000000000000
  0.8888261745082335  0.2777475732318263  0.8750000000000000
  0.2218814366780274  0.7776073850056813  0.3750000000000000
  0.0580315352195716  0.2788838457438796  0.3750000000000000
  0.3905462614593178  0.2708859743376846  0.3750000000000000
  0.5566147033070949  0.7799012295468496  0.3750000000000000
  0.8893306623558369  0.7781086871592573  0.3750000000000000
  0.7236251791079780  0.2777654528528671  0.3750000000000000
  0.0554890793053403  0.9444119308565483  0.8750000000000000
  0.3888292369212175  0.9444149395629955  0.8750000000000000
  0.2221541278040942  0.4444086253882137  0.8750000000000000
  0.5554837699676439  0.4444085516504827  0.8750000000000000
  0.7221589790232557  0.9444119743937375  0.8750000000000000
  0.8888254421409303  0.4444124353371203  0.8750000000000000
  0.0564006258785541  0.4449683465731191  0.3750000000000000
  0.2220090529667084  0.9434115024689959  0.3750000000000000
  0.5567212236462316  0.9450272784897774  0.3750000000000000
  0.3905462614593178  0.4529936204549542  0.3750000000000000
  0.8906754563244179  0.9456962364716519  0.3750000000000000
  0.7223767034888273  0.4450838210222947  0.3750000000000000
  0.2221574184395954  0.6110770989751219  0.8750000000000000
  0.0554876211948436  0.1110767110728471  0.8750000000000000
  0.5554881598035563  0.6110739690862566  0.8750000000000000
  0.3888260265016614  0.1110823225644395  0.8750000000000000
  0.8888236875617713  0.6110785104475749  0.8750000000000000
  0.0553122598563137  0.6111027309494049  0.3750000000000000
  0.7221589790232557  0.1110803379628757  0.8750000000000000
  0.2236562756085641  0.1109452919725597  0.3750000000000000
  0.3887954133684174  0.6153508680989989  0.3750000000000000
  0.7223767034888344  0.6106262157998749  0.3750000000000000
  0.5566147033070949  0.1100468070935887  0.3750000000000000
  0.3888260265016614  0.6110770372705793  0.8750000000000000
  0.8911324902927978  0.1122329118130845  0.3750000000000000
  0.2221603834730504  0.7777468584031966  0.8750000000000000
  0.0554876211948436  0.2777442434553390  0.8750000000000000
  0.3888244500600049  0.2777484192606063  0.8750000000000000
  0.5554933621816407  0.7777454329848736  0.8750000000000000
  0.8888254421409303  0.7777463401372017  0.8750000000000000
  0.7221582807978941  0.2777469430467589  0.8750000000000000
  0.0553122598563137  0.7775428622402445  0.3750000000000000
  0.3890899743876891  0.7791245621156305  0.3750000000000000
  0.2259807678694767  0.2796570506014098  0.3750000000000000
  0.7236251791079780  0.7791930595884471  0.3750000000000000
  0.5553819958190291  0.2745894646932662  0.3750000000000000
  0.8906754563244250  0.2783125531861098  0.3750000000000000
  0.0554890793053403  0.4444104817821062  0.8750000000000000
  0.2221574184395954  0.9444136527978170  0.8750000000000000
  0.5554940096146058  0.9444136714739643  0.8750000000000000
  0.3888244500600049  0.4444093641327272  0.8750000000000000
  0.8888261745082335  0.9444119346097363  0.8750000000000000
  0.0564006258785541  0.9447656126387638  0.3750000000000000
  0.7221538718957197  0.4444115976184757  0.8750000000000000
  0.3890899743876891  0.9432987456054235  0.3750000000000000
  0.2236562756085641  0.4460443169693401  0.3750000000000000
  0.2220090529667084  0.6119308838310555  0.3750000000000000
  0.7240679369553435  0.9457178519693131  0.3750000000000000
  0.8893306623558369  0.4445553085299360  0.3750000000000000
  0.0554906653308390  0.6110778044898894  0.8750000000000000
  0.2221541278040942  0.1110788357492233  0.8750000000000000
  0.7221538718957197  0.6110756076106086  0.8750000000000000
  0.5554933621816407  0.1110812625301162  0.8750000000000000
  0.8888253010787979  0.1110793172060809  0.8750000000000000
  0.1124593670341136  0.0559398582297452  0.3750000000000000
  0.6153850299049286  0.5658486396505794  0.3750000000000000
  0.4453074269413827  0.0530884784119251  0.3750000000000000
  0.9448111124154668  0.5556159530045093  0.3750000000000000
  0.7801178768582427  0.0567256050957856  0.3750000000000000
  0.1110557262821682  0.7221945298077378  0.8750000000000000
  0.4443812852828989  0.7222150427452753  0.8750000000000000
  0.2776550200273193  0.2221528845667626  0.8750000000000000
  0.7777451630446159  0.7222358505270005  0.8750000000000000
  0.6110630112533341  0.2221592216597085  0.8750000000000000
  0.9443724349710918  0.2221770796602945  0.8750000000000000
  0.2778040772721709  0.7228606311865285  0.3750000000000000
  0.1140414890196402  0.2236874111764880  0.3750000000000000
  0.4438768422832290  0.2152825459160716  0.3750000000000000
  0.6131716066804668  0.7264148424678730  0.3750000000000000
  0.9448111124154668  0.7225284927442860  0.3750000000000000
  0.7799017977434908  0.2224229186300018  0.3750000000000000
  0.1110427579689144  0.8888598083661763  0.8750000000000000
  0.4443898656999204  0.8888615995166349  0.8750000000000000
  0.2776550200273193  0.3888354687938851  0.8750000000000000
  0.6110628851262604  0.3888400940582782  0.8750000000000000
  0.7777331669156126  0.8888936670316747  0.8750000000000000
  0.9443896784665506  0.3888420568512679  0.8750000000000000
  0.1124593670341136  0.3898528421377039  0.3750000000000000
  0.2778040772721709  0.8882767794189573  0.3750000000000000
  0.6130348242978941  0.8907945603376134  0.3750000000000000
  0.9455857083398137  0.8897845251830524  0.3750000000000000
  0.7791554477960730  0.3883972849771036  0.3750000000000000
  0.2776882597686532  0.5555228205543248  0.8750000000000000
  0.1110170173952387  0.0555119388523815  0.8750000000000000
  0.6110628851262604  0.5555561244012962  0.8750000000000000
  0.4443812852828989  0.0554995758709522  0.8750000000000000
  0.9444048844696206  0.5555261410548923  0.8750000000000000
  0.1111451013049281  0.5559226166397805  0.3750000000000000
  0.7777265812685960  0.0555299573009764  0.8750000000000000
  0.2776745012885912  0.0537818372784390  0.3750000000000000
  0.4438768422832290  0.5619276297005146  0.3750000000000000
  0.7791604673213355  0.5562469003273602  0.3750000000000000
  0.6130348242978941  0.0555735972935958  0.3750000000000000
  0.4443616374735540  0.5555456427972969  0.8750000000000000
  0.9468284854931847  0.0570004649069837  0.3750000000000000
  0.2777132123943021  0.7221953234510591  0.8750000000000000
  0.1110018309675972  0.2221675821504629  0.8750000000000000
  0.4443616374735540  0.2221493280095647  0.8750000000000000
  0.6110630112533341  0.7222371229269687  0.8750000000000000
  0.9444048844696206  0.7222120767480633  0.8750000000000000
  0.7777331669156126  0.2221728332172805  0.8750000000000000
  0.1109307456134522  0.7221320394734048  0.3750000000000000
  0.4453074269413898  0.7255522818628009  0.3750000000000000
  0.2796039687664064  0.2220259680803086  0.3750000000000000
  0.7791554477960730  0.7240914961522922  0.3750000000000000
  0.6131716066804668  0.2200900975459142  0.3750000000000000
  0.9468284854931847  0.2231613539195368  0.3750000000000000
  0.1110170173952387  0.3888384118761860  0.8750000000000000
  0.2777132123943021  0.8888512222765720  0.8750000000000000
  0.6110635535932490  0.8888826281100336  0.8750000000000000
  0.4443464733043195  0.3888399033188277  0.8750000000000000
  0.9443896784665506  0.8888809549485970  0.8750000000000000
  0.1111451013049281  0.8885558179984548  0.3750000000000000
  0.7777451630446159  0.3888426458509363  0.8750000000000000
  0.4454151079116627  0.8893742206225099  0.3750000000000000
  0.2796039687664064  0.3909113340194472  0.3750000000000000
  0.2776745012885912  0.5572259973434740  0.3750000000000000
  0.6153850299049286  0.3828697235876649  0.3750000000000000
  0.7799017977434908  0.8908122124467958  0.3750000000000000
  0.9455857083398066  0.3891345164901109  0.3750000000000000
  0.1110427579689144  0.5555162829360529  0.8750000000000000
  0.2776882597686532  0.0554987725476714  0.8750000000000000
  0.7777500387694898  0.5555416860514125  0.8750000000000000
  0.6110635535932490  0.0555142588165444  0.8750000000000000
  0.9443724349710918  0.0555286886441116  0.8750000000000000
  0.0555545103266811  0.1110932094862046  0.1248894290372263
  0.5555477387707464  0.6112712127528496  0.1248974094141710
  0.3888107894870304  0.1109199136884846  0.1248694726196606
  0.8890490669296512  0.6111912001314580  0.1249093323159377
  0.7222484986649317  0.1110870414497544  0.1248843209001514
  0.0556297087559144  0.7778050708132751  0.6250542687529221
  0.3888564002118339  0.7778190241010315  0.6251284263255538
  0.2221336647759890  0.2777334990546660  0.6250187039243384
  0.7222850826475249  0.7778972980341371  0.6251780572159595
  0.5555477387707464  0.2776098593512398  0.6251025905858223
  0.8889444983546375  0.2777853012485546  0.6250820761571783
  0.2222256454206077  0.7777794893769684  0.1249589381704249
  0.0555545103266811  0.2777946341738122  0.1248894290372263
  0.3887000989689258  0.2774962341478381  0.1252521961221663
  0.5555398774733432  0.7778801622197613  0.1247999436404227
  0.8890076908109147  0.7778645070559167  0.1249045880786119
  0.7222850826475249  0.2777211179467447  0.1248219427840479
  0.0555837021216977  0.9444324401664618  0.6251056026851808
  0.3888564002118339  0.9443707094441589  0.6251284263255538
  0.2221474233887059  0.4445000766727992  0.6251068054024856
  0.5556853518714809  0.4445093426024048  0.6245106012220525
  0.7222484986649317  0.9444947905485271  0.6251156790998488
  0.8890076908109147  0.4444765170883622  0.6250954119213593
  0.0555837021216977  0.4444845952885643  0.1248943973148118
  0.2222021149838309  0.9443674669698083  0.1248845273714607
  0.5555462071899305  0.9444397702616371  0.1248710137651481
  0.3887000989689258  0.4445371981544163  0.1252521961221663
  0.8889444983546375  0.9444925304394119  0.1249179238428143
  0.7223860017924595  0.4444754937374326  0.1248815637801454
  0.2222021149838309  0.6111679813473234  0.6251154726285467
  0.0555545103266811  0.1110932094862046  0.6251105709627737
  0.5555477387707464  0.6112712127528496  0.6251025905858223
  0.3888107894870304  0.1109199136884846  0.6251305273803394
  0.8890490669296512  0.6111912001314580  0.6250906676840762
  0.0556297087559144  0.6111579712760106  0.1249457312470705
  0.7222484986649317  0.1110870414497544  0.6251156790998488
  0.2221474233887059  0.1109806800492426  0.1248931945975149
  0.3888107894870304  0.6112242091318532  0.1248694726196606
  0.7223860017924595  0.6112438413883912  0.1248815637801454
  0.5555398774733432  0.1109930485869034  0.1247999436404227
  0.3888107894870304  0.6112242091318532  0.6251305273803394
  0.8889241158471145  0.1111287245902322  0.1249362360585904
  0.2222256454206077  0.7777794893769684  0.6250410618295749
  0.0555545103266811  0.2777946341738122  0.6251105709627737
  0.3887000989689258  0.2774962341478385  0.6247478038778478
  0.5555398774733432  0.7778801622197613  0.6252000563595624
  0.8890076908109147  0.7778645070559167  0.6250954119213593
  0.7222850826475249  0.2777211179467447  0.6251780572159595
  0.0556297087559144  0.7778050708132751  0.1249457312470705
  0.3888564002118339  0.7778190241010315  0.1248715736744326
  0.2221336647759890  0.2777334990546660  0.1249812960756754
  0.7222850826475249  0.7778972980341371  0.1248219427840479
  0.5555477387707464  0.2776098593512398  0.1248974094141710
  0.8889444983546375  0.2777853012485546  0.1249179238428143
  0.0555837021216977  0.4444845952885643  0.6251056026851808
  0.2222021149838309  0.9443674669698083  0.6251154726285467
  0.5555462071899305  0.9444397702616371  0.6251289862348590
  0.3887000989689258  0.4445371981544163  0.6247478038778478
  0.8889444983546375  0.9444925304394119  0.6250820761571783
  0.0555837021216977  0.9444324401664618  0.1248943973148118
  0.7223860017924595  0.4444754937374326  0.6251184362198611
  0.3888564002118339  0.9443707094441589  0.1248715736744326
  0.2221474233887130  0.4445000766727992  0.1248931945975149
  0.2222021149838309  0.6111679813473234  0.1248845273714607
  0.5556853518714809  0.4445093426024048  0.1254893987779549
  0.7222484986649317  0.9444947905485271  0.1248843209001514
  0.8890076908109147  0.4444765170883622  0.1249045880786119
  0.0556297087559144  0.6111579712760106  0.6250542687529221
  0.2221474233887059  0.1109806800492426  0.6251068054024856
  0.7223860017924595  0.6112438413883983  0.6251184362198611
  0.5555398774733432  0.1109930485869034  0.6252000563595624
  0.8889241158471145  0.1111287245902393  0.6250637639414164
 
  0.00000000E+00  0.00000000E+00  0.00000000E+00
  0.00000000E+00  0.00000000E+00  0.00000000E+00
  0.00000000E+00  0.00000000E+00  0.00000000E+00
  0.00000000E+00  0.00000000E+00  0.00000000E+00
  0.00000000E+00  0.00000000E+00  0.00000000E+00
  0.00000000E+00  0.00000000E+00  0.00000000E+00
  0.00000000E+00  0.00000000E+00  0.00000000E+00
  0.00000000E+00  0.00000000E+00  0.00000000E+00
  0.00000000E+00  0.00000000E+00  0.00000000E+00
  0.00000000E+00  0.00000000E+00  0.00000000E+00
  0.00000000E+00  0.00000000E+00  0.00000000E+00
  0.00000000E+00  0.00000000E+00  0.00000000E+00
  0.00000000E+00  0.00000000E+00  0.00000000E+00
  0.00000000E+00  0.00000000E+00  0.00000000E+00
  0.00000000E+00  0.00000000E+00  0.00000000E+00
  0.00000000E+00  0.00000000E+00  0.00000000E+00
  0.00000000E+00  0.00000000E+00  0.00000000E+00
  0.00000000E+00  0.00000000E+00  0.00000000E+00
  0.00000000E+00  0.00000000E+00  0.00000000E+00
  0.00000000E+00  0.00000000E+00  0.00000000E+00
  0.00000000E+00  0.00000000E+00  0.00000000E+00
  0.00000000E+00  0.00000000E+00  0.00000000E+00
  0.00000000E+00  0.00000000E+00  0.00000000E+00
  0.00000000E+00  0.00000000E+00  0.00000000E+00
  0.00000000E+00  0.00000000E+00  0.00000000E+00
  0.00000000E+00  0.00000000E+00  0.00000000E+00
  0.00000000E+00  0.00000000E+00  0.00000000E+00
  0.00000000E+00  0.00000000E+00  0.00000000E+00
  0.00000000E+00  0.00000000E+00  0.00000000E+00
  0.00000000E+00  0.00000000E+00  0.00000000E+00
  0.00000000E+00  0.00000000E+00  0.00000000E+00
  0.00000000E+00  0.00000000E+00  0.00000000E+00
  0.00000000E+00  0.00000000E+00  0.00000000E+00
  0.00000000E+00  0.00000000E+00  0.00000000E+00
  0.00000000E+00  0.00000000E+00  0.00000000E+00
  0.00000000E+00  0.00000000E+00  0.00000000E+00
  0.00000000E+00  0.00000000E+00  0.00000000E+00
  0.00000000E+00  0.00000000E+00  0.00000000E+00
  0.00000000E+00  0.00000000E+00  0.00000000E+00
  0.00000000E+00  0.00000000E+00  0.00000000E+00
  0.00000000E+00  0.00000000E+00  0.00000000E+00
  0.00000000E+00  0.00000000E+00  0.00000000E+00
  0.00000000E+00  0.00000000E+00  0.00000000E+00
  0.00000000E+00  0.00000000E+00  0.00000000E+00
  0.00000000E+00  0.00000000E+00  0.00000000E+00
  0.00000000E+00  0.00000000E+00  0.00000000E+00
  0.00000000E+00  0.00000000E+00  0.00000000E+00
  0.00000000E+00  0.00000000E+00  0.00000000E+00
  0.00000000E+00  0.00000000E+00  0.00000000E+00
  0.00000000E+00  0.00000000E+00  0.00000000E+00
  0.00000000E+00  0.00000000E+00  0.00000000E+00
  0.00000000E+00  0.00000000E+00  0.00000000E+00
  0.00000000E+00  0.00000000E+00  0.00000000E+00
  0.00000000E+00  0.00000000E+00  0.00000000E+00
  0.00000000E+00  0.00000000E+00  0.00000000E+00
  0.00000000E+00  0.00000000E+00  0.00000000E+00
  0.00000000E+00  0.00000000E+00  0.00000000E+00
  0.00000000E+00  0.00000000E+00  0.00000000E+00
  0.00000000E+00  0.00000000E+00  0.00000000E+00
  0.00000000E+00  0.00000000E+00  0.00000000E+00
  0.00000000E+00  0.00000000E+00  0.00000000E+00
  0.00000000E+00  0.00000000E+00  0.00000000E+00
  0.00000000E+00  0.00000000E+00  0.00000000E+00
  0.00000000E+00  0.00000000E+00  0.00000000E+00
  0.00000000E+00  0.00000000E+00  0.00000000E+00
  0.00000000E+00  0.00000000E+00  0.00000000E+00
  0.00000000E+00  0.00000000E+00  0.00000000E+00
  0.00000000E+00  0.00000000E+00  0.00000000E+00
  0.00000000E+00  0.00000000E+00  0.00000000E+00
  0.00000000E+00  0.00000000E+00  0.00000000E+00
  0.00000000E+00  0.00000000E+00  0.00000000E+00
  0.00000000E+00  0.00000000E+00  0.00000000E+00
  0.00000000E+00  0.00000000E+00  0.00000000E+00
  0.00000000E+00  0.00000000E+00  0.00000000E+00
  0.00000000E+00  0.00000000E+00  0.00000000E+00
  0.00000000E+00  0.00000000E+00  0.00000000E+00
  0.00000000E+00  0.00000000E+00  0.00000000E+00
  0.00000000E+00  0.00000000E+00  0.00000000E+00
  0.00000000E+00  0.00000000E+00  0.00000000E+00
  0.00000000E+00  0.00000000E+00  0.00000000E+00
  0.00000000E+00  0.00000000E+00  0.00000000E+00
  0.00000000E+00  0.00000000E+00  0.00000000E+00
  0.00000000E+00  0.00000000E+00  0.00000000E+00
  0.00000000E+00  0.00000000E+00  0.00000000E+00
  0.00000000E+00  0.00000000E+00  0.00000000E+00
  0.00000000E+00  0.00000000E+00  0.00000000E+00
  0.00000000E+00  0.00000000E+00  0.00000000E+00
  0.00000000E+00  0.00000000E+00  0.00000000E+00
  0.00000000E+00  0.00000000E+00  0.00000000E+00
  0.00000000E+00  0.00000000E+00  0.00000000E+00
  0.00000000E+00  0.00000000E+00  0.00000000E+00
  0.00000000E+00  0.00000000E+00  0.00000000E+00
  0.00000000E+00  0.00000000E+00  0.00000000E+00
  0.00000000E+00  0.00000000E+00  0.00000000E+00
  0.00000000E+00  0.00000000E+00  0.00000000E+00
  0.00000000E+00  0.00000000E+00  0.00000000E+00
  0.00000000E+00  0.00000000E+00  0.00000000E+00
  0.00000000E+00  0.00000000E+00  0.00000000E+00
  0.00000000E+00  0.00000000E+00  0.00000000E+00
  0.00000000E+00  0.00000000E+00  0.00000000E+00
  0.00000000E+00  0.00000000E+00  0.00000000E+00
  0.00000000E+00  0.00000000E+00  0.00000000E+00
  0.00000000E+00  0.00000000E+00  0.00000000E+00
  0.00000000E+00  0.00000000E+00  0.00000000E+00
  0.00000000E+00  0.00000000E+00  0.00000000E+00
  0.00000000E+00  0.00000000E+00  0.00000000E+00
  0.00000000E+00  0.00000000E+00  0.00000000E+00
  0.00000000E+00  0.00000000E+00  0.00000000E+00
  0.00000000E+00  0.00000000E+00  0.00000000E+00
  0.00000000E+00  0.00000000E+00  0.00000000E+00
  0.00000000E+00  0.00000000E+00  0.00000000E+00
  0.00000000E+00  0.00000000E+00  0.00000000E+00
  0.00000000E+00  0.00000000E+00  0.00000000E+00
  0.00000000E+00  0.00000000E+00  0.00000000E+00
  0.00000000E+00  0.00000000E+00  0.00000000E+00
  0.00000000E+00  0.00000000E+00  0.00000000E+00
  0.00000000E+00  0.00000000E+00  0.00000000E+00
  0.00000000E+00  0.00000000E+00  0.00000000E+00
  0.00000000E+00  0.00000000E+00  0.00000000E+00
  0.00000000E+00  0.00000000E+00  0.00000000E+00
  0.00000000E+00  0.00000000E+00  0.00000000E+00
  0.00000000E+00  0.00000000E+00  0.00000000E+00
  0.00000000E+00  0.00000000E+00  0.00000000E+00
  0.00000000E+00  0.00000000E+00  0.00000000E+00
  0.00000000E+00  0.00000000E+00  0.00000000E+00
  0.00000000E+00  0.00000000E+00  0.00000000E+00
  0.00000000E+00  0.00000000E+00  0.00000000E+00
  0.00000000E+00  0.00000000E+00  0.00000000E+00
  0.00000000E+00  0.00000000E+00  0.00000000E+00
  0.00000000E+00  0.00000000E+00  0.00000000E+00
  0.00000000E+00  0.00000000E+00  0.00000000E+00
  0.00000000E+00  0.00000000E+00  0.00000000E+00
  0.00000000E+00  0.00000000E+00  0.00000000E+00
  0.00000000E+00  0.00000000E+00  0.00000000E+00
  0.00000000E+00  0.00000000E+00  0.00000000E+00
  0.00000000E+00  0.00000000E+00  0.00000000E+00
  0.00000000E+00  0.00000000E+00  0.00000000E+00
  0.00000000E+00  0.00000000E+00  0.00000000E+00
  0.00000000E+00  0.00000000E+00  0.00000000E+00
  0.00000000E+00  0.00000000E+00  0.00000000E+00
  0.00000000E+00  0.00000000E+00  0.00000000E+00
  0.00000000E+00  0.00000000E+00  0.00000000E+00
  0.00000000E+00  0.00000000E+00  0.00000000E+00
  0.00000000E+00  0.00000000E+00  0.00000000E+00
  0.00000000E+00  0.00000000E+00  0.00000000E+00
  0.00000000E+00  0.00000000E+00  0.00000000E+00
  0.00000000E+00  0.00000000E+00  0.00000000E+00
  0.00000000E+00  0.00000000E+00  0.00000000E+00
  0.00000000E+00  0.00000000E+00  0.00000000E+00
  0.00000000E+00  0.00000000E+00  0.00000000E+00
  0.00000000E+00  0.00000000E+00  0.00000000E+00
  0.00000000E+00  0.00000000E+00  0.00000000E+00
  0.00000000E+00  0.00000000E+00  0.00000000E+00
  0.00000000E+00  0.00000000E+00  0.00000000E+00
  0.00000000E+00  0.00000000E+00  0.00000000E+00
  0.00000000E+00  0.00000000E+00  0.00000000E+00
  0.00000000E+00  0.00000000E+00  0.00000000E+00
  0.00000000E+00  0.00000000E+00  0.00000000E+00
  0.00000000E+00  0.00000000E+00  0.00000000E+00
  0.00000000E+00  0.00000000E+00  0.00000000E+00
  0.00000000E+00  0.00000000E+00  0.00000000E+00
  0.00000000E+00  0.00000000E+00  0.00000000E+00
  0.00000000E+00  0.00000000E+00  0.00000000E+00
  0.00000000E+00  0.00000000E+00  0.00000000E+00
  0.00000000E+00  0.00000000E+00  0.00000000E+00
  0.00000000E+00  0.00000000E+00  0.00000000E+00
  0.00000000E+00  0.00000000E+00  0.00000000E+00
  0.00000000E+00  0.00000000E+00  0.00000000E+00
  0.00000000E+00  0.00000000E+00  0.00000000E+00
  0.00000000E+00  0.00000000E+00  0.00000000E+00
  0.00000000E+00  0.00000000E+00  0.00000000E+00
  0.00000000E+00  0.00000000E+00  0.00000000E+00
  0.00000000E+00  0.00000000E+00  0.00000000E+00
  0.00000000E+00  0.00000000E+00  0.00000000E+00
  0.00000000E+00  0.00000000E+00  0.00000000E+00
  0.00000000E+00  0.00000000E+00  0.00000000E+00
  0.00000000E+00  0.00000000E+00  0.00000000E+00
  0.00000000E+00  0.00000000E+00  0.00000000E+00
  0.00000000E+00  0.00000000E+00  0.00000000E+00
  0.00000000E+00  0.00000000E+00  0.00000000E+00
  0.00000000E+00  0.00000000E+00  0.00000000E+00
  0.00000000E+00  0.00000000E+00  0.00000000E+00
  0.00000000E+00  0.00000000E+00  0.00000000E+00
  0.00000000E+00  0.00000000E+00  0.00000000E+00
  0.00000000E+00  0.00000000E+00  0.00000000E+00
  0.00000000E+00  0.00000000E+00  0.00000000E+00
  0.00000000E+00  0.00000000E+00  0.00000000E+00
  0.00000000E+00  0.00000000E+00  0.00000000E+00
  0.00000000E+00  0.00000000E+00  0.00000000E+00
  0.00000000E+00  0.00000000E+00  0.00000000E+00
  0.00000000E+00  0.00000000E+00  0.00000000E+00
  0.00000000E+00  0.00000000E+00  0.00000000E+00
  0.00000000E+00  0.00000000E+00  0.00000000E+00
  0.00000000E+00  0.00000000E+00  0.00000000E+00
  0.00000000E+00  0.00000000E+00  0.00000000E+00
  0.00000000E+00  0.00000000E+00  0.00000000E+00
  0.00000000E+00  0.00000000E+00  0.00000000E+00
  0.00000000E+00  0.00000000E+00  0.00000000E+00
  0.00000000E+00  0.00000000E+00  0.00000000E+00
  0.00000000E+00  0.00000000E+00  0.00000000E+00
  0.00000000E+00  0.00000000E+00  0.00000000E+00
  0.00000000E+00  0.00000000E+00  0.00000000E+00
  0.00000000E+00  0.00000000E+00  0.00000000E+00
  0.00000000E+00  0.00000000E+00  0.00000000E+00
  0.00000000E+00  0.00000000E+00  0.00000000E+00
  0.00000000E+00  0.00000000E+00  0.00000000E+00
  0.00000000E+00  0.00000000E+00  0.00000000E+00
  0.00000000E+00  0.00000000E+00  0.00000000E+00
  0.00000000E+00  0.00000000E+00  0.00000000E+00
  0.00000000E+00  0.00000000E+00  0.00000000E+00
  0.00000000E+00  0.00000000E+00  0.00000000E+00
  0.00000000E+00  0.00000000E+00  0.00000000E+00
  0.00000000E+00  0.00000000E+00  0.00000000E+00
  0.00000000E+00  0.00000000E+00  0.00000000E+00
  0.00000000E+00  0.00000000E+00  0.00000000E+00
  0.00000000E+00  0.00000000E+00  0.00000000E+00
  0.00000000E+00  0.00000000E+00  0.00000000E+00
  0.00000000E+00  0.00000000E+00  0.00000000E+00
  0.00000000E+00  0.00000000E+00  0.00000000E+00
  0.00000000E+00  0.00000000E+00  0.00000000E+00
  0.00000000E+00  0.00000000E+00  0.00000000E+00
  0.00000000E+00  0.00000000E+00  0.00000000E+00
  0.00000000E+00  0.00000000E+00  0.00000000E+00
  0.00000000E+00  0.00000000E+00  0.00000000E+00
  0.00000000E+00  0.00000000E+00  0.00000000E+00
  0.00000000E+00  0.00000000E+00  0.00000000E+00
  0.00000000E+00  0.00000000E+00  0.00000000E+00
  0.00000000E+00  0.00000000E+00  0.00000000E+00
  0.00000000E+00  0.00000000E+00  0.00000000E+00
  0.00000000E+00  0.00000000E+00  0.00000000E+00
  0.00000000E+00  0.00000000E+00  0.00000000E+00
  0.00000000E+00  0.00000000E+00  0.00000000E+00
  0.00000000E+00  0.00000000E+00  0.00000000E+00
  0.00000000E+00  0.00000000E+00  0.00000000E+00
  0.00000000E+00  0.00000000E+00  0.00000000E+00
  0.00000000E+00  0.00000000E+00  0.00000000E+00
  0.00000000E+00  0.00000000E+00  0.00000000E+00
  0.00000000E+00  0.00000000E+00  0.00000000E+00
  0.00000000E+00  0.00000000E+00  0.00000000E+00
  0.00000000E+00  0.00000000E+00  0.00000000E+00
  0.00000000E+00  0.00000000E+00  0.00000000E+00
  0.00000000E+00  0.00000000E+00  0.00000000E+00
  0.00000000E+00  0.00000000E+00  0.00000000E+00
  0.00000000E+00  0.00000000E+00  0.00000000E+00
  0.00000000E+00  0.00000000E+00  0.00000000E+00
  0.00000000E+00  0.00000000E+00  0.00000000E+00
  0.00000000E+00  0.00000000E+00  0.00000000E+00
  0.00000000E+00  0.00000000E+00  0.00000000E+00