 N Ge B 
 1.0
 17.527899999999772   0.000000000000000   0.000000000000000
 -8.763949999999658  15.179606674993195   0.000000000000000
  0.000000000000001   0.000000000000002  15.000000000000000
 N Ge B 
  49   1  47
Cartesian
  8.763434795492422  13.764558576716585   1.663994274212655 
 16.281649689118360   0.759324510256333   1.655470757126055 
 15.025854774381951   2.918037636296942   1.659937139866545 
 13.759611756449463   5.075104810544907   1.660010723713410 
 12.463224757868005   7.228919281528081   1.644740247523035 
 11.211456914746373   9.381604893628420   1.645472512731675 
  9.985529077454242  11.556309462646011   1.650884256223410 
 -6.274709725667607  13.717701170362441   1.645245090368835 
  1.257582853028737   0.733495698814739   1.660679336036460 
  0.008363520553346   2.903122810000245   1.684700395540200 
 -1.247244481801280   5.072593517004651   1.682649818130645 
 -2.523126234147208   7.231731074128584   1.671317464197135 
 -3.786692069090996   9.384384560271991   1.653099209134965 
 -5.035578689773077  11.542473594324299   1.644231979389105 
 -3.770965369062484  13.701798327936356   1.644836241872295 
  3.748272762276367   0.690899742173319   1.671267517683060 
  2.524291716189215   2.890470483769052   1.716133522391385 
  1.267965357836025   5.043798302253167   1.738948434336015 
  0.008510013163856   7.229038358279900   1.686784034429520 
 -1.256924040194794   9.388742636142599   1.659420197445555 
 -2.520467519396511  11.542925475208559   1.645273876929960 
 -1.260220420145130  13.706317949968483   1.647408262719120 
  6.255878764199781   0.676123816452263   1.658617923931230 
  5.010016054677262   2.828480633214982   1.706553842271795 
  3.823938971704562   5.059868891664398   1.773290196100350 
  2.493773747731442   7.160538215449850   1.610360218202295 
  1.273653865741527   9.400163804540947   1.696511111785020 
 -0.005630467985656  11.556301963949581   1.679522018043225 
  1.244907616560375  13.741804804073880   1.678578455613270 
  8.768839789085105   0.691098087399520   1.644981978497820 
  7.533313106677404   2.811616530045715   1.629477476930895 
  6.309142870711577   4.895176321913979   1.619741725394460 
  5.581315781489797   7.101494799363171   1.904244532242240 
  3.784840721812428   9.576438151254498   1.900282758284055 
  2.489607765383839  11.619304057791943   1.808005363706085 
  3.745865396199691  13.793935837060790   1.736774121788280 
 11.265860549541262   0.739251854915705   1.656705835647660 
 10.019824952846266   2.873273690659049   1.631579551271100 
  8.766139879575100   5.005158739219715   1.561905619846605 
  7.346369563207494   7.097333580331156   1.449394090437780 
  6.201189751509324   9.675546554078439   1.392146099393085 
  5.005966319874431  11.707321608379807   1.846515031512990 
  6.264364531077708  13.805724944413761   1.713596075208495 
 13.771395262316227   0.763927108583236   1.666759305233445 
 12.515726901472625   2.910920674042605   1.649021585516115 
 11.245170303444141   5.064086372372797   1.626415909529640 
  9.900137341301354   7.218209925113728   1.594522344294765 
  8.685603108551117   9.387784673548945   1.629811379901135 
  7.504102154017570  11.633159515744458   1.681221594209280 
  4.117186965274759   7.939274808678876   1.228577155390260 
  7.520625997854419  14.503027891934524   1.673789987266710 
 15.027212881980903   1.478478290319124   1.659483547207335 
 13.767156256432370   3.633662801083401   1.656838935134865 
 12.493025648965180   5.787015329872807   1.644918144127020 
 11.178293333576613   7.935053592061127   1.628401111848495 
  9.957105826133816  10.100741062754805   1.649055175245825 
  8.761212750947930  12.321659322159890   1.664832299045775 
 -7.509897374763080  14.468246976560859   1.654038612442440 
  0.009378948840537   1.463656228665961   1.664535054818595 
 -1.245008223213979   3.629767408541142   1.676294360118690 
 -2.511038797030146   5.789682299840177   1.671752741687355 
 -3.796751671610248   7.942227830006976   1.657858482160380 
 -5.050432189785186  10.097230775206684   1.648525766433765 
 -6.284668407948041  12.269742580869353   1.645441308192105 
 -5.020318598170477  14.427862505417952   1.651927252668195 
  2.514059370579734   1.441990180653215   1.681597859415270 
  1.266314717370268   3.605813854990163   1.719911841209970 
  0.014282840092501   5.781138643633507   1.700566271618625 
 -1.259740130697468   7.945311140234639   1.675484376832680 
 -2.523701218262712  10.100749206496799   1.652416959118500 
 -3.777624105044068  12.259291161073138   1.643149151427135 
 -2.515321238927172  14.418109926454470   1.649065255309905 
  5.002925230161956   1.393707565332201   1.680380380123860 
  3.790008296553554   3.599884677508802   1.736219166938520 
  2.532526159338963   5.739831801687811   1.719845085299745 
  1.271602349928532   7.943718180103972   1.662820237602765 
  0.001472678254957  10.110734839263637   1.676452311688680 
 -1.265496728495249  12.265402316466130   1.654548680519235 
 -0.009777971113259  14.437312775680185   1.653850279528335 
  7.516596216384288   1.386347786561310   1.646302951585935 
  6.281029745328742   3.492665943998172   1.652183969445690 
  5.166287450510735   5.693653065696346   1.770050101005225 
  2.495706020099753  10.181518146691049   1.813935619478805 
  1.233905288160960  12.306712330689686   1.719966382489470 
  2.489605628228366  14.485070746585849   1.689534211377780 
 10.011155172046058   1.436373476692060   1.644445599668490 
  8.765640570292131   3.569318133911032   1.607825483186445 
  7.501218233036707   5.678529729016576   1.530941223105840 
  4.993031748089658  10.294505188366385   1.782348072813975 
  3.734250711419699  12.368241263903288   1.809195684867225 
  5.004219613480441  14.509570865531273   1.708057527953145 
 12.514494367985499   1.471491695737645   1.657365454269630 
 11.257160027499284   3.620406951039978   1.635667657861725 
  9.977255242560695   5.772450674366572   1.590561257342745 
  8.581145592097849   7.930757771991752   1.573893321405285 
  7.498143267260027  10.184129944342601   1.593581981730075 
  6.269087782973526  12.378925197752691   1.746561968027340 
