B Sn N                                  
   1.0000000000000000     
     8.7639499999999995  -15.1796066749929999    0.0000000000000000
     8.7639499999999995   15.1796066749929999    0.0000000000000000
     0.0000000000000000    0.0000000000000000   15.0000000000000000
   B    Sn   N 
    49     1    48
Selective dynamics
Direct
  0.9048535086909979  0.9523477408469393  0.1187857671764280   T   T   T
  0.9047274653721836  0.0951197908420254  0.1191185624293494   T   T   T
  0.9047370274815788  0.2379897336390595  0.1190803609528253   T   T   T
  0.9048478191228051  0.3809228983239498  0.1186747108017672   T   T   T
  0.9053111576203208  0.5239644208129687  0.1167817420383666   T   T   T
  0.9055129235111400  0.6669995057999225  0.1150772708361678   T   T   T
  0.9053067059019956  0.8098119946738842  0.1168054854403468   T   T   T
  0.0477236352844055  0.9523424926961238  0.1204992335930478   T   T   T
  0.0475668039642203  0.0950951570152642  0.1188895146772429   T   T   T
  0.0474942055753124  0.2379623499624837  0.1173541049756975   T   T   T
  0.0475152316173660  0.3809431917396232  0.1186419162580823   T   T   T
  0.0476496552628364  0.5238987051811854  0.1202530472600984   T   T   T
  0.0478675035845072  0.6668246587727527  0.1202006668906408   T   T   T
  0.0478921158310586  0.8096427620159412  0.1202580075952134   T   T   T
  0.1904576183544708  0.9522589374909313  0.1205334788640891   T   T   T
  0.1902155470652291  0.0948089974591109  0.1168979531551080   T   T   T
  0.1900756908808645  0.2377233449746469  0.1117398260628132   T   T   T
  0.1900039163114332  0.3809068304543905  0.1116783687619184   T   T   T
  0.1900633159932013  0.5239755362859096  0.1166535085883885   T   T   T
  0.1903742860038893  0.6668214318894601  0.1201801015447544   T   T   T
  0.1904979598132179  0.8095861243620589  0.1210803459082564   T   T   T
  0.3332229104456589  0.9522544684984272  0.1205561288525530   T   T   T
  0.3330739930429559  0.0946821470353735  0.1151978341398431   T   T   T
  0.3321938829555726  0.2364995455880439  0.1048898174225568   T   T   T
  0.3318335889148213  0.3802780578127452  0.0964657027750064   T   T   T
  0.3319863689087240  0.5243364290862733  0.1048765528246878   T   T   T
  0.3329283041515249  0.6670039211149231  0.1149514188451853   T   T   T
  0.3331739218164547  0.8096390648423002  0.1202737878362551   T   T   T
  0.4760558631073218  0.9523483016394388  0.1205038883107489   T   T   T
  0.4760397906511830  0.0948195580028624  0.1169173740182834   T   T   T
  0.4757384783575894  0.2365248731398123  0.1049233012129331   T   T   T
  0.4715476108598037  0.3717279071522814  0.0765639444789177   T   T   T
  0.4712424873071016  0.5286449611544836  0.0761988260083081   T   T   T
  0.4755976690669166  0.6678576621859451  0.1050250788899300   T   T   T
  0.4759485575145881  0.8098246861536541  0.1167345494517869   T   T   T
  0.6189382321250856  0.9523482198914187  0.1187755493833401   T   T   T
  0.6189758095740254  0.0951013335636399  0.1188756631924855   T   T   T
  0.6190838336619373  0.2377211911563964  0.1116752535687583   T   T   T
  0.6198458797872946  0.3802933219782949  0.0965675156108289   T   T   T
  0.6288108861120530  0.5286605454186645  0.0762390122577350   T   T   T
  0.6197320143902753  0.6680353644778563  0.0966943026275044   T   T   T
  0.6190095113199863  0.8098289667216441  0.1118359519217233   T   T   T
  0.7619080462705102  0.9523405388661073  0.1173590768710231   T   T   T
  0.7618390601196815  0.0950906984531845  0.1191356456643791   T   T   T
  0.7619394329729522  0.2379516561577648  0.1173137238812446   T   T   T
  0.7623154749077778  0.3808978956353070  0.1116920803475122   T   T   T
  0.7637464898530566  0.5243311824183283  0.1050192720698395   T   T   T
  0.7636863085173342  0.6678503239864445  0.1051399911887161   T   T   T
  0.7622537474340823  0.8098145676506114  0.1118915919106516   T   T   T
  0.5239837360661652  0.4766577523398213  0.9510615687518054   T   T   T
  0.9524399772165376  0.9047233363499430  0.1195299484317767   T   T   T
  0.9523895785292475  0.0475055477837073  0.1196028371093287   T   T   T
  0.9524120593618809  0.1903933420202757  0.1188973212078856   T   T   T
  0.9523646240177971  0.3332790491497833  0.1194678724885243   T   T   T
  0.9523967418772745  0.4761573746816617  0.1194284339340628   T   T   T
  0.9524740338461063  0.6190657630756737  0.1179426911385842   T   T   T
  0.9524941063329977  0.7619231587643756  0.1179080769877206   T   T   T
  0.0953001596691982  0.9047971186717333  0.1211078655165146   T   T   T
  0.0952931058557992  0.0476152647294990  0.1197039914648834   T   T   T
  0.0953935399645896  0.1905174448787726  0.1166348346768028   T   T   T
  0.0953336389294975  0.3333409413835230  0.1164236000062473   T   T   T
  0.0951835113674755  0.4761709348434044  0.1193366275611841   T   T   T
  0.0952384787285193  0.6190581380020461  0.1208861775753782   T   T   T
  0.0952881361109900  0.7619457110930694  0.1207638021540531   T   T   T
  0.2381175318290318  0.9048191675206397  0.1210606071009739   T   T   T
  0.2381535316373370  0.0476748565950091  0.1182375369722152   T   T   T
  0.2379819843139842  0.1903405828498618  0.1115335191524879   T   T   T
  0.2382123421635278  0.3334228149376235  0.1069328101912801   T   T   T
  0.2378157185720311  0.4762096885972034  0.1115872985499098   T   T   T
  0.2380209391160238  0.6190742779059091  0.1178262613199669   T   T   T
  0.2380736725951669  0.7619419310883339  0.1207576298882530   T   T   T
  0.3809175132095662  0.9047908579732712  0.1211325067391764   T   T   T
  0.3809616416693250  0.0476768397465361  0.1182782876504817   T   T   T
  0.3808757162733915  0.1903164779255385  0.1077988405321079   T   T   T
  0.3800389923045580  0.3325911112074479  0.0929448605756422   T   T   T
  0.3798134593047557  0.4761483957452276  0.0926392013540383   T   T   T
  0.3807243570132539  0.6191870984585521  0.1078829715702195   T   T   T
  0.3808571478383685  0.7619161505310773  0.1178554279482650   T   T   T
  0.5237210425025606  0.9047215523544145  0.1195032423846720   T   T   T
  0.5237683174513597  0.0476254239403761  0.1197214102486805   T   T   T
  0.5237967971371879  0.1903542507952324  0.1115093559223219   T   T   T
  0.5239475190560032  0.3326299468722844  0.0930656694527206   T   T   T
  0.5238189713720721  0.6199996452379393  0.0929545327952509   T   T   T
  0.5237003885471428  0.7620350414564213  0.1116810077055616   T   T   T
  0.6665399307777022  0.9045081034134267  0.1165276093539222   T   T   T
  0.6665683253307902  0.0475050422878719  0.1196201166101445   T   T   T
  0.6665806807199329  0.1905177587548677  0.1165383075780771   T   T   T
  0.6666225964340029  0.3334240072599918  0.1069155263898846   T   T   T
  0.6677316938259751  0.4761596012411211  0.0927644404207319   T   T   T
  0.6676173373515669  0.6200099852259601  0.0929926703851873   T   T   T
  0.6665403263432750  0.7616464489830370  0.1071802389306988   T   T   T
  0.8094256089378244  0.9044976653322201  0.1165707690889709   T   T   T
  0.8094451382100717  0.0474145581271229  0.1188914152747865   T   T   T
  0.8094559351930530  0.1903781397386099  0.1189178844238828   T   T   T
  0.8094380746195164  0.3333270683094638  0.1164177280851606   T   T   T
  0.8097964659357322  0.4762002806746009  0.1116892126036500   T   T   T
  0.8098853971764133  0.6191809385823962  0.1080735595550353   T   T   T
  0.8097710962651400  0.7620332838351884  0.1117850848645216   T   T   T

  0.00000000E+00  0.00000000E+00  0.00000000E+00
  0.00000000E+00  0.00000000E+00  0.00000000E+00
  0.00000000E+00  0.00000000E+00  0.00000000E+00
  0.00000000E+00  0.00000000E+00  0.00000000E+00
  0.00000000E+00  0.00000000E+00  0.00000000E+00
  0.00000000E+00  0.00000000E+00  0.00000000E+00
  0.00000000E+00  0.00000000E+00  0.00000000E+00
  0.00000000E+00  0.00000000E+00  0.00000000E+00
  0.00000000E+00  0.00000000E+00  0.00000000E+00
  0.00000000E+00  0.00000000E+00  0.00000000E+00
  0.00000000E+00  0.00000000E+00  0.00000000E+00
  0.00000000E+00  0.00000000E+00  0.00000000E+00
  0.00000000E+00  0.00000000E+00  0.00000000E+00
  0.00000000E+00  0.00000000E+00  0.00000000E+00
  0.00000000E+00  0.00000000E+00  0.00000000E+00
  0.00000000E+00  0.00000000E+00  0.00000000E+00
  0.00000000E+00  0.00000000E+00  0.00000000E+00
  0.00000000E+00  0.00000000E+00  0.00000000E+00
  0.00000000E+00  0.00000000E+00  0.00000000E+00
  0.00000000E+00  0.00000000E+00  0.00000000E+00
  0.00000000E+00  0.00000000E+00  0.00000000E+00
  0.00000000E+00  0.00000000E+00  0.00000000E+00
  0.00000000E+00  0.00000000E+00  0.00000000E+00
  0.00000000E+00  0.00000000E+00  0.00000000E+00
  0.00000000E+00  0.00000000E+00  0.00000000E+00
  0.00000000E+00  0.00000000E+00  0.00000000E+00
  0.00000000E+00  0.00000000E+00  0.00000000E+00
  0.00000000E+00  0.00000000E+00  0.00000000E+00
  0.00000000E+00  0.00000000E+00  0.00000000E+00
  0.00000000E+00  0.00000000E+00  0.00000000E+00
  0.00000000E+00  0.00000000E+00  0.00000000E+00
  0.00000000E+00  0.00000000E+00  0.00000000E+00
  0.00000000E+00  0.00000000E+00  0.00000000E+00
  0.00000000E+00  0.00000000E+00  0.00000000E+00
  0.00000000E+00  0.00000000E+00  0.00000000E+00
  0.00000000E+00  0.00000000E+00  0.00000000E+00
  0.00000000E+00  0.00000000E+00  0.00000000E+00
  0.00000000E+00  0.00000000E+00  0.00000000E+00
  0.00000000E+00  0.00000000E+00  0.00000000E+00
  0.00000000E+00  0.00000000E+00  0.00000000E+00
  0.00000000E+00  0.00000000E+00  0.00000000E+00
  0.00000000E+00  0.00000000E+00  0.00000000E+00
  0.00000000E+00  0.00000000E+00  0.00000000E+00
  0.00000000E+00  0.00000000E+00  0.00000000E+00
  0.00000000E+00  0.00000000E+00  0.00000000E+00
  0.00000000E+00  0.00000000E+00  0.00000000E+00
  0.00000000E+00  0.00000000E+00  0.00000000E+00
  0.00000000E+00  0.00000000E+00  0.00000000E+00
  0.00000000E+00  0.00000000E+00  0.00000000E+00
  0.00000000E+00  0.00000000E+00  0.00000000E+00
  0.00000000E+00  0.00000000E+00  0.00000000E+00
  0.00000000E+00  0.00000000E+00  0.00000000E+00
  0.00000000E+00  0.00000000E+00  0.00000000E+00
  0.00000000E+00  0.00000000E+00  0.00000000E+00
  0.00000000E+00  0.00000000E+00  0.00000000E+00
  0.00000000E+00  0.00000000E+00  0.00000000E+00
  0.00000000E+00  0.00000000E+00  0.00000000E+00
  0.00000000E+00  0.00000000E+00  0.00000000E+00
  0.00000000E+00  0.00000000E+00  0.00000000E+00
  0.00000000E+00  0.00000000E+00  0.00000000E+00
  0.00000000E+00  0.00000000E+00  0.00000000E+00
  0.00000000E+00  0.00000000E+00  0.00000000E+00
  0.00000000E+00  0.00000000E+00  0.00000000E+00
  0.00000000E+00  0.00000000E+00  0.00000000E+00
  0.00000000E+00  0.00000000E+00  0.00000000E+00
  0.00000000E+00  0.00000000E+00  0.00000000E+00
  0.00000000E+00  0.00000000E+00  0.00000000E+00
  0.00000000E+00  0.00000000E+00  0.00000000E+00
  0.00000000E+00  0.00000000E+00  0.00000000E+00
  0.00000000E+00  0.00000000E+00  0.00000000E+00
  0.00000000E+00  0.00000000E+00  0.00000000E+00
  0.00000000E+00  0.00000000E+00  0.00000000E+00
  0.00000000E+00  0.00000000E+00  0.00000000E+00
  0.00000000E+00  0.00000000E+00  0.00000000E+00
  0.00000000E+00  0.00000000E+00  0.00000000E+00
  0.00000000E+00  0.00000000E+00  0.00000000E+00
  0.00000000E+00  0.00000000E+00  0.00000000E+00
  0.00000000E+00  0.00000000E+00  0.00000000E+00
  0.00000000E+00  0.00000000E+00  0.00000000E+00
  0.00000000E+00  0.00000000E+00  0.00000000E+00
  0.00000000E+00  0.00000000E+00  0.00000000E+00
  0.00000000E+00  0.00000000E+00  0.00000000E+00
  0.00000000E+00  0.00000000E+00  0.00000000E+00
  0.00000000E+00  0.00000000E+00  0.00000000E+00
  0.00000000E+00  0.00000000E+00  0.00000000E+00
  0.00000000E+00  0.00000000E+00  0.00000000E+00
  0.00000000E+00  0.00000000E+00  0.00000000E+00
  0.00000000E+00  0.00000000E+00  0.00000000E+00
  0.00000000E+00  0.00000000E+00  0.00000000E+00
  0.00000000E+00  0.00000000E+00  0.00000000E+00
  0.00000000E+00  0.00000000E+00  0.00000000E+00
  0.00000000E+00  0.00000000E+00  0.00000000E+00
  0.00000000E+00  0.00000000E+00  0.00000000E+00
  0.00000000E+00  0.00000000E+00  0.00000000E+00
  0.00000000E+00  0.00000000E+00  0.00000000E+00
  0.00000000E+00  0.00000000E+00  0.00000000E+00
  0.00000000E+00  0.00000000E+00  0.00000000E+00
  0.00000000E+00  0.00000000E+00  0.00000000E+00
