 N Al B 
 1.0
 17.527899999999772   0.000000000000000   0.000000000000000
 -8.763949999999658  15.179606674993195   0.000000000000000
  0.000000000000001   0.000000000000002  15.000000000000000
 N Al B 
  49   1  47
Cartesian
  8.803639355346688  13.726615697511305   1.660302452852055 
 16.346823137649000   0.742332309603730   1.661352837109350 
 15.099067070776700   2.894492422946605   1.661653275992760 
 13.846952082496063   5.050856255851756   1.660355101641555 
 12.580688518397984   7.216338800993213   1.660518188758515 
 11.317311910006984   9.388041892552605   1.661283588871305 
 10.042938751121000  11.557471485862134   1.660986755326260 
 -6.229363915687558  13.758197018995086   1.660262422456215 
  1.315123521967759   0.762056856323179   1.660583824940280 
  0.075976023483296   2.924911032773985   1.661954912848875 
 -1.195963775126930   5.069836753300415   1.661635835295975 
 -2.489297501631197   7.232736026642896   1.660267651628790 
 -3.751017235429527   9.409284437226786   1.660821760369695 
 -4.994896378509558  11.585164136022842   1.660927931189775 
 -3.740418518127458  13.771319838921976   1.660352544952980 
  3.799835221384925   0.773509046229572   1.660207487016045 
  2.595821921927928   2.986244853530815   1.661028566174445 
  1.318810550493840   5.113616183411986   1.660915942956705 
 -0.036951200287170   7.245770047897700   1.659646077679470 
 -1.303239366692677   9.422985555729056   1.660382742126060 
 -2.511611584342067  11.599915330287038   1.661404809984210 
 -1.243299079581021  13.771896394725667   1.661319983246790 
  6.293859303618950   0.760766145740758   1.660805180974725 
  5.072619102378408   2.955305513209452   1.661321967149415 
  3.905547157487656   5.255798660262654   1.661307385071345 
  2.396590785165081   7.297980672820929   1.660882821862665 
  1.112100117457603   9.440345154787499   1.660742299422750 
 -0.026447157253657  11.611586540298060   1.661652897837420 
  1.270199688542949  13.756786134955300   1.661346850798260 
  8.812963763259777   0.729827199197670   1.661069673856650 
  7.596991348793160   2.883943486688763   1.661337108907215 
  6.414488240567794   5.048212765844940   1.662221016798810 
  3.562704877737359   7.963822155747247   1.667319212555295 
  3.450894976865171   9.301016877044095   1.660182337352400 
  2.484870981552551  11.590725353494614   1.659798070990665 
  3.776049226686941  13.773950944341925   1.661099218050795 
 11.326360390019838   0.726829305866457   1.660915522110285 
 10.114117447893481   2.859408109343782   1.660351945759770 
  8.925812041030762   4.983474498414716   1.661212864514430 
  7.693818839701157   7.089212782137625   1.660883202112095 
  6.441331460976732   9.070226049599279   1.660147010450580 
  5.017753194958859  11.707373913720033   1.659558715033560 
  6.322446428397914  13.759511095369584   1.660783104151275 
 13.838363499172578   0.726540486378203   1.660936069275030 
 12.605301226104817   2.877360843660662   1.660422795087135 
 11.377575048995475   5.028346758650446   1.659881843925615 
 10.126034047697969   7.183444688143089   1.660598517153000 
  8.861060774770412   9.338750081631638   1.661279704421025 
  7.522376501919500  11.493368099369404   1.660974797727255 
  5.023286750138753   9.982798694866236   1.659725517026715 
  7.571780203884115  14.474216093862609   1.660907593832025 
 15.092429741494612   1.451254716574087   1.661611578489030 
 13.848280683803232   3.608200210971019   1.660948575096255 
 12.600588522070403   5.770208830844610   1.660213086242850 
 11.333684231197655   7.935683678493575   1.661189218756605 
 10.063056525903725  10.098573169681865   1.661480343122325 
  8.773052006752001  12.251434963284220   1.660915379293230 
 -7.474962510086169  14.479562383364318   1.660430235971820 
  0.068444907480057   1.478857269155514   1.661758940768910 
 -1.181416428244273   3.627295390408311   1.662337349155905 
 -2.448298262323084   5.786854296865314   1.660927923786510 
 -3.728923061903838   7.959657180798619   1.660714141101225 
 -4.991373129243297  10.133094193925565   1.661307953230800 
 -6.246641121106872  12.303733581864977   1.661055723367290 
 -4.983521613644231  14.502929284880651   1.660289839021650 
  2.569322335732312   1.524170076889088   1.660734268181355 
  1.330400404329653   3.670712447606023   1.661476508161020 
  0.046547409516436   5.804232139139201   1.661012043589755 
 -1.270589111906213   7.973618172875017   1.660199633107770 
 -2.528919417088878  10.151882550918646   1.661139296782635 
 -3.754983715511465  12.324333033171740   1.661096832526560 
 -2.489463025329959  14.501632634437959   1.660887113319105 
  5.050572799162437   1.514448122171276   1.660905479860740 
  3.866488126917925   3.778358419928501   1.661655683329275 
  2.589784434392183   5.851311741930032   1.661384569546665 
  1.162368252464554   8.002861400574297   1.660235508816960 
 -0.087659453306095  10.170680410048837   1.661104134398925 
 -1.264892825766900  12.332915928393760   1.662064374632745 
  0.021748311025991  14.476873629994831   1.661431351856745 
  7.563343002831010   1.459862949477609   1.661481608902440 
  6.351619626145006   3.643898614719744   1.661998512643635 
  5.325947894725344   6.060774187431814   1.661304705721830 
  2.342824938445666  10.140130561836660   1.660177028341395 
  1.244352070721418  12.317005570199603   1.661374104200190 
  2.530410645973932  14.476673140972894   1.661415016829640 
 10.077838977672313   1.434971505642300   1.661049069631950 
  8.867308303569807   3.569239587862563   1.661028541400355 
  7.690366208725093   5.683642500161115   1.662201488556165 
  6.316429836046972   7.552327046492684   1.660167660386565 
  3.752516169567986  12.339645775402712   1.660471194304485 
  5.057588432335857  14.463863256414468   1.661213902982100 
 12.586584374859315   1.439521187858755   1.660945081090320 
 11.356805839624634   3.590864760006859   1.660323194292825 
 10.133010896674710   5.741909050031851   1.660645939459080 
  8.862009870419303   7.879205499233151   1.660981192312080 
  7.565162571523388   9.959287869566721   1.661510914905510 
  6.306558540940628  12.310985954126762   1.660595774018460 
