 N B Sb 
 1.0
 14.936314146199660   0.000000000000000   0.000000000000000
 -7.468157073099825  12.935227489513863   0.000000000000000
  0.000000000000001   0.000000000000001  13.341276283792837
 N B Sb 
 143 143   1
Cartesian
  1.244653067952503   0.718376330125138   1.666721306657500 
  4.978731540725166   7.187437077086004   1.617948100554457 
  6.223688863462756   0.718373888228066   1.663118923561401 
  9.957197535213963   7.186038421556901   1.667410106006407 
 11.202483800204224   0.718767042300941   1.668887952913300 
 -3.734368860057524   9.341941124071239   8.335618644961889 
  1.244588777318937   9.342428213399794   8.342838289283135 
  2.489085586574644   2.873935168858802   8.358593086326911 
  6.223257294465264   9.342359785206282   8.350551709954290 
  7.468485043788243   2.874039689056860   8.354341793375829 
 12.447076626277980   2.874582913045382   8.336357404299239 
 -1.244848883605697   9.342132004477277   1.669541749431064 
  0.000028754844594   2.874511599286856   1.663545485098551 
  4.979110691471587   2.874117033662040   1.640801800160534 
  3.733848213068780   9.342620427681018   1.651615419468811 
  8.712504902213015   9.341909301721239   1.667410106006407 
  9.957800646486476   2.874349714423079   1.666249418689079 
 -4.978921730059381  11.497767675125676   8.335861215831379 
  0.000042284101791  11.498004403416502   8.336070619115569 
  1.244057967315418   5.030386262242316   8.358593086326911 
  6.224483176187909   5.029731950852497   8.388009112290170 
  4.978774504261124  11.498275964971111   8.339707794155455 
 11.202162981269581   5.030306933814407   8.336100196421896 
 -1.244927005691189   5.030455507187109   1.666721306657500 
 -2.489443564550583  11.497833226703811   1.669541749431064 
  2.489431159754797  11.498274879599778   1.667392276348544 
  3.732883059638640   5.029676037005476   1.627891582009081 
  7.468069393117707  11.497946748710671   1.669857016422932 
  8.712963861482065   5.030061515195265   1.655405502890803 
 -0.000138341633212   7.186418090641151   8.343936247067260 
  1.244653067952503   0.718376330125139   8.339235906187129 
  4.978731540725167   7.187437077086005   8.388009112290170 
  6.223688863462757   0.718373888228066   8.342838289283135 
  9.957197535213963   7.186038421556902   8.338547106838034 
 -2.489644735692491   7.186213446769845   1.670095997013250 
 11.202483800204224   0.718767042300942   8.337069259931623 
  3.734165766861152   0.718413643815665   1.662020965777275 
  2.489228019303490   7.186720326742577   1.640801800160534 
  7.467795782857012   7.186028903155176   1.647805344496010 
  8.713128034273799   0.718515682025168   1.667392276348544 
  2.489228019303491   7.186720326742578   8.365155412684294 
 13.691771523187438   0.718708111676481   1.669599808544909 
 -1.244848883605697   9.342132004477277   8.336415463413283 
  0.000028754844595   2.874511599286857   8.342411727746358 
  4.979110691471588   2.874117033662041   8.365155412684294 
  3.733848213068781   9.342620427681018   8.354341793375829 
  8.712504902213015   9.341909301721239   8.338547106838034 
  9.957800646486476   2.874349714423080   8.339707794155455 
 -3.734368860057525   9.341941124071239   1.670338567882566 
  1.244588777318937   9.342428213399794   1.663118923561401 
  2.489085586574643   2.873935168858801   1.647364126517717 
  6.223257294465263   9.342359785206282   1.655405502890803 
  7.468485043788242   2.874039689056859   1.651615419468811 
 12.447076626277980   2.874582913045381   1.669599808544909 
 -1.244927005691189   5.030455507187110   8.339235906187129 
 -2.489443564550582  11.497833226703811   8.336415463413283 
  2.489431159754797  11.498274879599778   8.338564936496550 
  3.732883059638641   5.029676037005477   8.378065630835453 
  7.468069393117708  11.497946748710671   8.336100196421896 
 -4.978921730059382  11.497767675125676   1.670095997013250 
  8.712963861482065   5.030061515195266   8.350551709954290 
  0.000042284101791  11.498004403416502   1.669886593729059 
  1.244057967315418   5.030386262242315   1.647364126517717 
 -0.000138341633212   7.186418090641150   1.662020965777275 
  6.224483176187908   5.029731950852496   1.617948100554457 
  4.978774504261123  11.498275964971111   1.666249418689079 
 11.202162981269581   5.030306933814406   1.669857016422932 
 -2.489644735692491   7.186213446769846   8.335861215831379 
  3.734165766861152   0.718413643815666   8.343936247067260 
  7.467795782857013   7.186028903155177   8.358151868348337 
  8.713128034273799   0.718515682025169   8.338564936496550 
 13.691771523187438   0.718708111676482   8.336357404299239 
  0.022113054999652   1.453962245341850   5.002978606422314 
  3.621995556506172   8.071517622734532   5.002978606422314 
  4.997399560061402   1.330890203916246   5.002978606422314 
  8.650472749151579   7.868847768009786   5.002978606422314 
  9.979791412501330   1.427137747774241   5.002978606422314 
 -4.977890544295060  10.061239707153053  11.673616748318732 
  0.000810171439500  10.061255386069291  11.673616748318732 
  1.245534604014336   3.593604736582567  11.673616748318732 
  4.979649029105746  10.061236640971517  11.673616748318732 
  6.224315625729145   3.593499357240565  11.673616748318732 
 11.203120186151786   3.593657821094653  11.673616748318732 
 -2.531262437192391  10.036554941176920   5.002978606422314 
 -1.219160922923973   3.603911841218711   5.002978606422314 
  3.811227299081659   3.456442715478229   5.002978606422314 
  2.435125241373631  10.131244268643824   5.002978606422314 
  7.444473372236796  10.064016364668152   5.002978606422314 
  8.746111892784409   3.551904891335211   5.002978606422314 
 -6.222601691175692  12.217064771111403  11.673616748318732 
 -1.243834920114524  12.217043922032094  11.673616748318732 
  0.000767192120667   5.749513959621111  11.673616748318732 
  4.979585516481065   5.749460036062892  11.673616748318732 
  3.734926114701596  12.217095839014737  11.673616748318732 
  9.958488739034324   5.749536421957480  11.673616748318732 
 -2.501101463574837   5.745731438155115   5.002978606422314 
 -3.757776087942223  12.172852454525335   5.002978606422314 
  1.235120566770162  12.211077182385955   5.002978606422314 
  2.409595156837278   5.884140799367120   5.002978606422314 
  6.230367828963852  12.239242120213952   5.002978606422314 
  7.459031801833430   5.686277965049949   5.002978606422314 
 -1.243905778470763   7.905377334888606  11.673616748318732 
  0.000865223399362   1.437713760789506  11.673616748318732 
  3.734833853684751   7.905408270938085  11.673616748318732 
  4.979621612924511   1.437631989889398  11.673616748318732 
  8.713820152193099   7.905421408208834  11.673616748318732 
 -3.781303791221733   7.884626227327954   5.002978606422314 
  9.958392723373304   1.437735473586889  11.673616748318732 
  2.497728239865032   1.412148054781052   5.002978606422314 
  1.161898815236616   7.974172366421094   5.002978606422314 
  6.164591380596379   7.928314542003396   5.002978606422314 
  7.502091838244503   1.355000682609044   5.002978606422314 
  1.245450939966442   7.905405319586483  11.673616748318732 
 12.469457680662336   1.450254753239929   5.002978606422314 
 -2.488545144282500  10.061217781736906  11.673616748318732 
 -1.243856439119552   3.593634921553881  11.673616748318732 
  3.734943197357062   3.593523382219666  11.673616748318732 
  2.490164126128753  10.061258692275757  11.673616748318732 
  7.469103279882647  10.061278516831395  11.673616748318732 
  8.713725348087504   3.593626737155297  11.673616748318732 
 -5.019908047533020  10.029951729730179   5.002978606422314 
 -0.047327524529424  10.070960268282370   5.002978606422314 
  1.287908444829153   3.618069284983410   5.002978606422314 
  4.959710123081392  10.110145134329594   5.002978606422314 
  6.311751395601796   3.412723849465821   5.002978606422314 
 11.225292822622144   3.587778251202080   5.002978606422314 
 -2.488555158258437   5.749506458272259  11.673616748318732 
 -3.733238054853128  12.217027314503985  11.673616748318732 
  1.245506154032802  12.217073303987112  11.673616748318732 
  2.490168445740824   5.749536495997933  11.673616748318732 
  6.224373367619178  12.217100268815098  11.673616748318732 
 -6.232144107155182  12.208086862042412   5.002978606422314 
  7.469130452625325   5.749549871726731  11.673616748318732 
 -1.259499093561619  12.170503013336631   5.002978606422314 
 -0.017565481755511   5.768764576586872   5.002978606422314 
 -1.294431345965224   7.906214204863496   5.002978606422314 
  3.736447559489724  12.240926510313253   5.002978606422314 
  9.948544830990155   5.726837372324191   5.002978606422314 
 -3.733198856321557   7.905370463824263  11.673616748318732 
  2.490223053472144   1.437649924560180  11.673616748318732 
  6.224435784520253   7.905424276794810  11.673616748318732 
  7.469001993588568   1.437658543187418  11.673616748318732 
 12.447809381598702   1.437756101947535  11.673616748318732 
  1.251330317928395   0.711901716454189   5.002978606422314 
  4.840456257720443   7.408116324821438   5.002978606422314 
  6.243839032929405   0.649921730668765   5.002978606422314 
  9.912648332780297   7.162883286899050   5.002978606422314 
 11.225961484776606   0.732321889808653   5.002978606422314 
 -3.733217164054109   9.342606056068787  11.673616748318732 
  1.245492472491833   9.342528111771609  11.673616748318732 
  2.490267481964437   2.875014868012338  11.673616748318732 
  6.224356195171403   9.342531165144630  11.673616748318732 
  7.468884888956486   2.875006760449031  11.673616748318732 
 12.447878844698153   2.875039031198770  11.673616748318732 
 -1.285490920638340   9.337350889244423   5.002978606422314 
  0.037935261827537   2.896396931297677   5.002978606422314 
  5.023251935644736   2.735997613751471   5.002978606422314 
  3.676557889482901   9.467817766976557   5.002978606422314 
  8.670177366154588   9.314906128024004   5.002978606422314 
  9.993386636514348   2.857366457719853   5.002978606422314 
 -4.977924099862354  11.498509752314837  11.673616748318732 
  0.000818733442328  11.498452686652257  11.673616748318732 
  1.245583961905662   5.030869964097827  11.673616748318732 
  6.224199866514406   5.030854363924373  11.673616748318732 
  4.979660826405724  11.498463369823824  11.673616748318732 
 11.203152037539855   5.030882381337702  11.673616748318732 
 -1.247195560621923   5.039475482129036   5.002978606422314 
 -2.513905150317508  11.465026747789341   5.002978606422314 
  2.478598744412265  11.540355053435867   5.002978606422314 
  7.459816999026342  11.502771739485960   5.002978606422314 
  8.725175116181768   4.990728996626317   5.002978606422314 
  0.000845585665923   7.186677478834814  11.673616748318732 
  1.245582605287317   0.719169232329524  11.673616748318732 
  4.979561924121602   7.186630517176712  11.673616748318732 
  6.224227225577043   0.719106562019075  11.673616748318732 
  9.958446138751029   7.186758597261118  11.673616748318732 
 -2.529100184342560   7.178917762426337   5.002978606422314 
 11.203127335894751   0.719138587805110  11.673616748318732 
  3.726682380784248   0.666565743859551   5.002978606422314 
  2.391683714991482   7.294007475506565   5.002978606422314 
  7.398213174850743   7.145855365691928   5.002978606422314 
  8.744154326140514   0.688094448235695   5.002978606422314 
  2.490213623061029   7.186632210603195  11.673616748318732 
 13.713577124884878   0.739797027601103   5.002978606422314 
 -1.243851733690742   9.342568504592274  11.673616748318732 
  0.000950550736711   2.875043798393428  11.673616748318732 
  4.979527182534960   2.875014649624189  11.673616748318732 
  3.734885644045857   9.342483168058111  11.673616748318732 
  8.713752894436311   9.342630536251969  11.673616748318732 
  9.958406104921867   2.875023589490143  11.673616748318732 
 -3.775377464781306   9.318264795094951   5.002978606422314 
  1.195382554662262   9.394104850827761   5.002978606422314 
  2.526071243173222   2.857848889422601   5.002978606422314 
  6.195299961539628   9.372601301272702   5.002978606422314 
  7.548263958311368   2.761826143792842   5.002978606422314 
 12.476242964055690   2.882922660097873   5.002978606422314 
 -1.243775563572067   5.030864059030632  11.673616748318732 
 -2.488566969405078  11.498478533804592  11.673616748318732 
  2.490217631995828  11.498443010543758  11.673616748318732 
  3.734886269093000   5.030832590523186  11.673616748318732 
  7.469062273426557  11.498515572804864  11.673616748318732 
 -5.004967702364000  11.467246096448951   5.002978606422314 
  8.713661731215426   5.030927501153871  11.673616748318732 
 -0.014188595383641  11.489788201314791   5.002978606422314 
  1.248619668970522   5.070459920150536   5.002978606422314 
 -0.048781633166376   7.205861238170009   5.002978606422314 
  6.346459369312626   4.799642419186937   5.002978606422314 
  4.981859567530917  11.537585964705952   5.002978606422314 
 11.202215348808378   5.020747655501507   5.002978606422314 
 -2.488503262896559   7.186706381269411  11.673616748318732 
  3.734882367275964   0.719136055755206  11.673616748318732 
  7.468989531464079   7.186718114235388  11.673616748318732 
  8.713666876063275   0.719112721492741  11.673616748318732 
 13.692567642305633   0.719174794130784  11.673616748318732 
  0.000234322108625   1.437490457871613   1.667303312961287 
  3.733955702038187   7.904985982332415   1.634627990746127 
  4.978772821832619   1.437092927992138   1.655757621429812 
  8.712374262285097   7.904586623280299   1.661163886787554 
  9.957821003679294   1.437156857439685   1.667525317712197 
 -4.979026034175022  10.060672833263499   8.336346795784591 
 -0.000120584838927  10.060749596626561   8.338127976804886 
  1.244840261042238   3.593203857480656   8.352861449461184 
  4.978488000918838  10.061103837435860   8.349124458850611 
  6.223510837245571   3.592949999909192   8.371329222098501 
 11.202539130150008   3.592990324960649   8.337415915705000 
 -2.489560676303196  10.060631464051092   1.669961887626158 
 -1.244365275764502   3.593200196467677   1.667303312961287 
  3.733580320874711   3.591651187841850   1.637682862265420 
  2.489244912039594  10.061008776197527   1.660680431037769 
  7.467879478461067  10.060875415329599   1.664442703659326 
  8.713029822758569   3.592687659018559   1.656832753993830 
 -6.223531916758655  12.216750945854375   8.336510615402695 
 -1.244738324759890  12.216490758171231   8.338127976804886 
 -0.000006993990507   5.748926287562341   8.346418541059544 
  4.979566674592321   5.749449157693284   8.380486018134118 
  3.734139158572343  12.216890023309016   8.338431895132617 
  9.957527742183252   5.748678129587106   8.341514509185116 
 -2.489292051694898   5.748857771914752   1.669446597442401 
 -3.734180482102385  12.216651915405825   1.667686435336891 
  1.244753976088550  12.216639033848717   1.668380143683679 
  2.487865639607810   5.749292307530607   1.637682862265420 
  6.223504771009528  12.216930807623163   1.668541297139533 
  7.467836127693488   5.748407345350791   1.637815993950154 
 -1.244702097250848   7.904748868498429   8.338270777507750 
  0.000234322108625   1.437490457871613   8.338653899883059 
  3.733955702038187   7.904985982332416   8.371329222098501 
  4.978772821832620   1.437092927992139   8.350199591414523 
  8.712374262285097   7.904586623280299   8.344793326057072 
 -3.734257528450753   7.904670537687458   1.669610417060038 
  9.957821003679294   1.437156857439686   8.338431895132617 
  2.489327021484463   1.437273295750211   1.659538671785084 
  1.244559703123004   7.904939775887467   1.655757621429812 
  6.222799165188054   7.904874621711445   1.637815993950154 
  7.468325952871800   1.436987438473159   1.660680431037769 
  1.244559703123004   7.904939775887468   8.350199591414523 
 12.447236621668671   1.437425418848181   1.669190354935741 
 -2.489560676303196  10.060631464051092   8.335995325218482 
 -1.244365275764502   3.593200196467678   8.338653899883059 
  3.733580320874711   3.591651187841851   8.368274350579114 
  2.489244912039595  10.061008776197527   8.345276781806872 
  7.467879478461068  10.060875415329599   8.341514509185116 
  8.713029822758569   3.592687659018560   8.349124458850611 
 -4.979026034175023  10.060672833263499   1.669610417060038 
 -0.000120584838927  10.060749596626561   1.667829236039449 
  1.244840261042238   3.593203857480655   1.653095763383539 
  4.978488000918837  10.061103837435860   1.656832753993830 
  6.223510837245570   3.592949999909191   1.634627990746127 
 11.202539130150008   3.592990324960648   1.668541297139533 
 -2.489292051694897   5.748857771914753   8.336510615402695 
 -3.734180482102385  12.216651915405825   8.338270777507750 
  1.244753976088550  12.216639033848717   8.337577069161135 
  2.487865639607810   5.749292307530608   8.368274350579114 
  6.223504771009529  12.216930807623163   8.337415915705000 
 -6.223531916758656  12.216750945854375   1.669446597442401 
  7.467836127693489   5.748407345350792   8.368141218894566 
 -1.244738324759891  12.216490758171231   1.667829236039449 
 -0.000006993990507   5.748926287562340   1.659538671785084 
 -1.244702097250849   7.904748868498428   1.667686435336891 
  4.979566674592320   5.749449157693283   1.625471194710402 
  3.734139158572343  12.216890023309016   1.667525317712197 
  9.957527742183252   5.748678129587105   1.664442703659326 
 -3.734257528450753   7.904670537687458   8.336346795784591 
  2.489327021484464   1.437273295750212   8.346418541059544 
  6.222799165188055   7.904874621711445   8.368141218894566 
  7.468325952871801   1.436987438473160   8.345276781806872 
 12.447236621668671   1.437425418848181   8.336766857908806 
  4.360893566361721   5.392258072115851   5.002978606422314 
Generated by cif2cell 2.0.0.  :  Failed to get author information, No journal information. Species order: N B Sb 
 1.0
 14.936314146199660   0.000000000000000   0.000000000000000
 -7.468157073099825  12.935227489513863   0.000000000000000
  0.000000000000001   0.000000000000001  13.341276283792837
 N B Sb 
 143 143   1
Cartesian
  1.244653067952503   0.718376330125138   1.666721306657500 
  4.978731540725166   7.187437077086004   1.617948100554457 
  6.223688863462756   0.718373888228066   1.663118923561401 
  9.957197535213963   7.186038421556901   1.667410106006407 
 11.202483800204224   0.718767042300941   1.668887952913300 
 -3.734368860057524   9.341941124071239   8.335618644961889 
  1.244588777318937   9.342428213399794   8.342838289283135 
  2.489085586574644   2.873935168858802   8.358593086326911 
  6.223257294465264   9.342359785206282   8.350551709954290 
  7.468485043788243   2.874039689056860   8.354341793375829 
 12.447076626277980   2.874582913045382   8.336357404299239 
 -1.244848883605697   9.342132004477277   1.669541749431064 
  0.000028754844594   2.874511599286856   1.663545485098551 
  4.979110691471587   2.874117033662040   1.640801800160534 
  3.733848213068780   9.342620427681018   1.651615419468811 
  8.712504902213015   9.341909301721239   1.667410106006407 
  9.957800646486476   2.874349714423079   1.666249418689079 
 -4.978921730059381  11.497767675125676   8.335861215831379 
  0.000042284101791  11.498004403416502   8.336070619115569 
  1.244057967315418   5.030386262242316   8.358593086326911 
  6.224483176187909   5.029731950852497   8.388009112290170 
  4.978774504261124  11.498275964971111   8.339707794155455 
 11.202162981269581   5.030306933814407   8.336100196421896 
 -1.244927005691189   5.030455507187109   1.666721306657500 
 -2.489443564550583  11.497833226703811   1.669541749431064 
  2.489431159754797  11.498274879599778   1.667392276348544 
  3.732883059638640   5.029676037005476   1.627891582009081 
  7.468069393117707  11.497946748710671   1.669857016422932 
  8.712963861482065   5.030061515195265   1.655405502890803 
 -0.000138341633212   7.186418090641151   8.343936247067260 
  1.244653067952503   0.718376330125139   8.339235906187129 
  4.978731540725167   7.187437077086005   8.388009112290170 
  6.223688863462757   0.718373888228066   8.342838289283135 
  9.957197535213963   7.186038421556902   8.338547106838034 
 -2.489644735692491   7.186213446769845   1.670095997013250 
 11.202483800204224   0.718767042300942   8.337069259931623 
  3.734165766861152   0.718413643815665   1.662020965777275 
  2.489228019303490   7.186720326742577   1.640801800160534 
  7.467795782857012   7.186028903155176   1.647805344496010 
  8.713128034273799   0.718515682025168   1.667392276348544 
  2.489228019303491   7.186720326742578   8.365155412684294 
 13.691771523187438   0.718708111676481   1.669599808544909 
 -1.244848883605697   9.342132004477277   8.336415463413283 
  0.000028754844595   2.874511599286857   8.342411727746358 
  4.979110691471588   2.874117033662041   8.365155412684294 
  3.733848213068781   9.342620427681018   8.354341793375829 
  8.712504902213015   9.341909301721239   8.338547106838034 
  9.957800646486476   2.874349714423080   8.339707794155455 
 -3.734368860057525   9.341941124071239   1.670338567882566 
  1.244588777318937   9.342428213399794   1.663118923561401 
  2.489085586574643   2.873935168858801   1.647364126517717 
  6.223257294465263   9.342359785206282   1.655405502890803 
  7.468485043788242   2.874039689056859   1.651615419468811 
 12.447076626277980   2.874582913045381   1.669599808544909 
 -1.244927005691189   5.030455507187110   8.339235906187129 
 -2.489443564550582  11.497833226703811   8.336415463413283 
  2.489431159754797  11.498274879599778   8.338564936496550 
  3.732883059638641   5.029676037005477   8.378065630835453 
  7.468069393117708  11.497946748710671   8.336100196421896 
 -4.978921730059382  11.497767675125676   1.670095997013250 
  8.712963861482065   5.030061515195266   8.350551709954290 
  0.000042284101791  11.498004403416502   1.669886593729059 
  1.244057967315418   5.030386262242315   1.647364126517717 
 -0.000138341633212   7.186418090641150   1.662020965777275 
  6.224483176187908   5.029731950852496   1.617948100554457 
  4.978774504261123  11.498275964971111   1.666249418689079 
 11.202162981269581   5.030306933814406   1.669857016422932 
 -2.489644735692491   7.186213446769846   8.335861215831379 
  3.734165766861152   0.718413643815666   8.343936247067260 
  7.467795782857013   7.186028903155177   8.358151868348337 
  8.713128034273799   0.718515682025169   8.338564936496550 
 13.691771523187438   0.718708111676482   8.336357404299239 
  0.022113054999652   1.453962245341850   5.002978606422314 
  3.621995556506172   8.071517622734532   5.002978606422314 
  4.997399560061402   1.330890203916246   5.002978606422314 
  8.650472749151579   7.868847768009786   5.002978606422314 
  9.979791412501330   1.427137747774241   5.002978606422314 
 -4.977890544295060  10.061239707153053  11.673616748318732 
  0.000810171439500  10.061255386069291  11.673616748318732 
  1.245534604014336   3.593604736582567  11.673616748318732 
  4.979649029105746  10.061236640971517  11.673616748318732 
  6.224315625729145   3.593499357240565  11.673616748318732 
 11.203120186151786   3.593657821094653  11.673616748318732 
 -2.531262437192391  10.036554941176920   5.002978606422314 
 -1.219160922923973   3.603911841218711   5.002978606422314 
  3.811227299081659   3.456442715478229   5.002978606422314 
  2.435125241373631  10.131244268643824   5.002978606422314 
  7.444473372236796  10.064016364668152   5.002978606422314 
  8.746111892784409   3.551904891335211   5.002978606422314 
 -6.222601691175692  12.217064771111403  11.673616748318732 
 -1.243834920114524  12.217043922032094  11.673616748318732 
  0.000767192120667   5.749513959621111  11.673616748318732 
  4.979585516481065   5.749460036062892  11.673616748318732 
  3.734926114701596  12.217095839014737  11.673616748318732 
  9.958488739034324   5.749536421957480  11.673616748318732 
 -2.501101463574837   5.745731438155115   5.002978606422314 
 -3.757776087942223  12.172852454525335   5.002978606422314 
  1.235120566770162  12.211077182385955   5.002978606422314 
  2.409595156837278   5.884140799367120   5.002978606422314 
  6.230367828963852  12.239242120213952   5.002978606422314 
  7.459031801833430   5.686277965049949   5.002978606422314 
 -1.243905778470763   7.905377334888606  11.673616748318732 
  0.000865223399362   1.437713760789506  11.673616748318732 
  3.734833853684751   7.905408270938085  11.673616748318732 
  4.979621612924511   1.437631989889398  11.673616748318732 
  8.713820152193099   7.905421408208834  11.673616748318732 
 -3.781303791221733   7.884626227327954   5.002978606422314 
  9.958392723373304   1.437735473586889  11.673616748318732 
  2.497728239865032   1.412148054781052   5.002978606422314 
  1.161898815236616   7.974172366421094   5.002978606422314 
  6.164591380596379   7.928314542003396   5.002978606422314 
  7.502091838244503   1.355000682609044   5.002978606422314 
  1.245450939966442   7.905405319586483  11.673616748318732 
 12.469457680662336   1.450254753239929   5.002978606422314 
 -2.488545144282500  10.061217781736906  11.673616748318732 
 -1.243856439119552   3.593634921553881  11.673616748318732 
  3.734943197357062   3.593523382219666  11.673616748318732 
  2.490164126128753  10.061258692275757  11.673616748318732 
  7.469103279882647  10.061278516831395  11.673616748318732 
  8.713725348087504   3.593626737155297  11.673616748318732 
 -5.019908047533020  10.029951729730179   5.002978606422314 
 -0.047327524529424  10.070960268282370   5.002978606422314 
  1.287908444829153   3.618069284983410   5.002978606422314 
  4.959710123081392  10.110145134329594   5.002978606422314 
  6.311751395601796   3.412723849465821   5.002978606422314 
 11.225292822622144   3.587778251202080   5.002978606422314 
 -2.488555158258437   5.749506458272259  11.673616748318732 
 -3.733238054853128  12.217027314503985  11.673616748318732 
  1.245506154032802  12.217073303987112  11.673616748318732 
  2.490168445740824   5.749536495997933  11.673616748318732 
  6.224373367619178  12.217100268815098  11.673616748318732 
 -6.232144107155182  12.208086862042412   5.002978606422314 
  7.469130452625325   5.749549871726731  11.673616748318732 
 -1.259499093561619  12.170503013336631   5.002978606422314 
 -0.017565481755511   5.768764576586872   5.002978606422314 
 -1.294431345965224   7.906214204863496   5.002978606422314 
  3.736447559489724  12.240926510313253   5.002978606422314 
  9.948544830990155   5.726837372324191   5.002978606422314 
 -3.733198856321557   7.905370463824263  11.673616748318732 
  2.490223053472144   1.437649924560180  11.673616748318732 
  6.224435784520253   7.905424276794810  11.673616748318732 
  7.469001993588568   1.437658543187418  11.673616748318732 
 12.447809381598702   1.437756101947535  11.673616748318732 
  1.251330317928395   0.711901716454189   5.002978606422314 
  4.840456257720443   7.408116324821438   5.002978606422314 
  6.243839032929405   0.649921730668765   5.002978606422314 
  9.912648332780297   7.162883286899050   5.002978606422314 
 11.225961484776606   0.732321889808653   5.002978606422314 
 -3.733217164054109   9.342606056068787  11.673616748318732 
  1.245492472491833   9.342528111771609  11.673616748318732 
  2.490267481964437   2.875014868012338  11.673616748318732 
  6.224356195171403   9.342531165144630  11.673616748318732 
  7.468884888956486   2.875006760449031  11.673616748318732 
 12.447878844698153   2.875039031198770  11.673616748318732 
 -1.285490920638340   9.337350889244423   5.002978606422314 
  0.037935261827537   2.896396931297677   5.002978606422314 
  5.023251935644736   2.735997613751471   5.002978606422314 
  3.676557889482901   9.467817766976557   5.002978606422314 
  8.670177366154588   9.314906128024004   5.002978606422314 
  9.993386636514348   2.857366457719853   5.002978606422314 
 -4.977924099862354  11.498509752314837  11.673616748318732 
  0.000818733442328  11.498452686652257  11.673616748318732 
  1.245583961905662   5.030869964097827  11.673616748318732 
  6.224199866514406   5.030854363924373  11.673616748318732 
  4.979660826405724  11.498463369823824  11.673616748318732 
 11.203152037539855   5.030882381337702  11.673616748318732 
 -1.247195560621923   5.039475482129036   5.002978606422314 
 -2.513905150317508  11.465026747789341   5.002978606422314 
  2.478598744412265  11.540355053435867   5.002978606422314 
  7.459816999026342  11.502771739485960   5.002978606422314 
  8.725175116181768   4.990728996626317   5.002978606422314 
  0.000845585665923   7.186677478834814  11.673616748318732 
  1.245582605287317   0.719169232329524  11.673616748318732 
  4.979561924121602   7.186630517176712  11.673616748318732 
  6.224227225577043   0.719106562019075  11.673616748318732 
  9.958446138751029   7.186758597261118  11.673616748318732 
 -2.529100184342560   7.178917762426337   5.002978606422314 
 11.203127335894751   0.719138587805110  11.673616748318732 
  3.726682380784248   0.666565743859551   5.002978606422314 
  2.391683714991482   7.294007475506565   5.002978606422314 
  7.398213174850743   7.145855365691928   5.002978606422314 
  8.744154326140514   0.688094448235695   5.002978606422314 
  2.490213623061029   7.186632210603195  11.673616748318732 
 13.713577124884878   0.739797027601103   5.002978606422314 
 -1.243851733690742   9.342568504592274  11.673616748318732 
  0.000950550736711   2.875043798393428  11.673616748318732 
  4.979527182534960   2.875014649624189  11.673616748318732 
  3.734885644045857   9.342483168058111  11.673616748318732 
  8.713752894436311   9.342630536251969  11.673616748318732 
  9.958406104921867   2.875023589490143  11.673616748318732 
 -3.775377464781306   9.318264795094951   5.002978606422314 
  1.195382554662262   9.394104850827761   5.002978606422314 
  2.526071243173222   2.857848889422601   5.002978606422314 
  6.195299961539628   9.372601301272702   5.002978606422314 
  7.548263958311368   2.761826143792842   5.002978606422314 