 B C N 
 1.0
 17.527899999999772   0.000000000000000   0.000000000000000
 -8.763949999999658  15.179606674993195   0.000000000000000
  0.000000000000001   0.000000000000002  15.000000000000000
 B C N 
  47   4  47
Cartesian
  7.510600467559199  14.455570865306045   1.664934445105440 
 15.022399202163623   1.446769583552572   1.665835684288650 
 13.769069340844219   3.615762430785536   1.665976764066585 
 12.509879251042182   5.782633545306221   1.664918470809975 
 11.269619231741146   7.951018634539384   1.665437096563920 
 10.017514617171869  10.115379044173364   1.666016264535930 
  8.768902295930367  12.292512639357067   1.665759009359295 
 -7.512452838380162  14.452285554305130   1.665039655548645 
 -0.001992344603222   1.440008470742137   1.665175923972675 
 -1.250833431406575   3.614611062169082   1.665176393092605 
 -2.505887223860338   5.783520925437288   1.665284852638950 
 -3.760651933248993   7.950860186286612   1.665300844692300 
 -5.009307658485323  10.119737783328796   1.665249515156670 
 -6.259901999595677  12.285699986250764   1.664808356390085 
 -5.007038096235541  14.452126465477221   1.665085489923390 
  2.502062606685220   1.429416223056576   1.666144063658400 
  1.252945659977838   3.600291963232913   1.664921847092895 
  0.008923454205835   5.786535310096492   1.663926947574240 
 -1.263173527632543   7.954898587837421   1.665758929499505 
 -2.510690082828348  10.123102142073186   1.666395721996815 
 -3.758046337596300  12.288219842734184   1.664920745395860 
 -2.502776795515198  14.454674353165954   1.665479083359330 
  5.013219982075269   1.436586064854858   1.666976207970705 
  3.761238832776971   3.568759405130303   1.665687309169770 
  2.536049258233302   5.734865011860466   1.662103036150050 
  1.218586945172155   7.991057951989519   1.662630468362115 
 -0.017151197823290  10.140601520631467   1.666991449846725 
 -1.256396364026718  12.295880120268212   1.666756886367660 
  0.001849811159161  14.458090082291852   1.665344879216160 
  7.514929999297560   1.442394955638277   1.665465701253690 
  6.272923186554730   3.615327977993550   1.666087502551425 
  4.997382521517496   5.743087379619670   1.663659752279265 
  2.496979617735241  10.119737783328796   1.666098742472430 
  1.253050362913595  12.290598356431719   1.666896080298705 
  2.503666733643129  14.461353266310912   1.665346627452090 
 10.011655034820143   1.454784009841935   1.664756489945310 
  8.749175692281817   3.625420838930019   1.665368715458760 
  6.298347721340895   7.976076368492149   1.664727430881585 
  5.021201988589536  10.112621395176904   1.665645785348370 
  3.758095391723181  12.288274555275610   1.665375823903470 
  5.006965279444188  14.458266018818060   1.664874997164975 
 12.517664806903133   1.449234910146873   1.665822455180295 
 11.262047041657913   3.617924875383796   1.665548301864900 
  9.998016363427315   5.789530747291766   1.665339241271370 
  8.769149595333642   7.938657456043061   1.665778047631095 
  7.532020119677971  10.135227863043438   1.666013213754915 
  6.260780479850897  12.288059165534609   1.665009459883680 
  2.550082234906973   7.267926596793680   1.659222102833055 
  3.768879881351888   7.978453818454305   1.663763155612755 
  4.964110241693814   7.270407070121882   1.663340432263620 
  7.504422699636131   5.787869759617713   1.675061705001975 
  8.763611073311619  13.734101825418920   1.664973176074440 
 16.272541391385378   0.720546985425628   1.665001393506435 
 15.022295539276376   2.893135968030098   1.665695559456555 
 13.766094365121749   5.059868891664398   1.665055133556945 
 12.517192817091759   7.226843235058877   1.664515927227435 
 11.268823733663551   9.396052531393744   1.665274901463960 
 10.016027035567003  11.562176339648033   1.665512460337410 
 -6.260239557007051  13.730073035674295   1.664365925923290 
  1.248568083819726   0.713825012389507   1.665072042322725 
 -0.002307076715957   2.884699447346894   1.664847899404425 
 -1.246524837063680   5.059868891664398   1.664668639380870 
 -2.511537747895992   7.228955779673257   1.665390703332270 
 -3.759897833609549   9.397029765736105   1.665422875029780 
 -5.008872633178310  11.564495027810000   1.664400609516060 
 -3.755387239103089  13.731649165828616   1.664603939236215 
  3.759779690638413   0.715804490653132   1.666180631817090 
  2.500522702947633   2.866972437150688   1.665688297446405 
  1.262483847732231   5.046594893419738   1.663470368934255 
 -0.013793721079644   7.238083686527602   1.663774674786375 
 -1.260529848443758   9.403682324898179   1.666537868754420 
 -2.506893643785095  11.568311662089370   1.665855807853620 
 -1.251432384765383  13.737491585395642   1.665572572389915 
  6.265274764293797   0.716485817614954   1.665648754702785 
  5.023402253377274   2.878918483789195   1.666596266681085 
  3.772473142094614   4.993273255873831   1.663396975648515 
  1.231009989473313   9.427093935598950   1.665423368953215 
 -0.005992226100791  11.579833330607780   1.667244099124785 
  1.254504338772922  13.735716209384300   1.665639356006730 
  8.767030436511867   0.723465677020040   1.664305413375540 
  7.516178045685177   2.884749630145685   1.666150359775005 
  6.291378528713782   5.064160725805023   1.665125728117005 
  3.760906590664415   9.387056633977554   1.665191730969420 
  2.508259328014732  11.563413991623756   1.666253364831570 
  3.755312307599365  13.735083851607071   1.664706010784880 
 11.263967053244375   0.729712335656297   1.664870124679185 
 10.007035636007689   2.906781411939867   1.664635005664785 
  8.719856756634325   5.085678209224820   1.665770595171840 
  7.529332646937076   7.198288875075593   1.665255639764160 
  6.289314771652958   9.410652578768460   1.665264313560960 
  5.011342029015953  11.559576558296882   1.665039552374730 
  6.257855563541603  13.732973226340002   1.664324188042500 
 13.769478914321562   0.724801225011038   1.665474625813155 
 12.515047827268132   2.894858914693223   1.665849463006140 
 11.250263602868808   5.059868891664398   1.664719060439040 
 10.021807737894576   7.229152457023734   1.666056607711755 
  8.765533207769799   9.389931539365374   1.665829562493990 
  7.518566715722505  11.574030215711970   1.665510318442935 
