B C N                                   
   1.0000000000000000     
     8.7639499999999995  -15.1796066749929999    0.0000000000000000
     8.7639499999999995   15.1796066749929999    0.0000000000000000
     0.0000000000000000    0.0000000000000000   15.0000000000000000
   B    C    N 
    47     4    47
Selective dynamics
Direct
  0.9046450628959134  0.9523020704561522  0.1109956296736965   T   T   T
  0.9047114606246754  0.0953100837544085  0.1110557122859104   T   T   T
  0.9046509138906613  0.2381986904009915  0.1110651176044390   T   T   T
  0.9041861423815616  0.3809475218374732  0.1109945647206649   T   T   T
  0.9048512360707350  0.5237960906877683  0.1110291397709277   T   T   T
  0.9047080044546392  0.6663795222597816  0.1110677509690623   T   T   T
  0.9051847498719192  0.8098044239583415  0.1110506006239529   T   T   T
  0.0474431116564425  0.9520856411987109  0.1110026437032432   T   T   T
  0.0473186710110784  0.0948646761127480  0.1110117282648455   T   T   T
  0.0476989963630825  0.2381228407007255  0.1110117595395072   T   T   T
  0.0475373626791915  0.3810059805413162  0.1110189901759299   T   T   T
  0.0473404877704980  0.5237856524559897  0.1110200563128201   T   T   T
  0.0475428131634595  0.6666731371215359  0.1110166343437776   T   T   T
  0.0475385068746944  0.8093556209522981  0.1109872237593386   T   T   T
  0.1903765430525053  0.9520751607672142  0.1110056993282255   T   T   T
  0.1898308666669124  0.0941668815049988  0.1110762709105602   T   T   T
  0.1900726951951793  0.2371795291088813  0.1109947898061935   T   T   T
  0.1911113808936180  0.3812045617512076  0.1109284631716161   T   T   T
  0.1899593969289792  0.5240516937070760  0.1110505952999673   T   T   T
  0.1902045118885620  0.6668883034202679  0.1110930481331211   T   T   T
  0.1903571275775977  0.8095216237043703  0.1109947163597245   T   T   T
  0.3332989137239633  0.9522430101550990  0.1110319388906222   T   T   T
  0.3335044222530816  0.0946392153376069  0.1111317471980472   T   T   T
  0.3321369380246331  0.2351022316677981  0.1110458206113180   T   T   T
  0.3335867455084219  0.3778006330893971  0.1108068690766704   T   T   T
  0.3327395982897624  0.5264337952283011  0.1108420312241408   T   T   T
  0.3330420540885042  0.6680411250271091  0.1111327633231149   T   T   T
  0.3332842893494326  0.8100262663936069  0.1111171257578444   T   T   T
  0.4763395507812145  0.9524680310794897  0.1110229919477437   T   T   T
  0.4762519819951714  0.0950218926300948  0.1110310467502464   T   T   T
  0.4769672218496303  0.2381700695808820  0.1110725001700953   T   T   T
  0.4742813209865669  0.3783423050796698  0.1109106501519510   T   T   T
  0.4757907650698864  0.6665412953458746  0.1110732494981619   T   T   T
  0.4763280616902704  0.8096783150962131  0.1111264053532475   T   T   T
  0.6191804457347352  0.9526830026587233  0.1110231084968064   T   T   T
  0.6191029715205623  0.0958380570056889  0.1109837659963543   T   T   T
  0.6185745805010192  0.2388349656583998  0.1110245810305840   T   T   T
  0.6220561253639526  0.5254468405714289  0.1109818287254386   T   T   T
  0.6195680414258200  0.6661978542458796  0.1110430523565579   T   T   T
  0.6191690969304637  0.8095252280495019  0.1110250549268982   T   T   T
  0.7618966936954166  0.9524796214012933  0.1109916664776653   T   T   T
  0.7618928093151822  0.0954724941940911  0.1110548303453526   T   T   T
  0.7616917567060913  0.2383411476230111  0.1110365534576600   T   T   T
  0.7611067782710927  0.3814018947427282  0.1110226160847580   T   T   T
  0.7617875281456622  0.5229817627041127  0.1110518698420733   T   T   T
  0.7635596195040064  0.6676871199660372  0.1110675475836608   T   T   T
  0.7619449418863795  0.8095110386343474  0.1110006306589119   T   T   T
  0.3848847615525074  0.4787954492106061  0.1106148068555367   T   T   T
  0.4778234894741200  0.5256034618866624  0.1109175437075174   T   T   T
  0.5226913504040308  0.4789588574847009  0.1108893621509077   T   T   T
  0.6187878104841961  0.3812924724296463  0.1116707803334652   T   T   T
  0.9523672806950583  0.9047732342132692  0.1109982117382962   T   T   T
  0.9521134526888468  0.0474680932683624  0.1110000929004289   T   T   T
  0.9523473073911252  0.1905936056166881  0.1110463706304366   T   T   T
  0.9520485073390719  0.3334034038841124  0.1110036755704628   T   T   T
  0.9521741169361020  0.4760889652670868  0.1109677284818291   T   T   T
  0.9524037216086144  0.6189918311172546  0.1110183267642643   T   T   T
  0.9522790897757689  0.7616914316163081  0.1110341640224938   T   T   T
  0.0950953511905286  0.9045078261674030  0.1109577283948863   T   T   T
  0.0947458136386618  0.0470252640712665  0.1110048028215155   T   T   T
  0.0948872897347029  0.1900378256901167  0.1109898599602949   T   T   T
  0.0955500561734658  0.3335108484936396  0.1109779092920583   T   T   T
  0.0948260668681443  0.4762281351849649  0.1110260468888177   T   T   T
  0.0950187889719222  0.6190562092242299  0.1110281916686521   T   T   T
  0.0951563897654415  0.7618441818299084  0.1109600406344040   T   T   T
  0.2380538514713885  0.9046116582486995  0.1109735959490806   T   T   T
  0.2380804092905696  0.0471556678627479  0.1110787087878063   T   T   T
  0.2370945755792658  0.1888700081981521  0.1110458864964271   T   T   T
  0.2382565377449127  0.3324588707382956  0.1108980245956170   T   T   T
  0.2376277730791486  0.4768294621527701  0.1109183116524250   T   T   T
  0.2378316097883835  0.6194944655838655  0.1111025245836278   T   T   T
  0.2380247610034006  0.7620956135277830  0.1110570538569080   T   T   T
  0.3811016767583578  0.9049965443456921  0.1110381714926608   T   T   T
  0.3810461061487345  0.0472005522248006  0.1110432503135192   T   T   T
  0.3814231376815239  0.1896569881834890  0.1111064177787385   T   T   T
  0.3796998385722596  0.3289461553769851  0.1108931317099006   T   T   T
  0.3807498451535644  0.6210367723907563  0.1110282245968809   T   T   T
  0.3810854503104462  0.7628546363908322  0.1111496066083188   T   T   T
  0.5240116494145393  0.9048795863737662  0.1110426237337819   T   T   T
  0.5240059299681622  0.0476603704239500  0.1109536942250357   T   T   T
  0.5238328049107150  0.1900411316254990  0.1110766906516670   T   T   T
  0.5257431344871236  0.3336160701810340  0.1110083818744666   T   T   T
  0.5237664674712629  0.6183992006487060  0.1110127820646275   T   T   T
  0.5239874433805348  0.7617729654796168  0.1110835576554385   T   T   T
  0.6666870678586486  0.9048379279967891  0.1109804007189919   T   T   T
  0.6667034321106585  0.0480718869256617  0.1109913416452793   T   T   T
  0.6666063585951750  0.1914925382571656  0.1109756670443194   T   T   T
  0.6650011946520766  0.3350335959365105  0.1110513730114560   T   T   T
  0.6666386771143799  0.4742078651440959  0.1110170426509444   T   T   T
  0.6687941836303796  0.6199536509909386  0.1110176209040640   T   T   T
  0.6665254817037746  0.7615201635850074  0.1110026368249815   T   T   T
  0.8093719927967891  0.9046988845214039  0.1109549458695002   T   T   T
  0.8094491123688989  0.0477483534672261  0.1110316417208775   T   T   T
  0.8093608133850821  0.1907071096553643  0.1110566308670761   T   T   T
  0.8085155819884612  0.3334331288984618  0.1109812706959363   T   T   T
  0.8098837199533382  0.4762410918678806  0.1110704405141173   T   T   T
  0.8093846216428984  0.6185885932627156  0.1110553041662658   T   T   T
  0.8101846870630609  0.7624723396014582  0.1110340212295288   T   T   T

  0.00000000E+00  0.00000000E+00  0.00000000E+00
  0.00000000E+00  0.00000000E+00  0.00000000E+00
  0.00000000E+00  0.00000000E+00  0.00000000E+00
  0.00000000E+00  0.00000000E+00  0.00000000E+00
  0.00000000E+00  0.00000000E+00  0.00000000E+00
  0.00000000E+00  0.00000000E+00  0.00000000E+00
  0.00000000E+00  0.00000000E+00  0.00000000E+00
  0.00000000E+00  0.00000000E+00  0.00000000E+00
  0.00000000E+00  0.00000000E+00  0.00000000E+00
  0.00000000E+00  0.00000000E+00  0.00000000E+00
  0.00000000E+00  0.00000000E+00  0.00000000E+00
  0.00000000E+00  0.00000000E+00  0.00000000E+00
  0.00000000E+00  0.00000000E+00  0.00000000E+00
  0.00000000E+00  0.00000000E+00  0.00000000E+00
  0.00000000E+00  0.00000000E+00  0.00000000E+00
  0.00000000E+00  0.00000000E+00  0.00000000E+00
  0.00000000E+00  0.00000000E+00  0.00000000E+00
  0.00000000E+00  0.00000000E+00  0.00000000E+00
  0.00000000E+00  0.00000000E+00  0.00000000E+00
  0.00000000E+00  0.00000000E+00  0.00000000E+00
  0.00000000E+00  0.00000000E+00  0.00000000E+00
  0.00000000E+00  0.00000000E+00  0.00000000E+00
  0.00000000E+00  0.00000000E+00  0.00000000E+00
  0.00000000E+00  0.00000000E+00  0.00000000E+00
  0.00000000E+00  0.00000000E+00  0.00000000E+00
  0.00000000E+00  0.00000000E+00  0.00000000E+00
  0.00000000E+00  0.00000000E+00  0.00000000E+00
  0.00000000E+00  0.00000000E+00  0.00000000E+00
  0.00000000E+00  0.00000000E+00  0.00000000E+00
  0.00000000E+00  0.00000000E+00  0.00000000E+00
  0.00000000E+00  0.00000000E+00  0.00000000E+00
  0.00000000E+00  0.00000000E+00  0.00000000E+00
  0.00000000E+00  0.00000000E+00  0.00000000E+00
  0.00000000E+00  0.00000000E+00  0.00000000E+00
  0.00000000E+00  0.00000000E+00  0.00000000E+00
  0.00000000E+00  0.00000000E+00  0.00000000E+00
  0.00000000E+00  0.00000000E+00  0.00000000E+00
  0.00000000E+00  0.00000000E+00  0.00000000E+00
  0.00000000E+00  0.00000000E+00  0.00000000E+00
  0.00000000E+00  0.00000000E+00  0.00000000E+00
  0.00000000E+00  0.00000000E+00  0.00000000E+00
  0.00000000E+00  0.00000000E+00  0.00000000E+00
  0.00000000E+00  0.00000000E+00  0.00000000E+00
  0.00000000E+00  0.00000000E+00  0.00000000E+00
  0.00000000E+00  0.00000000E+00  0.00000000E+00
  0.00000000E+00  0.00000000E+00  0.00000000E+00
  0.00000000E+00  0.00000000E+00  0.00000000E+00
  0.00000000E+00  0.00000000E+00  0.00000000E+00
  0.00000000E+00  0.00000000E+00  0.00000000E+00
  0.00000000E+00  0.00000000E+00  0.00000000E+00
  0.00000000E+00  0.00000000E+00  0.00000000E+00
  0.00000000E+00  0.00000000E+00  0.00000000E+00
  0.00000000E+00  0.00000000E+00  0.00000000E+00
  0.00000000E+00  0.00000000E+00  0.00000000E+00
  0.00000000E+00  0.00000000E+00  0.00000000E+00
  0.00000000E+00  0.00000000E+00  0.00000000E+00
  0.00000000E+00  0.00000000E+00  0.00000000E+00
  0.00000000E+00  0.00000000E+00  0.00000000E+00
  0.00000000E+00  0.00000000E+00  0.00000000E+00
  0.00000000E+00  0.00000000E+00  0.00000000E+00
  0.00000000E+00  0.00000000E+00  0.00000000E+00
  0.00000000E+00  0.00000000E+00  0.00000000E+00
  0.00000000E+00  0.00000000E+00  0.00000000E+00
  0.00000000E+00  0.00000000E+00  0.00000000E+00
  0.00000000E+00  0.00000000E+00  0.00000000E+00
  0.00000000E+00  0.00000000E+00  0.00000000E+00
  0.00000000E+00  0.00000000E+00  0.00000000E+00
  0.00000000E+00  0.00000000E+00  0.00000000E+00
  0.00000000E+00  0.00000000E+00  0.00000000E+00
  0.00000000E+00  0.00000000E+00  0.00000000E+00
  0.00000000E+00  0.00000000E+00  0.00000000E+00
  0.00000000E+00  0.00000000E+00  0.00000000E+00
  0.00000000E+00  0.00000000E+00  0.00000000E+00
  0.00000000E+00  0.00000000E+00  0.00000000E+00
  0.00000000E+00  0.00000000E+00  0.00000000E+00
  0.00000000E+00  0.00000000E+00  0.00000000E+00
  0.00000000E+00  0.00000000E+00  0.00000000E+00
  0.00000000E+00  0.00000000E+00  0.00000000E+00
  0.00000000E+00  0.00000000E+00  0.00000000E+00
  0.00000000E+00  0.00000000E+00  0.00000000E+00
  0.00000000E+00  0.00000000E+00  0.00000000E+00
  0.00000000E+00  0.00000000E+00  0.00000000E+00
  0.00000000E+00  0.00000000E+00  0.00000000E+00
  0.00000000E+00  0.00000000E+00  0.00000000E+00
  0.00000000E+00  0.00000000E+00  0.00000000E+00
  0.00000000E+00  0.00000000E+00  0.00000000E+00
  0.00000000E+00  0.00000000E+00  0.00000000E+00
  0.00000000E+00  0.00000000E+00  0.00000000E+00
  0.00000000E+00  0.00000000E+00  0.00000000E+00
  0.00000000E+00  0.00000000E+00  0.00000000E+00
  0.00000000E+00  0.00000000E+00  0.00000000E+00
  0.00000000E+00  0.00000000E+00  0.00000000E+00
  0.00000000E+00  0.00000000E+00  0.00000000E+00
  0.00000000E+00  0.00000000E+00  0.00000000E+00
  0.00000000E+00  0.00000000E+00  0.00000000E+00
  0.00000000E+00  0.00000000E+00  0.00000000E+00
  0.00000000E+00  0.00000000E+00  0.00000000E+00
  0.00000000E+00  0.00000000E+00  0.00000000E+00
