Sb B N                                  
   1.0000000000000000     
     8.7639499999999995  -15.1796066749929999    0.0000000000000000
     8.7639499999999995   15.1796066749929999    0.0000000000000000
     0.0000000000000000    0.0000000000000000   15.0000000000000000
   Sb   B    N 
     1    48    48
Selective dynamics
Direct
  0.4021051587219787  0.4871734791760353  0.1107057781103106   T   T   T
  0.9083152386398220  0.9525216234496715  0.1108686630337394   T   T   T
  0.9069292548060349  0.0940419238195520  0.1108900616358037   T   T   T
  0.9064820061004615  0.2363793744610697  0.1107559320218837   T   T   T
  0.9060364971988260  0.3792100083258274  0.1106857926622972   T   T   T
  0.9052985599622837  0.5224947666914673  0.1109065167070608   T   T   T
  0.9092056442939849  0.6662180311401973  0.1111357476257423   T   T   T
  0.9088742005435562  0.8099832815002577  0.1109232180186323   T   T   T
  0.0507087595612736  0.9529448362885723  0.1108065418617152   T   T   T
  0.0499525385878632  0.0944843461804763  0.1108141197274072   T   T   T
  0.0492100542809082  0.2369635911501866  0.1108018370277621   T   T   T
  0.0476943746578665  0.3797029487188535  0.1107145512053113   T   T   T
  0.0454341559634122  0.5234048750793505  0.1106815306859228   T   T   T
  0.0482778280014321  0.6671220925157823  0.1107951804652701   T   T   T
  0.0499692846973807  0.8102924555069135  0.1108439410410900   T   T   T
  0.1927783271255159  0.9531732638665603  0.1107267239211938   T   T   T
  0.1936558886921869  0.0952889378365428  0.1106786740121172   T   T   T
  0.1913296952752545  0.2353703903373238  0.1105624925262723   T   T   T
  0.1909956778884345  0.3809431417861230  0.1106592078889013   T   T   T
  0.1840945845746984  0.5246624890802173  0.1107101634968415   T   T   T
  0.1874446237712192  0.6685646840742338  0.1107440799708695   T   T   T
  0.1912402962959810  0.8111111130819239  0.1107217983527845   T   T   T
  0.3352264884688805  0.9535194864622302  0.1107451513542896   T   T   T
  0.3365192007469364  0.0939761039352033  0.1107364988807397   T   T   T
  0.3388966337874395  0.2340537151869137  0.1104676675583230   T   T   T
  0.3307373357679054  0.3584046594009179  0.1107521893697163   T   T   T
  0.3202928280520644  0.5339843542853432  0.1107264599662198   T   T   T
  0.3262444375545103  0.6737333098175583  0.1106991228264649   T   T   T
  0.3332625938262933  0.8132969045559698  0.1108056103034513   T   T   T
  0.4781923600419076  0.9535129447218162  0.1107998330761434   T   T   T
  0.4794251310624575  0.0952310508268975  0.1108267867294964   T   T   T
  0.4812019309913021  0.2379846361489293  0.1108288874529619   T   T   T
  0.4914601803272879  0.3889626268076777  0.1105623755131248   T   T   T
  0.4641034142038455  0.6720798208785379  0.1108460581750264   T   T   T
  0.4765234362795402  0.8123063590987416  0.1106664566676920   T   T   T
  0.6211631075146388  0.9512234159594061  0.1107424401012455   T   T   T
  0.6218847363184398  0.0939267952542396  0.1107834686942368   T   T   T
  0.6227424038032009  0.2363011244510255  0.1108346085081220   T   T   T
  0.6240972686449953  0.3783280245762405  0.1109953569500621   T   T   T
  0.6129584569186389  0.5137113430096509  0.1098385107319190   T   T   T
  0.6428717839500838  0.6707079448356014  0.1100277354975069   T   T   T
  0.6208107461547713  0.8072871420117153  0.1105153675418570   T   T   T
  0.7642490248640270  0.9509566062657885  0.1107828756622468   T   T   T
  0.7642084412198423  0.0935638684405551  0.1107919869959521   T   T   T
  0.7644799977657573  0.2361373965883187  0.1106706820987487   T   T   T
  0.7648176862861525  0.3788088091320804  0.1108847280925946   T   T   T
  0.7634744230984676  0.5213506316098835  0.1111484101272001   T   T   T
  0.7717538132318299  0.6653801232529787  0.1106920007279219   T   T   T
  0.7679957649372249  0.8107166625251300  0.1106678956865599   T   T   T
  0.9559953221437680  0.9053187283938298  0.1108566761613883   T   T   T
  0.9550876963454651  0.0472461229271052  0.1108775465709800   T   T   T
  0.9541608366569330  0.1890611577147647  0.1108385600343979   T   T   T
  0.9532302067183639  0.3313309253169042  0.1106738805831851   T   T   T
  0.9517051090982157  0.4743741307039310  0.1106842475895853   T   T   T
  0.9547323681176665  0.6180056043819218  0.1109270916214738   T   T   T
  0.9558164814981503  0.7620268571005975  0.1109739385874760   T   T   T
  0.0978722805866410  0.9053937081417209  0.1107546606348259   T   T   T
  0.0982111140756565  0.0477975374142050  0.1107534919040993   T   T   T
  0.0965650748558692  0.1890320595051050  0.1107372259787396   T   T   T
  0.0957596410165631  0.3320519969009913  0.1107283490065397   T   T   T
  0.0909251266052977  0.4749544244589722  0.1106889210691969   T   T   T
  0.0935751135564346  0.6189166765298622  0.1106729016188103   T   T   T
  0.0966086669048563  0.7625307008231914  0.1107455038275362   T   T   T
  0.2400143388314214  0.9058859388668868  0.1106808909327235   T   T   T
  0.2409825014657882  0.0476138772352921  0.1106916150876506   T   T   T
  0.2415615824096841  0.1896851908546855  0.1105479597335734   T   T   T
  0.2378813095661674  0.3300957231083799  0.1105042484240117   T   T   T
  0.2289011868476861  0.4762337176775934  0.1106672932507830   T   T   T
  0.2322171438601647  0.6207543304834109  0.1107390774512764   T   T   T
  0.2379114436416537  0.7639160035232351  0.1107561372830304   T   T   T
  0.3828818823805848  0.9071972890811679  0.1107815036009246   T   T   T
  0.3840845406902632  0.0473177057433474  0.1107680596950379   T   T   T
  0.3854638301987186  0.1871169302306475  0.1106790827227933   T   T   T
  0.3892955302899639  0.3265415599166356  0.1102556353696684   T   T   T
  0.3704918038119118  0.6278632107045091  0.1106886495841628   T   T   T
  0.3805271179988724  0.7675081127292950  0.1107383258827961   T   T   T
  0.5258825198604101  0.9063520634833085  0.1107430977697385   T   T   T
  0.5268487425393159  0.0476920425098873  0.1108047064628072   T   T   T
  0.5279067299420004  0.1894149262499915  0.1108326494308097   T   T   T
  0.5301254014036817  0.3320926299654441  0.1108872298254387   T   T   T
  0.5586619962306377  0.6042235947032822  0.1104447520150810   T   T   T
  0.4900930687312383  0.6094032859249368  0.1112802816468721   T   T   T
  0.5239852815687401  0.7646394557891559  0.1104981965236842   T   T   T
  0.6685326346272746  0.9029576909485890  0.1106724211499188   T   T   T
  0.6692082422994416  0.0460596424649506  0.1107689434311948   T   T   T
  0.6698559708730190  0.1883650202635784  0.1107094314961348   T   T   T
  0.6709727421971473  0.3304308075331499  0.1109313602444189   T   T   T
  0.6689392807908457  0.4725248072349904  0.1109312283194043   T   T   T
  0.6809997505996841  0.6162590736001768  0.1097836180474701   T   T   T
  0.6735347416037358  0.7637223394898085  0.1103332696778953   T   T   T
  0.8137270263966867  0.9053965081588986  0.1108031839437363   T   T   T
  0.8117224305247799  0.0461068851265508  0.1108343966508466   T   T   T
  0.8117462586586055  0.1884229039454440  0.1106957625841316   T   T   T
  0.8119014886360446  0.3309271334638800  0.1106726257861970   T   T   T
  0.8112357560397494  0.4737916320166301  0.1110223518945669   T   T   T
  0.8166129133766800  0.6171175020990251  0.1112897163601842   T   T   T
  0.8150724793790047  0.7622343195641639  0.1108257154520939   T   T   T

  0.00000000E+00  0.00000000E+00  0.00000000E+00
  0.00000000E+00  0.00000000E+00  0.00000000E+00
  0.00000000E+00  0.00000000E+00  0.00000000E+00
  0.00000000E+00  0.00000000E+00  0.00000000E+00
  0.00000000E+00  0.00000000E+00  0.00000000E+00
  0.00000000E+00  0.00000000E+00  0.00000000E+00
  0.00000000E+00  0.00000000E+00  0.00000000E+00
  0.00000000E+00  0.00000000E+00  0.00000000E+00
  0.00000000E+00  0.00000000E+00  0.00000000E+00
  0.00000000E+00  0.00000000E+00  0.00000000E+00
  0.00000000E+00  0.00000000E+00  0.00000000E+00
  0.00000000E+00  0.00000000E+00  0.00000000E+00
  0.00000000E+00  0.00000000E+00  0.00000000E+00
  0.00000000E+00  0.00000000E+00  0.00000000E+00
  0.00000000E+00  0.00000000E+00  0.00000000E+00
  0.00000000E+00  0.00000000E+00  0.00000000E+00
  0.00000000E+00  0.00000000E+00  0.00000000E+00
  0.00000000E+00  0.00000000E+00  0.00000000E+00
  0.00000000E+00  0.00000000E+00  0.00000000E+00
  0.00000000E+00  0.00000000E+00  0.00000000E+00
  0.00000000E+00  0.00000000E+00  0.00000000E+00
  0.00000000E+00  0.00000000E+00  0.00000000E+00
  0.00000000E+00  0.00000000E+00  0.00000000E+00
  0.00000000E+00  0.00000000E+00  0.00000000E+00
  0.00000000E+00  0.00000000E+00  0.00000000E+00
  0.00000000E+00  0.00000000E+00  0.00000000E+00
  0.00000000E+00  0.00000000E+00  0.00000000E+00
  0.00000000E+00  0.00000000E+00  0.00000000E+00
  0.00000000E+00  0.00000000E+00  0.00000000E+00
  0.00000000E+00  0.00000000E+00  0.00000000E+00
  0.00000000E+00  0.00000000E+00  0.00000000E+00
  0.00000000E+00  0.00000000E+00  0.00000000E+00
  0.00000000E+00  0.00000000E+00  0.00000000E+00
  0.00000000E+00  0.00000000E+00  0.00000000E+00
  0.00000000E+00  0.00000000E+00  0.00000000E+00
  0.00000000E+00  0.00000000E+00  0.00000000E+00
  0.00000000E+00  0.00000000E+00  0.00000000E+00
  0.00000000E+00  0.00000000E+00  0.00000000E+00
  0.00000000E+00  0.00000000E+00  0.00000000E+00
  0.00000000E+00  0.00000000E+00  0.00000000E+00
  0.00000000E+00  0.00000000E+00  0.00000000E+00
  0.00000000E+00  0.00000000E+00  0.00000000E+00
  0.00000000E+00  0.00000000E+00  0.00000000E+00
  0.00000000E+00  0.00000000E+00  0.00000000E+00
  0.00000000E+00  0.00000000E+00  0.00000000E+00
  0.00000000E+00  0.00000000E+00  0.00000000E+00
  0.00000000E+00  0.00000000E+00  0.00000000E+00
  0.00000000E+00  0.00000000E+00  0.00000000E+00
  0.00000000E+00  0.00000000E+00  0.00000000E+00
  0.00000000E+00  0.00000000E+00  0.00000000E+00
  0.00000000E+00  0.00000000E+00  0.00000000E+00
  0.00000000E+00  0.00000000E+00  0.00000000E+00
  0.00000000E+00  0.00000000E+00  0.00000000E+00
  0.00000000E+00  0.00000000E+00  0.00000000E+00
  0.00000000E+00  0.00000000E+00  0.00000000E+00
  0.00000000E+00  0.00000000E+00  0.00000000E+00
  0.00000000E+00  0.00000000E+00  0.00000000E+00
  0.00000000E+00  0.00000000E+00  0.00000000E+00
  0.00000000E+00  0.00000000E+00  0.00000000E+00
  0.00000000E+00  0.00000000E+00  0.00000000E+00
  0.00000000E+00  0.00000000E+00  0.00000000E+00
  0.00000000E+00  0.00000000E+00  0.00000000E+00
  0.00000000E+00  0.00000000E+00  0.00000000E+00
  0.00000000E+00  0.00000000E+00  0.00000000E+00
  0.00000000E+00  0.00000000E+00  0.00000000E+00
  0.00000000E+00  0.00000000E+00  0.00000000E+00
  0.00000000E+00  0.00000000E+00  0.00000000E+00
  0.00000000E+00  0.00000000E+00  0.00000000E+00
  0.00000000E+00  0.00000000E+00  0.00000000E+00
  0.00000000E+00  0.00000000E+00  0.00000000E+00
  0.00000000E+00  0.00000000E+00  0.00000000E+00
  0.00000000E+00  0.00000000E+00  0.00000000E+00
  0.00000000E+00  0.00000000E+00  0.00000000E+00
  0.00000000E+00  0.00000000E+00  0.00000000E+00
  0.00000000E+00  0.00000000E+00  0.00000000E+00
  0.00000000E+00  0.00000000E+00  0.00000000E+00
  0.00000000E+00  0.00000000E+00  0.00000000E+00
  0.00000000E+00  0.00000000E+00  0.00000000E+00
  0.00000000E+00  0.00000000E+00  0.00000000E+00
  0.00000000E+00  0.00000000E+00  0.00000000E+00
  0.00000000E+00  0.00000000E+00  0.00000000E+00
  0.00000000E+00  0.00000000E+00  0.00000000E+00
  0.00000000E+00  0.00000000E+00  0.00000000E+00
  0.00000000E+00  0.00000000E+00  0.00000000E+00
  0.00000000E+00  0.00000000E+00  0.00000000E+00
  0.00000000E+00  0.00000000E+00  0.00000000E+00
  0.00000000E+00  0.00000000E+00  0.00000000E+00
  0.00000000E+00  0.00000000E+00  0.00000000E+00
  0.00000000E+00  0.00000000E+00  0.00000000E+00
  0.00000000E+00  0.00000000E+00  0.00000000E+00
  0.00000000E+00  0.00000000E+00  0.00000000E+00
  0.00000000E+00  0.00000000E+00  0.00000000E+00
  0.00000000E+00  0.00000000E+00  0.00000000E+00
  0.00000000E+00  0.00000000E+00  0.00000000E+00
  0.00000000E+00  0.00000000E+00  0.00000000E+00
  0.00000000E+00  0.00000000E+00  0.00000000E+00
  0.00000000E+00  0.00000000E+00  0.00000000E+00
