B N O                                   
   1.0000000000000000     
     8.7639499999999995  -15.1796066749929999    0.0000000000000000
     8.7639499999999995   15.1796066749929999    0.0000000000000000
     0.0000000000000000    0.0000000000000000   15.0000000000000000
   B    N    O 
    48    48     2
Selective dynamics
Direct
  0.9038685022698175  0.9514300498371049  0.1109600575954349   T   T   T
  0.9051938850630297  0.0948081361329659  0.1109805604113708   T   T   T
  0.9056839144848610  0.2376915141160396  0.1111838821775968   T   T   T
  0.9057006790559115  0.3805635254510853  0.1107645707564478   T   T   T
  0.9052310871674842  0.5235039336583008  0.1097056511826482   T   T   T
  0.9038134809956546  0.6661798671157291  0.1102001688309132   T   T   T
  0.9029931463656523  0.8083541951978130  0.1105628243836993   T   T   T
  0.0472569894942794  0.9527450317017275  0.1108502068114612   T   T   T
  0.0485719713589032  0.0961335189261746  0.1109600575954349   T   T   T
  0.0489685206725461  0.2386962227509885  0.1114232964862761   T   T   T
  0.0485088377894583  0.3811949320115173  0.1115996946815844   T   T   T
  0.0475039957867923  0.5240947141804927  0.1113106455245661   T   T   T
  0.0468571753605281  0.6669910193709494  0.1111045408190898   T   T   T
  0.0467533743325291  0.8097745431791218  0.1110363398100973   T   T   T
  0.1902274780168881  0.9532486468634820  0.1110363398100973   T   T   T
  0.1916478259981911  0.0970088748303462  0.1105628243836993   T   T   T
  0.1934664496298327  0.2410674124523733  0.1124619426185759   T   T   T
  0.1921874300147070  0.3824643450117621  0.1134307552120820   T   T   T
  0.1897813772319655  0.5248423201481290  0.1127362388265744   T   T   T
  0.1893637937775109  0.6675708597923182  0.1112952887061708   T   T   T
  0.1896762585322305  0.8103257626637728  0.1112857321275643   T   T   T
  0.3330110018260484  0.9531448458354741  0.1111045408190898   T   T   T
  0.3338221540812693  0.0961885402003386  0.1102001688309132   T   T   T
  0.3362657566128337  0.2410843669549011  0.1116069969722160   T   T   T
  0.3395440919762722  0.3864092575719009  0.1118931051429748   T   T   T
  0.3316636535743537  0.5268904029436525  0.1080782633101457   T   T   T
  0.3315827961514560  0.6684192250455425  0.1090956565957196   T   T   T
  0.3324311614046810  0.8106382274184916  0.1112952887061708   T   T   T
  0.4759073070165109  0.9524980254092082  0.1113106455245661   T   T   T
  0.4764980875386993  0.0947709340285154  0.1097056511826482   T   T   T
  0.4773628533900861  0.2370473999973840  0.1087957634514236   T   T   T
  0.4814265108541185  0.3805157394200788  0.1242187181046518   T   T   T
  0.4731116182533525  0.6683383676226442  0.1080782633101457   T   T   T
  0.4751597010488778  0.8102206439640399  0.1127362388265744   T   T   T
  0.6188070891844867  0.9514931834065495  0.1115996946815844   T   T   T
  0.6194384957449087  0.0943013421400868  0.1107645707564478   T   T   T
  0.6200376395881200  0.2367504962593014  0.1086118441557702   T   T   T
  0.6210419461205653  0.3789600750754388  0.1102513990595746   T   T   T
  0.6194862817759164  0.5185755103428765  0.1242187181046518   T   T   T
  0.6135927636241088  0.6604579292207268  0.1118931051429748   T   T   T
  0.6175376761842390  0.8078145911812955  0.1134307552120820   T   T   T
  0.7613057984450128  0.9510335005234584  0.1114232964862761   T   T   T
  0.7623105070799502  0.0943181067111346  0.1111838821775968   T   T   T
  0.7628187777348739  0.2371832434611291  0.1106786966307873   T   T   T
  0.7632515249367021  0.3799643816078850  0.1086118441557702   T   T   T
  0.7629546211986180  0.5226391678069201  0.1087957634514236   T   T   T
  0.7589176542410975  0.6637362645841733  0.1116069969722159   T   T   T
  0.7589346087436292  0.8065355715661654  0.1124619426185759   T   T   T
  0.9515112044406983  0.9040315158780174  0.1107531090937237   T   T   T
  0.9527192064099614  0.0472821955080451  0.1108358767684209   T   T   T
  0.9534306672017651  0.1902987305496624  0.1110365511250502   T   T   T
  0.9533169348948796  0.3330324026630860  0.1111699100438405   T   T   T
  0.9526551719202523  0.4758921196083085  0.1107248404736604   T   T   T
  0.9517555882624783  0.6188388499364185  0.1103906297217399   T   T   T
  0.9512863179294109  0.7614904481081463  0.1106154518659534   T   T   T
  0.0948005927912581  0.9052008091267398  0.1110792007800795   T   T   T
  0.0959698860399766  0.0484901974773073  0.1107531090937237   T   T   T
  0.0973957605197120  0.1920036599179240  0.1115274030784810   T   T   T
  0.0966879095430283  0.3340215120641353  0.1117819427994379   T   T   T
  0.0950147170330957  0.4765018388512224  0.1118257973157977   T   T   T
  0.0943931948940746  0.6194215650086948  0.1114026077155550   T   T   T
  0.0944141287198430  0.7623255373633506  0.1112748863380232   T   T   T
  0.2376758645546528  0.9055872731981612  0.1112748863380232   T   T   T
  0.2385109538098623  0.0487150839885914  0.1106154518659534   T   T   T
  0.2405893998709567  0.1929734325755560  0.1107909340508253   T   T   T
  0.2424525797451981  0.3372082037638146  0.1139880747075508   T   T   T
  0.2374907488297464  0.4775468063299984  0.1145412791718251   T   T   T
  0.2367131266883037  0.6200568733679843  0.1110891816063333   T   T   T
  0.2371915613749295  0.7628098405430767  0.1111368319331299   T   T   T
  0.3805798369093039  0.9056082070239199  0.1114026077155550   T   T   T
  0.3811625519815801  0.0482458136555245  0.1103906297217399   T   T   T
  0.3822027502003725  0.1915543834597289  0.1098843350832139   T   T   T
  0.3861863356762522  0.3375092546635937  0.1154307395202377   T   T   T
  0.3808308851977373  0.4819343521511432  0.1045583131141963   T   T   T
  0.3786737586982554  0.6213276432197420  0.1049347963433396   T   T   T
  0.3799445285500132  0.7632882752297032  0.1110891816063333   T   T   T
  0.5234995630657723  0.9049866848848988  0.1118257973157977   T   T   T
  0.5241092823086878  0.0473462299977539  0.1107248404736604   T   T   T
  0.5247618148904447  0.1895621332272215  0.1080597621029868   T   T   T
  0.5260736587084541  0.3315077769029488  0.1111488235304168   T   T   T
  0.5180670497658505  0.6191705167202636  0.1045583131141963   T   T   T
  0.5224545955870076  0.7625106530882666  0.1145412791718251   T   T   T
  0.6659798898528611  0.9033134923749726  0.1117819427994379   T   T   T
  0.6669689992539144  0.0466844670231260  0.1111699100438405   T   T   T
  0.6675682659616939  0.1893705583553485  0.1102310311567159   T   T   T
  0.6682724967864503  0.3317289051305489  0.1078965515607768   T   T   T
  0.6684936250140499  0.4739277432085427  0.1111488235304166   T   T   T
  0.6624921472534049  0.6138150662417454  0.1154307395202377   T   T   T
  0.6627931981531840  0.7575488221728072  0.1139880747075508   T   T   T
  0.8079977420000749  0.9026056413982858  0.1115274030784810   T   T   T
  0.8097026713683413  0.0465707347162439  0.1110365511250502   T   T   T
  0.8103526470624687  0.1896487548555283  0.1112545832789250   T   T   T
  0.8106308435626464  0.3324331359553111  0.1102310311567158   T   T   T
  0.8104392686907714  0.4752395870265528  0.1080597621029868   T   T   T
  0.8084470184582702  0.6177986517176260  0.1098843350832138   T   T   T
  0.8070279693424462  0.7594120020470512  0.1107909340508253   T   T   T
  0.4648038899666903  0.5351981312303097  0.0632524393266412   T   T   T
  0.5321128148223740  0.4678885870946241  0.1460150836432474   T   T   T

  0.00000000E+00  0.00000000E+00  0.00000000E+00
  0.00000000E+00  0.00000000E+00  0.00000000E+00
  0.00000000E+00  0.00000000E+00  0.00000000E+00
  0.00000000E+00  0.00000000E+00  0.00000000E+00
  0.00000000E+00  0.00000000E+00  0.00000000E+00
  0.00000000E+00  0.00000000E+00  0.00000000E+00
  0.00000000E+00  0.00000000E+00  0.00000000E+00
  0.00000000E+00  0.00000000E+00  0.00000000E+00
  0.00000000E+00  0.00000000E+00  0.00000000E+00
  0.00000000E+00  0.00000000E+00  0.00000000E+00
  0.00000000E+00  0.00000000E+00  0.00000000E+00
  0.00000000E+00  0.00000000E+00  0.00000000E+00
  0.00000000E+00  0.00000000E+00  0.00000000E+00
  0.00000000E+00  0.00000000E+00  0.00000000E+00
  0.00000000E+00  0.00000000E+00  0.00000000E+00
  0.00000000E+00  0.00000000E+00  0.00000000E+00
  0.00000000E+00  0.00000000E+00  0.00000000E+00
  0.00000000E+00  0.00000000E+00  0.00000000E+00
  0.00000000E+00  0.00000000E+00  0.00000000E+00
  0.00000000E+00  0.00000000E+00  0.00000000E+00
  0.00000000E+00  0.00000000E+00  0.00000000E+00
  0.00000000E+00  0.00000000E+00  0.00000000E+00
  0.00000000E+00  0.00000000E+00  0.00000000E+00
  0.00000000E+00  0.00000000E+00  0.00000000E+00
  0.00000000E+00  0.00000000E+00  0.00000000E+00
  0.00000000E+00  0.00000000E+00  0.00000000E+00
  0.00000000E+00  0.00000000E+00  0.00000000E+00
  0.00000000E+00  0.00000000E+00  0.00000000E+00
  0.00000000E+00  0.00000000E+00  0.00000000E+00
  0.00000000E+00  0.00000000E+00  0.00000000E+00
  0.00000000E+00  0.00000000E+00  0.00000000E+00
  0.00000000E+00  0.00000000E+00  0.00000000E+00
  0.00000000E+00  0.00000000E+00  0.00000000E+00
  0.00000000E+00  0.00000000E+00  0.00000000E+00
  0.00000000E+00  0.00000000E+00  0.00000000E+00
  0.00000000E+00  0.00000000E+00  0.00000000E+00
  0.00000000E+00  0.00000000E+00  0.00000000E+00
  0.00000000E+00  0.00000000E+00  0.00000000E+00
  0.00000000E+00  0.00000000E+00  0.00000000E+00
  0.00000000E+00  0.00000000E+00  0.00000000E+00
  0.00000000E+00  0.00000000E+00  0.00000000E+00
  0.00000000E+00  0.00000000E+00  0.00000000E+00
  0.00000000E+00  0.00000000E+00  0.00000000E+00
  0.00000000E+00  0.00000000E+00  0.00000000E+00
  0.00000000E+00  0.00000000E+00  0.00000000E+00
  0.00000000E+00  0.00000000E+00  0.00000000E+00
  0.00000000E+00  0.00000000E+00  0.00000000E+00
  0.00000000E+00  0.00000000E+00  0.00000000E+00
  0.00000000E+00  0.00000000E+00  0.00000000E+00
  0.00000000E+00  0.00000000E+00  0.00000000E+00
  0.00000000E+00  0.00000000E+00  0.00000000E+00
  0.00000000E+00  0.00000000E+00  0.00000000E+00
  0.00000000E+00  0.00000000E+00  0.00000000E+00
  0.00000000E+00  0.00000000E+00  0.00000000E+00
  0.00000000E+00  0.00000000E+00  0.00000000E+00
  0.00000000E+00  0.00000000E+00  0.00000000E+00
  0.00000000E+00  0.00000000E+00  0.00000000E+00
  0.00000000E+00  0.00000000E+00  0.00000000E+00
  0.00000000E+00  0.00000000E+00  0.00000000E+00
  0.00000000E+00  0.00000000E+00  0.00000000E+00
  0.00000000E+00  0.00000000E+00  0.00000000E+00
  0.00000000E+00  0.00000000E+00  0.00000000E+00
  0.00000000E+00  0.00000000E+00  0.00000000E+00
  0.00000000E+00  0.00000000E+00  0.00000000E+00
  0.00000000E+00  0.00000000E+00  0.00000000E+00
  0.00000000E+00  0.00000000E+00  0.00000000E+00
  0.00000000E+00  0.00000000E+00  0.00000000E+00
  0.00000000E+00  0.00000000E+00  0.00000000E+00
  0.00000000E+00  0.00000000E+00  0.00000000E+00
  0.00000000E+00  0.00000000E+00  0.00000000E+00
  0.00000000E+00  0.00000000E+00  0.00000000E+00
  0.00000000E+00  0.00000000E+00  0.00000000E+00
  0.00000000E+00  0.00000000E+00  0.00000000E+00
  0.00000000E+00  0.00000000E+00  0.00000000E+00
  0.00000000E+00  0.00000000E+00  0.00000000E+00
  0.00000000E+00  0.00000000E+00  0.00000000E+00
  0.00000000E+00  0.00000000E+00  0.00000000E+00
  0.00000000E+00  0.00000000E+00  0.00000000E+00
  0.00000000E+00  0.00000000E+00  0.00000000E+00
  0.00000000E+00  0.00000000E+00  0.00000000E+00
  0.00000000E+00  0.00000000E+00  0.00000000E+00
  0.00000000E+00  0.00000000E+00  0.00000000E+00
  0.00000000E+00  0.00000000E+00  0.00000000E+00
  0.00000000E+00  0.00000000E+00  0.00000000E+00
  0.00000000E+00  0.00000000E+00  0.00000000E+00
  0.00000000E+00  0.00000000E+00  0.00000000E+00
  0.00000000E+00  0.00000000E+00  0.00000000E+00
  0.00000000E+00  0.00000000E+00  0.00000000E+00
  0.00000000E+00  0.00000000E+00  0.00000000E+00
  0.00000000E+00  0.00000000E+00  0.00000000E+00
  0.00000000E+00  0.00000000E+00  0.00000000E+00
  0.00000000E+00  0.00000000E+00  0.00000000E+00
  0.00000000E+00  0.00000000E+00  0.00000000E+00
  0.00000000E+00  0.00000000E+00  0.00000000E+00
  0.00000000E+00  0.00000000E+00  0.00000000E+00
  0.00000000E+00  0.00000000E+00  0.00000000E+00
  0.00000000E+00  0.00000000E+00  0.00000000E+00
  0.00000000E+00  0.00000000E+00  0.00000000E+00
