 B O N 
 1.0
 14.936314146199660   0.000000000000000   0.000000000000000
 -7.468157073099825  12.935227489513863   0.000000000000000
  0.000000000000001   0.000000000000001  13.341276283792837
 B O N 
 143   1 143
Cartesian
  1.248059242563227   0.713892905479022   5.002978606422314 
  4.994618933952018   7.173266413230485   5.002978606422314 
  6.218216192959095   0.712435617172319   5.002978606422314 
  9.958776920303261   7.186839180507376   5.002978606422314 
 11.202443973666906   0.718744048438857   5.002978606422314 
 -3.733923896387249   9.342198023966183  11.673616748318732 
  1.244770786262788   9.340953176690077  11.673616748318732 
  2.489890845947154   2.875423461694815  11.673616748318732 
  6.223307158976657   9.341551536010247  11.673616748318732 
  7.466960212043825   2.874997410194035  11.673616748318732 
 12.447842421036734   2.875021922220579  11.673616748318732 
 -1.248457511964544   9.341481095896933   5.002978606422314 
  0.021106563140607   2.886680877580615   5.002978606422314 
  4.919375792866516   2.878272190125773   5.002978606422314 
  3.738244304079995   9.314981047335229   5.002978606422314 
  8.713988072351029   9.342876709855787   5.002978606422314 
  9.954180759948564   2.876415941082112   5.002978606422314 
 -4.978566258522258  11.498538415720049  11.673616748318732 
 -0.000365999467733  11.497768680787733  11.673616748318732 
  1.245749496405819   5.030339490897733  11.673616748318732 
  6.222170230225017   5.030284672842352  11.673616748318732 
  4.979018919477664  11.497663151532498  11.673616748318732 
 11.202676004693490   5.030626326424724  11.673616748318732 
 -1.247106678025309   5.035647053252768   5.002978606422314 
 -2.491811582096551  11.495033517163142   5.002978606422314 
  2.489912953979888  11.490169411333481   5.002978606422314 
  7.468429515219489  11.496709802211429   5.002978606422314 
  8.717589675964330   5.031161615088884   5.002978606422314 
  0.000749370638105   7.185548729441637  11.673616748318732 
  1.245487623671225   0.719564533109548  11.673616748318732 
  4.978053739028218   7.185157646129541  11.673616748318732 
  6.222502448672603   0.719269030951926  11.673616748318732 
  9.957579240741296   7.186256779770114  11.673616748318732 
 -2.492428029932731   7.187154548066631   5.002978606422314 
 11.202456626642235   0.718751353637571  11.673616748318732 
  3.731783855001958   0.716537119839725   5.002978606422314 
  2.462959041055149   7.132910808826401   5.002978606422314 
  7.474515189271301   7.189908354257512   5.002978606422314 
  8.706349389958319   0.722985662196371   5.002978606422314 
  2.489445679607984   7.184737074932073  11.673616748318732 
 13.696741841067613   0.721420660019760   5.002978606422314 
 -1.244492003928528   9.341740136823333  11.673616748318732 
  0.001384994598321   2.875294624673868  11.673616748318732 
  4.977501975173731   2.875297158920561  11.673616748318732 
  3.733915208031160   9.340821024085180  11.673616748318732 
  8.712884858736386   9.342130689298179  11.673616748318732 
  9.957392142088915   2.874867790929344  11.673616748318732 
 -3.735837707375323   9.341093084677048   5.002978606422314 
  1.236709748478323   9.340657877244865   5.002978606422314 
  2.535604076572352   2.890742160866780   5.002978606422314 
  6.226522916161016   9.345815808114232   5.002978606422314 
  7.446746683769594   2.891666505722711   5.002978606422314 
 12.451910920992393   2.877531060422768   5.002978606422314 
 -1.243480713862470   5.030584152148180  11.673616748318732 
 -2.489604492055656  11.498338227398033  11.673616748318732 
  2.489233592899713  11.497364108171661  11.673616748318732 
  3.733394511990595   5.029971324158573  11.673616748318732 
  7.468602506944085  11.498231343723171  11.673616748318732 
 -4.979498359548893  11.494886720958924   5.002978606422314 
  8.712288829401457   5.030508823726807  11.673616748318732 
 -0.002351617831300  11.496622283491025   5.002978606422314 
  1.281872494354271   5.062268960322228   5.002978606422314 
 -0.002954414996574   7.185293556449119   5.002978606422314 
  6.220154717914017   5.050576168914533   5.002978606422314 
  4.978753965768666  11.494107937941292   5.002978606422314 
 11.201271815229097   5.031237281952477   5.002978606422314 
 -2.488799518989430   7.186135923854054  11.673616748318732 
  3.733856734113170   0.719617105793284  11.673616748318732 
  7.467611934647685   7.185922758342281  11.673616748318732 
  8.712240499652630   0.718799969823494  11.673616748318732 
 13.692534613665082   0.719151804803958  11.673616748318732 
  0.001284059373615   1.439514717508356   1.672530855319737 
  3.731382276466079   7.901548150964831   1.679813084457652 
  4.977724155344350   1.441453338575054   1.677454534742086 
  8.711508644867539   7.904086858831903   1.669716186356212 
  9.957050077429207   1.437048462578286   1.670267621771260 
 -4.978670298249164  10.062019224563192   8.335791933277472 
  0.001755385487026  10.060007786260748   8.334753050972553 
  1.247981646537486   3.595017537241896   8.321099633724547 
  4.976981719955922  10.059492394550528   8.334988486677526 
  6.219246875161212   3.592440263672879   8.326144128386961 
 11.202738748126920   3.592458916231247   8.335492353091086 
 -2.487984135641565  10.061541680226835   1.670557132923134 
 -1.242087346862680   3.593097165787995   1.672530855319737 
  3.733074596987822   3.596735597380757   1.704723138257332 
  2.489379172963857  10.059160084028939   1.671710814436868 
  7.466848494893821  10.060878154811256   1.669915381199171 
  8.710881131801720   3.592188902882012   1.670968726167102 
 -6.223322107923396  12.219427591786884   8.334944662831457 
 -1.244442766218610  12.218486301313353   8.334753050972553 
  0.004922533583351   5.746867295326575   8.327045044984571 
  4.972106755728888   5.745142171529356   8.322522297657164 
  3.733659822743478  12.216276579023058   8.335689591073381 
  9.957014622860024   5.747783901886701   8.336041831645456 
 -2.486869103902892   5.747701148729965   1.671012550013171 
 -3.733805810676479  12.220282863137413   1.671792545507712 
  1.244718205860446  12.216618381897694   1.670586782548224 
  2.492016005488138   5.746312133028092   1.704723138257332 
  6.223144366538327  12.217369386227272   1.670464859753543 
  7.464586493417509   5.747104284203468   1.672981293342736 
 -1.241370268562796   7.903257869606009   8.334164667336930 
  0.001284059373615   1.439514717508356   8.333426357524891 
  3.731382276466080   7.901548150964832   8.326144128386961 
  4.977724155344351   1.441453338575054   8.328502678102543 
  8.711508644867539   7.904086858831904   8.336241026488416 
 -3.732913651418639   7.904305418386068   1.670165279567155 
  9.957050077429207   1.437048462578286   8.335689591073381 
  2.490008645689135   1.442571887975517   1.678912167860056 
  1.247811596214716   7.901851398776878   1.677454534742086 
  6.220045863994015   7.902711886448724   1.672981293342736 
  7.466792068952048   1.438028057928791   1.671710814436868 
  1.247811596214717   7.901851398776879   8.328502678102543 
 12.447492980227143   1.437573427530760   1.670583606368352 
 -2.487984135641565  10.061541680226835   8.335400079921493 
 -1.242087346862680   3.593097165787996   8.333426357524891 
  3.733074596987823   3.596735597380758   8.301234074587297 
  2.489379172963857  10.059160084028939   8.334246398407760 
  7.466848494893822  10.060878154811256   8.336041831645456 
  8.710881131801720   3.592188902882013   8.334988486677526 
 -4.978670298249165  10.062019224563192   1.670165279567155 
  0.001755385487026  10.060007786260748   1.671204161872073 
  1.247981646537485   3.595017537241895   1.684857579120095 
  4.976981719955921  10.059492394550528   1.670968726167102 
  6.219246875161211   3.592440263672878   1.679813084457652 
 11.202738748126920   3.592458916231246   1.670464859753543 
 -2.486869103902892   5.747701148729966   8.334944662831457 
 -3.733805810676478  12.220282863137413   8.334164667336930 
  1.244718205860446  12.216618381897694   8.335370430296390 
  2.492016005488139   5.746312133028093   8.301234074587297 
  6.223144366538328  12.217369386227272   8.335492353091086 
 -6.223322107923397  12.219427591786884   1.671012550013171 
  7.464586493417510   5.747104284203469   8.332975919501893 
 -1.244442766218611  12.218486301313353   1.671204161872073 
  0.004922533583350   5.746867295326574   1.678912167860056 
 -1.241370268562796   7.903257869606008   1.671792545507712 
  4.972106755728888   5.745142171529356   1.683434915187463 
  3.733659822743477  12.216276579023058   1.670267621771260 
  9.957014622860024   5.747783901886700   1.669915381199171 
 -3.732913651418639   7.904305418386069   8.335791933277472 
  2.490008645689136   1.442571887975517   8.327045044984571 
  6.220045863994016   7.902711886448725   8.332975919501893 
  7.466792068952048   1.438028057928792   8.334246398407760 
 12.447492980227143   1.437573427530761   8.335373606476276 
  5.102479836380485   5.820413104738630   5.002978606422314 
  1.244237734837610   0.718669063317439   1.664371225535384 
  4.978655440248255   7.185932076411625   1.671675473857200 
  6.224018252487081   0.718655536090507   1.664348040860510 
  9.957494521194992   7.186038443914925   1.665508193745322 
 11.201982439301126   0.718477581448534   1.665362585381710 
 -3.733906637026618   9.342207988662670   8.340318317363643 
  1.244997386034954   9.342572648731263   8.341609171984119 
  2.488838567539601   2.874319012141685   8.337492016393771 
  6.223065681561910   9.342119741340719   8.340854058141801 
  7.468447352011643   2.874134065060067   8.341068580710310 
 12.446403854241520   2.874075406228977   8.340979299872560 
 -1.244258303700506   9.342247112486465   1.665257699925372 
 -0.000766848216667   2.874052257645389   1.663754439033855 
  4.979599837668130   2.874241063204783   1.666342964060082 
  3.733911099196826   9.342540597643263   1.664888632134318 
  8.712653414566077   9.342166487946484   1.665508193745322 
  9.957441470890469   2.874145072654214   1.665403087614081 
 -4.978840680365358  11.498261390604490   8.340685007666366 
  0.000427939544423  11.498227061690129   8.340595975929016 
  1.244266875831841   5.029980415841489   8.337492016393771 
  6.223141757132781   5.030418546243354   8.334281738987428 
  4.978417691492407  11.498067230665331   8.340554125230547 
 11.202105367014719   5.029989282819131   8.340685303713048 
 -1.244881157867565   5.029949451562416   1.664371225535384 
 -2.489048588138270  11.498287129900802   1.665257699925372 
  2.489425542943772  11.498313399676862   1.665071621249701 
  3.734452488058290   5.030582146926044   1.663122615255179 
  7.467765492158936  11.498055678799794   1.665271909131579 
  8.712660170944831   5.030015595485971   1.665103154702826 
  0.000245448034689   7.186220415358587   8.340879076035794 
  1.244237734837611   0.718669063317439   8.341585987309243 
  4.978655440248256   7.185932076411626   8.334281738987428 
  6.224018252487082   0.718655536090508   8.341609171984119 
  9.957494521194992   7.186038443914926   8.340449019099305 
 -2.489176640698532   7.186036780124342   1.665272205178262 
 11.201982439301126   0.718477581448535   8.340594627462931 
  3.734186469878904   0.718844853058711   1.665078136808834 
  2.489580005136492   7.187081925003757   1.666342964060082 
  7.467897662560139   7.186087723429469   1.665389887192644 
  8.713158585233753   0.718491557685320   1.665071621249701 
  2.489580005136493   7.187081925003758   8.339614248784544 
 13.690995623373659   0.718379227410063   1.664977912972055 
 -1.244258303700505   9.342247112486465   8.340699512919270 
 -0.000766848216667   2.874052257645390   8.342202773810774 
  4.979599837668131   2.874241063204784   8.339614248784544 
  3.733911099196826   9.342540597643263   8.341068580710310 
  8.712653414566077   9.342166487946484   8.340449019099305 
  9.957441470890469   2.874145072654215   8.340554125230547 
 -3.733906637026618   9.342207988662670   1.665638895480985 
  1.244997386034954   9.342572648731263   1.664348040860510 
  2.488838567539601   2.874319012141684   1.668465196450857 
  6.223065681561909   9.342119741340719   1.665103154702826 
  7.468447352011642   2.874134065060066   1.664888632134318 
 12.446403854241520   2.874075406228976   1.664977912972055 
 -1.244881157867564   5.029949451562417   8.341585987309243 
 -2.489048588138270  11.498287129900802   8.340699512919270 
  2.489425542943773  11.498313399676862   8.340885591594940 
  3.734452488058290   5.030582146926045   8.342834597589450 
  7.467765492158937  11.498055678799794   8.340685303713048 
 -4.978840680365359  11.498261390604490   1.665272205178262 
  8.712660170944831   5.030015595485972   8.340854058141801 
  0.000427939544422  11.498227061690129   1.665361236915625 
  1.244266875831841   5.029980415841488   1.668465196450857 
  0.000245448034689   7.186220415358586   1.665078136808834 
  6.223141757132780   5.030418546243353   1.671675473857200 
  4.978417691492406  11.498067230665331   1.665403087614081 
 11.202105367014719   5.029989282819130   1.665271909131579 
 -2.489176640698531   7.186036780124343   8.340685007666366 
  3.734186469878904   0.718844853058711   8.340879076035794 
  7.467897662560140   7.186087723429470   8.340567325651998 
  8.713158585233753   0.718491557685321   8.340885591594940 
 13.690995623373659   0.718379227410064   8.340979299872560 
 -0.004493218709245   1.431060453633903   5.002978606422314 
  3.747539305492477   7.892643920352580   5.002978606422314 
  4.991250111357525   1.402756497871057   5.002978606422314 
  8.718854399100211   7.908327932015512   5.002978606422314 
  9.957185586980621   1.437448389678162   5.002978606422314 
 -4.978747905857960  10.060681184117922  11.673616748318732 
 -0.000071929694334  10.060709730205962  11.673616748318732 
  1.244730420217376   3.593140440850784  11.673616748318732 
  4.978895551884349  10.060705810160513  11.673616748318732 
  6.223463390947466   3.593245816865509  11.673616748318732 
 11.202304294876761   3.593269015966916  11.673616748318732 
 -2.494453538135336  10.057806568955559   5.002978606422314 
 -1.252297593189683   3.592321028140738   5.002978606422314 
  3.739548339581099   3.525782443407477   5.002978606422314 
  2.492599167842880  10.058976059607696   5.002978606422314 
  7.471358159522627  10.061612658447331   5.002978606422314 
  8.714055773450879   3.595347449088955   5.002978606422314 
 -6.223379075029814  12.216504104487003  11.673616748318732 
 -1.244748522520696  12.216552827972954  11.673616748318732 
 -0.000076103857233   5.749076276341048  11.673616748318732 
  4.978886125606863   5.749056242553333  11.673616748318732 
  3.734120938007919  12.216581354664831  11.673616748318732 
  9.957626210000518   5.749132933904678  11.673616748318732 
 -2.502915400991252   5.751870313543725   5.002978606422314 
 -3.735791648260260  12.201057679267315   5.002978606422314 
  1.245459099454425  12.217046137013634   5.002978606422314 
  2.433805642965281   5.787395135558084   5.002978606422314 
  6.221817935618651  12.213969285778242   5.002978606422314 
  7.488122201326420   5.755661795390700   5.002978606422314 
 -1.244827543983410   7.904909718628281  11.673616748318732 
  0.000110752495740   1.437225377116183  11.673616748318732 
  3.734188163888116   7.904796984154884  11.673616748318732 
  4.978726030100393   1.437213085471909  11.673616748318732 
  8.712980306430371   7.904936523031352  11.673616748318732 
 -3.738536637865809   7.906206685766956   5.002978606422314 
  9.957544578509657   1.437295412290479  11.673616748318732 
  2.478288440983327   1.405566601505678   5.002978606422314 
  1.221062127125444   7.932913640646757   5.002978606422314 
  6.239224740029782   7.918815651800276   5.002978606422314 
  7.468242696567835   1.440908667504718   5.002978606422314 
  1.244640366686924   7.904839174318619  11.673616748318732 
 12.444235094530528   1.435692486346813   5.002978606422314 
 -2.489468920767914  10.060684439134441  11.673616748318732 
 -1.244656627239149   3.593225722421408  11.673616748318732 
  3.734084039869091   3.593110078245230  11.673616748318732 
  2.489378984171154  10.060674660357980  11.673616748318732 
  7.468322584462148  10.060733288802579  11.673616748318732 
  8.712888896509536   3.593239622145599  11.673616748318732 
 -4.979835245621515  10.056198941764363   5.002978606422314 
 -0.008145000452597  10.067899696665828   5.002978606422314 
  1.237579072297509   3.589011608204188   5.002978606422314 
  4.981304422034741  10.060662441763139   5.002978606422314 
  6.219614099763036   3.610884776565561   5.002978606422314 
 11.199130959302796   3.593010243582968   5.002978606422314 
 -2.489429401725431   5.749113557418556  11.673616748318732 
 -3.734103905170272  12.216462850284135  11.673616748318732 
  1.244634580760807  12.216570100923924  11.673616748318732 
  2.489380935255492   5.748999095774717  11.673616748318732 
  6.223628706863929  12.216588088808058  11.673616748318732 
 -6.227734653826290  12.203446508464799   5.002978606422314 
  7.468250751761999   5.749103400978300  11.673616748318732 
 -1.242558364293225  12.205966360379817   5.002978606422314 
 -0.032985086926756   5.755219943548710   5.002978606422314 
 -1.259012684978618   7.911150675745712   5.002978606422314 
  3.734073924547334  12.216193970187113   5.002978606422314 
  9.959905553982431   5.751322134199772   5.002978606422314 
 -3.734111232239933   7.904907228447962  11.673616748318732 
  2.489422360643856   1.437138450460428  11.673616748318732 
  6.223609279078395   7.904885668873666  11.673616748318732 
  7.468103636132614   1.437270606264996  11.673616748318732 
 12.447024133457553   1.437302738722121  11.673616748318732 
Generated by cif2cell 2.0.0.  :  Failed to get author information, No journal information. Species order: B O N 
 1.0
 14.936314146199660   0.000000000000000   0.000000000000000
 -7.468157073099825  12.935227489513863   0.000000000000000
  0.000000000000001   0.000000000000001  13.341276283792837
 B O N 
 143   1 143
Cartesian
  1.248059242563227   0.713892905479022   5.002978606422314 
  4.994618933952018   7.173266413230485   5.002978606422314 
  6.218216192959095   0.712435617172319   5.002978606422314 
  9.958776920303261   7.186839180507376   5.002978606422314 
 11.202443973666906   0.718744048438857   5.002978606422314 
 -3.733923896387249   9.342198023966183  11.673616748318732 
  1.244770786262788   9.340953176690077  11.673616748318732 
  2.489890845947154   2.875423461694815  11.673616748318732 
  6.223307158976657   9.341551536010247  11.673616748318732 
  7.466960212043825   2.874997410194035  11.673616748318732 
 12.447842421036734   2.875021922220579  11.673616748318732 
 -1.248457511964544   9.341481095896933   5.002978606422314 
  0.021106563140607   2.886680877580615   5.002978606422314 
  4.919375792866516   2.878272190125773   5.002978606422314 
  3.738244304079995   9.314981047335229   5.002978606422314 
  8.713988072351029   9.342876709855787   5.002978606422314 
  9.954180759948564   2.876415941082112   5.002978606422314 
 -4.978566258522258  11.498538415720049  11.673616748318732 
 -0.000365999467733  11.497768680787733  11.673616748318732 
  1.245749496405819   5.030339490897733  11.673616748318732 
  6.222170230225017   5.030284672842352  11.673616748318732 
  4.979018919477664  11.497663151532498  11.673616748318732 
 11.202676004693490   5.030626326424724  11.673616748318732 
 -1.247106678025309   5.035647053252768   5.002978606422314 
 -2.491811582096551  11.495033517163142   5.002978606422314 
  2.489912953979888  11.490169411333481   5.002978606422314 
  7.468429515219489  11.496709802211429   5.002978606422314 
  8.717589675964330   5.031161615088884   5.002978606422314 
  0.000749370638105   7.185548729441637  11.673616748318732 
  1.245487623671225   0.719564533109548  11.673616748318732 
  4.978053739028218   7.185157646129541  11.673616748318732 
  6.222502448672603   0.719269030951926  11.673616748318732 
  9.957579240741296   7.186256779770114  11.673616748318732 
 -2.492428029932731   7.187154548066631   5.002978606422314 
 11.202456626642235   0.718751353637571  11.673616748318732 
  3.731783855001958   0.716537119839725   5.002978606422314 
  2.462959041055149   7.132910808826401   5.002978606422314 
  7.474515189271301   7.189908354257512   5.002978606422314 
  8.706349389958319   0.722985662196371   5.002978606422314 
  2.489445679607984   7.184737074932073  11.673616748318732 
 13.696741841067613   0.721420660019760   5.002978606422314 
 -1.244492003928528   9.341740136823333  11.673616748318732 
  0.001384994598321   2.875294624673868  11.673616748318732 
  4.977501975173731   2.875297158920561  11.673616748318732 
  3.733915208031160   9.340821024085180  11.673616748318732 
  8.712884858736386   9.342130689298179  11.673616748318732 
  9.957392142088915   2.874867790929344  11.673616748318732 
 -3.735837707375323   9.341093084677048   5.002978606422314 
  1.236709748478323   9.340657877244865   5.002978606422314 
  2.535604076572352   2.890742160866780   5.002978606422314 
  6.226522916161016   9.345815808114232   5.002978606422314 
  7.446746683769594   2.891666505722711   5.002978606422314 
 12.451910920992393   2.877531060422768   5.002978606422314 
 -1.243480713862470   5.030584152148180  11.673616748318732 
 -2.489604492055656  11.498338227398033  11.673616748318732 
  2.489233592899713  11.497364108171661  11.673616748318732 
  3.733394511990595   5.029971324158573  11.673616748318732 
  7.468602506944085  11.498231343723171  11.673616748318732 
 -4.979498359548893  11.494886720958924   5.002978606422314 
  8.712288829401457   5.030508823726807  11.673616748318732 
 -0.002351617831300  11.496622283491025   5.002978606422314 
  1.281872494354271   5.062268960322228   5.002978606422314 
 -0.002954414996574   7.185293556449119   5.002978606422314 
  6.220154717914017   5.050576168914533   5.002978606422314 
  4.978753965768666  11.494107937941292   5.002978606422314 
 11.201271815229097   5.031237281952477   5.002978606422314 
 -2.488799518989430   7.186135923854054  11.673616748318732 
  3.733856734113170   0.719617105793284  11.673616748318732 
  7.467611934647685   7.185922758342281  11.673616748318732 
  8.712240499652630   0.718799969823494  11.673616748318732 
 13.692534613665082   0.719151804803958  11.673616748318732 
  0.001284059373615   1.439514717508356   1.672530855319737 
  3.731382276466079   7.901548150964831   1.679813084457652 
  4.977724155344350   1.441453338575054   1.677454534742086 
  8.711508644867539   7.904086858831903   1.669716186356212 
  9.957050077429207   1.437048462578286   1.670267621771260 
 -4.978670298249164  10.062019224563192   8.335791933277472 
  0.001755385487026  10.060007786260748   8.334753050972553 
  1.247981646537486   3.595017537241896   8.321099633724547 
  4.976981719955922  10.059492394550528   8.334988486677526 
  6.219246875161212   3.592440263672879   8.326144128386961 
 11.202738748126920   3.592458916231247   8.335492353091086 
 -2.487984135641565  10.061541680226835   1.670557132923134 
 -1.242087346862680   3.593097165787995   1.672530855319737 
  3.733074596987822   3.596735597380757   1.704723138257332 
  2.489379172963857  10.059160084028939   1.671710814436868 
  7.466848494893821  10.060878154811256   1.669915381199171 
  8.710881131801720   3.592188902882012   1.670968726167102 
 -6.223322107923396  12.219427591786884   8.334944662831457 
 -1.244442766218610  12.218486301313353   8.334753050972553 
  0.004922533583351   5.746867295326575   8.327045044984571 
  4.972106755728888   5.745142171529356   8.322522297657164 
  3.733659822743478  12.216276579023058   8.335689591073381 
  9.957014622860024   5.747783901886701   8.336041831645456 
 -2.486869103902892   5.747701148729965   1.671012550013171 
 -3.733805810676479  12.220282863137413   1.671792545507712 
  1.244718205860446  12.216618381897694   1.670586782548224 
  2.492016005488138   5.746312133028092   1.704723138257332 
  6.223144366538327  12.217369386227272   1.670464859753543 
  7.464586493417509   5.747104284203468   1.672981293342736 
 -1.241370268562796   7.903257869606009   8.334164667336930 
  0.001284059373615   1.439514717508356   8.333426357524891 
  3.731382276466080   7.901548150964832   8.326144128386961 
  4.977724155344351   1.441453338575054   8.328502678102543 
  8.711508644867539   7.904086858831904   8.336241026488416 
 -3.732913651418639   7.904305418386068   1.670165279567155 
  9.957050077429207   1.437048462578286   8.335689591073381 
  2.490008645689135   1.442571887975517   1.678912167860056 
  1.247811596214716   7.901851398776878   1.677454534742086 
  6.220045863994015   7.902711886448724   1.672981293342736 
  7.466792068952048   1.438028057928791   1.671710814436868 
  1.247811596214717   7.901851398776879   8.328502678102543 
 12.447492980227143   1.437573427530760   1.670583606368352 
 -2.487984135641565  10.061541680226835   8.335400079921493 
 -1.242087346862680   3.593097165787996   8.333426357524891 
  3.733074596987823   3.596735597380758   8.301234074587297 
  2.489379172963857  10.059160084028939   8.334246398407760 
  7.466848494893822  10.060878154811256   8.336041831645456 
  8.710881131801720   3.592188902882013   8.334988486677526 
 -4.978670298249165  10.062019224563192   1.670165279567155 
  0.001755385487026  10.060007786260748   1.671204161872073 
  1.247981646537485   3.595017537241895   1.684857579120095 
  4.976981719955921  10.059492394550528   1.670968726167102 
  6.219246875161211   3.592440263672878   1.679813084457652 
 11.202738748126920   3.592458916231246   1.670464859753543 
 -2.486869103902892   5.747701148729966   8.334944662831457 
 -3.733805810676478  12.220282863137413   8.334164667336930 
  1.244718205860446  12.216618381897694   8.335370430296390 
  2.492016005488139   5.746312133028093   8.301234074587297 
  6.223144366538328  12.217369386227272   8.335492353091086 
 -6.223322107923397  12.219427591786884   1.671012550013171 
  7.464586493417510   5.747104284203469   8.332975919501893 
 -1.244442766218611  12.218486301313353   1.671204161872073 
  0.004922533583350   5.746867295326574   1.678912167860056 
 -1.241370268562796   7.903257869606008   1.671792545507712 
  4.972106755728888   5.745142171529356   1.683434915187463 
  3.733659822743477  12.216276579023058   1.670267621771260 
  9.957014622860024   5.747783901886700   1.669915381199171 
 -3.732913651418639   7.904305418386069   8.335791933277472 
  2.490008645689136   1.442571887975517   8.327045044984571 
  6.220045863994016   7.902711886448725   8.332975919501893 
  7.466792068952048   1.438028057928792   8.334246398407760 
 12.447492980227143   1.437573427530761   8.335373606476276 
  5.102479836380485   5.820413104738630   5.002978606422314 
  1.244237734837610   0.718669063317439   1.664371225535384 
  4.978655440248255   7.185932076411625   1.671675473857200 
  6.224018252487081   0.718655536090507   1.664348040860510 
  9.957494521194992   7.186038443914925   1.665508193745322 
 11.201982439301126   0.718477581448534   1.665362585381710 
 -3.733906637026618   9.342207988662670   8.340318317363643 
  1.244997386034954   9.342572648731263   8.341609171984119 
  2.488838567539601   2.874319012141685   8.337492016393771 
  6.223065681561910   9.342119741340719   8.340854058141801 
  7.468447352011643   2.874134065060067   8.341068580710310 
 12.446403854241520   2.874075406228977   8.340979299872560 
 -1.244258303700506   9.342247112486465   1.665257699925372 
 -0.000766848216667   2.874052257645389   1.663754439033855 
  4.979599837668130   2.874241063204783   1.666342964060082 
  3.733911099196826   9.342540597643263   1.664888632134318 
  8.712653414566077   9.342166487946484   1.665508193745322 
  9.957441470890469   2.874145072654214   1.665403087614081 
 -4.978840680365358  11.498261390604490   8.340685007666366 
  0.000427939544423  11.498227061690129   8.340595975929016 
  1.244266875831841   5.029980415841489   8.337492016393771 
  6.223141757132781   5.030418546243354   8.334281738987428 
  4.978417691492407  11.498067230665331   8.340554125230547 
 11.202105367014719   5.029989282819131   8.340685303713048 
 -1.244881157867565   5.029949451562416   1.664371225535384 
 -2.489048588138270  11.498287129900802   1.665257699925372 
  2.489425542943772  11.498313399676862   1.665071621249701 
  3.734452488058290   5.030582146926044   1.663122615255179 
  7.467765492158936  11.498055678799794   1.665271909131579 
  8.712660170944831   5.030015595485971   1.665103154702826 
  0.000245448034689   7.186220415358587   8.340879076035794 
  1.244237734837611   0.718669063317439   8.341585987309243 
  4.978655440248256   7.185932076411626   8.334281738987428 
  6.224018252487082   0.718655536090508   8.341609171984119 
  9.957494521194992   7.186038443914926   8.340449019099305 
 -2.489176640698532   7.186036780124342   1.665272205178262 
 11.201982439301126   0.718477581448535   8.340594627462931 
  3.734186469878904   0.718844853058711   1.665078136808834 
  2.489580005136492   7.187081925003757   1.666342964060082 
  7.467897662560139   7.186087723429469   1.665389887192644 
  8.713158585233753   0.718491557685320   1.665071621249701 
  2.489580005136493   7.187081925003758   8.339614248784544 
 13.690995623373659   0.718379227410063   1.664977912972055 
 -1.244258303700505   9.342247112486465   8.340699512919270 
 -0.000766848216667   2.874052257645390   8.342202773810774 
  4.979599837668131   2.874241063204784   8.339614248784544 
  3.733911099196826   9.342540597643263   8.341068580710310 
  8.712653414566077   9.342166487946484   8.340449019099305 
  9.957441470890469   2.874145072654215   8.340554125230547 
 -3.733906637026618   9.342207988662670   1.665638895480985 
  1.244997386034954   9.342572648731263   1.664348040860510 
  2.488838567539601   2.874319012141684   1.668465196450857 