Species order: X N B                    
   2.51242800000000     
     5.9449720136058266    0.0000000000000000    0.0000000000000000
    -2.9724860068029120    5.1484967885702053   -0.0000000000000001
     0.0000000000000000    0.0000000000000009    5.3101128803662583
   O    N    B 
     1   143   143
Direct
  0.5665987489523578  0.4499660411428432  0.3750000000000000
  0.1110823926011449  0.0555590586945644  0.1247535235858421
  0.6110915430407708  0.5555319442380902  0.1253010160570598
  0.4444827656087245  0.0555580129281139  0.1247517857704795
  0.9444335204201239  0.5555401673252666  0.1248387454331192
  0.7777551777935044  0.0555442555634200  0.1248278313076246
  0.1111264562198251  0.7222298947765764  0.6251514577728646
  0.4444827656087245  0.7222580860139464  0.6252482142295205
  0.2777343447875947  0.2222086170863092  0.6249396114015167
  0.7777515199077663  0.7222230725291884  0.6251916144090638
  0.6111165940148349  0.2221943191482352  0.6252076940227338
  0.9443931029857257  0.2221897843357518  0.6252010019465152
  0.2778122193275715  0.7222329193715304  0.1248199695817967
  0.1110426561844870  0.2221879947589079  0.1247072921392837
  0.4444900946941113  0.2222025909892061  0.1249013159321482
  0.6111165940148349  0.7222556081999283  0.1247923059772665
  0.9444335204201239  0.7222266864281935  0.1248387454331192
  0.7777574700538251  0.2221951701262453  0.1248308671665273
  0.1111173487961928  0.8889106434290183  0.6251789431719321
  0.4444826457070601  0.8889079895201951  0.6251722697671197
  0.2777343447875947  0.3888590610346144  0.6249396114015167
  0.6110915430407708  0.3888929321360086  0.6246989839429402
  0.7777574700538251  0.8888956332609081  0.6251691328334726
  0.9444211533981676  0.3888597465252754  0.6251789653622140
  0.1110823926011449  0.3888566672399090  0.1247535235858421
  0.2778122193275715  0.8889126332893694  0.1248199695817967
  0.6111266668689035  0.8889146641601892  0.1248060219899988
  0.4444778263086889  0.3889055798210087  0.1246599335683918
  0.9444211533981676  0.8888947402062205  0.1248210346377862
  0.7777515199077663  0.3888617807119067  0.1248083855909360
  0.2777935505831360  0.5555542352219320  0.6251934896340017
  0.1110823926011449  0.0555590586945644  0.6252464764141583
  0.6110915430407708  0.5555319442380902  0.6246989839429402
  0.4444827656087245  0.0555580129281139  0.6252482142295205
  0.9444335204201239  0.5555401673252666  0.6251612545668807
  0.1111173487961928  0.5555400387005031  0.1248210568280677
  0.7777551777935044  0.0555442555634200  0.6251721686923757
  0.2777935505831360  0.0555726486945400  0.1248065103659982
  0.4444900946941113  0.5556208370382407  0.1249013159321482
  0.7777546207447781  0.5555439770390570  0.1248298777243505
  0.6111266668689035  0.0555453360420427  0.1248060219899988
  0.4444900946941113  0.5556208370382407  0.6250986840678521
  0.9443931029857257  0.0555366519833094  0.1247989980534843
  0.2778122193275715  0.7222329193715304  0.6251800304182037
  0.1110426561844870  0.2221879947589079  0.6252927078607160
  0.4444900946941113  0.2222025909892061  0.6250986840678521
  0.6111165940148349  0.7222556081999283  0.6252076940227338
  0.9444335204201239  0.7222266864281935  0.6251612545668807
  0.7777574700538251  0.2221951701262453  0.6251691328334726
  0.1111264562198251  0.7222298947765764  0.1248485422271354
  0.4444827656087245  0.7222580860139464  0.1247517857704795
  0.2777343447875947  0.2222086170863092  0.1250603885984834
  0.7777515199077663  0.7222230725291884  0.1248083855909360
  0.6111165940148349  0.2221943191482352  0.1247923059772665
  0.9443931029857257  0.2221897843357518  0.1247989980534843
  0.1110823926011449  0.3888566672399090  0.6252464764141583
  0.2778122193275715  0.8889126332893694  0.6251800304182037
  0.6111266668689035  0.8889146641601892  0.6251939780100015
  0.4444778263086889  0.3889055798210087  0.6253400664316079
  0.9444211533981676  0.8888947402062205  0.6251789653622140
  0.1111173487961928  0.8889106434290183  0.1248210568280677
  0.7777515199077663  0.3888617807119067  0.6251916144090638
  0.4444826457070601  0.8889079895201951  0.1248277302328809
  0.2777343447875947  0.3888590610346144  0.1250603885984834
  0.2777935505831360  0.5555542352219320  0.1248065103659982
  0.6110915430407708  0.3888929321360086  0.1253010160570598
  0.7777574700538251  0.8888956332609081  0.1248308671665273
  0.9444211533981676  0.3888597465252754  0.1248210346377862
  0.1111173487961928  0.5555400387005031  0.6251789431719321
  0.2777935505831360  0.0555726486945400  0.6251934896340017
  0.7777546207447781  0.5555439770390570  0.6251701222756498
  0.6111266668689035  0.0555453360420427  0.6251939780100015
  0.9443931029857257  0.0555366519833094  0.6252010019465152
  0.0550155755549631  0.1106328013785621  0.3750000000000000
  0.5559845164102153  0.6101666110434373  0.3750000000000000
  0.3883911315889728  0.1084446716540718  0.3750000000000000
  0.8894248962264421  0.6113791147798925  0.3750000000000000
  0.7222060741439430  0.1111266416337436  0.3750000000000000
  0.0555551440537030  0.7777738112664633  0.8750000000000000
  0.3888831932981675  0.7777760181150135  0.8750000000000000
  0.2222255764366891  0.2777794548850122  0.8750000000000000
  0.7222295041486407  0.7777757150630996  0.8750000000000000
  0.5555604113140969  0.2777876013219269  0.8750000000000000
  0.8888992959413694  0.2777893948042160  0.8750000000000000
  0.2217698261756970  0.7775515797545166  0.3750000000000000
  0.0550155755549631  0.2777161075097366  0.3750000000000000
  0.3866522708251862  0.2725721249406480  0.3750000000000000
  0.5557028074252981  0.7776419910482558  0.3750000000000000
  0.8891372266522614  0.7778458219311515  0.3750000000000000
  0.7223891038578574  0.2779500748636681  0.3750000000000000
  0.0555574052694257  0.9444367417883062  0.8750000000000000
  0.3888831932981675  0.9444405085164899  0.8750000000000000
  0.2222204621161137  0.4444511146790132  0.8750000000000000
  0.5555657984699419  0.4444495659016353  0.8750000000000000
  0.7222241957494763  0.9444427138655573  0.8750000000000000
  0.8889000008328980  0.4444554947769798  0.8750000000000000
  0.0547610652046388  0.4446671168486651  0.3750000000000000
  0.2215066083157216  0.9432426054476648  0.3750000000000000
  0.5556239574321510  0.9444786453827396  0.3750000000000000
  0.3866522708251862  0.4474134792178737  0.3750000000000000
  0.8886768355775218  0.9442407793507829  0.3750000000000000
  0.7238167986049234  0.4449602297336178  0.3750000000000000
  0.2222150777962028  0.6111148586320966  0.8750000000000000
  0.0555621154413838  0.1111094009194107  0.8750000000000000
  0.5555604113140969  0.6111061433255061  0.8750000000000000
  0.3888845223142514  0.1111084506737128  0.8750000000000000
  0.8889005283346644  0.6111169308340042  0.8750000000000000
  0.0553090884634832  0.6112151249118917  0.3750000000000000
  0.7222241957494763  0.1111148152172545  0.8750000000000000
  0.2202546534925162  0.1086619158917093  0.3750000000000000
  0.3883911315889728  0.6132797932682434  0.3750000000000000
  0.7238167986049234  0.6121899022046406  0.3750000000000000
  0.5557028074252981  0.1113941497103785  0.3750000000000000
  0.3888845223142514  0.6111094049738818  0.8750000000000000
  0.8886484582525701  0.1109908957929563  0.3750000000000000
  0.2222147924789522  0.7777740629061439  0.8750000000000000
  0.0555621154413838  0.2777860478553089  0.8750000000000000
  0.3888889222546129  0.2777771076046429  0.8750000000000000
  0.5555528710990143  0.7777733069258981  0.8750000000000000
  0.8889000008328980  0.7777778393892537  0.8750000000000000
  0.7222295041486407  0.2777871224188763  0.8750000000000000
  0.0553090884634832  0.7774272968849268  0.3750000000000000
  0.3886206156870645  0.7783318619504389  0.3750000000000000
  0.2215871906564697  0.2774602619949026  0.3750000000000000
  0.7223891038578574  0.7777723623275248  0.3750000000000000
  0.5559845164102153  0.2791512387001138  0.3750000000000000
  0.8886768355775218  0.2777693895600745  0.3750000000000000
  0.0555574052694257  0.4444539968144475  0.8750000000000000
  0.2222150777962028  0.9444335524974414  0.8750000000000000
  0.5555503543834073  0.9444418438583684  0.8750000000000000
  0.3888889222546129  0.4444451479833056  0.8750000000000000
  0.8888992959413694  0.9444432344704892  0.8750000000000000
  0.0547610652046388  0.9434272816893023  0.3750000000000000
  0.7222328776916174  0.4444532116376686  0.8750000000000000
  0.3886206156870645  0.9436220870699618  0.3750000000000000
  0.2202546534925162  0.4449260709341425  0.3750000000000000
  0.2215066083157216  0.6115973362013926  0.3750000000000000
  0.7222060741439430  0.9444127658435347  0.3750000000000000
  0.8891372266522614  0.4446247380544455  0.3750000000000000
  0.0555551440537030  0.6111146661205761  0.8750000000000000
  0.2222204621161137  0.1111026807704359  0.8750000000000000
  0.7222328776916174  0.6111129993872840  0.8750000000000000
  0.5555528710990143  0.1111128975064521  0.8750000000000000
  0.8888974298886088  0.1111153816109756  0.8750000000000000
  0.1111536278270175  0.0551898222167141  0.3750000000000000
  0.6116707334335266  0.5545527837871888  0.3750000000000000
  0.4438538868038343  0.0550771617855087  0.3750000000000000
  0.9445503300010150  0.5556020708822863  0.3750000000000000
  0.7777963779951304  0.0555648556642330  0.3750000000000000
  0.1111249155130214  0.7222291244231749  0.8750000000000000
  0.4444049952579059  0.7221328874395491  0.8750000000000000
  0.2778474873365414  0.2222940001655029  0.8750000000000000
  0.7777457235590206  0.7221791455606882  0.8750000000000000
  0.6110504004805640  0.2222610628629986  0.8750000000000000
  0.9445260031134499  0.2222629578452530  0.8750000000000000
  0.2775014687566618  0.7221736999577122  0.3750000000000000
  0.1129952495881144  0.2231642914607215  0.3750000000000000
  0.4406138590966307  0.2225142304191473  0.3750000000000000
  0.6103414155609949  0.7201250271699173  0.3750000000000000
  0.9445503300010150  0.7222815924520642  0.3750000000000000
  0.7776269409002008  0.2223707270253977  0.3750000000000000
  0.1111464297571242  0.8889320597601794  0.8750000000000000
  0.4444117724421314  0.8888725528877297  0.8750000000000000
  0.2778474873365414  0.3888868205043667  0.8750000000000000
  0.6110213236585590  0.3888825826155924  0.8750000000000000
  0.7777821034932093  0.8888643946040572  0.8750000000000000
  0.9444839824848335  0.3889089952614191  0.8750000000000000
  0.1111536278270175  0.3892971389436323  0.3750000000000000
  0.2775014687566618  0.8886611021322786  0.3750000000000000
  0.6108445006808494  0.8882850665477791  0.3750000000000000
  0.9444135866618951  0.8887906928217078  0.3750000000000000
  0.7781258532065315  0.3889503774995432  0.3750000000000000
  0.2778013252293653  0.5555023083487871  0.8750000000000000
  0.1112006874188515  0.0556282859109256  0.8750000000000000
  0.6110213236585590  0.5554720743762953  0.8750000000000000
  0.4444049952579059  0.0556054411516926  0.8750000000000000
  0.9444476320549632  0.5555570464915103  0.8750000000000000
  0.1109428716402947  0.5556264514012614  0.3750000000000000
  0.7777975074996119  0.0555654204164739  0.8750000000000000
  0.2775434898763516  0.0553942418423328  0.3750000000000000
  0.4406138590966307  0.5514329620108191  0.3750000000000000
  0.7783453534290165  0.5558393433811754  0.3750000000000000
  0.6108445006808494  0.0558927674663986  0.3750000000000000
  0.4443904633303059  0.5554395607465336  0.8750000000000000
  0.9448953814967730  0.0557717798627500  0.3750000000000000
  0.2777769761773227  0.7221937259624041  0.8750000000000000
  0.1112347466644556  0.2222840399988921  0.8750000000000000
  0.4443904633303059  0.2222842359171085  0.8750000000000000
  0.6110504004805640  0.7221226709508942  0.8750000000000000
  0.9444476320549632  0.7222239188967886  0.8750000000000000
  0.7777821034932093  0.2222510422224809  0.8750000000000000
  0.1109540736333497  0.7221437034833396  0.3750000000000000
  0.4438538868038343  0.7221100583516612  0.3750000000000000
  0.2815001612949045  0.2234782622269455  0.3750000000000000
  0.7781258532065315  0.7225088090403173  0.3750000000000000
  0.6103414155609949  0.2235497217244062  0.3750000000000000
  0.9448953814967730  0.2224569349673582  0.3750000000000000
  0.1112006874188515  0.3889057348412543  0.8750000000000000
  0.2777769761773227  0.8889165835482470  0.8750000000000000
  0.6110771215966972  0.8888412760805460  0.8750000000000000
  0.4443833830114263  0.3888583581723775  0.8750000000000000
  0.9444839824848335  0.8889083205567423  0.8750000000000000
  0.1109428716402946  0.8886497535723612  0.3750000000000000
  0.7777457235590206  0.3888999113316610  0.8750000000000000
  0.4442345204691542  0.8887839269012415  0.3750000000000000
  0.2815001612949045  0.3913552324012877  0.3750000000000000
  0.2775434898763516  0.5554825813673542  0.3750000000000000
  0.6116707334335266  0.3904512829796659  0.3750000000000000
  0.7776269409002008  0.8885895472081314  0.3750000000000000
  0.9444135866618951  0.3889562271735167  0.3750000000000000
  0.1111464297571242  0.5555477033302740  0.8750000000000000
  0.2778013252293653  0.0556323502139136  0.8750000000000000
  0.7777291144152898  0.5555312238743122  0.8750000000000000
  0.6110771215966972  0.0555691788494794  0.8750000000000000
  0.9445260031134499  0.0555963786015324  0.8750000000000000
  0.0557291618857172  0.1112863858540813  0.1253651314718331
  0.5552469737355188  0.6108549816669512  0.1259109734874704
  0.3889813491819996  0.1114362572860496  0.1257341875739344
  0.8887691562037690  0.6110512447685565  0.1251541569815634
  0.7221815428193740  0.1110957239633589  0.1251954900147236
  0.0556120607475903  0.7778772528523462  0.6248121810807489
  0.3889784006995203  0.7777217520461885  0.6247343112965676
  0.2225158065687268  0.2779245699510313  0.6237109146621246
  0.7220544678088924  0.7776819080070608  0.6247519584616491
  0.5552469737355188  0.2777253254019035  0.6240890265125292
  0.8888970692842446  0.2777267673988360  0.6247897259437731
  0.2223473361227472  0.7778403347280419  0.1252171904237188
  0.0557291618857172  0.2777761093649718  0.1253651314718331
  0.3889614804210365  0.2780573902002503  0.1277781152263709
  0.5554943391044387  0.7776562176570572  0.1253036650224900
  0.8888069088474446  0.7777890387291032  0.1251690877002377
  0.7220544678088924  0.2777058931351674  0.1252480415383508
  0.0556742241357739  0.9446627515204307  0.6247486736300378
  0.3889784006995203  0.9445899819866679  0.6247343112965676
  0.2224697392550916  0.4442803421884434  0.6241565550291746
  0.5549606183867691  0.4441469758600489  0.6238175509315756
  0.7221815428193740  0.9444191521893505  0.6248045099852766
  0.8888069088474446  0.4443512034516774  0.6248309122997624
  0.0556742241357739  0.4443448059486718  0.1252513263699618
  0.2223826947811189  0.9447288710650019  0.1253097912033070
  0.5555578194200789  0.9444455763767035  0.1252194128216712
  0.3889614804210365  0.4442374235541217  0.1277781152263709
  0.8888970692842446  0.9445036352187445  0.1252102740562266
  0.7219102780927191  0.4442986633874389  0.1253988942103758
  0.2223826947811189  0.6109871570494532  0.6246902087966936
  0.0557291618857172  0.1112863858540813  0.6246348685281672
  0.5552469737355188  0.6108549816669512  0.6240890265125292
  0.3889813491819996  0.1114362572860496  0.6242658124260657
  0.8887691562037690  0.6110512447685565  0.6248458430184366
  0.0556120607475903  0.6110681412285796  0.1251878189192506
  0.7221815428193740  0.1110957239633589  0.6248045099852766
  0.2224697392550916  0.1115227303999836  0.1258434449708253
  0.3889813491819996  0.6108784252292924  0.1257341875739344
  0.7219102780927191  0.6109449480386163  0.1253988942103758
  0.5554943391044387  0.1111714547807177  0.1253036650224900
  0.3889813491819996  0.6108784252292924  0.6242658124260657
  0.8889392828531362  0.1111363080932395  0.1252191747500049
  0.2223473361227472  0.7778403347280419  0.6247828095762812
  0.0557291618857172  0.2777761093649718  0.6246348685281672
  0.3889614804210365  0.2780573902002503  0.6222218847736286
  0.5554943391044387  0.7776562176570572  0.6246963349775098
  0.8888069088474446  0.7777890387291032  0.6248309122997624
  0.7220544678088924  0.2777058931351674  0.6247519584616491
  0.0556120607475903  0.7778772528523462  0.1251878189192506
  0.3889784006995203  0.7777217520461885  0.1252656887034318
  0.2225158065687268  0.2779245699510313  0.1262890853378758
  0.7220544678088924  0.7776819080070608  0.1252480415383508
  0.5552469737355188  0.2777253254019035  0.1259109734874704
  0.8888970692842446  0.2777267673988360  0.1252102740562266
  0.0556742241357739  0.4443448059486718  0.6247486736300378
  0.2223826947811189  0.9447288710650019  0.6246902087966936
  0.5555578194200789  0.9444455763767035  0.6247805871783284
  0.3889614804210365  0.4442374235541217  0.6222218847736286
  0.8888970692842446  0.9445036352187445  0.6247897259437731
  0.0556742241357739  0.9446627515204307  0.1252513263699618
  0.7219102780927191  0.4442986633874389  0.6246011057896242
  0.3889784006995203  0.9445899819866679  0.1252656887034318
  0.2224697392550916  0.4442803421884434  0.1258434449708253
  0.2223826947811189  0.6109871570494532  0.1253097912033070
  0.5549606183867691  0.4441469758600489  0.1261824490684242
  0.7221815428193740  0.9444191521893505  0.1251954900147236
  0.8888069088474446  0.4443512034516774  0.1251690877002377
  0.0556120607475903  0.6110681412285796  0.6248121810807489
  0.2224697392550916  0.1115227303999836  0.6241565550291746
  0.7219102780927191  0.6109449480386163  0.6246011057896242
  0.5554943391044387  0.1111714547807177  0.6246963349775098
  0.8889392828531362  0.1111363080932395  0.6247808252499952
 
  0.00000000E+00  0.00000000E+00  0.00000000E+00
  0.00000000E+00  0.00000000E+00  0.00000000E+00
  0.00000000E+00  0.00000000E+00  0.00000000E+00
  0.00000000E+00  0.00000000E+00  0.00000000E+00
  0.00000000E+00  0.00000000E+00  0.00000000E+00
  0.00000000E+00  0.00000000E+00  0.00000000E+00
  0.00000000E+00  0.00000000E+00  0.00000000E+00
  0.00000000E+00  0.00000000E+00  0.00000000E+00
  0.00000000E+00  0.00000000E+00  0.00000000E+00
  0.00000000E+00  0.00000000E+00  0.00000000E+00
  0.00000000E+00  0.00000000E+00  0.00000000E+00
  0.00000000E+00  0.00000000E+00  0.00000000E+00
  0.00000000E+00  0.00000000E+00  0.00000000E+00
  0.00000000E+00  0.00000000E+00  0.00000000E+00
  0.00000000E+00  0.00000000E+00  0.00000000E+00
  0.00000000E+00  0.00000000E+00  0.00000000E+00
  0.00000000E+00  0.00000000E+00  0.00000000E+00
  0.00000000E+00  0.00000000E+00  0.00000000E+00
  0.00000000E+00  0.00000000E+00  0.00000000E+00
  0.00000000E+00  0.00000000E+00  0.00000000E+00
  0.00000000E+00  0.00000000E+00  0.00000000E+00
  0.00000000E+00  0.00000000E+00  0.00000000E+00
  0.00000000E+00  0.00000000E+00  0.00000000E+00
  0.00000000E+00  0.00000000E+00  0.00000000E+00
  0.00000000E+00  0.00000000E+00  0.00000000E+00
  0.00000000E+00  0.00000000E+00  0.00000000E+00
  0.00000000E+00  0.00000000E+00  0.00000000E+00
  0.00000000E+00  0.00000000E+00  0.00000000E+00
  0.00000000E+00  0.00000000E+00  0.00000000E+00
  0.00000000E+00  0.00000000E+00  0.00000000E+00
  0.00000000E+00  0.00000000E+00  0.00000000E+00
  0.00000000E+00  0.00000000E+00  0.00000000E+00
  0.00000000E+00  0.00000000E+00  0.00000000E+00
  0.00000000E+00  0.00000000E+00  0.00000000E+00
  0.00000000E+00  0.00000000E+00  0.00000000E+00
  0.00000000E+00  0.00000000E+00  0.00000000E+00
  0.00000000E+00  0.00000000E+00  0.00000000E+00
  0.00000000E+00  0.00000000E+00  0.00000000E+00
  0.00000000E+00  0.00000000E+00  0.00000000E+00
  0.00000000E+00  0.00000000E+00  0.00000000E+00
  0.00000000E+00  0.00000000E+00  0.00000000E+00
  0.00000000E+00  0.00000000E+00  0.00000000E+00
  0.00000000E+00  0.00000000E+00  0.00000000E+00
  0.00000000E+00  0.00000000E+00  0.00000000E+00
  0.00000000E+00  0.00000000E+00  0.00000000E+00
  0.00000000E+00  0.00000000E+00  0.00000000E+00
  0.00000000E+00  0.00000000E+00  0.00000000E+00
  0.00000000E+00  0.00000000E+00  0.00000000E+00
  0.00000000E+00  0.00000000E+00  0.00000000E+00
  0.00000000E+00  0.00000000E+00  0.00000000E+00
  0.00000000E+00  0.00000000E+00  0.00000000E+00
  0.00000000E+00  0.00000000E+00  0.00000000E+00
  0.00000000E+00  0.00000000E+00  0.00000000E+00
  0.00000000E+00  0.00000000E+00  0.00000000E+00
  0.00000000E+00  0.00000000E+00  0.00000000E+00
  0.00000000E+00  0.00000000E+00  0.00000000E+00
  0.00000000E+00  0.00000000E+00  0.00000000E+00
  0.00000000E+00  0.00000000E+00  0.00000000E+00
  0.00000000E+00  0.00000000E+00  0.00000000E+00
  0.00000000E+00  0.00000000E+00  0.00000000E+00
  0.00000000E+00  0.00000000E+00  0.00000000E+00
  0.00000000E+00  0.00000000E+00  0.00000000E+00
  0.00000000E+00  0.00000000E+00  0.00000000E+00
  0.00000000E+00  0.00000000E+00  0.00000000E+00
  0.00000000E+00  0.00000000E+00  0.00000000E+00
  0.00000000E+00  0.00000000E+00  0.00000000E+00
  0.00000000E+00  0.00000000E+00  0.00000000E+00
  0.00000000E+00  0.00000000E+00  0.00000000E+00
  0.00000000E+00  0.00000000E+00  0.00000000E+00
  0.00000000E+00  0.00000000E+00  0.00000000E+00
  0.00000000E+00  0.00000000E+00  0.00000000E+00
  0.00000000E+00  0.00000000E+00  0.00000000E+00
  0.00000000E+00  0.00000000E+00  0.00000000E+00
  0.00000000E+00  0.00000000E+00  0.00000000E+00
  0.00000000E+00  0.00000000E+00  0.00000000E+00
  0.00000000E+00  0.00000000E+00  0.00000000E+00
  0.00000000E+00  0.00000000E+00  0.00000000E+00
  0.00000000E+00  0.00000000E+00  0.00000000E+00
  0.00000000E+00  0.00000000E+00  0.00000000E+00
  0.00000000E+00  0.00000000E+00  0.00000000E+00
  0.00000000E+00  0.00000000E+00  0.00000000E+00
  0.00000000E+00  0.00000000E+00  0.00000000E+00
  0.00000000E+00  0.00000000E+00  0.00000000E+00
  0.00000000E+00  0.00000000E+00  0.00000000E+00
  0.00000000E+00  0.00000000E+00  0.00000000E+00
  0.00000000E+00  0.00000000E+00  0.00000000E+00
  0.00000000E+00  0.00000000E+00  0.00000000E+00
  0.00000000E+00  0.00000000E+00  0.00000000E+00
  0.00000000E+00  0.00000000E+00  0.00000000E+00
  0.00000000E+00  0.00000000E+00  0.00000000E+00
  0.00000000E+00  0.00000000E+00  0.00000000E+00
  0.00000000E+00  0.00000000E+00  0.00000000E+00
  0.00000000E+00  0.00000000E+00  0.00000000E+00
  0.00000000E+00  0.00000000E+00  0.00000000E+00
  0.00000000E+00  0.00000000E+00  0.00000000E+00
  0.00000000E+00  0.00000000E+00  0.00000000E+00
  0.00000000E+00  0.00000000E+00  0.00000000E+00
  0.00000000E+00  0.00000000E+00  0.00000000E+00
  0.00000000E+00  0.00000000E+00  0.00000000E+00
  0.00000000E+00  0.00000000E+00  0.00000000E+00
  0.00000000E+00  0.00000000E+00  0.00000000E+00
  0.00000000E+00  0.00000000E+00  0.00000000E+00
  0.00000000E+00  0.00000000E+00  0.00000000E+00
  0.00000000E+00  0.00000000E+00  0.00000000E+00
  0.00000000E+00  0.00000000E+00  0.00000000E+00
  0.00000000E+00  0.00000000E+00  0.00000000E+00
  0.00000000E+00  0.00000000E+00  0.00000000E+00
  0.00000000E+00  0.00000000E+00  0.00000000E+00
  0.00000000E+00  0.00000000E+00  0.00000000E+00
  0.00000000E+00  0.00000000E+00  0.00000000E+00
  0.00000000E+00  0.00000000E+00  0.00000000E+00
  0.00000000E+00  0.00000000E+00  0.00000000E+00
  0.00000000E+00  0.00000000E+00  0.00000000E+00
  0.00000000E+00  0.00000000E+00  0.00000000E+00
  0.00000000E+00  0.00000000E+00  0.00000000E+00
  0.00000000E+00  0.00000000E+00  0.00000000E+00
  0.00000000E+00  0.00000000E+00  0.00000000E+00
  0.00000000E+00  0.00000000E+00  0.00000000E+00
  0.00000000E+00  0.00000000E+00  0.00000000E+00
  0.00000000E+00  0.00000000E+00  0.00000000E+00
  0.00000000E+00  0.00000000E+00  0.00000000E+00
  0.00000000E+00  0.00000000E+00  0.00000000E+00
  0.00000000E+00  0.00000000E+00  0.00000000E+00
  0.00000000E+00  0.00000000E+00  0.00000000E+00
  0.00000000E+00  0.00000000E+00  0.00000000E+00
  0.00000000E+00  0.00000000E+00  0.00000000E+00
  0.00000000E+00  0.00000000E+00  0.00000000E+00
  0.00000000E+00  0.00000000E+00  0.00000000E+00
  0.00000000E+00  0.00000000E+00  0.00000000E+00
  0.00000000E+00  0.00000000E+00  0.00000000E+00
  0.00000000E+00  0.00000000E+00  0.00000000E+00
  0.00000000E+00  0.00000000E+00  0.00000000E+00
  0.00000000E+00  0.00000000E+00  0.00000000E+00
  0.00000000E+00  0.00000000E+00  0.00000000E+00
  0.00000000E+00  0.00000000E+00  0.00000000E+00
  0.00000000E+00  0.00000000E+00  0.00000000E+00
  0.00000000E+00  0.00000000E+00  0.00000000E+00
  0.00000000E+00  0.00000000E+00  0.00000000E+00
  0.00000000E+00  0.00000000E+00  0.00000000E+00
  0.00000000E+00  0.00000000E+00  0.00000000E+00
  0.00000000E+00  0.00000000E+00  0.00000000E+00
  0.00000000E+00  0.00000000E+00  0.00000000E+00
  0.00000000E+00  0.00000000E+00  0.00000000E+00
  0.00000000E+00  0.00000000E+00  0.00000000E+00
  0.00000000E+00  0.00000000E+00  0.00000000E+00
  0.00000000E+00  0.00000000E+00  0.00000000E+00
  0.00000000E+00  0.00000000E+00  0.00000000E+00
  0.00000000E+00  0.00000000E+00  0.00000000E+00
  0.00000000E+00  0.00000000E+00  0.00000000E+00
  0.00000000E+00  0.00000000E+00  0.00000000E+00
  0.00000000E+00  0.00000000E+00  0.00000000E+00
  0.00000000E+00  0.00000000E+00  0.00000000E+00
  0.00000000E+00  0.00000000E+00  0.00000000E+00
  0.00000000E+00  0.00000000E+00  0.00000000E+00
  0.00000000E+00  0.00000000E+00  0.00000000E+00
  0.00000000E+00  0.00000000E+00  0.00000000E+00
  0.00000000E+00  0.00000000E+00  0.00000000E+00
  0.00000000E+00  0.00000000E+00  0.00000000E+00
  0.00000000E+00  0.00000000E+00  0.00000000E+00
  0.00000000E+00  0.00000000E+00  0.00000000E+00
  0.00000000E+00  0.00000000E+00  0.00000000E+00
  0.00000000E+00  0.00000000E+00  0.00000000E+00
  0.00000000E+00  0.00000000E+00  0.00000000E+00
  0.00000000E+00  0.00000000E+00  0.00000000E+00
  0.00000000E+00  0.00000000E+00  0.00000000E+00
  0.00000000E+00  0.00000000E+00  0.00000000E+00
  0.00000000E+00  0.00000000E+00  0.00000000E+00
  0.00000000E+00  0.00000000E+00  0.00000000E+00
  0.00000000E+00  0.00000000E+00  0.00000000E+00
  0.00000000E+00  0.00000000E+00  0.00000000E+00
  0.00000000E+00  0.00000000E+00  0.00000000E+00
  0.00000000E+00  0.00000000E+00  0.00000000E+00
  0.00000000E+00  0.00000000E+00  0.00000000E+00
  0.00000000E+00  0.00000000E+00  0.00000000E+00
  0.00000000E+00  0.00000000E+00  0.00000000E+00
  0.00000000E+00  0.00000000E+00  0.00000000E+00
  0.00000000E+00  0.00000000E+00  0.00000000E+00
  0.00000000E+00  0.00000000E+00  0.00000000E+00
  0.00000000E+00  0.00000000E+00  0.00000000E+00
  0.00000000E+00  0.00000000E+00  0.00000000E+00
  0.00000000E+00  0.00000000E+00  0.00000000E+00
  0.00000000E+00  0.00000000E+00  0.00000000E+00
  0.00000000E+00  0.00000000E+00  0.00000000E+00
  0.00000000E+00  0.00000000E+00  0.00000000E+00
  0.00000000E+00  0.00000000E+00  0.00000000E+00
  0.00000000E+00  0.00000000E+00  0.00000000E+00
  0.00000000E+00  0.00000000E+00  0.00000000E+00
  0.00000000E+00  0.00000000E+00  0.00000000E+00
  0.00000000E+00  0.00000000E+00  0.00000000E+00
  0.00000000E+00  0.00000000E+00  0.00000000E+00
  0.00000000E+00  0.00000000E+00  0.00000000E+00
  0.00000000E+00  0.00000000E+00  0.00000000E+00
  0.00000000E+00  0.00000000E+00  0.00000000E+00
  0.00000000E+00  0.00000000E+00  0.00000000E+00
  0.00000000E+00  0.00000000E+00  0.00000000E+00
  0.00000000E+00  0.00000000E+00  0.00000000E+00
  0.00000000E+00  0.00000000E+00  0.00000000E+00
  0.00000000E+00  0.00000000E+00  0.00000000E+00
  0.00000000E+00  0.00000000E+00  0.00000000E+00
  0.00000000E+00  0.00000000E+00  0.00000000E+00
  0.00000000E+00  0.00000000E+00  0.00000000E+00
  0.00000000E+00  0.00000000E+00  0.00000000E+00
  0.00000000E+00  0.00000000E+00  0.00000000E+00
  0.00000000E+00  0.00000000E+00  0.00000000E+00
  0.00000000E+00  0.00000000E+00  0.00000000E+00
  0.00000000E+00  0.00000000E+00  0.00000000E+00
  0.00000000E+00  0.00000000E+00  0.00000000E+00
  0.00000000E+00  0.00000000E+00  0.00000000E+00
  0.00000000E+00  0.00000000E+00  0.00000000E+00
  0.00000000E+00  0.00000000E+00  0.00000000E+00
  0.00000000E+00  0.00000000E+00  0.00000000E+00
  0.00000000E+00  0.00000000E+00  0.00000000E+00
  0.00000000E+00  0.00000000E+00  0.00000000E+00
  0.00000000E+00  0.00000000E+00  0.00000000E+00
  0.00000000E+00  0.00000000E+00  0.00000000E+00
  0.00000000E+00  0.00000000E+00  0.00000000E+00
  0.00000000E+00  0.00000000E+00  0.00000000E+00
  0.00000000E+00  0.00000000E+00  0.00000000E+00
  0.00000000E+00  0.00000000E+00  0.00000000E+00
  0.00000000E+00  0.00000000E+00  0.00000000E+00
  0.00000000E+00  0.00000000E+00  0.00000000E+00
  0.00000000E+00  0.00000000E+00  0.00000000E+00
  0.00000000E+00  0.00000000E+00  0.00000000E+00
  0.00000000E+00  0.00000000E+00  0.00000000E+00
  0.00000000E+00  0.00000000E+00  0.00000000E+00
  0.00000000E+00  0.00000000E+00  0.00000000E+00
  0.00000000E+00  0.00000000E+00  0.00000000E+00
  0.00000000E+00  0.00000000E+00  0.00000000E+00
  0.00000000E+00  0.00000000E+00  0.00000000E+00
  0.00000000E+00  0.00000000E+00  0.00000000E+00
  0.00000000E+00  0.00000000E+00  0.00000000E+00
  0.00000000E+00  0.00000000E+00  0.00000000E+00
  0.00000000E+00  0.00000000E+00  0.00000000E+00
  0.00000000E+00  0.00000000E+00  0.00000000E+00
  0.00000000E+00  0.00000000E+00  0.00000000E+00
  0.00000000E+00  0.00000000E+00  0.00000000E+00
  0.00000000E+00  0.00000000E+00  0.00000000E+00
  0.00000000E+00  0.00000000E+00  0.00000000E+00
  0.00000000E+00  0.00000000E+00  0.00000000E+00
  0.00000000E+00  0.00000000E+00  0.00000000E+00
  0.00000000E+00  0.00000000E+00  0.00000000E+00
  0.00000000E+00  0.00000000E+00  0.00000000E+00
  0.00000000E+00  0.00000000E+00  0.00000000E+00
  0.00000000E+00  0.00000000E+00  0.00000000E+00
  0.00000000E+00  0.00000000E+00  0.00000000E+00
  0.00000000E+00  0.00000000E+00  0.00000000E+00
  0.00000000E+00  0.00000000E+00  0.00000000E+00
  0.00000000E+00  0.00000000E+00  0.00000000E+00