 N As B 
 1.0
 17.527899999999772   0.000000000000000   0.000000000000000
 -8.763949999999658  15.179606674993195   0.000000000000000
  0.000000000000001   0.000000000000002  15.000000000000000
 N As B 
  48   1  48
Cartesian
  8.778179895663442  13.739052552415451   1.640257570384710 
 16.276010246122990   0.722793073439122   1.650087445884960 
 15.015538738683434   2.889698069955740   1.646852379315660 
 13.763585414882982   5.059868891664398   1.650689389598805 
 12.523102971296238   7.227795348330705   1.654074730637460 
 11.285381336372378   9.395371583489531   1.647226205451045 
 10.037241672319695  11.566970667947368   1.630566726564945 
 -6.243489055075402  13.724432057001827   1.660575626996040 
  1.254683699849774   0.707974890715024   1.640257570384710 
 -0.011261269612616   2.870947385401128   1.603775410736280 
 -1.260414036548561   5.047955479970878   1.619422943918160 
 -2.489660839835082   7.220144313504501   1.646672288676255 
 -3.732313209221112   9.387932629501220   1.658348983918335 
 -4.984984250052773  11.556134211510999   1.661303144280735 
 -3.736435635397922  13.718683847812718   1.661303144280735 
  3.765292679226963   0.703636349430972   1.630566726564945 
  2.493252898202205   2.854065280969860   1.561444663129935 
  1.225530879079415   5.014227494424278   1.561878576250845 
  0.027408774720331   7.206855397225557   1.674956703412575 
 -1.217140683871897   9.379780007203989   1.700360258718150 
 -2.476694886165272  11.549672429599623   1.672456101649125 
 -1.232382464436056  13.717939694872152   1.658348983918335 
  6.270022485228988   0.708515235119027   1.647226205451045 
  5.006987784724557   2.869730794382572   1.608646351793040 
  3.722897794696061   4.997743031165808   1.568015204228160 
  2.513468868069773   7.123863452706492   1.826569366911105 
  1.304820535092310   9.366413483191637   1.821611502911970 
  0.032264176255257  11.543812704167880   1.700360258718150 
  1.266303471919439  13.725665332909353   1.646672288676255 
  8.766059386960139   0.720404974040821   1.654074730637460 
  7.500388055704556   2.895728021859592   1.670194792289925 
  6.219825119320506   5.075071992547277   1.739084804166015 
  3.851249997221244   9.440968337834112   1.826569366911105 
  2.536346818283435  11.552463561749899   1.674956703412575 
  3.762097585219697  13.747200790509172   1.619422943918160 
 11.263755421102168   0.730078893279114   1.650689389598805 
 10.001674511484685   2.901331067640503   1.676473800305355 
  8.733646703936561   5.077378694836259   1.716626233353945 
  7.478733574409801   7.255565398840153   1.739084804166015 
  6.297238757093607   9.456632374074397   1.568015204228160 
  5.034279335335676  11.611173333939986   1.561878576250845 
  6.272018282847132  13.753906808419860   1.603775410736280 
 13.769179717832223   0.730940921370077   1.646852379315660 
 12.509227449086824   2.897546135286760   1.665322572546915 
 11.252173132724463   5.067258214392536   1.676473800305355 
 10.006382284819617   7.236237350130361   1.670194792289925 
  8.782196408743722   9.408583940355904   1.608646351793040 
  7.538895698061408  11.593374967169902   1.561444663129935 
  4.253691316731043   7.663882143597085   2.532581227522980 
  7.523617326748658  14.463423873849855   1.633656596093265 
 15.021880895612524   1.446871258485846   1.649297392539825 
 13.763860239752972   3.615260686754627   1.656113475751515 
 12.512442238609538   5.783769028023869   1.660080161292315 
 11.271824931493221   7.951708556576745   1.655313881039115 
 10.039666483453361  10.123869359775544   1.627656197716320 
  8.789954392038954  12.300610283286296   1.611862436752200 
 -7.497448681033474  14.448412251532528   1.652138111160720 
  0.000083876578829   1.432281685711541   1.633656596093265 
 -1.259116571237493   3.604527570893620   1.621432527476385 
 -2.506518174114446   5.775832920566834   1.639375868311935 
 -3.741981166011588   7.943540992385083   1.652712474778035 
 -4.983929438125746  10.111897260458067   1.655796860234940 
 -6.236613063233367  12.281735599706069   1.654330993167570 
 -4.990633849864997  14.439834902434686   1.654330993167570 
  2.506303922302175   1.417008412697949   1.611862436752200 
  1.238143131533423   3.579835970037570   1.565151968080695 
 -0.004788098291818   5.763168342483612   1.617886832979510 
 -1.223762862349518   7.933772006597737   1.672782957665865 
 -2.471725762120778  10.103429354267060   1.675875961474725 
 -3.730134782138576  12.273352557883774   1.665985656973605 
 -2.485156913399621  14.439898229810776   1.655796860234940 
  5.016272905244278   1.423096455871949   1.627656197716320 
  3.742471119741222   3.559503341712194   1.560939292299900 
  2.467011113124439   5.726844845262670   1.636405857699750 
  1.308762776776367   7.910795779655216   1.784257501335420 
  0.048569042060666  10.091716887804596   1.742929657423725 
 -1.221721653518736  12.268499980005215   1.675875961474725 
  0.013668835264056  14.448517610010057   1.652712474778035 
  7.513498565939109   1.442096339981246   1.655313881039115 
  6.244691368393115   3.610161946341857   1.666981392948450 
  4.930358842831744   5.704444843314597   1.756199940106650 
  2.567398992725502  10.090817653925340   1.784257501335420 
  1.281238176955979  12.272561079657420   1.672782957665865 
  2.508690589378384  14.462429309500708   1.639375868311935 
 10.011297925075166   1.451659999920214   1.660080161292315 
  8.748277101071462   3.624378424070265   1.692277384366245 
  7.479262788613186   5.801603852956604   1.742201133384045 
  6.288952986270329   8.057598926645731   1.756199940106650 
  5.037880150684741  10.179720637953190   1.636405857699750 
  3.770523473637746  12.302199799468440   1.617886832979510 
  5.012796983006901  14.467800507524409   1.621432527476385 
 12.514990237504554   1.452154390811288   1.656113475751515 
 11.256203955142887   3.620985853747205   1.674415319965035 
  9.999302476023356   5.791217935044812   1.692277384366245 
  8.759821440540712   7.966495018975756   1.666981392948450 
  7.552582954744297  10.158810622487065   1.560939292299900 
  6.282810387993516  12.317455965505639   1.565151968080695 
