B N Se                                  
   1.0000000000000000     
     8.7639499999999995  -15.1796066749929999    0.0000000000000000
     8.7639499999999995   15.1796066749929999    0.0000000000000000
     0.0000000000000000    0.0000000000000000   15.0000000000000000
   B    N    Se
    47    49     1
Selective dynamics
Direct
  0.9077523531762089  0.9539910079991329  0.1109651900369495   T   T   T
  0.9049864503449815  0.0952656893991944  0.1110430988776031   T   T   T
  0.9031709072867882  0.2372767266882309  0.1110522125275455   T   T   T
  0.9030300765576569  0.3802645326928288  0.1109563739551492   T   T   T
  0.9043672059403000  0.5236231269966586  0.1109896763228323   T   T   T
  0.9065771453973542  0.6671157343661717  0.1111155405410668   T   T   T
  0.9080077690548246  0.8106000929612758  0.1110497673426165   T   T   T
  0.0492889560909752  0.9523220456907572  0.1110059089964334   T   T   T
  0.0477556092022219  0.0944141958768512  0.1109810764037286   T   T   T
  0.0451541949212450  0.2360314099779705  0.1109484787452848   T   T   T
  0.0443113701241349  0.3793166275358161  0.1108964063492016   T   T   T
  0.0452405515048009  0.5229575952224319  0.1109158308318424   T   T   T
  0.0479333283890071  0.6662622176744103  0.1110336033959083   T   T   T
  0.0493532333244072  0.8094339569794340  0.1110818844848613   T   T   T
  0.1914631424358409  0.9515485775430200  0.1110770370743168   T   T   T
  0.1906791718302350  0.0940604681371232  0.1110575232632518   T   T   T
  0.1876687527318959  0.2348594038921853  0.1109838224851088   T   T   T
  0.1844753612977271  0.3770683522013362  0.1109396217571482   T   T   T
  0.1851135080331698  0.5219842713227805  0.1109391234633549   T   T   T
  0.1896777196481500  0.6652345578547941  0.1109691871431001   T   T   T
  0.1913516260549014  0.8085257060001979  0.1110167099685170   T   T   T
  0.3338103763871746  0.9509568138276151  0.1110786621900487   T   T   T
  0.3334304126562348  0.0939784507687342  0.1111166582978306   T   T   T
  0.3323423072377579  0.2361503607633807  0.1110753932073896   T   T   T
  0.3264617787023850  0.3736079287093624  0.1110387620225995   T   T   T
  0.3209022489895009  0.5219194878869943  0.1111259192037115   T   T   T
  0.3327427637236832  0.6619237499836799  0.1110604833826540   T   T   T
  0.3337338424347160  0.8072619770729985  0.1110141253826311   T   T   T
  0.4762714256723664  0.9516013493221956  0.1110091163454437   T   T   T
  0.4760299620404765  0.0943070938589992  0.1110700215172314   T   T   T
  0.4757459577230170  0.2368550993669267  0.1110761670149728   T   T   T
  0.4749217552571662  0.3782356777196098  0.1110033893831014   T   T   T
  0.4754110876680276  0.8082722624412695  0.1109887109410111   T   T   T
  0.6196918590969036  0.9529734394030019  0.1110130892117901   T   T   T
  0.6186653677108053  0.0949482288905169  0.1109938143479882   T   T   T
  0.6184952323883202  0.2376195598789959  0.1110146789879870   T   T   T
  0.6191769725594889  0.3807226069944461  0.1110121656199642   T   T   T
  0.6234605420125188  0.5257807946063943  0.1110430293857095   T   T   T
  0.6311614822088110  0.6759211597126934  0.1111514819496630   T   T   T
  0.6250092885572521  0.8137756359279134  0.1110015987989619   T   T   T
  0.7646914267540575  0.9546590882674539  0.1109945456957769   T   T   T
  0.7616500146656650  0.0953559905190307  0.1110682034402734   T   T   T
  0.7608707472758207  0.2376914892170332  0.1110506808796287   T   T   T
  0.7612892283218547  0.3806869197556027  0.1109886538251286   T   T   T
  0.7633664899103820  0.5243215678677082  0.1110827411211801   T   T   T
  0.7660574221206581  0.6685912358973364  0.1110958663239096   T   T   T
  0.7689535530615532  0.8142927129471076  0.1110152542025240   T   T   T
  0.9546620727986388  0.9055345251993622  0.1109692352518548   T   T   T
  0.9534933255588627  0.0482858361856678  0.1109709368765124   T   T   T
  0.9508826825019694  0.1896541348164412  0.1110293898754612   T   T   T
  0.9497332614348192  0.3320565200541611  0.1109544490628253   T   T   T
  0.9503904620149936  0.4752901021897308  0.1109135597792250   T   T   T
  0.9526871134134556  0.6187455181131312  0.1110393656338306   T   T   T
  0.9543782879873320  0.7621615326703861  0.1110880654442718   T   T   T
  0.0965574878740141  0.9045377689164388  0.1110374161547750   T   T   T
  0.0959597254870315  0.0472571165515209  0.1109867384400141   T   T   T
  0.0935340436464273  0.1887775589719822  0.1109400665358365   T   T   T
  0.0906363760233542  0.3302286085285319  0.1108740112552601   T   T   T
  0.0906015141651397  0.4740832997423571  0.1108641650339999   T   T   T
  0.0940825453365387  0.6180196445525351  0.1109521939699901   T   T   T
  0.0960669591845503  0.7614259832614417  0.1110391638270266   T   T   T
  0.2387412696031819  0.9039165748766735  0.1110430472760577   T   T   T
  0.2385581978143765  0.0468533802456132  0.1110779591370024   T   T   T
  0.2374945329442470  0.1892095535171290  0.1110324764509924   T   T   T
  0.2328999135814588  0.3290633655205600  0.1109562362669760   T   T   T
  0.2277516092562898  0.4704085979224443  0.1109813489304513   T   T   T
  0.2352528298076896  0.6167557820342343  0.1109513427009406   T   T   T
  0.2381444014648946  0.7606754690275357  0.1109766242397082   T   T   T
  0.3811389967097573  0.9033869456472802  0.1110159764672988   T   T   T
  0.3810456635142018  0.0466561705150937  0.1110993871828906   T   T   T
  0.3806974919602853  0.1896039956841247  0.1110906567541226   T   T   T
  0.3797071968966911  0.3320676433974530  0.1110416125434801   T   T   T
  0.3623187215175482  0.4664525750959596  0.1110735145123242   T   T   T
  0.3736258171286276  0.6108156886149571  0.1111672873768307   T   T   T
  0.3805061424428302  0.7593033978291719  0.1110049484210547   T   T   T
  0.5244601029947208  0.9051144284311425  0.1109873256401153   T   T   T
  0.5236767650935790  0.0471939757507421  0.1109827421324418   T   T   T
  0.5233942693730819  0.1898811466779312  0.1110498100043576   T   T   T
  0.5235177714231962  0.3325976087589799  0.1110128264832543   T   T   T
  0.5276143437787445  0.4738621967616404  0.1108980384019761   T   T   T
  0.5407949844749834  0.6491714263265261  0.1113317757596637   T   T   T
  0.5334154405347501  0.7746705866886473  0.1108253312349343   T   T   T
  0.6704815289912223  0.9085371489514414  0.1110075767399544   T   T   T
  0.6667620332773712  0.0481370315291933  0.1109939043971609   T   T   T
  0.6659007322438641  0.1902572977176241  0.1109995964254347   T   T   T
  0.6660276780507092  0.3330723375810268  0.1109773133468483   T   T   T
  0.6679284029467877  0.4763646626828641  0.1110423941895239   T   T   T
  0.6706718196704593  0.6209702318168335  0.1110936788883094   T   T   T
  0.6760515453190519  0.7691058439638717  0.1110330088717727   T   T   T
  0.8138342877520438  0.9081751035526259  0.1109426600598419   T   T   T
  0.8105554971835831  0.0489633477831339  0.1110321973140091   T   T   T
  0.8084262058691593  0.1902448987016717  0.1110837525418459   T   T   T
  0.8080836266566004  0.3327992268477069  0.1109838229600671   T   T   T
  0.8092507245330021  0.4759207458394006  0.1110012684505308   T   T   T
  0.8114171737100085  0.6194911322484703  0.1111092104097094   T   T   T
  0.8134593950093498  0.7635778057010902  0.1110360136699130   T   T   T
  0.4749177044725906  0.5395132174989921  0.1111391363543808   T   T   T

  0.00000000E+00  0.00000000E+00  0.00000000E+00
  0.00000000E+00  0.00000000E+00  0.00000000E+00
  0.00000000E+00  0.00000000E+00  0.00000000E+00
  0.00000000E+00  0.00000000E+00  0.00000000E+00
  0.00000000E+00  0.00000000E+00  0.00000000E+00
  0.00000000E+00  0.00000000E+00  0.00000000E+00
  0.00000000E+00  0.00000000E+00  0.00000000E+00
  0.00000000E+00  0.00000000E+00  0.00000000E+00
  0.00000000E+00  0.00000000E+00  0.00000000E+00
  0.00000000E+00  0.00000000E+00  0.00000000E+00
  0.00000000E+00  0.00000000E+00  0.00000000E+00
  0.00000000E+00  0.00000000E+00  0.00000000E+00
  0.00000000E+00  0.00000000E+00  0.00000000E+00
  0.00000000E+00  0.00000000E+00  0.00000000E+00
  0.00000000E+00  0.00000000E+00  0.00000000E+00
  0.00000000E+00  0.00000000E+00  0.00000000E+00
  0.00000000E+00  0.00000000E+00  0.00000000E+00
  0.00000000E+00  0.00000000E+00  0.00000000E+00
  0.00000000E+00  0.00000000E+00  0.00000000E+00
  0.00000000E+00  0.00000000E+00  0.00000000E+00
  0.00000000E+00  0.00000000E+00  0.00000000E+00
  0.00000000E+00  0.00000000E+00  0.00000000E+00
  0.00000000E+00  0.00000000E+00  0.00000000E+00
  0.00000000E+00  0.00000000E+00  0.00000000E+00
  0.00000000E+00  0.00000000E+00  0.00000000E+00
  0.00000000E+00  0.00000000E+00  0.00000000E+00
  0.00000000E+00  0.00000000E+00  0.00000000E+00
  0.00000000E+00  0.00000000E+00  0.00000000E+00
  0.00000000E+00  0.00000000E+00  0.00000000E+00
  0.00000000E+00  0.00000000E+00  0.00000000E+00
  0.00000000E+00  0.00000000E+00  0.00000000E+00
  0.00000000E+00  0.00000000E+00  0.00000000E+00
  0.00000000E+00  0.00000000E+00  0.00000000E+00
  0.00000000E+00  0.00000000E+00  0.00000000E+00
  0.00000000E+00  0.00000000E+00  0.00000000E+00
  0.00000000E+00  0.00000000E+00  0.00000000E+00
  0.00000000E+00  0.00000000E+00  0.00000000E+00
  0.00000000E+00  0.00000000E+00  0.00000000E+00
  0.00000000E+00  0.00000000E+00  0.00000000E+00
  0.00000000E+00  0.00000000E+00  0.00000000E+00
  0.00000000E+00  0.00000000E+00  0.00000000E+00
  0.00000000E+00  0.00000000E+00  0.00000000E+00
  0.00000000E+00  0.00000000E+00  0.00000000E+00
  0.00000000E+00  0.00000000E+00  0.00000000E+00
  0.00000000E+00  0.00000000E+00  0.00000000E+00
  0.00000000E+00  0.00000000E+00  0.00000000E+00
  0.00000000E+00  0.00000000E+00  0.00000000E+00
  0.00000000E+00  0.00000000E+00  0.00000000E+00
  0.00000000E+00  0.00000000E+00  0.00000000E+00
  0.00000000E+00  0.00000000E+00  0.00000000E+00
  0.00000000E+00  0.00000000E+00  0.00000000E+00
  0.00000000E+00  0.00000000E+00  0.00000000E+00
  0.00000000E+00  0.00000000E+00  0.00000000E+00
  0.00000000E+00  0.00000000E+00  0.00000000E+00
  0.00000000E+00  0.00000000E+00  0.00000000E+00
  0.00000000E+00  0.00000000E+00  0.00000000E+00
  0.00000000E+00  0.00000000E+00  0.00000000E+00
  0.00000000E+00  0.00000000E+00  0.00000000E+00
  0.00000000E+00  0.00000000E+00  0.00000000E+00
  0.00000000E+00  0.00000000E+00  0.00000000E+00
  0.00000000E+00  0.00000000E+00  0.00000000E+00
  0.00000000E+00  0.00000000E+00  0.00000000E+00
  0.00000000E+00  0.00000000E+00  0.00000000E+00
  0.00000000E+00  0.00000000E+00  0.00000000E+00
  0.00000000E+00  0.00000000E+00  0.00000000E+00
  0.00000000E+00  0.00000000E+00  0.00000000E+00
  0.00000000E+00  0.00000000E+00  0.00000000E+00
  0.00000000E+00  0.00000000E+00  0.00000000E+00
  0.00000000E+00  0.00000000E+00  0.00000000E+00
  0.00000000E+00  0.00000000E+00  0.00000000E+00
  0.00000000E+00  0.00000000E+00  0.00000000E+00
  0.00000000E+00  0.00000000E+00  0.00000000E+00
  0.00000000E+00  0.00000000E+00  0.00000000E+00
  0.00000000E+00  0.00000000E+00  0.00000000E+00
  0.00000000E+00  0.00000000E+00  0.00000000E+00
  0.00000000E+00  0.00000000E+00  0.00000000E+00
  0.00000000E+00  0.00000000E+00  0.00000000E+00
  0.00000000E+00  0.00000000E+00  0.00000000E+00
  0.00000000E+00  0.00000000E+00  0.00000000E+00
  0.00000000E+00  0.00000000E+00  0.00000000E+00
  0.00000000E+00  0.00000000E+00  0.00000000E+00
  0.00000000E+00  0.00000000E+00  0.00000000E+00
  0.00000000E+00  0.00000000E+00  0.00000000E+00
  0.00000000E+00  0.00000000E+00  0.00000000E+00
  0.00000000E+00  0.00000000E+00  0.00000000E+00
  0.00000000E+00  0.00000000E+00  0.00000000E+00
  0.00000000E+00  0.00000000E+00  0.00000000E+00
  0.00000000E+00  0.00000000E+00  0.00000000E+00
  0.00000000E+00  0.00000000E+00  0.00000000E+00
  0.00000000E+00  0.00000000E+00  0.00000000E+00
  0.00000000E+00  0.00000000E+00  0.00000000E+00
  0.00000000E+00  0.00000000E+00  0.00000000E+00
  0.00000000E+00  0.00000000E+00  0.00000000E+00
  0.00000000E+00  0.00000000E+00  0.00000000E+00
  0.00000000E+00  0.00000000E+00  0.00000000E+00
  0.00000000E+00  0.00000000E+00  0.00000000E+00
  0.00000000E+00  0.00000000E+00  0.00000000E+00
