 Si N B 
 1.0
 17.527899999999772   0.000000000000000   0.000000000000000
 -8.763949999999658  15.179606674993195   0.000000000000000
  0.000000000000001   0.000000000000002  15.000000000000000
 Si N B 
   1  49  48
Cartesian
  3.754514269195639   7.952084713033891   2.547651392077650 
  8.765945521800056  13.735791688762999   1.648391955636570 
 16.273641934060084   0.724163610730392   1.650577832691240 
 15.019666506992522   2.888999183415071   1.654073365495470 
 13.767694463126471   5.056402185660096   1.651350944342460 
 12.519736292066550   7.224087500033097   1.645629997860645 
 11.270077239880997   9.396527370976498   1.645076629986105 
 10.018209620699849  11.566063520384310   1.653944565169200 
 -6.259924874584576  13.733924829293690   1.665115969737810 
  1.251393046478162   0.720205411477790   1.648392053091525 
 -0.008033831250229   2.880372906155265   1.620226297784100 
 -1.266034082371205   5.050586053198811   1.606910611326180 
 -2.517253605422447   7.225314681684430   1.620627664505310 
 -3.758748285889983   9.396167887617153   1.649765624805525 
 -5.007415756345591  11.565082633605897   1.665261238116300 
 -3.755398218152319  13.733640579130091   1.665261251496315 
  3.756564789148357   0.720577735014729   1.653944453824245 
  2.500266254954185   2.885167054169496   1.634455817576520 
  1.229317371998417   5.034542794035107   1.599946633193910 
 -0.033547004219343   7.220700309612575   1.609535940483645 
 -1.258513593655301   9.396145953267677   1.642023177584685 
 -2.505271676461091  11.566173597751813   1.658325855226710 
 -1.252729189199410  13.736718911942944   1.649765687055570 
  6.261372138304944   0.721196375432119   1.645076746206105 
  5.011711023085266   2.885958672501554   1.635850910722380 
  3.755413974409416   5.052287779910775   1.736993171532120 
  2.394343745122680   7.164432114366613   1.899501226941630 
  1.246206400348160   9.400258377495158   1.747287211867785 
 -0.002592376973305  11.571464351239930   1.642023246899700 
  1.248033511911085  13.746979123519983   1.620627871175295 
  8.767589355637480   0.725178472228514   1.645630004535720 
  7.520178357198970   2.882142614210039   1.623587360143305 
  6.281529300741939   5.035659437344201   1.615116024417675 
  5.115105723935428   7.166546274107839   1.904493626430735 
  3.756555999395291   9.523853643350334   1.899501250611645 
  2.493881573348347  11.598337256390778   1.609535898243615 
  3.757013203646599  13.750757851737594   1.606910578131180 
 11.268839256152161   0.728257536402285   1.651350922322520 
 10.016595623644625   2.890223027632966   1.652610281969295 
  8.777232061080127   5.052218812405586   1.612336018070370 
  7.543719782537652   7.221839055618901   1.615115718432675 
  6.266261153429476   9.401204603998982   1.736993211057090 
  5.018580537001735  11.597741882184620   1.599946526228895 
  6.265471961608983  13.746403757409464   1.620226303424175 
 13.771851831398084   0.727720274916196   1.654073510800470 
 12.520153345955045   2.891240623794655   1.671431898995670 
 11.269271712673039   5.059868891664398   1.652610192869355 
 10.028048236438675   7.225896501425174   1.623587052478275 
  8.770507224650178   9.396384143086992   1.635851141017425 
  7.515469470712350  11.571754735508740   1.634455987016445 
  7.518292538567986  14.455825174013095   1.640883447637365 
 15.022105546236208   1.446738778479216   1.654456971719760 
 13.774140995572704   3.615779731033022   1.660809656516685 
 12.518669483028077   5.781308819290594   1.651107671695710 
 11.270068248013283   7.954908553610584   1.638862475989980 
 10.020392513426948  10.119737783328796   1.643783354687070 
  8.768826123003693  12.290464572865966   1.644608079376260 
 -7.509055984852631  14.455110717545086   1.655463823838250 
  0.003999424134160   1.440687872593059   1.640883440542335 
 -1.256375126422995   3.606013683329770   1.625474256898065 
 -2.513937424149198   5.782806623230939   1.624813633065000 
 -3.759804657581359   7.954816337924363   1.639483018487910 
 -5.007192222338099  10.119737783328796   1.654793620342860 
 -6.257341756089986  12.288045300308747   1.662755457274215 
 -5.006465054181273  14.454627708832495   1.662755434384260 
  2.504523322588584   1.440374202904349   1.644608017516305 
  1.243736450654898   3.597416980063148   1.610187944171760 
 -0.010917871652873   5.776182362035911   1.602229100832510 
 -1.271711004930173   7.952211300379961   1.617041288174775 
 -2.507370240514616  10.119737783328796   1.649259010090755 
 -3.756717847081600  12.288696991921476   1.664439379387125 
 -2.503611218764016  14.456119616627923   1.654793656552830 
  5.010181008141360   1.441849722111265   1.643783289032070 
  3.758185162871561   3.610370136983774   1.663035449841990 
  2.470684949712334   5.746423936251067   1.737072653437320 
  1.203528866653544   7.939690734063898   1.743978506271705 
  0.000000000000152  10.119737783328796   1.671822452467470 
 -1.253699395355915  12.291208833503960   1.649259063085800 
 -0.005009638152600  14.458308850659099   1.639483098152940 
  7.509845782899267   1.442014660528889   1.638862606384980 
  6.268147703790006   3.598343957146557   1.617595224147255 
  5.041281601272908   5.747535589495667   1.744970230020615 
  2.489755559163862  10.167502928942412   1.743978513981795 
  1.241292783959992  12.304860670374026   1.617041374229775 
  2.498939565416098  14.465362605002522   1.624813664670015 
 10.016538927322889   1.447492083741503   1.651107687985710 
  8.768096925951463   3.608203067389254   1.628079755917530 
  7.522643892469355   5.776554856734376   1.612085157282750 
  6.307091860443792   7.939986253397981   1.744970151150585 
  5.022757170069820  10.166744940999903   1.737072649132290 
  3.756185448733683  12.300997507023899   1.602229035612465 
  5.012878418582863  14.464678711236791   1.625474290287990 
 12.519678426292170   1.442986241128851   1.660809692561655 
 11.263464003408259   3.616791064928110   1.660505568510555 
 10.023219502658684   5.782137107332328   1.628079629812545 
  8.781782537380501   7.952085094613318   1.617595104687285 
  7.516399400515396  10.119737783328796   1.663035579261990 
  6.270377984224640  12.303816881639857   1.610187981281715 
