B Si N                                  
   1.0000000000000000     
     8.7639499999999995  -15.1796066749929999    0.0000000000000000
     8.7639499999999995   15.1796066749929999    0.0000000000000000
     0.0000000000000000    0.0000000000000000   15.0000000000000000
   B    Si   N 
    48     1    49
Selective dynamics
Direct
  0.9050922868194440  0.9523188237694952  0.1093922298424905   T   T   T
  0.9046936923098847  0.0953080543821053  0.1102971314479839   T   T   T
  0.9049408312812796  0.2381998301042701  0.1107206437677787   T   T   T
  0.9046440067614463  0.3808602517227729  0.1100738447797138   T   T   T
  0.9050049830737996  0.5240523502308828  0.1092574983993321   T   T   T
  0.9050157661077635  0.6667018445670909  0.1095855569791380   T   T   T
  0.9051129429431577  0.8096695017212283  0.1096405386250840   T   T   T
  0.0477299664584796  0.9522717569064791  0.1103642549225497   T   T   T
  0.0476828915725203  0.0949094336526151  0.1093922293694893   T   T   T
  0.0470996436737347  0.2375564637831029  0.1083649504598705   T   T   T
  0.0470545551061236  0.3809589238407279  0.1083209088709999   T   T   T
  0.0475191378586803  0.5240462752588374  0.1092988678991942   T   T   T
  0.0476635028152267  0.6667901330252654  0.1103195746895237   T   T   T
  0.0477618257667693  0.8095101252229423  0.1108503638182814   T   T   T
  0.1904916244700595  0.9522399373262399  0.1108503622922843   T   T   T
  0.1903321993147618  0.0948887697648464  0.1096405345010869   T   T   T
  0.1894525934357030  0.2369901313707634  0.1073458629447840   T   T   T
  0.1896383805223017  0.3805225316905982  0.1068152733888338   T   T   T
  0.1893838012538216  0.5238746609607740  0.1078027525449845   T   T   T
  0.1902830968238370  0.6667972610962410  0.1099506006727170   T   T   T
  0.1904486372693705  0.8095530572716231  0.1109626252924748   T   T   T
  0.3332116026797004  0.9523382210187866  0.1103195771035217   T   T   T
  0.3332998694099466  0.0949859738122571  0.1095855526021379   T   T   T
  0.3333072802811788  0.2378434576260448  0.1108690299894663   T   T   T
  0.3302383261077801  0.3785621102895698  0.1158048435624883   T   T   T
  0.3301885251084059  0.5230498328486805  0.1162652337514467   T   T   T
  0.3331946081655705  0.6668070946084208  0.1114548301644981   T   T   T
  0.3332043922237623  0.8097185320191754  0.1099506042057202   T   T   T
  0.4759554121601555  0.9524824430713115  0.1092988732101955   T   T   T
  0.4759493912751146  0.0949968396022049  0.1092575070923322   T   T   T
  0.4761353360120424  0.2370511986370798  0.1078396816098168   T   T   T
  0.4769323661730831  0.3786353436261380  0.1163313486680413   T   T   T
  0.4769519515843299  0.6698133322316119  0.1162652342654533   T   T   T
  0.4761270548292231  0.8106178858141954  0.1078027582819847   T   T   T
  0.6190428151312876  0.9529471293108456  0.1083209109780007   T   T   T
  0.6191414186252211  0.0953576805205426  0.1100738458657144   T   T   T
  0.6190869378647501  0.2377006957191706  0.1085386503945024   T   T   T
  0.6194546633648990  0.3805470708441112  0.1074723438188505   T   T   T
  0.6213662253438823  0.5230693010299319  0.1163313434100393   T   T   T
  0.6214395391654626  0.6697633976082235  0.1158048432754859   T   T   T
  0.6194792114694143  0.8103633888807213  0.1068152690408310   T   T   T
  0.7624452767448897  0.9529020758532453  0.1083649526858660   T   T   T
  0.7618018656567520  0.0950608452527309  0.1107206461707774   T   T   T
  0.7617352505632302  0.2382664546167984  0.1107003712340373   T   T   T
  0.7623011266648249  0.3809148175662408  0.1085386419875029   T   T   T
  0.7629505535388912  0.5238663467949757  0.1078396736458194   T   T   T
  0.7621582011449561  0.6666944002637941  0.1108690386174659   T   T   T
  0.7630115400532409  0.8105491232463288  0.1073458654187806   T   T   T
  0.4761353338896510  0.5238663216573399  0.1698434261385099   T   T   T
  0.9525561277072518  0.9048845587936922  0.1098927970424382   T   T   T
  0.9522953685069406  0.0477063488030538  0.1100385221794164   T   T   T
  0.9520610548454739  0.1903210830998927  0.1102715576996980   T   T   T
  0.9520256063845904  0.3331049541612955  0.1100900629561638   T   T   T
  0.9522284560535000  0.4759074233414768  0.1097086665240426   T   T   T
  0.9524908772278479  0.6190231125327038  0.1096717753324074   T   T   T
  0.9525316499784927  0.7619475107637789  0.1102629710112802   T   T   T
  0.0952401783806367  0.9047615740873497  0.1110077313158541   T   T   T
  0.0951171466443038  0.0474455911077233  0.1098928035394350   T   T   T
  0.0944180558700691  0.1897528024161772  0.1080150865189397   T   T   T
  0.0941312498935084  0.3327217998025678  0.1071273740884119   T   T   T
  0.0943800324641106  0.4759882674422243  0.1080418443003537   T   T   T
  0.0950559835106624  0.6189994305383651  0.1099843749870350   T   T   T
  0.0952588624630917  0.7618828920421338  0.1110174158744201   T   T   T
  0.2381188201188842  0.9047428482949312  0.1110174167664213   T   T   T
  0.2380542186132511  0.0474701189854809  0.1102629635882829   T   T   T
  0.2376792559482874  0.1900686306268070  0.1089637211717675   T   T   T
  0.2359673440275921  0.3316649042250208  0.1066631088795937   T   T   T
  0.2359282209091218  0.4756842824859171  0.1073023960322435   T   T   T
  0.2376984009384279  0.6189979855503660  0.1094682118389793   T   T   T
  0.2380468717698457  0.7619547624251597  0.1105550570151139   T   T   T
  0.3810022405646361  0.9049456422723215  0.1099843791370380   T   T   T
  0.3809786146543128  0.0475108736921504  0.1096717830804070   T   T   T
  0.3809880270610971  0.1901207807482825  0.1090567273814925   T   T   T
  0.3806704559111099  0.3328339059162774  0.1157995447688076   T   T   T
  0.3725905872890068  0.4719774542096179  0.1266334151294418   T   T   T
  0.3807328947019851  0.6192689032569662  0.1164858141245194   T   T   T
  0.3810037529386336  0.7623033059415630  0.1094682164599799   T   T   T
  0.5240134647858193  0.9056215630518730  0.1080418580783529   T   T   T
  0.5240942350075730  0.0477732057065202  0.1097086669690484   T   T   T
  0.5239751579685011  0.1898693869952554  0.1082391573428870   T   T   T
  0.5242424153743411  0.3317384662963584  0.1076744016278447   T   T   T
  0.5278848660964216  0.4721167305285963  0.1269662417620488   T   T   T
  0.5280242050734054  0.6274110948500322  0.1266334167074435   T   T   T
  0.5243175001270840  0.7640736354188824  0.1073023932162407   T   T   T
  0.6672799908094260  0.9058704975795272  0.1071273718754123   T   T   T
  0.6668967155696652  0.0479760478644026  0.1100900614881683   T   T   T
  0.6668634163868007  0.1904017073376683  0.1101740187979526   T   T   T
  0.6671724480643682  0.3328293624846407  0.1074890678713576   T   T   T
  0.6682631978356438  0.4757593006356431  0.1076743812288449   T   T   T
  0.6671677247277199  0.6193312386339019  0.1157995474038058   T   T   T
  0.6683367622289462  0.7640344134404143  0.1066631017485931   T   T   T
  0.8102489100998144  0.9055836591639236  0.1080150868949445   T   T   T
  0.8096806421770931  0.0479406542275595  0.1102715673866977   T   T   T
  0.8095329102970117  0.1904687443949167  0.1114287932663775   T   T   T
  0.8096000307703589  0.3331382687742137  0.1101740128579572   T   T   T
  0.8101325045597542  0.4760265964815198  0.1082391368318848   T   T   T
  0.8098809406187036  0.6190136769858835  0.1090567427344949   T   T   T
  0.8099330314672376  0.7623224358357054  0.1089637324677627   T   T   T

  0.00000000E+00  0.00000000E+00  0.00000000E+00
  0.00000000E+00  0.00000000E+00  0.00000000E+00
  0.00000000E+00  0.00000000E+00  0.00000000E+00
  0.00000000E+00  0.00000000E+00  0.00000000E+00
  0.00000000E+00  0.00000000E+00  0.00000000E+00
  0.00000000E+00  0.00000000E+00  0.00000000E+00
  0.00000000E+00  0.00000000E+00  0.00000000E+00
  0.00000000E+00  0.00000000E+00  0.00000000E+00
  0.00000000E+00  0.00000000E+00  0.00000000E+00
  0.00000000E+00  0.00000000E+00  0.00000000E+00
  0.00000000E+00  0.00000000E+00  0.00000000E+00
  0.00000000E+00  0.00000000E+00  0.00000000E+00
  0.00000000E+00  0.00000000E+00  0.00000000E+00
  0.00000000E+00  0.00000000E+00  0.00000000E+00
  0.00000000E+00  0.00000000E+00  0.00000000E+00
  0.00000000E+00  0.00000000E+00  0.00000000E+00
  0.00000000E+00  0.00000000E+00  0.00000000E+00
  0.00000000E+00  0.00000000E+00  0.00000000E+00
  0.00000000E+00  0.00000000E+00  0.00000000E+00
  0.00000000E+00  0.00000000E+00  0.00000000E+00
  0.00000000E+00  0.00000000E+00  0.00000000E+00
  0.00000000E+00  0.00000000E+00  0.00000000E+00
  0.00000000E+00  0.00000000E+00  0.00000000E+00
  0.00000000E+00  0.00000000E+00  0.00000000E+00
  0.00000000E+00  0.00000000E+00  0.00000000E+00
  0.00000000E+00  0.00000000E+00  0.00000000E+00
  0.00000000E+00  0.00000000E+00  0.00000000E+00
  0.00000000E+00  0.00000000E+00  0.00000000E+00
  0.00000000E+00  0.00000000E+00  0.00000000E+00
  0.00000000E+00  0.00000000E+00  0.00000000E+00
  0.00000000E+00  0.00000000E+00  0.00000000E+00
  0.00000000E+00  0.00000000E+00  0.00000000E+00
  0.00000000E+00  0.00000000E+00  0.00000000E+00
  0.00000000E+00  0.00000000E+00  0.00000000E+00
  0.00000000E+00  0.00000000E+00  0.00000000E+00
  0.00000000E+00  0.00000000E+00  0.00000000E+00
  0.00000000E+00  0.00000000E+00  0.00000000E+00
  0.00000000E+00  0.00000000E+00  0.00000000E+00
  0.00000000E+00  0.00000000E+00  0.00000000E+00
  0.00000000E+00  0.00000000E+00  0.00000000E+00
  0.00000000E+00  0.00000000E+00  0.00000000E+00
  0.00000000E+00  0.00000000E+00  0.00000000E+00
  0.00000000E+00  0.00000000E+00  0.00000000E+00
  0.00000000E+00  0.00000000E+00  0.00000000E+00
  0.00000000E+00  0.00000000E+00  0.00000000E+00
  0.00000000E+00  0.00000000E+00  0.00000000E+00
  0.00000000E+00  0.00000000E+00  0.00000000E+00
  0.00000000E+00  0.00000000E+00  0.00000000E+00
  0.00000000E+00  0.00000000E+00  0.00000000E+00
  0.00000000E+00  0.00000000E+00  0.00000000E+00
  0.00000000E+00  0.00000000E+00  0.00000000E+00
  0.00000000E+00  0.00000000E+00  0.00000000E+00
  0.00000000E+00  0.00000000E+00  0.00000000E+00
  0.00000000E+00  0.00000000E+00  0.00000000E+00
  0.00000000E+00  0.00000000E+00  0.00000000E+00
  0.00000000E+00  0.00000000E+00  0.00000000E+00
  0.00000000E+00  0.00000000E+00  0.00000000E+00
  0.00000000E+00  0.00000000E+00  0.00000000E+00
  0.00000000E+00  0.00000000E+00  0.00000000E+00
  0.00000000E+00  0.00000000E+00  0.00000000E+00
  0.00000000E+00  0.00000000E+00  0.00000000E+00
  0.00000000E+00  0.00000000E+00  0.00000000E+00
  0.00000000E+00  0.00000000E+00  0.00000000E+00
  0.00000000E+00  0.00000000E+00  0.00000000E+00
  0.00000000E+00  0.00000000E+00  0.00000000E+00
  0.00000000E+00  0.00000000E+00  0.00000000E+00
  0.00000000E+00  0.00000000E+00  0.00000000E+00
  0.00000000E+00  0.00000000E+00  0.00000000E+00
  0.00000000E+00  0.00000000E+00  0.00000000E+00
  0.00000000E+00  0.00000000E+00  0.00000000E+00
  0.00000000E+00  0.00000000E+00  0.00000000E+00
  0.00000000E+00  0.00000000E+00  0.00000000E+00
  0.00000000E+00  0.00000000E+00  0.00000000E+00
  0.00000000E+00  0.00000000E+00  0.00000000E+00
  0.00000000E+00  0.00000000E+00  0.00000000E+00
  0.00000000E+00  0.00000000E+00  0.00000000E+00
  0.00000000E+00  0.00000000E+00  0.00000000E+00
  0.00000000E+00  0.00000000E+00  0.00000000E+00
  0.00000000E+00  0.00000000E+00  0.00000000E+00
  0.00000000E+00  0.00000000E+00  0.00000000E+00
  0.00000000E+00  0.00000000E+00  0.00000000E+00
  0.00000000E+00  0.00000000E+00  0.00000000E+00
  0.00000000E+00  0.00000000E+00  0.00000000E+00
  0.00000000E+00  0.00000000E+00  0.00000000E+00
  0.00000000E+00  0.00000000E+00  0.00000000E+00
  0.00000000E+00  0.00000000E+00  0.00000000E+00
  0.00000000E+00  0.00000000E+00  0.00000000E+00
  0.00000000E+00  0.00000000E+00  0.00000000E+00
  0.00000000E+00  0.00000000E+00  0.00000000E+00
  0.00000000E+00  0.00000000E+00  0.00000000E+00
  0.00000000E+00  0.00000000E+00  0.00000000E+00
  0.00000000E+00  0.00000000E+00  0.00000000E+00
  0.00000000E+00  0.00000000E+00  0.00000000E+00
  0.00000000E+00  0.00000000E+00  0.00000000E+00
  0.00000000E+00  0.00000000E+00  0.00000000E+00
  0.00000000E+00  0.00000000E+00  0.00000000E+00
  0.00000000E+00  0.00000000E+00  0.00000000E+00
  0.00000000E+00  0.00000000E+00  0.00000000E+00
