 B N P 
 1.0
 17.527899999999772   0.000000000000000   0.000000000000000
 -8.763949999999658  15.179606674993195   0.000000000000000
  0.000000000000001   0.000000000000002  15.000000000000000
 B N P 
  48  48   1
Cartesian
  7.556438382598905  14.453219205697593   1.661755887916170 
 15.089265530811396   1.451403718689688   1.662248666641050 
 13.844246447979762   3.617449156461168   1.661567458161825 
 12.582454519173721   5.780376169151574   1.660578020645025 
 11.282388209039688   7.938406879985521   1.661212115159415 
  9.996494420555353  10.088904549023432   1.661344715051745 
  8.760512509447805  12.247957417085107   1.660973140797930 
 -7.485099128060604  14.448999290060451   1.660850458909320 
  0.056838078573407   1.444268433999071   1.661535818114295 
 -1.180544279948853   3.623655075633604   1.661751763645650 
 -2.448290137277239   5.793053325516465   1.660667043534270 
 -3.752991349779857   7.960675946731429   1.660550534940390 
 -5.018899625500602  10.119737783328796   1.661427107013645 
 -6.262035099370625  12.277776312676355   1.660882018891365 
 -4.987257577119074  14.459242293063792   1.660978538868915 
  2.564104009500388   1.458670850496460   1.660447805083590 
  1.323584859272516   3.602055200844423   1.661055829911675 
  0.069217783058230   5.805626286699480   1.662266366899740 
 -1.283047337195688   7.984045081873833   1.660948588178160 
 -2.523008246100638  10.147109514538654   1.661165972883240 
 -3.759917146321068  12.300611783241930   1.661149708477125 
 -2.482469769216272  14.470612596603926   1.661272181230380 
  5.066785420252860   1.439262502082384   1.660705227695175 
  3.896405044582381   3.624324974563315   1.661067688690395 
  2.677705287256368   5.600629386876796   1.662578236754070 
  1.092657463386165   8.124293691910037   1.662052751582910 
 -0.053267559277659  10.218657825332551   1.661386989936645 
 -1.263253859325083  12.335496210280942   1.662031154111715 
  0.030378460959915  14.481078814044150   1.662015040538940 
  7.572061439296037   1.442987015514436   1.662033154658625 
  6.359511122306534   3.600911851238648   1.661040921273375 
  5.301958782253096   5.953479902233031   1.660989104982150 
  2.467308271798936  10.227816797241317   1.660657619666745 
  1.256284899096445  12.349155067445665   1.661637625671555 
  2.552525938081596  14.475955721785898   1.661591959231740 
 10.083713635634329   1.442825736519292   1.661493802202655 
  8.856512754183743   3.586552991787096   1.661343705549255 
  7.644131280792505   5.722026593659231   1.661726738051685 
  6.135784940367649   7.586629598998644   1.661020175256675 
  5.061077015979385  10.148979412226218   1.659571923050340 
  3.792648124382130  12.320329189920136   1.661235375173730 
  5.063058755981167  14.466338764758136   1.662061816403160 
 12.588692411567850   1.449887348858387   1.661508998640210 
 11.347509065859519   3.606638204790735   1.660974631366170 
 10.098080425312764   5.762533308459816   1.660965988645725 
  8.767837007301683   7.900505592146207   1.661979376599840 
  7.455719992170414  10.012698345959729   1.660495119855705 
  6.297698874623481  12.287663677956333   1.660802604059430 
  8.790821165937871  13.712888406904993   1.660929653674245 
 16.332823764436196   0.722247565910540   1.661880564003930 
 15.095919216536444   2.898057790010658   1.661939462864460 
 13.840357169944301   5.059868891664398   1.660832775977550 
 12.545690082657273   7.225284009407083   1.660627176596220 
 11.268741384093456   9.386450288368856   1.661181769470960 
 10.018764987764662  11.543444064654508   1.660776040061985 
 -6.239548461089897  13.726750365598459   1.660540049994360 
  1.303332446393513   0.722475616674316   1.660722208483035 
  0.063569022237844   2.888462177052433   1.660886097197505 
 -1.184895143272472   5.074145921813152   1.660829014796685 
 -2.503841941742099   7.241012506802656   1.659874184660460 
 -3.761689950943390   9.407852290342570   1.661028412416240 
 -5.007262298339039  11.566519988329533   1.660876502031525 
 -3.738354361268298  13.741793352827109   1.660794264454710 
  3.802154318171028   0.720208827900846   1.660596074628315 
  2.592860074114178   2.905502253402724   1.659999652132365 
  1.325367514754443   5.042284780466908   1.662300792059055 
 -0.045725009359635   7.266217966286093   1.662489482745060 
 -1.275985704002761   9.439078793759442   1.660322551260630 
 -2.508652887791452  11.591969357769585   1.661390406120315 
 -1.232806512442519  13.765901728081246   1.661648254040235 
  6.312548837988603   0.719874793142315   1.661109273675060 
  5.106549209964389   2.861473438440314   1.660096535925195 
  3.970647510524596   5.055020188959130   1.661825947753995 
  1.184946983097100   9.541834224998915   1.661506105076520 
 -0.015401051501107  11.644772244243812   1.661366656654110 
  1.283205437463367  13.777508204921222   1.661575895937270 
  8.823325102988534   0.729897229923329   1.661664672933975 
  7.605091129428954   2.867245467974563   1.661475330473685 
  6.411917280022837   5.010207486120778   1.660775295123510 
  3.922406927952354   8.257119558983328   1.655668859209035 
  3.735952205221878   9.581724615822392   1.658489259239415 
  2.506962394440779  11.651971605813692   1.660826591105235 
  3.803378511786476  13.760298206953321   1.661587669020945 
 11.335299298155828   0.730928533308644   1.661097163676445 
 10.107015268429086   2.873282813689230   1.661058272643015 
  8.887848454785646   5.011940630967985   1.661037268571580 
  7.567044101323981   7.146880055563774   1.661652962838450 
  6.201782999398515   9.265220822307286   1.659470577311295 
  5.043626779199188  11.598420290932330   1.660256024641095 
  6.306794164884237  13.738943706811522   1.661599600063140 
 13.837577741375952   0.730823602135509   1.661828289640710 
 12.599401507538445   2.890036019453014   1.661216307135270 
 11.352868857792537   5.046125221306437   1.660290883508400 
 10.056014498167515   7.203710155776101   1.661197418273115 
  8.756862066003389   9.355196871746257   1.661280071094030 
  7.509777087884919  11.510929630698355   1.660515755605155 
  2.647770363831166   7.351032092816154   1.652690405716890 
