Species order: X N B                    
   2.51242800000000     
     5.9449720136058266    0.0000000000000000    0.0000000000000000
    -2.9724860068029120    5.1484967885702053   -0.0000000000000001
     0.0000000000000000    0.0000000000000009    5.3101128803662583
   Sb   N    B 
     1   143   143
Direct
  0.4840365118018791  0.4086849225676041  0.3750000000000000
  0.1111006531338949  0.0555188664890794  0.1251626615863054
  0.6111070501937558  0.5555748845935965  0.1259746258771855
  0.4444283208737514  0.0555178616244865  0.1252678312500073
  0.9444548168226226  0.5555704558938178  0.1253295940636794
  0.7777726916911708  0.0555530125122535  0.1251255201886005
  0.1111164201818821  0.7222248767576054  0.6248217893906871
  0.4444283208737514  0.7222437925826007  0.6247321687499929
  0.2777421034994238  0.2221738781126127  0.6247749369943025
  0.7777741220695915  0.7222055193766942  0.6244413029270677
  0.6110868071561532  0.2222020275754682  0.6245311539041628
  0.9444493083552998  0.2222371307277413  0.6248540045973988
  0.2777711761285799  0.7222352173553406  0.1251846557983380
  0.1111178271922646  0.2222255802627967  0.1251860355290365
  0.4444297471290060  0.2221819391272294  0.1255692634654765
  0.6110868071561532  0.7222181129140127  0.1254688460958377
  0.9444548168226226  0.7222176942621403  0.1253295940636794
  0.7777692241953403  0.2222315847552579  0.1252083728752638
  0.1111108915785842  0.8888646593066728  0.6248202826688619
  0.4444321962859086  0.8888827648096193  0.6248423257153026
  0.2777421034994238  0.3889015587201399  0.6247749369943025
  0.6111070501937558  0.3888654989334882  0.6240253741228141
  0.7777692241953403  0.8888709727734121  0.6247916271247353
  0.9444466982596772  0.3889129353083046  0.6247954783034441
  0.1111006531338949  0.3889151199781441  0.1251626615863054
  0.2777711761285799  0.8888692921065678  0.1251846557983380
  0.6110948007623349  0.8888866847477853  0.1251724214496250
  0.4443677629569447  0.3888505481451366  0.1268197838949785
  0.9444466982596772  0.8888670962847024  0.1252045216965554
  0.7777741220695915  0.3889019360262259  0.1255586970729324
  0.2777660913739159  0.5555851133014543  0.6247333121676807
  0.1111006531338949  0.0555188664890794  0.6248373384136939
  0.6111070501937558  0.5555748845935965  0.6240253741228141
  0.4444283208737514  0.0555178616244865  0.6247321687499929
  0.9444548168226226  0.5555704558938178  0.6246704059363208
  0.1111108915785842  0.5555795656052404  0.1251797173311377
  0.7777726916911708  0.0555530125122535  0.6248744798113995
  0.2777660913739159  0.0555143114057982  0.1252666878323187
  0.4444297471290060  0.5555811413351119  0.1255692634654765
  0.7777818775595255  0.5555576054464304  0.1257719339270006
  0.6110948007623349  0.0555414493478781  0.1251724214496250
  0.4444297471290060  0.5555811413351119  0.6244307365345233
  0.9444493083552998  0.0555455109608952  0.1251459954026014
  0.2777711761285799  0.7222352173553406  0.6248153442016625
  0.1111178271922646  0.2222255802627967  0.6248139644709625
  0.4444297471290060  0.2221819391272294  0.6244307365345233
  0.6110868071561532  0.7222181129140128  0.6245311539041628
  0.9444548168226226  0.7222176942621403  0.6246704059363208
  0.7777692241953403  0.2222315847552579  0.6247916271247353
  0.1111164201818821  0.7222248767576054  0.1251782106093122
  0.4444283208737514  0.7222437925826007  0.1252678312500073
  0.2777421034994238  0.2221738781126127  0.1252250630056981
  0.7777741220695915  0.7222055193766942  0.1255586970729324
  0.6110868071561532  0.2222020275754682  0.1254688460958377
  0.9444493083552998  0.2222371307277413  0.1251459954026014
  0.1111006531338949  0.3889151199781441  0.6248373384136939
  0.2777711761285799  0.8888692921065678  0.6248153442016625
  0.6110948007623349  0.8888866847477853  0.6248275785503743
  0.4443677629569449  0.3888505481451366  0.6231802161050206
  0.9444466982596772  0.8888670962847024  0.6247954783034441
  0.1111108915785842  0.8888646593066728  0.1251797173311377
  0.7777741220695915  0.3889019360262259  0.6244413029270677
  0.4444321962859086  0.8888827648096193  0.1251576742846971
  0.2777421034994238  0.3889015587201399  0.1252250630056981
  0.2777660913739159  0.5555851133014543  0.1252666878323187
  0.6111070501937558  0.3888654989334882  0.1259746258771855
  0.7777692241953403  0.8888709727734121  0.1252083728752638
  0.9444466982596772  0.3889129353083046  0.1252045216965554
  0.1111108915785842  0.5555795656052404  0.6248202826688619
  0.2777660913739159  0.0555143114057982  0.6247333121676807
  0.7777818775595255  0.5555576054464304  0.6242280660729987
  0.6110948007623349  0.0555414493478781  0.6248275785503743
  0.9444493083552998  0.0555455109608952  0.6248540045973988
  0.0559992717239279  0.1114512837481782  0.3750000000000000
  0.5532083963570102  0.6154140439236343  0.3750000000000000
  0.3862922917913114  0.1038123043440193  0.3750000000000000
  0.8874692046773524  0.6104012690053480  0.3750000000000000
  0.7225013936920365  0.1106505197536504  0.3750000000000000
  0.0555528656589592  0.7777810022689725  0.8750000000000000
  0.3889026090955951  0.7777822865259290  0.8750000000000000
  0.2222241139935476  0.2777787236634420  0.8750000000000000
  0.7222306390892378  0.7777857098369737  0.8750000000000000
  0.5555646064681025  0.2777844448358241  0.8750000000000000
  0.8888963032004190  0.2777776467213560  0.8750000000000000
  0.2200232297855960  0.7766782815594657  0.3750000000000000
  0.0559992717239279  0.2778813213090856  0.3750000000000000
  0.3857668462822131  0.2646689301994967  0.3750000000000000
  0.5548219826282925  0.7800519625049844  0.3750000000000000
  0.8885447269243155  0.7780873574272839  0.3750000000000000
  0.7223385826096647  0.2763626249960794  0.3750000000000000
  0.0555555206202395  0.9444503416268080  0.8750000000000000
  0.3889026090955951  0.9444536559030009  0.8750000000000000
  0.2222241225080945  0.4444397284695440  0.8750000000000000
  0.5555585566745849  0.4444459450039567  0.8750000000000000
  0.7222329834055629  0.9444517301970027  0.8750000000000000
  0.8888908010720653  0.4444394738766686  0.8750000000000000
  0.0545697171022666  0.4441805448536908  0.3750000000000000
  0.2198604562034047  0.9418916333601828  0.3750000000000000
  0.5550564555176114  0.9441948944254699  0.3750000000000000
  0.3857668462822131  0.4544312494160523  0.3750000000000000
  0.8891315825284086  0.9451145415408777  0.3750000000000000
  0.7227341584125703  0.4443215879691327  0.3750000000000000
  0.2222266917862621  0.6111063831775304  0.8750000000000000
  0.0555575634045455  0.1111139417831240  0.8750000000000000
  0.5555646064681025  0.6111134949656150  0.8750000000000000
  0.3889008829697140  0.1111237886178932  0.8750000000000000
  0.8888864312282785  0.6111098822808110  0.8750000000000000
  0.0536304697054140  0.6103683749525273  0.3750000000000000
  0.7222329834055629  0.1111145865418949  0.8750000000000000
  0.2207556214375862  0.1087530297841329  0.3750000000000000
  0.3862922917913115  0.6158133207806352  0.3750000000000000
  0.7227341584125703  0.6117459037767724  0.3750000000000000
  0.5548219826282925  0.1081033534566440  0.3750000000000000
  0.3889008829697140  0.6111104276851637  0.8750000000000000
  0.8893868306797875  0.1113600820065650  0.3750000000000000
  0.2222262177149004  0.7777797755241185  0.8750000000000000
  0.0555575634045455  0.2777769549547568  0.8750000000000000
  0.3888981729379525  0.2777873362907560  0.8750000000000000
  0.5555686613862028  0.7777844354527923  0.8750000000000000
  0.8888908010720653  0.7777846605287325  0.8750000000000000
  0.7222306390892378  0.2777782625855987  0.8750000000000000
  0.0536304697054140  0.7765954280862227  0.3750000000000000
  0.3871730948961440  0.7786520747279686  0.3750000000000000
  0.2236835713571805  0.2785084523452578  0.3750000000000000
  0.7223385826096647  0.7793092909469197  0.3750000000000000
  0.5532083963570102  0.2711276857667108  0.3750000000000000
  0.8891315825284086  0.2773503743208667  0.3750000000000000
  0.0555555206202395  0.4444385123267594  0.8750000000000000
  0.2222266917862621  0.9444536419420675  0.8750000000000000
  0.5555690183410943  0.9444511758372108  0.8750000000000000
  0.3888981729379525  0.4444441699805326  0.8750000000000000
  0.8888963032004190  0.9444519898123995  0.8750000000000000
  0.0545697171022666  0.9437225055819045  0.3750000000000000
  0.7222242223687813  0.4444434881236080  0.8750000000000000
  0.3871730948961440  0.9418543535015104  0.3750000000000000
  0.2207556214375863  0.4453359249867895  0.3750000000000000
  0.2198604562034047  0.6113021561765577  0.3750000000000000
  0.7225013936920365  0.9451842072717220  0.3750000000000000
  0.8885447269243155  0.4437907028303668  0.3750000000000000
  0.0555528656589592  0.6111051967233238  0.8750000000000000
  0.2222241225080945  0.1111177273718861  0.8750000000000000
  0.7222242223687813  0.6111140675785105  0.8750000000000000
  0.5555686613862028  0.1111175592667458  0.8750000000000000
  0.8888974138538347  0.1111153735935890  0.8750000000000000
  0.1097784753393580  0.0544232518219673  0.3750000000000000
  0.6200615195024591  0.5778686741364637  0.3750000000000000
  0.4433764812026397  0.0508291479589217  0.3750000000000000
  0.9437298866854409  0.5549042972462432  0.3750000000000000
  0.7786627825321136  0.0559980579327248  0.3750000000000000
  0.1111269024379671  0.7222301178856473  0.8750000000000000
  0.4444453180691968  0.7222656215511681  0.8750000000000000
  0.2776882428387624  0.2221636608647323  0.8750000000000000
  0.7778433292182144  0.7223127069717559  0.8750000000000000
  0.6111466869820256  0.2221665295773362  0.8750000000000000
  0.9444461105060330  0.2222069778941619  0.8750000000000000
  0.2758567422708272  0.7221606789346852  0.3750000000000000
  0.1114234218748657  0.2223783776040972  0.3750000000000000
  0.4406700744760153  0.2107999207372776  0.3750000000000000
  0.6123343011327066  0.7288405122378641  0.3750000000000000
  0.9437298866854409  0.7221589227725340  0.3750000000000000
  0.7787869003547370  0.2209877773237876  0.3750000000000000
  0.1111118095515188  0.8888976923055786  0.8750000000000000
  0.4444566561489486  0.8888949947411393  0.8750000000000000
  0.2776882428387624  0.3888579153073589  0.8750000000000000
  0.6111498908482798  0.3888613778212048  0.8750000000000000
  0.7778229293781380  0.8889634394419884  0.8750000000000000
  0.9444719457506349  0.3888661677374685  0.8750000000000000
  0.1097784753393580  0.3886885568507192  0.3750000000000000
  0.2758567422708272  0.8870293966694702  0.3750000000000000
  0.6117290359763928  0.8908772371746035  0.3750000000000000
  0.9443455276654279  0.8896868597887956  0.3750000000000000
  0.7796951891017340  0.3867396871512666  0.3750000000000000
  0.2777380868790498  0.5555567688381210  0.8750000000000000
  0.1110722219589779  0.0555410087101802  0.8750000000000000
  0.6111498908482798  0.5556218463604027  0.8750000000000000
  0.4444453180691968  0.0555130298513640  0.8750000000000000
  0.9444955922166641  0.5555608836955114  0.8750000000000000
  0.1091994988499932  0.5550900104189784  0.3750000000000000
  0.7778106048039359  0.0555719690686358  0.8750000000000000
  0.2748904328345087  0.0516098189586870  0.3750000000000000
  0.4406700744760153  0.5632034870720738  0.3750000000000000
  0.7789589636411227  0.5561461484872302  0.3750000000000000
  0.6117290359763928  0.0541851321351180  0.3750000000000000
  0.4444152047189603  0.5555935772914287  0.8750000000000000
  0.9450028636902732  0.0562735866010505  0.3750000000000000
  0.2777735606637680  0.7222295489282963  0.8750000000000000
  0.1110490278399760  0.2221911805866525  0.8750000000000000
  0.4444152047189603  0.2221549607608681  0.8750000000000000
  0.6111466869820256  0.7223134907380182  0.8750000000000000
  0.9444955922166641  0.7222680418544901  0.8750000000000000
  0.7778229293781380  0.2221928232694785  0.8750000000000000
  0.1093259380736425  0.7213296357034850  0.3750000000000000
  0.4433764812026397  0.7258806665770541  0.3750000000000000
  0.2749914661331231  0.2188438072408080  0.3750000000000000
  0.7796951891017342  0.7262888352837972  0.3750000000000000
  0.6123343011327066  0.2168271222281720  0.3750000000000000
  0.9450028636902732  0.2220626104225584  0.3750000000000000
  0.1110722219589779  0.3888645465821264  0.8750000000000000
  0.2777735606637680  0.8888773450688005  0.8750000000000000
  0.6111440259926960  0.8889377490987997  0.8750000000000000
  0.4443869508230719  0.3888601420782004  0.8750000000000000
  0.9444719457506349  0.8889391113464952  0.8750000000000000
  0.1091994988499932  0.8874428217643441  0.3750000000000000
  0.7778433292182144  0.3888639555797876  0.8750000000000000
  0.4437746300543746  0.8885539816938519  0.3750000000000000
  0.2749914661331231  0.3894809922256444  0.3750000000000000
  0.2748904328345087  0.5566139472091566  0.3750000000000000
  0.6200615195024591  0.3755261786993254  0.3750000000000000
  0.7787869003547370  0.8911324563642783  0.3750000000000000
  0.9443455276654279  0.3879920012099606  0.3750000000000000
  0.1111118095515188  0.5555474505792685  0.8750000000000000
  0.2777380868790498  0.0555146513742651  0.8750000000000000
  0.7778520998649229  0.5555927165991301  0.8750000000000000
  0.6111440259926960  0.0555396102272259  0.8750000000000000
  0.9444461105060330  0.0555724659452065  0.8750000000000000
  0.0555050711645907  0.1110558663324574  0.1247702534245971
  0.5554862268389161  0.6113466883605058  0.1245005930024546
  0.3887036764093424  0.1107568088856350  0.1247206423664347
  0.8891857089303477  0.6112595211318452  0.1247822823125142
  0.7222321492463125  0.1110517297940526  0.1247164941959815
  0.0556906772424465  0.7778256478809227  0.6252229732160172
  0.3887934582663586  0.7778320084828638  0.6252422230451041
  0.2220064221429969  0.2776698777381664  0.6253595290011025
  0.7223183061877474  0.7779754019848635  0.6253148044071755
  0.5554862268389161  0.2774728718117458  0.6254994069975455
  0.8889596863716523  0.2777791861194793  0.6252542408303179
  0.2222186085799095  0.7777759709566228  0.1247871353316743
  0.0555050711645907  0.2777825381654690  0.1247702534245971
  0.3885050981336662  0.2772866435106510  0.1247529607131697
  0.5554808159573208  0.7779333203645588  0.1246981666919882
  0.8891012881900308  0.7779264130885379  0.1247607218564067
  0.7223183061877474  0.2776762375362211  0.1246851955928243
  0.0555867956156981  0.9444109883323342  0.6252333986628339
  0.3887934582663586  0.9442947831168291  0.6252422230451041
  0.2220463155527111  0.4445144987236705  0.6252955588147042
  0.5557019987605187  0.4445176660469237  0.6252492407582392
  0.7222321492463125  0.9445137527855963  0.6252835058040177
  0.8891012881900308  0.4445082084348277  0.6252392781435929
  0.0555867956156981  0.4445091406166921  0.1247666013371656
  0.2221663008739893  0.9442992515949661  0.1247916828921721
  0.5554935515247734  0.9444134424290509  0.1247204769528159
  0.3885050981336662  0.4445517879563518  0.1247529607131697
  0.8889596863716523  0.9445138335855086  0.1247457591696809
  0.7225070663216725  0.4445076805467691  0.1246687548796355
  0.2221663008739893  0.6112003826123583  0.6252083171078279
  0.0555050711645907  0.1110558663324574  0.6252297465754024
  0.5554862268389161  0.6113466883605058  0.6254994069975455
  0.3887036764093424  0.1107568088856350  0.6252793576335649
  0.8891857089303477  0.6112595211318452  0.6252177176874858
  0.0556906772424466  0.6111983626948593  0.1247770267839828
  0.7222321492463125  0.1110517297940526  0.6252835058040177
  0.2220463155527111  0.1108651501623764  0.1247044411852961
  0.3887036764093424  0.6112802008570496  0.1247206423664347
  0.7225070663216725  0.6113327191082382  0.1246687548796355
  0.5554808159573208  0.1108808289260965  0.1246981666919882
  0.3887036764093424  0.6112802008570496  0.6252793576335649
  0.8889063126920485  0.1111198230126953  0.1247628134118532
  0.2222186085799095  0.7777759709566228  0.6252128646683253
  0.0555050711645907  0.2777825381654690  0.6252297465754024
  0.3885050981336662  0.2772866435106507  0.6252470392868302
  0.5554808159573208  0.7779333203645588  0.6253018333080114
  0.8891012881900308  0.7779264130885379  0.6252392781435929
  0.7223183061877474  0.2776762375362211  0.6253148044071755
  0.0556906772424466  0.7778256478809227  0.1247770267839828
  0.3887934582663586  0.7778320084828638  0.1247577769548955
  0.2220064221429969  0.2776698777381664  0.1246404709988976
  0.7223183061877474  0.7779754019848635  0.1246851955928243
  0.5554862268389161  0.2774728718117458  0.1245005930024546
  0.8889596863716523  0.2777791861194793  0.1247457591696809
  0.0555867956156981  0.4445091406166921  0.6252333986628339
  0.2221663008739893  0.9442992515949661  0.6252083171078279
  0.5554935515247734  0.9444134424290509  0.6252795230471832
  0.3885050981336662  0.4445517879563518  0.6252470392868302
  0.8889596863716523  0.9445138335855086  0.6252542408303179
  0.0555867956156981  0.9444109883323342  0.1247666013371656
  0.7225070663216725  0.4445076805467691  0.6253312451203648
  0.3887934582663586  0.9442947831168291  0.1247577769548955
  0.2220463155527111  0.4445144987236705  0.1247044411852961
  0.2221663008739893  0.6112003826123583  0.1247916828921721
  0.5557019987605187  0.4445176660469237  0.1247507592417614
  0.7222321492463125  0.9445137527855963  0.1247164941959815
  0.8891012881900308  0.4445082084348277  0.1247607218564067
  0.0556906772424465  0.6111983626948593  0.6252229732160172
  0.2220463155527111  0.1108651501623764  0.6252955588147042
  0.7225070663216725  0.6113327191082382  0.6253312451203648
  0.5554808159573208  0.1108808289260964  0.6253018333080118
  0.8889063126920485  0.1111198230126953  0.6252371865881461
 
  0.00000000E+00  0.00000000E+00  0.00000000E+00
  0.00000000E+00  0.00000000E+00  0.00000000E+00
  0.00000000E+00  0.00000000E+00  0.00000000E+00
  0.00000000E+00  0.00000000E+00  0.00000000E+00
  0.00000000E+00  0.00000000E+00  0.00000000E+00
  0.00000000E+00  0.00000000E+00  0.00000000E+00
  0.00000000E+00  0.00000000E+00  0.00000000E+00
  0.00000000E+00  0.00000000E+00  0.00000000E+00
  0.00000000E+00  0.00000000E+00  0.00000000E+00
  0.00000000E+00  0.00000000E+00  0.00000000E+00
  0.00000000E+00  0.00000000E+00  0.00000000E+00
  0.00000000E+00  0.00000000E+00  0.00000000E+00
  0.00000000E+00  0.00000000E+00  0.00000000E+00
  0.00000000E+00  0.00000000E+00  0.00000000E+00
  0.00000000E+00  0.00000000E+00  0.00000000E+00
  0.00000000E+00  0.00000000E+00  0.00000000E+00
  0.00000000E+00  0.00000000E+00  0.00000000E+00
  0.00000000E+00  0.00000000E+00  0.00000000E+00
  0.00000000E+00  0.00000000E+00  0.00000000E+00
  0.00000000E+00  0.00000000E+00  0.00000000E+00
  0.00000000E+00  0.00000000E+00  0.00000000E+00
  0.00000000E+00  0.00000000E+00  0.00000000E+00
  0.00000000E+00  0.00000000E+00  0.00000000E+00
  0.00000000E+00  0.00000000E+00  0.00000000E+00
  0.00000000E+00  0.00000000E+00  0.00000000E+00
  0.00000000E+00  0.00000000E+00  0.00000000E+00
  0.00000000E+00  0.00000000E+00  0.00000000E+00
  0.00000000E+00  0.00000000E+00  0.00000000E+00
  0.00000000E+00  0.00000000E+00  0.00000000E+00
  0.00000000E+00  0.00000000E+00  0.00000000E+00
  0.00000000E+00  0.00000000E+00  0.00000000E+00
  0.00000000E+00  0.00000000E+00  0.00000000E+00
  0.00000000E+00  0.00000000E+00  0.00000000E+00
  0.00000000E+00  0.00000000E+00  0.00000000E+00
  0.00000000E+00  0.00000000E+00  0.00000000E+00
  0.00000000E+00  0.00000000E+00  0.00000000E+00
  0.00000000E+00  0.00000000E+00  0.00000000E+00
  0.00000000E+00  0.00000000E+00  0.00000000E+00
  0.00000000E+00  0.00000000E+00  0.00000000E+00
  0.00000000E+00  0.00000000E+00  0.00000000E+00
  0.00000000E+00  0.00000000E+00  0.00000000E+00
  0.00000000E+00  0.00000000E+00  0.00000000E+00
  0.00000000E+00  0.00000000E+00  0.00000000E+00
  0.00000000E+00  0.00000000E+00  0.00000000E+00
  0.00000000E+00  0.00000000E+00  0.00000000E+00
  0.00000000E+00  0.00000000E+00  0.00000000E+00
  0.00000000E+00  0.00000000E+00  0.00000000E+00
  0.00000000E+00  0.00000000E+00  0.00000000E+00
  0.00000000E+00  0.00000000E+00  0.00000000E+00
  0.00000000E+00  0.00000000E+00  0.00000000E+00
  0.00000000E+00  0.00000000E+00  0.00000000E+00
  0.00000000E+00  0.00000000E+00  0.00000000E+00
  0.00000000E+00  0.00000000E+00  0.00000000E+00
  0.00000000E+00  0.00000000E+00  0.00000000E+00
  0.00000000E+00  0.00000000E+00  0.00000000E+00
  0.00000000E+00  0.00000000E+00  0.00000000E+00
  0.00000000E+00  0.00000000E+00  0.00000000E+00
  0.00000000E+00  0.00000000E+00  0.00000000E+00
  0.00000000E+00  0.00000000E+00  0.00000000E+00
  0.00000000E+00  0.00000000E+00  0.00000000E+00
  0.00000000E+00  0.00000000E+00  0.00000000E+00
  0.00000000E+00  0.00000000E+00  0.00000000E+00
  0.00000000E+00  0.00000000E+00  0.00000000E+00
  0.00000000E+00  0.00000000E+00  0.00000000E+00
  0.00000000E+00  0.00000000E+00  0.00000000E+00
  0.00000000E+00  0.00000000E+00  0.00000000E+00
  0.00000000E+00  0.00000000E+00  0.00000000E+00
  0.00000000E+00  0.00000000E+00  0.00000000E+00
  0.00000000E+00  0.00000000E+00  0.00000000E+00
  0.00000000E+00  0.00000000E+00  0.00000000E+00
  0.00000000E+00  0.00000000E+00  0.00000000E+00
  0.00000000E+00  0.00000000E+00  0.00000000E+00
  0.00000000E+00  0.00000000E+00  0.00000000E+00
  0.00000000E+00  0.00000000E+00  0.00000000E+00
  0.00000000E+00  0.00000000E+00  0.00000000E+00
  0.00000000E+00  0.00000000E+00  0.00000000E+00
  0.00000000E+00  0.00000000E+00  0.00000000E+00
  0.00000000E+00  0.00000000E+00  0.00000000E+00
  0.00000000E+00  0.00000000E+00  0.00000000E+00
  0.00000000E+00  0.00000000E+00  0.00000000E+00
  0.00000000E+00  0.00000000E+00  0.00000000E+00
  0.00000000E+00  0.00000000E+00  0.00000000E+00
  0.00000000E+00  0.00000000E+00  0.00000000E+00
  0.00000000E+00  0.00000000E+00  0.00000000E+00
  0.00000000E+00  0.00000000E+00  0.00000000E+00
  0.00000000E+00  0.00000000E+00  0.00000000E+00
  0.00000000E+00  0.00000000E+00  0.00000000E+00
  0.00000000E+00  0.00000000E+00  0.00000000E+00
  0.00000000E+00  0.00000000E+00  0.00000000E+00
  0.00000000E+00  0.00000000E+00  0.00000000E+00
  0.00000000E+00  0.00000000E+00  0.00000000E+00
  0.00000000E+00  0.00000000E+00  0.00000000E+00
  0.00000000E+00  0.00000000E+00  0.00000000E+00
  0.00000000E+00  0.00000000E+00  0.00000000E+00
  0.00000000E+00  0.00000000E+00  0.00000000E+00
  0.00000000E+00  0.00000000E+00  0.00000000E+00
  0.00000000E+00  0.00000000E+00  0.00000000E+00
  0.00000000E+00  0.00000000E+00  0.00000000E+00
  0.00000000E+00  0.00000000E+00  0.00000000E+00
  0.00000000E+00  0.00000000E+00  0.00000000E+00
  0.00000000E+00  0.00000000E+00  0.00000000E+00
  0.00000000E+00  0.00000000E+00  0.00000000E+00
  0.00000000E+00  0.00000000E+00  0.00000000E+00
  0.00000000E+00  0.00000000E+00  0.00000000E+00
  0.00000000E+00  0.00000000E+00  0.00000000E+00
  0.00000000E+00  0.00000000E+00  0.00000000E+00
  0.00000000E+00  0.00000000E+00  0.00000000E+00
  0.00000000E+00  0.00000000E+00  0.00000000E+00
  0.00000000E+00  0.00000000E+00  0.00000000E+00
  0.00000000E+00  0.00000000E+00  0.00000000E+00
  0.00000000E+00  0.00000000E+00  0.00000000E+00
  0.00000000E+00  0.00000000E+00  0.00000000E+00
  0.00000000E+00  0.00000000E+00  0.00000000E+00
  0.00000000E+00  0.00000000E+00  0.00000000E+00
  0.00000000E+00  0.00000000E+00  0.00000000E+00
  0.00000000E+00  0.00000000E+00  0.00000000E+00
  0.00000000E+00  0.00000000E+00  0.00000000E+00
  0.00000000E+00  0.00000000E+00  0.00000000E+00
  0.00000000E+00  0.00000000E+00  0.00000000E+00
  0.00000000E+00  0.00000000E+00  0.00000000E+00
  0.00000000E+00  0.00000000E+00  0.00000000E+00
  0.00000000E+00  0.00000000E+00  0.00000000E+00
  0.00000000E+00  0.00000000E+00  0.00000000E+00
  0.00000000E+00  0.00000000E+00  0.00000000E+00
  0.00000000E+00  0.00000000E+00  0.00000000E+00
  0.00000000E+00  0.00000000E+00  0.00000000E+00
  0.00000000E+00  0.00000000E+00  0.00000000E+00
  0.00000000E+00  0.00000000E+00  0.00000000E+00
  0.00000000E+00  0.00000000E+00  0.00000000E+00
  0.00000000E+00  0.00000000E+00  0.00000000E+00
  0.00000000E+00  0.00000000E+00  0.00000000E+00
  0.00000000E+00  0.00000000E+00  0.00000000E+00
  0.00000000E+00  0.00000000E+00  0.00000000E+00
  0.00000000E+00  0.00000000E+00  0.00000000E+00
  0.00000000E+00  0.00000000E+00  0.00000000E+00
  0.00000000E+00  0.00000000E+00  0.00000000E+00
  0.00000000E+00  0.00000000E+00  0.00000000E+00
  0.00000000E+00  0.00000000E+00  0.00000000E+00
  0.00000000E+00  0.00000000E+00  0.00000000E+00
  0.00000000E+00  0.00000000E+00  0.00000000E+00
  0.00000000E+00  0.00000000E+00  0.00000000E+00
  0.00000000E+00  0.00000000E+00  0.00000000E+00
  0.00000000E+00  0.00000000E+00  0.00000000E+00
  0.00000000E+00  0.00000000E+00  0.00000000E+00
  0.00000000E+00  0.00000000E+00  0.00000000E+00
  0.00000000E+00  0.00000000E+00  0.00000000E+00
  0.00000000E+00  0.00000000E+00  0.00000000E+00
  0.00000000E+00  0.00000000E+00  0.00000000E+00
  0.00000000E+00  0.00000000E+00  0.00000000E+00
  0.00000000E+00  0.00000000E+00  0.00000000E+00
  0.00000000E+00  0.00000000E+00  0.00000000E+00
  0.00000000E+00  0.00000000E+00  0.00000000E+00
  0.00000000E+00  0.00000000E+00  0.00000000E+00
  0.00000000E+00  0.00000000E+00  0.00000000E+00
  0.00000000E+00  0.00000000E+00  0.00000000E+00
  0.00000000E+00  0.00000000E+00  0.00000000E+00
  0.00000000E+00  0.00000000E+00  0.00000000E+00
  0.00000000E+00  0.00000000E+00  0.00000000E+00
  0.00000000E+00  0.00000000E+00  0.00000000E+00
  0.00000000E+00  0.00000000E+00  0.00000000E+00
  0.00000000E+00  0.00000000E+00  0.00000000E+00
  0.00000000E+00  0.00000000E+00  0.00000000E+00
  0.00000000E+00  0.00000000E+00  0.00000000E+00
  0.00000000E+00  0.00000000E+00  0.00000000E+00
  0.00000000E+00  0.00000000E+00  0.00000000E+00
  0.00000000E+00  0.00000000E+00  0.00000000E+00
  0.00000000E+00  0.00000000E+00  0.00000000E+00
  0.00000000E+00  0.00000000E+00  0.00000000E+00
  0.00000000E+00  0.00000000E+00  0.00000000E+00
  0.00000000E+00  0.00000000E+00  0.00000000E+00
  0.00000000E+00  0.00000000E+00  0.00000000E+00
  0.00000000E+00  0.00000000E+00  0.00000000E+00
  0.00000000E+00  0.00000000E+00  0.00000000E+00
  0.00000000E+00  0.00000000E+00  0.00000000E+00
  0.00000000E+00  0.00000000E+00  0.00000000E+00
  0.00000000E+00  0.00000000E+00  0.00000000E+00
  0.00000000E+00  0.00000000E+00  0.00000000E+00
  0.00000000E+00  0.00000000E+00  0.00000000E+00
  0.00000000E+00  0.00000000E+00  0.00000000E+00
  0.00000000E+00  0.00000000E+00  0.00000000E+00
  0.00000000E+00  0.00000000E+00  0.00000000E+00
  0.00000000E+00  0.00000000E+00  0.00000000E+00
  0.00000000E+00  0.00000000E+00  0.00000000E+00
  0.00000000E+00  0.00000000E+00  0.00000000E+00
  0.00000000E+00  0.00000000E+00  0.00000000E+00
  0.00000000E+00  0.00000000E+00  0.00000000E+00
  0.00000000E+00  0.00000000E+00  0.00000000E+00
  0.00000000E+00  0.00000000E+00  0.00000000E+00
  0.00000000E+00  0.00000000E+00  0.00000000E+00
  0.00000000E+00  0.00000000E+00  0.00000000E+00
  0.00000000E+00  0.00000000E+00  0.00000000E+00
  0.00000000E+00  0.00000000E+00  0.00000000E+00
  0.00000000E+00  0.00000000E+00  0.00000000E+00
  0.00000000E+00  0.00000000E+00  0.00000000E+00
  0.00000000E+00  0.00000000E+00  0.00000000E+00
  0.00000000E+00  0.00000000E+00  0.00000000E+00
  0.00000000E+00  0.00000000E+00  0.00000000E+00
  0.00000000E+00  0.00000000E+00  0.00000000E+00
  0.00000000E+00  0.00000000E+00  0.00000000E+00
  0.00000000E+00  0.00000000E+00  0.00000000E+00
  0.00000000E+00  0.00000000E+00  0.00000000E+00
  0.00000000E+00  0.00000000E+00  0.00000000E+00
  0.00000000E+00  0.00000000E+00  0.00000000E+00
  0.00000000E+00  0.00000000E+00  0.00000000E+00
  0.00000000E+00  0.00000000E+00  0.00000000E+00
  0.00000000E+00  0.00000000E+00  0.00000000E+00
  0.00000000E+00  0.00000000E+00  0.00000000E+00
  0.00000000E+00  0.00000000E+00  0.00000000E+00
  0.00000000E+00  0.00000000E+00  0.00000000E+00
  0.00000000E+00  0.00000000E+00  0.00000000E+00
  0.00000000E+00  0.00000000E+00  0.00000000E+00
  0.00000000E+00  0.00000000E+00  0.00000000E+00
  0.00000000E+00  0.00000000E+00  0.00000000E+00
  0.00000000E+00  0.00000000E+00  0.00000000E+00
  0.00000000E+00  0.00000000E+00  0.00000000E+00
  0.00000000E+00  0.00000000E+00  0.00000000E+00
  0.00000000E+00  0.00000000E+00  0.00000000E+00
  0.00000000E+00  0.00000000E+00  0.00000000E+00
  0.00000000E+00  0.00000000E+00  0.00000000E+00
  0.00000000E+00  0.00000000E+00  0.00000000E+00
  0.00000000E+00  0.00000000E+00  0.00000000E+00
  0.00000000E+00  0.00000000E+00  0.00000000E+00
  0.00000000E+00  0.00000000E+00  0.00000000E+00
  0.00000000E+00  0.00000000E+00  0.00000000E+00
  0.00000000E+00  0.00000000E+00  0.00000000E+00
  0.00000000E+00  0.00000000E+00  0.00000000E+00
  0.00000000E+00  0.00000000E+00  0.00000000E+00
  0.00000000E+00  0.00000000E+00  0.00000000E+00
  0.00000000E+00  0.00000000E+00  0.00000000E+00
  0.00000000E+00  0.00000000E+00  0.00000000E+00
  0.00000000E+00  0.00000000E+00  0.00000000E+00
  0.00000000E+00  0.00000000E+00  0.00000000E+00
  0.00000000E+00  0.00000000E+00  0.00000000E+00
  0.00000000E+00  0.00000000E+00  0.00000000E+00
  0.00000000E+00  0.00000000E+00  0.00000000E+00
  0.00000000E+00  0.00000000E+00  0.00000000E+00
  0.00000000E+00  0.00000000E+00  0.00000000E+00
  0.00000000E+00  0.00000000E+00  0.00000000E+00
  0.00000000E+00  0.00000000E+00  0.00000000E+00
  0.00000000E+00  0.00000000E+00  0.00000000E+00
  0.00000000E+00  0.00000000E+00  0.00000000E+00
  0.00000000E+00  0.00000000E+00  0.00000000E+00
  0.00000000E+00  0.00000000E+00  0.00000000E+00
  0.00000000E+00  0.00000000E+00  0.00000000E+00
  0.00000000E+00  0.00000000E+00  0.00000000E+00
  0.00000000E+00  0.00000000E+00  0.00000000E+00
  0.00000000E+00  0.00000000E+00  0.00000000E+00
  0.00000000E+00  0.00000000E+00  0.00000000E+00