Species order: X N B                    
   2.51242800000000     
     5.9449720136058266    0.0000000000000000    0.0000000000000000
    -2.9724860068029120    5.1484967885702053   -0.0000000000000001
     0.0000000000000000    0.0000000000000009    5.3101128803662583
   Se   N    B 
     1   144   143
Direct
  0.4444444444444429  0.3888888888888857  0.3750000000000000
  0.1111331400499026  0.0555936942132174  0.1251998385159336
  0.6110484170409614  0.5555122110229599  0.1241493365182779
  0.4444605541633139  0.0555936942132174  0.1251998385159336
  0.9444237538569608  0.5555441599285273  0.1249151702857548
  0.7777777777777786  0.0555555555555571  0.1248284638204188
  0.1111111111111143  0.7222222222222214  0.6251203252990025
  0.4444605541633139  0.7222001932834329  0.6248001614840680
  0.2778211223103724  0.2222849162923743  0.6258506634817256
  0.7777396391201177  0.7222001932834329  0.6248001614840680
  0.6111090026138175  0.2222243307195147  0.6248427244256665
  0.9444393846290663  0.2222187544868487  0.6251612262017558
  0.2777891734048066  0.7222129272617688  0.1249151702857548
  0.1111153281056997  0.2222243307195147  0.1251572755743308
  0.4444637939820010  0.2222849162923743  0.1241493365182779
  0.6111090026138175  0.7222180052276339  0.1251572755743308
  0.9444237538569608  0.7222129272617688  0.1249151702857548
  0.7777793698577828  0.2222187544868487  0.1248387737982440
  0.1111204060715689  0.8889095794763678  0.6250848297142423
  0.4444613670799870  0.8888973502066557  0.6251811370692023
  0.2778211223103724  0.3888695393513276  0.6258506634817256
  0.6110484170409614  0.3888695393513276  0.6258506634817256
  0.7777793698577828  0.8888939487042623  0.6251612262017558
  0.9444359831266729  0.3888719662533416  0.6251811370692023
  0.1111331400499026  0.3888727791700147  0.1251998385159336
  0.2777891734048066  0.8889095794763678  0.1249151702857548
  0.6111145788464878  0.8888939487042623  0.1248387737982440
  0.4444444444444429  0.3888888888888857  0.1163867742820318
  0.9444359831266729  0.8888973502066557  0.1248188629307962
  0.7777396391201177  0.3888727791700147  0.1251998385159336
  0.2777957295652881  0.5555376037680448  0.6247907135127112
  0.1111331400499026  0.0555936942132175  0.6248001614840680
  0.6110484170409614  0.5555122110229599  0.6258506634817256
  0.4444605541633139  0.0555936942132175  0.6248001614840680
  0.9444237538569608  0.5555441599285273  0.6250848297142423
  0.1111204060715689  0.5555441599285273  0.1249151702857548
  0.7777777777777786  0.0555555555555571  0.6251715361795807
  0.2777957295652881  0.0555914591305781  0.1252092864872918
  0.4444637939820010  0.5555122110229599  0.1241493365182779
  0.7777418742027595  0.5555376037680448  0.1252092864872918
  0.6111145788464878  0.0555539634755536  0.1248387737982440
  0.4444637939820010  0.5555122110229599  0.6258506634817256
  0.9444393846290663  0.0555539634755536  0.1248387737982440
  0.2777891734048066  0.7222129272617688  0.6250848297142423
  0.1111153281056997  0.2222243307195147  0.6248427244256665
  0.4444637939820010  0.2222849162923743  0.6258506634817256
  0.6111090026138175  0.7222180052276339  0.6248427244256665
  0.9444237538569608  0.7222129272617688  0.6250848297142423
  0.7777793698577828  0.2222187544868487  0.6251612262017558
  0.1111111111111143  0.7222222222222214  0.1248796747009930
  0.4444605541633139  0.7222001932834328  0.1251998385159336
  0.2778211223103724  0.2222849162923743  0.1241493365182779
  0.7777396391201177  0.7222001932834329  0.1251998385159336
  0.6111090026138175  0.2222243307195147  0.1251572755743308
  0.9444393846290663  0.2222187544868487  0.1248387737982440
  0.1111331400499026  0.3888727791700147  0.6248001614840680
  0.2777891734048066  0.8889095794763678  0.6250848297142423
  0.6111145788464878  0.8888939487042623  0.6251612262017558
  0.4444444444444429  0.3888888888888857  0.6336132257179677
  0.9444359831266729  0.8888973502066557  0.6251811370692023
  0.1111204060715689  0.8889095794763678  0.1249151702857548
  0.7777396391201177  0.3888727791700147  0.6248001614840680
  0.4444613670799870  0.8888973502066557  0.1248188629307962
  0.2778211223103724  0.3888695393513276  0.1241493365182779
  0.2777957295652881  0.5555376037680448  0.1252092864872918
  0.6110484170409614  0.3888695393513276  0.1241493365182779
  0.7777793698577828  0.8888939487042623  0.1248387737982440
  0.9444359831266729  0.3888719662533416  0.1248188629307962
  0.1111204060715689  0.5555441599285273  0.6250848297142423
  0.2777957295652881  0.0555914591305781  0.6247907135127112
  0.7777418742027595  0.5555376037680448  0.6247907135127112
  0.6111145788464878  0.0555539634755536  0.6251612262017558
  0.9444393846290663  0.0555539634755536  0.6251612262017558
  0.0541323075505396  0.1102070028513198  0.3750000000000000
  0.5560541664389704  0.6121083328779414  0.3750000000000000
  0.3871403331384289  0.1017675181071929  0.3750000000000000
  0.8922132326275317  0.6127732829804379  0.3750000000000000
  0.7224867893934652  0.1108465439398789  0.3750000000000000
  0.0555602744871133  0.7777730588462207  0.8750000000000000
  0.3888930649070331  0.7777734663196612  0.8750000000000000
  0.2222275062508985  0.2777804197921154  0.8750000000000000
  0.7222225265384770  0.7777667159007673  0.8750000000000000
  0.5555529135412230  0.2777804197921154  0.8750000000000000
  0.8888895425386858  0.2777790850773743  0.8750000000000000
  0.2215705924068838  0.7774519628701089  0.3750000000000000
  0.0541323075505396  0.2772586380325553  0.3750000000000000
  0.3730009332337030  0.2460018664674128  0.3750000000000000
  0.5560746953007841  0.7792010257827963  0.3750000000000000
  0.8915184989907698  0.7798660769857868  0.3750000000000000
  0.7231263304820125  0.2772586380325553  0.3750000000000000
  0.0555598670136770  0.9444529319207166  0.8750000000000000
  0.3888930649070331  0.9444529319207166  0.8750000000000000
  0.2222081898629451  0.4444441912684804  0.8750000000000000
  0.5555827717040192  0.4444580525186739  0.8750000000000000
  0.7222246233985159  0.9444492467970335  0.8750000000000000
  0.8888804014126120  0.4444402684262955  0.8750000000000000
  0.0534672563475508  0.4449857553383214  0.3750000000000000
  0.2205600503528991  0.9411201007057969  0.3750000000000000
  0.5559791103530158  0.9446562218431734  0.3750000000000000
  0.3730009332337030  0.4603324000996256  0.3750000000000000
  0.8886771114901552  0.9446562218431734  0.3750000000000000
  0.7315658152261405  0.4461930001948997  0.3750000000000000
  0.2222217969244747  0.6111115364088612  0.8750000000000000
  0.0555666174325643  0.1111108067948560  0.8750000000000000
  0.5555529135412230  0.6111058270824407  0.8750000000000000
  0.3888891420648482  0.1110973319278006  0.8750000000000000
  0.8888897394843723  0.6111115364088612  0.8750000000000000
  0.0558813704632266  0.6117627409264510  0.3750000000000000
  0.7222246233985159  0.1111087099348185  0.8750000000000000
  0.2146271849687555  0.1017675181071930  0.3750000000000000
  0.3871403331384289  0.6187061483645799  0.3750000000000000
  0.7315658152261404  0.6187061483645799  0.3750000000000000
  0.5560746953007841  0.1102070028513198  0.3750000000000000
  0.3888891420648482  0.6111251434703889  0.8750000000000000
  0.8883597545464206  0.1108465439398789  0.3750000000000000
  0.2222127843591092  0.7777730588462207  0.8750000000000000
  0.0555666174325643  0.2777891439710446  0.8750000000000000
  0.3888752808146547  0.2777505616293151  0.8750000000000000
  0.5555441893622938  0.7777667159007673  0.8750000000000000
  0.8888804014126120  0.7777734663196612  0.8750000000000000
  0.7222225265384770  0.2777891439710446  0.8750000000000000
  0.0558813704632266  0.7774519628701089  0.3750000000000000
  0.3883475779950072  0.7798660769857868  0.3750000000000000
  0.2212250004553949  0.2772791668943650  0.3750000000000000
  0.7231263304820125  0.7792010257827963  0.3750000000000000
  0.5560541664389704  0.2772791668943650  0.3750000000000000
  0.8886771114901552  0.2773542229803233  0.3750000000000000
  0.0555598670136770  0.4444402684262955  0.8750000000000000
  0.2222217969244747  0.9444435938489563  0.8750000000000000
  0.5555542482559661  0.9444437907946428  0.8750000000000000
  0.3888752808146547  0.4444580525186739  0.8750000000000000
  0.8888895425386858  0.9444437907946428  0.8750000000000000
  0.0534672563475508  0.9418148343425587  0.3750000000000000
  0.7222360014055378  0.4444441912684804  0.8750000000000000
  0.3883475779950072  0.9418148343425587  0.3750000000000000
  0.2146271849687555  0.4461930001948997  0.3750000000000000
  0.2205600503528991  0.6127732829804379  0.3750000000000000
  0.5873314668659225  0.4603324000996256  0.3750000000000000
  0.7224867893934652  0.9449735787869080  0.3750000000000000
  0.8915184989907698  0.4449857553383214  0.3750000000000000
  0.0555602744871133  0.6111205489742241  0.8750000000000000
  0.2222081898629451  0.1110973319278006  0.8750000000000000
  0.7222360014055378  0.6111251434703889  0.8750000000000000
  0.5555441893622938  0.1111108067948560  0.8750000000000000
  0.8888840865362951  0.1111087099348185  0.8750000000000000
  0.1065671379430459  0.0512750204380691  0.3750000000000000
  0.6218358120332313  0.5636895679966337  0.3750000000000000
  0.4447078824950229  0.0512750204380691  0.3750000000000000
  0.9457897256386902  0.5559829495228867  0.3750000000000000
  0.7777777777777786  0.0555555555555571  0.3750000000000000
  0.1111111111111143  0.7222222222222214  0.8750000000000000
  0.4444362235699210  0.7221899514816988  0.8750000000000000
  0.2778145698608139  0.2222875239279843  0.8750000000000000
  0.7777537279117774  0.7221899514816988  0.8750000000000000
  0.6110573454696423  0.2222759878636933  0.8750000000000000
  0.9444376259984509  0.2222588559135565  0.8750000000000000
  0.2773503838104481  0.7231401094491362  0.3750000000000000
  0.1105903140631392  0.2219618236982347  0.3750000000000000
  0.4418537559633988  0.2114975213001026  0.3750000000000000
  0.6113715096351037  0.7227430192701962  0.3750000000000000
  0.9457897256386905  0.7231401094491362  0.3750000000000000
  0.7778552308457066  0.2216711619999234  0.3750000000000000
  0.1111683785494710  0.8889267757926702  0.8750000000000000
  0.4444910730912608  0.8889122032122960  0.8750000000000000
  0.2778145698608139  0.3888603792661584  0.8750000000000000
  0.6110458094053510  0.3888603792661584  0.8750000000000000
  0.7778212299151063  0.8888957073348777  0.8750000000000000
  0.9444211301210326  0.3888422602420677  0.8750000000000000
  0.1065671379430459  0.3886254508383057  0.3750000000000000
  0.2773503838104481  0.8875436076946384  0.3750000000000000
  0.6116621713334104  0.8895174021791107  0.3750000000000000
  0.9442111857955329  0.8891221475377957  0.3750000000000000
  0.7820583128952648  0.3886254508383057  0.3750000000000000
  0.2777683819659404  0.5555649513673951  0.8750000000000000
  0.1111433818516374  0.0555796054215573  0.8750000000000000
  0.6110458094053510  0.5555187634725244  0.8750000000000000
  0.4444362235699210  0.0555796054215573  0.8750000000000000
  0.9444065575406584  0.5555749360901308  0.8750000000000000
  0.1101932238841965  0.5559829495228867  0.3750000000000000
  0.7777777777777786  0.0555555555555571  0.8750000000000000
  0.2755185541497845  0.0510371082995669  0.3750000000000000
  0.4418537559633988  0.5636895679966337  0.3750000000000000
  0.7822962250337666  0.5578147791835486  0.3750000000000000
  0.6116621713334104  0.0554781024876287  0.3750000000000000
  0.4444729540671702  0.5555187634725244  0.8750000000000000
  0.9438159311542179  0.0554781024876287  0.3750000000000000
  0.2777583972432034  0.7221649547838611  0.8750000000000000
  0.1112186423940567  0.2222759878636933  0.8750000000000000
  0.4444729540671702  0.2222875239279843  0.8750000000000000
  0.6110573454696423  0.7221146909392738  0.8750000000000000
  0.9444065575406584  0.7221649547838611  0.8750000000000000
  0.7778212299151063  0.2222588559135565  0.8750000000000000
  0.1111111111111143  0.7222222222222214  0.3750000000000000
  0.4447078824950229  0.7267661953902923  0.3750000000000000
  0.2696437653367036  0.2114975213001026  0.3750000000000000
  0.7820583128952648  0.7267661953902923  0.3750000000000000
  0.6113715096351037  0.2219618236982347  0.3750000000000000
  0.9438159311542179  0.2216711619999234  0.3750000000000000
  0.1111433818516374  0.3888971097634076  0.8750000000000000
  0.2777583972432034  0.8889267757926702  0.8750000000000000
  0.6110744774197789  0.8888957073348777  0.8750000000000000
  0.4444444444444429  0.3888888888888857  0.8750000000000000
  0.9444211301210326  0.8889122032122960  0.8750000000000000
  0.1101932238841965  0.8875436076946381  0.3750000000000000
  0.7777537279117774  0.3888971097634076  0.8750000000000000
  0.4449109617422636  0.8891221475377957  0.3750000000000000
  0.2696437653367036  0.3914795773699298  0.3750000000000000
  0.2755185541497845  0.5578147791835486  0.3750000000000000
  0.6218358120332313  0.3914795773699298  0.3750000000000000
  0.7778552308457066  0.8895174021791107  0.3750000000000000
  0.9442111857955329  0.3884223715910650  0.3750000000000000
  0.1111683785494710  0.5555749360901308  0.8750000000000000
  0.2777683819659404  0.0555367639318839  0.8750000000000000
  0.7777965694014548  0.5555649513673951  0.8750000000000000
  0.6110744774197789  0.0555121034182296  0.8750000000000000
  0.9444376259984509  0.0555121034182296  0.8750000000000000
  0.0556526057552728  0.1111767361176366  0.1251936109493761
  0.5554502008246424  0.6109004016492834  0.1248298292371792
  0.3889841233364477  0.1113473619855724  0.1252964045746164
  0.8887457060390838  0.6110395196862146  0.1251143138828837
  0.7222281915303176  0.1111051418030189  0.1248994440447111
  0.0555539709227398  0.7777793624105988  0.6250840632702973
  0.3889500603510286  0.7777189880277703  0.6249466902167132
  0.2224329316840501  0.2778831325086940  0.6251701707628248
  0.7221565972156994  0.7776807275780627  0.6248063890506256
  0.5554502008246424  0.2778831325086940  0.6251701707628248
  0.8888827778671390  0.2777655557342829  0.6251125384656672
  0.2222253914878574  0.7777793624105988  0.1249159367296999
  0.0556526057552728  0.2778092029709741  0.1251936109493761
  0.3891132455101481  0.2782264910203009  0.1224673555985348
  0.5555241303623643  0.7776807275780627  0.1251936109493761
  0.8887689276767335  0.7777189880277703  0.1250533097832900
  0.7221565972156994  0.2778092029709741  0.1251936109493761
  0.0556143453055658  0.9445644056565951  0.6249466902167132
  0.3889500603510286  0.9445644056565951  0.6249466902167132
  0.2223632386491177  0.4443492099968809  0.6247035954253838
  0.5551068423130323  0.4442200878231805  0.6275326444014668
  0.7222281915303176  0.9444563830606352  0.6251005559552898
  0.8887689276767335  0.4443832729823000  0.6249466902167132
  0.0556143453055658  0.4443832729823000  0.1250533097832900
  0.2222938136471216  0.9445876272942448  0.1251143138828837
  0.5555677775990570  0.9444505554661896  0.1248874615343330
  0.3891132455101481  0.4442200878231805  0.1224673555985348
  0.8888827778671390  0.9444505554661896  0.1248874615343330
  0.7219859713477665  0.4443492099968809  0.1252964045746164
  0.2222938136471216  0.6110395196862146  0.6248856861171199
  0.0556526057552728  0.1111767361176366  0.6248063890506256
  0.5554502008246424  0.6109004016492834  0.6251701707628248
  0.3889841233364477  0.1113473619855724  0.6247035954253838
  0.8887457060390838  0.6110395196862146  0.6248856861171199
  0.0555539709227398  0.6111079418454800  0.1249159367296999
  0.7222281915303176  0.1111051418030189  0.6251005559552898
  0.2223632386491177  0.1113473619855724  0.1252964045746164
  0.3889841233364477  0.6109700946842218  0.1252964045746164
  0.7219859713477665  0.6109700946842218  0.1252964045746164
  0.5555241303623643  0.1111767361176366  0.1251936109493761
  0.3889841233364477  0.6109700946842218  0.6247035954253838
  0.8888769502726934  0.1111051418030189  0.1248994440447111
  0.2222253914878574  0.7777793624105988  0.6250840632702973
  0.0556526057552728  0.2778092029709741  0.6248063890506256
  0.3891132455101481  0.2782264910203009  0.6275326444014668
  0.5555241303623643  0.7776807275780627  0.6248063890506256
  0.8887689276767335  0.7777189880277703  0.6249466902167132
  0.7221565972156994  0.2778092029709741  0.6248063890506256
  0.0555539709227398  0.7777793624105988  0.1249159367296999
  0.3889500603510286  0.7777189880277703  0.1250533097832900
  0.2224329316840501  0.2778831325086940  0.1248298292371792
  0.7221565972156994  0.7776807275780627  0.1251936109493761
  0.5554502008246424  0.2778831325086940  0.1248298292371790
  0.8888827778671390  0.2777655557342829  0.1248874615343330
  0.0556143453055658  0.4443832729823000  0.6249466902167132
  0.2222938136471216  0.9445876272942448  0.6248856861171199
  0.5555677775990570  0.9444505554661896  0.6251125384656672
  0.3891132455101481  0.4442200878231805  0.6275326444014668
  0.8888827778671390  0.9444505554661896  0.6251125384656672
  0.0556143453055658  0.9445644056565951  0.1250533097832900
  0.7219859713477665  0.4443492099968809  0.6247035954253838
  0.3889500603510286  0.9445644056565951  0.1250533097832900
  0.2223632386491177  0.4443492099968809  0.1252964045746164
  0.2222938136471216  0.6110395196862146  0.1251143138828837
  0.5551068423130323  0.4442200878231805  0.1224673555985348
  0.7222281915303176  0.9444563830606352  0.1248994440447111
  0.8887689276767335  0.4443832729823000  0.1250533097832900
  0.0555539709227398  0.6111079418454800  0.6250840632702973
  0.2223632386491177  0.1113473619855724  0.6247035954253838
  0.7219859713477665  0.6109700946842218  0.6247035954253838
  0.5555241303623643  0.1111767361176366  0.6248063890506256
  0.8888769502726934  0.1111051418030189  0.6251005559552898
 
  0.00000000E+00  0.00000000E+00  0.00000000E+00
  0.00000000E+00  0.00000000E+00  0.00000000E+00
  0.00000000E+00  0.00000000E+00  0.00000000E+00
  0.00000000E+00  0.00000000E+00  0.00000000E+00
  0.00000000E+00  0.00000000E+00  0.00000000E+00
  0.00000000E+00  0.00000000E+00  0.00000000E+00
  0.00000000E+00  0.00000000E+00  0.00000000E+00
  0.00000000E+00  0.00000000E+00  0.00000000E+00
  0.00000000E+00  0.00000000E+00  0.00000000E+00
  0.00000000E+00  0.00000000E+00  0.00000000E+00
  0.00000000E+00  0.00000000E+00  0.00000000E+00
  0.00000000E+00  0.00000000E+00  0.00000000E+00
  0.00000000E+00  0.00000000E+00  0.00000000E+00
  0.00000000E+00  0.00000000E+00  0.00000000E+00
  0.00000000E+00  0.00000000E+00  0.00000000E+00
  0.00000000E+00  0.00000000E+00  0.00000000E+00
  0.00000000E+00  0.00000000E+00  0.00000000E+00
  0.00000000E+00  0.00000000E+00  0.00000000E+00
  0.00000000E+00  0.00000000E+00  0.00000000E+00
  0.00000000E+00  0.00000000E+00  0.00000000E+00
  0.00000000E+00  0.00000000E+00  0.00000000E+00
  0.00000000E+00  0.00000000E+00  0.00000000E+00
  0.00000000E+00  0.00000000E+00  0.00000000E+00
  0.00000000E+00  0.00000000E+00  0.00000000E+00
  0.00000000E+00  0.00000000E+00  0.00000000E+00
  0.00000000E+00  0.00000000E+00  0.00000000E+00
  0.00000000E+00  0.00000000E+00  0.00000000E+00
  0.00000000E+00  0.00000000E+00  0.00000000E+00
  0.00000000E+00  0.00000000E+00  0.00000000E+00
  0.00000000E+00  0.00000000E+00  0.00000000E+00
  0.00000000E+00  0.00000000E+00  0.00000000E+00
  0.00000000E+00  0.00000000E+00  0.00000000E+00
  0.00000000E+00  0.00000000E+00  0.00000000E+00
  0.00000000E+00  0.00000000E+00  0.00000000E+00
  0.00000000E+00  0.00000000E+00  0.00000000E+00
  0.00000000E+00  0.00000000E+00  0.00000000E+00
  0.00000000E+00  0.00000000E+00  0.00000000E+00
  0.00000000E+00  0.00000000E+00  0.00000000E+00
  0.00000000E+00  0.00000000E+00  0.00000000E+00
  0.00000000E+00  0.00000000E+00  0.00000000E+00
  0.00000000E+00  0.00000000E+00  0.00000000E+00
  0.00000000E+00  0.00000000E+00  0.00000000E+00
  0.00000000E+00  0.00000000E+00  0.00000000E+00
  0.00000000E+00  0.00000000E+00  0.00000000E+00
  0.00000000E+00  0.00000000E+00  0.00000000E+00
  0.00000000E+00  0.00000000E+00  0.00000000E+00
  0.00000000E+00  0.00000000E+00  0.00000000E+00
  0.00000000E+00  0.00000000E+00  0.00000000E+00
  0.00000000E+00  0.00000000E+00  0.00000000E+00
  0.00000000E+00  0.00000000E+00  0.00000000E+00
  0.00000000E+00  0.00000000E+00  0.00000000E+00
  0.00000000E+00  0.00000000E+00  0.00000000E+00
  0.00000000E+00  0.00000000E+00  0.00000000E+00
  0.00000000E+00  0.00000000E+00  0.00000000E+00
  0.00000000E+00  0.00000000E+00  0.00000000E+00
  0.00000000E+00  0.00000000E+00  0.00000000E+00
  0.00000000E+00  0.00000000E+00  0.00000000E+00
  0.00000000E+00  0.00000000E+00  0.00000000E+00
  0.00000000E+00  0.00000000E+00  0.00000000E+00
  0.00000000E+00  0.00000000E+00  0.00000000E+00
  0.00000000E+00  0.00000000E+00  0.00000000E+00
  0.00000000E+00  0.00000000E+00  0.00000000E+00
  0.00000000E+00  0.00000000E+00  0.00000000E+00
  0.00000000E+00  0.00000000E+00  0.00000000E+00
  0.00000000E+00  0.00000000E+00  0.00000000E+00
  0.00000000E+00  0.00000000E+00  0.00000000E+00
  0.00000000E+00  0.00000000E+00  0.00000000E+00
  0.00000000E+00  0.00000000E+00  0.00000000E+00
  0.00000000E+00  0.00000000E+00  0.00000000E+00
  0.00000000E+00  0.00000000E+00  0.00000000E+00
  0.00000000E+00  0.00000000E+00  0.00000000E+00
  0.00000000E+00  0.00000000E+00  0.00000000E+00
  0.00000000E+00  0.00000000E+00  0.00000000E+00
  0.00000000E+00  0.00000000E+00  0.00000000E+00
  0.00000000E+00  0.00000000E+00  0.00000000E+00
  0.00000000E+00  0.00000000E+00  0.00000000E+00
  0.00000000E+00  0.00000000E+00  0.00000000E+00
  0.00000000E+00  0.00000000E+00  0.00000000E+00
  0.00000000E+00  0.00000000E+00  0.00000000E+00
  0.00000000E+00  0.00000000E+00  0.00000000E+00
  0.00000000E+00  0.00000000E+00  0.00000000E+00
  0.00000000E+00  0.00000000E+00  0.00000000E+00
  0.00000000E+00  0.00000000E+00  0.00000000E+00
  0.00000000E+00  0.00000000E+00  0.00000000E+00
  0.00000000E+00  0.00000000E+00  0.00000000E+00
  0.00000000E+00  0.00000000E+00  0.00000000E+00
  0.00000000E+00  0.00000000E+00  0.00000000E+00
  0.00000000E+00  0.00000000E+00  0.00000000E+00
  0.00000000E+00  0.00000000E+00  0.00000000E+00
  0.00000000E+00  0.00000000E+00  0.00000000E+00
  0.00000000E+00  0.00000000E+00  0.00000000E+00
  0.00000000E+00  0.00000000E+00  0.00000000E+00
  0.00000000E+00  0.00000000E+00  0.00000000E+00
  0.00000000E+00  0.00000000E+00  0.00000000E+00
  0.00000000E+00  0.00000000E+00  0.00000000E+00
  0.00000000E+00  0.00000000E+00  0.00000000E+00
  0.00000000E+00  0.00000000E+00  0.00000000E+00
  0.00000000E+00  0.00000000E+00  0.00000000E+00
  0.00000000E+00  0.00000000E+00  0.00000000E+00
  0.00000000E+00  0.00000000E+00  0.00000000E+00
  0.00000000E+00  0.00000000E+00  0.00000000E+00
  0.00000000E+00  0.00000000E+00  0.00000000E+00
  0.00000000E+00  0.00000000E+00  0.00000000E+00
  0.00000000E+00  0.00000000E+00  0.00000000E+00
  0.00000000E+00  0.00000000E+00  0.00000000E+00
  0.00000000E+00  0.00000000E+00  0.00000000E+00
  0.00000000E+00  0.00000000E+00  0.00000000E+00
  0.00000000E+00  0.00000000E+00  0.00000000E+00
  0.00000000E+00  0.00000000E+00  0.00000000E+00
  0.00000000E+00  0.00000000E+00  0.00000000E+00
  0.00000000E+00  0.00000000E+00  0.00000000E+00
  0.00000000E+00  0.00000000E+00  0.00000000E+00
  0.00000000E+00  0.00000000E+00  0.00000000E+00
  0.00000000E+00  0.00000000E+00  0.00000000E+00
  0.00000000E+00  0.00000000E+00  0.00000000E+00
  0.00000000E+00  0.00000000E+00  0.00000000E+00
  0.00000000E+00  0.00000000E+00  0.00000000E+00
  0.00000000E+00  0.00000000E+00  0.00000000E+00
  0.00000000E+00  0.00000000E+00  0.00000000E+00
  0.00000000E+00  0.00000000E+00  0.00000000E+00
  0.00000000E+00  0.00000000E+00  0.00000000E+00
  0.00000000E+00  0.00000000E+00  0.00000000E+00
  0.00000000E+00  0.00000000E+00  0.00000000E+00
  0.00000000E+00  0.00000000E+00  0.00000000E+00
  0.00000000E+00  0.00000000E+00  0.00000000E+00
  0.00000000E+00  0.00000000E+00  0.00000000E+00
  0.00000000E+00  0.00000000E+00  0.00000000E+00
  0.00000000E+00  0.00000000E+00  0.00000000E+00
  0.00000000E+00  0.00000000E+00  0.00000000E+00
  0.00000000E+00  0.00000000E+00  0.00000000E+00
  0.00000000E+00  0.00000000E+00  0.00000000E+00
  0.00000000E+00  0.00000000E+00  0.00000000E+00
  0.00000000E+00  0.00000000E+00  0.00000000E+00
  0.00000000E+00  0.00000000E+00  0.00000000E+00
  0.00000000E+00  0.00000000E+00  0.00000000E+00
  0.00000000E+00  0.00000000E+00  0.00000000E+00
  0.00000000E+00  0.00000000E+00  0.00000000E+00
  0.00000000E+00  0.00000000E+00  0.00000000E+00
  0.00000000E+00  0.00000000E+00  0.00000000E+00
  0.00000000E+00  0.00000000E+00  0.00000000E+00
  0.00000000E+00  0.00000000E+00  0.00000000E+00
  0.00000000E+00  0.00000000E+00  0.00000000E+00
  0.00000000E+00  0.00000000E+00  0.00000000E+00
  0.00000000E+00  0.00000000E+00  0.00000000E+00
  0.00000000E+00  0.00000000E+00  0.00000000E+00
  0.00000000E+00  0.00000000E+00  0.00000000E+00
  0.00000000E+00  0.00000000E+00  0.00000000E+00
  0.00000000E+00  0.00000000E+00  0.00000000E+00
  0.00000000E+00  0.00000000E+00  0.00000000E+00
  0.00000000E+00  0.00000000E+00  0.00000000E+00
  0.00000000E+00  0.00000000E+00  0.00000000E+00
  0.00000000E+00  0.00000000E+00  0.00000000E+00
  0.00000000E+00  0.00000000E+00  0.00000000E+00
  0.00000000E+00  0.00000000E+00  0.00000000E+00
  0.00000000E+00  0.00000000E+00  0.00000000E+00
  0.00000000E+00  0.00000000E+00  0.00000000E+00
  0.00000000E+00  0.00000000E+00  0.00000000E+00
  0.00000000E+00  0.00000000E+00  0.00000000E+00
  0.00000000E+00  0.00000000E+00  0.00000000E+00
  0.00000000E+00  0.00000000E+00  0.00000000E+00
  0.00000000E+00  0.00000000E+00  0.00000000E+00
  0.00000000E+00  0.00000000E+00  0.00000000E+00
  0.00000000E+00  0.00000000E+00  0.00000000E+00
  0.00000000E+00  0.00000000E+00  0.00000000E+00
  0.00000000E+00  0.00000000E+00  0.00000000E+00
  0.00000000E+00  0.00000000E+00  0.00000000E+00
  0.00000000E+00  0.00000000E+00  0.00000000E+00
  0.00000000E+00  0.00000000E+00  0.00000000E+00
  0.00000000E+00  0.00000000E+00  0.00000000E+00
  0.00000000E+00  0.00000000E+00  0.00000000E+00
  0.00000000E+00  0.00000000E+00  0.00000000E+00
  0.00000000E+00  0.00000000E+00  0.00000000E+00
  0.00000000E+00  0.00000000E+00  0.00000000E+00
  0.00000000E+00  0.00000000E+00  0.00000000E+00
  0.00000000E+00  0.00000000E+00  0.00000000E+00
  0.00000000E+00  0.00000000E+00  0.00000000E+00
  0.00000000E+00  0.00000000E+00  0.00000000E+00
  0.00000000E+00  0.00000000E+00  0.00000000E+00
  0.00000000E+00  0.00000000E+00  0.00000000E+00
  0.00000000E+00  0.00000000E+00  0.00000000E+00
  0.00000000E+00  0.00000000E+00  0.00000000E+00
  0.00000000E+00  0.00000000E+00  0.00000000E+00
  0.00000000E+00  0.00000000E+00  0.00000000E+00
  0.00000000E+00  0.00000000E+00  0.00000000E+00
  0.00000000E+00  0.00000000E+00  0.00000000E+00
  0.00000000E+00  0.00000000E+00  0.00000000E+00
  0.00000000E+00  0.00000000E+00  0.00000000E+00
  0.00000000E+00  0.00000000E+00  0.00000000E+00
  0.00000000E+00  0.00000000E+00  0.00000000E+00
  0.00000000E+00  0.00000000E+00  0.00000000E+00
  0.00000000E+00  0.00000000E+00  0.00000000E+00
  0.00000000E+00  0.00000000E+00  0.00000000E+00
  0.00000000E+00  0.00000000E+00  0.00000000E+00
  0.00000000E+00  0.00000000E+00  0.00000000E+00
  0.00000000E+00  0.00000000E+00  0.00000000E+00
  0.00000000E+00  0.00000000E+00  0.00000000E+00
  0.00000000E+00  0.00000000E+00  0.00000000E+00
  0.00000000E+00  0.00000000E+00  0.00000000E+00
  0.00000000E+00  0.00000000E+00  0.00000000E+00
  0.00000000E+00  0.00000000E+00  0.00000000E+00
  0.00000000E+00  0.00000000E+00  0.00000000E+00
  0.00000000E+00  0.00000000E+00  0.00000000E+00
  0.00000000E+00  0.00000000E+00  0.00000000E+00
  0.00000000E+00  0.00000000E+00  0.00000000E+00
  0.00000000E+00  0.00000000E+00  0.00000000E+00
  0.00000000E+00  0.00000000E+00  0.00000000E+00
  0.00000000E+00  0.00000000E+00  0.00000000E+00
  0.00000000E+00  0.00000000E+00  0.00000000E+00
  0.00000000E+00  0.00000000E+00  0.00000000E+00
  0.00000000E+00  0.00000000E+00  0.00000000E+00
  0.00000000E+00  0.00000000E+00  0.00000000E+00
  0.00000000E+00  0.00000000E+00  0.00000000E+00
  0.00000000E+00  0.00000000E+00  0.00000000E+00
  0.00000000E+00  0.00000000E+00  0.00000000E+00
  0.00000000E+00  0.00000000E+00  0.00000000E+00
  0.00000000E+00  0.00000000E+00  0.00000000E+00
  0.00000000E+00  0.00000000E+00  0.00000000E+00
  0.00000000E+00  0.00000000E+00  0.00000000E+00
  0.00000000E+00  0.00000000E+00  0.00000000E+00
  0.00000000E+00  0.00000000E+00  0.00000000E+00
  0.00000000E+00  0.00000000E+00  0.00000000E+00
  0.00000000E+00  0.00000000E+00  0.00000000E+00
  0.00000000E+00  0.00000000E+00  0.00000000E+00
  0.00000000E+00  0.00000000E+00  0.00000000E+00
  0.00000000E+00  0.00000000E+00  0.00000000E+00
  0.00000000E+00  0.00000000E+00  0.00000000E+00
  0.00000000E+00  0.00000000E+00  0.00000000E+00
  0.00000000E+00  0.00000000E+00  0.00000000E+00
  0.00000000E+00  0.00000000E+00  0.00000000E+00
  0.00000000E+00  0.00000000E+00  0.00000000E+00
  0.00000000E+00  0.00000000E+00  0.00000000E+00
  0.00000000E+00  0.00000000E+00  0.00000000E+00
  0.00000000E+00  0.00000000E+00  0.00000000E+00
  0.00000000E+00  0.00000000E+00  0.00000000E+00
  0.00000000E+00  0.00000000E+00  0.00000000E+00
  0.00000000E+00  0.00000000E+00  0.00000000E+00
  0.00000000E+00  0.00000000E+00  0.00000000E+00
  0.00000000E+00  0.00000000E+00  0.00000000E+00
  0.00000000E+00  0.00000000E+00  0.00000000E+00
  0.00000000E+00  0.00000000E+00  0.00000000E+00
  0.00000000E+00  0.00000000E+00  0.00000000E+00
  0.00000000E+00  0.00000000E+00  0.00000000E+00
  0.00000000E+00  0.00000000E+00  0.00000000E+00
  0.00000000E+00  0.00000000E+00  0.00000000E+00
  0.00000000E+00  0.00000000E+00  0.00000000E+00
  0.00000000E+00  0.00000000E+00  0.00000000E+00
  0.00000000E+00  0.00000000E+00  0.00000000E+00