 Se N B 
 1.0
 14.936314146199660   0.000000000000000   0.000000000000000
 -7.468157073099825  12.935227489513863   0.000000000000000
  0.000000000000001   0.000000000000001  13.341276283792837
 Se N B 
   1 144 143
Cartesian
  3.734078536549917   5.030366245922021   5.002978606422314 
  1.244737051180769   0.719117081630433   1.670325636327323 
  4.978158667517375   7.185676822784818   1.656310598939918 
  6.223420021919061   0.719117081630433   1.670325636327323 
  9.957318827351182   7.186090089146369   1.666527798819287 
 11.202235609649751   0.718623749417456   1.665371023909648 
 -3.734078536549858   9.342108742426664   8.339902970428451 
  1.245097980913517   9.341823793092088   8.335631576517331 
  2.489564889425180   2.875305959729405   8.349646613904763 
  6.223059092186308   9.341823793092088   8.335631576517331 
  7.468109833332914   2.874522271561891   8.336199420480641 
 12.446878777766825   2.874450141723822   8.340448640672335 
 -1.244453220626779   9.341988509998711   1.666527798819287 
  0.000047239766963   2.874522271561891   1.669757792363947 
  4.978592183674637   2.875305959729404   1.656310598939918 
  3.734078536549933   9.342054194642358   1.669757792363947 
  8.712610293726602   9.341988509998711   1.666527798819287 
  9.957592441532666   2.874450141723822   1.665508572172291 
 -4.978787070174400  11.498247628134923   8.339429414025300 
  0.000189571350521  11.498089439749167   8.340714277055984 
  1.245484758457785   5.030115955251892   8.349646613904763 
  6.222672314642126   5.030115955251892   8.349646613904763 
  4.978757374377695  11.498045440541896   8.340448640672335 
 11.202235609649776   5.030147347781538   8.340714277055984 
 -1.244243504455580   5.030157863043632   1.670325636327323 
 -2.489370002925298  11.498247628134923   1.666527798819287 
  2.489399698722280  11.498045440541896   1.665508572172291 
  3.734078536549917   5.030366245922020   1.552748111476024 
  7.467967501749379  11.498089439749167   1.665242935788618 
  8.712400577555503   5.030157863043632   1.670325636327323 
  0.000402200306614   7.186005283719076   8.335505528521136 
  1.244737051180769   0.719117081630433   8.335631576517331 
  4.978158667517376   7.185676822784819   8.349646613904763 
  6.223420021919062   0.719117081630433   8.335631576517331 
  9.957318827351182   7.186090089146369   8.339429414025300 
 -2.489161754251302   7.186090089146369   1.666527798819287 
 11.202235609649751   0.718623749417456   8.340586188934980 
  3.734078536549900   0.719088170328039   1.670451684323532 
  2.489998405582492   7.185676822784818   1.656310598939918 
  7.467754872793267   7.186005283719076   1.670451684323532 
  8.712913603704958   0.718603155500435   1.665508572172291 
  2.489998405582492   7.185676822784819   8.349646613904763 
 13.691557615594531   0.718603155500435   1.665508572172291 
 -1.244453220626779   9.341988509998711   8.339429414025300 
  0.000047239766964   2.874522271561891   8.336199420480641 
  4.978592183674638   2.875305959729405   8.349646613904763 
  3.734078536549933   9.342054194642358   8.336199420480641 
  8.712610293726602   9.341988509998711   8.339429414025300 
  9.957592441532666   2.874450141723822   8.340448640672335 
 -3.734078536549859   9.342108742426664   1.666054242416122 
  1.245097980913516   9.341823793092088   1.670325636327323 
  2.489564889425179   2.875305959729404   1.656310598939918 
  6.223059092186307   9.341823793092088   1.670325636327323 
  7.468109833332913   2.874522271561891   1.669757792363947 
 12.446878777766825   2.874450141723822   1.665508572172291 
 -1.244243504455579   5.030157863043633   8.335631576517331 
 -2.489370002925298  11.498247628134923   8.339429414025300 
  2.489399698722280  11.498045440541896   8.340448640672335 
  3.734078536549917   5.030366245922021   8.453209101368603 
  7.467967501749380  11.498089439749167   8.340714277055984 
 -4.978787070174401  11.498247628134923   1.666527798819287 
  8.712400577555503   5.030157863043633   8.335631576517331 
  0.000189571350521  11.498089439749167   1.665242935788618 
  1.245484758457784   5.030115955251891   1.656310598939918 
  0.000402200306613   7.186005283719076   1.670451684323532 
  6.222672314642125   5.030115955251891   1.656310598939918 
  4.978757374377694  11.498045440541896   1.665508572172291 
 11.202235609649776   5.030147347781537   1.665242935788618 
 -2.489161754251302   7.186090089146369   8.339429414025300 
  3.734078536549900   0.719088170328040   8.335505528521136 
  7.467754872793268   7.186005283719076   8.335505528521136 
  8.712913603704958   0.718603155500436   8.340448640672335 
 13.691557615594531   0.718603155500436   8.340448640672335 
 -0.014506056815656   1.425552652819328   5.002978606422314 
  3.734078536549912   7.917760534003246   5.002978606422314 
  5.022433824255918   1.316385997759763   5.002978606422314 
  8.750090000424176   7.926361814848220   5.002978606422314 
  9.963470251706708   1.433825262288730   5.002978606422314 
 -4.978665656900288  10.060671451390924  11.673616748318732 
  0.000094572965315  10.060676722152566  11.673616748318732 
  1.244752038450840   3.593152922143668  11.673616748318732 
  4.978858539264779  10.060589403948521  11.673616748318732 
  6.223405034649084   3.593152922143668  11.673616748318732 
 11.202235609649732   3.593135657304860  11.673616748318732 
 -2.496685401754965  10.056518001893945   5.002978606422314 
 -1.262073907667288   3.586403556383880   5.002978606422314 
  3.734078536549864   3.182090105601000   5.002978606422314 
  2.486510685698339  10.079142528563024   5.002978606422314 
  7.491838009162507  10.087745117165888   5.002978606422314 
  8.730230980767077   3.586403556383880   5.002978606422314 
 -6.223463216096214  12.216713527532825  11.673616748318732 
 -1.244693857003710  12.216713527532825  11.673616748318732 
 -0.000207700968504   5.748986720450801  11.673616748318732 
  4.979076263774048   5.749166018875349  11.673616748318732 
  3.734078536549913  12.216665859619646  11.673616748318732 
  9.957447179680603   5.748935977594746  11.673616748318732 
 -2.524619778816140   5.755991974894341   5.002978606422314 
 -3.734078536549902  12.173602597583681   5.002978606422314 
  1.249437606151405  12.219343128926118   5.002978606422314 
  2.133424445823192   5.954504316082578   5.002978606422314 
  6.218719466948405  12.219343128926118   5.002978606422314 
  7.594657424465122   5.771607961749736   5.002978606422314 
 -1.244702374087791   7.904866744914951  11.673616748318732 
  0.000167496351639   1.437243562434886  11.673616748318732 
  3.734078536549957   7.904792893478898  11.673616748318732 
  4.978878068687513   1.437069261964139  11.673616748318732 
  8.712859447187419   7.904866744914951  11.673616748318732 
 -3.734078536549889   7.913290223492178   5.002978606422314 
  9.957596561218260   1.437216439073294  11.673616748318732 
  2.445723248843779   1.316385997759763   5.002978606422314 
  1.161854936340678   8.003104778256759   5.002978606422314 
  6.306302136758993   8.003104778256759   5.002978606422314 
  7.482663129915548   1.425552652819328   5.002978606422314 
  1.244591831169108   7.905042755351281  11.673616748318732 
 12.441000967592888   1.433825262288730   5.002978606422314 
 -2.489491416199516  10.060671451390924  11.673616748318732 
 -1.244612506363234   3.593265771382787  11.673616748318732 
  3.734078536549880   3.592766700015431  11.673616748318732 
  2.489298533835120  10.060589403948521  11.673616748318732 
  7.468062500134286  10.060676722152566  11.673616748318732 
  8.712769579463007   3.593265771382787  11.673616748318732 
 -4.971471671344825  10.056518001893945   5.002978606422314 
 -0.023680936062819  10.087745117165888   5.002978606422314 
  1.233521732329564   3.586669101881493   5.002978606422314 
  4.981646387401500  10.079142528563024   5.002978606422314 
  6.234635340770270   3.586669101881493   5.002978606422314 
 11.202235609649650   3.587639969427832   5.002978606422314 
 -2.489290106580871   5.748935977594746  11.673616748318732 
 -3.734078536549954  12.216592737450284  11.673616748318732 
  1.244678200838679  12.216595284987548  11.673616748318732 
  2.489080809325789   5.749166018875349  11.673616748318732 
  6.223478872261296  12.216595284987548  11.673616748318732 
 -6.235017379303312  12.182589135219814   5.002978606422314 
  7.468364774068385   5.748986720450801  11.673616748318732 
 -1.233139693796523  12.182589135219814   5.002978606422314 
 -0.126500351365347   5.771607961749736   5.002978606422314 
 -1.281932927324444   7.926361814848220   5.002978606422314 
  5.334732627276642   5.954504316082578   5.002978606422314 
  3.734078536550084  12.223448213188707   5.002978606422314 
  9.992776851915973   5.755991974894341   5.002978606422314 
 -3.734078536549896   7.904983324498186  11.673616748318732 
  2.489279004412200   1.437069261964139  11.673616748318732 
  6.223565241930684   7.905042755351281  11.673616748318732 
  7.467989576748223   1.437243562434886  11.673616748318732 
 12.446874658081111   1.437216439073294  11.673616748318732 
  1.208790343420826   0.663254053895896   5.002978606422314 
  5.078212801618855   7.291452795502255   5.002978606422314 
  6.259366729679005   0.663254053895896   5.002978606422314 
  9.974444461385211   7.191765932369447   5.002978606422314 
 11.202235609649751   0.718623749417456   5.002978606422314 
 -3.734078536549858   9.342108742426666  11.673616748318732 
  1.244811058911297   9.341691313056758  11.673616748318732 
  2.489447545747830   2.875339690089231  11.673616748318732 
  6.223346014188528   9.341691313056758  11.673616748318732 
  7.466952482332937   2.875190468473293  11.673616748318732 
 12.446553026553982   2.874968862800945  11.673616748318732 
 -1.257931462062846   9.353981822516527   5.002978606422314 
 -0.005834091236184   2.871126683524039   5.002978606422314 
  5.020169796107123   2.735768551485136   5.002978606422314 
  3.734078536550010   9.348845370718088   5.002978606422314 
  8.726088535162715   9.353981822516527   5.002978606422314 
  9.962815031784153   2.867366908333886   5.002978606422314 
 -4.978198962965307  11.498470066398273  11.673616748318732 
  0.000522345087813  11.498281566756027  11.673616748318732 
  1.245455297967612   5.029997467466395  11.673616748318732 
  6.222701775132328   5.029997467466395  11.673616748318732 
  4.979369475614377  11.498068188828986  11.673616748318732 
 11.202235609649733   5.029763093767903  11.673616748318732 
 -1.310595659485975   5.026958614808375   5.002978606422314 
 -2.485722610327346  11.480578472393990   5.002978606422314 
  2.492922663653103  11.506109953068195   5.002978606422314 
  7.462931036413678  11.500997244366499   5.002978606422314 
  8.778752732585883   5.026958614808375   5.002978606422314 
 -0.000210508195910   7.186359031137962  11.673616748318732 
  1.244995243257979   0.718934839905259  11.673616748318732 
  4.978070784330168   7.185761580210544  11.673616748318732 
  6.223161829841868   0.718934839905259  11.673616748318732 
  9.956832136559759   7.186488185797971  11.673616748318732 
 -2.506287388285373   7.191765932369447   5.002978606422314 
 11.202235609649751   0.718623749417457  11.673616748318732 
  3.734078536549923   0.660176606261856   5.002978606422314 
  2.389944271480922   7.291452795502255   5.002978606422314 
  7.518773783851207   7.215461065752150   5.002978606422314 
  8.721659158887269   0.717621876364047   5.002978606422314 
  2.490086288769626   7.185761580210544  11.673616748318732 
 13.682812060412207   0.717621876364047   5.002978606422314 
 -1.244554637044508   9.341367975083736  11.673616748318732 
  0.001204590766986   2.875190468473293  11.673616748318732 
  4.978709527352004   2.875339690089231  11.673616748318732 
  3.734078536549994   9.340717800819506  11.673616748318732 
  8.712711710144347   9.341367975083736  11.673616748318732 
  9.957918192745511   2.874968862800945  11.673616748318732 
 -3.734078536549858   9.342108742426664   5.002978606422314 
  1.214692533643050   9.400886069061908   5.002978606422314 
  2.447987276992709   2.735768551485136   5.002978606422314 
  6.253464539456727   9.400886069061908   5.002978606422314 
  7.473991164336137   2.871126683524039   5.002978606422314 
 12.441656187515369   2.867366908333886   5.002978606422314 
 -1.244272234380598   5.030472584804127  11.673616748318732 
 -2.489958110134451  11.498470066398273  11.673616748318732 
  2.488787597485570  11.498068188828986  11.673616748318732 
  3.734078536549918   5.030366245922021  11.673616748318732 
  7.467634728011999  11.498281566756027  11.673616748318732 
 -4.982434462772369  11.480578472393990   5.002978606422314 
  8.712429307480521   5.030472584804127  11.673616748318732 
  0.005226036686177  11.500997244366499   5.002978606422314 
  1.103853011923780   5.063877390778789   5.002978606422314 
 -0.050616710751343   7.215461065752150   5.002978606422314 
  6.364304061176129   5.063877390778789   5.002978606422314 
  4.975234409446825  11.506109953068195   5.002978606422314 
 11.202235609649755   5.024331738546914   5.002978606422314 
 -2.488675063459951   7.186488185797971  11.673616748318732 
  3.734078536549886   0.718380675490349  11.673616748318732 
  7.468367581295747   7.186359031137962  11.673616748318732 
  8.712627253681106   0.718061686136226  11.673616748318732 
 13.691843965618384   0.718061686136226  11.673616748318732 
  0.000959474414273   1.438096373223287   1.670242552641297 
  3.734078536549926   7.902135668768866   1.665389240311886 
  4.978429475053705   1.440303457640622   1.671613950795837 
  8.711245950597650   7.903935192224475   1.669184628568733 
  9.957676503324510   1.437170284476748   1.666317990692613 
 -4.978806884926899  10.060752989430146   8.339419188684873 
  0.001352727262658  10.059972033053713   8.337586456823063 
  1.247053262553200   3.594481534498683   8.340567972532796 
  4.978515972488728  10.059477125432903   8.335714660203358 
  6.221103810546605   3.594481534498683   8.340567972532796 
 11.202235609649708   3.592960652174194   8.339799084133540 
 -2.489350188172950  10.060752989430146   1.666538024159713 
 -1.243477961524547   3.593525239110079   1.670242552641297 
  3.734078536549879   3.598922954956780   1.633870826785559 
  2.489641100611114  10.059477125432903   1.670242552641297 
  7.466804345837076  10.059972033053713   1.668370756021605 
  8.711635034624351   3.593525239110079   1.670242552641297 
 -6.223482014583474  12.218155465665513   8.337586456823063 
 -1.244675058516346  12.218155465665513   8.337586456823063 
  0.002817491465067   5.747758116095424   8.334343262048790 
  4.973744790602651   5.746087891404675   8.372086386059097 
  3.734078536549928  12.216758168812762   8.339639222152028 
  9.956207823870690   5.748198728560792   8.337586456823063 
 -2.488050750770856   5.748198728560791   1.668370756021605 
 -3.734078536549917  12.218455842831194   1.669184628568733 
  1.244829759727616  12.216682787552898   1.666158128711087 
  2.494412282497170   5.746087891404674   1.633870826785559 
  6.223327313372313  12.216682787552898   1.666158128711087 
  7.465339581634829   5.747758116095423   1.671613950795837 
 -1.243088877497946   7.903935192224476   8.336772584275948 
  0.000959474414274   1.438096373223288   8.335714660203358 
  3.734078536549927   7.902135668768867   8.340567972532796 
  4.978429475053706   1.440303457640623   8.334343262048790 
  8.711245950597650   7.903935192224476   8.336772584275948 
 -3.734078536549912   7.904820248419893   1.666538024159713 
  9.957676503324510   1.437170284476748   8.339639222152028 
  2.489727598046036   1.440303457640622   1.671613950795837 
  1.247168429968819   7.903037164030237   1.671613950795837 
  6.220988643130912   7.903037164030237   1.671613950795837 
  7.467197598685559   1.438096373223287   1.670242552641297 
  1.247168429968819   7.903037164030238   8.334343262048790 
 12.446794715974860   1.437170284476748   1.666317990692613 
 -2.489350188172950  10.060752989430146   8.339419188684873 
 -1.243477961524547   3.593525239110080   8.335714660203358 
  3.734078536549879   3.598922954956781   8.372086386059097 
  2.489641100611114  10.059477125432903   8.335714660203358 
  7.466804345837077  10.059972033053713   8.337586456823063 
  8.711635034624351   3.593525239110080   8.335714660203358 
 -4.978806884926900  10.060752989430146   1.666538024159713 
  0.001352727262658  10.059972033053713   1.668370756021605 
  1.247053262553200   3.594481534498682   1.665389240311886 
  4.978515972488727  10.059477125432903   1.670242552641297 
  6.221103810546604   3.594481534498682   1.665389240311886 
 11.202235609649708   3.592960652174193   1.666158128711087 
 -2.488050750770856   5.748198728560792   8.337586456823063 
 -3.734078536549917  12.218455842831194   8.336772584275948 
  1.244829759727617  12.216682787552898   8.339799084133540 
  2.494412282497170   5.746087891404675   8.372086386059097 
  6.223327313372314  12.216682787552898   8.339799084133540 
 -6.223482014583475  12.218155465665513   1.668370756021605 
  7.465339581634830   5.747758116095424   8.334343262048790 
 -1.244675058516346  12.218155465665513   1.668370756021605 
  0.002817491465066   5.747758116095423   1.671613950795837 
 -1.243088877497946   7.903935192224475   1.669184628568733 
  4.973744790602650   5.746087891404674   1.633870826785559 
  3.734078536549927  12.216758168812762   1.666317990692613 
  9.956207823870690   5.748198728560791   1.668370756021605 
 -3.734078536549912   7.904820248419894   8.339419188684873 
  2.489727598046036   1.440303457640623   8.334343262048790 
  6.220988643130913   7.903037164030238   8.334343262048790 
  7.467197598685560   1.438096373223288   8.335714660203358 
 12.446794715974860   1.437170284476748   8.339639222152028 
Generated by cif2cell 2.0.0.  :  Failed to get author information, No journal information. Species order: Se N B 
 1.0
 14.936314146199660   0.000000000000000   0.000000000000000
 -7.468157073099825  12.935227489513863   0.000000000000000
  0.000000000000001   0.000000000000001  13.341276283792837
 Se N B 
   1 144 143
Cartesian
  3.734078536549917   5.030366245922021   5.002978606422314 
  1.244737051180769   0.719117081630433   1.670325636327323 
  4.978158667517375   7.185676822784818   1.656310598939918 
  6.223420021919061   0.719117081630433   1.670325636327323 
  9.957318827351182   7.186090089146369   1.666527798819287 
 11.202235609649751   0.718623749417456   1.665371023909648 
 -3.734078536549858   9.342108742426664   8.339902970428451 
  1.245097980913517   9.341823793092088   8.335631576517331 
  2.489564889425180   2.875305959729405   8.349646613904763 
  6.223059092186308   9.341823793092088   8.335631576517331 
  7.468109833332914   2.874522271561891   8.336199420480641 
 12.446878777766825   2.874450141723822   8.340448640672335 
 -1.244453220626779   9.341988509998711   1.666527798819287 
  0.000047239766963   2.874522271561891   1.669757792363947 
  4.978592183674637   2.875305959729404   1.656310598939918 
  3.734078536549933   9.342054194642358   1.669757792363947 
  8.712610293726602   9.341988509998711   1.666527798819287 
  9.957592441532666   2.874450141723822   1.665508572172291 
 -4.978787070174400  11.498247628134923   8.339429414025300 
  0.000189571350521  11.498089439749167   8.340714277055984 
  1.245484758457785   5.030115955251892   8.349646613904763 
  6.222672314642126   5.030115955251892   8.349646613904763 
  4.978757374377695  11.498045440541896   8.340448640672335 
 11.202235609649776   5.030147347781538   8.340714277055984 
 -1.244243504455580   5.030157863043632   1.670325636327323 
 -2.489370002925298  11.498247628134923   1.666527798819287 
  2.489399698722280  11.498045440541896   1.665508572172291 
  3.734078536549917   5.030366245922020   1.552748111476024 
  7.467967501749379  11.498089439749167   1.665242935788618 
  8.712400577555503   5.030157863043632   1.670325636327323 
  0.000402200306614   7.186005283719076   8.335505528521136 
  1.244737051180769   0.719117081630433   8.335631576517331 
  4.978158667517376   7.185676822784819   8.349646613904763 
  6.223420021919062   0.719117081630433   8.335631576517331 
  9.957318827351182   7.186090089146369   8.339429414025300 
 -2.489161754251302   7.186090089146369   1.666527798819287 
 11.202235609649751   0.718623749417456   8.340586188934980 
  3.734078536549900   0.719088170328039   1.670451684323532 
  2.489998405582492   7.185676822784818   1.656310598939918 
  7.467754872793267   7.186005283719076   1.670451684323532 
  8.712913603704958   0.718603155500435   1.665508572172291 
  2.489998405582492   7.185676822784819   8.349646613904763 
 13.691557615594531   0.718603155500435   1.665508572172291 
 -1.244453220626779   9.341988509998711   8.339429414025300 
  0.000047239766964   2.874522271561891   8.336199420480641 
  4.978592183674638   2.875305959729405   8.349646613904763 
  3.734078536549933   9.342054194642358   8.336199420480641 
  8.712610293726602   9.341988509998711   8.339429414025300 
  9.957592441532666   2.874450141723822   8.340448640672335 
 -3.734078536549859   9.342108742426664   1.666054242416122 
  1.245097980913516   9.341823793092088   1.670325636327323 
  2.489564889425179   2.875305959729404   1.656310598939918 
  6.223059092186307   9.341823793092088   1.670325636327323 
  7.468109833332913   2.874522271561891   1.669757792363947 
 12.446878777766825   2.874450141723822   1.665508572172291 
 -1.244243504455579   5.030157863043633   8.335631576517331 
 -2.489370002925298  11.498247628134923   8.339429414025300 
  2.489399698722280  11.498045440541896   8.340448640672335 
  3.734078536549917   5.030366245922021   8.453209101368603 
  7.467967501749380  11.498089439749167   8.340714277055984 
 -4.978787070174401  11.498247628134923   1.666527798819287 
  8.712400577555503   5.030157863043633   8.335631576517331 
  0.000189571350521  11.498089439749167   1.665242935788618 
  1.245484758457784   5.030115955251891   1.656310598939918 
  0.000402200306613   7.186005283719076   1.670451684323532 
  6.222672314642125   5.030115955251891   1.656310598939918 
  4.978757374377694  11.498045440541896   1.665508572172291 
 11.202235609649776   5.030147347781537   1.665242935788618 
 -2.489161754251302   7.186090089146369   8.339429414025300 
  3.734078536549900   0.719088170328040   8.335505528521136 
  7.467754872793268   7.186005283719076   8.335505528521136 
  8.712913603704958   0.718603155500436   8.340448640672335 
 13.691557615594531   0.718603155500436   8.340448640672335 
 -0.014506056815656   1.425552652819328   5.002978606422314 
  3.734078536549912   7.917760534003246   5.002978606422314 
  5.022433824255918   1.316385997759763   5.002978606422314 
  8.750090000424176   7.926361814848220   5.002978606422314 
  9.963470251706708   1.433825262288730   5.002978606422314 
 -4.978665656900288  10.060671451390924  11.673616748318732 
  0.000094572965315  10.060676722152566  11.673616748318732 
  1.244752038450840   3.593152922143668  11.673616748318732 
  4.978858539264779  10.060589403948521  11.673616748318732 
  6.223405034649084   3.593152922143668  11.673616748318732 
 11.202235609649732   3.593135657304860  11.673616748318732 
 -2.496685401754965  10.056518001893945   5.002978606422314 
 -1.262073907667288   3.586403556383880   5.002978606422314 
  3.734078536549864   3.182090105601000   5.002978606422314 
  2.486510685698339  10.079142528563024   5.002978606422314 
  7.491838009162507  10.087745117165888   5.002978606422314 
  8.730230980767077   3.586403556383880   5.002978606422314 
 -6.223463216096214  12.216713527532825  11.673616748318732 
 -1.244693857003710  12.216713527532825  11.673616748318732 
 -0.000207700968504   5.748986720450801  11.673616748318732 
  4.979076263774048   5.749166018875349  11.673616748318732 
  3.734078536549913  12.216665859619646  11.673616748318732 
  9.957447179680603   5.748935977594746  11.673616748318732 
 -2.524619778816140   5.755991974894341   5.002978606422314 
 -3.734078536549902  12.173602597583681   5.002978606422314 
  1.249437606151405  12.219343128926118   5.002978606422314 
  2.133424445823192   5.954504316082578   5.002978606422314 
  6.218719466948405  12.219343128926118   5.002978606422314 
  7.594657424465122   5.771607961749736   5.002978606422314 
 -1.244702374087791   7.904866744914951  11.673616748318732 
  0.000167496351639   1.437243562434886  11.673616748318732 
  3.734078536549957   7.904792893478898  11.673616748318732 
  4.978878068687513   1.437069261964139  11.673616748318732 
  8.712859447187419   7.904866744914951  11.673616748318732 
 -3.734078536549889   7.913290223492178   5.002978606422314 
  9.957596561218260   1.437216439073294  11.673616748318732 
  2.445723248843779   1.316385997759763   5.002978606422314 
  1.161854936340678   8.003104778256759   5.002978606422314 
  6.306302136758993   8.003104778256759   5.002978606422314 
  7.482663129915548   1.425552652819328   5.002978606422314 
  1.244591831169108   7.905042755351281  11.673616748318732 
 12.441000967592888   1.433825262288730   5.002978606422314 
 -2.489491416199516  10.060671451390924  11.673616748318732 
 -1.244612506363234   3.593265771382787  11.673616748318732 
  3.734078536549880   3.592766700015431  11.673616748318732 
  2.489298533835120  10.060589403948521  11.673616748318732 
  7.468062500134286  10.060676722152566  11.673616748318732 
  8.712769579463007   3.593265771382787  11.673616748318732 
 -4.971471671344825  10.056518001893945   5.002978606422314 
 -0.023680936062819  10.087745117165888   5.002978606422314 
  1.233521732329564   3.586669101881493   5.002978606422314 
  4.981646387401500  10.079142528563024   5.002978606422314 
  6.234635340770270   3.586669101881493   5.002978606422314 
 11.202235609649650   3.587639969427832   5.002978606422314 
 -2.489290106580871   5.748935977594746  11.673616748318732 
 -3.734078536549954  12.216592737450284  11.673616748318732 
  1.244678200838679  12.216595284987548  11.673616748318732 
  2.489080809325789   5.749166018875349  11.673616748318732 
  6.223478872261296  12.216595284987548  11.673616748318732 
 -6.235017379303312  12.182589135219814   5.002978606422314 
  7.468364774068385   5.748986720450801  11.673616748318732 
 -1.233139693796523  12.182589135219814   5.002978606422314 
 -0.126500351365347   5.771607961749736   5.002978606422314 
 -1.281932927324444   7.926361814848220   5.002978606422314 
  5.334732627276642   5.954504316082578   5.002978606422314 
  3.734078536550084  12.223448213188707   5.002978606422314 
  9.992776851915973   5.755991974894341   5.002978606422314 
 -3.734078536549896   7.904983324498186  11.673616748318732 
  2.489279004412200   1.437069261964139  11.673616748318732 
  6.223565241930684   7.905042755351281  11.673616748318732 
  7.467989576748223   1.437243562434886  11.673616748318732 
 12.446874658081111   1.437216439073294  11.673616748318732 
  1.208790343420826   0.663254053895896   5.002978606422314 
  5.078212801618855   7.291452795502255   5.002978606422314 
  6.259366729679005   0.663254053895896   5.002978606422314 
  9.974444461385211   7.191765932369447   5.002978606422314 
 11.202235609649751   0.718623749417456   5.002978606422314 
 -3.734078536549858   9.342108742426666  11.673616748318732 
  1.244811058911297   9.341691313056758  11.673616748318732 
  2.489447545747830   2.875339690089231  11.673616748318732 
  6.223346014188528   9.341691313056758  11.673616748318732 
  7.466952482332937   2.875190468473293  11.673616748318732 
 12.446553026553982   2.874968862800945  11.673616748318732 
 -1.257931462062846   9.353981822516527   5.002978606422314 
 -0.005834091236184   2.871126683524039   5.002978606422314 
  5.020169796107123   2.735768551485136   5.002978606422314 
  3.734078536550010   9.348845370718088   5.002978606422314 
  8.726088535162715   9.353981822516527   5.002978606422314 
  9.962815031784153   2.867366908333886   5.002978606422314 
 -4.978198962965307  11.498470066398273  11.673616748318732 
  0.000522345087813  11.498281566756027  11.673616748318732 
  1.245455297967612   5.029997467466395  11.673616748318732 
  6.222701775132328   5.029997467466395  11.673616748318732 
  4.979369475614377  11.498068188828986  11.673616748318732 
 11.202235609649733   5.029763093767903  11.673616748318732 
 -1.310595659485975   5.026958614808375   5.002978606422314 
 -2.485722610327346  11.480578472393990   5.002978606422314 
  2.492922663653103  11.506109953068195   5.002978606422314 
  7.462931036413678  11.500997244366499   5.002978606422314 
  8.778752732585883   5.026958614808375   5.002978606422314 
 -0.000210508195910   7.186359031137962  11.673616748318732 
  1.244995243257979   0.718934839905259  11.673616748318732 
  4.978070784330168   7.185761580210544  11.673616748318732 
  6.223161829841868   0.718934839905259  11.673616748318732 
  9.956832136559759   7.186488185797971  11.673616748318732 
 -2.506287388285373   7.191765932369447   5.002978606422314 
 11.202235609649751   0.718623749417457  11.673616748318732 
  3.734078536549923   0.660176606261856   5.002978606422314 
  2.389944271480922   7.291452795502255   5.002978606422314 
  7.518773783851207   7.215461065752150   5.002978606422314 
  8.721659158887269   0.717621876364047   5.002978606422314 
  2.490086288769626   7.185761580210544  11.673616748318732 
 13.682812060412207   0.717621876364047   5.002978606422314 
 -1.244554637044508   9.341367975083736  11.673616748318732 
  0.001204590766986   2.875190468473293  11.673616748318732 
  4.978709527352004   2.875339690089231  11.673616748318732 
  3.734078536549994   9.340717800819506  11.673616748318732 
  8.712711710144347   9.341367975083736  11.673616748318732 
  9.957918192745511   2.874968862800945  11.673616748318732 
 -3.734078536549858   9.342108742426664   5.002978606422314 
  1.214692533643050   9.400886069061908   5.002978606422314 