Species order: X N B                    
   2.51242800000000     
     5.9449720136058266    0.0000000000000000    0.0000000000000000
    -2.9724860068029120    5.1484967885702053   -0.0000000000000001
     0.0000000000000000    0.0000000000000009    5.3101128803662583
   P    N    B 
     1   143   143
Direct
  0.4981472317602590  0.4157402825467932  0.3750000000000000
  0.1111033195164874  0.0555492056759551  0.1250020963658252
  0.6110853306421392  0.5555680840723123  0.1242141382834449
  0.4444148789144911  0.0555233854428938  0.1249966153081045
  0.9443769323619993  0.5555229252807586  0.1250782876732302
  0.7777751798475142  0.0555542565904252  0.1249462680869860
  0.1110466710953670  0.7221900022143488  0.6249978115908076
  0.4444148789144911  0.7222248268049277  0.6250033846919049
  0.2777823297356486  0.2222171674256679  0.6250407053860230
  0.7777391002308728  0.7222138878346449  0.6249455123057442
  0.6110818672885767  0.2221850321067495  0.6251028762686455
  0.9444483114566457  0.2222239939423937  0.6250264255029564
  0.2777249067412420  0.7222005858040824  0.1250316701086950
  0.1111316187765618  0.2222324760549440  0.1250060521475606
  0.4444331801386832  0.2221943033918904  0.1248128612471337
  0.6110818672885767  0.7222301685151354  0.1248971237313581
  0.9443769323619993  0.7221873404145810  0.1250782876732302
  0.7777657154006606  0.2222056757143188  0.1250073230811755
  0.1110632395904252  0.8888609335397489  0.6249597886172988
  0.4444082666050197  0.8888707999691663  0.6249800663976505
  0.2777823297356486  0.3888984956433068  0.6250407053860230
  0.6110853306421392  0.3888505799031708  0.6257858617165560
  0.7777657154006606  0.8888933730196636  0.6249926769188200
  0.9444173452424547  0.3888725183786439  0.6249563225055338
  0.1111033195164874  0.3888874471738608  0.1250020963658252
  0.2777249067412421  0.8888576542704986  0.1250316701086950
  0.6110860213007899  0.8888880355500567  0.1249527435987113
  0.4444307776851821  0.3888820555092551  0.1243464031163533
  0.9444173452424547  0.8888781601971599  0.1250436774944744
  0.7777391002308728  0.3888585457295589  0.1250544876942594
  0.2777481109214016  0.5555542856708485  0.6249809562667279
  0.1111033195164874  0.0555492056759551  0.6249979036341639
  0.6110853306421392  0.5555680840723123  0.6257858617165560
  0.4444148789144911  0.0555233854428938  0.6250033846919049
  0.9443769323619993  0.5555229252807586  0.6249217123267734
  0.1110632395904251  0.5555356393840036  0.1250402113826959
  0.7777751798475142  0.0555542565904252  0.6250537319130216
  0.2777481109214016  0.0555271585838670  0.1250190437332589
  0.4444331801386832  0.5555722100801301  0.1248128612471337
  0.7777100268286677  0.5555216800810061  0.1250054139905163
  0.6110860213007899  0.0555313190840392  0.1249527435987113
  0.4444331801386832  0.5555722100801301  0.6251871387528720
  0.9444483114566457  0.0555576508475940  0.1249735744970433
  0.2777249067412421  0.7222005858040824  0.6249683298913036
  0.1111316187765618  0.2222324760549440  0.6249939478524329
  0.4444331801386832  0.2221943033918904  0.6251871387528720
  0.6110818672885767  0.7222301685151354  0.6251028762686455
  0.9443769323619993  0.7221873404145810  0.6249217123267734
  0.7777657154006606  0.2222056757143188  0.6249926769188200
  0.1110466710953670  0.7221900022143488  0.1250021884091919
  0.4444148789144911  0.7222248268049277  0.1249966153081045
  0.2777823297356486  0.2222171674256679  0.1249592946139817
  0.7777391002308728  0.7222138878346449  0.1250544876942594
  0.6110818672885767  0.2221850321067495  0.1248971237313581
  0.9444483114566457  0.2222239939423937  0.1249735744970433
  0.1111033195164874  0.3888874471738608  0.6249979036341639
  0.2777249067412421  0.8888576542704986  0.6249683298913036
  0.6110860213007899  0.8888880355500567  0.6250472564012869
  0.4444307776851821  0.3888820555092551  0.6256535968836426
  0.9444173452424547  0.8888781601971599  0.6249563225055338
  0.1110632395904252  0.8888609335397489  0.1250402113826959
  0.7777391002308728  0.3888585457295589  0.6249455123057442
  0.4444082666050197  0.8888707999691663  0.1250199336023526
  0.2777823297356486  0.3888984956433068  0.1249592946139817
  0.2777481109214016  0.5555542856708485  0.1250190437332589
  0.6110853306421392  0.3888505799031708  0.1242141382834449
  0.7777657154006606  0.8888933730196636  0.1250073230811755
  0.9444173452424547  0.3888725183786439  0.1250436774944744
  0.1110632395904252  0.5555356393840036  0.6249597886172988
  0.2777481109214016  0.0555271585838670  0.6249809562667279
  0.7777100268286677  0.5555216800810061  0.6249945860094880
  0.6110860213007899  0.0555313190840392  0.6250472564012869
  0.9444483114566457  0.0555576508475940  0.6250264255029564
  0.0598052416894030  0.1135915662569833  0.3750000000000000
  0.5560350291091715  0.6205917979785267  0.3750000000000000
  0.3888375886608492  0.1079111406570788  0.3750000000000000
  0.8838487799350977  0.6085910566342166  0.3750000000000000
  0.7245650316100606  0.1114239474373150  0.3750000000000000
  0.0556377057760422  0.7778193631003422  0.8750000000000000
  0.3889723988603956  0.7778196845200719  0.8750000000000000
  0.2223052026252263  0.2778192679792763  0.8750000000000000
  0.7223078525718732  0.7778195662900089  0.8750000000000000
  0.5556347379987224  0.2778166466035212  0.8750000000000000
  0.8889759831857119  0.2778249116397637  0.8750000000000000
  0.2205709444266568  0.7769521388799967  0.3750000000000000
  0.0598052416894034  0.2795470087657587  0.3750000000000000
  0.3985535984058922  0.2811685755162051  0.3750000000000000
  0.5562540087274299  0.7820616891227945  0.3750000000000000
  0.8872437053556592  0.7771759160931512  0.3750000000000000
  0.7235870815431107  0.2762466617513863  0.3750000000000000
  0.0556420259394385  0.9444884607780548  0.8750000000000000
  0.3889723988603956  0.9444860476736564  0.8750000000000000
  0.2223051662439057  0.4444842735619491  0.8750000000000000
  0.5556384714659615  0.4444859023996450  0.8750000000000000
  0.7223094678796600  0.9444886231465368  0.8750000000000000
  0.8889725265300792  0.4444874815843673  0.8750000000000000
  0.0567844304131886  0.4447579401959150  0.3750000000000000
  0.2214226213454901  0.9433699744281165  0.3750000000000000
  0.5562916829725900  0.9448125081529561  0.3750000000000000
  0.3985535984058922  0.4507183562230260  0.3750000000000000
  0.8914813326331046  0.9464609626291829  0.3750000000000000
  0.7157331019617369  0.4402901251625997  0.3750000000000000
  0.2223029401102625  0.6111494906077214  0.8750000000000000
  0.0556419985472025  0.1111526400292237  0.8750000000000000
  0.5556347379987224  0.6111514247285348  0.8750000000000000
  0.3889746535559264  0.1111530702609726  0.8750000000000000
  0.8889678469597316  0.6111505901465392  0.8750000000000000
  0.0531958500503863  0.6101289976734795  0.3750000000000000
  0.7223094678796600  0.1111541780664842  0.8750000000000000
  0.2265768471106493  0.1137798844518645  0.3750000000000000
  0.3888375886608492  0.6142597813371131  0.3750000000000000
  0.7157331019617369  0.6087763101324517  0.3750000000000000
  0.5562540087274299  0.1075256529379540  0.3750000000000000
  0.3889746535559264  0.6111549166282980  0.8750000000000000
  0.8923981214235476  0.1128657273784505  0.3750000000000000
  0.2223004592003978  0.7778168962668570  0.8750000000000000
  0.0556419985472025  0.2778226918513126  0.8750000000000000
  0.3889742148714579  0.2778209149968501  0.8750000000000000
  0.5556361248158725  0.7778206237266869  0.8750000000000000
  0.8889725265300792  0.7778183782790584  0.8750000000000000
  0.7223078525718732  0.2778216196152059  0.8750000000000000
  0.0531958500503863  0.7764001857102394  0.3750000000000000
  0.3882537093890854  0.7785693524320281  0.3750000000000000
  0.2288966617670317  0.2811149975501868  0.3750000000000000
  0.7235870815431107  0.7806737531250481  0.3750000000000000
  0.5560350291091715  0.2687765644639696  0.3750000000000000
  0.8914813326331046  0.2783537033372763  0.3750000000000000
  0.0556420259394385  0.4444868984947064  0.8750000000000000
  0.2223029401102632  0.9444867828358589  0.8750000000000000
  0.5556352964704560  0.9444843149018888  0.8750000000000000
  0.3889742148714579  0.4444866332079376  0.8750000000000000
  0.8889759831857119  0.9444844048792839  0.8750000000000000
  0.0567844304131886  0.9453598235505976  0.3750000000000000
  0.7223061263198380  0.4444852939575090  0.8750000000000000
  0.3882537093890854  0.9430176902903911  0.3750000000000000
  0.2265768471106493  0.4461302959921194  0.3750000000000000
  0.2214226213454901  0.6113859802507182  0.3750000000000000
  0.7245650316100606  0.9464744175060769  0.3750000000000000
  0.8872437053556592  0.4434011225958240  0.3750000000000000
  0.0556377057760422  0.6111516760090226  0.8750000000000000
  0.2223051662439072  0.1111542260152913  0.8750000000000000
  0.7223061263198380  0.6111541656956809  0.8750000000000000
  0.5556361248158725  0.1111488344225391  0.8750000000000000
  0.8889759283333741  0.1111546308333640  0.8750000000000000
  0.1147502828129389  0.0575339497792331  0.3750000000000000
  0.6034743849966760  0.5605109396100590  0.3750000000000000
  0.4449777700002478  0.0533297612982536  0.3750000000000000
  0.9414647983031017  0.5544182571895921  0.3750000000000000
  0.7810760532433968  0.0572046932883617  0.3750000000000000
  0.1112200773981229  0.7222767053657416  0.8750000000000000
  0.4445571977632112  0.7222788570545395  0.8750000000000000
  0.2778614194984629  0.2222721250242200  0.8750000000000000
  0.7778886916805124  0.7222782587982569  0.8750000000000000
  0.6111863942509357  0.2222666322959103  0.8750000000000000
  0.9445295748223084  0.2222728362127614  0.8750000000000000
  0.2769166394272547  0.7223328404754963  0.3750000000000000
  0.1167894531600485  0.2250613932466890  0.3750000000000000
  0.4455797205569543  0.2178380351311393  0.3750000000000000
  0.6130115791784460  0.7292599853212731  0.3750000000000000
  0.9414647983031017  0.7203798744468440  0.3750000000000000
  0.7804840031414632  0.2223158858330944  0.3750000000000000
  0.1112334840759333  0.8889525073869216  0.8750000000000000
  0.4445666847731761  0.8889500090532502  0.8750000000000000
  0.2778614194984629  0.3889226278075776  0.8750000000000000
  0.6111859831297215  0.3889176613065101  0.8750000000000000
  0.7779046170219076  0.8889517439520264  0.8750000000000000
  0.9445262944675359  0.3889227302361131  0.8750000000000000
  0.1147502828129389  0.3905496663670422  0.3750000000000000
  0.2769166394272547  0.8879171322851021  0.3750000000000000
  0.6131282404543730  0.8917617109755211  0.3750000000000000
  0.9451682705130171  0.8892590545716386  0.3750000000000000
  0.7754807472854277  0.3872594949605855  0.3750000000000000
  0.2778567512194949  0.5555998489833716  0.8750000000000000
  0.1112289200052524  0.0556160591661391  0.8750000000000000
  0.6111859831297215  0.5556016551565283  0.8750000000000000
  0.4445571977632112  0.0556116740420128  0.8750000000000000
  0.9445177858972414  0.5555988429787430  0.8750000000000000
  0.1102871536459932  0.5556635107368113  0.3750000000000000
  0.7778947879648354  0.0556140606490853  0.8750000000000000
  0.2781971990198910  0.0544974602328878  0.3750000000000000
  0.4455797205569543  0.5610750187591412  0.3750000000000000
  0.7712452393991185  0.5522892863662201  0.3750000000000000
  0.6131282404543730  0.0546998628121836  0.3750000000000000
  0.4445658283014849  0.5556146012870815  0.8750000000000000
  0.9483007494276928  0.0577445482710826  0.3750000000000000
  0.2778540003972215  0.7222516497985425  0.8750000000000000
  0.1112408501553691  0.2222870917443504  0.8750000000000000
  0.4445658283014849  0.2222845603477418  0.8750000000000000
  0.6111863942509357  0.7222530952883622  0.8750000000000000
  0.9445177858972414  0.7222522762518383  0.8750000000000000
  0.7779046170219076  0.2222862064032199  0.8750000000000000
  0.1091729606056115  0.7212531469694768  0.3750000000000000
  0.4449777700002478  0.7249813420353360  0.3750000000000000
  0.2858033624618952  0.2267773407769523  0.3750000000000000
  0.7754807472854277  0.7215545856581809  0.3750000000000000
  0.6130115791784460  0.2170849271905006  0.3750000000000000
  0.9483007494276928  0.2238895344899603  0.3750000000000000
  0.1112289200052524  0.3889461941724445  0.8750000000000000
  0.2778540003972217  0.8889356839319997  0.8750000000000000
  0.6111886430791839  0.8889355466603340  0.8750000000000000
  0.4445558828507533  0.3889446080920415  0.8750000000000000
  0.9445262944675359  0.8889368975647575  0.8750000000000000
  0.1102871536459932  0.8879569762425130  0.3750000000000000
  0.7778886916805124  0.3889437662155795  0.8750000000000000
  0.4448327248938586  0.8890830291135866  0.3750000000000000
  0.2858033624618952  0.3923593550182787  0.3750000000000000
  0.2781971990198910  0.5570330721203454  0.3750000000000000
  0.6034743849966760  0.3762967787199338  0.3750000000000000
  0.7804840031414632  0.8915014506416906  0.3750000000000000
  0.9451682705130171  0.3892425492746924  0.3750000000000000
  0.1112334840759333  0.5556143100223280  0.8750000000000000
  0.2778567512194949  0.0555902355694550  0.8750000000000000
  0.7778941117365233  0.5556137225349244  0.8750000000000000
  0.6111886430791839  0.0555864297521564  0.8750000000000000
  0.9445295748223084  0.0555900719428694  0.8750000000000000
  0.0555714519638243  0.1111137255081303  0.1250011745770606
  0.5554963890519857  0.6111025423481885  0.1246504782326266
  0.3888635475835652  0.1110773446401866  0.1249809946245471
  0.8887956543214536  0.6110644938273850  0.1250949418321084
  0.7222053861610052  0.1110866976356155  0.1249764583463079
  0.0555033705053609  0.7777449406093011  0.6249518755898392
  0.3888496229586584  0.7777552267586546  0.6249777339124462
  0.2222184062421419  0.2777758697877307  0.6249833987470861
  0.7221972189489045  0.7777708580697024  0.6250083417677810
  0.5554963890519857  0.2777271800371229  0.6253495217673825
  0.8888448228230784  0.2777451039883086  0.6249911467079845
  0.2221253419960055  0.7777293376646746  0.1250256526682978
  0.0555714519638243  0.2777910597890230  0.1250011745770606
  0.3888756557648737  0.2777570080546405  0.1248343589711790
  0.5554822470442018  0.7777538089288772  0.1249694727750728
  0.8888048614081261  0.7777476803319535  0.1250873563718569
  0.7221972189489045  0.2777596942125332  0.1249916582322187
  0.0555353496553198  0.9444490147258778  0.6249596883001282
  0.3888496229586584  0.9444277295333416  0.6249777339124462
  0.2221750820117817  0.4444209153293054  0.6249589573313314
  0.5555170022702840  0.4444251678018063  0.6256953289843696
  0.7222053861610052  0.9444520218587314  0.6250235416536840
  0.8888048614081261  0.4443905144094958  0.6249126436281424
  0.0555353496553198  0.4444196682627676  0.1250403116998793
  0.2221455621158474  0.9444040364340269  0.1250455570039257
  0.5554878841387252  0.9444106087360328  0.1249816400702707
  0.3888756557648737  0.4444519810435751  0.1248343589711790
  0.8888448228230784  0.9444330521681019  0.1250088532920179
  0.7221874232048661  0.4444087896165702  0.1247892730133582
  0.2221455621158474  0.6110748590151477  0.6249544429960701
  0.0555714519638243  0.1111137255081303  0.6249988254229422
  0.5554963890519857  0.6111025423481885  0.6253495217673825
  0.3888635475835653  0.1110773446401866  0.6250190053754539
  0.8887956543214536  0.6110644938273850  0.6249050581678948
  0.0555033705053609  0.6110917632293781  0.1250481244101590
  0.7222053861610052  0.1110866976356155  0.6250235416536840
  0.2221750820117817  0.1110875000158160  0.1250410426686619
  0.3888635475835653  0.6111195362767320  0.1249809946245471
  0.7221874232048661  0.6111119669216308  0.1247892730133582
  0.5554822470442018  0.1110617714486634  0.1249694727750728
  0.3888635475835652  0.6111195362767320  0.6250190053754539
  0.8888474717950635  0.1110904025642005  0.1249759511831077
  0.2221253419960055  0.7777293376646746  0.6249743473317064
  0.0555714519638243  0.2777910597890230  0.6249988254229422
  0.3888756557648737  0.2777570080546405  0.6251656410288129
  0.5554822470442018  0.7777538089288772  0.6250305272249350
  0.8888048614081261  0.7777476803319535  0.6249126436281424
  0.7221972189489045  0.2777596942125332  0.6250083417677810
  0.0555033705053609  0.7777449406093011  0.1250481244101590
  0.3888496229586584  0.7777552267586546  0.1250222660875464
  0.2222184062421419  0.2777758697877307  0.1250166012529185
  0.7221972189489045  0.7777708580697024  0.1249916582322187
  0.5554963890519857  0.2777271800371229  0.1246504782326266
  0.8888448228230784  0.2777451039883086  0.1250088532920179
  0.0555353496553198  0.4444196682627676  0.6249596883001282
  0.2221455621158474  0.9444040364340269  0.6249544429960701
  0.5554878841387252  0.9444106087360328  0.6250183599297330
  0.3888756557648737  0.4444519810435751  0.6251656410288129
  0.8888448228230784  0.9444330521681019  0.6249911467079845
  0.0555353496553198  0.9444490147258778  0.1250403116998793
  0.7221874232048661  0.4444087896165702  0.6252107269866430
  0.3888496229586584  0.9444277295333416  0.1250222660875464
  0.2221750820117817  0.4444209153293055  0.1250410426686619
  0.2221455621158474  0.6110748590151477  0.1250455570039257
  0.5555170022702840  0.4444251678018063  0.1243046710156337
  0.7222053861610052  0.9444520218587314  0.1249764583463079
  0.8888048614081203  0.4443905144094958  0.1250873563718569
  0.0555033705053609  0.6110917632293781  0.6249518755898392
  0.2221750820117817  0.1110875000158160  0.6249589573313314
  0.7221874232048661  0.6111119669216308  0.6252107269866430
  0.5554822470442018  0.1110617714486634  0.6250305272249350
  0.8888474717950635  0.1110904025642005  0.6250240488168975
 
  0.00000000E+00  0.00000000E+00  0.00000000E+00
  0.00000000E+00  0.00000000E+00  0.00000000E+00
  0.00000000E+00  0.00000000E+00  0.00000000E+00
  0.00000000E+00  0.00000000E+00  0.00000000E+00
  0.00000000E+00  0.00000000E+00  0.00000000E+00
  0.00000000E+00  0.00000000E+00  0.00000000E+00
  0.00000000E+00  0.00000000E+00  0.00000000E+00
  0.00000000E+00  0.00000000E+00  0.00000000E+00
  0.00000000E+00  0.00000000E+00  0.00000000E+00
  0.00000000E+00  0.00000000E+00  0.00000000E+00
  0.00000000E+00  0.00000000E+00  0.00000000E+00
  0.00000000E+00  0.00000000E+00  0.00000000E+00
  0.00000000E+00  0.00000000E+00  0.00000000E+00
  0.00000000E+00  0.00000000E+00  0.00000000E+00
  0.00000000E+00  0.00000000E+00  0.00000000E+00
  0.00000000E+00  0.00000000E+00  0.00000000E+00
  0.00000000E+00  0.00000000E+00  0.00000000E+00
  0.00000000E+00  0.00000000E+00  0.00000000E+00
  0.00000000E+00  0.00000000E+00  0.00000000E+00
  0.00000000E+00  0.00000000E+00  0.00000000E+00
  0.00000000E+00  0.00000000E+00  0.00000000E+00
  0.00000000E+00  0.00000000E+00  0.00000000E+00
  0.00000000E+00  0.00000000E+00  0.00000000E+00
  0.00000000E+00  0.00000000E+00  0.00000000E+00
  0.00000000E+00  0.00000000E+00  0.00000000E+00
  0.00000000E+00  0.00000000E+00  0.00000000E+00
  0.00000000E+00  0.00000000E+00  0.00000000E+00
  0.00000000E+00  0.00000000E+00  0.00000000E+00
  0.00000000E+00  0.00000000E+00  0.00000000E+00
  0.00000000E+00  0.00000000E+00  0.00000000E+00
  0.00000000E+00  0.00000000E+00  0.00000000E+00
  0.00000000E+00  0.00000000E+00  0.00000000E+00
  0.00000000E+00  0.00000000E+00  0.00000000E+00
  0.00000000E+00  0.00000000E+00  0.00000000E+00
  0.00000000E+00  0.00000000E+00  0.00000000E+00
  0.00000000E+00  0.00000000E+00  0.00000000E+00
  0.00000000E+00  0.00000000E+00  0.00000000E+00
  0.00000000E+00  0.00000000E+00  0.00000000E+00
  0.00000000E+00  0.00000000E+00  0.00000000E+00
  0.00000000E+00  0.00000000E+00  0.00000000E+00
  0.00000000E+00  0.00000000E+00  0.00000000E+00
  0.00000000E+00  0.00000000E+00  0.00000000E+00
  0.00000000E+00  0.00000000E+00  0.00000000E+00
  0.00000000E+00  0.00000000E+00  0.00000000E+00
  0.00000000E+00  0.00000000E+00  0.00000000E+00
  0.00000000E+00  0.00000000E+00  0.00000000E+00
  0.00000000E+00  0.00000000E+00  0.00000000E+00
  0.00000000E+00  0.00000000E+00  0.00000000E+00
  0.00000000E+00  0.00000000E+00  0.00000000E+00
  0.00000000E+00  0.00000000E+00  0.00000000E+00
  0.00000000E+00  0.00000000E+00  0.00000000E+00
  0.00000000E+00  0.00000000E+00  0.00000000E+00
  0.00000000E+00  0.00000000E+00  0.00000000E+00
  0.00000000E+00  0.00000000E+00  0.00000000E+00
  0.00000000E+00  0.00000000E+00  0.00000000E+00
  0.00000000E+00  0.00000000E+00  0.00000000E+00
  0.00000000E+00  0.00000000E+00  0.00000000E+00
  0.00000000E+00  0.00000000E+00  0.00000000E+00
  0.00000000E+00  0.00000000E+00  0.00000000E+00
  0.00000000E+00  0.00000000E+00  0.00000000E+00
  0.00000000E+00  0.00000000E+00  0.00000000E+00
  0.00000000E+00  0.00000000E+00  0.00000000E+00
  0.00000000E+00  0.00000000E+00  0.00000000E+00
  0.00000000E+00  0.00000000E+00  0.00000000E+00
  0.00000000E+00  0.00000000E+00  0.00000000E+00
  0.00000000E+00  0.00000000E+00  0.00000000E+00
  0.00000000E+00  0.00000000E+00  0.00000000E+00
  0.00000000E+00  0.00000000E+00  0.00000000E+00
  0.00000000E+00  0.00000000E+00  0.00000000E+00
  0.00000000E+00  0.00000000E+00  0.00000000E+00
  0.00000000E+00  0.00000000E+00  0.00000000E+00
  0.00000000E+00  0.00000000E+00  0.00000000E+00
  0.00000000E+00  0.00000000E+00  0.00000000E+00
  0.00000000E+00  0.00000000E+00  0.00000000E+00
  0.00000000E+00  0.00000000E+00  0.00000000E+00
  0.00000000E+00  0.00000000E+00  0.00000000E+00
  0.00000000E+00  0.00000000E+00  0.00000000E+00
  0.00000000E+00  0.00000000E+00  0.00000000E+00
  0.00000000E+00  0.00000000E+00  0.00000000E+00
  0.00000000E+00  0.00000000E+00  0.00000000E+00
  0.00000000E+00  0.00000000E+00  0.00000000E+00
  0.00000000E+00  0.00000000E+00  0.00000000E+00
  0.00000000E+00  0.00000000E+00  0.00000000E+00
  0.00000000E+00  0.00000000E+00  0.00000000E+00
  0.00000000E+00  0.00000000E+00  0.00000000E+00
  0.00000000E+00  0.00000000E+00  0.00000000E+00
  0.00000000E+00  0.00000000E+00  0.00000000E+00
  0.00000000E+00  0.00000000E+00  0.00000000E+00
  0.00000000E+00  0.00000000E+00  0.00000000E+00
  0.00000000E+00  0.00000000E+00  0.00000000E+00
  0.00000000E+00  0.00000000E+00  0.00000000E+00
  0.00000000E+00  0.00000000E+00  0.00000000E+00
  0.00000000E+00  0.00000000E+00  0.00000000E+00
  0.00000000E+00  0.00000000E+00  0.00000000E+00
  0.00000000E+00  0.00000000E+00  0.00000000E+00
  0.00000000E+00  0.00000000E+00  0.00000000E+00
  0.00000000E+00  0.00000000E+00  0.00000000E+00
  0.00000000E+00  0.00000000E+00  0.00000000E+00
  0.00000000E+00  0.00000000E+00  0.00000000E+00
  0.00000000E+00  0.00000000E+00  0.00000000E+00
  0.00000000E+00  0.00000000E+00  0.00000000E+00
  0.00000000E+00  0.00000000E+00  0.00000000E+00
  0.00000000E+00  0.00000000E+00  0.00000000E+00
  0.00000000E+00  0.00000000E+00  0.00000000E+00
  0.00000000E+00  0.00000000E+00  0.00000000E+00
  0.00000000E+00  0.00000000E+00  0.00000000E+00
  0.00000000E+00  0.00000000E+00  0.00000000E+00
  0.00000000E+00  0.00000000E+00  0.00000000E+00
  0.00000000E+00  0.00000000E+00  0.00000000E+00
  0.00000000E+00  0.00000000E+00  0.00000000E+00
  0.00000000E+00  0.00000000E+00  0.00000000E+00
  0.00000000E+00  0.00000000E+00  0.00000000E+00
  0.00000000E+00  0.00000000E+00  0.00000000E+00
  0.00000000E+00  0.00000000E+00  0.00000000E+00
  0.00000000E+00  0.00000000E+00  0.00000000E+00
  0.00000000E+00  0.00000000E+00  0.00000000E+00
  0.00000000E+00  0.00000000E+00  0.00000000E+00
  0.00000000E+00  0.00000000E+00  0.00000000E+00
  0.00000000E+00  0.00000000E+00  0.00000000E+00
  0.00000000E+00  0.00000000E+00  0.00000000E+00
  0.00000000E+00  0.00000000E+00  0.00000000E+00
  0.00000000E+00  0.00000000E+00  0.00000000E+00
  0.00000000E+00  0.00000000E+00  0.00000000E+00
  0.00000000E+00  0.00000000E+00  0.00000000E+00
  0.00000000E+00  0.00000000E+00  0.00000000E+00
  0.00000000E+00  0.00000000E+00  0.00000000E+00
  0.00000000E+00  0.00000000E+00  0.00000000E+00
  0.00000000E+00  0.00000000E+00  0.00000000E+00
  0.00000000E+00  0.00000000E+00  0.00000000E+00
  0.00000000E+00  0.00000000E+00  0.00000000E+00
  0.00000000E+00  0.00000000E+00  0.00000000E+00
  0.00000000E+00  0.00000000E+00  0.00000000E+00
  0.00000000E+00  0.00000000E+00  0.00000000E+00
  0.00000000E+00  0.00000000E+00  0.00000000E+00
  0.00000000E+00  0.00000000E+00  0.00000000E+00
  0.00000000E+00  0.00000000E+00  0.00000000E+00
  0.00000000E+00  0.00000000E+00  0.00000000E+00
  0.00000000E+00  0.00000000E+00  0.00000000E+00
  0.00000000E+00  0.00000000E+00  0.00000000E+00
  0.00000000E+00  0.00000000E+00  0.00000000E+00
  0.00000000E+00  0.00000000E+00  0.00000000E+00
  0.00000000E+00  0.00000000E+00  0.00000000E+00
  0.00000000E+00  0.00000000E+00  0.00000000E+00
  0.00000000E+00  0.00000000E+00  0.00000000E+00
  0.00000000E+00  0.00000000E+00  0.00000000E+00
  0.00000000E+00  0.00000000E+00  0.00000000E+00
  0.00000000E+00  0.00000000E+00  0.00000000E+00
  0.00000000E+00  0.00000000E+00  0.00000000E+00
  0.00000000E+00  0.00000000E+00  0.00000000E+00
  0.00000000E+00  0.00000000E+00  0.00000000E+00
  0.00000000E+00  0.00000000E+00  0.00000000E+00
  0.00000000E+00  0.00000000E+00  0.00000000E+00
  0.00000000E+00  0.00000000E+00  0.00000000E+00
  0.00000000E+00  0.00000000E+00  0.00000000E+00
  0.00000000E+00  0.00000000E+00  0.00000000E+00
  0.00000000E+00  0.00000000E+00  0.00000000E+00
  0.00000000E+00  0.00000000E+00  0.00000000E+00
  0.00000000E+00  0.00000000E+00  0.00000000E+00
  0.00000000E+00  0.00000000E+00  0.00000000E+00
  0.00000000E+00  0.00000000E+00  0.00000000E+00
  0.00000000E+00  0.00000000E+00  0.00000000E+00
  0.00000000E+00  0.00000000E+00  0.00000000E+00
  0.00000000E+00  0.00000000E+00  0.00000000E+00
  0.00000000E+00  0.00000000E+00  0.00000000E+00
  0.00000000E+00  0.00000000E+00  0.00000000E+00
  0.00000000E+00  0.00000000E+00  0.00000000E+00
  0.00000000E+00  0.00000000E+00  0.00000000E+00
  0.00000000E+00  0.00000000E+00  0.00000000E+00
  0.00000000E+00  0.00000000E+00  0.00000000E+00
  0.00000000E+00  0.00000000E+00  0.00000000E+00
  0.00000000E+00  0.00000000E+00  0.00000000E+00
  0.00000000E+00  0.00000000E+00  0.00000000E+00
  0.00000000E+00  0.00000000E+00  0.00000000E+00
  0.00000000E+00  0.00000000E+00  0.00000000E+00
  0.00000000E+00  0.00000000E+00  0.00000000E+00
  0.00000000E+00  0.00000000E+00  0.00000000E+00
  0.00000000E+00  0.00000000E+00  0.00000000E+00
  0.00000000E+00  0.00000000E+00  0.00000000E+00
  0.00000000E+00  0.00000000E+00  0.00000000E+00
  0.00000000E+00  0.00000000E+00  0.00000000E+00
  0.00000000E+00  0.00000000E+00  0.00000000E+00
  0.00000000E+00  0.00000000E+00  0.00000000E+00
  0.00000000E+00  0.00000000E+00  0.00000000E+00
  0.00000000E+00  0.00000000E+00  0.00000000E+00
  0.00000000E+00  0.00000000E+00  0.00000000E+00
  0.00000000E+00  0.00000000E+00  0.00000000E+00
  0.00000000E+00  0.00000000E+00  0.00000000E+00
  0.00000000E+00  0.00000000E+00  0.00000000E+00
  0.00000000E+00  0.00000000E+00  0.00000000E+00
  0.00000000E+00  0.00000000E+00  0.00000000E+00
  0.00000000E+00  0.00000000E+00  0.00000000E+00
  0.00000000E+00  0.00000000E+00  0.00000000E+00
  0.00000000E+00  0.00000000E+00  0.00000000E+00
  0.00000000E+00  0.00000000E+00  0.00000000E+00
  0.00000000E+00  0.00000000E+00  0.00000000E+00
  0.00000000E+00  0.00000000E+00  0.00000000E+00
  0.00000000E+00  0.00000000E+00  0.00000000E+00
  0.00000000E+00  0.00000000E+00  0.00000000E+00
  0.00000000E+00  0.00000000E+00  0.00000000E+00
  0.00000000E+00  0.00000000E+00  0.00000000E+00
  0.00000000E+00  0.00000000E+00  0.00000000E+00
  0.00000000E+00  0.00000000E+00  0.00000000E+00
  0.00000000E+00  0.00000000E+00  0.00000000E+00
  0.00000000E+00  0.00000000E+00  0.00000000E+00
  0.00000000E+00  0.00000000E+00  0.00000000E+00
  0.00000000E+00  0.00000000E+00  0.00000000E+00
  0.00000000E+00  0.00000000E+00  0.00000000E+00
  0.00000000E+00  0.00000000E+00  0.00000000E+00
  0.00000000E+00  0.00000000E+00  0.00000000E+00
  0.00000000E+00  0.00000000E+00  0.00000000E+00
  0.00000000E+00  0.00000000E+00  0.00000000E+00
  0.00000000E+00  0.00000000E+00  0.00000000E+00
  0.00000000E+00  0.00000000E+00  0.00000000E+00
  0.00000000E+00  0.00000000E+00  0.00000000E+00
  0.00000000E+00  0.00000000E+00  0.00000000E+00
  0.00000000E+00  0.00000000E+00  0.00000000E+00
  0.00000000E+00  0.00000000E+00  0.00000000E+00
  0.00000000E+00  0.00000000E+00  0.00000000E+00
  0.00000000E+00  0.00000000E+00  0.00000000E+00
  0.00000000E+00  0.00000000E+00  0.00000000E+00
  0.00000000E+00  0.00000000E+00  0.00000000E+00
  0.00000000E+00  0.00000000E+00  0.00000000E+00
  0.00000000E+00  0.00000000E+00  0.00000000E+00
  0.00000000E+00  0.00000000E+00  0.00000000E+00
  0.00000000E+00  0.00000000E+00  0.00000000E+00
  0.00000000E+00  0.00000000E+00  0.00000000E+00
  0.00000000E+00  0.00000000E+00  0.00000000E+00
  0.00000000E+00  0.00000000E+00  0.00000000E+00
  0.00000000E+00  0.00000000E+00  0.00000000E+00
  0.00000000E+00  0.00000000E+00  0.00000000E+00
  0.00000000E+00  0.00000000E+00  0.00000000E+00
  0.00000000E+00  0.00000000E+00  0.00000000E+00
  0.00000000E+00  0.00000000E+00  0.00000000E+00
  0.00000000E+00  0.00000000E+00  0.00000000E+00
  0.00000000E+00  0.00000000E+00  0.00000000E+00
  0.00000000E+00  0.00000000E+00  0.00000000E+00
  0.00000000E+00  0.00000000E+00  0.00000000E+00
  0.00000000E+00  0.00000000E+00  0.00000000E+00
  0.00000000E+00  0.00000000E+00  0.00000000E+00
  0.00000000E+00  0.00000000E+00  0.00000000E+00
  0.00000000E+00  0.00000000E+00  0.00000000E+00
  0.00000000E+00  0.00000000E+00  0.00000000E+00
  0.00000000E+00  0.00000000E+00  0.00000000E+00
  0.00000000E+00  0.00000000E+00  0.00000000E+00
  0.00000000E+00  0.00000000E+00  0.00000000E+00
  0.00000000E+00  0.00000000E+00  0.00000000E+00
  0.00000000E+00  0.00000000E+00  0.00000000E+00
  0.00000000E+00  0.00000000E+00  0.00000000E+00