 C N B 
 1.0
 14.936314146199660   0.000000000000000   0.000000000000000
 -7.468157073099825  12.935227489513863   0.000000000000000
  0.000000000000001   0.000000000000001  13.341276283792837
 C N B 
   1 143 144
Cartesian
  4.978771382066589   5.748989995339477   5.002978606422314 
  1.244619498476715   0.718675071017773   1.668362552978855 
  4.978771382066597   7.187012375626961   1.659122036512487 
  6.223547425486473   0.718846578301222   1.668191975644138 
  9.957391387610695   7.186054028234692   1.668191975644138 
 11.202298330006153   0.718659961032176   1.668169046615974 
 -3.734184940729536   9.342047309944894   8.337629850811515 
  1.244927419942318   9.342069379482604   8.337765237200490 
  2.489198782927160   2.874570612692853   8.338054360120676 
  6.223305288999221   9.342232802083197   8.338054360120676 
  7.468343981206013   2.874570612692853   8.338054360120676 
 12.446928455166312   2.874422574440396   8.337788166228654 
 -1.244586441336946   9.342047309944894   1.668327362033114 
 -0.000256309025180   2.874347017585078   1.667904524642142 
  4.978771382066483   2.874685528519808   1.667454214670447 
  3.734237475133958   9.342232802083197   1.667902852723938 
  8.712615344190757   9.342069379482604   1.668191975644138 
  9.957799073158263   2.874347017585078   1.667904524642142 
 -4.978871259754739  11.498037655089155   8.337653332103878 
  0.000099877688367  11.498037655089155   8.337653332103878 
  1.244664875994590   5.030166571242276   8.338054360120676 
  6.224135294606122   5.029978805195728   8.346835176332153 
  4.978771382066546  11.498275950848353   8.338052688202485 
 11.202227837360079   5.030277064721955   8.337594659865774 
 -1.244685073226904   5.030277064721954   1.668362552978855 
 -2.489385691033240  11.498102855642507   1.668327362033114 
  2.489466810362977  11.498017850278687   1.668362552978855 
  3.733407469527070   5.029978805195727   1.659122036512487 
  7.468075953770203  11.498017850278687   1.668362552978855 
  8.712877888138705   5.030166571242275   1.667902852723938 
  0.000151376522379   7.186054028234693   8.337765237200490 
  1.244619498476715   0.718675071017774   8.337594659865774 
  4.978771382066598   7.187012375626962   8.346835176332153 
  6.223547425486474   0.718846578301223   8.337765237200490 
  9.957391387610695   7.186054028234693   8.337765237200490 
 -2.489385691033189   7.186122165353894   1.668303880740763 
 11.202298330006153   0.718659961032177   8.337788166228654 
  3.733995338646594   0.718846578301222   1.668191975644138 
  2.489550695589529   7.186142228749400   1.667454214670447 
  7.467992068543440   7.186142228749400   1.667454214670447 
  8.712923265656473   0.718675071017773   1.668362552978855 
  2.489550695589530   7.186142228749401   8.338502998174180 
 13.691558580326468   0.718659961032176   1.668169046615974 
 -1.244586441336945   9.342047309944894   8.337629850811515 
 -0.000256309025180   2.874347017585078   8.338052688202485 
  4.978771382066484   2.874685528519809   8.338502998174180 
  3.734237475133959   9.342232802083197   8.338054360120676 
  8.712615344190757   9.342069379482604   8.337765237200490 
  9.957799073158263   2.874347017585078   8.338052688202485 
 -3.734184940729536   9.342047309944894   1.668327362033114 
  1.244927419942318   9.342069379482604   1.668191975644138 
  2.489198782927160   2.874570612692852   1.667902852723938 
  6.223305288999220   9.342232802083197   1.667902852723938 
  7.468343981206012   2.874570612692852   1.667902852723938 
 12.446928455166312   2.874422574440395   1.668169046615974 
 -1.244685073226904   5.030277064721955   8.337594659865774 
 -2.489385691033239  11.498102855642507   8.337629850811515 
  2.489466810362977  11.498017850278687   8.337594659865774 
  3.733407469527071   5.029978805195728   8.346835176332153 
  7.468075953770204  11.498017850278687   8.337594659865774 
 -4.978871259754740  11.498037655089155   1.668303880740763 
  8.712877888138705   5.030166571242276   8.338054360120676 
  0.000099877688366  11.498037655089155   1.668303880740763 
  1.244664875994590   5.030166571242275   1.667902852723938 
  0.000151376522379   7.186054028234692   1.668191975644138 
  6.224135294606121   5.029978805195727   1.659122036512487 
  4.978771382066545  11.498275950848353   1.667904524642142 
 11.202227837360079   5.030277064721954   1.668362552978855 
 -2.489385691033189   7.186122165353895   8.337653332103878 
  3.733995338646595   0.718846578301223   8.337765237200490 
  7.467992068543441   7.186142228749401   8.338502998174180 
  8.712923265656473   0.718675071017774   8.337594659865774 
 13.691558580326468   0.718659961032177   8.337788166228654 
 -0.002332094252288   1.434753391489018   5.002978606422314 
  3.718401516595228   7.933520818118936   5.002978606422314 
  4.978771382066429   1.427756183859472   5.002978606422314 
  8.721069638500428   7.909606901079615   5.002978606422314 
  9.959874858385355   1.434753391489018   5.002978606422314 
 -4.978730501657709  10.060751744960873  11.673616748318732 
 -0.000040880408965  10.060751744960873  11.673616748318732 
  1.244728640424860   3.593139413287166  11.673616748318732 
  4.978771382066488  10.060691159444284  11.673616748318732 
  6.223426922249907   3.593063068095754  11.673616748318732 
 11.202237294759076   3.593166308307326  11.673616748318732 
 -2.489385691033300  10.060732491844131   5.002978606422314 
 -1.248018852964077   3.592346147893645   5.002978606422314 
  3.717097126925108   3.565212262287258   5.002978606422314 
  2.482598692792064  10.070852958467615   5.002978606422314 
  7.474944071341026  10.070852958467615   5.002978606422314 
  8.723075610467877   3.587214941144124   5.002978606422314 
 -6.223413359382548  12.216574371327097  11.673616748318732 
 -1.244696612032978  12.216558710065492  11.673616748318732 
 -0.000033356484647   5.749030550116085  11.673616748318732 
  4.978771382066590   5.748989995339477  11.673616748318732 
  3.734036504770358  12.216581418833881  11.673616748318732 
  9.957576120617736   5.749030550116085  11.673616748318732 
 -2.489385691033189   5.750021746933538   5.002978606422314 
 -3.733940582358455  12.213314022333718   5.002978606422314 
  1.243799322425798  12.216087864299421   5.002978606422314 
  2.456727261453802   5.748236905612327   5.002978606422314 
  6.224458140778320  12.219870446635870   5.002978606422314 
  7.500815502679270   5.748236905612327   5.002978606422314 
 -1.244729959409331   7.904887020506114  11.673616748318732 
  0.000040346670173   1.437222258877316  11.673616748318732 
  3.734011664462218   7.904856775721234  11.673616748318732 
  4.978771382066490   1.437152027993417  11.673616748318732 
  8.712932598790463   7.904908979012592  11.673616748318732 
 -3.731298534491811   7.906625574307450   5.002978606422314 
  9.957502417462894   1.437222258877316  11.673616748318732 
  2.484014608959772   1.426309552630812   5.002978606422314 
  1.236473125632437   7.909606901079615   5.002978606422314 
  6.239141247537829   7.933520818118936   5.002978606422314 
  7.473528155173311   1.426309552630812   5.002978606422314 
  1.244610165342521   7.904908979012592  11.673616748318732 
 12.446928455166319   1.437247498834912   5.002978606422314 
 -2.489385691033299  10.060732491844133  11.673616748318732 
 -1.244694530626007   3.593166308307326  11.673616748318732 
  3.734115841883164   3.593063068095754  11.673616748318732 
  2.489333891324184  10.060741102018911  11.673616748318732 
  7.468208872808908  10.060741102018911  11.673616748318732 
  8.712814123708107   3.593139413287166  11.673616748318732 
 -4.975853425817034  10.062257878891112   5.002978606422314 
 -0.002917956249430  10.062257878891112   5.002978606422314 
  1.234467153665312   3.587214941144124   5.002978606422314 
  4.978771382066597  10.072540103730168   5.002978606422314 
  6.240445637207975   3.565212262287258   5.002978606422314 
 11.205561617097146   3.592346147893645   5.002978606422314 
 -2.489385691033181   5.749048732877998  11.673616748318732 
 -3.734074770033708  12.216558710065492  11.673616748318732 
  1.244641977316192  12.216574371327097  11.673616748318732 
  2.489356124278846   5.749050142201535  11.673616748318732 
  6.223506259362719  12.216581418833881  11.673616748318732 
 -6.222570704492275  12.216087864299421   5.002978606422314 
  7.468186639854225   5.749050142201535  11.673616748318732 
 -1.244830799708007  12.213314022333718   5.002978606422314 
 -0.012158080314708   5.749807474920081   5.002978606422314 
 -1.247472847574654   7.906625574307450   5.002978606422314 
  3.733084623354740  12.219870446635870   5.002978606422314 
  9.969700844447795   5.749807474920081   5.002978606422314 
 -3.734041422657344   7.904887020506114  11.673616748318732 
  2.489404134257705   1.437198333883527  11.673616748318732 
  6.223531099670855   7.904856775721234  11.673616748318732 
  7.468138629875364   1.437198333883527  11.673616748318732 
 12.446928455166319   1.437247498834912  11.673616748318732 
  1.240757447260963   0.713309978344732   5.002978606422314 
  4.978771382066648   7.201399221550681   5.002978606422314 
  6.221465363209671   0.715077682770220   5.002978606422314 
  9.959614315746354   7.189741594824166   5.002978606422314 
 11.204142477865103   0.719724680294898   5.002978606422314 
 -3.734116425970873   9.342086866959249  11.673616748318732 
  1.244874965250277   9.341827488360822  11.673616748318732 
  2.489909760663703   2.874945943950206  11.673616748318732 
  6.223335731463790   9.341429411673154  11.673616748318732 
  7.467633003469502   2.874945943950206  11.673616748318732 
 12.446928455166365   2.874583333217402  11.673616748318732 
 -1.246990339323464   9.343435201094515   5.002978606422314 
 -0.002337349974168   2.873145528032933   5.002978606422314 
  4.978771382066542   2.870345935188221   5.002978606422314 
  3.728172637313939   9.357866021945474   5.002978606422314 
  8.716920334603216   9.342150708424134   5.002978606422314 
  9.959880114107342   2.873145528032933   5.002978606422314 
 -4.978754512574957  11.497970251073481  11.673616748318732 
 -0.000016869491624  11.497970251073481  11.673616748318732 
  1.245345411266511   5.030594630395060  11.673616748318732 
  6.222909162216726   5.030686713060808  11.673616748318732 
  4.978771382066538  11.497511914419420  11.673616748318732 
 11.202050084156166   5.030554234780928  11.673616748318732 
 -1.251262405383291   5.029614976594918   5.002978606422314 
 -2.489385691033231  11.495327073343251   5.002978606422314 
  2.486751529422341  11.504045031078768   5.002978606422314 
  3.720948095476824   5.022785382233824   5.002978606422314 
  7.470791234710854  11.504045031078768   5.002978606422314 
  8.729449072592333   5.027602264933210   5.002978606422314 
  0.000334633032771   7.186220400891441  11.673616748318732 
  1.244948411390920   0.718690424778495  11.673616748318732 
  4.978771382066583   7.185596559896829  11.673616748318732 
  6.223311714284039   0.718922096766260  11.673616748318732 
  9.957208131100302   7.186220400891441  11.673616748318732 
 -2.489385691033241   7.185951232200454   5.002978606422314 
 11.202159108821411   0.718579581643629  11.673616748318732 
  3.736077400923396   0.715077682770220   5.002978606422314 
  2.485792497522370   7.188312025415144   5.002978606422314 
  7.471750266610718   7.188312025415144   5.002978606422314 
  8.716785316872224   0.713309978344732   5.002978606422314 
  2.489810681355187   7.185992125897613  11.673616748318732 
 13.689714432467637   0.719724680294898   5.002978606422314 
 -1.244654956095605   9.342086866959249  11.673616748318732 
  0.000405365931691   2.874729035799553  11.673616748318732 
  4.978771382066483   2.874985734223385  11.673616748318732 
  3.734207032669420   9.341429411673154  11.673616748318732 
  8.712667798882798   9.341827488360822  11.673616748318732 
  9.957137398201379   2.874729035799553  11.673616748318732 
 -3.731781042743002   9.343435201094515   5.002978606422314 
  1.240622429529859   9.342150708424134   5.002978606422314 
  2.478692436293491   2.861501699139745   5.002978606422314 
  6.229370126819238   9.357866021945474   5.002978606422314 
  7.478850327839682   2.861501699139745   5.002978606422314 
 12.446928455166372   2.872293135914849   5.002978606422314 
 -1.244507320022973   5.030554234780928  11.673616748318732 
 -2.489385691033239  11.498023741613796  11.673616748318732 
  2.489315650652705  11.497725326458996  11.673616748318732 
  3.734633601916437   5.030686713060808  11.673616748318732 
  7.468227113480495  11.497725326458996  11.673616748318732 
 -4.979019292208049  11.498123121665920   5.002978606422314 
  8.712197352866681   5.030594630395060  11.673616748318732 
  0.000247910141570  11.498123121665920   5.002978606422314 
  1.228093691540842   5.027602264933210   5.002978606422314 
 -0.002071551613279   7.189741594824166   5.002978606422314 
  6.236594668656471   5.022785382233824   5.002978606422314 
  4.978771382066591  11.500678929952564   5.002978606422314 
 11.208805169516483   5.029614976594918   5.002978606422314 
 -2.489385691033299   7.186256973385437  11.673616748318732 
  3.734231049849029   0.718922096766260  11.673616748318732 
  7.467732082777784   7.185992125897613  11.673616748318732 
  8.712594352742268   0.718690424778495  11.673616748318732 
 13.691697801511316   0.718579581643629  11.673616748318732 
  0.000047295742488   1.437517215504899   1.666749090767324 
  3.736071164149052   7.902915469871932   1.667041928276226 
  4.978771382066534   1.439398168391954   1.668007398285982 
  8.710987384144884   7.903785908813282   1.668007398285982 
  9.957495468390475   1.437517215504899   1.666749090767324 
 -4.979466246545784  10.060445482162747   8.339118776157566 
  0.000694864479202  10.060445482162747   8.339118776157566 
  1.245430955054627   3.593544894827716   8.338246053885651 
  4.978771382066487  10.059880196363180   8.338246053885651 
  6.222775451911315   3.595817300068287   8.338915284568401 
 11.201978380290365   3.593024848066782   8.339208122077304 
 -2.489385691033300  10.060732491844131   1.667210825550945 
 -1.244435616157400   3.593024848066781   1.666749090767324 
  3.734767312221757   3.595817300068286   1.667041928276226 
  2.490289677997990  10.059955470269088   1.667084049262375 
  7.467253086135099  10.059955470269088   1.667084049262375 
  8.712111809078340   3.593544894827716   1.667711158958964 
 -6.223702804507714  12.216741482548025   8.338684215332213 
 -1.244593970952252  12.217349015228317   8.339118776157566 
  0.001124913905622   5.748595630450882   8.338873163582265 
  4.978771382066590   5.748989995339477   8.323452360684959 
  3.734288470166597  12.216427922446931   8.339208122077304 
  9.956417850227465   5.748595630450882   8.338873163582265 
 -2.489385691033287   5.748714510436318   1.667272997512415 
 -3.734177411114330  12.217349015228317   1.666838436687062 
  1.244931422441253  12.216741482548025   1.667272997512415 
  2.492067094304331   5.748237216078198   1.667041928276226 
  6.223254293966374  12.216427922446931   1.666749090767324 
  7.465475669828860   5.748237216078198   1.667041928276226 
 -1.244096855601830   7.904402978141306   8.339118776157566 
  0.000047295742488   1.437517215504899   8.339208122077304 
  3.736071164149052   7.902915469871933   8.338915284568401 
  4.978771382066535   1.439398168391955   8.337949814558646 
  8.710987384144884   7.903785908813283   8.337949814558646 
 -3.734674526464739   7.904402978141305   1.666838436687062 
  9.957495468390475   1.437517215504899   8.339208122077304 
  2.489606617974167   1.438418885298551   1.667084049262375 
  1.246555379988189   7.903785908813282   1.668007398285982 
  6.221471599984024   7.902915469871932   1.667041928276226 
  7.467936146158902   1.438418885298551   1.667084049262375 
  1.246555379988190   7.903785908813283   8.337949814558646 
 12.446928455166319   1.437247498834911   1.667149420190964 
 -2.489385691033300  10.060732491844131   8.338746387293684 
 -1.244435616157400   3.593024848066782   8.339208122077304 
  3.734767312221758   3.595817300068287   8.338915284568401 
  2.490289677997990  10.059955470269088   8.338873163582265 
  7.467253086135100  10.059955470269088   8.338873163582265 
  8.712111809078340   3.593544894827716   8.338246053885651 
 -4.979466246545785  10.060445482162747   1.666838436687062 
  0.000694864479201  10.060445482162747   1.666838436687062 
  1.245430955054626   3.593544894827716   1.667711158958964 
  4.978771382066486  10.059880196363180   1.667711158958964 
  6.222775451911314   3.595817300068286   1.667041928276226 
 11.201978380290365   3.593024848066781   1.666749090767324 
 -2.489385691033286   5.748714510436319   8.338684215332213 
 -3.734177411114330  12.217349015228317   8.339118776157566 
  1.244931422441253  12.216741482548025   8.338684215332213 
  2.492067094304332   5.748237216078198   8.338915284568401 
  6.223254293966375  12.216427922446931   8.339208122077304 
 -6.223702804507715  12.216741482548025   1.667272997512415 
  7.465475669828861   5.748237216078198   8.338915284568401 
 -1.244593970952253  12.217349015228317   1.666838436687062 
  0.001124913905621   5.748595630450881   1.667084049262375 
 -1.244096855601831   7.904402978141305   1.666838436687062 
  4.978771382066589   5.748989995339476   1.682504852159669 
  3.734288470166597  12.216427922446931   1.666749090767324 
  9.956417850227465   5.748595630450881   1.667084049262375 
 -3.734674526464739   7.904402978141306   8.339118776157566 
  2.489606617974167   1.438418885298552   8.338873163582265 
  6.221471599984024   7.902915469871933   8.338915284568401 
  7.467936146158903   1.438418885298552   8.338873163582265 
 12.446928455166319   1.437247498834912   8.338807792653650 
Generated by cif2cell 2.0.0.  :  Failed to get author information, No journal information. Species order: C N B 
 1.0
 14.936314146199660   0.000000000000000   0.000000000000000
 -7.468157073099825  12.935227489513863   0.000000000000000
  0.000000000000001   0.000000000000001  13.341276283792837
 C N B 
   1 143 144
Cartesian
  4.978771382066589   5.748989995339477   5.002978606422314 
  1.244619498476715   0.718675071017773   1.668362552978855 
  4.978771382066597   7.187012375626961   1.659122036512487 
  6.223547425486473   0.718846578301222   1.668191975644138 
  9.957391387610695   7.186054028234692   1.668191975644138 
 11.202298330006153   0.718659961032176   1.668169046615974 
 -3.734184940729536   9.342047309944894   8.337629850811515 
  1.244927419942318   9.342069379482604   8.337765237200490 
  2.489198782927160   2.874570612692853   8.338054360120676 
  6.223305288999221   9.342232802083197   8.338054360120676 
  7.468343981206013   2.874570612692853   8.338054360120676 
 12.446928455166312   2.874422574440396   8.337788166228654 
 -1.244586441336946   9.342047309944894   1.668327362033114 
 -0.000256309025180   2.874347017585078   1.667904524642142 
  4.978771382066483   2.874685528519808   1.667454214670447 
  3.734237475133958   9.342232802083197   1.667902852723938 
  8.712615344190757   9.342069379482604   1.668191975644138 
  9.957799073158263   2.874347017585078   1.667904524642142 
 -4.978871259754739  11.498037655089155   8.337653332103878 
  0.000099877688367  11.498037655089155   8.337653332103878 
  1.244664875994590   5.030166571242276   8.338054360120676 
  6.224135294606122   5.029978805195728   8.346835176332153 
  4.978771382066546  11.498275950848353   8.338052688202485 
 11.202227837360079   5.030277064721955   8.337594659865774 
 -1.244685073226904   5.030277064721954   1.668362552978855 
 -2.489385691033240  11.498102855642507   1.668327362033114 
  2.489466810362977  11.498017850278687   1.668362552978855 
  3.733407469527070   5.029978805195727   1.659122036512487 
  7.468075953770203  11.498017850278687   1.668362552978855 
  8.712877888138705   5.030166571242275   1.667902852723938 
  0.000151376522379   7.186054028234693   8.337765237200490 
  1.244619498476715   0.718675071017774   8.337594659865774 
  4.978771382066598   7.187012375626962   8.346835176332153 
  6.223547425486474   0.718846578301223   8.337765237200490 
  9.957391387610695   7.186054028234693   8.337765237200490 
 -2.489385691033189   7.186122165353894   1.668303880740763 
 11.202298330006153   0.718659961032177   8.337788166228654 
  3.733995338646594   0.718846578301222   1.668191975644138 
  2.489550695589529   7.186142228749400   1.667454214670447 
  7.467992068543440   7.186142228749400   1.667454214670447 
  8.712923265656473   0.718675071017773   1.668362552978855 
  2.489550695589530   7.186142228749401   8.338502998174180 
 13.691558580326468   0.718659961032176   1.668169046615974 
 -1.244586441336945   9.342047309944894   8.337629850811515 
 -0.000256309025180   2.874347017585078   8.338052688202485 
  4.978771382066484   2.874685528519809   8.338502998174180 
  3.734237475133959   9.342232802083197   8.338054360120676 
  8.712615344190757   9.342069379482604   8.337765237200490 
  9.957799073158263   2.874347017585078   8.338052688202485 
 -3.734184940729536   9.342047309944894   1.668327362033114 
  1.244927419942318   9.342069379482604   1.668191975644138 
  2.489198782927160   2.874570612692852   1.667902852723938 
  6.223305288999220   9.342232802083197   1.667902852723938 
  7.468343981206012   2.874570612692852   1.667902852723938 
 12.446928455166312   2.874422574440395   1.668169046615974 
 -1.244685073226904   5.030277064721955   8.337594659865774 
 -2.489385691033239  11.498102855642507   8.337629850811515 
  2.489466810362977  11.498017850278687   8.337594659865774 
  3.733407469527071   5.029978805195728   8.346835176332153 
  7.468075953770204  11.498017850278687   8.337594659865774 
 -4.978871259754740  11.498037655089155   1.668303880740763 
  8.712877888138705   5.030166571242276   8.338054360120676 
  0.000099877688366  11.498037655089155   1.668303880740763 
  1.244664875994590   5.030166571242275   1.667902852723938 
  0.000151376522379   7.186054028234692   1.668191975644138 
  6.224135294606121   5.029978805195727   1.659122036512487 
  4.978771382066545  11.498275950848353   1.667904524642142 
 11.202227837360079   5.030277064721954   1.668362552978855 
 -2.489385691033189   7.186122165353895   8.337653332103878 
  3.733995338646595   0.718846578301223   8.337765237200490 
  7.467992068543441   7.186142228749401   8.338502998174180 
  8.712923265656473   0.718675071017774   8.337594659865774 
 13.691558580326468   0.718659961032177   8.337788166228654 
 -0.002332094252288   1.434753391489018   5.002978606422314 
  3.718401516595228   7.933520818118936   5.002978606422314 
  4.978771382066429   1.427756183859472   5.002978606422314 
  8.721069638500428   7.909606901079615   5.002978606422314 
  9.959874858385355   1.434753391489018   5.002978606422314 
 -4.978730501657709  10.060751744960873  11.673616748318732 
 -0.000040880408965  10.060751744960873  11.673616748318732 
  1.244728640424860   3.593139413287166  11.673616748318732 
  4.978771382066488  10.060691159444284  11.673616748318732 
  6.223426922249907   3.593063068095754  11.673616748318732 
 11.202237294759076   3.593166308307326  11.673616748318732 
 -2.489385691033300  10.060732491844131   5.002978606422314 
 -1.248018852964077   3.592346147893645   5.002978606422314 
  3.717097126925108   3.565212262287258   5.002978606422314 
  2.482598692792064  10.070852958467615   5.002978606422314 
  7.474944071341026  10.070852958467615   5.002978606422314 
  8.723075610467877   3.587214941144124   5.002978606422314 
 -6.223413359382548  12.216574371327097  11.673616748318732 
 -1.244696612032978  12.216558710065492  11.673616748318732 
 -0.000033356484647   5.749030550116085  11.673616748318732 
  4.978771382066590   5.748989995339477  11.673616748318732 
  3.734036504770358  12.216581418833881  11.673616748318732 
  9.957576120617736   5.749030550116085  11.673616748318732 
 -2.489385691033189   5.750021746933538   5.002978606422314 
 -3.733940582358455  12.213314022333718   5.002978606422314 
  1.243799322425798  12.216087864299421   5.002978606422314 
  2.456727261453802   5.748236905612327   5.002978606422314 
  6.224458140778320  12.219870446635870   5.002978606422314 
  7.500815502679270   5.748236905612327   5.002978606422314 
 -1.244729959409331   7.904887020506114  11.673616748318732 
  0.000040346670173   1.437222258877316  11.673616748318732 
  3.734011664462218   7.904856775721234  11.673616748318732 
  4.978771382066490   1.437152027993417  11.673616748318732 
  8.712932598790463   7.904908979012592  11.673616748318732 
 -3.731298534491811   7.906625574307450   5.002978606422314 
  9.957502417462894   1.437222258877316  11.673616748318732 
  2.484014608959772   1.426309552630812   5.002978606422314 
  1.236473125632437   7.909606901079615   5.002978606422314 
  6.239141247537829   7.933520818118936   5.002978606422314 
  7.473528155173311   1.426309552630812   5.002978606422314 
  1.244610165342521   7.904908979012592  11.673616748318732 
 12.446928455166319   1.437247498834912   5.002978606422314 
 -2.489385691033299  10.060732491844133  11.673616748318732 
 -1.244694530626007   3.593166308307326  11.673616748318732 
  3.734115841883164   3.593063068095754  11.673616748318732 
  2.489333891324184  10.060741102018911  11.673616748318732 
  7.468208872808908  10.060741102018911  11.673616748318732 
  8.712814123708107   3.593139413287166  11.673616748318732 
 -4.975853425817034  10.062257878891112   5.002978606422314 
 -0.002917956249430  10.062257878891112   5.002978606422314 
  1.234467153665312   3.587214941144124   5.002978606422314 
  4.978771382066597  10.072540103730168   5.002978606422314 
  6.240445637207975   3.565212262287258   5.002978606422314 
 11.205561617097146   3.592346147893645   5.002978606422314 
 -2.489385691033181   5.749048732877998  11.673616748318732 
 -3.734074770033708  12.216558710065492  11.673616748318732 
  1.244641977316192  12.216574371327097  11.673616748318732 
  2.489356124278846   5.749050142201535  11.673616748318732 
  6.223506259362719  12.216581418833881  11.673616748318732 
 -6.222570704492275  12.216087864299421   5.002978606422314 
  7.468186639854225   5.749050142201535  11.673616748318732 
 -1.244830799708007  12.213314022333718   5.002978606422314 
 -0.012158080314708   5.749807474920081   5.002978606422314 
 -1.247472847574654   7.906625574307450   5.002978606422314 
  3.733084623354740  12.219870446635870   5.002978606422314 
  9.969700844447795   5.749807474920081   5.002978606422314 
 -3.734041422657344   7.904887020506114  11.673616748318732 
  2.489404134257705   1.437198333883527  11.673616748318732 
  6.223531099670855   7.904856775721234  11.673616748318732 
  7.468138629875364   1.437198333883527  11.673616748318732 
 12.446928455166319   1.437247498834912  11.673616748318732 
  1.240757447260963   0.713309978344732   5.002978606422314 
  4.978771382066648   7.201399221550681   5.002978606422314 
  6.221465363209671   0.715077682770220   5.002978606422314 
  9.959614315746354   7.189741594824166   5.002978606422314 
 11.204142477865103   0.719724680294898   5.002978606422314 
 -3.734116425970873   9.342086866959249  11.673616748318732 
  1.244874965250277   9.341827488360822  11.673616748318732 
  2.489909760663703   2.874945943950206  11.673616748318732 
  6.223335731463790   9.341429411673154  11.673616748318732 
  7.467633003469502   2.874945943950206  11.673616748318732 
 12.446928455166365   2.874583333217402  11.673616748318732 
 -1.246990339323464   9.343435201094515   5.002978606422314 
 -0.002337349974168   2.873145528032933   5.002978606422314 
  4.978771382066542   2.870345935188221   5.002978606422314 
  3.728172637313939   9.357866021945474   5.002978606422314 
  8.716920334603216   9.342150708424134   5.002978606422314 
  9.959880114107342   2.873145528032933   5.002978606422314 
 -4.978754512574957  11.497970251073481  11.673616748318732 
 -0.000016869491624  11.497970251073481  11.673616748318732 
  1.245345411266511   5.030594630395060  11.673616748318732 
  6.222909162216726   5.030686713060808  11.673616748318732 
  4.978771382066538  11.497511914419420  11.673616748318732 
 11.202050084156166   5.030554234780928  11.673616748318732 
 -1.251262405383291   5.029614976594918   5.002978606422314 
 -2.489385691033231  11.495327073343251   5.002978606422314 
  2.486751529422341  11.504045031078768   5.002978606422314 
  3.720948095476824   5.022785382233824   5.002978606422314 
  7.470791234710854  11.504045031078768   5.002978606422314 
  8.729449072592333   5.027602264933210   5.002978606422314 
  0.000334633032771   7.186220400891441  11.673616748318732 
  1.244948411390920   0.718690424778495  11.673616748318732 
  4.978771382066583   7.185596559896829  11.673616748318732 
  6.223311714284039   0.718922096766260  11.673616748318732 
  9.957208131100302   7.186220400891441  11.673616748318732 
 -2.489385691033241   7.185951232200454   5.002978606422314 
 11.202159108821411   0.718579581643629  11.673616748318732 
  3.736077400923396   0.715077682770220   5.002978606422314 
  2.485792497522370   7.188312025415144   5.002978606422314 
  7.471750266610718   7.188312025415144   5.002978606422314 
  8.716785316872224   0.713309978344732   5.002978606422314 
  2.489810681355187   7.185992125897613  11.673616748318732 
 13.689714432467637   0.719724680294898   5.002978606422314 
 -1.244654956095605   9.342086866959249  11.673616748318732 
  0.000405365931691   2.874729035799553  11.673616748318732 
  4.978771382066483   2.874985734223385  11.673616748318732 
  3.734207032669420   9.341429411673154  11.673616748318732 
  8.712667798882798   9.341827488360822  11.673616748318732 
  9.957137398201379   2.874729035799553  11.673616748318732 
 -3.731781042743002   9.343435201094515   5.002978606422314 
  1.240622429529859   9.342150708424134   5.002978606422314 