Species order:X N B                     
   2.51242800000000     
     5.9449720136058266    0.0000000000000000    0.0000000000000000
    -2.9724860068029120    5.1484967885702053   -0.0000000000000001
     0.0000000000000000    0.0000000000000009    5.3101128803662583
   Ge   N    B 
     2   143   143
Direct
  0.4221657292232596  0.3777495312782940  0.3750000000000000
  0.5765590926529046  0.4549462129931165  0.3750000000000000
  0.1110452514012345  0.0554954530914114  0.1250768206911464
  0.6110742561662715  0.5555555646809507  0.1242759346746026
  0.4444177141982746  0.0555217755580574  0.1251445635230516
  0.9444138615733993  0.5555500771722129  0.1252445931729303
  0.7777631595639408  0.0555482464486385  0.1250192407010972
  0.1110830229129854  0.7222081781231567  0.6248652309467514
  0.4444177141982746  0.7222292719735536  0.6248554364769493
  0.2776703532754541  0.2221443183525519  0.6249394196449901
  0.7777564399440761  0.7222170486935605  0.6250394096802423
  0.6110831060976715  0.2221984360220988  0.6250005822859307
  0.9444128557460630  0.2222138190906514  0.6249799660920801
  0.2777512854698698  0.7222203418217232  0.1251285565984924
  0.1110437968109765  0.2221885650721527  0.1249941455358956
  0.4443964173087483  0.2221738528561128  0.1249488597472622
  0.6110831060976715  0.7222180034089002  0.1249994177140689
  0.9444138615733993  0.7221971177345228  0.1252445931729303
  0.7777600138770187  0.2222107461528493  0.1250237510727376
  0.1110754479496844  0.8888511721825010  0.6248569598414609
  0.4444268903078649  0.8888801118205966  0.6248922178317382
  0.2776703532754541  0.3888593682562315  0.6249394196449901
  0.6110742561662715  0.3888520248186481  0.6257240653253984
  0.7777600138770187  0.8888826010574973  0.6249762489272623
  0.9444125850046614  0.3888855182768947  0.6249120869354748
  0.1110452514012345  0.3888831316431517  0.1250768206911464
  0.2777512854698698  0.8888642769814751  0.1251285565984924
  0.6110956556594734  0.8888881942058038  0.1250699449832809
  0.4442047246749072  0.3887690290041179  0.1257933030916613
  0.9444125850046614  0.8888604000610949  0.1250879130645248
  0.7777564399440761  0.3888727245838439  0.1249605903197581
  0.2777335477830715  0.5555586179128310  0.6247938325004760
  0.1110452514012345  0.0554954530914114  0.6249231793088538
  0.6110742561662715  0.5555555646809507  0.6257240653253984
  0.4444177141982746  0.0555217755580574  0.6248554364769493
  0.9444138615733993  0.5555500771722129  0.6247554068270692
  0.1110754479496844  0.5555576091005124  0.1251430401585399
  0.7777631595639408  0.0555482464486385  0.6249807592989020
  0.2777335477830715  0.0555082632035757  0.1252061674995246
  0.4443964173087483  0.5555558977859714  0.1249488597472622
  0.7777251062581726  0.5555292197957550  0.1252223415543184
  0.6110956556594734  0.0555407947869973  0.1250699449832809
  0.4443964173087483  0.5555558977859714  0.6250511402527371
  0.9444128557460630  0.0555323699887478  0.1250200339079200
  0.2777512854698698  0.7222203418217232  0.6248714434015076
  0.1110437968109765  0.2221885650721527  0.6250058544641047
  0.4443964173087483  0.2221738528561128  0.6250511402527371
  0.6110831060976715  0.7222180034089002  0.6250005822859307
  0.9444138615733993  0.7221971177345228  0.6247554068270692
  0.7777600138770187  0.2222107461528493  0.6249762489272623
  0.1110830229129854  0.7222081781231567  0.1251347690532486
  0.4444177141982746  0.7222292719735536  0.1251445635230516
  0.2776703532754541  0.2221443183525519  0.1250605803550096
  0.7777564399440761  0.7222170486935607  0.1249605903197581
  0.6110831060976715  0.2221984360220988  0.1249994177140689
  0.9444128557460630  0.2222138190906514  0.1250200339079200
  0.1110452514012345  0.3888831316431517  0.6249231793088538
  0.2777512854698698  0.8888642769814751  0.6248714434015076
  0.6110956556594734  0.8888881942058038  0.6249300550167188
  0.4442047246749072  0.3887690290041179  0.6242066969083397
  0.9444125850046614  0.8888604000610949  0.6249120869354748
  0.1110754479496844  0.8888511721825010  0.1251430401585399
  0.7777564399440761  0.3888727245838439  0.6250394096802423
  0.4444268903078649  0.8888801118205966  0.1251077821682610
  0.2776703532754541  0.3888593682562315  0.1250605803550096
  0.2777335477830715  0.5555586179128310  0.1252061674995246
  0.6110742561662715  0.3888520248186481  0.1242759346746026
  0.7777600138770187  0.8888826010574973  0.1250237510727376
  0.9444125850046614  0.3888855182768948  0.1250879130645248
  0.1110754479496844  0.5555576091005124  0.6248569598414609
  0.2777335477830715  0.0555082632035757  0.6247938325004760
  0.7777251062581726  0.5555292197957550  0.6247776584456817
  0.6110956556594734  0.0555407947869973  0.6249300550167188
  0.9444128557460630  0.0555323699887478  0.6249799660920801
  0.0548998190762104  0.1106897291488440  0.3750000000000000
  0.5561278295073132  0.6244497228758431  0.3750000000000000
  0.3866110732190890  0.1021090340702806  0.3750000000000000
  0.8912501683919454  0.6122917508626446  0.3750000000000000
  0.7232885692161255  0.1101279284069688  0.3750000000000000
  0.0555533358725334  0.7777799422771600  0.8750000000000000
  0.3888977823412401  0.7777808859623315  0.8750000000000000
  0.2222247123994193  0.2777790228663772  0.8750000000000000
  0.7222231896461683  0.7777796199165163  0.8750000000000000
  0.5555556716865861  0.2777775851619848  0.8750000000000000
  0.8888919916801733  0.2777786370212714  0.8750000000000000
  0.2209942526886958  0.7771637930110161  0.3750000000000000
  0.0548998190762104  0.2775434232607022  0.3750000000000000
  0.3727659979586336  0.2490150084472779  0.3750000000000000
  0.5554876733852507  0.7837771456124825  0.3750000000000000
  0.8938600561686950  0.7825948703743411  0.3750000000000000
  0.7248393896397485  0.2748886375979591  0.3750000000000000
  0.0555563003692833  0.9444494114022691  0.8750000000000000
  0.3888977823412401  0.9444502297122445  0.8750000000000000
  0.2222252235290964  0.4444406270433073  0.8750000000000000
  0.5555477068683176  0.4444405201008231  0.8750000000000000
  0.7222250130790064  0.9444465623312889  0.8750000000000000
  0.8888889246046691  0.4444416360163127  0.8750000000000000
  0.0545398412737839  0.4450859823106501  0.3750000000000000
  0.2203734055631331  0.9409737826622174  0.3750000000000000
  0.5553909621049345  0.9443621477191317  0.3750000000000000
  0.3727659979586338  0.4570843228446910  0.3750000000000000
  0.8901771491642038  0.9463923910875940  0.3750000000000000
  0.7342448086353620  0.4430412303447172  0.3750000000000000
  0.2222261925932058  0.6111074975275026  0.8750000000000000
  0.0555559529138028  0.1111125128454478  0.8750000000000000
  0.5555556716865861  0.6111114198579373  0.8750000000000000
  0.3888961909016125  0.1111185510851296  0.8750000000000000
  0.8888834808990108  0.6111084071161769  0.8750000000000000
  0.0556333477383938  0.6116077218074653  0.3750000000000000
  0.7222250130790064  0.1111117840810529  0.8750000000000000
  0.2146966302843851  0.1015715585211700  0.3750000000000000
  0.3866110732190890  0.6178353724821510  0.3750000000000000
  0.7342448086353620  0.6245369116239805  0.3750000000000000
  0.5554876733852507  0.1050438611061041  0.3750000000000000
  0.3888961909016125  0.6111109731498253  0.8750000000000000
  0.8895248860426752  0.1114291096880088  0.3750000000000000
  0.2222262795757299  0.7777798064545334  0.8750000000000000
  0.0555559529138028  0.2777767734016907  0.8750000000000000
  0.3888947372851709  0.2777845747498963  0.8750000000000000
  0.5555604793168933  0.7777813221281991  0.8750000000000000
  0.8888889246046691  0.7777806219216928  0.8750000000000000
  0.7222231896461683  0.2777769030629877  0.8750000000000000
  0.0556333477383938  0.7773589592642641  0.3750000000000000
  0.3874834391097293  0.7795184772702519  0.3750000000000000
  0.2206189870937244  0.2769761602135301  0.3750000000000000
  0.7248393896397485  0.7832840853751245  0.3750000000000000
  0.5561278295073132  0.2650114399648058  0.3750000000000000
  0.8901771491642038  0.2771180914099433  0.3750000000000000
  0.0555563003692833  0.4444402223003431  0.8750000000000000
  0.2222261925932058  0.9444520283990394  0.8750000000000000
  0.5555602089507605  0.9444467711420435  0.8750000000000000
  0.3888947372851709  0.4444434958686102  0.8750000000000000
  0.8888919916801733  0.9444466879922380  0.8750000000000000
  0.0545398412737839  0.9427871922964631  0.3750000000000000
  0.7222191363821922  0.4444427424822897  0.8750000000000000
  0.3874834391097293  0.9412982951728128  0.3750000000000000
  0.2146966302843851  0.4464584050965504  0.3750000000000000
  0.2203734055631331  0.6127329562342511  0.3750000000000000
  0.7232885692161255  0.9464939741424927  0.3750000000000000
  0.8938600561686950  0.4445985191276904  0.3750000000000000
  0.0555533358725334  0.6111067269287087  0.8750000000000000
  0.2222252235290964  0.1111179298191247  0.8750000000000000
  0.7222191363821922  0.6111097272332380  0.8750000000000000
  0.5555604793168933  0.1111124905220302  0.8750000000000000
  0.8888922643808841  0.1111127988571135  0.8750000000000000
  0.1063047754390962  0.0512609040741013  0.3750000000000000
  0.6275825757428615  0.5898463195308700  0.3750000000000000
  0.4442698183913169  0.0499793389553114  0.3750000000000000
  0.9460014448468598  0.5556119568331337  0.3750000000000000
  0.7791821277042349  0.0562577305187854  0.3750000000000000
  0.1111163265787691  0.7222248299560488  0.8750000000000000
  0.4444592480749540  0.7222601253297884  0.8750000000000000
  0.2777333294459438  0.2221860857501793  0.8750000000000000
  0.7778033041889231  0.7222638313811885  0.8750000000000000
  0.6111360743105356  0.2221923298333568  0.8750000000000000
  0.9444230729179394  0.2222066233126052  0.8750000000000000
  0.2767137923217096  0.7231385904461215  0.3750000000000000
  0.1092307386790411  0.2212820360061846  0.3750000000000000
  0.4429764105622701  0.2099829806580355  0.3750000000000000
  0.6133989494608172  0.7333390584489654  0.3750000000000000
  0.9460014448468598  0.7237228213470611  0.3750000000000000
  0.7798940472996545  0.2202320204014254  0.3750000000000000
  0.1111054361991696  0.8888856130139879  0.8750000000000000
  0.4444596861447107  0.8888965097390199  0.8750000000000000
  0.2777333294459438  0.3888805770290927  0.8750000000000000
  0.6111404862310212  0.3888748638852719  0.8750000000000000
  0.7777903727084383  0.8889192905729507  0.8750000000000000
  0.9444444942489232  0.3888748412274121  0.8750000000000000
  0.1063047754390962  0.3883772046983234  0.3750000000000000
  0.2767137923217097  0.8869085352089163  0.3750000000000000
  0.6125501819674262  0.8926292923219094  0.3750000000000000
  0.9459037940278994  0.8913865467746869  0.3750000000000000
  0.7860495319831374  0.3863760370240888  0.3750000000000000
  0.2777656967530923  0.5555712635243640  0.8750000000000000
  0.1110773970915252  0.0555360911932956  0.8750000000000000
  0.6111404862310212  0.5555989556790786  0.8750000000000000
  0.4444592480749540  0.0555324560785014  0.8750000000000000
  0.9444588523217690  0.5555535265959402  0.8750000000000000
  0.1100302296851693  0.5559577823412348  0.3750000000000000
  0.7777822836210095  0.0555578084771726  0.8750000000000000
  0.2748444618202358  0.0499621223162869  0.3750000000000000
  0.4429764105622701  0.5663267632375713  0.3750000000000000
  0.7823305790191402  0.5578319561762389  0.3750000000000000
  0.6125501819674262  0.0532542229788460  0.3750000000000000
  0.4444531872336578  0.5556019899806882  0.8750000000000000
  0.9446577476184949  0.0564166791885600  0.3750000000000000
  0.2777835940787143  0.7222340357809902  0.8750000000000000
  0.1110578267267756  0.2221955800300522  0.8750000000000000
  0.4444531872336578  0.2221845305863053  0.8750000000000000
  0.6111360743105356  0.7222770778105068  0.8750000000000000
  0.9444588523217690  0.7222386590591655  0.8750000000000000
  0.7777903727084383  0.2222044154688163  0.8750000000000000
  0.1107524504050328  0.7220428918691806  0.3750000000000000
  0.4442698183913169  0.7276238127693405  0.3750000000000000
  0.2655798613067555  0.2087511660906190  0.3750000000000000
  0.7860495319831374  0.7330068282923767  0.3750000000000000
  0.6133989494608172  0.2133932243451807  0.3750000000000000
  0.9446577476184949  0.2215744017632713  0.3750000000000000
  0.1110773970915252  0.3888746392315582  0.8750000000000000
  0.2777835940787143  0.8888828916310529  0.8750000000000000
  0.6111296079655660  0.8889167202149107  0.8750000000000000
  0.4444407068669837  0.3888870201001562  0.8750000000000000
  0.9444444942489232  0.8889029863548392  0.8750000000000000
  0.1100302296851693  0.8874057806772636  0.3750000000000000
  0.7778033041889231  0.3888728061410620  0.8750000000000000
  0.4444159597032836  0.8888746465183066  0.3750000000000000
  0.2655798613067558  0.3901620285494654  0.3750000000000000
  0.2748444618202358  0.5582156728372849  0.3750000000000000
  0.6275825757428614  0.3710695895453216  0.3750000000000000
  0.7798940472996545  0.8929953602315578  0.3750000000000000
  0.9459037940278994  0.3878505805865409  0.3750000000000000
  0.1111054361991696  0.5555531565185104  0.8750000000000000
  0.2777656967530923  0.0555277665620644  0.8750000000000000
  0.7778070863086525  0.5555702098209938  0.8750000000000000
  0.6111296079655660  0.0555462210839835  0.8750000000000000
  0.9444230729179394  0.0555497829386698  0.8750000000000000
  0.0554232073210420  0.1110071823116053  0.1248065564826121
  0.5555669131499722  0.6112648414449325  0.1242933403447860
  0.3887882961201306  0.1108820033915763  0.1247768873203726
  0.8889788686042138  0.6111561009687777  0.1249767398986562
  0.7222195314521531  0.1110791286167779  0.1248736838006347
  0.0555577473099861  0.7777550109687914  0.6250462511342721
  0.3888404345260255  0.7778160509563125  0.6250803897688457
  0.2219660962859274  0.2776497148096319  0.6254776356406724
  0.7222625802505962  0.7778762673375167  0.6252806101429864
  0.5555669131499722  0.2776354050383741  0.6257066596552142
  0.8888657593359471  0.2777593761163081  0.6251367569556918
  0.2221842442579724  0.7777587887956537  0.1249130748690056
  0.0554232073210420  0.2777493583427724  0.1248065564826121
  0.3886485483846663  0.2773978486009221  0.1242994067379221
  0.5555409180628669  0.7778690863523687  0.1248459155249542
  0.8889324467599637  0.7778145266566091  0.1248698990623575
  0.7222625802505962  0.2777196462464154  0.1247193898570135
  0.0554826315239852  0.9443474138640696  0.6251055466622232
  0.3888404345260255  0.9443577169030485  0.6250803897688457
  0.2220248820168586  0.4445040725521165  0.6252173344686339
  0.5556799594600524  0.4445066463966905  0.6256992923132647
  0.7222195314521531  0.9444737361687112  0.6251263161993649
  0.8889324467599637  0.4444512534366908  0.6251301009376424
  0.0554826315239851  0.4444685509932438  0.1248944533377773
  0.2221439411513693  0.9443097428520122  0.1249308864689469
  0.5555398385540293  0.9444365859436795  0.1249021202539398
  0.3886485483846663  0.4445840331170797  0.1242994067379221
  0.8888657593359471  0.9444397165529745  0.1248632430443076
  0.7223505964906600  0.4444470531487858  0.1243278134217670
  0.2221439411513693  0.6111675316326923  0.6250691135310532
  0.0554232073210420  0.1110071823116053  0.6251934435173871
  0.5555669131499722  0.6112648414449325  0.6257066596552142
  0.3887882961201306  0.1108820033915763  0.6252231126796276
  0.8889788686042138  0.6111561009687777  0.6250232601013439
  0.0555577473099861  0.6111360696745300  0.1249537488657278
  0.7222195314521530  0.1110791286167779  0.6251263161993649
  0.2220248820168586  0.1108541427980777  0.1247826655313658
  0.3887882961201306  0.6112396260618971  0.1247768873203726
  0.7223505964906600  0.6112368766752110  0.1243278134217670
  0.5555409180628669  0.1110051650438337  0.1248459155249542
  0.3887882961201306  0.6112396260618971  0.6252231126796276
  0.8888416617860531  0.1110874975596978  0.1248589466876776
  0.2221842442579724  0.7777587887956537  0.6250869251309947
  0.0554232073210420  0.2777493583427724  0.6251934435173871
  0.3886485483846663  0.2773978486009221  0.6257005932620782
  0.5555409180628669  0.7778690863523687  0.6251540844750462
  0.8889324467599637  0.7778145266566091  0.6251301009376424
  0.7222625802505962  0.2777196462464154  0.6252806101429864
  0.0555577473099861  0.7777550109687914  0.1249537488657278
  0.3888404345260255  0.7778160509563125  0.1249196102311539
  0.2219660962859274  0.2776497148096319  0.1245223643593272
  0.7222625802505962  0.7778762673375167  0.1247193898570135
  0.5555669131499722  0.2776354050383741  0.1242933403447860
  0.8888657593359471  0.2777593761163081  0.1248632430443076
  0.0554826315239851  0.4444685509932438  0.6251055466622232
  0.2221439411513693  0.9443097428520122  0.6250691135310532
  0.5555398385540293  0.9444365859436795  0.6250978797460607
  0.3886485483846663  0.4445840331170797  0.6257005932620782
  0.8888657593359471  0.9444397165529745  0.6251367569556918
  0.0554826315239852  0.9443474138640696  0.1248944533377773
  0.7223505964906600  0.4444470531487858  0.6256721865782336
  0.3888404345260255  0.9443577169030485  0.1249196102311539
  0.2220248820168586  0.4445040725521165  0.1247826655313658
  0.2221439411513693  0.6111675316326923  0.1249308864689469
  0.5556799594600524  0.4445066463966905  0.1243007076867356
  0.7222195314521531  0.9444737361687112  0.1248736838006347
  0.8889324467599637  0.4444512534366908  0.1248698990623575
  0.0555577473099861  0.6111360696745300  0.6250462511342721
  0.2220248820168586  0.1108541427980777  0.6252173344686339
  0.7223505964906600  0.6112368766752110  0.6256721865782336
  0.5555409180628669  0.1110051650438337  0.6251540844750462
  0.8888416617860531  0.1110874975596978  0.6251410533123226
 
  0.00000000E+00  0.00000000E+00  0.00000000E+00
  0.00000000E+00  0.00000000E+00  0.00000000E+00
  0.00000000E+00  0.00000000E+00  0.00000000E+00
  0.00000000E+00  0.00000000E+00  0.00000000E+00
  0.00000000E+00  0.00000000E+00  0.00000000E+00
  0.00000000E+00  0.00000000E+00  0.00000000E+00
  0.00000000E+00  0.00000000E+00  0.00000000E+00
  0.00000000E+00  0.00000000E+00  0.00000000E+00
  0.00000000E+00  0.00000000E+00  0.00000000E+00
  0.00000000E+00  0.00000000E+00  0.00000000E+00
  0.00000000E+00  0.00000000E+00  0.00000000E+00
  0.00000000E+00  0.00000000E+00  0.00000000E+00
  0.00000000E+00  0.00000000E+00  0.00000000E+00
  0.00000000E+00  0.00000000E+00  0.00000000E+00
  0.00000000E+00  0.00000000E+00  0.00000000E+00
  0.00000000E+00  0.00000000E+00  0.00000000E+00
  0.00000000E+00  0.00000000E+00  0.00000000E+00
  0.00000000E+00  0.00000000E+00  0.00000000E+00
  0.00000000E+00  0.00000000E+00  0.00000000E+00
  0.00000000E+00  0.00000000E+00  0.00000000E+00
  0.00000000E+00  0.00000000E+00  0.00000000E+00
  0.00000000E+00  0.00000000E+00  0.00000000E+00
  0.00000000E+00  0.00000000E+00  0.00000000E+00
  0.00000000E+00  0.00000000E+00  0.00000000E+00
  0.00000000E+00  0.00000000E+00  0.00000000E+00
  0.00000000E+00  0.00000000E+00  0.00000000E+00
  0.00000000E+00  0.00000000E+00  0.00000000E+00
  0.00000000E+00  0.00000000E+00  0.00000000E+00
  0.00000000E+00  0.00000000E+00  0.00000000E+00
  0.00000000E+00  0.00000000E+00  0.00000000E+00
  0.00000000E+00  0.00000000E+00  0.00000000E+00
  0.00000000E+00  0.00000000E+00  0.00000000E+00
  0.00000000E+00  0.00000000E+00  0.00000000E+00
  0.00000000E+00  0.00000000E+00  0.00000000E+00
  0.00000000E+00  0.00000000E+00  0.00000000E+00
  0.00000000E+00  0.00000000E+00  0.00000000E+00
  0.00000000E+00  0.00000000E+00  0.00000000E+00
  0.00000000E+00  0.00000000E+00  0.00000000E+00
  0.00000000E+00  0.00000000E+00  0.00000000E+00
  0.00000000E+00  0.00000000E+00  0.00000000E+00
  0.00000000E+00  0.00000000E+00  0.00000000E+00
  0.00000000E+00  0.00000000E+00  0.00000000E+00
  0.00000000E+00  0.00000000E+00  0.00000000E+00
  0.00000000E+00  0.00000000E+00  0.00000000E+00
  0.00000000E+00  0.00000000E+00  0.00000000E+00
  0.00000000E+00  0.00000000E+00  0.00000000E+00
  0.00000000E+00  0.00000000E+00  0.00000000E+00
  0.00000000E+00  0.00000000E+00  0.00000000E+00
  0.00000000E+00  0.00000000E+00  0.00000000E+00
  0.00000000E+00  0.00000000E+00  0.00000000E+00
  0.00000000E+00  0.00000000E+00  0.00000000E+00
  0.00000000E+00  0.00000000E+00  0.00000000E+00
  0.00000000E+00  0.00000000E+00  0.00000000E+00
  0.00000000E+00  0.00000000E+00  0.00000000E+00
  0.00000000E+00  0.00000000E+00  0.00000000E+00
  0.00000000E+00  0.00000000E+00  0.00000000E+00
  0.00000000E+00  0.00000000E+00  0.00000000E+00
  0.00000000E+00  0.00000000E+00  0.00000000E+00
  0.00000000E+00  0.00000000E+00  0.00000000E+00
  0.00000000E+00  0.00000000E+00  0.00000000E+00
  0.00000000E+00  0.00000000E+00  0.00000000E+00
  0.00000000E+00  0.00000000E+00  0.00000000E+00
  0.00000000E+00  0.00000000E+00  0.00000000E+00
  0.00000000E+00  0.00000000E+00  0.00000000E+00
  0.00000000E+00  0.00000000E+00  0.00000000E+00
  0.00000000E+00  0.00000000E+00  0.00000000E+00
  0.00000000E+00  0.00000000E+00  0.00000000E+00
  0.00000000E+00  0.00000000E+00  0.00000000E+00
  0.00000000E+00  0.00000000E+00  0.00000000E+00
  0.00000000E+00  0.00000000E+00  0.00000000E+00
  0.00000000E+00  0.00000000E+00  0.00000000E+00
  0.00000000E+00  0.00000000E+00  0.00000000E+00
  0.00000000E+00  0.00000000E+00  0.00000000E+00
  0.00000000E+00  0.00000000E+00  0.00000000E+00
  0.00000000E+00  0.00000000E+00  0.00000000E+00
  0.00000000E+00  0.00000000E+00  0.00000000E+00
  0.00000000E+00  0.00000000E+00  0.00000000E+00
  0.00000000E+00  0.00000000E+00  0.00000000E+00
  0.00000000E+00  0.00000000E+00  0.00000000E+00
  0.00000000E+00  0.00000000E+00  0.00000000E+00
  0.00000000E+00  0.00000000E+00  0.00000000E+00
  0.00000000E+00  0.00000000E+00  0.00000000E+00
  0.00000000E+00  0.00000000E+00  0.00000000E+00
  0.00000000E+00  0.00000000E+00  0.00000000E+00
  0.00000000E+00  0.00000000E+00  0.00000000E+00
  0.00000000E+00  0.00000000E+00  0.00000000E+00
  0.00000000E+00  0.00000000E+00  0.00000000E+00
  0.00000000E+00  0.00000000E+00  0.00000000E+00
  0.00000000E+00  0.00000000E+00  0.00000000E+00
  0.00000000E+00  0.00000000E+00  0.00000000E+00
  0.00000000E+00  0.00000000E+00  0.00000000E+00
  0.00000000E+00  0.00000000E+00  0.00000000E+00
  0.00000000E+00  0.00000000E+00  0.00000000E+00
  0.00000000E+00  0.00000000E+00  0.00000000E+00
  0.00000000E+00  0.00000000E+00  0.00000000E+00
  0.00000000E+00  0.00000000E+00  0.00000000E+00
  0.00000000E+00  0.00000000E+00  0.00000000E+00
  0.00000000E+00  0.00000000E+00  0.00000000E+00
  0.00000000E+00  0.00000000E+00  0.00000000E+00
  0.00000000E+00  0.00000000E+00  0.00000000E+00
  0.00000000E+00  0.00000000E+00  0.00000000E+00
  0.00000000E+00  0.00000000E+00  0.00000000E+00
  0.00000000E+00  0.00000000E+00  0.00000000E+00
  0.00000000E+00  0.00000000E+00  0.00000000E+00
  0.00000000E+00  0.00000000E+00  0.00000000E+00
  0.00000000E+00  0.00000000E+00  0.00000000E+00
  0.00000000E+00  0.00000000E+00  0.00000000E+00
  0.00000000E+00  0.00000000E+00  0.00000000E+00
  0.00000000E+00  0.00000000E+00  0.00000000E+00
  0.00000000E+00  0.00000000E+00  0.00000000E+00
  0.00000000E+00  0.00000000E+00  0.00000000E+00
  0.00000000E+00  0.00000000E+00  0.00000000E+00
  0.00000000E+00  0.00000000E+00  0.00000000E+00
  0.00000000E+00  0.00000000E+00  0.00000000E+00
  0.00000000E+00  0.00000000E+00  0.00000000E+00
  0.00000000E+00  0.00000000E+00  0.00000000E+00
  0.00000000E+00  0.00000000E+00  0.00000000E+00
  0.00000000E+00  0.00000000E+00  0.00000000E+00
  0.00000000E+00  0.00000000E+00  0.00000000E+00
  0.00000000E+00  0.00000000E+00  0.00000000E+00
  0.00000000E+00  0.00000000E+00  0.00000000E+00
  0.00000000E+00  0.00000000E+00  0.00000000E+00
  0.00000000E+00  0.00000000E+00  0.00000000E+00
  0.00000000E+00  0.00000000E+00  0.00000000E+00
  0.00000000E+00  0.00000000E+00  0.00000000E+00
  0.00000000E+00  0.00000000E+00  0.00000000E+00
  0.00000000E+00  0.00000000E+00  0.00000000E+00
  0.00000000E+00  0.00000000E+00  0.00000000E+00
  0.00000000E+00  0.00000000E+00  0.00000000E+00
  0.00000000E+00  0.00000000E+00  0.00000000E+00
  0.00000000E+00  0.00000000E+00  0.00000000E+00
  0.00000000E+00  0.00000000E+00  0.00000000E+00
  0.00000000E+00  0.00000000E+00  0.00000000E+00
  0.00000000E+00  0.00000000E+00  0.00000000E+00
  0.00000000E+00  0.00000000E+00  0.00000000E+00
  0.00000000E+00  0.00000000E+00  0.00000000E+00
  0.00000000E+00  0.00000000E+00  0.00000000E+00
  0.00000000E+00  0.00000000E+00  0.00000000E+00
  0.00000000E+00  0.00000000E+00  0.00000000E+00
  0.00000000E+00  0.00000000E+00  0.00000000E+00
  0.00000000E+00  0.00000000E+00  0.00000000E+00
  0.00000000E+00  0.00000000E+00  0.00000000E+00
  0.00000000E+00  0.00000000E+00  0.00000000E+00
  0.00000000E+00  0.00000000E+00  0.00000000E+00
  0.00000000E+00  0.00000000E+00  0.00000000E+00
  0.00000000E+00  0.00000000E+00  0.00000000E+00
  0.00000000E+00  0.00000000E+00  0.00000000E+00
  0.00000000E+00  0.00000000E+00  0.00000000E+00
  0.00000000E+00  0.00000000E+00  0.00000000E+00
  0.00000000E+00  0.00000000E+00  0.00000000E+00
  0.00000000E+00  0.00000000E+00  0.00000000E+00
  0.00000000E+00  0.00000000E+00  0.00000000E+00
  0.00000000E+00  0.00000000E+00  0.00000000E+00
  0.00000000E+00  0.00000000E+00  0.00000000E+00
  0.00000000E+00  0.00000000E+00  0.00000000E+00
  0.00000000E+00  0.00000000E+00  0.00000000E+00
  0.00000000E+00  0.00000000E+00  0.00000000E+00
  0.00000000E+00  0.00000000E+00  0.00000000E+00
  0.00000000E+00  0.00000000E+00  0.00000000E+00
  0.00000000E+00  0.00000000E+00  0.00000000E+00
  0.00000000E+00  0.00000000E+00  0.00000000E+00
  0.00000000E+00  0.00000000E+00  0.00000000E+00
  0.00000000E+00  0.00000000E+00  0.00000000E+00
  0.00000000E+00  0.00000000E+00  0.00000000E+00
  0.00000000E+00  0.00000000E+00  0.00000000E+00
  0.00000000E+00  0.00000000E+00  0.00000000E+00
  0.00000000E+00  0.00000000E+00  0.00000000E+00
  0.00000000E+00  0.00000000E+00  0.00000000E+00
  0.00000000E+00  0.00000000E+00  0.00000000E+00
  0.00000000E+00  0.00000000E+00  0.00000000E+00
  0.00000000E+00  0.00000000E+00  0.00000000E+00
  0.00000000E+00  0.00000000E+00  0.00000000E+00
  0.00000000E+00  0.00000000E+00  0.00000000E+00
  0.00000000E+00  0.00000000E+00  0.00000000E+00
  0.00000000E+00  0.00000000E+00  0.00000000E+00
  0.00000000E+00  0.00000000E+00  0.00000000E+00
  0.00000000E+00  0.00000000E+00  0.00000000E+00
  0.00000000E+00  0.00000000E+00  0.00000000E+00
  0.00000000E+00  0.00000000E+00  0.00000000E+00
  0.00000000E+00  0.00000000E+00  0.00000000E+00
  0.00000000E+00  0.00000000E+00  0.00000000E+00
  0.00000000E+00  0.00000000E+00  0.00000000E+00
  0.00000000E+00  0.00000000E+00  0.00000000E+00
  0.00000000E+00  0.00000000E+00  0.00000000E+00
  0.00000000E+00  0.00000000E+00  0.00000000E+00
  0.00000000E+00  0.00000000E+00  0.00000000E+00
  0.00000000E+00  0.00000000E+00  0.00000000E+00
  0.00000000E+00  0.00000000E+00  0.00000000E+00
  0.00000000E+00  0.00000000E+00  0.00000000E+00
  0.00000000E+00  0.00000000E+00  0.00000000E+00
  0.00000000E+00  0.00000000E+00  0.00000000E+00
  0.00000000E+00  0.00000000E+00  0.00000000E+00
  0.00000000E+00  0.00000000E+00  0.00000000E+00
  0.00000000E+00  0.00000000E+00  0.00000000E+00
  0.00000000E+00  0.00000000E+00  0.00000000E+00
  0.00000000E+00  0.00000000E+00  0.00000000E+00
  0.00000000E+00  0.00000000E+00  0.00000000E+00
  0.00000000E+00  0.00000000E+00  0.00000000E+00
  0.00000000E+00  0.00000000E+00  0.00000000E+00
  0.00000000E+00  0.00000000E+00  0.00000000E+00
  0.00000000E+00  0.00000000E+00  0.00000000E+00
  0.00000000E+00  0.00000000E+00  0.00000000E+00
  0.00000000E+00  0.00000000E+00  0.00000000E+00
  0.00000000E+00  0.00000000E+00  0.00000000E+00
  0.00000000E+00  0.00000000E+00  0.00000000E+00
  0.00000000E+00  0.00000000E+00  0.00000000E+00
  0.00000000E+00  0.00000000E+00  0.00000000E+00
  0.00000000E+00  0.00000000E+00  0.00000000E+00
  0.00000000E+00  0.00000000E+00  0.00000000E+00
  0.00000000E+00  0.00000000E+00  0.00000000E+00
  0.00000000E+00  0.00000000E+00  0.00000000E+00
  0.00000000E+00  0.00000000E+00  0.00000000E+00
  0.00000000E+00  0.00000000E+00  0.00000000E+00
  0.00000000E+00  0.00000000E+00  0.00000000E+00
  0.00000000E+00  0.00000000E+00  0.00000000E+00
  0.00000000E+00  0.00000000E+00  0.00000000E+00
  0.00000000E+00  0.00000000E+00  0.00000000E+00
  0.00000000E+00  0.00000000E+00  0.00000000E+00
  0.00000000E+00  0.00000000E+00  0.00000000E+00
  0.00000000E+00  0.00000000E+00  0.00000000E+00
  0.00000000E+00  0.00000000E+00  0.00000000E+00
  0.00000000E+00  0.00000000E+00  0.00000000E+00
  0.00000000E+00  0.00000000E+00  0.00000000E+00
  0.00000000E+00  0.00000000E+00  0.00000000E+00
  0.00000000E+00  0.00000000E+00  0.00000000E+00
  0.00000000E+00  0.00000000E+00  0.00000000E+00
  0.00000000E+00  0.00000000E+00  0.00000000E+00
  0.00000000E+00  0.00000000E+00  0.00000000E+00
  0.00000000E+00  0.00000000E+00  0.00000000E+00
  0.00000000E+00  0.00000000E+00  0.00000000E+00
  0.00000000E+00  0.00000000E+00  0.00000000E+00
  0.00000000E+00  0.00000000E+00  0.00000000E+00
  0.00000000E+00  0.00000000E+00  0.00000000E+00
  0.00000000E+00  0.00000000E+00  0.00000000E+00
  0.00000000E+00  0.00000000E+00  0.00000000E+00
  0.00000000E+00  0.00000000E+00  0.00000000E+00
  0.00000000E+00  0.00000000E+00  0.00000000E+00
  0.00000000E+00  0.00000000E+00  0.00000000E+00
  0.00000000E+00  0.00000000E+00  0.00000000E+00
  0.00000000E+00  0.00000000E+00  0.00000000E+00
  0.00000000E+00  0.00000000E+00  0.00000000E+00
  0.00000000E+00  0.00000000E+00  0.00000000E+00
  0.00000000E+00  0.00000000E+00  0.00000000E+00
  0.00000000E+00  0.00000000E+00  0.00000000E+00
  0.00000000E+00  0.00000000E+00  0.00000000E+00
  0.00000000E+00  0.00000000E+00  0.00000000E+00
  0.00000000E+00  0.00000000E+00  0.00000000E+00