 B Se N O 
 1.0
 17.527899999999772   0.000000000000000   0.000000000000000
 -8.763949999999658  15.179606674993195   0.000000000000000
  0.000000000000001   0.000000000000002  15.000000000000000
 B Se N O 
  49   1  47   1
Cartesian
  7.514050685936525  14.472091471484536   1.665093827195025 
 15.027700471114958   1.446735398821517   1.665305369978205 
 13.785552392658332   3.606711241131872   1.665325318418085 
 12.552530298847683   5.774573250656088   1.665285515320905 
 11.360467645832305   7.961964699697949   1.665283832565225 
 10.074307651481124  10.197819785032380   1.665276170659425 
  8.775243702456549  12.320467968990751   1.666113755676075 
 -7.507743427962930  14.467367145012378   1.665063700857900 
 -0.003365808659039   1.445670999421404   1.664851935450720 
 -1.253581422714428   3.609595620963961   1.664729639448675 
 -2.494602727999081   5.780271117514052   1.665146755931820 
 -3.719025177485549   7.957300894716417   1.665069567104715 
 -4.978191543843627  10.137010240284487   1.665113173783275 
 -6.234179244371949  12.319787677060383   1.665425915958270 
 -5.003211678761082  14.457686921490501   1.664869443070245 
  2.494917001479052   1.437653648714389   1.665221163839610 
  1.233312911056732   3.602675815413910   1.664889185931300 
 -0.014428296923976   5.776772993430646   1.664681172156000 
 -1.252454329498062   7.955141741676135   1.665807707969115 
 -2.494074382190549  10.127653436048863   1.665753449062170 
 -3.744259659715612  12.295308107960379   1.664823037465080 
 -2.499536707286651  14.449062355733108   1.665453745732800 
  4.994802634400706   1.415979282270445   1.665631162676385 
  3.721915907598204   3.591588296252429   1.665404859474750 
  2.464645788855713   5.756347008429781   1.664772263402085 
  1.211189920038141   7.957528960463831   1.664866348705005 
 -0.009283202231072  10.128022714468404   1.666280007528825 
 -1.253366439275071  12.290632136655249   1.665988319275845 
  0.000390359886902  14.447048100192660   1.665449224690140 
  7.514403002953649   1.417056767420974   1.665476854969080 
  6.224961460438900   3.530202461222419   1.665388212418380 
  4.958418133303092   5.701157167591884   1.667686396936575 
  3.628006065494360   7.980282509348400   1.665618576694080 
  2.476396953810712  10.136991564590133   1.665188666620335 
  1.243292943848154  12.293430588063856   1.665736300783230 
  2.502540650034572  14.454933304411909   1.665194545306710 
 10.035113916253602   1.407720151164052   1.665046464680835 
  8.816653161692344   3.522053015677632   1.664437514997165 
  7.522884254179516   5.429691012941593   1.668549380163390 
  5.974768493251529   8.121087548638458   1.668220463067030 
  4.968233766757980  10.212927788335968   1.665210482198565 
  3.734550566098308  12.322710647366138   1.665071531760960 
  5.007200505891026  14.468566131362978   1.664869443042135 
 12.530107234366763   1.437525778150886   1.665440316762900 
 11.296087915843280   3.588955586803777   1.664863835009175 
 10.064654320997130   5.746502550669774   1.665324931325445 
  9.035414553585749   8.111674826568779   1.666249033080345 
  7.505380651530619  10.178248912731839   1.665609716823570 
  6.254603782657804  12.325937227117054   1.665501019100415 
  7.498418807579642   7.214080423922139   1.668165242183775 
  8.766921597612118  13.755410213149062   1.665147278523345 
 16.276232213229129   0.729071243615053   1.664820741976065 
 15.029953236350883   2.887089213309172   1.664931952035465 
 13.792260045789254   5.050809129146979   1.665058298274570 
 12.580859316846318   7.224124355937482   1.664867578097250 
 11.308746856400942   9.420417172042935   1.664927355449385 
 10.044953690302068  11.623284384796905   1.665517151353395 
 -6.251939029259804  13.752340155285014   1.664861444261130 
  1.246283195891821   0.724880038606511   1.664732049362175 
 -0.010479900852639   2.885076486022181   1.664514833067525 
 -1.254349335735048   5.053491886006054   1.664543102054535 
 -2.486125858033956   7.226052431720690   1.665102529264395 
 -3.734133338849700   9.403986191787144   1.664909806194885 
 -4.990302127520845  11.581144197449323   1.664786759105310 
 -3.751723275379321  13.734974382097700   1.664575032318465 
  3.745547222363726   0.711802617991531   1.664982442351845 
  2.479139227311856   2.877004262418745   1.665078647571690 
  1.223269738794932   5.046218568858830   1.664366937464655 
 -0.016888763357117   7.225506155429505   1.664841221658390 
 -1.249793941465320   9.400426845458545   1.666059386521095 
 -2.496767351965781  11.569843610279369   1.665297770655120 
 -1.250571837356263  13.729644783979134   1.665322882278720 
  6.256708620831231   0.706705967850265   1.665429841256325 
  4.972276599069072   2.846944251130025   1.665324935536995 
  3.696089053799311   5.034923167946115   1.665037213828245 
  2.445054736187616   7.222487900980422   1.664478420418590 
  1.235794033986947   9.402787014674532   1.665128972164455 
 -0.003175082670080  11.568808769306651   1.666017099585855 
  1.251575549651517  13.731710144128709   1.665121452149310 
  8.770986071718545   0.703643260898672   1.665011343446430 
  7.516115398594905   2.852012246449635   1.664744552648505 
  6.191265110344362   4.960976929501250   1.665734158463820 
  3.727718286252240   9.413245701646254   1.665067009767810 
  2.492462807247724  11.577014550432567   1.665045062490150 
  3.751306243515174  13.751844297639522   1.664699187644985 
 11.283378419375152   0.706508129625887   1.665091862045745 
 10.061934124351733   2.834107440570650   1.664349863401035 
  8.857162340194181   4.937637582944080   1.664909235678210 
  6.199304380210881   9.533542040871108   1.665197611419705 
  4.983381154552410  11.631450646770304   1.664892974678295 
  6.260421710252128  13.758880090870623   1.664759549271840 
 13.778864048482369   0.725361914218433   1.665001172459190 
 12.542211719708146   2.877639201262869   1.665124707976935 
 11.310149759487466   5.037071741967702   1.664839504941960 
 10.143559478802519   7.224305131228351   1.665289431278730 
  8.828807068084764   9.515824446349896   1.665054041042535 
  7.512856031307162  11.611115043253767   1.665705333762120 
  4.825409922135801   7.234649200012283   1.667275765550985 
