 N B 
 1.0
 17.527899999999772   0.000000000000000   0.000000000000000
 -8.763949999999658  15.179606674993195   0.000000000000000
  0.000000000000001   0.000000000000002  15.000000000000000
 N B 
  49  48
Cartesian
  8.730741229673807  13.759899358709220   1.778075290430040 
 16.243230207136218   0.753566214977827   1.815438928360050 
 14.990568788429947   2.922176227539847   1.800010933053780 
 13.739321558284878   5.089143101431062   1.759579437924540 
 12.486715889835345   7.255302479426335   1.717790279341275 
 11.232617520441373   9.421592062391596   1.695982841589660 
  9.981442771013324  11.589487828478161   1.713686922227310 
 -6.293456195509735  13.755320154183394   1.768272238232490 
  1.217798598143393   0.744395714877684   1.770821249023605 
 -0.037069579324849   2.911760667950719   1.732685510460405 
 -1.285311328945952   5.085787507951849   1.683165553366170 
 -2.533813769155746   7.254851201461890   1.673831434749090 
 -3.786882588793071   9.421710201179231   1.695700865403855 
 -5.041022478725871  11.587881798438849   1.734387188038560 
 -3.788696237360864  13.755247260027051   1.768666691389830 
  3.722981609817903   0.741230336567825   1.744168686290685 
  2.468500276512293   2.903618907179871   1.645243284507720 
  1.207958486407434   5.059868891664398   1.526738223157440 
 -0.031296378217178   7.254182038039286   1.520913594157635 
 -1.279389075215151   9.424581855678866   1.610598559098000 
 -2.535399228793685  11.589698824990299   1.714072297858470 
 -1.284816881784766  13.759932255007328   1.779346623791595 
  6.227977177341102   0.744175281154879   1.771429281838665 
  4.977300755049955   2.903446511795405   1.644610404528825 
  3.722868077502698   5.050791451406734   1.400158971271995 
  2.380023600798667   7.163705044301884   1.112853148258260 
  1.229320273203940   9.441411380407065   1.404917335520445 
 -0.031638246094030  11.596486067661461   1.664806443381465 
  1.214601640841956  13.776339937100213   1.793096224866810 
  8.730446560454594   0.753510619140585   1.817128156286610 
  7.482677918004736   2.911482643785057   1.731819126375900 
  6.238191058787871   5.059868891664398   1.525473012362535 
  5.066459924922500   7.163703049289396   1.113433933090470 
  3.723134170448499   9.522320970858448   1.300944564244725 
  2.458915461858673  11.629432230611735   1.638379941842070 
  3.723035882922470  13.776479012721932   1.792487720131035 
 11.234563969548235   0.758744140336034   1.842226594613025 
  9.982926813202779   2.921933640986654   1.801365888529935 
  8.730969367368980   5.085592867341658   1.683127560148515 
  7.477129817720076   7.253878009782131   1.520887728733950 
  6.217043085049587   9.441445103051478   1.404851139094770 
  4.987171224153058  11.629392971649944   1.637752340263290 
  6.231400393304031  13.776239115043767   1.791833338497690 
 13.739479287455461   0.758815072547567   1.841270535101055 
 12.486875371465819   2.923868160095214   1.824673050166560 
 11.234359505824511   5.088884393709533   1.760024725646790 
  9.979548410179465   7.254601933434853   1.673911278318375 
  8.725421674847496   9.424219782697172   1.610494143942315 
  7.477888418772840  11.596416944387673   1.664045652526710 
  7.481548686282332  14.489874042251431   1.799582534762760 
 14.992765322732570   1.478968024934204   1.822484866205250 
 13.740326122756334   3.645886125790154   1.797029281414485 
 12.486819071852359   5.810740154097208   1.746931966339740 
 11.229872055297925   7.974951750988132   1.697078228984895 
  9.974141988318806  10.140918528066754   1.676009394534075 
  8.727619307895166  12.312315778400473   1.722430791897000 
 -7.545496627203109  14.481231780603858   1.776908383939650 
 -0.032225380788704   1.473435183198942   1.777048945435335 
 -1.282003682055187   3.644690473573536   1.740011666679000 
 -2.531065344830356   5.810152525993741   1.706373131016765 
 -3.784331336931878   7.974937977547068   1.696918677455475 
 -5.041177668394622  10.140975441706447   1.711213491547575 
 -6.294708623371761  12.309900115304897   1.742903371073130 
 -5.041048546483921  14.479743322751791   1.765270298629965 
  2.471005217710139   1.470116210170533   1.723692881621130 
  1.217479492922274   3.634732603325261   1.636471072028640 
 -0.023444557056510   5.808928538296002   1.572366417323160 
 -1.269693952769316   7.972973322363996   1.602372789686730 
 -2.528179179370581  10.141150882199598   1.676027558971395 
 -3.787311962302933  12.309892819462672   1.743147697764360 
 -2.536738041220599  14.480992581582496   1.777785503316690 
  4.975029337228720   1.470021874915911   1.723819536790590 
  3.722890955219920   3.636163933479863   1.565026600530090 
  2.472135634091283   5.794534585069155   1.336429193194095 
  1.259792777421584   7.966705963159161   1.333733474070885 
 -0.017024078854447  10.143046359261898   1.561449191855700 
 -1.281305113821543  12.312404841788959   1.723219852503255 
 -0.035607983185528  14.489923563399781   1.801145522484045 
  7.477836498764273   1.473244256850384   1.777392914945010 
  6.228250703375361   3.634375075538097   1.635020339301165 
  4.973462267526082   5.794144367912160   1.336040268165315 
  2.478718481654910  10.184893637408869   1.429781460927330 
  1.214633371732113  12.331849099788533   1.705140923566440 
  2.469263147369675  14.493111517006973   1.813644210695520 
  9.981030018256538   1.478650672017854   1.824315305509845 
  8.727424674605981   3.644453090275490   1.740099081532245 
  7.468904344462894   5.808635008193316   1.572003431563155 
  6.186775154295245   7.967033653070008   1.333958466728385 
  4.967584016422369  10.184774966949304   1.429556995297365 
  3.722943915406861  12.330896127311757   1.692217313042100 
  4.976798274813756  14.493259201300695   1.813287130715235 
 12.487122881096868   1.479811276504387   1.839795236656665 
 11.233247593506810   3.645497718884773   1.797673876717215 
  9.977010105999403   5.809968528516864   1.706545357825665 
  8.715525649288335   7.972579926376028   1.602274278359970 
  7.463495219333572  10.143006131157190   1.561222371627240 
  6.231544561459911  12.331669651540926   1.704044453623230 
