 B Se N 
 1.0
 14.936314146199660   0.000000000000000   0.000000000000000
 -7.468157073099825  12.935227489513863   0.000000000000000
  0.000000000000001   0.000000000000001  13.341276283792837
 B Se N 
 143   1 143
Cartesian
  1.246897678161529   0.719365139842363   5.002978606422314 
  4.881287557640410   7.406127424071927   5.002978606422314 
  6.238148222801176   0.667539943470795   5.002978606422314 
  9.930402433943144   7.168833983756784   5.002978606422314 
 11.216084440511191   0.726619375643278   5.002978606422314 
 -3.733872161237341   9.342227893268911  11.673616748318732 
  1.244497884148287   9.342772795039986  11.673616748318732 
  2.488680611708401   2.873754286075112  11.673616748318732 
  6.223769062904131   9.343228351123072  11.673616748318732 
  7.469200836384688   2.873842628145499  11.673616748318732 
 12.446893431664808   2.874301696462104  11.673616748318732 
 -1.274800265166076   9.337071462338280   5.002978606422314 
  0.011412720490688   2.881084134917186   5.002978606422314 
  5.020735082601453   2.766288342546447   5.002978606422314 
  3.694113488134949   9.439794111349990   5.002978606422314 
  8.684207871384821   9.327306282223885   5.002978606422314 
  9.983677319586414   2.858503828200574   5.002978606422314 
 -4.978782204282322  11.497988167387442  11.673616748318732 
  0.000189653608573  11.498089487240897  11.673616748318732 
  1.243698830796417   5.030125985112267  11.673616748318732 
  6.224523409708413   5.030014313036230  11.673616748318732 
  4.978868513820331  11.498835349836588  11.673616748318732 
 11.202651100258983   5.030118884203755  11.673616748318732 
 -1.242948366252050   5.031904991791108   5.002978606422314 
 -2.508801813380491  11.474424840464318   5.002978606422314 
  2.480633962686844  11.527849156101553   5.002978606422314 
  7.459110444800235  11.503938821373588   5.002978606422314 
  8.725493136614492   4.995370145769717   5.002978606422314 
 -0.000549446741454   7.186398297052978  11.673616748318732 
  1.244276181795857   0.718330034234348  11.673616748318732 
  4.978996190309644   7.187330739244900  11.673616748318732 
  6.223941833331566   0.718122881613067  11.673616748318732 
  9.958153249941184   7.186303490665222  11.673616748318732 
 -2.517138501570021   7.177378325933051   5.002978606422314 
 11.202493091054603   0.718772406375867  11.673616748318732 
  3.724160110859720   0.680925549214714   5.002978606422314 
  2.416657829105390   7.276682452436080   5.002978606422314 
  7.435879582882164   7.167602076508455   5.002978606422314 
  8.734341510489061   0.696109947631063   5.002978606422314 
  2.488847047905786   7.186829085806859  11.673616748318732 
 13.701395963971558   0.730811288041238   5.002978606422314 
 -1.244731268289823   9.342290285303719  11.673616748318732 
 -0.000744133754973   2.874065371845955  11.673616748318732 
  4.979014393885190   2.873732723221555  11.673616748318732 
  3.734035449611724   9.343338852708975  11.673616748318732 
  8.713212316158142   9.342604440399707  11.673616748318732 
  9.958332092769879   2.874151436657150  11.673616748318732 
 -3.764343586013470   9.324635207971800   5.002978606422314 
  1.207794969453827   9.380367358287860   5.002978606422314 
  2.494774980805251   2.873219202368765   5.002978606422314 
  6.199478324816919   9.370556140474678   5.002978606422314 
  7.532772559958018   2.791041566017198   5.002978606422314 
 12.462370504868456   2.876866335079181   5.002978606422314 
 -1.245155542187020   5.030152262146502  11.673616748318732 
 -2.489247681676434  11.497855944142737  11.673616748318732 
  2.489584680674041  11.498616997761493  11.673616748318732 
  3.733482956863512   5.030022387829742  11.673616748318732 
  7.468150596872525  11.498463496960694  11.673616748318732 
 -5.000320052088280  11.478374935848366   5.002978606422314 
  8.713971945850357   5.030070436705680  11.673616748318732 
 -0.011145739911419  11.491544994740757   5.002978606422314 
  1.246282619261988   5.035671405423365   5.002978606422314 
 -0.037606811897625   7.196496985662508   5.002978606422314 
  6.365152580697816   4.835997812562118   5.002978606422314 
  4.977989900796732  11.528608764352670   5.002978606422314 
 11.202872794258358   5.019552220648643   5.002978606422314 
 -2.489384020903882   7.186224033506290  11.673616748318732 
  3.733943072557052   0.718067513142027  11.673616748318732 
  7.468971085226033   7.186707464294551  11.673616748318732 
  8.713501077752724   0.718477575960105  11.673616748318732 
 13.691436385175811   0.718690068779200  11.673616748318732 
 -0.000357193280453   1.436161150472675   1.664517779753032 
  3.732322344266415   7.908150146812199   1.666065173835124 
  4.978993152261939   1.432943756420248   1.665363493950962 
  8.715680641715920   7.906495562335357   1.665350141302201 
  9.958171456923681   1.436733916114301   1.663612978476802 
 -4.977574986900023  10.060885766667631   8.341158405275591 
 -0.001693462560482  10.061483728600656   8.341461939109674 
  1.242560516474392   3.591887646340683   8.342548951504147 
  4.979009449118262  10.063085225447658   8.341696283471336 
  6.225434405180879   3.589953388345568   8.339892039009504 
 11.202926213265769   3.593308859891136   8.341665426387992 
 -2.489709934756062  10.060545289643503   1.664769054581689 
 -1.245812247435907   3.593352582813384   1.664517779753032 
  3.732720393683872   3.588642136673988   1.665229365184173 
  2.487700365130975  10.062765207206320   1.663858569521283 
  7.469966160272975  10.062163318141179   1.664863686975563 
  8.715006479211315   3.592148552400014   1.664260929373292 
 -6.222978556821874  12.215742066233478   8.341275461946077 
 -1.244888986681469  12.214761540120438   8.341461939109674 
 -0.003049473756975   5.749895897138482   8.341291283018656 
  4.980321158711237   5.749884759302438   8.338703007503605 
  3.733948107262227  12.217404995384561   8.342344234367825 
  9.959686439641319   5.749841297640599   8.341093525869065 
 -2.489889087107676   5.749841435488084   1.664681750898564 
 -3.733932402873402  12.214347838139052   1.665102827117486 
  1.244239883296706  12.216342222236774   1.663517406938672 
  2.484829761259563   5.750052114322164   1.665229365184173 
  6.223974171908996  12.217106763969907   1.664291786456622 
  7.471855145356221   5.749829694033284   1.667476102343530 
 -1.246573447081934   7.906115750046733   8.340854385727127 
 -0.000357193280453   1.436161150472676   8.341439433091596 
  3.732322344266416   7.908150146812200   8.339892039009504 
  4.978993152261940   1.432943756420249   8.340593718893652 
  8.715680641715920   7.906495562335358   8.340607071542427 
 -3.733347599075736   7.905820714787246   1.664798807569024 
  9.958171456923681   1.436733916114301   8.342344234367825 
  2.488645488126024   1.434153626193698   1.664665929825973 
  1.241076580351852   7.907205173422250   1.665363493950962 
  6.226040464111724   7.907644018763994   1.667476102343530 
  7.469074793290989   1.434771606108753   1.663858569521283 
  1.241076580351852   7.907205173422251   8.340593718893652 
 12.447014877752853   1.437297394938519   1.664369713134911 
 -2.489709934756062  10.060545289643503   8.341188158262939 
 -1.245812247435906   3.593352582813385   8.341439433091596 
  3.732720393683872   3.588642136673989   8.340727847660428 
  2.487700365130975  10.062765207206320   8.342098643323331 
  7.469966160272976  10.062163318141179   8.341093525869065 
  8.715006479211315   3.592148552400015   8.341696283471336 
 -4.977574986900024  10.060885766667631   1.664798807569024 
 -0.001693462560483  10.061483728600656   1.664495273734927 
  1.242560516474391   3.591887646340682   1.663408261340481 
  4.979009449118261  10.063085225447658   1.664260929373292 
  6.225434405180878   3.589953388345567   1.666065173835124 
 11.202926213265769   3.593308859891136   1.664291786456622 
 -2.489889087107676   5.749841435488085   8.341275461946077 
 -3.733932402873401  12.214347838139052   8.340854385727127 
  1.244239883296707  12.216342222236774   8.342439805905942 
  2.484829761259564   5.750052114322165   8.340727847660428 
  6.223974171908996  12.217106763969907   8.341665426387992 
 -6.222978556821875  12.215742066233478   1.664681750898564 
  7.471855145356222   5.749829694033285   8.338481110501098 
 -1.244888986681469  12.214761540120438   1.664495273734927 
 -0.003049473756976   5.749895897138481   1.664665929825973 
 -1.246573447081935   7.906115750046732   1.665102827117486 
  4.980321158711236   5.749884759302438   1.667254205341023 
  3.733948107262226  12.217404995384561   1.663612978476802 
  9.959686439641319   5.749841297640598   1.664863686975563 
 -3.733347599075736   7.905820714787247   8.341158405275591 
  2.488645488126024   1.434153626193699   8.341291283018656 
  6.226040464111724   7.907644018763995   8.338481110501098 
  7.469074793290990   1.434771606108754   8.342098643323331 
 12.447014877752853   1.437297394938519   8.341587499709730 
  4.210215623288477   5.305264121121686   5.002978606422314 
  1.244998088282698   0.718289387582932   1.670599354818521 
  4.978486717074406   7.186331386676073   1.687205889449246 
  6.223403157023746   0.718300687616793   1.671826155815834 
  9.957459278046848   7.186411770168191   1.671369073026896 
 11.202415563900788   0.718727646052733   1.668950869914142 
 -3.734051358596370   9.342124433625417   8.336055082242380 
  1.244382530510557   9.342217384671120   8.334131057028781 
  2.489583988735341   2.874239612624223   8.331700746705371 
  6.223536309199684   9.341877857609425   8.331023872057925 
  7.468012936493849   2.874303265193355   8.332118612001576 
 12.447136711392821   2.874863523434267   8.336131975515814 
 -1.244881312567241   9.342198327460743   1.670220561937287 
  0.000507327848787   2.874787903539765   1.671375792606149 
  4.978670673535221   2.874306526919001   1.679502008544186 
  3.733840423051673   9.342079782702424   1.673838600843065 
  8.712959103011265   9.341949303358197   1.671369073026896 
  9.957481279061632   2.874697856270610   1.669866405978907 
 -4.978595910461296  11.497633770665965   8.335658707613119 
 -0.000155232167716  11.497890367345114   8.336408796498718 
  1.244570824430534   5.030665669292263   8.331700746705371 
  6.223403208378859   5.030072772556368   8.318751323395368 
  4.978916320232583  11.497825313744638   8.336090806865721 
 11.202164308947204   5.030744312752741   8.335772712564435 
 -1.244829789976312   5.030797774828984   1.670599354818521 
 -2.489402341643245  11.497771980908301   1.670220561937287 
  2.489288564597284  11.497959957735493   1.669202929279459 
  3.733688317021058   5.030140952571991   1.687496895259776 
  7.468448838228302  11.497729209043868   1.670184500280180 
  8.712686007307656   5.030544112841653   1.674933340786702 
 -0.000247188893680   7.186518792505381   8.333309106467246 
  1.244998088282699   0.718289387582932   8.335357858026095 
  4.978486717074407   7.186331386676073   8.318751323395368 
  6.223403157023747   0.718300687616794   8.334131057028781 
  9.957459278046848   7.186411770168192   8.334588139817731 
 -2.489597790557194   7.186562567048616   1.670298505231535 
 11.202415563900788   0.718727646052733   8.337006342930472 
  3.734198553603752   0.718269028390503   1.672648106377381 
  2.489172116309568   7.186244513403277   1.679502008544186 
  7.467980069848420   7.186135301299534   1.678399266007618 
  8.712784006360520   0.718549651928176   1.669202929279459 
  2.489172116309569   7.186244513403278   8.326455204300441 
 13.692044581470242   0.718619841717802   1.669825237328814 
 -1.244881312567240   9.342198327460743   8.335736650907355 
  0.000507327848787   2.874787903539766   8.334581420238491 
  4.978670673535222   2.874306526919002   8.326455204300441 
  3.733840423051673   9.342079782702424   8.332118612001576 
  8.712959103011265   9.341949303358197   8.334588139817731 
  9.957481279061632   2.874697856270611   8.336090806865721 
 -3.734051358596370   9.342124433625417   1.669902130602261 
  1.244382530510556   9.342217384671120   1.671826155815834 
  2.489583988735341   2.874239612624222   1.674256466139257 
  6.223536309199683   9.341877857609425   1.674933340786702 
  7.468012936493848   2.874303265193354   1.673838600843065 
 12.447136711392821   2.874863523434267   1.669825237328814 
 -1.244829789976311   5.030797774828985   8.335357858026095 
 -2.489402341643245  11.497771980908301   8.335736650907355 
  2.489288564597284  11.497959957735493   8.336754283565169 
  3.733688317021058   5.030140952571992   8.318460317584851 
  7.468448838228303  11.497729209043868   8.335772712564435 
 -4.978595910461297  11.497633770665965   1.670298505231535 
  8.712686007307656   5.030544112841654   8.331023872057925 
 -0.000155232167716  11.497890367345114   1.669548416345896 
  1.244570824430533   5.030665669292262   1.674256466139257 
 -0.000247188893680   7.186518792505380   1.672648106377381 
  6.223403208378858   5.030072772556367   1.687205889449246 
  4.978916320232583  11.497825313744638   1.669866405978907 
 11.202164308947204   5.030744312752740   1.670184500280180 
 -2.489597790557193   7.186562567048616   8.335658707613119 
  3.734198553603752   0.718269028390503   8.333309106467246 
  7.467980069848421   7.186135301299535   8.327557946836995 
  8.712784006360520   0.718549651928177   8.336754283565169 
 13.692044581470242   0.718619841717803   8.336131975515814 
  0.014587422534346   1.449581841386018   5.002978606422314 
  3.654864381507572   7.996191545165121   5.002978606422314 
  4.985897787724282   1.374469623786321   5.002978606422314 
  8.665814879446382   7.877705551065693   5.002978606422314 
  9.968342962927263   1.430111264143266   5.002978606422314 
 -4.978783533904052  10.060788886307009  11.673616748318732 
  0.000215062121696  10.060816305835122  11.673616748318732 
  1.244735179067973   3.593143188374466  11.673616748318732 
  4.978857779248871  10.060860984082128  11.673616748318732 
  6.223557667588962   3.593226927663894  11.673616748318732 
 11.202372262306461   3.593137662241035  11.673616748318732 
 -2.519538513936435  10.043323751424163   5.002978606422314 
 -1.226717280261214   3.599584654302128   5.002978606422314 
  3.808899753766971   3.539142067565015   5.002978606422314 
  2.453497053940273  10.099750638104277   5.002978606422314 
  7.444933215255979  10.054669325690289   5.002978606422314 
  8.726330299374593   3.567018965754307   5.002978606422314 
 -6.223444631512035  12.216708888335489  11.673616748318732 
 -1.244512729410413  12.216748082361750  11.673616748318732 
  0.000099149781755   5.748968566760423  11.673616748318732 
  4.978845486326913   5.749032779454113  11.673616748318732 
  3.734202257110295  12.216722401426585  11.673616748318732 
  9.957647700972036   5.748948215804113  11.673616748318732 
 -2.493306290199561   5.742972452427559   5.002978606422314 
 -3.753329185909250  12.192572684174355   5.002978606422314 
  1.235759084895717  12.211445830997031   5.002978606422314 
  2.480051123963657   5.840775409952658   5.002978606422314 
  6.225012411717532  12.228994812286464   5.002978606422314 
  7.427417848417191   5.717199691110292   5.002978606422314 
 -1.244529934620388   7.904840035989239  11.673616748318732 
  0.000037141772394   1.437309331435892  11.673616748318732 
  3.734218943680417   7.904888074722199  11.673616748318732 
  4.978894314524063   1.437436084145088  11.673616748318732 
  8.712843993440650   7.904857822690035  11.673616748318732 
 -3.768008053457880   7.887530515613808   5.002978606422314 
  9.957707388139642   1.437295313318073  11.673616748318732 
  2.503488397004093   1.443160922801274   5.002978606422314 
  1.193888813757782   7.942421829453474   5.002978606422314 
  6.175563404185342   7.885475192200767   5.002978606422314 
  7.484003460423176   1.386657954275095   5.002978606422314 
  1.244917631414750   7.904873413567977  11.673616748318732 
 12.459913031527901   1.444744147492585   5.002978606422314 
 -2.489271492626961  10.060798424324748  11.673616748318732 
 -1.244620726027190   3.593119996505132  11.673616748318732 
  3.734153749260035   3.593214486924746  11.673616748318732 
  2.489546536898678  10.060834620532177  11.673616748318732 
  7.468173359380279  10.060844259580149  11.673616748318732 
  8.713004394749920   3.593129323122902  11.673616748318732 
 -5.010744991215563  10.040014032252689   5.002978606422314 
 -0.031504823056893  10.063883842352064   5.002978606422314 
  1.276682372859888   3.611587909310089   5.002978606422314 
  4.962908498778109  10.085456734699811   5.002978606422314 
  6.262951511359791   3.478852125694556   5.002978606422314 
 11.213740685013601   3.588263977782259   5.002978606422314 
 -2.489284831951476   5.748954391915340  11.673616748318732 
 -3.734015447424381  12.216755428872450  11.673616748318732 
  1.244864208099125  12.216702676329499  11.673616748318732 
  2.489506210519794   5.749007261538411  11.673616748318732 
  6.223548934915279  12.216712627191761  11.673616748318732 
 -6.230635872196389  12.216217173076265   5.002978606422314 
  7.468231006593821   5.748987521911429  11.673616748318732 
 -1.257716107448997  12.187744087733494   5.002978606422314 
  0.012172528363648   5.758246584989146   5.002978606422314 
 -1.275129675104603   7.900205220168342   5.002978606422314 
  3.733298475416678  12.229525103963924   5.002978606422314 
  9.940679979294588   5.731909127549775   5.002978606422314 
 -3.734035773431180   7.904822522560401  11.673616748318732 
  2.489416708230291   1.437344079354222  11.673616748318732 
  6.223499052278637   7.904926508589845  11.673616748318732 
  7.468325942070824   1.437335731096407  11.673616748318732 
 12.447066093225285   1.437326964205307  11.673616748318732 
Generated by cif2cell 2.0.0.  :  Failed to get author information, No journal information. Species order: B Se N 
 1.0
 14.936314146199660   0.000000000000000   0.000000000000000
 -7.468157073099825  12.935227489513863   0.000000000000000
  0.000000000000001   0.000000000000001  13.341276283792837
 B Se N 
 143   1 143
Cartesian
  1.246897678161529   0.719365139842363   5.002978606422314 
  4.881287557640410   7.406127424071927   5.002978606422314 
  6.238148222801176   0.667539943470795   5.002978606422314 
  9.930402433943144   7.168833983756784   5.002978606422314 
 11.216084440511191   0.726619375643278   5.002978606422314 
 -3.733872161237341   9.342227893268911  11.673616748318732 
  1.244497884148287   9.342772795039986  11.673616748318732 
  2.488680611708401   2.873754286075112  11.673616748318732 
  6.223769062904131   9.343228351123072  11.673616748318732 
  7.469200836384688   2.873842628145499  11.673616748318732 
 12.446893431664808   2.874301696462104  11.673616748318732 
 -1.274800265166076   9.337071462338280   5.002978606422314 
  0.011412720490688   2.881084134917186   5.002978606422314 
  5.020735082601453   2.766288342546447   5.002978606422314 
  3.694113488134949   9.439794111349990   5.002978606422314 
  8.684207871384821   9.327306282223885   5.002978606422314 
  9.983677319586414   2.858503828200574   5.002978606422314 
 -4.978782204282322  11.497988167387442  11.673616748318732 
  0.000189653608573  11.498089487240897  11.673616748318732 
  1.243698830796417   5.030125985112267  11.673616748318732 
  6.224523409708413   5.030014313036230  11.673616748318732 
  4.978868513820331  11.498835349836588  11.673616748318732 
 11.202651100258983   5.030118884203755  11.673616748318732 
 -1.242948366252050   5.031904991791108   5.002978606422314 
 -2.508801813380491  11.474424840464318   5.002978606422314 
  2.480633962686844  11.527849156101553   5.002978606422314 
  7.459110444800235  11.503938821373588   5.002978606422314 
  8.725493136614492   4.995370145769717   5.002978606422314 
 -0.000549446741454   7.186398297052978  11.673616748318732 
  1.244276181795857   0.718330034234348  11.673616748318732 
  4.978996190309644   7.187330739244900  11.673616748318732 
  6.223941833331566   0.718122881613067  11.673616748318732 
  9.958153249941184   7.186303490665222  11.673616748318732 
 -2.517138501570021   7.177378325933051   5.002978606422314 
 11.202493091054603   0.718772406375867  11.673616748318732 
  3.724160110859720   0.680925549214714   5.002978606422314 
  2.416657829105390   7.276682452436080   5.002978606422314 
  7.435879582882164   7.167602076508455   5.002978606422314 
  8.734341510489061   0.696109947631063   5.002978606422314 
  2.488847047905786   7.186829085806859  11.673616748318732 
 13.701395963971558   0.730811288041238   5.002978606422314 
 -1.244731268289823   9.342290285303719  11.673616748318732 
 -0.000744133754973   2.874065371845955  11.673616748318732 
  4.979014393885190   2.873732723221555  11.673616748318732 
  3.734035449611724   9.343338852708975  11.673616748318732 
  8.713212316158142   9.342604440399707  11.673616748318732 
  9.958332092769879   2.874151436657150  11.673616748318732 
 -3.764343586013470   9.324635207971800   5.002978606422314 
  1.207794969453827   9.380367358287860   5.002978606422314 
  2.494774980805251   2.873219202368765   5.002978606422314 
  6.199478324816919   9.370556140474678   5.002978606422314 
  7.532772559958018   2.791041566017198   5.002978606422314 
 12.462370504868456   2.876866335079181   5.002978606422314 
 -1.245155542187020   5.030152262146502  11.673616748318732 
 -2.489247681676434  11.497855944142737  11.673616748318732 
  2.489584680674041  11.498616997761493  11.673616748318732 
  3.733482956863512   5.030022387829742  11.673616748318732 
  7.468150596872525  11.498463496960694  11.673616748318732 
 -5.000320052088280  11.478374935848366   5.002978606422314 
  8.713971945850357   5.030070436705680  11.673616748318732 
 -0.011145739911419  11.491544994740757   5.002978606422314 
  1.246282619261988   5.035671405423365   5.002978606422314 
 -0.037606811897625   7.196496985662508   5.002978606422314 
  6.365152580697816   4.835997812562118   5.002978606422314 
  4.977989900796732  11.528608764352670   5.002978606422314 
 11.202872794258358   5.019552220648643   5.002978606422314 
 -2.489384020903882   7.186224033506290  11.673616748318732 
  3.733943072557052   0.718067513142027  11.673616748318732 
  7.468971085226033   7.186707464294551  11.673616748318732 
  8.713501077752724   0.718477575960105  11.673616748318732 
 13.691436385175811   0.718690068779200  11.673616748318732 
 -0.000357193280453   1.436161150472675   1.664517779753032 
  3.732322344266415   7.908150146812199   1.666065173835124 
  4.978993152261939   1.432943756420248   1.665363493950962 
  8.715680641715920   7.906495562335357   1.665350141302201 
  9.958171456923681   1.436733916114301   1.663612978476802 
 -4.977574986900023  10.060885766667631   8.341158405275591 
 -0.001693462560482  10.061483728600656   8.341461939109674 
  1.242560516474392   3.591887646340683   8.342548951504147 
  4.979009449118262  10.063085225447658   8.341696283471336 
  6.225434405180879   3.589953388345568   8.339892039009504 
 11.202926213265769   3.593308859891136   8.341665426387992 
 -2.489709934756062  10.060545289643503   1.664769054581689 
 -1.245812247435907   3.593352582813384   1.664517779753032 
  3.732720393683872   3.588642136673988   1.665229365184173 
  2.487700365130975  10.062765207206320   1.663858569521283 
  7.469966160272975  10.062163318141179   1.664863686975563 
  8.715006479211315   3.592148552400014   1.664260929373292 
 -6.222978556821874  12.215742066233478   8.341275461946077 
 -1.244888986681469  12.214761540120438   8.341461939109674 
 -0.003049473756975   5.749895897138482   8.341291283018656 
  4.980321158711237   5.749884759302438   8.338703007503605 
  3.733948107262227  12.217404995384561   8.342344234367825 
  9.959686439641319   5.749841297640599   8.341093525869065 
 -2.489889087107676   5.749841435488084   1.664681750898564 
 -3.733932402873402  12.214347838139052   1.665102827117486 
  1.244239883296706  12.216342222236774   1.663517406938672 
  2.484829761259563   5.750052114322164   1.665229365184173 
  6.223974171908996  12.217106763969907   1.664291786456622 
  7.471855145356221   5.749829694033284   1.667476102343530 
 -1.246573447081934   7.906115750046733   8.340854385727127 
 -0.000357193280453   1.436161150472676   8.341439433091596 
  3.732322344266416   7.908150146812200   8.339892039009504 
  4.978993152261940   1.432943756420249   8.340593718893652 
  8.715680641715920   7.906495562335358   8.340607071542427 
 -3.733347599075736   7.905820714787246   1.664798807569024 
  9.958171456923681   1.436733916114301   8.342344234367825 
  2.488645488126024   1.434153626193698   1.664665929825973 
  1.241076580351852   7.907205173422250   1.665363493950962 
  6.226040464111724   7.907644018763994   1.667476102343530 
  7.469074793290989   1.434771606108753   1.663858569521283 
  1.241076580351852   7.907205173422251   8.340593718893652 
 12.447014877752853   1.437297394938519   1.664369713134911 
 -2.489709934756062  10.060545289643503   8.341188158262939 
 -1.245812247435906   3.593352582813385   8.341439433091596 
  3.732720393683872   3.588642136673989   8.340727847660428 
  2.487700365130975  10.062765207206320   8.342098643323331 
  7.469966160272976  10.062163318141179   8.341093525869065 
  8.715006479211315   3.592148552400015   8.341696283471336 
 -4.977574986900024  10.060885766667631   1.664798807569024 
 -0.001693462560483  10.061483728600656   1.664495273734927 
  1.242560516474391   3.591887646340682   1.663408261340481 
  4.979009449118261  10.063085225447658   1.664260929373292 
  6.225434405180878   3.589953388345567   1.666065173835124 
 11.202926213265769   3.593308859891136   1.664291786456622 
 -2.489889087107676   5.749841435488085   8.341275461946077 
 -3.733932402873401  12.214347838139052   8.340854385727127 
  1.244239883296707  12.216342222236774   8.342439805905942 
  2.484829761259564   5.750052114322165   8.340727847660428 
  6.223974171908996  12.217106763969907   8.341665426387992 
 -6.222978556821875  12.215742066233478   1.664681750898564 
  7.471855145356222   5.749829694033285   8.338481110501098 
 -1.244888986681469  12.214761540120438   1.664495273734927 
 -0.003049473756976   5.749895897138481   1.664665929825973 
 -1.246573447081935   7.906115750046732   1.665102827117486 
  4.980321158711236   5.749884759302438   1.667254205341023 
  3.733948107262226  12.217404995384561   1.663612978476802 
  9.959686439641319   5.749841297640598   1.664863686975563 
 -3.733347599075736   7.905820714787247   8.341158405275591 
  2.488645488126024   1.434153626193699   8.341291283018656 
  6.226040464111724   7.907644018763995   8.338481110501098 
  7.469074793290990   1.434771606108754   8.342098643323331 
 12.447014877752853   1.437297394938519   8.341587499709730 
  4.210215623288477   5.305264121121686   5.002978606422314 
  1.244998088282698   0.718289387582932   1.670599354818521 
  4.978486717074406   7.186331386676073   1.687205889449246 
  6.223403157023746   0.718300687616793   1.671826155815834 
  9.957459278046848   7.186411770168191   1.671369073026896 
 11.202415563900788   0.718727646052733   1.668950869914142 
 -3.734051358596370   9.342124433625417   8.336055082242380 
  1.244382530510557   9.342217384671120   8.334131057028781 
  2.489583988735341   2.874239612624223   8.331700746705371 
  6.223536309199684   9.341877857609425   8.331023872057925 
  7.468012936493849   2.874303265193355   8.332118612001576 
 12.447136711392821   2.874863523434267   8.336131975515814 
 -1.244881312567241   9.342198327460743   1.670220561937287 
  0.000507327848787   2.874787903539765   1.671375792606149 
  4.978670673535221   2.874306526919001   1.679502008544186 
  3.733840423051673   9.342079782702424   1.673838600843065 
  8.712959103011265   9.341949303358197   1.671369073026896 
  9.957481279061632   2.874697856270610   1.669866405978907 
 -4.978595910461296  11.497633770665965   8.335658707613119 
 -0.000155232167716  11.497890367345114   8.336408796498718 
  1.244570824430534   5.030665669292263   8.331700746705371 
  6.223403208378859   5.030072772556368   8.318751323395368 
  4.978916320232583  11.497825313744638   8.336090806865721 
 11.202164308947204   5.030744312752741   8.335772712564435 
 -1.244829789976312   5.030797774828984   1.670599354818521 
 -2.489402341643245  11.497771980908301   1.670220561937287 
  2.489288564597284  11.497959957735493   1.669202929279459 
  3.733688317021058   5.030140952571991   1.687496895259776 
  7.468448838228302  11.497729209043868   1.670184500280180 
  8.712686007307656   5.030544112841653   1.674933340786702 
 -0.000247188893680   7.186518792505381   8.333309106467246 
  1.244998088282699   0.718289387582932   8.335357858026095 
  4.978486717074407   7.186331386676073   8.318751323395368 
  6.223403157023747   0.718300687616794   8.334131057028781 
  9.957459278046848   7.186411770168192   8.334588139817731 
 -2.489597790557194   7.186562567048616   1.670298505231535 
 11.202415563900788   0.718727646052733   8.337006342930472 
  3.734198553603752   0.718269028390503   1.672648106377381 
  2.489172116309568   7.186244513403277   1.679502008544186 
  7.467980069848420   7.186135301299534   1.678399266007618 
  8.712784006360520   0.718549651928176   1.669202929279459 
  2.489172116309569   7.186244513403278   8.326455204300441 
 13.692044581470242   0.718619841717802   1.669825237328814 
 -1.244881312567240   9.342198327460743   8.335736650907355 
  0.000507327848787   2.874787903539766   8.334581420238491 
  4.978670673535222   2.874306526919002   8.326455204300441 
  3.733840423051673   9.342079782702424   8.332118612001576 
  8.712959103011265   9.341949303358197   8.334588139817731 
  9.957481279061632   2.874697856270611   8.336090806865721 
 -3.734051358596370   9.342124433625417   1.669902130602261 
  1.244382530510556   9.342217384671120   1.671826155815834 
  2.489583988735341   2.874239612624222   1.674256466139257 