Species order: X N B                    
   2.51242800000000     
     5.9449720136058266    0.0000000000000000    0.0000000000000000
    -2.9724860068029120    5.1484967885702053   -0.0000000000000001
     0.0000000000000000    0.0000000000000009    5.3101128803662583
   Se   N    B 
     1   143   143
Direct
  0.4869482002419380  0.4101407667876328  0.3750000000000000
  0.1111186229289401  0.0555297066221080  0.1252203551805602
  0.6110956818607106  0.5555628142219984  0.1264651037546448
  0.4444278680404806  0.0555305802081251  0.1253123104756324
  0.9444455914614066  0.5555690285303421  0.1252780496763491
  0.7777938419150907  0.0555635876242132  0.1250967924216968
  0.1111135372298312  0.7222234352815794  0.6248319055028588
  0.4444278680404806  0.7222306211656911  0.6246876895243666
  0.2777811823042752  0.2222024788473388  0.6245055247695329
  0.7777736790560776  0.7222043729174894  0.6244547893951172
  0.6110940497798922  0.2222073997170478  0.6245368460080195
  0.9444726324345780  0.2222507123098391  0.6248376690648902
  0.2777686225668108  0.7222291478858126  0.1251919626285151
  0.1111563992005997  0.2222448662669644  0.1252785533447467
  0.4444304167420304  0.2222076518753997  0.1258876566842762
  0.6110940497798922  0.7222199833961729  0.1254631539919812
  0.9444455914614066  0.7222098962643979  0.1252780496763491
  0.7777815026188456  0.2222379048687802  0.1251654167455842
  0.1111094762624981  0.8888621232202292  0.6248021951047805
  0.4444305871954851  0.8888819602644058  0.6248584182778605
  0.2777811823042752  0.3889120367902649  0.6245055247695329
  0.6110956818607106  0.3888662009720411  0.6235348962453544
  0.7777815026188456  0.8888769310833939  0.6248345832544160
  0.9444542846421317  0.3889181165797811  0.6248107403855240
  0.1111186229289401  0.3889222496401608  0.1252203551805602
  0.2777686225668108  0.8888728080143272  0.1251919626285151
  0.6111038340506357  0.8888873401767757  0.1251156856190155
  0.4444096103682412  0.3888714718507848  0.1264869161962988
  0.9444542846421317  0.8888695013956788  0.1251892596144750
  0.7777736790560776  0.3889026394719178  0.1255452106048833
  0.2777721015965113  0.5555773022415913  0.6246260799343962
  0.1111186229289401  0.0555297066221080  0.6247796448194390
  0.6110956818607106  0.5555628142219984  0.6235348962453544
  0.4444278680404806  0.0555305802081251  0.6246876895243666
  0.9444455914614066  0.5555690285303421  0.6247219503236507
  0.1111094762624981  0.5555806863755975  0.1251978048952211
  0.7777938419150907  0.0555635876242132  0.6249032075783022
  0.2777721015965113  0.0555281326882562  0.1253739200656039
  0.4444304167420304  0.5555560981999668  0.1258876566842762
  0.7777619770699931  0.5555476552016645  0.1258050002342398
  0.6111038340506357  0.0555498272071888  0.1251156856190155
  0.4444304167420304  0.5555560981999668  0.6241123433157237
  0.9444726324345780  0.0555552534580747  0.1251623309351100
  0.2777686225668108  0.7222291478858126  0.6248080373714860
  0.1111563992005997  0.2222448662669644  0.6247214466552542
  0.4444304167420304  0.2222076518753997  0.6241123433157237
  0.6110940497798922  0.7222199833961729  0.6245368460080195
  0.9444455914614066  0.7222098962643979  0.6247219503236507
  0.7777815026188456  0.2222379048687802  0.6248345832544160
  0.1111135372298312  0.7222234352815794  0.1251680944971415
  0.4444278680404806  0.7222306211656911  0.1253123104756324
  0.2777811823042752  0.2222024788473388  0.1254944752304669
  0.7777736790560776  0.7222043729174894  0.1255452106048833
  0.6110940497798922  0.2222073997170478  0.1254631539919812
  0.9444726324345780  0.2222507123098391  0.1251623309351100
  0.1111186229289401  0.3889222496401608  0.6247796448194390
  0.2777686225668108  0.8888728080143272  0.6248080373714860
  0.6111038340506357  0.8888873401767757  0.6248843143809844
  0.4444096103682412  0.3888714718507848  0.6235130838037014
  0.9444542846421317  0.8888695013956788  0.6248107403855240
  0.1111094762624981  0.8888621232202292  0.1251978048952211
  0.7777736790560776  0.3889026394719178  0.6244547893951172
  0.4444305871954851  0.8888819602644058  0.1251415817221391
  0.2777811823042752  0.3889120367902649  0.1254944752304669
  0.2777721015965113  0.5555773022415913  0.1253739200656039
  0.6110956818607106  0.3888662009720411  0.1264651037546448
  0.7777815026188456  0.8888769310833939  0.1251654167455842
  0.9444542846421317  0.3889181165797811  0.1251892596144750
  0.1111094762624981  0.5555806863755975  0.6248021951047805
  0.2777721015965113  0.0555281326882562  0.6246260799343962
  0.7777619770699931  0.5555476552016645  0.6241949997657594
  0.6111038340506357  0.0555498272071888  0.6248843143809844
  0.9444726324345780  0.0555552534580747  0.6248376690648902
  0.0570089702543922  0.1120646577388105  0.3750000000000000
  0.5537823884552534  0.6181716983058362  0.3750000000000000
  0.3869393840033004  0.1062578624844870  0.3750000000000000
  0.8846901699180492  0.6090117516256958  0.3750000000000000
  0.7226694605240261  0.1105594211854879  0.3750000000000000
  0.0555569218578861  0.7777821375358831  0.8750000000000000
  0.3889065272533063  0.7777842572920400  0.8750000000000000
  0.2222260012492683  0.2777796672913018  0.8750000000000000
  0.7222329733492371  0.7777877112898178  0.8750000000000000
  0.5555659930764405  0.2777861410305152  0.8750000000000000
  0.8888987690590865  0.2777792400755115  0.8750000000000000
  0.2195305431722673  0.7764319382528007  0.3750000000000000
  0.0570089702543923  0.2782776458489178  0.3750000000000000
  0.3918118166164150  0.2736049343109019  0.3750000000000000
  0.5546609908245491  0.7807942029849722  0.3750000000000000
  0.8870996637699394  0.7773090449194847  0.3750000000000000
  0.7221158817285329  0.2757600489551468  0.3750000000000000
  0.0555609319445694  0.9444525732724185  0.8750000000000000
  0.3889065272533063  0.9444556032946028  0.8750000000000000
  0.2222280320883654  0.4444427878381663  0.8750000000000000
  0.5555621706869377  0.4444477520101331  0.8750000000000000
  0.7222350921785852  0.9444536179460512  0.8750000000000000
  0.8888942995552780  0.4444412145410335  0.8750000000000000
  0.0550604649251647  0.4439792386398452  0.3750000000000000
  0.2200044738781105  0.9425866451949492  0.3750000000000000
  0.5547580575442439  0.9440456954387869  0.3750000000000000
  0.3918118166164150  0.4515402156388488  0.3750000000000000
  0.8894715073925988  0.9454023767421236  0.3750000000000000
  0.7182658669388118  0.4419867911673785  0.3750000000000000
  0.2222323094954093  0.6111094715881428  0.8750000000000000
  0.0555604323170186  0.1111158912822422  0.8750000000000000
  0.5555659930764405  0.6111131853792605  0.8750000000000000
  0.3889044089318425  0.1111256903143273  0.8750000000000000
  0.8888883599609148  0.6111108466471290  0.8750000000000000
  0.0526140388640025  0.6097713025927028  0.3750000000000000
  0.7222350921785852  0.1111148075658692  0.8750000000000000
  0.2233949896612428  0.1115682676606336  0.3750000000000000
  0.3869393840033002  0.6140148548521556  0.3750000000000000
  0.7182658669388118  0.6096124091047682  0.3750000000000000
  0.5546609908245491  0.1072001211729144  0.3750000000000000
  0.3889044089318425  0.6111120519508587  0.8750000000000000
  0.8900479946972299  0.1116906640152857  0.3750000000000000
  0.2222324164736456  0.7777828749034900  0.8750000000000000
  0.0555604323170186  0.2777778743681123  0.8750000000000000
  0.3888976251895473  0.2777851792585506  0.8750000000000000
  0.5555702720303690  0.7777856731695005  0.8750000000000000
  0.8888942995552780  0.7777864183475798  0.8750000000000000
  0.7222329733492371  0.2777785953927542  0.8750000000000000
  0.0526140388640025  0.7761760696046345  0.3750000000000000
  0.3869014246656374  0.7780214032192706  0.3750000000000000
  0.2250778600125674  0.2792055966729520  0.3750000000000000
  0.7221158817285329  0.7796891661067219  0.3750000000000000
  0.5537823884552534  0.2689440234827516  0.3750000000000000
  0.8894715073925988  0.2774024639838096  0.3750000000000000
  0.0555609319445694  0.4444416920054800  0.8750000000000000
  0.2222323094954093  0.9444561712406015  0.8750000000000000
  0.5555708527326926  0.9444520930330105  0.8750000000000000
  0.3888976251895473  0.4444457792643334  0.8750000000000000
  0.8888987690590865  0.9444528623169111  0.8750000000000000
  0.0550604649251647  0.9444145596186478  0.3750000000000000
  0.7222270765295776  0.4444442532280109  0.8750000000000000
  0.3869014246656374  0.9422133547797028  0.3750000000000000
  0.2233949896612428  0.4451600553339445  0.3750000000000000
  0.2200044738781105  0.6107511620164979  0.3750000000000000
  0.7226694605240261  0.9454433726718737  0.3750000000000000
  0.8870996637699394  0.4431239521837894  0.3750000000000000
  0.0555569218578861  0.6111081176553382  0.8750000000000000
  0.2222280320883654  0.1111185775835348  0.8750000000000000
  0.7222270765295776  0.6111161566349018  0.8750000000000000
  0.5555702720303690  0.1111179321942042  0.8750000000000000
  0.8889011755487780  0.1111172544410601  0.8750000000000000
  0.1112873844929191  0.0556128711633039  0.3750000000000000
  0.6130841337393070  0.5725548646187948  0.3750000000000000
  0.4434529512452799  0.0516063551268769  0.3750000000000000
  0.9419546567196823  0.5542101203529904  0.3750000000000000
  0.7790140337666736  0.0561736835500053  0.3750000000000000
  0.1111295338009871  0.7222314335671582  0.8750000000000000
  0.4444570599789630  0.7222735589779031  0.8750000000000000
  0.2777019405027750  0.2221649590936663  0.8750000000000000
  0.7778414642866356  0.7223087772284870  0.8750000000000000
  0.6111557752469812  0.2221717886658909  0.8750000000000000
  0.9444346276981971  0.2222072784411560  0.8750000000000000
  0.2755673465869700  0.7218327988361636  0.3750000000000000
  0.1121299006535163  0.2227316169934223  0.3750000000000000
  0.4430713184691935  0.2138569534079686  0.3750000000000000
  0.6122113574950542  0.7297741086503894  0.3750000000000000
  0.9419546567196823  0.7210778697000266  0.3750000000000000
  0.7789093855687085  0.2209859726485569  0.3750000000000000
  0.1111107026173627  0.8888895210160358  0.8750000000000000
  0.4444613744229912  0.8888973538781589  0.8750000000000000
  0.2777019405027750  0.3888703147424365  0.8750000000000000
  0.6111684206702478  0.3888616815679425  0.8750000000000000
  0.7778173440046179  0.8889550152216720  0.8750000000000000
  0.9444627003710345  0.3888697657835163  0.8750000000000000
  0.1112873844929191  0.3890078466629442  0.3750000000000000
  0.2755673465869700  0.8870678810841350  0.3750000000000000
  0.6116797415153474  0.8911980222571875  0.3750000000000000
  0.9440690977732952  0.8893495557538066  0.3750000000000000
  0.7772715089773555  0.3861834010897214  0.3750000000000000
  0.2777472075077806  0.5555679869471752  0.8750000000000000
  0.1110718617852693  0.0555328489442243  0.8750000000000000
  0.6111684206702478  0.5556400724356348  0.8750000000000000
  0.4444570599789630  0.0555168343343963  0.8750000000000000
  0.9444878680691412  0.5555606576297872  0.8750000000000000
  0.1089105913989553  0.5548706686257743  0.3750000000000000
  0.7778007626009716  0.0555670479671536  0.8750000000000000
  0.2756565388017441  0.0526411730885065  0.3750000000000000
  0.4430713184691935  0.5625476983945608  0.3750000000000000
  0.7748964341475962  0.5541148837404656  0.3750000000000000
  0.6116797415153474  0.0538150525914889  0.3750000000000000
  0.4444312492520229  0.5556012904784990  0.8750000000000000
  0.9455699658970057  0.0564977530262754  0.3750000000000000
  0.2777822227201571  0.7222362569871453  0.8750000000000000
  0.1110446838566837  0.2221890085950064  0.8750000000000000
  0.4444312492520229  0.2221632921068598  0.8750000000000000
  0.6111557752469812  0.7223173199144193  0.8750000000000000
  0.9444878680691412  0.7222605437726882  0.8750000000000000
  0.7778173440046179  0.2221956621162731  0.8750000000000000
  0.1084094138322653  0.7208713735827964  0.3750000000000000
  0.4434529512452799  0.7251799294517387  0.3750000000000000
  0.2780892809348466  0.2221235927004751  0.3750000000000000
  0.7772715089773555  0.7244214412209651  0.3750000000000000
  0.6122113574950542  0.2157705821779938  0.3750000000000000
  0.9455699658970057  0.2224055462040662  0.3750000000000000
  0.1110718617852693  0.3888723461743733  0.8750000000000000
  0.2777822227201571  0.8888792990663400  0.8750000000000000
  0.6111490566072875  0.8889381348014964  0.8750000000000000
  0.4443912782991157  0.3888623058162221  0.8750000000000000
  0.9444627003710345  0.8889262679208464  0.8750000000000000
  0.1089105913989553  0.8873732561065112  0.3750000000000000
  0.7778414642866356  0.3888660203914763  0.8750000000000000
  0.4434494876965386  0.8883914105149332  0.3750000000000000
  0.2780892809348466  0.3892990215677000  0.3750000000000000
  0.2756565388017441  0.5563486990465734  0.3750000000000000
  0.6130841337393070  0.3738626024538413  0.3750000000000000
  0.7789093855687085  0.8912567462534783  0.3750000000000000
  0.9440690977732952  0.3880528753528158  0.3750000000000000
  0.1111107026173627  0.5555545149346547  0.8750000000000000
  0.2777472075077806  0.0555125538939412  0.8750000000000000
  0.7778504429273573  0.5555918881303453  0.8750000000000000
  0.6111490566072875  0.0555442551391191  0.8750000000000000
  0.9444346276981971  0.0555606825903766  0.8750000000000000
  0.0554896492824174  0.1110271274035905  0.1247645086081543
  0.5555651065649104  0.6113653705142069  0.1248804940693028
  0.3887373791774525  0.1107783962502309  0.1248278994097494
  0.8891415815832873  0.6112374574583154  0.1248268985573209
  0.7222444616894258  0.1110714069218346  0.1246966889140722
  0.0556415800201298  0.7777896271885163  0.6252144268542392
  0.3888045484147566  0.7778358545883438  0.6252371783382524
  0.2220318736956841  0.2776826035145105  0.6253186557300213
  0.7223291039077177  0.7779596635316582  0.6252547437013158
  0.5555651065649104  0.2775330693840378  0.6251195059306974
  0.8889424740831164  0.2777924750688850  0.6252524307979114
  0.2221932776673963  0.7777633055003657  0.1247833430002552
  0.0554896492824174  0.2777958552121627  0.1247645086081543
  0.3886249204791081  0.2774316987917823  0.1248178457414243
  0.5555212942822756  0.7779349234765176  0.1247150972761553
  0.8890653162922708  0.7778883924769181  0.1247904362042233
  0.7223291039077177  0.2777027737093952  0.1247452562986840
  0.0555547644048542  0.9443778299327439  0.6252232008776526
  0.3888045484147566  0.9443020271597479  0.6252371783382524
  0.2220530739916250  0.4445144781411626  0.6252243867516456
  0.5556939008554280  0.4445136170943783  0.6250303816609790
  0.7222444616894258  0.9445063881009271  0.6253033110859282
  0.8890653162922708  0.4445102571486885  0.6252095637957765
  0.0555547644048542  0.4445102678054394  0.1247767991223481
  0.2221448060729276  0.9442700445771669  0.1248083610366627
  0.5555151205713492  0.9444242269523393  0.1246895253162204
  0.3886249204791081  0.4445265550206620  0.1248178457414243
  0.8889424740831164  0.9444833323475668  0.1247475692020880
  0.7225022693933210  0.4445093600939354  0.1249862507059539
  0.2221448060729276  0.6112080948290970  0.6251916389633362
  0.0554896492824174  0.1110271274035905  0.6252354913918462
  0.5555651065649104  0.6113653705142069  0.6251195059306974
  0.3887373791774525  0.1107783962502309  0.6251721005902503
  0.8891415815832873  0.6112374574583154  0.6251731014426787
  0.0556415800201298  0.6111852861649495  0.1247855731457605
  0.7222444616894258  0.1110714069218346  0.6253033110859282
  0.2220530739916250  0.1108719291837978  0.1247756132483543
  0.3887373791774525  0.6112923162605641  0.1248278994097494
  0.7225022693933210  0.6113262426327206  0.1249862507059539
  0.5555212942822756  0.1109197041390944  0.1247150972761553
  0.3887373791774525  0.6112923162605641  0.6251721005902503
  0.8888966036513266  0.1111149684923350  0.1247534102233395
  0.2221932776673963  0.7777633055003657  0.6252166569997453
  0.0554896492824174  0.2777958552121627  0.6252354913918462
  0.3886249204791081  0.2774316987917823  0.6251821542585745
  0.5555212942822756  0.7779349234765176  0.6252849027238440
  0.8890653162922708  0.7778883924769181  0.6252095637957765
  0.7223291039077177  0.2777027737093952  0.6252547437013158
  0.0556415800201298  0.7777896271885163  0.1247855731457605
  0.3888045484147566  0.7778358545883438  0.1247628216617464
  0.2220318736956841  0.2776826035145105  0.1246813442699790
  0.7223291039077177  0.7779596635316582  0.1247452562986840
  0.5555651065649104  0.2775330693840378  0.1248804940693028
  0.8889424740831164  0.2777924750688850  0.1247475692020880
  0.0555547644048542  0.4445102678054394  0.6252232008776526
  0.2221448060729276  0.9442700445771669  0.6251916389633362
  0.5555151205713492  0.9444242269523393  0.6253104746837793
  0.3886249204791081  0.4445265550206620  0.6251821542585745
  0.8889424740831164  0.9444833323475668  0.6252524307979114
  0.0555547644048542  0.9443778299327439  0.1247767991223481
  0.7225022693933210  0.4445093600939354  0.6250137492940461
  0.3888045484147566  0.9443020271597479  0.1247628216617464
  0.2220530739916250  0.4445144781411626  0.1247756132483543
  0.2221448060729276  0.6112080948290970  0.1248083610366627
  0.5556939008554280  0.4445136170943783  0.1249696183390211
  0.7222444616894258  0.9445063881009271  0.1246966889140722
  0.8890653162922708  0.4445102571486885  0.1247904362042233
  0.0556415800201298  0.6111852861649495  0.6252144268542392
  0.2220530739916250  0.1108719291837978  0.6252243867516456
  0.7225022693933210  0.6113262426327206  0.6250137492940461
  0.5555212942822756  0.1109197041390944  0.6252849027238440
  0.8888966036513266  0.1111149684923350  0.6252465897766617
 
  0.00000000E+00  0.00000000E+00  0.00000000E+00
  0.00000000E+00  0.00000000E+00  0.00000000E+00
  0.00000000E+00  0.00000000E+00  0.00000000E+00
  0.00000000E+00  0.00000000E+00  0.00000000E+00
  0.00000000E+00  0.00000000E+00  0.00000000E+00
  0.00000000E+00  0.00000000E+00  0.00000000E+00
  0.00000000E+00  0.00000000E+00  0.00000000E+00
  0.00000000E+00  0.00000000E+00  0.00000000E+00
  0.00000000E+00  0.00000000E+00  0.00000000E+00
  0.00000000E+00  0.00000000E+00  0.00000000E+00
  0.00000000E+00  0.00000000E+00  0.00000000E+00
  0.00000000E+00  0.00000000E+00  0.00000000E+00
  0.00000000E+00  0.00000000E+00  0.00000000E+00
  0.00000000E+00  0.00000000E+00  0.00000000E+00
  0.00000000E+00  0.00000000E+00  0.00000000E+00
  0.00000000E+00  0.00000000E+00  0.00000000E+00
  0.00000000E+00  0.00000000E+00  0.00000000E+00
  0.00000000E+00  0.00000000E+00  0.00000000E+00
  0.00000000E+00  0.00000000E+00  0.00000000E+00
  0.00000000E+00  0.00000000E+00  0.00000000E+00
  0.00000000E+00  0.00000000E+00  0.00000000E+00
  0.00000000E+00  0.00000000E+00  0.00000000E+00
  0.00000000E+00  0.00000000E+00  0.00000000E+00
  0.00000000E+00  0.00000000E+00  0.00000000E+00
  0.00000000E+00  0.00000000E+00  0.00000000E+00
  0.00000000E+00  0.00000000E+00  0.00000000E+00
  0.00000000E+00  0.00000000E+00  0.00000000E+00
  0.00000000E+00  0.00000000E+00  0.00000000E+00
  0.00000000E+00  0.00000000E+00  0.00000000E+00
  0.00000000E+00  0.00000000E+00  0.00000000E+00
  0.00000000E+00  0.00000000E+00  0.00000000E+00
  0.00000000E+00  0.00000000E+00  0.00000000E+00
  0.00000000E+00  0.00000000E+00  0.00000000E+00
  0.00000000E+00  0.00000000E+00  0.00000000E+00
  0.00000000E+00  0.00000000E+00  0.00000000E+00
  0.00000000E+00  0.00000000E+00  0.00000000E+00
  0.00000000E+00  0.00000000E+00  0.00000000E+00
  0.00000000E+00  0.00000000E+00  0.00000000E+00
  0.00000000E+00  0.00000000E+00  0.00000000E+00
  0.00000000E+00  0.00000000E+00  0.00000000E+00
  0.00000000E+00  0.00000000E+00  0.00000000E+00
  0.00000000E+00  0.00000000E+00  0.00000000E+00
  0.00000000E+00  0.00000000E+00  0.00000000E+00
  0.00000000E+00  0.00000000E+00  0.00000000E+00
  0.00000000E+00  0.00000000E+00  0.00000000E+00
  0.00000000E+00  0.00000000E+00  0.00000000E+00
  0.00000000E+00  0.00000000E+00  0.00000000E+00
  0.00000000E+00  0.00000000E+00  0.00000000E+00
  0.00000000E+00  0.00000000E+00  0.00000000E+00
  0.00000000E+00  0.00000000E+00  0.00000000E+00
  0.00000000E+00  0.00000000E+00  0.00000000E+00
  0.00000000E+00  0.00000000E+00  0.00000000E+00
  0.00000000E+00  0.00000000E+00  0.00000000E+00
  0.00000000E+00  0.00000000E+00  0.00000000E+00
  0.00000000E+00  0.00000000E+00  0.00000000E+00
  0.00000000E+00  0.00000000E+00  0.00000000E+00
  0.00000000E+00  0.00000000E+00  0.00000000E+00
  0.00000000E+00  0.00000000E+00  0.00000000E+00
  0.00000000E+00  0.00000000E+00  0.00000000E+00
  0.00000000E+00  0.00000000E+00  0.00000000E+00
  0.00000000E+00  0.00000000E+00  0.00000000E+00
  0.00000000E+00  0.00000000E+00  0.00000000E+00
  0.00000000E+00  0.00000000E+00  0.00000000E+00
  0.00000000E+00  0.00000000E+00  0.00000000E+00
  0.00000000E+00  0.00000000E+00  0.00000000E+00
  0.00000000E+00  0.00000000E+00  0.00000000E+00
  0.00000000E+00  0.00000000E+00  0.00000000E+00
  0.00000000E+00  0.00000000E+00  0.00000000E+00
  0.00000000E+00  0.00000000E+00  0.00000000E+00
  0.00000000E+00  0.00000000E+00  0.00000000E+00
  0.00000000E+00  0.00000000E+00  0.00000000E+00
  0.00000000E+00  0.00000000E+00  0.00000000E+00
  0.00000000E+00  0.00000000E+00  0.00000000E+00
  0.00000000E+00  0.00000000E+00  0.00000000E+00
  0.00000000E+00  0.00000000E+00  0.00000000E+00
  0.00000000E+00  0.00000000E+00  0.00000000E+00
  0.00000000E+00  0.00000000E+00  0.00000000E+00
  0.00000000E+00  0.00000000E+00  0.00000000E+00
  0.00000000E+00  0.00000000E+00  0.00000000E+00
  0.00000000E+00  0.00000000E+00  0.00000000E+00
  0.00000000E+00  0.00000000E+00  0.00000000E+00
  0.00000000E+00  0.00000000E+00  0.00000000E+00
  0.00000000E+00  0.00000000E+00  0.00000000E+00
  0.00000000E+00  0.00000000E+00  0.00000000E+00
  0.00000000E+00  0.00000000E+00  0.00000000E+00
  0.00000000E+00  0.00000000E+00  0.00000000E+00
  0.00000000E+00  0.00000000E+00  0.00000000E+00
  0.00000000E+00  0.00000000E+00  0.00000000E+00
  0.00000000E+00  0.00000000E+00  0.00000000E+00
  0.00000000E+00  0.00000000E+00  0.00000000E+00
  0.00000000E+00  0.00000000E+00  0.00000000E+00
  0.00000000E+00  0.00000000E+00  0.00000000E+00
  0.00000000E+00  0.00000000E+00  0.00000000E+00
  0.00000000E+00  0.00000000E+00  0.00000000E+00
  0.00000000E+00  0.00000000E+00  0.00000000E+00
  0.00000000E+00  0.00000000E+00  0.00000000E+00
  0.00000000E+00  0.00000000E+00  0.00000000E+00
  0.00000000E+00  0.00000000E+00  0.00000000E+00
  0.00000000E+00  0.00000000E+00  0.00000000E+00
  0.00000000E+00  0.00000000E+00  0.00000000E+00
  0.00000000E+00  0.00000000E+00  0.00000000E+00
  0.00000000E+00  0.00000000E+00  0.00000000E+00
  0.00000000E+00  0.00000000E+00  0.00000000E+00
  0.00000000E+00  0.00000000E+00  0.00000000E+00
  0.00000000E+00  0.00000000E+00  0.00000000E+00
  0.00000000E+00  0.00000000E+00  0.00000000E+00
  0.00000000E+00  0.00000000E+00  0.00000000E+00
  0.00000000E+00  0.00000000E+00  0.00000000E+00
  0.00000000E+00  0.00000000E+00  0.00000000E+00
  0.00000000E+00  0.00000000E+00  0.00000000E+00
  0.00000000E+00  0.00000000E+00  0.00000000E+00
  0.00000000E+00  0.00000000E+00  0.00000000E+00
  0.00000000E+00  0.00000000E+00  0.00000000E+00
  0.00000000E+00  0.00000000E+00  0.00000000E+00
  0.00000000E+00  0.00000000E+00  0.00000000E+00
  0.00000000E+00  0.00000000E+00  0.00000000E+00
  0.00000000E+00  0.00000000E+00  0.00000000E+00
  0.00000000E+00  0.00000000E+00  0.00000000E+00
  0.00000000E+00  0.00000000E+00  0.00000000E+00
  0.00000000E+00  0.00000000E+00  0.00000000E+00
  0.00000000E+00  0.00000000E+00  0.00000000E+00
  0.00000000E+00  0.00000000E+00  0.00000000E+00
  0.00000000E+00  0.00000000E+00  0.00000000E+00
  0.00000000E+00  0.00000000E+00  0.00000000E+00
  0.00000000E+00  0.00000000E+00  0.00000000E+00
  0.00000000E+00  0.00000000E+00  0.00000000E+00
  0.00000000E+00  0.00000000E+00  0.00000000E+00
  0.00000000E+00  0.00000000E+00  0.00000000E+00
  0.00000000E+00  0.00000000E+00  0.00000000E+00
  0.00000000E+00  0.00000000E+00  0.00000000E+00
  0.00000000E+00  0.00000000E+00  0.00000000E+00
  0.00000000E+00  0.00000000E+00  0.00000000E+00
  0.00000000E+00  0.00000000E+00  0.00000000E+00
  0.00000000E+00  0.00000000E+00  0.00000000E+00
  0.00000000E+00  0.00000000E+00  0.00000000E+00
  0.00000000E+00  0.00000000E+00  0.00000000E+00
  0.00000000E+00  0.00000000E+00  0.00000000E+00
  0.00000000E+00  0.00000000E+00  0.00000000E+00
  0.00000000E+00  0.00000000E+00  0.00000000E+00
  0.00000000E+00  0.00000000E+00  0.00000000E+00
  0.00000000E+00  0.00000000E+00  0.00000000E+00
  0.00000000E+00  0.00000000E+00  0.00000000E+00
  0.00000000E+00  0.00000000E+00  0.00000000E+00
  0.00000000E+00  0.00000000E+00  0.00000000E+00
  0.00000000E+00  0.00000000E+00  0.00000000E+00
  0.00000000E+00  0.00000000E+00  0.00000000E+00
  0.00000000E+00  0.00000000E+00  0.00000000E+00
  0.00000000E+00  0.00000000E+00  0.00000000E+00
  0.00000000E+00  0.00000000E+00  0.00000000E+00
  0.00000000E+00  0.00000000E+00  0.00000000E+00
  0.00000000E+00  0.00000000E+00  0.00000000E+00
  0.00000000E+00  0.00000000E+00  0.00000000E+00
  0.00000000E+00  0.00000000E+00  0.00000000E+00
  0.00000000E+00  0.00000000E+00  0.00000000E+00
  0.00000000E+00  0.00000000E+00  0.00000000E+00
  0.00000000E+00  0.00000000E+00  0.00000000E+00
  0.00000000E+00  0.00000000E+00  0.00000000E+00
  0.00000000E+00  0.00000000E+00  0.00000000E+00
  0.00000000E+00  0.00000000E+00  0.00000000E+00
  0.00000000E+00  0.00000000E+00  0.00000000E+00
  0.00000000E+00  0.00000000E+00  0.00000000E+00
  0.00000000E+00  0.00000000E+00  0.00000000E+00
  0.00000000E+00  0.00000000E+00  0.00000000E+00
  0.00000000E+00  0.00000000E+00  0.00000000E+00
  0.00000000E+00  0.00000000E+00  0.00000000E+00
  0.00000000E+00  0.00000000E+00  0.00000000E+00
  0.00000000E+00  0.00000000E+00  0.00000000E+00
  0.00000000E+00  0.00000000E+00  0.00000000E+00
  0.00000000E+00  0.00000000E+00  0.00000000E+00
  0.00000000E+00  0.00000000E+00  0.00000000E+00
  0.00000000E+00  0.00000000E+00  0.00000000E+00
  0.00000000E+00  0.00000000E+00  0.00000000E+00
  0.00000000E+00  0.00000000E+00  0.00000000E+00
  0.00000000E+00  0.00000000E+00  0.00000000E+00
  0.00000000E+00  0.00000000E+00  0.00000000E+00
  0.00000000E+00  0.00000000E+00  0.00000000E+00
  0.00000000E+00  0.00000000E+00  0.00000000E+00
  0.00000000E+00  0.00000000E+00  0.00000000E+00
  0.00000000E+00  0.00000000E+00  0.00000000E+00
  0.00000000E+00  0.00000000E+00  0.00000000E+00
  0.00000000E+00  0.00000000E+00  0.00000000E+00
  0.00000000E+00  0.00000000E+00  0.00000000E+00
  0.00000000E+00  0.00000000E+00  0.00000000E+00
  0.00000000E+00  0.00000000E+00  0.00000000E+00
  0.00000000E+00  0.00000000E+00  0.00000000E+00
  0.00000000E+00  0.00000000E+00  0.00000000E+00
  0.00000000E+00  0.00000000E+00  0.00000000E+00
  0.00000000E+00  0.00000000E+00  0.00000000E+00
  0.00000000E+00  0.00000000E+00  0.00000000E+00
  0.00000000E+00  0.00000000E+00  0.00000000E+00
  0.00000000E+00  0.00000000E+00  0.00000000E+00
  0.00000000E+00  0.00000000E+00  0.00000000E+00
  0.00000000E+00  0.00000000E+00  0.00000000E+00
  0.00000000E+00  0.00000000E+00  0.00000000E+00
  0.00000000E+00  0.00000000E+00  0.00000000E+00
  0.00000000E+00  0.00000000E+00  0.00000000E+00
  0.00000000E+00  0.00000000E+00  0.00000000E+00
  0.00000000E+00  0.00000000E+00  0.00000000E+00
  0.00000000E+00  0.00000000E+00  0.00000000E+00
  0.00000000E+00  0.00000000E+00  0.00000000E+00
  0.00000000E+00  0.00000000E+00  0.00000000E+00
  0.00000000E+00  0.00000000E+00  0.00000000E+00
  0.00000000E+00  0.00000000E+00  0.00000000E+00
  0.00000000E+00  0.00000000E+00  0.00000000E+00
  0.00000000E+00  0.00000000E+00  0.00000000E+00
  0.00000000E+00  0.00000000E+00  0.00000000E+00
  0.00000000E+00  0.00000000E+00  0.00000000E+00
  0.00000000E+00  0.00000000E+00  0.00000000E+00
  0.00000000E+00  0.00000000E+00  0.00000000E+00
  0.00000000E+00  0.00000000E+00  0.00000000E+00
  0.00000000E+00  0.00000000E+00  0.00000000E+00
  0.00000000E+00  0.00000000E+00  0.00000000E+00
  0.00000000E+00  0.00000000E+00  0.00000000E+00
  0.00000000E+00  0.00000000E+00  0.00000000E+00
  0.00000000E+00  0.00000000E+00  0.00000000E+00
  0.00000000E+00  0.00000000E+00  0.00000000E+00
  0.00000000E+00  0.00000000E+00  0.00000000E+00
  0.00000000E+00  0.00000000E+00  0.00000000E+00
  0.00000000E+00  0.00000000E+00  0.00000000E+00
  0.00000000E+00  0.00000000E+00  0.00000000E+00
  0.00000000E+00  0.00000000E+00  0.00000000E+00
  0.00000000E+00  0.00000000E+00  0.00000000E+00
  0.00000000E+00  0.00000000E+00  0.00000000E+00
  0.00000000E+00  0.00000000E+00  0.00000000E+00
  0.00000000E+00  0.00000000E+00  0.00000000E+00
  0.00000000E+00  0.00000000E+00  0.00000000E+00
  0.00000000E+00  0.00000000E+00  0.00000000E+00
  0.00000000E+00  0.00000000E+00  0.00000000E+00
  0.00000000E+00  0.00000000E+00  0.00000000E+00
  0.00000000E+00  0.00000000E+00  0.00000000E+00
  0.00000000E+00  0.00000000E+00  0.00000000E+00
  0.00000000E+00  0.00000000E+00  0.00000000E+00
  0.00000000E+00  0.00000000E+00  0.00000000E+00
  0.00000000E+00  0.00000000E+00  0.00000000E+00
  0.00000000E+00  0.00000000E+00  0.00000000E+00
  0.00000000E+00  0.00000000E+00  0.00000000E+00
  0.00000000E+00  0.00000000E+00  0.00000000E+00
  0.00000000E+00  0.00000000E+00  0.00000000E+00
  0.00000000E+00  0.00000000E+00  0.00000000E+00
  0.00000000E+00  0.00000000E+00  0.00000000E+00
  0.00000000E+00  0.00000000E+00  0.00000000E+00
  0.00000000E+00  0.00000000E+00  0.00000000E+00
  0.00000000E+00  0.00000000E+00  0.00000000E+00
  0.00000000E+00  0.00000000E+00  0.00000000E+00
  0.00000000E+00  0.00000000E+00  0.00000000E+00
  0.00000000E+00  0.00000000E+00  0.00000000E+00
  0.00000000E+00  0.00000000E+00  0.00000000E+00
  0.00000000E+00  0.00000000E+00  0.00000000E+00