 Se N B 
 1.0
 14.936314146199660   0.000000000000000   0.000000000000000
 -7.468157073099825  12.935227489513863   0.000000000000000
  0.000000000000001   0.000000000000001  13.341276283792837
 Se N B 
   1 144 143
Cartesian
  3.734078536549917   5.030366245922021   5.002978606422314 
  1.244738176387517   0.718531973714824   1.671149060858543 
  4.978639954178760   7.186147426336487   1.668558179560336 
  6.223418896712328   0.718531973714824   1.671149060858543 
  9.957598721354877   7.186323961720113   1.669444408616567 
 11.202235609649751   0.718623749417456   1.668527849076952 
 -3.734078536549858   9.342108742426664   8.337015447568657 
  1.244590699991300   9.342115372592238   8.334808151986099 
  2.489397978125084   2.874653851478295   8.337399033284266 
  6.223566373108583   9.342115372592238   8.334808151986099 
  7.468185037237440   2.874478852567378   8.334853139926802 
 12.446897137606616   2.874565734040927   8.337100909239121 
 -1.244795707218716   9.342113969029418   1.669444408616567 
 -0.000027964137532   2.874478852567377   1.671104072917825 
  4.978759094974748   2.874653851478294   1.668558179560336 
  3.734078536549941   9.342141032631398   1.671104072917825 
  8.712952780318552   9.342113969029418   1.669444408616567 
  9.957574081692879   2.874565734040926   1.668856303605519 
 -4.978724477586159  11.497888296530471   8.336512804228034 
 -0.000103745379049  11.497920093256472   8.337071365889265 
  1.244836560496265   5.030297459951372   8.337399033284266 
  6.223320512603645   5.030297459951372   8.337399033284266 
  4.978848300340896  11.497971744295677   8.337100909239121 
 11.202235609649717   5.030486040767035   8.337071365889265 
 -1.244749660171071   5.030451391459052   1.671149060858543 
 -2.489432595513525  11.497888296530471   1.669444408616567 
  2.489308772759094  11.497971744295677   1.668856303605519 
  3.734078536549917   5.030366245922020   1.631115898688085 
  7.468260818478814  11.497920093256472   1.668885846955363 
  8.712906733271023   5.030451391459052   1.671149060858543 
 -0.000044975166725   7.186263460599002   8.334000243169589 
  1.244738176387518   0.718531973714824   8.334808151986099 
  4.978639954178761   7.186147426336488   8.337399033284266 
  6.223418896712329   0.718531973714824   8.334808151986099 
  9.957598721354877   7.186323961720114   8.336512804228034 
 -2.489441648255027   7.186323961720113   1.669444408616567 
 11.202235609649751   0.718623749417456   8.337429363767676 
  3.734078536549930   0.718571816568189   1.671956969675038 
  2.489517118921046   7.186147426336487   1.668558179560336 
  7.468202048266577   7.186263460599001   1.671956969675038 
  8.712804317901977   0.718561259429563   1.668856303605519 
  2.489517118921046   7.186147426336488   8.337399033284266 
 13.691666901397515   0.718561259429563   1.668856303605519 
 -1.244795707218716   9.342113969029418   8.336512804228034 
 -0.000027964137532   2.874478852567378   8.334853139926802 
  4.978759094974749   2.874653851478295   8.337399033284266 
  3.734078536549941   9.342141032631398   8.334853139926802 
  8.712952780318552   9.342113969029418   8.336512804228034 
  9.957574081692879   2.874565734040927   8.337100909239121 
 -3.734078536549859   9.342108742426664   1.668941765275958 
  1.244590699991299   9.342115372592238   1.671149060858543 
  2.489397978125083   2.874653851478294   1.668558179560336 
  6.223566373108582   9.342115372592238   1.671149060858543 
  7.468185037237439   2.874478852567377   1.671104072917825 
 12.446897137606616   2.874565734040926   1.668856303605519 
 -1.244749660171070   5.030451391459053   8.334808151986099 
 -2.489432595513525  11.497888296530471   8.336512804228034 
  2.489308772759095  11.497971744295677   8.337100909239121 
  3.734078536549917   5.030366245922021   8.374841314156516 
  7.468260818478815  11.497920093256472   8.337071365889265 
 -4.978724477586160  11.497888296530471   1.669444408616567 
  8.712906733271023   5.030451391459053   8.334808151986099 
 -0.000103745379049  11.497920093256472   1.668885846955363 
  1.244836560496265   5.030297459951371   1.668558179560336 
 -0.000044975166726   7.186263460599001   1.671956969675038 
  6.223320512603644   5.030297459951371   1.668558179560336 
  4.978848300340895  11.497971744295677   1.668856303605519 
 11.202235609649717   5.030486040767034   1.668885846955363 
 -2.489441648255026   7.186323961720114   8.336512804228034 
  3.734078536549931   0.718571816568190   8.334000243169589 
  7.468202048266578   7.186263460599002   8.334000243169589 
  8.712804317901977   0.718561259429563   8.337100909239121 
 13.691666901397515   0.718561259429563   8.337100909239121 
 -0.009481387637402   1.429009650082639   5.002978606422314 
  3.734078536549948   7.917005751533797   5.002978606422314 
  5.003194969460672   1.364059511357012   5.002978606422314 
  8.735237588916993   7.917786771066373   5.002978606422314 
  9.961413134726868   1.435012939330708   5.002978606422314 
 -4.978810379062511  10.060755006770249  11.673616748318732 
  0.000055683277198  10.060757849286567  11.673616748318732 
  1.244677639228694   3.593109967732751  11.673616748318732 
  4.978752509146764  10.060757464177733  11.673616748318732 
  6.223479433871142   3.593109967732751  11.673616748318732 
 11.202235609649739   3.593105881536505  11.673616748318732 
 -2.493415509821660  10.058405874881887   5.002978606422314 
 -1.256567725627327   3.589026548906217   5.002978606422314 
  3.734078536549871   3.306981651446393   5.002978606422314 
  2.486992198560018  10.073062538777375   5.002978606422314 
  7.481625415758596  10.076820278587260   5.002978606422314 
  8.724724798727191   3.589026548906217   5.002978606422314 
 -6.223514029411091  12.216639284507892  11.673616748318732 
 -1.244643043688743  12.216639284507892  11.673616748318732 
  0.000012147750922   5.748951886616845  11.673616748318732 
  4.978855485262888   5.749038552342492  11.673616748318732 
  3.734078536549906  12.216611902350673  11.673616748318732 
  9.957536882683732   5.748929093485600  11.673616748318732 
 -2.510052294372864   5.752610028857320   5.002978606422314 
 -3.734078536549887  12.190752685147272   5.002978606422314 
  1.247747547534980  12.218367373128968   5.002978606422314 
  2.241583697243222   5.892058543159875   5.002978606422314 
  6.220409525564845  12.218367373128968   5.002978606422314 
  7.543751523204664   5.764432541943516   5.002978606422314 
 -1.244651298184573   7.904837256228462  11.673616748318732 
 -0.000031063135179   1.437251357096088  11.673616748318732 
  3.734078536549890   7.904878802300743  11.673616748318732 
  4.978798311312917   1.437277073457130  11.673616748318732 
  8.712808371284321   7.904837256228462  11.673616748318732 
 -3.734078536549919   7.909514477516348   5.002978606422314 
  9.957549832852592   1.437243417707800  11.673616748318732 
  2.464962103639041   1.364059511357012   5.002978606422314 
  1.193521982805928   7.962606684465745   5.002978606422314 
  6.274635090293789   7.962606684465745   5.002978606422314 
  7.477638460737250   1.429009650082639   5.002978606422314 
  1.244731922513931   7.904869777692260  11.673616748318732 
 12.443058084572472   1.435012939330708   5.002978606422314 
 -2.489346694037309  10.060755006770249  11.673616748318732 
 -1.244705035732021   3.593089916492427  11.673616748318732 
  3.734078536549857   3.593021633081158  11.673616748318732 
  2.489404563953077  10.060757464177733  11.673616748318732 
  7.468101389822492  10.060757849286567  11.673616748318732 
  8.712862108831855   3.593089916492427  11.673616748318732 
 -4.974741563278177  10.058405874881887   5.002978606422314 
 -0.013468342658861  10.076820278587260   5.002978606422314 
  1.234175393122435   3.587046493116225   5.002978606422314 
  4.981164874539882  10.073062538777375   5.002978606422314 
  6.233981679977428   3.587046493116225   5.002978606422314 
 11.202235609649669   3.589591481022091   5.002978606422314 
 -2.489379809583911   5.748929093485600  11.673616748318732 
 -3.734078536549924  12.216651714823159  11.673616748318732 
  1.244703987410466  12.216610172871720  11.673616748318732 
  2.489301587836946   5.749038552342492  11.673616748318732 
  6.223453085689496  12.216610172871720  11.673616748318732 
 -6.230662488263963  12.196895919835438   5.002978606422314 
  7.468144925348899   5.748951886616845  11.673616748318732 
 -1.237494584835858  12.196895919835438   5.002978606422314 
 -0.075594450104830   5.764432541943516   5.002978606422314 
 -1.267080515817202   7.917786771066373   5.002978606422314 
  5.226573375856612   5.892058543159875   5.002978606422314 
  3.734078536549891  12.221072859104828   5.002978606422314 
  9.978209367472697   5.752610028857320   5.002978606422314 
 -3.734078536549911   7.904816213739587  11.673616748318732 
  2.489358761786796   1.437277073457130  11.673616748318732 
  6.223425150585786   7.904869777692260  11.673616748318732 
  7.468188136235011   1.437251357096088  11.673616748318732 
 12.446921386446748   1.437243417707800  11.673616748318732 
  1.215591464346500   0.678296990362519   5.002978606422314 
  5.039988683104377   7.299543974083263   5.002978606422314 
  6.252565608753316   0.678296990362519   5.002978606422314 
  9.970591869619579   7.189583283086905   5.002978606422314 
 11.202235609649751   0.718623749417456   5.002978606422314 
 -3.734078536549858   9.342108742426666  11.673616748318732 
  1.244646988873098   9.342494229903986  11.673616748318732 
  2.489144774683859   2.874182513949739  11.673616748318732 
  6.223510084226742   9.342494229903986  11.673616748318732 
  7.468604828307273   2.874236486080215  11.673616748318732 
 12.446706549316090   2.874303452325895  11.673616748318732 
 -1.254114936453812   9.351736704818403   5.002978606422314 
 -0.023209095673193   2.861095220035135   5.002978606422314 
  5.046289021562116   2.764826019865438   5.002978606422314 
  3.734078536549965   9.368908297695869   5.002978606422314 
  8.722272009553635   9.351736704818403   5.002978606422314 
  9.965635384636215   2.866930962621602   5.002978606422314 
 -4.978861771130055  11.497883633335082  11.673616748318732 
  0.000154970924185  11.498069463183693  11.673616748318732 
  1.244301768502182   5.030313848103197  11.673616748318732 
  6.223855304597773   5.030313848103197  11.673616748318732 
  4.978716451858007  11.498267939454452  11.673616748318732 
 11.202235609649778   5.030187300912465  11.673616748318732 
 -1.294167533895527   5.025327090070907   5.002978606422314 
 -2.485758676483913  11.485006239374709   5.002978606422314 
  2.491890027288581  11.508770423141909   5.002978606422314 
  7.463246006852354  11.500815396098945   5.002978606422314 
  8.762324606995465   5.025327090070907   5.002978606422314 
 -0.000267071595922   7.186391688032193  11.673616748318732 
  1.244381931890252   0.718391292660590  11.673616748318732 
  4.978921542731664   7.186602375713167  11.673616748318732 
  6.223775141209580   0.718391292660590  11.673616748318732 
  9.957671406572482   7.186207393621072  11.673616748318732 
 -2.502434796519756   7.189583283086905   5.002978606422314 
 11.202235609649751   0.718623749417457  11.673616748318732 
  3.734078536549915   0.672018838789806   5.002978606422314 
  2.428168389995446   7.299543974083263   5.002978606422314 
  7.508518109644501   7.209539949488193   5.002978606422314 
  8.723446875374853   0.715397352002642   5.002978606422314 
  2.489235530368203   7.186602375713167  11.673616748318732 
 13.681024343924623   0.715397352002642   5.002978606422314 
 -1.244731098892454   9.342235200323879  11.673616748318732 
 -0.000447755207335   2.874236486080215  11.673616748318732 
  4.979012298415990   2.874182513949739  11.673616748318732 
  3.734078536549957   9.342625765605726  11.673616748318732 
  8.712888171992308   9.342235200323879  11.673616748318732 
  9.957764669983417   2.874303452325895  11.673616748318732 
 -3.734078536549858   9.342108742426664   5.002978606422314 
  1.224319538307817   9.387474657332740   5.002978606422314 
  2.421868051537745   2.764826019865438   5.002978606422314 
  6.243837534791992   9.387474657332740   5.002978606422314 
  7.491366168773131   2.861095220035135   5.002978606422314 
 12.438835834663248   2.866930962621602   5.002978606422314 
 -1.245049615786508   5.030213215201592  11.673616748318732 
 -2.489295301969658  11.497883633335082  11.673616748318732 
  2.489440621241984  11.498267939454452  11.673616748318732 
  3.734078536549918   5.030366245922021  11.673616748318732 
  7.468002102175732  11.498069463183693  11.673616748318732 
 -4.982398396615802  11.485006239374709   5.002978606422314 
  8.713206688886462   5.030213215201592  11.673616748318732 
  0.004911066247472  11.500815396098945   5.002978606422314 
  1.115957904983325   5.026728743817428   5.002978606422314 
 -0.040361036544634   7.209539949488193   5.002978606422314 
  6.352199168116629   5.026728743817428   5.002978606422314 
  4.976267045811318  11.508770423141909   5.002978606422314 
 11.202235609649724   5.024695435082052   5.002978606422314 
 -2.489514333472676   7.186207393621072  11.673616748318732 
  3.734078536549909   0.718315361701872  11.673616748318732 
  7.468424144695745   7.186391688032193  11.673616748318732 
  8.713126754675413   0.718527345985783  11.673616748318732 
 13.691344464624109   0.718527345985783  11.673616748318732 
 -0.000692966586357   1.436375113657409   1.666698228743067 
  3.734078536549939   7.906494335370770   1.662012703408216 
  4.979147700938287   1.435418548732827   1.666341781585396 
  8.713941295260415   7.905491350191049   1.666882130427616 
  9.957817583980507   1.437088831522022   1.666125670856818 
 -4.978456926594407  10.060550940892650   8.339676522472752 
 -0.000707508414744  10.061152373491463   8.339343136360499 
  1.243278546549385   3.592302201197731   8.343944509436412 
  4.979180406498948  10.061768811100629   8.339258984101562 
  6.224878526550493   3.592302201197731   8.343944509436412 
 11.202235609649701   3.593171224851345   8.339864669002315 
 -2.489700146505428  10.060550940892650   1.666280690371888 
 -1.245794836535406   3.592954813008192   1.666698228743067 
  3.734078536549864   3.591973503631569   1.644447396364675 
  2.488976666600878  10.061768811100629   1.666698228743067 
  7.468864581514521  10.061152373491463   1.666614076484128 
  8.713951909635210   3.592954813008192   1.666698228743067 
 -6.223474101548985  12.215781079012185   8.339343136360499 
 -1.244682971550819  12.215781079012185   8.339343136360499 
 -0.001772076686563   5.749578568687618   8.339615431259231 
  4.979763191992682   5.749562617067292   8.361509816479940 
  3.734078536549921  12.216921074722199   8.339831541987811 
  9.958260146513641   5.749392774776329   8.339343136360499 
 -2.490103073413791   5.749392774776328   1.666614076484128 
 -3.734078536549911  12.215343526897982   1.666882130427616 
  1.244647398439781  12.216577501214330   1.666092543842312 
  2.488393881107152   5.749562617067292   1.644447396364675 
  6.223509674660058  12.216577501214330   1.666092543842312 
  7.469929149786383   5.749578568687618   1.666341781585396 
 -1.245784222160685   7.905491350191050   8.339075082416985 
 -0.000692966586357   1.436375113657409   8.339258984101562 
  3.734078536549939   7.906494335370771   8.343944509436412 
  4.979147700938288   1.435418548732828   8.339615431259231 
  8.713941295260415   7.905491350191050   8.339075082416985 
 -3.734078536549911   7.905224345494806   1.666280690371888 
  9.957817583980507   1.437088831522022   8.339831541987811 
  2.489009372161439   1.435418548732827   1.666341781585396 
  1.243297087701824   7.906101620345773   1.666341781585396 
  6.224859985397922   7.906101620345773   1.666341781585396 
  7.468850039686188   1.436375113657409   1.666698228743067 
  1.243297087701824   7.906101620345774   8.339615431259231 
 12.446653635318864   1.437088831522022   1.666125670856818 
 -2.489700146505427  10.060550940892650   8.339676522472752 
 -1.245794836535405   3.592954813008193   8.339258984101562 
  3.734078536549864   3.591973503631570   8.361509816479940 
  2.488976666600878  10.061768811100629   8.339258984101562 
  7.468864581514522  10.061152373491463   8.339343136360499 
  8.713951909635210   3.592954813008193   8.339258984101562 
 -4.978456926594408  10.060550940892650   1.666280690371888 
 -0.000707508414744  10.061152373491463   1.666614076484128 
  1.243278546549385   3.592302201197730   1.662012703408216 
  4.979180406498947  10.061768811100629   1.666698228743067 
  6.224878526550492   3.592302201197730   1.662012703408216 
 11.202235609649701   3.593171224851345   1.666092543842312 
 -2.490103073413791   5.749392774776329   8.339343136360499 
 -3.734078536549910  12.215343526897982   8.339075082416985 
  1.244647398439782  12.216577501214330   8.339864669002315 
  2.488393881107152   5.749562617067292   8.361509816479940 
  6.223509674660058  12.216577501214330   8.339864669002315 
 -6.223474101548986  12.215781079012185   1.666614076484128 
  7.469929149786384   5.749578568687618   8.339615431259231 
 -1.244682971550819  12.215781079012185   1.666614076484128 
 -0.001772076686564   5.749578568687618   1.666341781585396 
 -1.245784222160685   7.905491350191049   1.666882130427616 
  4.979763191992681   5.749562617067292   1.644447396364675 
  3.734078536549920  12.216921074722199   1.666125670856818 
  9.958260146513641   5.749392774776328   1.666614076484128 
 -3.734078536549911   7.905224345494807   8.339676522472752 
  2.489009372161439   1.435418548732828   8.339615431259231 
  6.224859985397923   7.906101620345774   8.339615431259231 
  7.468850039686189   1.436375113657409   8.339258984101562 
 12.446653635318864   1.437088831522022   8.339831541987811 
Generated by cif2cell 2.0.0.  :  Failed to get author information, No journal information. Species order: Se N B 
 1.0
 14.936314146199660   0.000000000000000   0.000000000000000
 -7.468157073099825  12.935227489513863   0.000000000000000
  0.000000000000001   0.000000000000001  13.341276283792837
 Se N B 
   1 144 143
Cartesian
  3.734078536549917   5.030366245922021   5.002978606422314 
  1.244738176387517   0.718531973714824   1.671149060858543 
  4.978639954178760   7.186147426336487   1.668558179560336 
  6.223418896712328   0.718531973714824   1.671149060858543 
  9.957598721354877   7.186323961720113   1.669444408616567 
 11.202235609649751   0.718623749417456   1.668527849076952 
 -3.734078536549858   9.342108742426664   8.337015447568657 
  1.244590699991300   9.342115372592238   8.334808151986099 
  2.489397978125084   2.874653851478295   8.337399033284266 
  6.223566373108583   9.342115372592238   8.334808151986099 
  7.468185037237440   2.874478852567378   8.334853139926802 
 12.446897137606616   2.874565734040927   8.337100909239121 
 -1.244795707218716   9.342113969029418   1.669444408616567 
 -0.000027964137532   2.874478852567377   1.671104072917825 
  4.978759094974748   2.874653851478294   1.668558179560336 
  3.734078536549941   9.342141032631398   1.671104072917825 
  8.712952780318552   9.342113969029418   1.669444408616567 
  9.957574081692879   2.874565734040926   1.668856303605519 
 -4.978724477586159  11.497888296530471   8.336512804228034 
 -0.000103745379049  11.497920093256472   8.337071365889265 
  1.244836560496265   5.030297459951372   8.337399033284266 
  6.223320512603645   5.030297459951372   8.337399033284266 
  4.978848300340896  11.497971744295677   8.337100909239121 
 11.202235609649717   5.030486040767035   8.337071365889265 
 -1.244749660171071   5.030451391459052   1.671149060858543 
 -2.489432595513525  11.497888296530471   1.669444408616567 
  2.489308772759094  11.497971744295677   1.668856303605519 
  3.734078536549917   5.030366245922020   1.631115898688085 
  7.468260818478814  11.497920093256472   1.668885846955363 
  8.712906733271023   5.030451391459052   1.671149060858543 
 -0.000044975166725   7.186263460599002   8.334000243169589 
  1.244738176387518   0.718531973714824   8.334808151986099 
  4.978639954178761   7.186147426336488   8.337399033284266 
  6.223418896712329   0.718531973714824   8.334808151986099 
  9.957598721354877   7.186323961720114   8.336512804228034 
 -2.489441648255027   7.186323961720113   1.669444408616567 
 11.202235609649751   0.718623749417456   8.337429363767676 
  3.734078536549930   0.718571816568189   1.671956969675038 
  2.489517118921046   7.186147426336487   1.668558179560336 
  7.468202048266577   7.186263460599001   1.671956969675038 
  8.712804317901977   0.718561259429563   1.668856303605519 
  2.489517118921046   7.186147426336488   8.337399033284266 
 13.691666901397515   0.718561259429563   1.668856303605519 
 -1.244795707218716   9.342113969029418   8.336512804228034 
 -0.000027964137532   2.874478852567378   8.334853139926802 
  4.978759094974749   2.874653851478295   8.337399033284266 
  3.734078536549941   9.342141032631398   8.334853139926802 
  8.712952780318552   9.342113969029418   8.336512804228034 
  9.957574081692879   2.874565734040927   8.337100909239121 
 -3.734078536549859   9.342108742426664   1.668941765275958 
  1.244590699991299   9.342115372592238   1.671149060858543 
  2.489397978125083   2.874653851478294   1.668558179560336 
  6.223566373108582   9.342115372592238   1.671149060858543 
  7.468185037237439   2.874478852567377   1.671104072917825 
 12.446897137606616   2.874565734040926   1.668856303605519 
 -1.244749660171070   5.030451391459053   8.334808151986099 
 -2.489432595513525  11.497888296530471   8.336512804228034 
  2.489308772759095  11.497971744295677   8.337100909239121 
  3.734078536549917   5.030366245922021   8.374841314156516 
  7.468260818478815  11.497920093256472   8.337071365889265 
 -4.978724477586160  11.497888296530471   1.669444408616567 
  8.712906733271023   5.030451391459053   8.334808151986099 
 -0.000103745379049  11.497920093256472   1.668885846955363 
  1.244836560496265   5.030297459951371   1.668558179560336 
 -0.000044975166726   7.186263460599001   1.671956969675038 
  6.223320512603644   5.030297459951371   1.668558179560336 
  4.978848300340895  11.497971744295677   1.668856303605519 
 11.202235609649717   5.030486040767034   1.668885846955363 
 -2.489441648255026   7.186323961720114   8.336512804228034 
  3.734078536549931   0.718571816568190   8.334000243169589 
  7.468202048266578   7.186263460599002   8.334000243169589 
  8.712804317901977   0.718561259429563   8.337100909239121 
 13.691666901397515   0.718561259429563   8.337100909239121 
 -0.009481387637402   1.429009650082639   5.002978606422314 
  3.734078536549948   7.917005751533797   5.002978606422314 
  5.003194969460672   1.364059511357012   5.002978606422314 
  8.735237588916993   7.917786771066373   5.002978606422314 
  9.961413134726868   1.435012939330708   5.002978606422314 
 -4.978810379062511  10.060755006770249  11.673616748318732 
  0.000055683277198  10.060757849286567  11.673616748318732 
  1.244677639228694   3.593109967732751  11.673616748318732 
  4.978752509146764  10.060757464177733  11.673616748318732 
  6.223479433871142   3.593109967732751  11.673616748318732 
 11.202235609649739   3.593105881536505  11.673616748318732 
 -2.493415509821660  10.058405874881887   5.002978606422314 
 -1.256567725627327   3.589026548906217   5.002978606422314 
  3.734078536549871   3.306981651446393   5.002978606422314 
  2.486992198560018  10.073062538777375   5.002978606422314 
  7.481625415758596  10.076820278587260   5.002978606422314 
  8.724724798727191   3.589026548906217   5.002978606422314 
 -6.223514029411091  12.216639284507892  11.673616748318732 
 -1.244643043688743  12.216639284507892  11.673616748318732 
  0.000012147750922   5.748951886616845  11.673616748318732 
  4.978855485262888   5.749038552342492  11.673616748318732 
  3.734078536549906  12.216611902350673  11.673616748318732 
  9.957536882683732   5.748929093485600  11.673616748318732 
 -2.510052294372864   5.752610028857320   5.002978606422314 
 -3.734078536549887  12.190752685147272   5.002978606422314 
  1.247747547534980  12.218367373128968   5.002978606422314 
  2.241583697243222   5.892058543159875   5.002978606422314 
  6.220409525564845  12.218367373128968   5.002978606422314 
  7.543751523204664   5.764432541943516   5.002978606422314 
 -1.244651298184573   7.904837256228462  11.673616748318732 
 -0.000031063135179   1.437251357096088  11.673616748318732 
  3.734078536549890   7.904878802300743  11.673616748318732 
  4.978798311312917   1.437277073457130  11.673616748318732 
  8.712808371284321   7.904837256228462  11.673616748318732 
 -3.734078536549919   7.909514477516348   5.002978606422314 
  9.957549832852592   1.437243417707800  11.673616748318732 
  2.464962103639041   1.364059511357012   5.002978606422314 
  1.193521982805928   7.962606684465745   5.002978606422314 
  6.274635090293789   7.962606684465745   5.002978606422314 
  7.477638460737250   1.429009650082639   5.002978606422314 
  1.244731922513931   7.904869777692260  11.673616748318732 
 12.443058084572472   1.435012939330708   5.002978606422314 
 -2.489346694037309  10.060755006770249  11.673616748318732 
 -1.244705035732021   3.593089916492427  11.673616748318732 
  3.734078536549857   3.593021633081158  11.673616748318732 
  2.489404563953077  10.060757464177733  11.673616748318732 
  7.468101389822492  10.060757849286567  11.673616748318732 
  8.712862108831855   3.593089916492427  11.673616748318732 
 -4.974741563278177  10.058405874881887   5.002978606422314 
 -0.013468342658861  10.076820278587260   5.002978606422314 
  1.234175393122435   3.587046493116225   5.002978606422314 
  4.981164874539882  10.073062538777375   5.002978606422314 
  6.233981679977428   3.587046493116225   5.002978606422314 
 11.202235609649669   3.589591481022091   5.002978606422314 
 -2.489379809583911   5.748929093485600  11.673616748318732 
 -3.734078536549924  12.216651714823159  11.673616748318732 
  1.244703987410466  12.216610172871720  11.673616748318732 
  2.489301587836946   5.749038552342492  11.673616748318732 
  6.223453085689496  12.216610172871720  11.673616748318732 
 -6.230662488263963  12.196895919835438   5.002978606422314 
  7.468144925348899   5.748951886616845  11.673616748318732 
 -1.237494584835858  12.196895919835438   5.002978606422314 
 -0.075594450104830   5.764432541943516   5.002978606422314 
 -1.267080515817202   7.917786771066373   5.002978606422314 
  5.226573375856612   5.892058543159875   5.002978606422314 
  3.734078536549891  12.221072859104828   5.002978606422314 
  9.978209367472697   5.752610028857320   5.002978606422314 
 -3.734078536549911   7.904816213739587  11.673616748318732 
  2.489358761786796   1.437277073457130  11.673616748318732 
  6.223425150585786   7.904869777692260  11.673616748318732 
  7.468188136235011   1.437251357096088  11.673616748318732 
 12.446921386446748   1.437243417707800  11.673616748318732 
  1.215591464346500   0.678296990362519   5.002978606422314 
  5.039988683104377   7.299543974083263   5.002978606422314 
  6.252565608753316   0.678296990362519   5.002978606422314 
  9.970591869619579   7.189583283086905   5.002978606422314 
 11.202235609649751   0.718623749417456   5.002978606422314 
 -3.734078536549858   9.342108742426666  11.673616748318732 
  1.244646988873098   9.342494229903986  11.673616748318732 
  2.489144774683859   2.874182513949739  11.673616748318732 
  6.223510084226742   9.342494229903986  11.673616748318732 
  7.468604828307273   2.874236486080215  11.673616748318732 
 12.446706549316090   2.874303452325895  11.673616748318732 
 -1.254114936453812   9.351736704818403   5.002978606422314 
 -0.023209095673193   2.861095220035135   5.002978606422314 
  5.046289021562116   2.764826019865438   5.002978606422314 
  3.734078536549965   9.368908297695869   5.002978606422314 
  8.722272009553635   9.351736704818403   5.002978606422314 
  9.965635384636215   2.866930962621602   5.002978606422314 
 -4.978861771130055  11.497883633335082  11.673616748318732 
  0.000154970924185  11.498069463183693  11.673616748318732 
  1.244301768502182   5.030313848103197  11.673616748318732 
  6.223855304597773   5.030313848103197  11.673616748318732 
  4.978716451858007  11.498267939454452  11.673616748318732 
 11.202235609649778   5.030187300912465  11.673616748318732 
 -1.294167533895527   5.025327090070907   5.002978606422314 
 -2.485758676483913  11.485006239374709   5.002978606422314 
  2.491890027288581  11.508770423141909   5.002978606422314 
  7.463246006852354  11.500815396098945   5.002978606422314 
  8.762324606995465   5.025327090070907   5.002978606422314 
 -0.000267071595922   7.186391688032193  11.673616748318732 
  1.244381931890252   0.718391292660590  11.673616748318732 
  4.978921542731664   7.186602375713167  11.673616748318732 
  6.223775141209580   0.718391292660590  11.673616748318732 
  9.957671406572482   7.186207393621072  11.673616748318732 
 -2.502434796519756   7.189583283086905   5.002978606422314 
 11.202235609649751   0.718623749417457  11.673616748318732 
  3.734078536549915   0.672018838789806   5.002978606422314 
  2.428168389995446   7.299543974083263   5.002978606422314 
  7.508518109644501   7.209539949488193   5.002978606422314 
  8.723446875374853   0.715397352002642   5.002978606422314 
  2.489235530368203   7.186602375713167  11.673616748318732 
 13.681024343924623   0.715397352002642   5.002978606422314 
 -1.244731098892454   9.342235200323879  11.673616748318732 
 -0.000447755207335   2.874236486080215  11.673616748318732 
  4.979012298415990   2.874182513949739  11.673616748318732 
  3.734078536549957   9.342625765605726  11.673616748318732 
  8.712888171992308   9.342235200323879  11.673616748318732 
  9.957764669983417   2.874303452325895  11.673616748318732 
 -3.734078536549858   9.342108742426664   5.002978606422314 
  1.224319538307817   9.387474657332740   5.002978606422314 