Species order: X N B                    
   2.51242800000000     
     5.9449720136058266    0.0000000000000000    0.0000000000000000
    -2.9724860068029120    5.1484967885702053   -0.0000000000000001
     0.0000000000000000    0.0000000000000009    5.3101128803662583
   Se   N    B 
     1   144   143
Direct
  0.4444444444444429  0.3888888888888857  0.3750000000000000
  0.1111105985445133  0.0555484605351788  0.1252615585878150
  0.6110988303987177  0.5555485925672387  0.1250673581797661
  0.4444378619906670  0.0555484605351788  0.1252615585878150
  0.9444515331600104  0.5555622402115322  0.1251337857866444
  0.7777777777777786  0.0555555555555571  0.1250650847478444
  0.1111111111111143  0.7222222222222214  0.6249038900196208
  0.4444378619906670  0.7222227347888209  0.6247384414121862
  0.2777847407660967  0.2222345029346165  0.6249326418202317
  0.7777848727981567  0.7222227347888209  0.6247384414121862
  0.6111123592609713  0.2222209740723627  0.6247418134989152
  0.9444450819580293  0.2222276907283797  0.6249102958288288
  0.2777710931218038  0.7222226262818140  0.1251337857866444
  0.1111086148113971  0.2222209740723627  0.1252581865010849
  0.4444497621685185  0.2222345029346165  0.1250673581797661
  0.6111123592609713  0.7222247185219391  0.1252581865010849
  0.9444515331600104  0.7222226262818140  0.1251337857866444
  0.7777826087703505  0.2222276907283797  0.1250897041711724
  0.1111107070515230  0.8888818001733182  0.6248662142133544
  0.4444351833127685  0.8888842583230508  0.6249080813967743
  0.2777847407660967  0.3888835711648101  0.6249326418202317
  0.6110988303987177  0.3888835711648101  0.6249326418202316
  0.7777826087703505  0.8888882513752993  0.6249102958288288
  0.9444490750102777  0.3888981500205601  0.6249080813967743
  0.1111105985445133  0.3888954713426616  0.1252615585878150
  0.2777710931218038  0.8888818001733182  0.1251337857866444
  0.6111056426049576  0.8888882513752993  0.1250897041711724
  0.4444444444444429  0.3888888888888857  0.1222608590056402
  0.9444490750102777  0.8888842583230508  0.1250919186032256
  0.7777848727981567  0.3888954713426616  0.1252615585878150
  0.2777757703585316  0.5555575629748034  0.6246778843260929
  0.1111105985445133  0.0555484605351788  0.6247384414121862
  0.6110988303987177  0.5555485925672387  0.6249326418202317
  0.4444378619906670  0.0555484605351788  0.6247384414121862
  0.9444515331600104  0.5555622402115322  0.6248662142133544
  0.1111107070515230  0.5555622402115322  0.1251337857866444
  0.7777777777777786  0.0555555555555571  0.6249349152521565
  0.2777757703585316  0.0555515407170624  0.1253221156739075
  0.4444497621685185  0.5555485925672387  0.1250673581797661
  0.7777817926162724  0.5555575629748034  0.1253221156739075
  0.6111056426049576  0.0555507245629866  0.1250897041711724
  0.4444497621685185  0.5555485925672387  0.6249326418202317
  0.9444450819580293  0.0555507245629866  0.1250897041711724
  0.2777710931218038  0.7222226262818140  0.6248662142133544
  0.1111086148113971  0.2222209740723627  0.6247418134989152
  0.4444497621685185  0.2222345029346165  0.6249326418202317
  0.6111123592609713  0.7222247185219391  0.6247418134989152
  0.9444515331600104  0.7222226262818140  0.6248662142133544
  0.7777826087703505  0.2222276907283797  0.6249102958288288
  0.1111111111111143  0.7222222222222214  0.1250961099803775
  0.4444378619906670  0.7222227347888209  0.1252615585878150
  0.2777847407660967  0.2222345029346165  0.1250673581797661
  0.7777848727981567  0.7222227347888209  0.1252615585878150
  0.6111123592609713  0.2222209740723627  0.1252581865010849
  0.9444450819580293  0.2222276907283797  0.1250897041711724
  0.1111105985445133  0.3888954713426616  0.6247384414121862
  0.2777710931218038  0.8888818001733182  0.6248662142133544
  0.6111056426049576  0.8888882513752993  0.6249102958288288
  0.4444444444444429  0.3888888888888857  0.6277391409943580
  0.9444490750102777  0.8888842583230508  0.6249080813967743
  0.1111107070515230  0.8888818001733182  0.1251337857866444
  0.7777848727981567  0.3888954713426616  0.6247384414121862
  0.4444351833127685  0.8888842583230508  0.1250919186032256
  0.2777847407660967  0.3888835711648101  0.1250673581797661
  0.2777757703585316  0.5555575629748034  0.1253221156739075
  0.6110988303987177  0.3888835711648101  0.1250673581797661
  0.7777826087703505  0.8888882513752993  0.1250897041711724
  0.9444490750102777  0.3888981500205601  0.1250919186032256
  0.1111107070515230  0.5555622402115322  0.6248662142133544
  0.2777757703585316  0.0555515407170624  0.6246778843260929
  0.7777817926162724  0.5555575629748034  0.6246778843260929
  0.6111056426049576  0.0555507245629866  0.6249102958288288
  0.9444450819580293  0.0555507245629866  0.6249102958288288
  0.0546023410146264  0.1104742573133013  0.3750000000000000
  0.5560249909772318  0.6120499819544604  0.3750000000000000
  0.3876950523972930  0.1054530747497715  0.3750000000000000
  0.8908873891062251  0.6121103612197814  0.3750000000000000
  0.7223949721414626  0.1109383611918712  0.3750000000000000
  0.0555538149656721  0.7777795183676630  0.8750000000000000
  0.3888935971055701  0.7777797381176690  0.8750000000000000
  0.2222208647888959  0.2777770990611148  0.8750000000000000
  0.7222219239467432  0.7777797083455732  0.8750000000000000
  0.5555562342722195  0.2777770990611148  0.8750000000000000
  0.8888883915821846  0.2777767831643708  0.8750000000000000
  0.2218624887789351  0.7775979110561355  0.3750000000000000
  0.0546023410146264  0.2774614170346613  0.3750000000000000
  0.3778285076210359  0.2556570152420782  0.3750000000000000
  0.5558719162986765  0.7787309923187090  0.3750000000000000
  0.8904124662884287  0.7790214966653032  0.3750000000000000
  0.7228590760200366  0.2774614170346613  0.3750000000000000
  0.0555535952156690  0.9444471923212399  0.8750000000000000
  0.3888935971055701  0.9444471923212399  0.8750000000000000
  0.2222215624657212  0.4444414983251994  0.8750000000000000
  0.5555630632709122  0.4444481983021204  0.8750000000000000
  0.7222225377270797  0.9444450754541622  0.8750000000000000
  0.8888861410120887  0.4444397362277585  0.8750000000000000
  0.0543118366680327  0.4447243029564620  0.3750000000000000
  0.2212229721135532  0.9424459442271035  0.3750000000000000
  0.5558282423767186  0.9445807878550244  0.3750000000000000
  0.3778285076210357  0.4555048257122927  0.3750000000000000
  0.8887525454783042  0.9445807878550244  0.3750000000000000
  0.7278802585835646  0.4456382809360356  0.3750000000000000
  0.2222240766436754  0.6111092566896589  0.8750000000000000
  0.0555536249877634  0.1111114093865928  0.8750000000000000
  0.5555562342722195  0.6111124685444418  0.8750000000000000
  0.3888918350081292  0.1111133974738579  0.8750000000000000
  0.8888851800459783  0.6111092566896589  0.8750000000000000
  0.0557354222772004  0.6114708445544007  0.3750000000000000
  0.7222225377270797  0.1111107956062556  0.8750000000000000
  0.2177580223524709  0.1054530747497715  0.3750000000000000
  0.3876950523972930  0.6155753109808656  0.3750000000000000
  0.7278802585835646  0.6155753109808656  0.3750000000000000
  0.5558719162986765  0.1104742573133013  0.3750000000000000
  0.3888918350081292  0.6111117708676136  0.8750000000000000
  0.8885433890503983  0.1109383611918712  0.3750000000000000
  0.2222257034019914  0.7777795183676630  0.8750000000000000
  0.0555536249877634  0.2777755489345061  0.8750000000000000
  0.3888851350312082  0.2777702700624236  0.8750000000000000
  0.5555577843988300  0.7777797083455732  0.8750000000000000
  0.8888861410120887  0.7777797381176690  0.8750000000000000
  0.7222219239467432  0.2777755489345061  0.8750000000000000
  0.0557354222772004  0.7775979110561355  0.3750000000000000
  0.3886090303768666  0.7790214966653032  0.3750000000000000
  0.2212833513788763  0.2773083423561055  0.3750000000000000
  0.7228590760200366  0.7787309923187090  0.3750000000000000
  0.5560249909772318  0.2773083423561055  0.3750000000000000
  0.8887525454783042  0.2775050909566181  0.3750000000000000
  0.0555535952156690  0.4444397362277585  0.8750000000000000
  0.2222240766436754  0.9444481532873520  0.8750000000000000
  0.5555565501689672  0.9444449417511440  0.8750000000000000
  0.3888851350312082  0.4444481983021204  0.8750000000000000
  0.8888883915821846  0.9444449417511440  0.8750000000000000
  0.0543118366680327  0.9429208670448999  0.3750000000000000
  0.7222199358594767  0.4444414983251994  0.8750000000000000
  0.3886090303768666  0.9429208670448999  0.3750000000000000
  0.2177580223524709  0.4456382809360356  0.3750000000000000
  0.2212229721135532  0.6121103612197814  0.3750000000000000
  0.5776763180912569  0.4555048257122927  0.3750000000000000
  0.7223949721414626  0.9447899442829303  0.3750000000000000
  0.8904124662884287  0.4447243029564620  0.3750000000000000
  0.0555538149656721  0.6111076299313443  0.8750000000000000
  0.2222215624657212  0.1111133974738579  0.8750000000000000
  0.7222199358594767  0.6111117708676136  0.8750000000000000
  0.5555577843988300  0.1111114093865928  0.8750000000000000
  0.8888882578791664  0.1111107956062556  0.8750000000000000
  0.1076039509206323  0.0524379637630952  0.3750000000000000
  0.6195894295553155  0.5643150829779179  0.3750000000000000
  0.4448340128424622  0.0524379637630952  0.3750000000000000
  0.9454474226537364  0.5558142126928384  0.3750000000000000
  0.7777777777777786  0.0555555555555571  0.3750000000000000
  0.1111111111111143  0.7222222222222214  0.8750000000000000
  0.4444562749839950  0.7222520235904326  0.8750000000000000
  0.2777495694189306  0.2221980646478568  0.8750000000000000
  0.7777957486064377  0.7222520235904326  0.8750000000000000
  0.6111310961936899  0.2222022371396455  0.8750000000000000
  0.9444221836240795  0.2222074141839402  0.8750000000000000
  0.2775191206404985  0.7229665432942353  0.3750000000000000
  0.1090392839792815  0.2211863086563049  0.3750000000000000
  0.4447256534226022  0.2137439037780193  0.3750000000000000
  0.6121470246770304  0.7242940493540543  0.3750000000000000
  0.9454474226537364  0.7229665432942353  0.3750000000000000
  0.7780272049654654  0.2216374597930900  0.3750000000000000
  0.1111013348704324  0.8888814396697711  0.8750000000000000
  0.4444582783727368  0.8888958058530304  0.8750000000000000
  0.2777495694189306  0.3888848381044015  0.8750000000000000
  0.6111352686854780  0.3888848381044015  0.8750000000000000
  0.7777852305598622  0.8889111497092491  0.8750000000000000
  0.9444375274802982  0.3888750549605918  0.8750000000000000
  0.1076039509206323  0.3884993204908664  0.3750000000000000
  0.2775191206404985  0.8878859106795922  0.3750000000000000
  0.6116958735402448  0.8897230785057058  0.3750000000000000
  0.9442252441696666  0.8891080891636624  0.3750000000000000
  0.7808953695702407  0.3884993204908664  0.3750000000000000
  0.2777658573180943  0.5555674760152416  0.8750000000000000
  0.1110813097429039  0.0555375847268991  0.8750000000000000
  0.6111352686854780  0.5555837639144033  0.8750000000000000
  0.4444562749839950  0.0555375847268991  0.8750000000000000
  0.9444518936635575  0.5555532285339920  0.8750000000000000
  0.1103667900391010  0.5558142126928384  0.3750000000000000
  0.7777777777777786  0.0555555555555571  0.8750000000000000
  0.2759763053774891  0.0519526107549775  0.3750000000000000
  0.4447256534226022  0.5643150829779179  0.3750000000000000
  0.7813807225783576  0.5573570279558453  0.3750000000000000
  0.6116958735402448  0.0553061283678689  0.3750000000000000
  0.4444484952289271  0.5555837639144033  0.8750000000000000
  0.9436102548276228  0.0553061283678689  0.3750000000000000
  0.2777801047993461  0.7222319984629025  0.8750000000000000
  0.1110711409459621  0.2222022371396455  0.8750000000000000
  0.4444484952289271  0.2221980646478568  0.8750000000000000
  0.6111310961936899  0.7222621923873750  0.8750000000000000
  0.9444518936635575  0.7222319984629025  0.8750000000000000
  0.7777852305598622  0.2222074141839402  0.8750000000000000
  0.1111111111111143  0.7222222222222214  0.3750000000000000
  0.4448340128424622  0.7257293824127050  0.3750000000000000
  0.2690182503554190  0.2137439037780193  0.3750000000000000
  0.7808953695702407  0.7257293824127050  0.3750000000000000
  0.6121470246770304  0.2211863086563049  0.3750000000000000
  0.9436102548276228  0.2216374597930900  0.3750000000000000
  0.1110813097429039  0.3888770583493336  0.8750000000000000
  0.2777801047993461  0.8888814396697711  0.8750000000000000
  0.6111259191493971  0.8889111497092491  0.8750000000000000
  0.4444444444444429  0.3888888888888857  0.8750000000000000
  0.9444375274802982  0.8888958058530304  0.8750000000000000
  0.1103667900391010  0.8878859106795922  0.3750000000000000
  0.7777957486064377  0.3888770583493336  0.8750000000000000
  0.4448828449939938  0.8891080891636624  0.3750000000000000
  0.2690182503554190  0.3886076799107264  0.3750000000000000
  0.2759763053774891  0.5573570279558453  0.3750000000000000
  0.6195894295553155  0.3886076799107264  0.3750000000000000
  0.7780272049654654  0.8897230785057058  0.3750000000000000
  0.9442252441696662  0.3884504883393348  0.3750000000000000
  0.1111013348704324  0.5555532285339920  0.8750000000000000
  0.2777658573180943  0.0555317146361894  0.8750000000000000
  0.7778016186971470  0.5555674760152416  0.8750000000000000
  0.6111259191493971  0.0555481027734742  0.8750000000000000
  0.9444221836240795  0.0555481027734742  0.8750000000000000
  0.0554754395114170  0.1110436685262649  0.1249279449199167
  0.5556186813019068  0.6112373626038107  0.1245767397402036
  0.3888433873042698  0.1109697181511859  0.1249012272993469
  0.8889863137853121  0.6111598235593273  0.1249417293345891
  0.7222344885169597  0.1110988448163761  0.1248850286445868
  0.0555695909447011  0.7777637423886354  0.6251033518137917
  0.3888577507092770  0.7778102380996154  0.6250783627418953
  0.2220959707295257  0.2777146520314304  0.6254232602597961
  0.7222896648070686  0.7778578938219178  0.6250720550800826
  0.5556186813019068  0.2777146520314304  0.6254232602597961
  0.8888909173713456  0.2777818347426978  0.6251174544022972
  0.2221941514439333  0.7777637423886354  0.1248966481862091
  0.0554754395114170  0.2777651043184876  0.1249279449199167
  0.3888446204963678  0.2776892409927434  0.1232601260467392
  0.5555682290148485  0.7778578938219178  0.1249279449199167
  0.8889524873903341  0.7778102380996154  0.1249216372581046
  0.7222896648070686  0.2777651043184876  0.1249279449199167
  0.0555230952337194  0.9443808459429948  0.6250783627418953
  0.3888577507092770  0.9443808459429948  0.6250783627418953
  0.2221263308469092  0.4444899460290588  0.6250987727006534
  0.5556440923405931  0.4444887128369608  0.6267398739532600
  0.7222344885169597  0.9444689770339204  0.6251149713554132
  0.8889524873903341  0.4444755826240516  0.6250783627418953
  0.0555230952337194  0.4444755826240516  0.1249216372581046
  0.2221735097740082  0.9443470195480165  0.1249417293345891
  0.5555514985906369  0.9444424159619830  0.1248825455977034
  0.3888446204963678  0.4444887128369608  0.1232601260467392
  0.8888909173713456  0.9444424159619830  0.1248825455977034
  0.7223636151821491  0.4444899460290588  0.1249012272993469
  0.2221735097740082  0.6111598235593273  0.6250582706654094
  0.0554754395114170  0.1110436685262649  0.6250720550800826
  0.5556186813019068  0.6112373626038107  0.6254232602597961
  0.3888433873042698  0.1109697181511862  0.6250987727006534
  0.8889863137853121  0.6111598235593273  0.6250582706654094
  0.0555695909447011  0.6111391818894018  0.1248966481862091
  0.7222344885169597  0.1110988448163761  0.6251149713554132
  0.2221263308469092  0.1109697181511859  0.1249012272993469
  0.3888433873042698  0.6112070024864251  0.1249012272993469
  0.7223636151821491  0.6112070024864251  0.1249012272993469
  0.5555682290148485  0.1110436685262649  0.1249279449199167
  0.3888433873042698  0.6112070024864251  0.6250987727006534
  0.8888643562994082  0.1110988448163761  0.1248850286445868
  0.2221941514439333  0.7777637423886354  0.6251033518137917
  0.0554754395114170  0.2777651043184876  0.6250720550800826
  0.3888446204963678  0.2776892409927434  0.6267398739532600
  0.5555682290148485  0.7778578938219178  0.6250720550800826
  0.8889524873903341  0.7778102380996154  0.6250783627418953
  0.7222896648070686  0.2777651043184876  0.6250720550800826
  0.0555695909447011  0.7777637423886354  0.1248966481862091
  0.3888577507092770  0.7778102380996154  0.1249216372581046
  0.2220959707295257  0.2777146520314304  0.1245767397402036
  0.7222896648070686  0.7778578938219178  0.1249279449199167
  0.5556186813019068  0.2777146520314304  0.1245767397402036
  0.8888909173713456  0.2777818347426978  0.1248825455977034
  0.0555230952337194  0.4444755826240516  0.6250783627418953
  0.2221735097740082  0.9443470195480165  0.6250582706654094
  0.5555514985906369  0.9444424159619830  0.6251174544022972
  0.3888446204963678  0.4444887128369608  0.6267398739532600
  0.8888909173713456  0.9444424159619830  0.6251174544022972
  0.0555230952337194  0.9443808459429948  0.1249216372581046
  0.7223636151821491  0.4444899460290588  0.6250987727006534
  0.3888577507092770  0.9443808459429948  0.1249216372581046
  0.2221263308469092  0.4444899460290588  0.1249012272993469
  0.2221735097740082  0.6111598235593273  0.1249417293345891
  0.5556440923405931  0.4444887128369608  0.1232601260467392
  0.7222344885169597  0.9444689770339204  0.1248850286445868
  0.8889524873903341  0.4444755826240516  0.1249216372581046
  0.0555695909447011  0.6111391818894018  0.6251033518137917
  0.2221263308469092  0.1109697181511859  0.6250987727006534
  0.7223636151821491  0.6112070024864251  0.6250987727006534
  0.5555682290148485  0.1110436685262649  0.6250720550800826
  0.8888643562994082  0.1110988448163761  0.6251149713554132
 
  0.00000000E+00  0.00000000E+00  0.00000000E+00
  0.00000000E+00  0.00000000E+00  0.00000000E+00
  0.00000000E+00  0.00000000E+00  0.00000000E+00
  0.00000000E+00  0.00000000E+00  0.00000000E+00
  0.00000000E+00  0.00000000E+00  0.00000000E+00
  0.00000000E+00  0.00000000E+00  0.00000000E+00
  0.00000000E+00  0.00000000E+00  0.00000000E+00
  0.00000000E+00  0.00000000E+00  0.00000000E+00
  0.00000000E+00  0.00000000E+00  0.00000000E+00
  0.00000000E+00  0.00000000E+00  0.00000000E+00
  0.00000000E+00  0.00000000E+00  0.00000000E+00
  0.00000000E+00  0.00000000E+00  0.00000000E+00
  0.00000000E+00  0.00000000E+00  0.00000000E+00
  0.00000000E+00  0.00000000E+00  0.00000000E+00
  0.00000000E+00  0.00000000E+00  0.00000000E+00
  0.00000000E+00  0.00000000E+00  0.00000000E+00
  0.00000000E+00  0.00000000E+00  0.00000000E+00
  0.00000000E+00  0.00000000E+00  0.00000000E+00
  0.00000000E+00  0.00000000E+00  0.00000000E+00
  0.00000000E+00  0.00000000E+00  0.00000000E+00
  0.00000000E+00  0.00000000E+00  0.00000000E+00
  0.00000000E+00  0.00000000E+00  0.00000000E+00
  0.00000000E+00  0.00000000E+00  0.00000000E+00
  0.00000000E+00  0.00000000E+00  0.00000000E+00
  0.00000000E+00  0.00000000E+00  0.00000000E+00
  0.00000000E+00  0.00000000E+00  0.00000000E+00
  0.00000000E+00  0.00000000E+00  0.00000000E+00
  0.00000000E+00  0.00000000E+00  0.00000000E+00
  0.00000000E+00  0.00000000E+00  0.00000000E+00
  0.00000000E+00  0.00000000E+00  0.00000000E+00
  0.00000000E+00  0.00000000E+00  0.00000000E+00
  0.00000000E+00  0.00000000E+00  0.00000000E+00
  0.00000000E+00  0.00000000E+00  0.00000000E+00
  0.00000000E+00  0.00000000E+00  0.00000000E+00
  0.00000000E+00  0.00000000E+00  0.00000000E+00
  0.00000000E+00  0.00000000E+00  0.00000000E+00
  0.00000000E+00  0.00000000E+00  0.00000000E+00
  0.00000000E+00  0.00000000E+00  0.00000000E+00
  0.00000000E+00  0.00000000E+00  0.00000000E+00
  0.00000000E+00  0.00000000E+00  0.00000000E+00
  0.00000000E+00  0.00000000E+00  0.00000000E+00
  0.00000000E+00  0.00000000E+00  0.00000000E+00
  0.00000000E+00  0.00000000E+00  0.00000000E+00
  0.00000000E+00  0.00000000E+00  0.00000000E+00
  0.00000000E+00  0.00000000E+00  0.00000000E+00
  0.00000000E+00  0.00000000E+00  0.00000000E+00
  0.00000000E+00  0.00000000E+00  0.00000000E+00
  0.00000000E+00  0.00000000E+00  0.00000000E+00
  0.00000000E+00  0.00000000E+00  0.00000000E+00
  0.00000000E+00  0.00000000E+00  0.00000000E+00
  0.00000000E+00  0.00000000E+00  0.00000000E+00
  0.00000000E+00  0.00000000E+00  0.00000000E+00
  0.00000000E+00  0.00000000E+00  0.00000000E+00
  0.00000000E+00  0.00000000E+00  0.00000000E+00
  0.00000000E+00  0.00000000E+00  0.00000000E+00
  0.00000000E+00  0.00000000E+00  0.00000000E+00
  0.00000000E+00  0.00000000E+00  0.00000000E+00
  0.00000000E+00  0.00000000E+00  0.00000000E+00
  0.00000000E+00  0.00000000E+00  0.00000000E+00
  0.00000000E+00  0.00000000E+00  0.00000000E+00
  0.00000000E+00  0.00000000E+00  0.00000000E+00
  0.00000000E+00  0.00000000E+00  0.00000000E+00
  0.00000000E+00  0.00000000E+00  0.00000000E+00
  0.00000000E+00  0.00000000E+00  0.00000000E+00
  0.00000000E+00  0.00000000E+00  0.00000000E+00
  0.00000000E+00  0.00000000E+00  0.00000000E+00
  0.00000000E+00  0.00000000E+00  0.00000000E+00
  0.00000000E+00  0.00000000E+00  0.00000000E+00
  0.00000000E+00  0.00000000E+00  0.00000000E+00
  0.00000000E+00  0.00000000E+00  0.00000000E+00
  0.00000000E+00  0.00000000E+00  0.00000000E+00
  0.00000000E+00  0.00000000E+00  0.00000000E+00
  0.00000000E+00  0.00000000E+00  0.00000000E+00
  0.00000000E+00  0.00000000E+00  0.00000000E+00
  0.00000000E+00  0.00000000E+00  0.00000000E+00
  0.00000000E+00  0.00000000E+00  0.00000000E+00
  0.00000000E+00  0.00000000E+00  0.00000000E+00
  0.00000000E+00  0.00000000E+00  0.00000000E+00
  0.00000000E+00  0.00000000E+00  0.00000000E+00
  0.00000000E+00  0.00000000E+00  0.00000000E+00
  0.00000000E+00  0.00000000E+00  0.00000000E+00
  0.00000000E+00  0.00000000E+00  0.00000000E+00
  0.00000000E+00  0.00000000E+00  0.00000000E+00
  0.00000000E+00  0.00000000E+00  0.00000000E+00
  0.00000000E+00  0.00000000E+00  0.00000000E+00
  0.00000000E+00  0.00000000E+00  0.00000000E+00
  0.00000000E+00  0.00000000E+00  0.00000000E+00
  0.00000000E+00  0.00000000E+00  0.00000000E+00
  0.00000000E+00  0.00000000E+00  0.00000000E+00
  0.00000000E+00  0.00000000E+00  0.00000000E+00
  0.00000000E+00  0.00000000E+00  0.00000000E+00
  0.00000000E+00  0.00000000E+00  0.00000000E+00
  0.00000000E+00  0.00000000E+00  0.00000000E+00
  0.00000000E+00  0.00000000E+00  0.00000000E+00
  0.00000000E+00  0.00000000E+00  0.00000000E+00
  0.00000000E+00  0.00000000E+00  0.00000000E+00
  0.00000000E+00  0.00000000E+00  0.00000000E+00
  0.00000000E+00  0.00000000E+00  0.00000000E+00
  0.00000000E+00  0.00000000E+00  0.00000000E+00
  0.00000000E+00  0.00000000E+00  0.00000000E+00
  0.00000000E+00  0.00000000E+00  0.00000000E+00
  0.00000000E+00  0.00000000E+00  0.00000000E+00
  0.00000000E+00  0.00000000E+00  0.00000000E+00
  0.00000000E+00  0.00000000E+00  0.00000000E+00
  0.00000000E+00  0.00000000E+00  0.00000000E+00
  0.00000000E+00  0.00000000E+00  0.00000000E+00
  0.00000000E+00  0.00000000E+00  0.00000000E+00
  0.00000000E+00  0.00000000E+00  0.00000000E+00
  0.00000000E+00  0.00000000E+00  0.00000000E+00
  0.00000000E+00  0.00000000E+00  0.00000000E+00
  0.00000000E+00  0.00000000E+00  0.00000000E+00
  0.00000000E+00  0.00000000E+00  0.00000000E+00
  0.00000000E+00  0.00000000E+00  0.00000000E+00
  0.00000000E+00  0.00000000E+00  0.00000000E+00
  0.00000000E+00  0.00000000E+00  0.00000000E+00
  0.00000000E+00  0.00000000E+00  0.00000000E+00
  0.00000000E+00  0.00000000E+00  0.00000000E+00
  0.00000000E+00  0.00000000E+00  0.00000000E+00
  0.00000000E+00  0.00000000E+00  0.00000000E+00
  0.00000000E+00  0.00000000E+00  0.00000000E+00
  0.00000000E+00  0.00000000E+00  0.00000000E+00
  0.00000000E+00  0.00000000E+00  0.00000000E+00
  0.00000000E+00  0.00000000E+00  0.00000000E+00
  0.00000000E+00  0.00000000E+00  0.00000000E+00
  0.00000000E+00  0.00000000E+00  0.00000000E+00
  0.00000000E+00  0.00000000E+00  0.00000000E+00
  0.00000000E+00  0.00000000E+00  0.00000000E+00
  0.00000000E+00  0.00000000E+00  0.00000000E+00
  0.00000000E+00  0.00000000E+00  0.00000000E+00
  0.00000000E+00  0.00000000E+00  0.00000000E+00
  0.00000000E+00  0.00000000E+00  0.00000000E+00
  0.00000000E+00  0.00000000E+00  0.00000000E+00
  0.00000000E+00  0.00000000E+00  0.00000000E+00
  0.00000000E+00  0.00000000E+00  0.00000000E+00
  0.00000000E+00  0.00000000E+00  0.00000000E+00
  0.00000000E+00  0.00000000E+00  0.00000000E+00
  0.00000000E+00  0.00000000E+00  0.00000000E+00
  0.00000000E+00  0.00000000E+00  0.00000000E+00
  0.00000000E+00  0.00000000E+00  0.00000000E+00
  0.00000000E+00  0.00000000E+00  0.00000000E+00
  0.00000000E+00  0.00000000E+00  0.00000000E+00
  0.00000000E+00  0.00000000E+00  0.00000000E+00
  0.00000000E+00  0.00000000E+00  0.00000000E+00
  0.00000000E+00  0.00000000E+00  0.00000000E+00
  0.00000000E+00  0.00000000E+00  0.00000000E+00
  0.00000000E+00  0.00000000E+00  0.00000000E+00
  0.00000000E+00  0.00000000E+00  0.00000000E+00
  0.00000000E+00  0.00000000E+00  0.00000000E+00
  0.00000000E+00  0.00000000E+00  0.00000000E+00
  0.00000000E+00  0.00000000E+00  0.00000000E+00
  0.00000000E+00  0.00000000E+00  0.00000000E+00
  0.00000000E+00  0.00000000E+00  0.00000000E+00
  0.00000000E+00  0.00000000E+00  0.00000000E+00
  0.00000000E+00  0.00000000E+00  0.00000000E+00
  0.00000000E+00  0.00000000E+00  0.00000000E+00
  0.00000000E+00  0.00000000E+00  0.00000000E+00
  0.00000000E+00  0.00000000E+00  0.00000000E+00
  0.00000000E+00  0.00000000E+00  0.00000000E+00
  0.00000000E+00  0.00000000E+00  0.00000000E+00
  0.00000000E+00  0.00000000E+00  0.00000000E+00
  0.00000000E+00  0.00000000E+00  0.00000000E+00
  0.00000000E+00  0.00000000E+00  0.00000000E+00
  0.00000000E+00  0.00000000E+00  0.00000000E+00
  0.00000000E+00  0.00000000E+00  0.00000000E+00
  0.00000000E+00  0.00000000E+00  0.00000000E+00
  0.00000000E+00  0.00000000E+00  0.00000000E+00
  0.00000000E+00  0.00000000E+00  0.00000000E+00
  0.00000000E+00  0.00000000E+00  0.00000000E+00
  0.00000000E+00  0.00000000E+00  0.00000000E+00
  0.00000000E+00  0.00000000E+00  0.00000000E+00
  0.00000000E+00  0.00000000E+00  0.00000000E+00
  0.00000000E+00  0.00000000E+00  0.00000000E+00
  0.00000000E+00  0.00000000E+00  0.00000000E+00
  0.00000000E+00  0.00000000E+00  0.00000000E+00
  0.00000000E+00  0.00000000E+00  0.00000000E+00
  0.00000000E+00  0.00000000E+00  0.00000000E+00
  0.00000000E+00  0.00000000E+00  0.00000000E+00
  0.00000000E+00  0.00000000E+00  0.00000000E+00
  0.00000000E+00  0.00000000E+00  0.00000000E+00
  0.00000000E+00  0.00000000E+00  0.00000000E+00
  0.00000000E+00  0.00000000E+00  0.00000000E+00
  0.00000000E+00  0.00000000E+00  0.00000000E+00
  0.00000000E+00  0.00000000E+00  0.00000000E+00
  0.00000000E+00  0.00000000E+00  0.00000000E+00
  0.00000000E+00  0.00000000E+00  0.00000000E+00
  0.00000000E+00  0.00000000E+00  0.00000000E+00
  0.00000000E+00  0.00000000E+00  0.00000000E+00
  0.00000000E+00  0.00000000E+00  0.00000000E+00
  0.00000000E+00  0.00000000E+00  0.00000000E+00
  0.00000000E+00  0.00000000E+00  0.00000000E+00
  0.00000000E+00  0.00000000E+00  0.00000000E+00
  0.00000000E+00  0.00000000E+00  0.00000000E+00
  0.00000000E+00  0.00000000E+00  0.00000000E+00
  0.00000000E+00  0.00000000E+00  0.00000000E+00
  0.00000000E+00  0.00000000E+00  0.00000000E+00
  0.00000000E+00  0.00000000E+00  0.00000000E+00
  0.00000000E+00  0.00000000E+00  0.00000000E+00
  0.00000000E+00  0.00000000E+00  0.00000000E+00
  0.00000000E+00  0.00000000E+00  0.00000000E+00
  0.00000000E+00  0.00000000E+00  0.00000000E+00
  0.00000000E+00  0.00000000E+00  0.00000000E+00
  0.00000000E+00  0.00000000E+00  0.00000000E+00
  0.00000000E+00  0.00000000E+00  0.00000000E+00
  0.00000000E+00  0.00000000E+00  0.00000000E+00
  0.00000000E+00  0.00000000E+00  0.00000000E+00
  0.00000000E+00  0.00000000E+00  0.00000000E+00
  0.00000000E+00  0.00000000E+00  0.00000000E+00
  0.00000000E+00  0.00000000E+00  0.00000000E+00
  0.00000000E+00  0.00000000E+00  0.00000000E+00
  0.00000000E+00  0.00000000E+00  0.00000000E+00
  0.00000000E+00  0.00000000E+00  0.00000000E+00
  0.00000000E+00  0.00000000E+00  0.00000000E+00
  0.00000000E+00  0.00000000E+00  0.00000000E+00
  0.00000000E+00  0.00000000E+00  0.00000000E+00
  0.00000000E+00  0.00000000E+00  0.00000000E+00
  0.00000000E+00  0.00000000E+00  0.00000000E+00
  0.00000000E+00  0.00000000E+00  0.00000000E+00
  0.00000000E+00  0.00000000E+00  0.00000000E+00
  0.00000000E+00  0.00000000E+00  0.00000000E+00
  0.00000000E+00  0.00000000E+00  0.00000000E+00
  0.00000000E+00  0.00000000E+00  0.00000000E+00
  0.00000000E+00  0.00000000E+00  0.00000000E+00
  0.00000000E+00  0.00000000E+00  0.00000000E+00
  0.00000000E+00  0.00000000E+00  0.00000000E+00
  0.00000000E+00  0.00000000E+00  0.00000000E+00
  0.00000000E+00  0.00000000E+00  0.00000000E+00
  0.00000000E+00  0.00000000E+00  0.00000000E+00
  0.00000000E+00  0.00000000E+00  0.00000000E+00
  0.00000000E+00  0.00000000E+00  0.00000000E+00
  0.00000000E+00  0.00000000E+00  0.00000000E+00
  0.00000000E+00  0.00000000E+00  0.00000000E+00
  0.00000000E+00  0.00000000E+00  0.00000000E+00
  0.00000000E+00  0.00000000E+00  0.00000000E+00
  0.00000000E+00  0.00000000E+00  0.00000000E+00
  0.00000000E+00  0.00000000E+00  0.00000000E+00
  0.00000000E+00  0.00000000E+00  0.00000000E+00
  0.00000000E+00  0.00000000E+00  0.00000000E+00
  0.00000000E+00  0.00000000E+00  0.00000000E+00
  0.00000000E+00  0.00000000E+00  0.00000000E+00
  0.00000000E+00  0.00000000E+00  0.00000000E+00
  0.00000000E+00  0.00000000E+00  0.00000000E+00
  0.00000000E+00  0.00000000E+00  0.00000000E+00
  0.00000000E+00  0.00000000E+00  0.00000000E+00
  0.00000000E+00  0.00000000E+00  0.00000000E+00
  0.00000000E+00  0.00000000E+00  0.00000000E+00
  0.00000000E+00  0.00000000E+00  0.00000000E+00
  0.00000000E+00  0.00000000E+00  0.00000000E+00