B N                                     
   1.0000000000000000     
     8.7639499999999995  -15.1796066749929999    0.0000000000000000
     8.7639499999999995   15.1796066749929999    0.0000000000000000
     0.0000000000000000    0.0000000000000000   15.0000000000000000
   B    N 
    48    49
Selective dynamics
Direct
  0.9051823006090873  0.9526150870589141  0.1110194902397815   T   T   T
  0.9047817711131342  0.0952726013366460  0.1110544233747707   T   T   T
  0.9047342179423908  0.2380101360092552  0.1110497392132062   T   T   T
  0.9046610158756854  0.3807697962871374  0.1110065411876632   T   T   T
  0.9051267769770578  0.5238749282806006  0.1110415513042560   T   T   T
  0.9054993489625091  0.6668402296242630  0.1111223763425933   T   T   T
  0.9057144356218848  0.8101420864652046  0.1110697058448348   T   T   T
  0.0478865978117226  0.9525488309138845  0.1110174935009117   T   T   T
  0.0476356365018559  0.0951060197597364  0.1110052682460163   T   T   T
  0.0472087229460084  0.2377551730424453  0.1109827807537365   T   T   T
  0.0470794965226559  0.3807107360227277  0.1109785456944447   T   T   T
  0.0473211489964955  0.5238791951745047  0.1109691386993202   T   T   T
  0.0477115054720895  0.6668296115521650  0.1110129057883657   T   T   T
  0.0479785507685997  0.8097630497464190  0.1110069369916485   T   T   T
  0.1904855037054390  0.9524026946892279  0.1109772992148686   T   T   T
  0.1902369359644383  0.0949474293372971  0.1110169542024907   T   T   T
  0.1897685054909130  0.2373411944226905  0.1109672236937267   T   T   T
  0.1895354574170988  0.3805081110594176  0.1109791022297260   T   T   T
  0.1892392097935761  0.5238192282401565  0.1110717248879127   T   T   T
  0.1899250450006980  0.6668388673105990  0.1110370977933168   T   T   T
  0.1903739858041051  0.8097582424201788  0.1109675499942404   T   T   T
  0.3332322625029987  0.9525368994892484  0.1110048028132963   T   T   T
  0.3332792211048038  0.0949477545774459  0.1110428379387714   T   T   T
  0.3328833460994868  0.2371928119616743  0.1110311393602233   T   T   T
  0.3323815911445401  0.3787076060112740  0.1109575840340691   T   T   T
  0.3312196572973389  0.5247244593224453  0.1111077206335571   T   T   T
  0.3321536152214455  0.6672658955905296  0.1111911237236657   T   T   T
  0.3330239674234119  0.8101341043429718  0.1110461556174972   T   T   T
  0.4760201839358801  0.9526210502962594  0.1109976408624435   T   T   T
  0.4760576370451216  0.0951225591315285  0.1110221532752017   T   T   T
  0.4761359305154568  0.2373618603285449  0.1110709936054806   T   T   T
  0.4749078188624604  0.3787506504985282  0.1110283654017009   T   T   T
  0.4739586101862023  0.6675377797511532  0.1111110008068256   T   T   T
  0.4759698432811347  0.8103683162995139  0.1110591855093420   T   T   T
  0.6189353086985805  0.9527718066572661  0.1110013303152249   T   T   T
  0.6190617563590831  0.0952872184558628  0.1110354443306418   T   T   T
  0.6191270644815045  0.2377781628433814  0.1110659443070465   T   T   T
  0.6195475834666172  0.3805397102629584  0.1110981280536454   T   T   T
  0.6220945841470529  0.5247586096410410  0.1110089704748019   T   T   T
  0.6221911963968131  0.6675620876540387  0.1109226159069633   T   T   T
  0.6192950240855516  0.8099882047533490  0.1109600054820824   T   T   T
  0.7624106630312419  0.9527634778021776  0.1110017135373963   T   T   T
  0.7618671822822293  0.0951895133555568  0.1110717348573220   T   T   T
  0.7618174253555708  0.2380186356471485  0.1110815836288192   T   T   T
  0.7621842257440625  0.3807146764645169  0.1110774120115320   T   T   T
  0.7631496422899495  0.5238346521294369  0.1111200285331793   T   T   T
  0.7637045065299488  0.6672889861088427  0.1110453166132700   T   T   T
  0.7629914312047317  0.8103822152320952  0.1109720100452534   T   T   T
  0.9526227743122719  0.9050039729355432  0.1110274787100126   T   T   T
  0.9522873649915943  0.0476016755684453  0.1110094752673276   T   T   T
  0.9521159174397049  0.1902717040069153  0.1110222861961490   T   T   T
  0.9520666000570631  0.3330669068910054  0.1110000254109552   T   T   T
  0.9522876297730574  0.4760066567815965  0.1109645051370527   T   T   T
  0.9526346510619795  0.6190923280053858  0.1110572047588959   T   T   T
  0.9526562871470678  0.7621044381852281  0.1110625845158918   T   T   T
  0.0952923888637513  0.9048686014214284  0.1109734862681052   T   T   T
  0.0951643131183218  0.0475651153414145  0.1109930655803007   T   T   T
  0.0947809019452105  0.1901278561887289  0.1109745432988342   T   T   T
  0.0944901428865871  0.3329319174485676  0.1109403344776560   T   T   T
  0.0945287007120672  0.4760298153162753  0.1109504209344365   T   T   T
  0.0950417372983412  0.6190929170396856  0.1109752110812375   T   T   T
  0.0953072662963104  0.7620238955197474  0.1109656164431501   T   T   T
  0.2381502119287147  0.9048648597871144  0.1109582382128295   T   T   T
  0.2380564821672533  0.0475417516607557  0.1109935168852469   T   T   T
  0.2377217316009443  0.1901084346629933  0.1109884694796301   T   T   T
  0.2367886527372208  0.3325461308079714  0.1109271008281553   T   T   T
  0.2361387355324625  0.4758615170449221  0.1110841584765039   T   T   T
  0.2374502980894623  0.6191985501296275  0.1110986699466328   T   T   T
  0.2380400166205905  0.7621018009255146  0.1109867834946050   T   T   T
  0.3809653811002899  0.9049987473254696  0.1109906414228584   T   T   T
  0.3809778637356328  0.0475654537244415  0.1110154387263851   T   T   T
  0.3809532760172944  0.1901112851558021  0.1110377804732684   T   T   T
  0.3804344828858823  0.3322980345907010  0.1109960110071736   T   T   T
  0.3690819858834267  0.4710250815474166  0.1107827609371379   T   T   T
  0.3799560769187728  0.6198287246683456  0.1112214992705829   T   T   T
  0.3809050863613421  0.7624400947127918  0.1111048465199404   T   T   T
  0.5238476213917133  0.9050890346196104  0.1109698370419951   T   T   T
  0.5238908659538382  0.0476095205026093  0.1109968578168405   T   T   T
  0.5239203073293657  0.1901513543470738  0.1110269723729728   T   T   T
  0.5243282276483490  0.3325774011869698  0.1110749780672105   T   T   T
  0.5305245020848003  0.4710710740615784  0.1109561601611715   T   T   T
  0.5288071707963300  0.6290097147455807  0.1109085772205049   T   T   T
  0.5239504174563520  0.7627811453298465  0.1110434442857187   T   T   T
  0.6667172584948351  0.9048537634246006  0.1109559765326496   T   T   T
  0.6666391372443425  0.0475495025456057  0.1110292484342105   T   T   T
  0.6667134789641495  0.1902826446775796  0.1110580053885688   T   T   T
  0.6670056710250194  0.3329522228307119  0.1110744465348382   T   T   T
  0.6682957588936923  0.4758868129411490  0.1110747683179218   T   T   T
  0.6684744018509924  0.6198555460887084  0.1109540011628726   T   T   T
  0.6674355282862202  0.7627961934877207  0.1108910953449043   T   T   T
  0.8098282488112151  0.9050966914167138  0.1109878943854092   T   T   T
  0.8094640320828995  0.0475445984436404  0.1110410874122900   T   T   T
  0.8093789091072954  0.1902202982873755  0.1110591495845148   T   T   T
  0.8095515425068158  0.3330732806134027  0.1110426650823061   T   T   T
  0.8100657167183754  0.4760371863808975  0.1110741574342640   T   T   T
  0.8103325260441587  0.6192131355313664  0.1111085334359874   T   T   T
  0.8101369257469644  0.7624607152601609  0.1110190456657735   T   T   T

  0.00000000E+00  0.00000000E+00  0.00000000E+00
  0.00000000E+00  0.00000000E+00  0.00000000E+00
  0.00000000E+00  0.00000000E+00  0.00000000E+00
  0.00000000E+00  0.00000000E+00  0.00000000E+00
  0.00000000E+00  0.00000000E+00  0.00000000E+00
  0.00000000E+00  0.00000000E+00  0.00000000E+00
  0.00000000E+00  0.00000000E+00  0.00000000E+00
  0.00000000E+00  0.00000000E+00  0.00000000E+00
  0.00000000E+00  0.00000000E+00  0.00000000E+00
  0.00000000E+00  0.00000000E+00  0.00000000E+00
  0.00000000E+00  0.00000000E+00  0.00000000E+00
  0.00000000E+00  0.00000000E+00  0.00000000E+00
  0.00000000E+00  0.00000000E+00  0.00000000E+00
  0.00000000E+00  0.00000000E+00  0.00000000E+00
  0.00000000E+00  0.00000000E+00  0.00000000E+00
  0.00000000E+00  0.00000000E+00  0.00000000E+00
  0.00000000E+00  0.00000000E+00  0.00000000E+00
  0.00000000E+00  0.00000000E+00  0.00000000E+00
  0.00000000E+00  0.00000000E+00  0.00000000E+00
  0.00000000E+00  0.00000000E+00  0.00000000E+00
  0.00000000E+00  0.00000000E+00  0.00000000E+00
  0.00000000E+00  0.00000000E+00  0.00000000E+00
  0.00000000E+00  0.00000000E+00  0.00000000E+00
  0.00000000E+00  0.00000000E+00  0.00000000E+00
  0.00000000E+00  0.00000000E+00  0.00000000E+00
  0.00000000E+00  0.00000000E+00  0.00000000E+00
  0.00000000E+00  0.00000000E+00  0.00000000E+00
  0.00000000E+00  0.00000000E+00  0.00000000E+00
  0.00000000E+00  0.00000000E+00  0.00000000E+00
  0.00000000E+00  0.00000000E+00  0.00000000E+00
  0.00000000E+00  0.00000000E+00  0.00000000E+00
  0.00000000E+00  0.00000000E+00  0.00000000E+00
  0.00000000E+00  0.00000000E+00  0.00000000E+00
  0.00000000E+00  0.00000000E+00  0.00000000E+00
  0.00000000E+00  0.00000000E+00  0.00000000E+00
  0.00000000E+00  0.00000000E+00  0.00000000E+00
  0.00000000E+00  0.00000000E+00  0.00000000E+00
  0.00000000E+00  0.00000000E+00  0.00000000E+00
  0.00000000E+00  0.00000000E+00  0.00000000E+00
  0.00000000E+00  0.00000000E+00  0.00000000E+00
  0.00000000E+00  0.00000000E+00  0.00000000E+00
  0.00000000E+00  0.00000000E+00  0.00000000E+00
  0.00000000E+00  0.00000000E+00  0.00000000E+00
  0.00000000E+00  0.00000000E+00  0.00000000E+00
  0.00000000E+00  0.00000000E+00  0.00000000E+00
  0.00000000E+00  0.00000000E+00  0.00000000E+00
  0.00000000E+00  0.00000000E+00  0.00000000E+00
  0.00000000E+00  0.00000000E+00  0.00000000E+00
  0.00000000E+00  0.00000000E+00  0.00000000E+00
  0.00000000E+00  0.00000000E+00  0.00000000E+00
  0.00000000E+00  0.00000000E+00  0.00000000E+00
  0.00000000E+00  0.00000000E+00  0.00000000E+00
  0.00000000E+00  0.00000000E+00  0.00000000E+00
  0.00000000E+00  0.00000000E+00  0.00000000E+00
  0.00000000E+00  0.00000000E+00  0.00000000E+00
  0.00000000E+00  0.00000000E+00  0.00000000E+00
  0.00000000E+00  0.00000000E+00  0.00000000E+00
  0.00000000E+00  0.00000000E+00  0.00000000E+00
  0.00000000E+00  0.00000000E+00  0.00000000E+00
  0.00000000E+00  0.00000000E+00  0.00000000E+00
  0.00000000E+00  0.00000000E+00  0.00000000E+00
  0.00000000E+00  0.00000000E+00  0.00000000E+00
  0.00000000E+00  0.00000000E+00  0.00000000E+00
  0.00000000E+00  0.00000000E+00  0.00000000E+00
  0.00000000E+00  0.00000000E+00  0.00000000E+00
  0.00000000E+00  0.00000000E+00  0.00000000E+00
  0.00000000E+00  0.00000000E+00  0.00000000E+00
  0.00000000E+00  0.00000000E+00  0.00000000E+00
  0.00000000E+00  0.00000000E+00  0.00000000E+00
  0.00000000E+00  0.00000000E+00  0.00000000E+00
  0.00000000E+00  0.00000000E+00  0.00000000E+00
  0.00000000E+00  0.00000000E+00  0.00000000E+00
  0.00000000E+00  0.00000000E+00  0.00000000E+00
  0.00000000E+00  0.00000000E+00  0.00000000E+00
  0.00000000E+00  0.00000000E+00  0.00000000E+00
  0.00000000E+00  0.00000000E+00  0.00000000E+00
  0.00000000E+00  0.00000000E+00  0.00000000E+00
  0.00000000E+00  0.00000000E+00  0.00000000E+00
  0.00000000E+00  0.00000000E+00  0.00000000E+00
  0.00000000E+00  0.00000000E+00  0.00000000E+00
  0.00000000E+00  0.00000000E+00  0.00000000E+00
  0.00000000E+00  0.00000000E+00  0.00000000E+00
  0.00000000E+00  0.00000000E+00  0.00000000E+00
  0.00000000E+00  0.00000000E+00  0.00000000E+00
  0.00000000E+00  0.00000000E+00  0.00000000E+00
  0.00000000E+00  0.00000000E+00  0.00000000E+00
  0.00000000E+00  0.00000000E+00  0.00000000E+00
  0.00000000E+00  0.00000000E+00  0.00000000E+00
  0.00000000E+00  0.00000000E+00  0.00000000E+00
  0.00000000E+00  0.00000000E+00  0.00000000E+00
  0.00000000E+00  0.00000000E+00  0.00000000E+00
  0.00000000E+00  0.00000000E+00  0.00000000E+00
  0.00000000E+00  0.00000000E+00  0.00000000E+00
  0.00000000E+00  0.00000000E+00  0.00000000E+00
  0.00000000E+00  0.00000000E+00  0.00000000E+00
  0.00000000E+00  0.00000000E+00  0.00000000E+00
  0.00000000E+00  0.00000000E+00  0.00000000E+00
