 C N B 
 1.0
 14.936314146199660   0.000000000000000   0.000000000000000
 -7.468157073099825  12.935227489513863   0.000000000000000
  0.000000000000001   0.000000000000001  13.341276283792837
 C N B 
   3 141 143
Cartesian
  2.563974088888231   5.655493333831570   5.002978606422314 
  3.734078536549933   4.921752609414456   5.002978606422314 
  4.904182984211603   5.655493333831570   5.002978606422314 
  1.244977161431523   0.718330239212378   1.675601123807897 
  4.978295188559592   7.185408170155662   1.685234883976876 
  6.223179911668306   0.718330239212378   1.675601123807897 
  9.957431495026139   7.186168544192362   1.671874416813847 
 11.202235609649739   0.718681074944992   1.668934600891909 
 -3.734078536549859   9.341726845174586   8.336011112914671 
  1.244745904278756   9.341600042496760   8.331267102863466 
  2.489607690312593   2.874360582380955   8.318325372636069 
  6.223411168821054   9.341600042496760   8.331267102863466 
  7.467931360804662   2.874327439180818   8.329619457376914 
 12.447048166451715   2.874746824544825   8.336259587039148 
 -1.244615855876273   9.341617059515690   1.671320595400375 
  0.000225712295277   2.874327439180818   1.676337755467726 
  4.978549382787240   2.874360582380954   1.687631840208573 
  3.734078536549963   9.341836555944672   1.674534921418713 
  8.712772928976111   9.341617059515690   1.671320595400375 
  9.957423052847762   2.874746824544824   1.669697625805467 
 -4.978694562950349  11.497410652439683   8.334998071074756 
 -0.000206975457878  11.497620197839472   8.336215440514701 
  1.245182005110447   5.029898702352785   8.320128450566493 
  6.222975067989492   5.029898702352785   8.320128450566493 
  4.978879223476861  11.497769917597514   8.336578362282712 
 11.202235609649748   5.030599124627276   8.336336246283716 
 -1.244589317190571   5.030417876776619   1.674643643251609 
 -2.489462510149365  11.497410652439683   1.670959141769859 
  2.489277849623083  11.497769917597514   1.669378850561903 
  3.734078536549925   5.029735421253204   1.650668061147470 
  7.468364048557733  11.497620197839472   1.669741772329927 
  8.712746390290508   5.030417876776619   1.674643643251609 
  0.000493737745070   7.185686332969507   8.326139901675306 
  1.244977161431524   0.718330239212379   8.330356089036744 
  4.978295188559593   7.185408170155663   8.320722328867753 
  6.223179911668307   0.718330239212379   8.330356089036744 
  9.957431495026139   7.186168544192363   8.334082796030780 
 -2.489274421926303   7.186168544192362   1.671874416813847 
 11.202235609649739   0.718681074944993   8.337022611952705 
  3.734078536549908   0.718153728567013   1.679195534616829 
  2.489861884540217   7.185408170155662   1.685234883976876 
  7.467663335354782   7.185686332969506   1.679817311169322 
  8.712614342995964   0.718473219165094   1.669787934742045 
  2.489861884540217   7.185408170155663   8.320722328867753 
 13.691856876303511   0.718473219165094   1.669787934742045 
 -1.244615855876272   9.341617059515690   8.334636617444239 
  0.000225712295277   2.874327439180818   8.329619457376914 
  4.978549382787241   2.874360582380955   8.318325372636069 
  3.734078536549963   9.341836555944672   8.331422291425914 
  8.712772928976111   9.341617059515690   8.334636617444239 
  9.957423052847762   2.874746824544825   8.336259587039148 
 -3.734078536549859   9.341726845174586   1.669946099929958 
  1.244745904278756   9.341600042496760   1.674690109981162 
  2.489607690312592   2.874360582380954   1.687631840208573 
  6.223411168821054   9.341600042496760   1.674690109981162 
  7.467931360804661   2.874327439180818   1.676337755467726 
 12.447048166451715   2.874746824544824   1.669697625805467 
 -1.244589317190571   5.030417876776620   8.331313569593018 
 -2.489462510149365  11.497410652439683   8.334998071074756 
  2.489277849623084  11.497769917597514   8.336578362282712 
  3.734078536549926   5.029735421253205   8.355289151697145 
  7.468364048557734  11.497620197839472   8.336215440514701 
 -4.978694562950350  11.497410652439683   1.670959141769859 
  8.712746390290508   5.030417876776620   8.331313569593018 
 -0.000206975457878  11.497620197839472   1.669741772329927 
  1.245182005110447   5.029898702352784   1.685828762278134 
  0.000493737745069   7.185686332969506   1.679817311169322 
  6.222975067989491   5.029898702352784   1.685828762278134 
  4.978879223476860  11.497769917597514   1.669378850561903 
 11.202235609649748   5.030599124627275   1.669620966560912 
 -2.489274421926303   7.186168544192363   8.334082796030780 
  3.734078536549909   0.718153728567013   8.326761678227784 
  7.467663335354783   7.185686332969507   8.326139901675306 
  8.712614342995964   0.718473219165095   8.336169278102568 
 13.691856876303511   0.718473219165095   8.336169278102568 
 -0.001307103365079   1.433561538824313   5.002978606422314 
  3.734078536549919   7.961273001178392   5.002978606422314 
  4.956936958506319   1.470153832470611   5.002978606422314 
  8.703995006816786   7.904930407144540   5.002978606422314 
  9.957607019153729   1.439636756888673   5.002978606422314 
 -4.978811066006541  10.060907556709383  11.673616748318732 
  0.000051925508218  10.060968277267818  11.673616748318732 
  1.244681790618124   3.593311861507417  11.673616748318732 
  4.978757635983294  10.060984200537478  11.673616748318732 
  6.223475282481696   3.593311861507417  11.673616748318732 
 11.202235609649694   3.593188780805288  11.673616748318732 
 -2.488234219229517  10.066434112441314   5.002978606422314 
 -1.248298789434910   3.591495131995884   5.002978606422314 
  2.484148838292065  10.081473729923795   5.002978606422314 
  7.468262784068033  10.067939209972943   5.002978606422314 
  8.716455862534772   3.591495131995884   5.002978606422314 
 -6.223491233041399  12.216882161630028  11.673616748318732 
 -1.244665840058419  12.216882161630028  11.673616748318732 
  0.000036260912775   5.749148317715718  11.673616748318732 
  4.978824740683503   5.749345561950387  11.673616748318732 
  3.734078536549906  12.216781753607574  11.673616748318732 
  9.957540114166521   5.749076247172847  11.673616748318732 
 -2.493821193712237   5.751086788558634   5.002978606422314 
 -3.734078536549910  12.228625377053225   5.002978606422314 
  1.241618737929755  12.223694109496666   5.002978606422314 
  6.226538335170070  12.223694109496666   5.002978606422314 
  7.480466839202235   5.740939032671867   5.002978606422314 
 -1.244609826073092   7.904957848038467  11.673616748318732 
 -0.000003883794682   1.437403829223114  11.673616748318732 
  3.734078536549912   7.905127470657084  11.673616748318732 
  4.978791875451796   1.437523145286373  11.673616748318732 
  8.712766899172809   7.904957848038467  11.673616748318732 
 -3.734078536549903   7.908796842528806   5.002978606422314 
  9.957525013239810   1.437334703932628  11.673616748318732 
  2.511220114593394   1.470153832470611   5.002978606422314 
  1.261105052420466   7.903980081097087   5.002978606422314 
  6.207052020679279   7.903980081097087   5.002978606422314 
  7.469464176464911   1.433561538824313   5.002978606422314 
  1.244763935555585   7.905082654214531  11.673616748318732 
 12.446864200145624   1.439636756888673   5.002978606422314 
 -2.489346007093264  10.060907556709383  11.673616748318732 
 -1.244694588808044   3.593205254108732  11.673616748318732 
  3.734078536549850   3.593285454211237  11.673616748318732 
  2.489399437116544  10.060984200537478  11.673616748318732 
  7.468105147591487  10.060968277267818  11.673616748318732 
  8.712851661907877   3.593205254108732  11.673616748318732 
 -4.979922853870290  10.066434112441314   5.002978606422314 
 -0.000105710968312  10.067939209972943   5.002978606422314 
  1.236996118065564   3.579416854990175   5.002978606422314 
  4.984008234807773  10.081473729923795   5.002978606422314 
  6.231160955034284   3.579416854990175   5.002978606422314 
 11.202235609649678   3.594436729656118   5.002978606422314 
 -2.489383041066686   5.749076247172847  11.673616748318732 
 -3.734078536549894  12.216896589189901  11.673616748318732 
  1.244674485315555  12.216816188976452  11.673616748318732 
  2.489332332416319   5.749345561950387  11.673616748318732 
  6.223482587784315  12.216816188976452  11.673616748318732 
 -6.217359323992330  12.230118503840174   5.002978606422314 
  7.468120812187061   5.749148317715718  11.673616748318732 
 -1.250797749107490  12.230118503840174   5.002978606422314 
 -0.012309766102384   5.740939032671867   5.002978606422314 
 -1.235837933717056   7.904930407144540   5.002978606422314 
  3.734078536549936  12.225805777376920   5.002978606422314 
  9.961978266812071   5.751086788558634   5.002978606422314 
 -3.734078536549911   7.904912716109982  11.673616748318732 
  2.489365197647933   1.437523145286373  11.673616748318732 
  6.223393137544149   7.905082654214531  11.673616748318732 
  7.468160956894515   1.437403829223114  11.673616748318732 
 12.446946206059593   1.437334703932628  11.673616748318732 
  1.233992531677826   0.720340850138814   5.002978606422314 
  4.948920908754034   7.244614717739272   5.002978606422314 
  6.234164541422005   0.720340850138814   5.002978606422314 
  9.958970493265367   7.188881638341757   5.002978606422314 
 11.202235609649753   0.722319261337556   5.002978606422314 
 -3.734078536549866   9.342148440679271  11.673616748318732 
  1.244619673349660   9.342995137663857  11.673616748318732 
  2.488982751934963   2.874262392553905  11.673616748318732 
  6.223537399750181   9.342995137663857  11.673616748318732 
  7.468952708772990   2.874205099528844  11.673616748318732 
 12.446545869756864   2.874320828778073  11.673616748318732 
 -1.242790150407228   9.348405780472952   5.002978606422314 
 -0.032775093847515   2.851375341050731   5.002978606422314 
  5.048533069055873   2.854311321334470   5.002978606422314 
  3.734078536549986   9.395960614854202   5.002978606422314 
  8.710947223507052   9.348405780472952   5.002978606422314 
  9.966036587916948   2.870924937633549   5.002978606422314 
 -4.978915132548679  11.497884568191060  11.673616748318732 
  0.000281199039892  11.498160981914308  11.673616748318732 
  1.243872176094770   5.030570466492573  11.673616748318732 
  6.224284897005155   5.030570466492573  11.673616748318732 
  4.978626020908790  11.498512250380172  11.673616748318732 
 11.202235609649748   5.030251883413172  11.673616748318732 
 -1.267200700421518   5.026763254274319   5.002978606422314 
 -2.487734653904191  11.499972238639886   5.002978606422314 
  2.487960702219361  11.515960466948435   5.002978606422314 
  7.467359696062325  11.505920820921251   5.002978606422314 
  8.735357773521457   5.026763254274319   5.002978606422314 
 -0.000391914686032   7.186807301236710  11.673616748318732 
  1.244140742024392   0.718346665127307  11.673616748318732 
  4.978997356301710   7.187445777926043  11.673616748318732 
  6.224016331075455   0.718346665127307  11.673616748318732 
  9.957746754898851   7.186397308467688  11.673616748318732 
 -2.490813420165501   7.188881638341757   5.002978606422314 
 11.202235609649769   0.718607557528540  11.673616748318732 
  3.734078536549915   0.709469817225526   5.002978606422314 
  2.519236164345833   7.244614717739272   5.002978606422314 
  7.467917673458833   7.190986578933042   5.002978606422314 
  8.721557425803033   0.716106281158985   5.002978606422314 
  2.489159716798144   7.187445777926043  11.673616748318732 
 13.682913793496441   0.716106281158985   5.002978606422314 
 -1.244685067045255   9.342433650879910  11.673616748318732 
 -0.000795635673051   2.874205099528844  11.673616748318732 
  4.979174321164870   2.874262392553905  11.673616748318732 
  3.734078536549971   9.343268176525406  11.673616748318732 
  8.712842140145122   9.342433650879910  11.673616748318732 
  9.957925349542627   2.874320828778073  11.673616748318732 
 -3.734078536549859   9.345984870759155   5.002978606422314 
  1.246385844171434   9.360203511756238   5.002978606422314 
  2.419624004043960   2.854311321334470   5.002978606422314 
  6.221771228928418   9.360203511756238   5.002978606422314 
  7.500932166947451   2.851375341050731   5.002978606422314 
 12.438434631382561   2.870924937633549   5.002978606422314 
 -1.245330922687412   5.030363959098161  11.673616748318732 
 -2.489241940551036  11.497884568191060  11.673616748318732 
  2.489531052191142  11.498512250380172  11.673616748318732 
  3.734078536549926   5.030671443568010  11.673616748318732 
  7.467875874059949  11.498160981914308  11.673616748318732 
 -4.980422419195509  11.499972238639886   5.002978606422314 
  8.713487995787350   5.030363959098161  11.673616748318732 
  0.000797377037529  11.505920820921251   5.002978606422314 
  1.175213971913501   4.995325187513687   5.002978606422314 
  0.000239399641005   7.190986578933042   5.002978606422314 
  6.292943101186452   4.995325187513687   5.002978606422314 
  4.980196370880583  11.515960466948435   5.002978606422314 
 11.202235609649724   5.030044993595213   5.002978606422314 
 -2.489589681799028   7.186397308467688  11.673616748318732 
  3.734078536549924   0.718206853800620  11.673616748318732 
  7.468548987785885   7.186807301236710  11.673616748318732 
  8.713288695324168   0.718532153155806  11.673616748318732 
 13.691182523975323   0.718532153155806  11.673616748318732 
 -0.001356408098009   1.435572822730614   1.665501853997875 
  3.734078536549912   7.907776973239566   1.671871095605911 
  4.979451213074879   1.434066226390321   1.669383856664850 
  8.714581672415298   7.905648396397964   1.667476383966786 
  9.958106415105195   1.436907674745288   1.663656964860826 
 -4.978365343114083  10.059619138066514   8.341464034810864 
 -0.000721417818644  10.060791375231574   8.340208995288290 
  1.242418140354581   3.591547115067271   8.336233253805499 
  4.979084397814112  10.061962940726056   8.339639228246162 
  6.225738932745238   3.591547115067271   8.336233253805499 
 11.202235609649692   3.593515157656063   8.342066303126858 
 -2.489791729985737  10.059619138066514   1.664493178033737 
 -1.246632728677437   3.593043717353333   1.665648227750093 
  3.734078536549863   3.593009382427053   1.660910078649409 
  2.489072675285740  10.061962940726056   1.666317984598452 
  7.468878490918378  10.060791375231574   1.665748217556352 
  8.714789801777254   3.593043717353333   1.665648227750093 
 -6.223726758645358  12.214465206973070   8.341203368334961 
 -1.244430314454462  12.214465206973070   8.341203368334961 
 -0.002697368751178   5.749515002663204   8.334611958319099 
  4.978312217518465   5.748640519959865   8.346966103123474 
  3.734078536549934  12.216816019785938   8.341994921587260 
  9.958683272324022   5.749466417285784   8.340186735663066 
 -2.490526199224186   5.749466417285783   1.665770477181576 
 -3.734078536549910  12.213507433777814   1.665374991028779 
  1.244828150840172  12.216091735196775   1.663779482597129 
  2.489844855581385   5.748640519959864   1.658991109721140 
  6.223328922259641  12.216091735196775   1.663779482597129 
  7.470854441851012   5.749515002663203   1.671345254525515 
 -1.246424599315594   7.905648396397964   8.338480828877842 
 -0.001356408098009   1.435572822730615   8.340455358846766 
  3.734078536549913   7.907776973239566   8.334086117238703 
  4.979451213074880   1.434066226390321   8.336573356179791 
  8.714581672415298   7.905648396397964   8.338480828877842 
 -3.734078536549912   7.905141706083257   1.665485889691286 
  9.958106415105195   1.436907674745288   8.342300247983802 
  2.488705860024833   1.434066226390321   1.669383856664850 
  1.243077755061095   7.906715530274207   1.672085502616753 
  6.225079318038665   7.906715530274207   1.672085502616753 
  7.469513481197840   1.435572822730614   1.665501853997875 
  1.243077755061095   7.906715530274208   8.333871710227861 
 12.446364804194177   1.436907674745288   1.663656964860826 
 -2.489791729985737  10.059619138066514   8.341464034810864 
 -1.246632728677436   3.593043717353334   8.340308985094522 
  3.734078536549864   3.593009382427054   8.345047134195218 
  2.489072675285741  10.061962940726056   8.339639228246162 
  7.468878490918379  10.060791375231574   8.340208995288290 
  8.714789801777254   3.593043717353334   8.340308985094522 
 -4.978365343114084  10.059619138066514   1.664493178033737 
 -0.000721417818644  10.060791375231574   1.665748217556352 
  1.242418140354580   3.591547115067270   1.669723959039115 
  4.979084397814111  10.061962940726056   1.666317984598452 
  6.225738932745237   3.591547115067270   1.669723959039115 
 11.202235609649692   3.593515157656062   1.663890909717770 
 -2.490526199224186   5.749466417285784   8.340186735663066 
 -3.734078536549909  12.213507433777814   8.340582221815836 
  1.244828150840172  12.216091735196775   8.342177730247512 
  2.489844855581386   5.748640519959865   8.346966103123474 
  6.223328922259642  12.216091735196775   8.342177730247512 
 -6.223726758645359  12.214465206973070   1.664753844509653 
  7.470854441851013   5.749515002663204   8.334611958319099 
 -1.244430314454462  12.214465206973070   1.664753844509653 
 -0.002697368751179   5.749515002663203   1.671345254525515 
 -1.246424599315595   7.905648396397964   1.667476383966786 
  4.978312217518464   5.748640519959864   1.658991109721140 
  3.734078536549934  12.216816019785938   1.663962291257355 
  9.958683272324022   5.749466417285783   1.665770477181576 
 -3.734078536549911   7.905141706083258   8.340471323153329 
  2.488705860024833   1.434066226390321   8.336573356179791 
  6.225079318038666   7.906715530274208   8.333871710227861 
  7.469513481197841   1.435572822730615   8.340455358846766 
 12.446364804194177   1.436907674745288   8.342300247983802 
Generated by cif2cell 2.0.0.  :  Failed to get author information, No journal information. Species order: C N B 
 1.0
 14.936314146199660   0.000000000000000   0.000000000000000
 -7.468157073099825  12.935227489513863   0.000000000000000
  0.000000000000001   0.000000000000001  13.341276283792837
 C N B 
   3 141 143
Cartesian
  2.563974088888231   5.655493333831570   5.002978606422314 
  3.734078536549933   4.921752609414456   5.002978606422314 
  4.904182984211603   5.655493333831570   5.002978606422314 
  1.244977161431523   0.718330239212378   1.675601123807897 
  4.978295188559592   7.185408170155662   1.685234883976876 
  6.223179911668306   0.718330239212378   1.675601123807897 
  9.957431495026139   7.186168544192362   1.671874416813847 
 11.202235609649739   0.718681074944992   1.668934600891909 
 -3.734078536549859   9.341726845174586   8.336011112914671 
  1.244745904278756   9.341600042496760   8.331267102863466 
  2.489607690312593   2.874360582380955   8.318325372636069 
  6.223411168821054   9.341600042496760   8.331267102863466 
  7.467931360804662   2.874327439180818   8.329619457376914 
 12.447048166451715   2.874746824544825   8.336259587039148 
 -1.244615855876273   9.341617059515690   1.671320595400375 
  0.000225712295277   2.874327439180818   1.676337755467726 
  4.978549382787240   2.874360582380954   1.687631840208573 
  3.734078536549963   9.341836555944672   1.674534921418713 
  8.712772928976111   9.341617059515690   1.671320595400375 
  9.957423052847762   2.874746824544824   1.669697625805467 
 -4.978694562950349  11.497410652439683   8.334998071074756 
 -0.000206975457878  11.497620197839472   8.336215440514701 
  1.245182005110447   5.029898702352785   8.320128450566493 
  6.222975067989492   5.029898702352785   8.320128450566493 
  4.978879223476861  11.497769917597514   8.336578362282712 
 11.202235609649748   5.030599124627276   8.336336246283716 
 -1.244589317190571   5.030417876776619   1.674643643251609 
 -2.489462510149365  11.497410652439683   1.670959141769859 
  2.489277849623083  11.497769917597514   1.669378850561903 
  3.734078536549925   5.029735421253204   1.650668061147470 
  7.468364048557733  11.497620197839472   1.669741772329927 
  8.712746390290508   5.030417876776619   1.674643643251609 
  0.000493737745070   7.185686332969507   8.326139901675306 
  1.244977161431524   0.718330239212379   8.330356089036744 
  4.978295188559593   7.185408170155663   8.320722328867753 
  6.223179911668307   0.718330239212379   8.330356089036744 
  9.957431495026139   7.186168544192363   8.334082796030780 
 -2.489274421926303   7.186168544192362   1.671874416813847 
 11.202235609649739   0.718681074944993   8.337022611952705 
  3.734078536549908   0.718153728567013   1.679195534616829 
  2.489861884540217   7.185408170155662   1.685234883976876 
  7.467663335354782   7.185686332969506   1.679817311169322 
  8.712614342995964   0.718473219165094   1.669787934742045 
  2.489861884540217   7.185408170155663   8.320722328867753 
 13.691856876303511   0.718473219165094   1.669787934742045 
 -1.244615855876272   9.341617059515690   8.334636617444239 
  0.000225712295277   2.874327439180818   8.329619457376914 
  4.978549382787241   2.874360582380955   8.318325372636069 
  3.734078536549963   9.341836555944672   8.331422291425914 
  8.712772928976111   9.341617059515690   8.334636617444239 
  9.957423052847762   2.874746824544825   8.336259587039148 
 -3.734078536549859   9.341726845174586   1.669946099929958 
  1.244745904278756   9.341600042496760   1.674690109981162 
  2.489607690312592   2.874360582380954   1.687631840208573 
  6.223411168821054   9.341600042496760   1.674690109981162 
  7.467931360804661   2.874327439180818   1.676337755467726 
 12.447048166451715   2.874746824544824   1.669697625805467 
 -1.244589317190571   5.030417876776620   8.331313569593018 
 -2.489462510149365  11.497410652439683   8.334998071074756 
  2.489277849623084  11.497769917597514   8.336578362282712 
  3.734078536549926   5.029735421253205   8.355289151697145 
  7.468364048557734  11.497620197839472   8.336215440514701 
 -4.978694562950350  11.497410652439683   1.670959141769859 
  8.712746390290508   5.030417876776620   8.331313569593018 
 -0.000206975457878  11.497620197839472   1.669741772329927 
  1.245182005110447   5.029898702352784   1.685828762278134 
  0.000493737745069   7.185686332969506   1.679817311169322 
  6.222975067989491   5.029898702352784   1.685828762278134 
  4.978879223476860  11.497769917597514   1.669378850561903 
 11.202235609649748   5.030599124627275   1.669620966560912 
 -2.489274421926303   7.186168544192363   8.334082796030780 
  3.734078536549909   0.718153728567013   8.326761678227784 
  7.467663335354783   7.185686332969507   8.326139901675306 
  8.712614342995964   0.718473219165095   8.336169278102568 
 13.691856876303511   0.718473219165095   8.336169278102568 
 -0.001307103365079   1.433561538824313   5.002978606422314 
  3.734078536549919   7.961273001178392   5.002978606422314 
  4.956936958506319   1.470153832470611   5.002978606422314 
  8.703995006816786   7.904930407144540   5.002978606422314 
  9.957607019153729   1.439636756888673   5.002978606422314 
 -4.978811066006541  10.060907556709383  11.673616748318732 
  0.000051925508218  10.060968277267818  11.673616748318732 
  1.244681790618124   3.593311861507417  11.673616748318732 
  4.978757635983294  10.060984200537478  11.673616748318732 
  6.223475282481696   3.593311861507417  11.673616748318732 
 11.202235609649694   3.593188780805288  11.673616748318732 
 -2.488234219229517  10.066434112441314   5.002978606422314 
 -1.248298789434910   3.591495131995884   5.002978606422314 
  2.484148838292065  10.081473729923795   5.002978606422314 
  7.468262784068033  10.067939209972943   5.002978606422314 
  8.716455862534772   3.591495131995884   5.002978606422314 
 -6.223491233041399  12.216882161630028  11.673616748318732 
 -1.244665840058419  12.216882161630028  11.673616748318732 
  0.000036260912775   5.749148317715718  11.673616748318732 
  4.978824740683503   5.749345561950387  11.673616748318732 
  3.734078536549906  12.216781753607574  11.673616748318732 
  9.957540114166521   5.749076247172847  11.673616748318732 
 -2.493821193712237   5.751086788558634   5.002978606422314 
 -3.734078536549910  12.228625377053225   5.002978606422314 
  1.241618737929755  12.223694109496666   5.002978606422314 
  6.226538335170070  12.223694109496666   5.002978606422314 
  7.480466839202235   5.740939032671867   5.002978606422314 
 -1.244609826073092   7.904957848038467  11.673616748318732 
 -0.000003883794682   1.437403829223114  11.673616748318732 
  3.734078536549912   7.905127470657084  11.673616748318732 
  4.978791875451796   1.437523145286373  11.673616748318732 
  8.712766899172809   7.904957848038467  11.673616748318732 
 -3.734078536549903   7.908796842528806   5.002978606422314 
  9.957525013239810   1.437334703932628  11.673616748318732 
  2.511220114593394   1.470153832470611   5.002978606422314 
  1.261105052420466   7.903980081097087   5.002978606422314 
  6.207052020679279   7.903980081097087   5.002978606422314 
  7.469464176464911   1.433561538824313   5.002978606422314 
  1.244763935555585   7.905082654214531  11.673616748318732 
 12.446864200145624   1.439636756888673   5.002978606422314 
 -2.489346007093264  10.060907556709383  11.673616748318732 
 -1.244694588808044   3.593205254108732  11.673616748318732 
  3.734078536549850   3.593285454211237  11.673616748318732 
  2.489399437116544  10.060984200537478  11.673616748318732 
  7.468105147591487  10.060968277267818  11.673616748318732 
  8.712851661907877   3.593205254108732  11.673616748318732 
 -4.979922853870290  10.066434112441314   5.002978606422314 
 -0.000105710968312  10.067939209972943   5.002978606422314 
  1.236996118065564   3.579416854990175   5.002978606422314 
  4.984008234807773  10.081473729923795   5.002978606422314 
  6.231160955034284   3.579416854990175   5.002978606422314 
 11.202235609649678   3.594436729656118   5.002978606422314 
 -2.489383041066686   5.749076247172847  11.673616748318732 
 -3.734078536549894  12.216896589189901  11.673616748318732 
  1.244674485315555  12.216816188976452  11.673616748318732 
  2.489332332416319   5.749345561950387  11.673616748318732 
  6.223482587784315  12.216816188976452  11.673616748318732 
 -6.217359323992330  12.230118503840174   5.002978606422314 
  7.468120812187061   5.749148317715718  11.673616748318732 
 -1.250797749107490  12.230118503840174   5.002978606422314 
 -0.012309766102384   5.740939032671867   5.002978606422314 
 -1.235837933717056   7.904930407144540   5.002978606422314 
  3.734078536549936  12.225805777376920   5.002978606422314 
  9.961978266812071   5.751086788558634   5.002978606422314 
 -3.734078536549911   7.904912716109982  11.673616748318732 
  2.489365197647933   1.437523145286373  11.673616748318732 
  6.223393137544149   7.905082654214531  11.673616748318732 
  7.468160956894515   1.437403829223114  11.673616748318732 
 12.446946206059593   1.437334703932628  11.673616748318732 
  1.233992531677826   0.720340850138814   5.002978606422314 
  4.948920908754034   7.244614717739272   5.002978606422314 
  6.234164541422005   0.720340850138814   5.002978606422314 
  9.958970493265367   7.188881638341757   5.002978606422314 
 11.202235609649753   0.722319261337556   5.002978606422314 
 -3.734078536549866   9.342148440679271  11.673616748318732 
  1.244619673349660   9.342995137663857  11.673616748318732 
  2.488982751934963   2.874262392553905  11.673616748318732 
  6.223537399750181   9.342995137663857  11.673616748318732 
  7.468952708772990   2.874205099528844  11.673616748318732 
 12.446545869756864   2.874320828778073  11.673616748318732 
 -1.242790150407228   9.348405780472952   5.002978606422314 
 -0.032775093847515   2.851375341050731   5.002978606422314 
  5.048533069055873   2.854311321334470   5.002978606422314 
  3.734078536549986   9.395960614854202   5.002978606422314 
  8.710947223507052   9.348405780472952   5.002978606422314 
  9.966036587916948   2.870924937633549   5.002978606422314 
 -4.978915132548679  11.497884568191060  11.673616748318732 
  0.000281199039892  11.498160981914308  11.673616748318732 
  1.243872176094770   5.030570466492573  11.673616748318732 
  6.224284897005155   5.030570466492573  11.673616748318732 
  4.978626020908790  11.498512250380172  11.673616748318732 
 11.202235609649748   5.030251883413172  11.673616748318732 
 -1.267200700421518   5.026763254274319   5.002978606422314 
 -2.487734653904191  11.499972238639886   5.002978606422314 
  2.487960702219361  11.515960466948435   5.002978606422314 
  7.467359696062325  11.505920820921251   5.002978606422314 
  8.735357773521457   5.026763254274319   5.002978606422314 
 -0.000391914686032   7.186807301236710  11.673616748318732 
  1.244140742024392   0.718346665127307  11.673616748318732 
  4.978997356301710   7.187445777926043  11.673616748318732 
  6.224016331075455   0.718346665127307  11.673616748318732 
  9.957746754898851   7.186397308467688  11.673616748318732 
 -2.490813420165501   7.188881638341757   5.002978606422314 
 11.202235609649769   0.718607557528540  11.673616748318732 
  3.734078536549915   0.709469817225526   5.002978606422314 
  2.519236164345833   7.244614717739272   5.002978606422314 
  7.467917673458833   7.190986578933042   5.002978606422314 
  8.721557425803033   0.716106281158985   5.002978606422314 
  2.489159716798144   7.187445777926043  11.673616748318732 
 13.682913793496441   0.716106281158985   5.002978606422314 
 -1.244685067045255   9.342433650879910  11.673616748318732 
 -0.000795635673051   2.874205099528844  11.673616748318732 
  4.979174321164870   2.874262392553905  11.673616748318732 
  3.734078536549971   9.343268176525406  11.673616748318732 
  8.712842140145122   9.342433650879910  11.673616748318732 
  9.957925349542627   2.874320828778073  11.673616748318732 
 -3.734078536549859   9.345984870759155   5.002978606422314 
  1.246385844171434   9.360203511756238   5.002978606422314 
  2.419624004043960   2.854311321334470   5.002978606422314 
  6.221771228928418   9.360203511756238   5.002978606422314 