Species order:X N B                     
   2.51242800000000     
     5.9449720136058266    0.0000000000000000    0.0000000000000000
    -2.9724860068029120    5.1484967885702053   -0.0000000000000001
     0.0000000000000000    0.0000000000000009    5.3101128803662583
   C    N    B 
     3   141   143
Direct
  0.3902686185171829  0.4372163797209045  0.3750000000000000
  0.4402460785248795  0.3804921570497584  0.3750000000000000
  0.5469477612037213  0.4372163797209045  0.3750000000000000
  0.1111188009412705  0.0555328647907204  0.1255952645132940
  0.6110471727161993  0.5554914419541996  0.1263173663545305
  0.4444140638494496  0.0555328647907204  0.1255952645132940
  0.9444343296734130  0.5555502251520464  0.1253159278955089
  0.7777799936463271  0.0555599872926552  0.1250955729714825
  0.1110963492040510  0.7221926984080953  0.6248286097666212
  0.4444283334228762  0.7221828955130218  0.6244730208446700
  0.2777874451277503  0.2222118308094005  0.6235029689581708
  0.7777545620901445  0.7221828955130218  0.6244730208446700
  0.6110895226368259  0.2222092685660870  0.6243495210046619
  0.9444621933747926  0.2222416905211199  0.6248472342309670
  0.2777639267286747  0.7221842110692384  0.1252744160190075
  0.1111197459292675  0.2222092685660870  0.1256504789953390
  0.4444243856816505  0.2222118308094005  0.1264970310418304
  0.6111005899787174  0.7222011799574285  0.1255153469427029
  0.9444202843405629  0.7221842110692384  0.1252744160190075
  0.7777794971463261  0.2222416905211199  0.1251527657690320
  0.1110942469458921  0.8888448743371723  0.6247526768634740
  0.4444166797665881  0.8888610739285556  0.6248439252128858
  0.2777924549723038  0.3888527439065411  0.6236381192910231
  0.6110602889342437  0.3888527439065411  0.6236381192910231
  0.7777768776668329  0.8888726485033486  0.6248711281401242
  0.9444534461688209  0.3889068923376423  0.6248529802512830
  0.1111200381738753  0.3888928803806969  0.1255234962254690
  0.2777506273912871  0.8888448743371723  0.1252473231365250
  0.6110957708365226  0.8888726485033486  0.1251288718598749
  0.4444200604639788  0.3888401209279574  0.1237263981372404
  0.9444443941619686  0.8888610739285556  0.1251560747871144
  0.7777728422068292  0.3888928803806969  0.1255234962254690
  0.2777895293165681  0.5555129462388423  0.6240887096978882
  0.1111188009412705  0.0555328647907204  0.6244047354867072
  0.6110471727161993  0.5554914419541996  0.6236826336454691
  0.4444140638494496  0.0555328647907204  0.6244047354867072
  0.9444343296734130  0.5555502251520464  0.6246840721044913
  0.1111158954786333  0.5555502251520464  0.1253159278955089
  0.7777799936463271  0.0555599872926552  0.6249044270285173
  0.2777596095294492  0.0555192190588990  0.1258646848245497
  0.4444442692379994  0.5554914419541996  0.1263173663545305
  0.7777234169222748  0.5555129462388423  0.1259112903021118
  0.6110895204898197  0.0555439183228536  0.1251595349067560
  0.4444442692379994  0.5554914419541996  0.6236826336454691
  0.9444543978330326  0.0555439183228536  0.1251595349067560
  0.2777639267286747  0.7221842110692384  0.6247255839809917
  0.1111197459292675  0.2222092685660870  0.6243495210046619
  0.4444243856816505  0.2222118308094005  0.6235029689581708
  0.6111005899787174  0.7222011799574285  0.6244846530572969
  0.9444202843405629  0.7221842110692384  0.6247255839809917
  0.7777794971463261  0.2222416905211199  0.6248472342309670
  0.1110963492040510  0.7221926984080953  0.1251713902333786
  0.4444283334228762  0.7221828955130218  0.1255269791553295
  0.2777874451277503  0.2222118308094005  0.1264970310418304
  0.7777545620901445  0.7221828955130218  0.1255269791553295
  0.6110895226368259  0.2222092685660870  0.1256504789953390
  0.9444621933747926  0.2222416905211199  0.1251527657690320
  0.1111200381738753  0.3888928803806969  0.6244765037745306
  0.2777506273912871  0.8888448743371723  0.6247526768634740
  0.6110957708365226  0.8888726485033486  0.6248711281401242
  0.4444200604639788  0.3888401209279574  0.6262736018627593
  0.9444443941619686  0.8888610739285556  0.6248439252128858
  0.1110942469458921  0.8888448743371723  0.1252473231365250
  0.7777728422068292  0.3888928803806969  0.6244765037745306
  0.4444166797665881  0.8888610739285556  0.1251560747871144
  0.2777924549723038  0.3888527439065411  0.1263618807089774
  0.2777895293165681  0.5555129462388423  0.1259112903021118
  0.6110602889342437  0.3888527439065411  0.1263618807089774
  0.7777768776668329  0.8888726485033486  0.1251288718598749
  0.9444534461688209  0.3889068923376423  0.1251470197487167
  0.1111158954786333  0.5555502251520464  0.6246840721044913
  0.2777596095294492  0.0555192190588990  0.6241353151754491
  0.7777234169222748  0.5555129462388423  0.6240887096978882
  0.6110895204898197  0.0555439183228536  0.6248404650932432
  0.9444543978330326  0.0555439183228536  0.6248404650932432
  0.0553255661930009  0.1108261559362947  0.3750000000000000
  0.5577361031196516  0.6154722062393043  0.3750000000000000
  0.3886990198924391  0.1136550426857516  0.3750000000000000
  0.8882987178388152  0.6111164580254026  0.3750000000000000
  0.7223188788529694  0.1112958205068856  0.3750000000000000
  0.0555596656597282  0.7777913117388472  0.8750000000000000
  0.3889014794305863  0.7777960059398948  0.8750000000000000
  0.2222289467570042  0.2777927071186327  0.8750000000000000
  0.7222310314905145  0.7777972369402516  0.8750000000000000
  0.5555637603616285  0.2777927071186327  0.8750000000000000
  0.8888915959815191  0.2777831919630448  0.8750000000000000
  0.2225197055201009  0.7782185601762183  0.3750000000000000
  0.0552513748531528  0.2776522589113631  0.3750000000000000
  0.5560066780066140  0.7793812469163373  0.3750000000000000
  0.8891745357745988  0.7783349166556731  0.3750000000000000
  0.7224008840582117  0.2776522589113631  0.3750000000000000
  0.0555645096581436  0.9444659687302617  0.8750000000000000
  0.3889014590721181  0.9444659687302617  0.8750000000000000
  0.2222307697378981  0.4444566840727270  0.8750000000000000
  0.5555728720831091  0.4444719326823726  0.8750000000000000
  0.7222291031801051  0.9444582063602123  0.8750000000000000
  0.8888920454609958  0.4444511124240701  0.8750000000000000
  0.0553396442860222  0.4446065438911555  0.3750000000000000
  0.2226869081725287  0.9453738163450580  0.3750000000000000
  0.5556238132987321  0.9449925886039489  0.3750000000000000
  0.8893687753052155  0.9449925886039489  0.3750000000000000
  0.7227351694302158  0.4438220384856665  0.3750000000000000
  0.2222315146115938  0.6111185794333136  0.8750000000000000
  0.0555613383474952  0.1111231967422582  0.8750000000000000
  0.5555658463318673  0.6111316926637353  0.8750000000000000
  0.3889009158144380  0.1111324208601446  0.8750000000000000
  0.8888870648217118  0.6111185794333136  0.8750000000000000
  0.0557076827191556  0.6114153654383114  0.3750000000000000
  0.7222244046209747  0.1111178527859538  0.8750000000000000
  0.2249560227933054  0.1136550426857516  0.3750000000000000
  0.3899536406974431  0.6110429899670935  0.3750000000000000
  0.7210893492696436  0.6110429899670935  0.3750000000000000
  0.5555005897432937  0.1108261559362947  0.3750000000000000
  0.3889022068681190  0.6111282279822987  0.8750000000000000
  0.8889769416539083  0.1112958205068856  0.3750000000000000
  0.2222316460791199  0.7777913117388472  0.8750000000000000
  0.0555587826944804  0.2777844654855604  0.8750000000000000
  0.3888953328081814  0.2777906656163713  0.8750000000000000
  0.5555662054497379  0.7777972369402516  0.8750000000000000
  0.8888945265093002  0.7777960059398948  0.8750000000000000
  0.7222256827910801  0.2777844654855604  0.8750000000000000
  0.0556988546561177  0.7782185601762183  0.3750000000000000
  0.3891603808810660  0.7783349166556731  0.3750000000000000
  0.2211772844692451  0.2767185082668148  0.3750000000000000
  0.7233745689097231  0.7793812469163373  0.3750000000000000
  0.5555412237975705  0.2767185082668148  0.3750000000000000
  0.8889398343620123  0.2778796687240330  0.3750000000000000
  0.0555590669630745  0.4444511124240701  0.8750000000000000
  0.2222335420499457  0.9444670840998903  0.8750000000000000
  0.5555625383503705  0.9444608684988495  0.8750000000000000
  0.3888990605992630  0.4444719326823726  0.8750000000000000
  0.8888983301484797  0.9444608684988495  0.8750000000000000
  0.0564866859495884  0.9454892473870062  0.3750000000000000
  0.7222259143348286  0.4444566840727270  0.8750000000000000
  0.3890025614374178  0.9454892473870062  0.3750000000000000
  0.2210868690554511  0.4438220384856665  0.3750000000000000
  0.2228177401865808  0.6111164580254026  0.3750000000000000
  0.7225779189924556  0.9451558379849099  0.3750000000000000
  0.8892668996051336  0.4446065438911555  0.3750000000000000
  0.0555575451811038  0.6111150903622077  0.8750000000000000
  0.2222315050456997  0.1111324208601446  0.8750000000000000
  0.7222260211141729  0.6111282279822987  0.8750000000000000
  0.5555618583947628  0.1111231967422582  0.8750000000000000
  0.8888934481649731  0.1111178527859538  0.8750000000000000
  0.1104610882754859  0.0556883016338730  0.3750000000000000
  0.6113691153542927  0.5600685974492701  0.3750000000000000
  0.4452272133583872  0.0556883016338730  0.3750000000000000
  0.9446422393254406  0.5557599697546509  0.3750000000000000
  0.7779206245859661  0.0558412491719314  0.3750000000000000
  0.1111126456126383  0.7222252912252697  0.8750000000000000
  0.4444738083395470  0.7222907479004830  0.8750000000000000
  0.2777418094847101  0.2222042399241892  0.8750000000000000
  0.7778169395609361  0.7222907479004830  0.8750000000000000
  0.6111531738916152  0.2221998106998008  0.8750000000000000
  0.9444120976511666  0.2222087575273174  0.8750000000000000
  0.2781485715135220  0.7227090353108497  0.3750000000000000
  0.1080231180916413  0.2204348816719492  0.3750000000000000
  0.4483348711892976  0.2206618572149862  0.3750000000000000
  0.6131927085345540  0.7263854170690988  0.3750000000000000
  0.9445604637973273  0.7227090353108497  0.3750000000000000
  0.7782084495350768  0.2219462270733857  0.3750000000000000
  0.1110977984103146  0.8888815119418646  0.8750000000000000
  0.4444702670385963  0.8889028810073473  0.8750000000000000
  0.2777307271725465  0.3889046768269578  0.8750000000000000
  0.6111739496544178  0.3889046768269578  0.8750000000000000
  0.7777886197513997  0.8889300369631385  0.8750000000000000
  0.9444400238608495  0.3888800477216981  0.8750000000000000
  0.1094649189607635  0.3886103478542869  0.3750000000000000
  0.2779653248525229  0.8890429061230282  0.3750000000000000
  0.6117107265123897  0.8902789283206672  0.3750000000000000
  0.9446980052227849  0.8895027807008961  0.3750000000000000
  0.7791454288935300  0.3886103478542869  0.3750000000000000
  0.2777735641260974  0.5555996063511685  0.8750000000000000
  0.1110634368204680  0.0555341346497115  0.8750000000000000
  0.6111729454549394  0.5556489658765300  0.8750000000000000
  0.4444706978292436  0.0555341346497115  0.8750000000000000
  0.9444642792971474  0.5555679105213615  0.8750000000000000
  0.1111177304292120  0.5557599697546509  0.3750000000000000
  0.7777771518943573  0.0555543037887109  0.8750000000000000
  0.2774239404680227  0.0548478809360460  0.3750000000000000
  0.4486994820949793  0.5600685974492701  0.3750000000000000
  0.7779453215036483  0.5559226990605711  0.3750000000000000
  0.6115967761914564  0.0553609344512496  0.3750000000000000
  0.4444760204215918  0.5556489658765300  0.8750000000000000
  0.9437641582597927  0.0553609344512496  0.3750000000000000
  0.2777908576080763  0.7222473403311614  0.8750000000000000
  0.1110466368081926  0.2221998106998008  0.8750000000000000
  0.4444624304394788  0.2222042399241892  0.8750000000000000
  0.6111559280306341  0.7223118560612608  0.8750000000000000
  0.9444564827230866  0.7222473403311614  0.8750000000000000
  0.7777966598761503  0.2222087575273174  0.8750000000000000
  0.1112609394900750  0.7225218789801426  0.3750000000000000
  0.4452572298799479  0.7236210974522275  0.3750000000000000
  0.2723269860256879  0.2206618572149862  0.3750000000000000
  0.7783638675722799  0.7236210974522275  0.3750000000000000
  0.6124117635803148  0.2204348816719492  0.3750000000000000
  0.9437377775383097  0.2219462270733857  0.3750000000000000
  0.1110683028611702  0.3888887120984997  0.8750000000000000
  0.2777837135315567  0.8888815119418646  0.8750000000000000
  0.6111414172117453  0.8889300369631385  0.8750000000000000
  0.4444562415947536  0.3889124831895073  0.8750000000000000
  0.9444326139687508  0.8889028810073473  0.8750000000000000
  0.1110775812705129  0.8890429061230282  0.3750000000000000
  0.7778204092373374  0.3888887120984997  0.8750000000000000
  0.4448047754781118  0.8895027807008961  0.3750000000000000
  0.2717716214242217  0.3861799254449312  0.3750000000000000
  0.2779773775569228  0.5559226990605711  0.3750000000000000
  0.6144083040207173  0.3861799254449312  0.3750000000000000
  0.7785682018082842  0.8902789283206672  0.3750000000000000
  0.9444320267143682  0.3888640534287393  0.3750000000000000
  0.1111036312242134  0.5555679105213615  0.8750000000000000
  0.2777616630392799  0.0555233260785595  0.8750000000000000
  0.7778260422250721  0.5555996063511685  0.8750000000000000
  0.6111369470420921  0.0555484744074503  0.8750000000000000
  0.9444115273653579  0.0555484744074503  0.8750000000000000
  0.0554000096307128  0.1109816448063538  0.1248382702351456
  0.5556682605563033  0.6113365211126066  0.1253156789532145
  0.3888114348742923  0.1108651724566009  0.1251292470940609
  0.8890352581110385  0.6111719645291744  0.1249862718151230
  0.7222468235689062  0.1110848399001977  0.1246999859287717
  0.0555397045130284  0.7776917063284354  0.6252373354222633
  0.3888428653872191  0.7777823299503241  0.6251432634987171
  0.2220091785421905  0.2776562776324431  0.6248452604142885
  0.7222907408494246  0.7778729016465260  0.6251005564120781
  0.5556470990902521  0.2776562776324431  0.6248452604142885
  0.8889042117956216  0.2778084235912508  0.6252824786531790
  0.2221520018154070  0.7776917063284354  0.1247626645777352
  0.0554227783805160  0.2777719773591993  0.1248492417306092
  0.3888846614927990  0.2777693229856046  0.1244940921182410
  0.5555821607971015  0.7778729016465260  0.1248994435879213
  0.8889394645630980  0.7777823299503241  0.1248567365012836
  0.7223491989786820  0.2777719773591993  0.1248492417306092
  0.0554553157157956  0.9442791181581389  0.6252177970759794
  0.3888238024423431  0.9442791181581389  0.6252177970759794
  0.2220619246007292  0.4444850318499720  0.6247237356476979
  0.5555113053981120  0.4444174271090388  0.6256497448646261
  0.7222304277095125  0.9444608554190245  0.6252771282250730
  0.8889836626406993  0.4444812757987191  0.6251415950207735
  0.0554976131580195  0.4444812757987191  0.1248584049792277
  0.2221025371868749  0.9442050743737499  0.1248287611772121
  0.5555448232663485  0.9444048622337672  0.1247091692882721
  0.3889061217109284  0.4444174271090388  0.1243502551353733
  0.8888600389674175  0.9444048622337672  0.1247091692882721
  0.7224231072492433  0.4444850318499720  0.1252762643523013
  0.2221367064181272  0.6111719645291744  0.6250137281848773
  0.0554000096307128  0.1109816448063538  0.6251617297648547
  0.5556682605563033  0.6113365211126066  0.6246843210467854
  0.3888114348742923  0.1108651724566009  0.6248707529059395
  0.8890352581110385  0.6111719645291744  0.6250137281848773
  0.0555663965899200  0.6111327931798396  0.1248370736249981
  0.7222468235689062  0.1110848399001977  0.6253000140712283
  0.2220537375823012  0.1108651724566009  0.1251292470940609
  0.3888524329376429  0.6112544627981152  0.1253317499052192
  0.7224020298604665  0.6112544627981152  0.1253317499052192
  0.5555816351756409  0.1109816448063538  0.1248382702351456
  0.3888524329376429  0.6112544627981152  0.6246682500947799
  0.8888380163312840  0.1110848399001977  0.1246999859287717
  0.2221520018154070  0.7776917063284354  0.6252373354222633
  0.0554227783805160  0.2777719773591993  0.6251507582693899
  0.3888846614927990  0.2777693229856046  0.6255059078817589
  0.5555821607971015  0.7778729016465260  0.6251005564120781
  0.8889394645630980  0.7777823299503241  0.6251432634987171
  0.7223491989786820  0.2777719773591993  0.6251507582693899
  0.0555397045130283  0.7776917063284354  0.1247626645777352
  0.3888428653872191  0.7777823299503241  0.1248567365012836
  0.2220091785421905  0.2776562776324431  0.1251547395857113
  0.7222907408494246  0.7778729016465260  0.1248994435879213
  0.5556470990902521  0.2776562776324431  0.1251547395857113
  0.8889042117956216  0.2778084235912508  0.1247175213468207
  0.0554976131580195  0.4444812757987191  0.6251415950207735
  0.2221025371868749  0.9442050743737499  0.6251712388227872
  0.5555448232663485  0.9444048622337672  0.6252908307117285
  0.3889061217109284  0.4444174271090388  0.6256497448646261
  0.8888600389674175  0.9444048622337672  0.6252908307117285
  0.0554553157157956  0.9442791181581389  0.1247822029240200
  0.7224231072492433  0.4444850318499720  0.6247237356476979
  0.3888238024423431  0.9442791181581389  0.1247822029240200
  0.2220619246007292  0.4444850318499720  0.1252762643523013
  0.2221367064181272  0.6111719645291744  0.1249862718151230
  0.5555113053981120  0.4444174271090388  0.1243502551353733
  0.7222304277095125  0.9444608554190245  0.1247228717749265
  0.8889836626406993  0.4444812757987191  0.1248584049792277
  0.0555663965899200  0.6111327931798396  0.6251629263750010
  0.2220537375823012  0.1108651724566009  0.6248707529059395
  0.7224020298604665  0.6112544627981152  0.6246682500947799
  0.5555816351756409  0.1109816448063538  0.6251617297648547
  0.8888380163312840  0.1110848399001977  0.6253000140712283
 
  0.00000000E+00  0.00000000E+00  0.00000000E+00
  0.00000000E+00  0.00000000E+00  0.00000000E+00
  0.00000000E+00  0.00000000E+00  0.00000000E+00
  0.00000000E+00  0.00000000E+00  0.00000000E+00
  0.00000000E+00  0.00000000E+00  0.00000000E+00
  0.00000000E+00  0.00000000E+00  0.00000000E+00
  0.00000000E+00  0.00000000E+00  0.00000000E+00
  0.00000000E+00  0.00000000E+00  0.00000000E+00
  0.00000000E+00  0.00000000E+00  0.00000000E+00
  0.00000000E+00  0.00000000E+00  0.00000000E+00
  0.00000000E+00  0.00000000E+00  0.00000000E+00
  0.00000000E+00  0.00000000E+00  0.00000000E+00
  0.00000000E+00  0.00000000E+00  0.00000000E+00
  0.00000000E+00  0.00000000E+00  0.00000000E+00
  0.00000000E+00  0.00000000E+00  0.00000000E+00
  0.00000000E+00  0.00000000E+00  0.00000000E+00
  0.00000000E+00  0.00000000E+00  0.00000000E+00
  0.00000000E+00  0.00000000E+00  0.00000000E+00
  0.00000000E+00  0.00000000E+00  0.00000000E+00
  0.00000000E+00  0.00000000E+00  0.00000000E+00
  0.00000000E+00  0.00000000E+00  0.00000000E+00
  0.00000000E+00  0.00000000E+00  0.00000000E+00
  0.00000000E+00  0.00000000E+00  0.00000000E+00
  0.00000000E+00  0.00000000E+00  0.00000000E+00
  0.00000000E+00  0.00000000E+00  0.00000000E+00
  0.00000000E+00  0.00000000E+00  0.00000000E+00
  0.00000000E+00  0.00000000E+00  0.00000000E+00
  0.00000000E+00  0.00000000E+00  0.00000000E+00
  0.00000000E+00  0.00000000E+00  0.00000000E+00
  0.00000000E+00  0.00000000E+00  0.00000000E+00
  0.00000000E+00  0.00000000E+00  0.00000000E+00
  0.00000000E+00  0.00000000E+00  0.00000000E+00
  0.00000000E+00  0.00000000E+00  0.00000000E+00
  0.00000000E+00  0.00000000E+00  0.00000000E+00
  0.00000000E+00  0.00000000E+00  0.00000000E+00
  0.00000000E+00  0.00000000E+00  0.00000000E+00
  0.00000000E+00  0.00000000E+00  0.00000000E+00
  0.00000000E+00  0.00000000E+00  0.00000000E+00
  0.00000000E+00  0.00000000E+00  0.00000000E+00
  0.00000000E+00  0.00000000E+00  0.00000000E+00
  0.00000000E+00  0.00000000E+00  0.00000000E+00
  0.00000000E+00  0.00000000E+00  0.00000000E+00
  0.00000000E+00  0.00000000E+00  0.00000000E+00
  0.00000000E+00  0.00000000E+00  0.00000000E+00
  0.00000000E+00  0.00000000E+00  0.00000000E+00
  0.00000000E+00  0.00000000E+00  0.00000000E+00
  0.00000000E+00  0.00000000E+00  0.00000000E+00
  0.00000000E+00  0.00000000E+00  0.00000000E+00
  0.00000000E+00  0.00000000E+00  0.00000000E+00
  0.00000000E+00  0.00000000E+00  0.00000000E+00
  0.00000000E+00  0.00000000E+00  0.00000000E+00
  0.00000000E+00  0.00000000E+00  0.00000000E+00
  0.00000000E+00  0.00000000E+00  0.00000000E+00
  0.00000000E+00  0.00000000E+00  0.00000000E+00
  0.00000000E+00  0.00000000E+00  0.00000000E+00
  0.00000000E+00  0.00000000E+00  0.00000000E+00
  0.00000000E+00  0.00000000E+00  0.00000000E+00
  0.00000000E+00  0.00000000E+00  0.00000000E+00
  0.00000000E+00  0.00000000E+00  0.00000000E+00
  0.00000000E+00  0.00000000E+00  0.00000000E+00
  0.00000000E+00  0.00000000E+00  0.00000000E+00
  0.00000000E+00  0.00000000E+00  0.00000000E+00
  0.00000000E+00  0.00000000E+00  0.00000000E+00
  0.00000000E+00  0.00000000E+00  0.00000000E+00
  0.00000000E+00  0.00000000E+00  0.00000000E+00
  0.00000000E+00  0.00000000E+00  0.00000000E+00
  0.00000000E+00  0.00000000E+00  0.00000000E+00
  0.00000000E+00  0.00000000E+00  0.00000000E+00
  0.00000000E+00  0.00000000E+00  0.00000000E+00
  0.00000000E+00  0.00000000E+00  0.00000000E+00
  0.00000000E+00  0.00000000E+00  0.00000000E+00
  0.00000000E+00  0.00000000E+00  0.00000000E+00
  0.00000000E+00  0.00000000E+00  0.00000000E+00
  0.00000000E+00  0.00000000E+00  0.00000000E+00
  0.00000000E+00  0.00000000E+00  0.00000000E+00
  0.00000000E+00  0.00000000E+00  0.00000000E+00
  0.00000000E+00  0.00000000E+00  0.00000000E+00
  0.00000000E+00  0.00000000E+00  0.00000000E+00
  0.00000000E+00  0.00000000E+00  0.00000000E+00
  0.00000000E+00  0.00000000E+00  0.00000000E+00
  0.00000000E+00  0.00000000E+00  0.00000000E+00
  0.00000000E+00  0.00000000E+00  0.00000000E+00
  0.00000000E+00  0.00000000E+00  0.00000000E+00
  0.00000000E+00  0.00000000E+00  0.00000000E+00
  0.00000000E+00  0.00000000E+00  0.00000000E+00
  0.00000000E+00  0.00000000E+00  0.00000000E+00
  0.00000000E+00  0.00000000E+00  0.00000000E+00
  0.00000000E+00  0.00000000E+00  0.00000000E+00
  0.00000000E+00  0.00000000E+00  0.00000000E+00
  0.00000000E+00  0.00000000E+00  0.00000000E+00
  0.00000000E+00  0.00000000E+00  0.00000000E+00
  0.00000000E+00  0.00000000E+00  0.00000000E+00
  0.00000000E+00  0.00000000E+00  0.00000000E+00
  0.00000000E+00  0.00000000E+00  0.00000000E+00
  0.00000000E+00  0.00000000E+00  0.00000000E+00
  0.00000000E+00  0.00000000E+00  0.00000000E+00
  0.00000000E+00  0.00000000E+00  0.00000000E+00
  0.00000000E+00  0.00000000E+00  0.00000000E+00
  0.00000000E+00  0.00000000E+00  0.00000000E+00
  0.00000000E+00  0.00000000E+00  0.00000000E+00
  0.00000000E+00  0.00000000E+00  0.00000000E+00
  0.00000000E+00  0.00000000E+00  0.00000000E+00
  0.00000000E+00  0.00000000E+00  0.00000000E+00
  0.00000000E+00  0.00000000E+00  0.00000000E+00
  0.00000000E+00  0.00000000E+00  0.00000000E+00
  0.00000000E+00  0.00000000E+00  0.00000000E+00
  0.00000000E+00  0.00000000E+00  0.00000000E+00
  0.00000000E+00  0.00000000E+00  0.00000000E+00
  0.00000000E+00  0.00000000E+00  0.00000000E+00
  0.00000000E+00  0.00000000E+00  0.00000000E+00
  0.00000000E+00  0.00000000E+00  0.00000000E+00
  0.00000000E+00  0.00000000E+00  0.00000000E+00
  0.00000000E+00  0.00000000E+00  0.00000000E+00
  0.00000000E+00  0.00000000E+00  0.00000000E+00
  0.00000000E+00  0.00000000E+00  0.00000000E+00
  0.00000000E+00  0.00000000E+00  0.00000000E+00
  0.00000000E+00  0.00000000E+00  0.00000000E+00
  0.00000000E+00  0.00000000E+00  0.00000000E+00
  0.00000000E+00  0.00000000E+00  0.00000000E+00
  0.00000000E+00  0.00000000E+00  0.00000000E+00
  0.00000000E+00  0.00000000E+00  0.00000000E+00
  0.00000000E+00  0.00000000E+00  0.00000000E+00
  0.00000000E+00  0.00000000E+00  0.00000000E+00
  0.00000000E+00  0.00000000E+00  0.00000000E+00
  0.00000000E+00  0.00000000E+00  0.00000000E+00
  0.00000000E+00  0.00000000E+00  0.00000000E+00
  0.00000000E+00  0.00000000E+00  0.00000000E+00
  0.00000000E+00  0.00000000E+00  0.00000000E+00
  0.00000000E+00  0.00000000E+00  0.00000000E+00
  0.00000000E+00  0.00000000E+00  0.00000000E+00
  0.00000000E+00  0.00000000E+00  0.00000000E+00
  0.00000000E+00  0.00000000E+00  0.00000000E+00
  0.00000000E+00  0.00000000E+00  0.00000000E+00
  0.00000000E+00  0.00000000E+00  0.00000000E+00
  0.00000000E+00  0.00000000E+00  0.00000000E+00
  0.00000000E+00  0.00000000E+00  0.00000000E+00
  0.00000000E+00  0.00000000E+00  0.00000000E+00
  0.00000000E+00  0.00000000E+00  0.00000000E+00
  0.00000000E+00  0.00000000E+00  0.00000000E+00
  0.00000000E+00  0.00000000E+00  0.00000000E+00
  0.00000000E+00  0.00000000E+00  0.00000000E+00
  0.00000000E+00  0.00000000E+00  0.00000000E+00
  0.00000000E+00  0.00000000E+00  0.00000000E+00
  0.00000000E+00  0.00000000E+00  0.00000000E+00
  0.00000000E+00  0.00000000E+00  0.00000000E+00
  0.00000000E+00  0.00000000E+00  0.00000000E+00
  0.00000000E+00  0.00000000E+00  0.00000000E+00
  0.00000000E+00  0.00000000E+00  0.00000000E+00
  0.00000000E+00  0.00000000E+00  0.00000000E+00
  0.00000000E+00  0.00000000E+00  0.00000000E+00
  0.00000000E+00  0.00000000E+00  0.00000000E+00
  0.00000000E+00  0.00000000E+00  0.00000000E+00
  0.00000000E+00  0.00000000E+00  0.00000000E+00
  0.00000000E+00  0.00000000E+00  0.00000000E+00
  0.00000000E+00  0.00000000E+00  0.00000000E+00
  0.00000000E+00  0.00000000E+00  0.00000000E+00
  0.00000000E+00  0.00000000E+00  0.00000000E+00
  0.00000000E+00  0.00000000E+00  0.00000000E+00
  0.00000000E+00  0.00000000E+00  0.00000000E+00
  0.00000000E+00  0.00000000E+00  0.00000000E+00
  0.00000000E+00  0.00000000E+00  0.00000000E+00
  0.00000000E+00  0.00000000E+00  0.00000000E+00
  0.00000000E+00  0.00000000E+00  0.00000000E+00
  0.00000000E+00  0.00000000E+00  0.00000000E+00
  0.00000000E+00  0.00000000E+00  0.00000000E+00
  0.00000000E+00  0.00000000E+00  0.00000000E+00
  0.00000000E+00  0.00000000E+00  0.00000000E+00
  0.00000000E+00  0.00000000E+00  0.00000000E+00
  0.00000000E+00  0.00000000E+00  0.00000000E+00
  0.00000000E+00  0.00000000E+00  0.00000000E+00
  0.00000000E+00  0.00000000E+00  0.00000000E+00
  0.00000000E+00  0.00000000E+00  0.00000000E+00
  0.00000000E+00  0.00000000E+00  0.00000000E+00
  0.00000000E+00  0.00000000E+00  0.00000000E+00
  0.00000000E+00  0.00000000E+00  0.00000000E+00
  0.00000000E+00  0.00000000E+00  0.00000000E+00
  0.00000000E+00  0.00000000E+00  0.00000000E+00
  0.00000000E+00  0.00000000E+00  0.00000000E+00
  0.00000000E+00  0.00000000E+00  0.00000000E+00
  0.00000000E+00  0.00000000E+00  0.00000000E+00
  0.00000000E+00  0.00000000E+00  0.00000000E+00
  0.00000000E+00  0.00000000E+00  0.00000000E+00
  0.00000000E+00  0.00000000E+00  0.00000000E+00
  0.00000000E+00  0.00000000E+00  0.00000000E+00
  0.00000000E+00  0.00000000E+00  0.00000000E+00
  0.00000000E+00  0.00000000E+00  0.00000000E+00
  0.00000000E+00  0.00000000E+00  0.00000000E+00
  0.00000000E+00  0.00000000E+00  0.00000000E+00
  0.00000000E+00  0.00000000E+00  0.00000000E+00
  0.00000000E+00  0.00000000E+00  0.00000000E+00
  0.00000000E+00  0.00000000E+00  0.00000000E+00
  0.00000000E+00  0.00000000E+00  0.00000000E+00
  0.00000000E+00  0.00000000E+00  0.00000000E+00
  0.00000000E+00  0.00000000E+00  0.00000000E+00
  0.00000000E+00  0.00000000E+00  0.00000000E+00
  0.00000000E+00  0.00000000E+00  0.00000000E+00
  0.00000000E+00  0.00000000E+00  0.00000000E+00
  0.00000000E+00  0.00000000E+00  0.00000000E+00
  0.00000000E+00  0.00000000E+00  0.00000000E+00
  0.00000000E+00  0.00000000E+00  0.00000000E+00
  0.00000000E+00  0.00000000E+00  0.00000000E+00
  0.00000000E+00  0.00000000E+00  0.00000000E+00
  0.00000000E+00  0.00000000E+00  0.00000000E+00
  0.00000000E+00  0.00000000E+00  0.00000000E+00
  0.00000000E+00  0.00000000E+00  0.00000000E+00
  0.00000000E+00  0.00000000E+00  0.00000000E+00
  0.00000000E+00  0.00000000E+00  0.00000000E+00
  0.00000000E+00  0.00000000E+00  0.00000000E+00
  0.00000000E+00  0.00000000E+00  0.00000000E+00
  0.00000000E+00  0.00000000E+00  0.00000000E+00
  0.00000000E+00  0.00000000E+00  0.00000000E+00
  0.00000000E+00  0.00000000E+00  0.00000000E+00
  0.00000000E+00  0.00000000E+00  0.00000000E+00
  0.00000000E+00  0.00000000E+00  0.00000000E+00
  0.00000000E+00  0.00000000E+00  0.00000000E+00
  0.00000000E+00  0.00000000E+00  0.00000000E+00
  0.00000000E+00  0.00000000E+00  0.00000000E+00
  0.00000000E+00  0.00000000E+00  0.00000000E+00
  0.00000000E+00  0.00000000E+00  0.00000000E+00
  0.00000000E+00  0.00000000E+00  0.00000000E+00
  0.00000000E+00  0.00000000E+00  0.00000000E+00
  0.00000000E+00  0.00000000E+00  0.00000000E+00
  0.00000000E+00  0.00000000E+00  0.00000000E+00
  0.00000000E+00  0.00000000E+00  0.00000000E+00
  0.00000000E+00  0.00000000E+00  0.00000000E+00
  0.00000000E+00  0.00000000E+00  0.00000000E+00
  0.00000000E+00  0.00000000E+00  0.00000000E+00
  0.00000000E+00  0.00000000E+00  0.00000000E+00
  0.00000000E+00  0.00000000E+00  0.00000000E+00
  0.00000000E+00  0.00000000E+00  0.00000000E+00
  0.00000000E+00  0.00000000E+00  0.00000000E+00
  0.00000000E+00  0.00000000E+00  0.00000000E+00
  0.00000000E+00  0.00000000E+00  0.00000000E+00
  0.00000000E+00  0.00000000E+00  0.00000000E+00
  0.00000000E+00  0.00000000E+00  0.00000000E+00
  0.00000000E+00  0.00000000E+00  0.00000000E+00
  0.00000000E+00  0.00000000E+00  0.00000000E+00
  0.00000000E+00  0.00000000E+00  0.00000000E+00
  0.00000000E+00  0.00000000E+00  0.00000000E+00
  0.00000000E+00  0.00000000E+00  0.00000000E+00
  0.00000000E+00  0.00000000E+00  0.00000000E+00
  0.00000000E+00  0.00000000E+00  0.00000000E+00
  0.00000000E+00  0.00000000E+00  0.00000000E+00
  0.00000000E+00  0.00000000E+00  0.00000000E+00
  0.00000000E+00  0.00000000E+00  0.00000000E+00
  0.00000000E+00  0.00000000E+00  0.00000000E+00
  0.00000000E+00  0.00000000E+00  0.00000000E+00
  0.00000000E+00  0.00000000E+00  0.00000000E+00