 B N S 
 1.0
 17.527899999999772   0.000000000000000   0.000000000000000
 -8.763949999999658  15.179606674993195   0.000000000000000
  0.000000000000001   0.000000000000002  15.000000000000000
 B N S 
  49  48   1
Cartesian
  7.513647991071300  14.465212387963449   1.665158437662630 
 15.021887694169919   1.446867333336913   1.665422755629975 
 13.771940213584880   3.611839876502988   1.665422755629975 
 12.528072894582362   5.779973684343326   1.665158437662630 
 11.296384405866785   7.953949313316193   1.665608078743905 
 10.034375778228352  10.130396118695897   1.665969584367420 
  8.780521868603422  12.311551052715640   1.665608078743905 
 -7.510238849138398  14.455796658530938   1.665166870138320 
 -0.006449689917610   1.440021126610297   1.665158437662630 
 -1.261753539995897   3.608572816008101   1.665064678213095 
 -2.512122467394893   5.779973684343326   1.665158437662630 
 -3.755989786406098   7.953246537610531   1.665166870138320 
 -5.001556935359628  10.123809042114823   1.665389468782290 
 -6.253260154212509  12.291822613165595   1.665389468782290 
 -5.007693005259012  14.449208199391881   1.665389468782290 
  2.492112676321702   1.419706832900270   1.665608078743905 
  1.233196213192020   3.596470935295554   1.665183508782645 
 -0.024759199532558   5.775313623790876   1.665183508782645 
 -1.280433978696589   7.953949313316193   1.665608078743905 
 -2.510422637452608  10.123809042114823   1.665389468782290 
 -3.755989786406033  12.288279951557490   1.664913193639965 
 -2.504286567535497  14.449208199391881   1.665389468782290 
  5.007975213602442   1.424414961540507   1.665969584367420 
  3.723424516220585   3.549974152526430   1.665184617354225 
  2.465655860966666   5.760593637023598   1.665152723730855 
  1.180087556909528   7.955162986821072   1.665184617354225 
 -0.018425351040858  10.130396118695897   1.665969584367420 
 -1.258719418581975  12.291822613165595   1.665389468782290 
 -0.001740723655986  14.455796658530938   1.665166870138320 
  7.523837750865793   1.419706832900270   1.665608078743905 
  6.292525910984294   3.549974152526430   1.665184617354225 
  5.007975213602389   5.530044879854930   1.667327667130215 
  3.537154456756673   8.077581159538708   1.667327667130215 
  2.464638254291337  10.180070059584631   1.665184617354225 
  1.235428558584137  12.311551052715640   1.665608078743905 
  2.502302436116729  14.465212387963449   1.665158437662630 
 10.022400117105072   1.440021126610297   1.665158437662630 
  8.782754213995261   3.596470935295554   1.665183508782645 
  7.550294566238592   5.760593637023598   1.665152723730855 
  6.478795970430829   8.077581159538708   1.667327667130215 
  5.007975213594035  10.164019924869741   1.665152723730855 
  3.750019800869056  12.313422639830780   1.665183508782645 
  5.007975213593847  14.468061566900870   1.665064678213095 
 12.521992732999761   1.446867333336913   1.665422755629975 
 11.277703967183283   3.608572816008101   1.665064678213095 
 10.040709626720044   5.775313623790876   1.665183508782645 
  8.835862870278461   7.955162986821072   1.665184617354225 
  7.551312172896562  10.180070059584631   1.665184617354225 
  6.265930626318418  12.313422639830780   1.665183508782645 
  8.768320021704543  13.747928045871861   1.664888582289780 
 16.271494044270934   0.725400503794151   1.664959093535625 
 15.018779352057424   2.888370439289055   1.664938911873465 
 13.771949786403702   5.054738154187388   1.664959093535625 
 12.534237448051110   7.225167726330358   1.664888582289780 
 11.283651487585669   9.401062300232349   1.665445459886820 
 10.027407018418540  11.576941547557286   1.665445459886820 
 -6.258565905827775  13.733136680842039   1.664895159004335 
  1.242067360065663   0.712076045313473   1.664888582289780 
 -0.015659613421852   2.881077889591756   1.664718298555200 
 -1.268720663969530   5.051443294126043   1.664718298555200 
 -2.518267875226018   7.225167726330358   1.664888582289780 
 -3.755980213587171   9.398531111586234   1.664895159004335 
 -5.003905809784486  11.567777978863925   1.664842962389160 
 -3.755980213587132  13.729248515543114   1.664842962389160 
  3.751740317236515   0.707167969741495   1.665445459886820 
  2.473713795463031   2.850577022539120   1.665155819369160 
  1.219516896883060   5.041117650002339   1.664917159963980 
 -0.050448485231959   7.222554339251926   1.665155819369160 
 -1.267681914778368   9.401062300232349   1.665445459886820 
 -2.508054617390001  11.567777978863925   1.664842962389160 
 -1.253394521346403  13.733136680842039   1.664895159004335 
  6.264229255570927   0.707167969741495   1.665445459886820 
  5.007984786403622   2.856903579973317   1.665279853879935 
  3.693217976582837   4.971257049356858   1.665014683685580 
  2.395866381850295   7.218335926714207   1.665014683685580 
  1.222165969685946   9.414134118778845   1.665279853879935 
 -0.011437445611085  11.576941547557286   1.665445459886820 
  1.247649551103303  13.747928045871861   1.664888582289780 
  8.773902212741550   0.712076045313473   1.664888582289780 
  7.542255777344615   2.850577022539120   1.665155819369160 
  6.322751596224733   4.971257049356858   1.665014683685580 
  3.710633191662557   9.495578841444459   1.665014683685580 
  2.483822505699994  11.612040455724767   1.665155819369160 
  3.754923735847215  13.752650633798103   1.664718298555200 
 11.272405528518446   0.725400503794151   1.664959093535625 
 10.031629186229130   2.881077889591756   1.664718298555200 
  8.796452675924563   5.041117650002339   1.664917159963980 
  7.620103190957394   7.218335926714207   1.665014683685580 
  6.305336381127761   9.495578841444459   1.665014683685580 
  5.007984786394997  11.602936517511013   1.664917159963980 
  6.261045836959954  13.752650633798103   1.664718298555200 
 13.771949786403550   0.728798283197700   1.664938911873465 
 12.525120220749828   2.888370439289055   1.664938911873465 
 11.284690236794191   5.051443294126043   1.664718298555200 
 10.066418058057142   7.222554339251926   1.665155819369160 
  8.793803603121528   9.414134118778845   1.665279853879935 
  7.532147067107509  11.612040455724767   1.665155819369160 
  5.007984786403784   7.228390605833453   1.672192816116735 
