 B N Al 
 1.0
 17.527899999999772   0.000000000000000   0.000000000000000
 -8.763949999999658  15.179606674993195   0.000000000000000
  0.000000000000001   0.000000000000002  15.000000000000000
 B N Al 
  49  47   1
Cartesian
  7.505328885022561  14.423867818608237   1.604109389613945 
 15.035078744818966   1.416232946488889   1.630453046487705 
 13.795480431025990   3.585652915900007   1.630699710550935 
 12.546718868725151   5.755451759969753   1.612566369228315 
 11.300064133571713   7.932095968789399   1.576660957226115 
 10.039066348716844  10.109315588718477   1.541688092632035 
  8.766852136531543  12.277206033903678   1.555672816139370 
 -7.515925787840832  14.459310527611944   1.585036356488325 
  0.010878604428996   1.452974188463824   1.601544410375160 
 -1.230515513335972   3.611922238612024   1.616200443120570 
 -2.486571801459865   5.771820736079131   1.612518278364915 
 -3.754978027254824   7.941771143711976   1.606746818368980 
 -5.019397731969281  10.119737783328796   1.598842868487105 
 -6.268348617116908  12.290636899066568   1.582229167532190 
 -5.020150078865503  14.467002131862323   1.614651559565655 
  2.505993696991506   1.462075470992821   1.601095281347490 
  1.285785037910776   3.668604742350696   1.616732781280335 
  0.019411950032173   5.805369147967325   1.631518898178255 
 -1.276693441987822   7.961383342840548   1.616723732666490 
 -2.554860702198301  10.128875734317479   1.628722422722370 
 -3.783126870672622  12.298343888902474   1.632549782776365 
 -2.522317512254768  14.464077714129033   1.645081866583065 
  5.004250627764392   1.452121442232382   1.640242100611230 
  3.769124092253181   3.630096725373603   1.653209052426555 
  2.574443742967099   5.915268635124609   1.715536511380575 
  1.197694961905225   8.009608398183067   1.654015711559610 
 -0.110183740571791  10.152932157330367   1.598011372805595 
 -1.297471312946665  12.304921675783454   1.644028146391560 
 -0.010349878238133  14.441032338945170   1.656364875111600 
  7.520855175019723   1.426602603810286   1.655206269711285 
  6.288637589063015   3.586772352738955   1.750498390179870 
  5.044599446760033   5.670571518493110   2.104793995582515 
  3.454952435597244   8.793469019329219   1.804974310996560 
  2.360174995576834  10.083092273071326   1.618824490285470 
  1.211734397360025  12.269747234484102   1.641532642573440 
  2.504667096995007  14.406329038803943   1.667311157703555 
 10.033332636263403   1.406798080251852   1.656103709926650 
  8.796827815461960   3.574755632924864   1.688591445427230 
  7.570947605019365   5.735906176404312   1.842284278780275 
  6.461799945105564   7.963424314650603   1.977362677814220 
  5.040757923510470   9.958874622112988   1.789440806576310 
  3.728781988266680  12.201545394198817   1.687501990531785 
  5.005325104328781  14.398346651996631   1.660433703065400 
 12.536435655843157   1.401692543781158   1.654077165987915 
 11.297372943962170   3.575350344728053   1.645751638601565 
 10.057220462282180   5.747208218839484   1.643055227246475 
  8.838667812595851   7.925640312647355   1.619451231333630 
  7.569232503437890  10.103060122899974   1.572188872878240 
  6.239924443716251  12.207211222027109   1.641296011672050 
  8.761680910147241  13.719012998103066   1.575094173523695 
 16.286702786504122   0.700690647609208   1.610242689459705 
 15.049454591052363   2.868931691878446   1.626323698438965 
 13.797721781503315   5.035098006254236   1.617791514784335 
 12.538240032721001   7.203856461677639   1.597113440604360 
 11.275102322268651   9.379827121190743   1.565735202755910 
 10.013602672728286  11.554187992194045   1.545452361505650 
 -6.269274483457297  13.737952589660580   1.593761947333920 
  1.257516550116336   0.731226449410648   1.593151629869475 
  0.034242206085395   2.916452707251205   1.609091573289630 
 -1.221465572210308   5.062972922583662   1.615461465635385 
 -2.503736238939292   7.218748942440313   1.609048902277935 
 -3.780864260647520   9.388859945932355   1.617827223121200 
 -5.025555506342173  11.565156314652874   1.609499268005175 
 -3.774462491733155  13.744004244433953   1.634902132809075 
  3.752596109603664   0.738168718474875   1.614223506900630 
  2.520310485610812   2.922615247486777   1.604868839524875 
  1.319057359139845   5.152712165105955   1.643267454484620 
 -0.005480905806827   7.247637360020667   1.638349366877970 
 -1.318916738467904   9.402580126120089   1.616990039535405 
 -2.540266721416507  11.573656006440547   1.642231003582305 
 -1.274582285145933  13.741631700609366   1.654042089347130 
  6.255442318117453   0.728566606372318   1.645028801691345 
  5.018127397886667   2.905696007404741   1.676554412498955 
  3.784913321531876   5.103387109656500   1.751739385562535 
  2.591074881943244   7.467829280709248   1.755664168606965 
  1.112468445410680   9.430687563436793   1.573582431951930 
 -0.054357832549348  11.581145525207969   1.625556395134350 
  1.239910231659281  13.706947862770640   1.661438555247330 
  8.770216054997514   0.702697605371471   1.653194742192990 
  7.533273277434644   2.871723646181509   1.684180848557730 
  6.302738205951146   5.032589345474160   1.934479178047305 
  2.457680893480284  11.509148244143770   1.643580614454015 
  3.754049938640733  13.652436752538952   1.678677487458165 
 11.282935729435994   0.674507252789038   1.659780375234495 
 10.042398635830779   2.853898747952208   1.657713957820920 
  8.801555055050695   5.023453549697530   1.715771193528405 
  7.601400116142664   7.186946410730799   1.801070594824590 
  6.329667825094261   9.348498375193499   1.694399078754915 
  4.970385669126758  11.411115244248325   1.721008456384710 
  6.249429569304253  13.662324156934165   1.636258587373845 
 13.784667942607532   0.671156178003694   1.651155247591875 
 12.545699892760130   2.851650444346427   1.644475725171705 
 11.298758214901971   5.024055868204499   1.629066180500790 
 10.060923000035908   7.194821607372856   1.590133499296935 
  8.798798309472858   9.368111340910044   1.544940729429720 
  7.513911145501425  11.531259081736495   1.568363886232365 
  4.668877144216416   7.559971652065108   3.077745411056475 
