B N As                                  
   1.0000000000000000     
     8.7639499999999995  -15.1796066749929999    0.0000000000000000
     8.7639499999999995   15.1796066749929999    0.0000000000000000
     0.0000000000000000    0.0000000000000000   15.0000000000000000
   B    N    As
    48    48     1
Selective dynamics
Direct
  0.9052553809698523  0.9524582528541432  0.1177761209484338   T   T   T
  0.9049587414325435  0.0951765640616778  0.1178051948797957   T   T   T
  0.9049298685528481  0.2380714109888246  0.1170862296612823   T   T   T
  0.9051024718851400  0.3810115772698782  0.1163008980505269   T   T   T
  0.9052902536051697  0.5239015660796321  0.1152432749416738   T   T   T
  0.9053587155565112  0.6667513210712895  0.1149394623900587   T   T   T
  0.9051032193347988  0.8093558097713793  0.1160834143784411   T   T   T
  0.0479502492405287  0.9522078227191756  0.1178193616529423   T   T   T
  0.0477010091292223  0.0949022951678585  0.1177777293929626   T   T   T
  0.0475970646154881  0.2379164338938173  0.1163465425912995   T   T   T
  0.0476834861085166  0.3809645656503927  0.1148351518020482   T   T   T
  0.0479723740399171  0.5238593484057864  0.1149949438026891   T   T   T
  0.0480908387909673  0.6666600805452848  0.1159555901208060   T   T   T
  0.0480272564484355  0.8094344757950250  0.1170615631783570   T   T   T
  0.1907140234833071  0.9521207109504376  0.1170468279684973   T   T   T
  0.1908012230207631  0.0950581899974184  0.1160827348742080   T   T   T
  0.1898272488349730  0.2372546762416128  0.1140280448959943   T   T   T
  0.1899107692280913  0.3806530463473813  0.1093399419131157   T   T   T
  0.1905871797373329  0.5238040841139785  0.1088887552560684   T   T   T
  0.1908414479090483  0.6666082214636589  0.1118947214644654   T   T   T
  0.1907809563363942  0.8093647709928432  0.1155775345128104   T   T   T
  0.3334878103411261  0.9520613469114640  0.1159299680370355   T   T   T
  0.3333913092178803  0.0947795209735539  0.1149371858161226   T   T   T
  0.3335937249482047  0.2377365063959203  0.1102566706110541   T   T   T
  0.3303297643899141  0.3791060376159018  0.0989111925520921   T   T   T
  0.3325590965442479  0.5234896510078256  0.0931077547732134   T   T   T
  0.3336046750542066  0.6665551811151078  0.1023791994635295   T   T   T
  0.3335296017442725  0.8093075769376554  0.1118898577545067   T   T   T
  0.4762826783761661  0.9521794987783261  0.1149710442821549   T   T   T
  0.4762430068199080  0.0948553381857577  0.1152198553508048   T   T   T
  0.4760671907786801  0.2371973365649218  0.1100639889925692   T   T   T
  0.4759371029382137  0.3779580501519905  0.1035315885948121   T   T   T
  0.4766625644916874  0.6676036740866926  0.0931433487927845   T   T   T
  0.4763423061937427  0.8095746885636006  0.1088954096189744   T   T   T
  0.6191799210048315  0.9524695079585740  0.1148347916777309   T   T   T
  0.6191319148502299  0.0950464488056444  0.1162903216690594   T   T   T
  0.6192521667724982  0.2376233504379266  0.1133239462668614   T   T   T
  0.6200140917809206  0.3801267604472358  0.1073858776701376   T   T   T
  0.6221716368993274  0.5242069775902313  0.1035239452147289   T   T   T
  0.6210620324300186  0.6698402096946771  0.0989533051419520   T   T   T
  0.6194958651947741  0.8102370535309417  0.1093709809890040   T   T   T
  0.7622190581053666  0.9525456213005541  0.1163583454599445   T   T   T
  0.7620649558178616  0.0952133947729283  0.1170867541435334   T   T   T
  0.7621353181752716  0.2380105968433186  0.1162722283121147   T   T   T
  0.7625239321512691  0.3808948620286465  0.1133252965231213   T   T   T
  0.7629325028578087  0.5240695088230740  0.1100634662493849   T   T   T
  0.7624128300704678  0.6665549937662376  0.1102600461732798   T   T   T
  0.7629116549016767  0.8103380701142605  0.1140368428768524   T   T   T
  0.9525395415862473  0.9044478668475836  0.1176384275023672   T   T   T
  0.9526500029227811  0.0475055174540206  0.1181616188145852   T   T   T
  0.9525437474261220  0.1904210655021807  0.1174355141605118   T   T   T
  0.9525295185424103  0.3333618518888682  0.1165902069171778   T   T   T
  0.9525612125425581  0.4762250114731112  0.1161509552352726   T   T   T
  0.9524839761980012  0.6189572243362610  0.1158731696534130   T   T   T
  0.9524555470947337  0.7616302111140169  0.1163556442639347   T   T   T
  0.0955236439644194  0.9046276678619981  0.1175729728071819   T   T   T
  0.0957118323749217  0.0476196061649415  0.1176427936737930   T   T   T
  0.0952575013019929  0.1901345475464853  0.1168919561428293   T   T   T
  0.0952567907375811  0.3332242405362824  0.1140860542120865   T   T   T
  0.0955613057508880  0.4761804107063231  0.1135038436674257   T   T   T
  0.0955841671073776  0.6189900047894025  0.1147045865158244   T   T   T
  0.0954848460844706  0.7617759007227665  0.1165006571636064   T   T   T
  0.2383697161998552  0.9046620704359833  0.1164806828714766   T   T   T
  0.2385145966402266  0.0476920849164111  0.1163463771683911   T   T   T
  0.2389882823317113  0.1909721587728765  0.1136043697207116   T   T   T
  0.2370893938058376  0.3322314563281702  0.1094021104970227   T   T   T
  0.2383020959005340  0.4759368770844135  0.1050882457745311   T   T   T
  0.2385643016358421  0.6189109562799020  0.1073953682844686   T   T   T
  0.2383883123628324  0.7617535601213232  0.1129959830614127   T   T   T
  0.3811531640470619  0.9045649382293240  0.1146733803367331   T   T   T
  0.3811891381719251  0.0476600680305616  0.1158516484519958   T   T   T
  0.3814576441418249  0.1909534968497917  0.1118120481484986   T   T   T
  0.3828201206493413  0.3355679829515684  0.1042205346911654   T   T   T
  0.3757851000421913  0.4714792884841748  0.0821253550779103   T   T   T
  0.3814262746048265  0.6187296742320353  0.0923225690301519   T   T   T
  0.3812342365545165  0.7615908521901290  0.1074007728550073   T   T   T
  0.5239643202350953  0.9045962303187713  0.1135004309836325   T   T   T
  0.5239209020304818  0.0475875510068203  0.1161257461436610   T   T   T
  0.5239819168349809  0.1906940515094404  0.1129771944053794   T   T   T
  0.5246110831958269  0.3343422149123231  0.1056682512228902   T   T   T
  0.5286883077129049  0.6243958120004207  0.0821895307242049   T   T   T
  0.5242119912387437  0.7618593061382833  0.1051155225520334   T   T   T
  0.6669181650564687  0.9048944097904184  0.1141056324164245   T   T   T
  0.6667783283648238  0.0476189458239431  0.1165804342030125   T   T   T
  0.6667421056742487  0.1904918947138143  0.1157470398122866   T   T   T
  0.6668376686633852  0.3333024924193551  0.1111991539109273   T   T   T
  0.6657914629707576  0.4755300213497461  0.1056635740498951   T   T   T
  0.6645857887553968  0.6173327216547911  0.1042298631430993   T   T   T
  0.6679310590631683  0.7630724103075607  0.1094366068182752   T   T   T
  0.8100186383134164  0.9049011545160146  0.1169021742252797   T   T   T
  0.8097185157693484  0.0475999318321519  0.1174427734960295   T   T   T
  0.8096410385717973  0.1904991925407320  0.1171323611739718   T   T   T
  0.8096546611988750  0.3334054821013801  0.1157532928894253   T   T   T
  0.8094453068172563  0.4761627296853533  0.1129843905610586   T   T   T
  0.8091843202226999  0.6186849270471669  0.1118164430685637   T   T   T
  0.8091885277249149  0.7611696418122053  0.1136039309618880   T   T   T
  0.4845894621819400  0.5156372195769005  0.0310360732487649   T   T   T

  0.00000000E+00  0.00000000E+00  0.00000000E+00
  0.00000000E+00  0.00000000E+00  0.00000000E+00
  0.00000000E+00  0.00000000E+00  0.00000000E+00
  0.00000000E+00  0.00000000E+00  0.00000000E+00
  0.00000000E+00  0.00000000E+00  0.00000000E+00
  0.00000000E+00  0.00000000E+00  0.00000000E+00
  0.00000000E+00  0.00000000E+00  0.00000000E+00
  0.00000000E+00  0.00000000E+00  0.00000000E+00
  0.00000000E+00  0.00000000E+00  0.00000000E+00
  0.00000000E+00  0.00000000E+00  0.00000000E+00
  0.00000000E+00  0.00000000E+00  0.00000000E+00
  0.00000000E+00  0.00000000E+00  0.00000000E+00
  0.00000000E+00  0.00000000E+00  0.00000000E+00
  0.00000000E+00  0.00000000E+00  0.00000000E+00
  0.00000000E+00  0.00000000E+00  0.00000000E+00
  0.00000000E+00  0.00000000E+00  0.00000000E+00
  0.00000000E+00  0.00000000E+00  0.00000000E+00
  0.00000000E+00  0.00000000E+00  0.00000000E+00
  0.00000000E+00  0.00000000E+00  0.00000000E+00
  0.00000000E+00  0.00000000E+00  0.00000000E+00
  0.00000000E+00  0.00000000E+00  0.00000000E+00
  0.00000000E+00  0.00000000E+00  0.00000000E+00
  0.00000000E+00  0.00000000E+00  0.00000000E+00
  0.00000000E+00  0.00000000E+00  0.00000000E+00
  0.00000000E+00  0.00000000E+00  0.00000000E+00
  0.00000000E+00  0.00000000E+00  0.00000000E+00
  0.00000000E+00  0.00000000E+00  0.00000000E+00
  0.00000000E+00  0.00000000E+00  0.00000000E+00
  0.00000000E+00  0.00000000E+00  0.00000000E+00
  0.00000000E+00  0.00000000E+00  0.00000000E+00
  0.00000000E+00  0.00000000E+00  0.00000000E+00
  0.00000000E+00  0.00000000E+00  0.00000000E+00
  0.00000000E+00  0.00000000E+00  0.00000000E+00
  0.00000000E+00  0.00000000E+00  0.00000000E+00
  0.00000000E+00  0.00000000E+00  0.00000000E+00
  0.00000000E+00  0.00000000E+00  0.00000000E+00
  0.00000000E+00  0.00000000E+00  0.00000000E+00
  0.00000000E+00  0.00000000E+00  0.00000000E+00
  0.00000000E+00  0.00000000E+00  0.00000000E+00
  0.00000000E+00  0.00000000E+00  0.00000000E+00
  0.00000000E+00  0.00000000E+00  0.00000000E+00
  0.00000000E+00  0.00000000E+00  0.00000000E+00
  0.00000000E+00  0.00000000E+00  0.00000000E+00
  0.00000000E+00  0.00000000E+00  0.00000000E+00
  0.00000000E+00  0.00000000E+00  0.00000000E+00
  0.00000000E+00  0.00000000E+00  0.00000000E+00
  0.00000000E+00  0.00000000E+00  0.00000000E+00
  0.00000000E+00  0.00000000E+00  0.00000000E+00
  0.00000000E+00  0.00000000E+00  0.00000000E+00
  0.00000000E+00  0.00000000E+00  0.00000000E+00
  0.00000000E+00  0.00000000E+00  0.00000000E+00
  0.00000000E+00  0.00000000E+00  0.00000000E+00
  0.00000000E+00  0.00000000E+00  0.00000000E+00
  0.00000000E+00  0.00000000E+00  0.00000000E+00
  0.00000000E+00  0.00000000E+00  0.00000000E+00
  0.00000000E+00  0.00000000E+00  0.00000000E+00
  0.00000000E+00  0.00000000E+00  0.00000000E+00
  0.00000000E+00  0.00000000E+00  0.00000000E+00
  0.00000000E+00  0.00000000E+00  0.00000000E+00
  0.00000000E+00  0.00000000E+00  0.00000000E+00
  0.00000000E+00  0.00000000E+00  0.00000000E+00
  0.00000000E+00  0.00000000E+00  0.00000000E+00
  0.00000000E+00  0.00000000E+00  0.00000000E+00
  0.00000000E+00  0.00000000E+00  0.00000000E+00
  0.00000000E+00  0.00000000E+00  0.00000000E+00
  0.00000000E+00  0.00000000E+00  0.00000000E+00
  0.00000000E+00  0.00000000E+00  0.00000000E+00
  0.00000000E+00  0.00000000E+00  0.00000000E+00
  0.00000000E+00  0.00000000E+00  0.00000000E+00
  0.00000000E+00  0.00000000E+00  0.00000000E+00
  0.00000000E+00  0.00000000E+00  0.00000000E+00
  0.00000000E+00  0.00000000E+00  0.00000000E+00
  0.00000000E+00  0.00000000E+00  0.00000000E+00
  0.00000000E+00  0.00000000E+00  0.00000000E+00
  0.00000000E+00  0.00000000E+00  0.00000000E+00
  0.00000000E+00  0.00000000E+00  0.00000000E+00
  0.00000000E+00  0.00000000E+00  0.00000000E+00
  0.00000000E+00  0.00000000E+00  0.00000000E+00
  0.00000000E+00  0.00000000E+00  0.00000000E+00
  0.00000000E+00  0.00000000E+00  0.00000000E+00
  0.00000000E+00  0.00000000E+00  0.00000000E+00
  0.00000000E+00  0.00000000E+00  0.00000000E+00
  0.00000000E+00  0.00000000E+00  0.00000000E+00
  0.00000000E+00  0.00000000E+00  0.00000000E+00
  0.00000000E+00  0.00000000E+00  0.00000000E+00
  0.00000000E+00  0.00000000E+00  0.00000000E+00
  0.00000000E+00  0.00000000E+00  0.00000000E+00
  0.00000000E+00  0.00000000E+00  0.00000000E+00
  0.00000000E+00  0.00000000E+00  0.00000000E+00
  0.00000000E+00  0.00000000E+00  0.00000000E+00
  0.00000000E+00  0.00000000E+00  0.00000000E+00
  0.00000000E+00  0.00000000E+00  0.00000000E+00
  0.00000000E+00  0.00000000E+00  0.00000000E+00
  0.00000000E+00  0.00000000E+00  0.00000000E+00
  0.00000000E+00  0.00000000E+00  0.00000000E+00
  0.00000000E+00  0.00000000E+00  0.00000000E+00
  0.00000000E+00  0.00000000E+00  0.00000000E+00
