Species order:X N B                     
   2.51242800000000     
     5.9449720136058266    0.0000000000000000    0.0000000000000000
    -2.9724860068029120    5.1484967885702053   -0.0000000000000001
     0.0000000000000000    0.0000000000000009    5.3101128803662583
   C    N    B 
     2   143   142
Direct
  0.4417112776773620  0.3795783355805497  0.3750000000000000
  0.5463634580576672  0.4135233472427109  0.3750000000000000
  0.1110402713706571  0.0555451550129537  0.1250590141429380
  0.6110903278109318  0.5555246927959598  0.1247915235526933
  0.4444074033300546  0.0555875672641549  0.1250657441557287
  0.9444391966661410  0.5555711518953511  0.1250283441115453
  0.7777054297363633  0.0555512969348960  0.1250792931882913
  0.1110939421759172  0.7222331332177329  0.6249825519441543
  0.4444068446636522  0.7222005115724006  0.6249609748004290
  0.2776997079377606  0.2222057854220611  0.6250210922674508
  0.7777489195783744  0.7222215772434422  0.6249431583475399
  0.6110766866523413  0.2222908340298193  0.6247947629811268
  0.9443886726048913  0.2222103058887609  0.6249658480764634
  0.2777544145122089  0.7222212409296173  0.1250135118586824
  0.1110322116977023  0.2221920867583345  0.1250481227397790
  0.4443972450806941  0.2222503649549799  0.1247607899388012
  0.6110621686968148  0.7221761529749386  0.1251033401925215
  0.9444313532154582  0.7222450437319438  0.1250330250220133
  0.7777362273933386  0.2222396365632278  0.1251153307282633
  0.1110793468867062  0.8889060028360343  0.6249732670535990
  0.4444056978017853  0.8888996600879081  0.6249821902863872
  0.2777295517368943  0.3888535053813940  0.6249635076431836
  0.6111447983954029  0.3889402138940681  0.6259733650328896
  0.7777140601700203  0.8888724959153692  0.6249236804913955
  0.9444278623652111  0.3888931468936209  0.6249543272682132
  0.1110773126618380  0.3888746318853767  0.1250803450375024
  0.2777515795749079  0.8889071625945995  0.1250096774572523
  0.6110484372400738  0.8888770550024090  0.1250711658031517
  0.4443605847401972  0.3888532416171918  0.1240884457790289
  0.9443976489406629  0.8888939409379859  0.1250308646690512
  0.7777825836959871  0.3889086584551744  0.1249958402021064
  0.2777512149030063  0.5555337465233062  0.6249488280338797
  0.1110402713706571  0.0555451550129535  0.6249409858570644
  0.6110903278109318  0.5555246927959598  0.6252084764473042
  0.4444074033300546  0.0555875672641549  0.6249342558442750
  0.9444391966661410  0.5555711518953511  0.6249716558884566
  0.1110930566419705  0.5555536770423917  0.1250298671075946
  0.7777054297363633  0.0555512969348960  0.6249207068117144
  0.2777323945743140  0.0555737188481822  0.1250354047686864
  0.4444149623619432  0.5555206199551571  0.1249231699743354
  0.7777867157444505  0.5555983072365837  0.1249409932370120
  0.6110519438655961  0.0555875329641332  0.1251468706179734
  0.4444149623619432  0.5555206199551571  0.6250768300256651
  0.9443678367809230  0.0555377858334347  0.1250295269640944
  0.2777544145122089  0.7222212409296158  0.6249864881413217
  0.1110322116977023  0.2221920867583345  0.6249518772602269
  0.4443972450806941  0.2222503649549799  0.6252392100611969
  0.6110621686968148  0.7221761529749386  0.6248966598074780
  0.9444313532154582  0.7222450437319438  0.6249669749779874
  0.7777362273933386  0.2222396365632278  0.6248846692717367
  0.1110939421759172  0.7222331332177329  0.1250174480558459
  0.4444068446636522  0.7222005115724006  0.1250390251995703
  0.2776997079377606  0.2222057854220611  0.1249789077325462
  0.7777489195783744  0.7222215772434422  0.1250568416524618
  0.6110766866523413  0.2222908340298193  0.1252052370188708
  0.9443886726048913  0.2222103058887609  0.1250341519235405
  0.1110773126618380  0.3888746318853767  0.6249196549624938
  0.2777515795749079  0.8889071625945995  0.6249903225427497
  0.6110484372400738  0.8888770550024090  0.6249288341968408
  0.4443605847401972  0.3888532416171918  0.6259115542209648
  0.9443976489406629  0.8888939409379859  0.6249691353309461
  0.1110793468867062  0.8889060028360343  0.1250267329464108
  0.7777825836959871  0.3889086584551744  0.6250041597978926
  0.4444056978017853  0.8888996600879081  0.1250178097136209
  0.2777295517368943  0.3888535053813940  0.1250364923568098
  0.2777512149030063  0.5555337465233062  0.1250511719661123
  0.6111447983954029  0.3889402138940681  0.1240266349671039
  0.7777140601700203  0.8888724959153692  0.1250763195085977
  0.9444278623652111  0.3888931468936209  0.1250456727317923
  0.1110930566419705  0.5555536770423917  0.6249701328924032
  0.2777323945743140  0.0555737188481822  0.6249645952313059
  0.7777867157444505  0.5555983072365837  0.6250590067629874
  0.6110519438655961  0.0555875329641332  0.6248531293820271
  0.9443678367809230  0.0555377858334347  0.6249704730359009
  0.0521441993585065  0.1095432504469809  0.3750000000000000
  0.5568298707484832  0.6015089115950832  0.3750000000000000
  0.3881089798285920  0.1142578711094089  0.3750000000000000
  0.8944461988366570  0.6142561587279483  0.3750000000000000
  0.7203963112782860  0.1133728159510709  0.3750000000000000
  0.0555535591807958  0.7777815827972012  0.8750000000000000
  0.3888846744080344  0.7777841931120166  0.8750000000000000
  0.2222189965867492  0.2777849579270607  0.8750000000000000
  0.7222175563829886  0.7777811657758300  0.8750000000000000
  0.5555514894973325  0.2777790778074270  0.8750000000000000
  0.8888893561496068  0.2777850127645345  0.8750000000000000
  0.2253211291494048  0.7794575453971661  0.3750000000000000
  0.0533010073329673  0.2772595545775542  0.3750000000000000
  0.3800805791083220  0.2746993059669594  0.3750000000000000
  0.5562352251711081  0.7752156752828916  0.3750000000000000
  0.8884872657352886  0.7767662772779456  0.3750000000000000
  0.7204167315314975  0.2817714466776128  0.3750000000000000
  0.0555516200624694  0.9444489532891701  0.8750000000000000
  0.3888866136902970  0.9444485640463828  0.8750000000000000
  0.2222189187187971  0.4444522536853375  0.8750000000000000
  0.5555509996617061  0.4444532009075224  0.8750000000000000
  0.7222185217461127  0.9444481376730671  0.8750000000000000
  0.8888919710665807  0.4444510718532840  0.8750000000000000
  0.0583025627494877  0.4450954272070623  0.3750000000000000
  0.2230366135779320  0.9457423833270963  0.3750000000000000
  0.5559552887536193  0.9477965487152937  0.3750000000000000
  0.3908677167798849  0.4375480868179738  0.3750000000000000
  0.8865390158261798  0.9430358122098255  0.3750000000000000
  0.7400995254030975  0.4542197274638708  0.3750000000000000
  0.2222168001789570  0.6111155617721714  0.8750000000000000
  0.0555520697600713  0.1111140509950421  0.8750000000000000
  0.5555485825704719  0.6111146522456175  0.8750000000000000
  0.3888854933247301  0.1111111609675819  0.8750000000000000
  0.8888912371018650  0.6111157280200310  0.8750000000000000
  0.0598597011458298  0.6129494257595469  0.3750000000000000
  0.7222178099529959  0.1111146039129672  0.8750000000000000
  0.2185711181694217  0.1093298345451313  0.3750000000000000
  0.3914972881671692  0.6077885052498054  0.3750000000000000
  0.7225046221662100  0.6083777927438631  0.3750000000000000
  0.5554672860507800  0.1221676082317623  0.3750000000000000
  0.3888832901740246  0.6111166212034372  0.8750000000000000
  0.8861866577067833  0.1107822085434986  0.3750000000000000
  0.2222186292727936  0.7777814041550455  0.8750000000000000
  0.0555543400311580  0.2777845679227234  0.8750000000000000
  0.3888840531419313  0.2777823882460597  0.8750000000000000
  0.5555496843183902  0.7777815488317398  0.8750000000000000
  0.8888878426915899  0.7777834964755871  0.8750000000000000
  0.7222202072749376  0.2777822025888478  0.8750000000000000
  0.0581954526644719  0.7793533888195705  0.3750000000000000
  0.3913241077792717  0.7781374109257712  0.3750000000000000
  0.2176385585449463  0.2755405999869172  0.3750000000000000
  0.7211673390532146  0.7752294177981549  0.3750000000000000
  0.5494302292106843  0.2998380341906468  0.3750000000000000
  0.8873339711595706  0.2787028038202672  0.3750000000000000
  0.0555539875328893  0.4444510780578319  0.8750000000000000
  0.2222188053963097  0.9444473509507403  0.8750000000000000
  0.5555504127701064  0.9444492650584854  0.8750000000000000
  0.3888835994400918  0.4444543526917045  0.8750000000000000
  0.8888874909779545  0.9444487261149243  0.8750000000000000
  0.0538924041622186  0.9433608019049878  0.3750000000000000
  0.7222255858001513  0.4444527011943234  0.8750000000000000
  0.3907576997316911  0.9476890684493355  0.3750000000000000
  0.2243694301266204  0.4432350044967215  0.3750000000000000
  0.2256358730022402  0.6113720852868006  0.3750000000000000
  0.7206682482499432  0.9441243540255662  0.3750000000000000
  0.8940044641255763  0.4469857415200029  0.3750000000000000
  0.0555542663610266  0.6111137266542366  0.8750000000000000
  0.2222173233595354  0.1111140015647345  0.8750000000000000
  0.7222188778504859  0.6111162664099822  0.8750000000000000
  0.5555512847517302  0.1111126613339553  0.8750000000000000
  0.8888878307820332  0.1111146634406429  0.8750000000000000
  0.1077556629707319  0.0538909973758207  0.3750000000000000
  0.6119220362825126  0.5409207209206195  0.3750000000000000
  0.4447496040625944  0.0601097425348538  0.3750000000000000
  0.9490669399340249  0.5579041243238512  0.3750000000000000
  0.7750750441744144  0.0558779651764190  0.3750000000000000
  0.1111053503207807  0.7222229651614112  0.8750000000000000
  0.4444413675508862  0.7222297597557249  0.8750000000000000
  0.2777980236069600  0.2222342212140865  0.8750000000000000
  0.7777637930117751  0.7222039488281117  0.8750000000000000
  0.6111023981333279  0.2222404890986933  0.8750000000000000
  0.9444342977713508  0.2222293613276728  0.8750000000000000
  0.2804479757416231  0.7229562376309754  0.3750000000000000
  0.1069104596742384  0.2204514666380762  0.3750000000000000
  0.4413242176073034  0.2257652085882619  0.3750000000000000
  0.6104870415189998  0.7162247711648091  0.3750000000000000
  0.9473904802492522  0.7243140701497670  0.3750000000000000
  0.7753451819143518  0.2244135139263340  0.3750000000000000
  0.1111107439215076  0.8888886712388651  0.8750000000000000
  0.4444427680432125  0.8888994075800678  0.8750000000000000
  0.2777931309189606  0.3889039223594302  0.8750000000000000
  0.6111103964597342  0.3888989435236915  0.8750000000000000
  0.7777663686013955  0.8888826853221031  0.8750000000000000
  0.9444305536879039  0.3888997917106375  0.8750000000000000
  0.1124548945770690  0.3884526215830806  0.3750000000000000
  0.2796954185414357  0.8909475933639434  0.3750000000000000
  0.6099607671190546  0.8886330175048659  0.3750000000000000
  0.9427122919740699  0.8877126030337655  0.3750000000000000
  0.7827846315035094  0.3909361854125311  0.3750000000000000
  0.2777808378117401  0.5555700965887113  0.8750000000000000
  0.1111148390800292  0.0555575880708784  0.8750000000000000
  0.6111043835786161  0.5555378076661240  0.8750000000000000
  0.4444485845641404  0.0555692038062221  0.8750000000000000
  0.9444305137573760  0.5555548541594990  0.8750000000000000
  0.1145139666441830  0.5564506552218420  0.3750000000000000
  0.7777657587420665  0.0555596438824570  0.8750000000000000
  0.2770002436471396  0.0566719470568169  0.3750000000000000
  0.4466938156800730  0.5501431116340321  0.3750000000000000
  0.7834977993034631  0.5602605537701373  0.3750000000000000
  0.6095822268206671  0.0615584847336298  0.3750000000000000
  0.4444517646564240  0.5555603203081297  0.8750000000000000
  0.9411501826461399  0.0542729813441829  0.3750000000000000
  0.2777762401673056  0.7222330162733156  0.8750000000000000
  0.1111133941068981  0.2222287548007049  0.8750000000000000
  0.4444640588198114  0.2222400567409424  0.8750000000000000
  0.6111001379533061  0.7222106816666255  0.8750000000000000
  0.9444325898161970  0.7222101318260835  0.8750000000000000
  0.7777616109800418  0.2222352966512741  0.8750000000000000
  0.1143574499686978  0.7240177030403783  0.3750000000000000
  0.4456289874487733  0.7201408576473874  0.3750000000000000
  0.2706111094094608  0.2191112191437772  0.3750000000000000
  0.7768989576887042  0.7199197733923449  0.3750000000000000
  0.6093158063476034  0.2390154862497065  0.3750000000000000
  0.9418774255299714  0.2221234305912276  0.3750000000000000
  0.1111079224093969  0.3889001537136919  0.8750000000000000
  0.2777814115474017  0.8888972804118679  0.8750000000000000
  0.6111003834258989  0.8888922370232996  0.8750000000000000
  0.4444711474258740  0.3889036134770255  0.8750000000000000
  0.9444374849369020  0.8888817583371791  0.8750000000000000
  0.1119610661346532  0.8899557127691515  0.3750000000000000
  0.7777595926818145  0.3889009744031767  0.8750000000000000
  0.4453245374315636  0.8904925922906803  0.3750000000000000
  0.2778875124791826  0.3856517601935938  0.3750000000000000
  0.2804178563712628  0.5545585628276939  0.3750000000000000
  0.7755097334446842  0.8871978169747304  0.3750000000000000
  0.9470893989075091  0.3899118811743481  0.3750000000000000
  0.1111046940617191  0.5555635796647509  0.8750000000000000
  0.2777904513355375  0.0555641126779940  0.8750000000000000
  0.7777603090141629  0.5555409433556253  0.8750000000000000
  0.6111002393018549  0.0555663574309752  0.8750000000000000
  0.9444378577763790  0.0555552483061617  0.8750000000000000
  0.0554753195707263  0.1110760677716987  0.1249773973620512
  0.5555684281687114  0.6110161961494905  0.1249297418049900
  0.3889033928780467  0.1112120001352512  0.1249731521286290
  0.8888116528410251  0.6110834745896048  0.1250224053395857
  0.7221535314549345  0.1111455560410368  0.1250630974343568
  0.0555199646606317  0.7777785256203413  0.6250011378544870
  0.3888695849291508  0.7777884741115837  0.6249975033634017
  0.2221610709090489  0.2777410990384423  0.6251188415763128
  0.7221775617313017  0.7777296914726189  0.6249798289778897
  0.5555977907530030  0.2779944719714096  0.6250130910808720
  0.8888256382008272  0.2777918803904540  0.6249889276505176
  0.2222007318476984  0.7777950576239829  0.1249978560590701
  0.0554868166503314  0.2777596647674932  0.1249876662387978
  0.3889242391990713  0.2778375912609025  0.1245110991658016
  0.5555210444043035  0.7777454505408561  0.1250277752462795
  0.8888400768030599  0.7777526893947870  0.1250055146219998
  0.7221656908424349  0.2778593045197120  0.1250904287588499
  0.0555021359432296  0.9444275222886838  0.6250024067256460
  0.3888764768499053  0.9445021482498726  0.6249787341675784
  0.2221918194026203  0.4444283277220126  0.6250107023390807
  0.5555646950536035  0.4443358761728822  0.6251344775519045
  0.7221541233132986  0.9444296568251328  0.6249772195897133
  0.8888087789450618  0.4444455522405472  0.6249692040739192
  0.0555093375467546  0.4444468726162505  0.1250078441328529
  0.2222009807095131  0.9444681087866609  0.1250001365068797
  0.5555091162399578  0.9444779606545299  0.1250514651329284
  0.3889288558774390  0.4443795839629081  0.1245515467764167
  0.8888238958016442  0.9444166605012165  0.1249953162999981
  0.7220978014533584  0.4444188335266117  0.1250544783999430
  0.2221992975702306  0.6111131891507599  0.6250000130345639
  0.0554753195707263  0.1110760677716987  0.6250226026379487
  0.5555684281687114  0.6110161961494905  0.6250702581950096
  0.3889033928780467  0.1112120001352512  0.6250268478713671
  0.8888116528410251  0.6110834745896048  0.6249775946604164
  0.0555088029980566  0.6111111040980680  0.1250037246346611
  0.7221535314549345  0.1111455560410368  0.6249369025656422
  0.2221731028457258  0.1110994287484033  0.1249686075043784
  0.3888902307004007  0.6110816308452101  0.1249791723914124
  0.7221615833510393  0.6110282522089824  0.1249514888795955
  0.5555306142086169  0.1112283086119632  0.1251741348248770
  0.3888902307004007  0.6110816308452101  0.6250208276085840
  0.8888129906764000  0.1110993178166548  0.1249930604633607
  0.2222007318476984  0.7777950576239829  0.6250021439409341
  0.0554868166503314  0.2777596647674932  0.6250123337612007
  0.3889242391990713  0.2778375912609025  0.6254889008341951
  0.5555210444043035  0.7777454505408561  0.6249722247537274
  0.8888400768030599  0.7777526893947870  0.6249944853779970
  0.7221656908424349  0.2778593045197120  0.6249095712411561
  0.0555199646606317  0.7777785256203413  0.1249988621455168
  0.3888695849291508  0.7777884741115837  0.1250024966365982
  0.2221610709090489  0.2777410990384423  0.1248811584236908
  0.7221775617313017  0.7777296914726189  0.1250201710221130
  0.5555977907530030  0.2779944719714096  0.1249869089191235
  0.8888256382008272  0.2777918803904540  0.1250110723494833
  0.0555093375467546  0.4444468726162505  0.6249921558671471
  0.2222009807095131  0.9444681087866609  0.6249998634931243
  0.5555091162399578  0.9444779606545299  0.6249485348670734
  0.3889288558774390  0.4443795839629081  0.6254484532235792
  0.8888238958016442  0.9444166605012165  0.6250046836999938
  0.0555021359432296  0.9444275222886838  0.1249975932743517
  0.7220978014533584  0.4444188335266117  0.6249455216000609
  0.3888764768499053  0.9445021482498726  0.1250212658324202
  0.2221918194026203  0.4444283277220126  0.1249892976609131
  0.2221992975702306  0.6111131891507599  0.1249999869654394
  0.5555646950536035  0.4443358761728822  0.1248655224480829
  0.7221541233132986  0.9444296568251328  0.1250227804102879
  0.8888087789450618  0.4444455522405472  0.1250307959260816
  0.0555088029980566  0.6111111040980680  0.6249962753653410
  0.2221731028457258  0.1110994287484033  0.6250313924956220
  0.7221615833510393  0.6110282522089824  0.6250485111204110
  0.5555306142086169  0.1112283086119632  0.6248258651751232
  0.8888129906764000  0.1110993178166548  0.6250069395366361
 
  0.00000000E+00  0.00000000E+00  0.00000000E+00
  0.00000000E+00  0.00000000E+00  0.00000000E+00
  0.00000000E+00  0.00000000E+00  0.00000000E+00
  0.00000000E+00  0.00000000E+00  0.00000000E+00
  0.00000000E+00  0.00000000E+00  0.00000000E+00
  0.00000000E+00  0.00000000E+00  0.00000000E+00
  0.00000000E+00  0.00000000E+00  0.00000000E+00
  0.00000000E+00  0.00000000E+00  0.00000000E+00
  0.00000000E+00  0.00000000E+00  0.00000000E+00
  0.00000000E+00  0.00000000E+00  0.00000000E+00
  0.00000000E+00  0.00000000E+00  0.00000000E+00
  0.00000000E+00  0.00000000E+00  0.00000000E+00
  0.00000000E+00  0.00000000E+00  0.00000000E+00
  0.00000000E+00  0.00000000E+00  0.00000000E+00
  0.00000000E+00  0.00000000E+00  0.00000000E+00
  0.00000000E+00  0.00000000E+00  0.00000000E+00
  0.00000000E+00  0.00000000E+00  0.00000000E+00
  0.00000000E+00  0.00000000E+00  0.00000000E+00
  0.00000000E+00  0.00000000E+00  0.00000000E+00
  0.00000000E+00  0.00000000E+00  0.00000000E+00
  0.00000000E+00  0.00000000E+00  0.00000000E+00
  0.00000000E+00  0.00000000E+00  0.00000000E+00
  0.00000000E+00  0.00000000E+00  0.00000000E+00
  0.00000000E+00  0.00000000E+00  0.00000000E+00
  0.00000000E+00  0.00000000E+00  0.00000000E+00
  0.00000000E+00  0.00000000E+00  0.00000000E+00
  0.00000000E+00  0.00000000E+00  0.00000000E+00
  0.00000000E+00  0.00000000E+00  0.00000000E+00
  0.00000000E+00  0.00000000E+00  0.00000000E+00
  0.00000000E+00  0.00000000E+00  0.00000000E+00
  0.00000000E+00  0.00000000E+00  0.00000000E+00
  0.00000000E+00  0.00000000E+00  0.00000000E+00
  0.00000000E+00  0.00000000E+00  0.00000000E+00
  0.00000000E+00  0.00000000E+00  0.00000000E+00
  0.00000000E+00  0.00000000E+00  0.00000000E+00
  0.00000000E+00  0.00000000E+00  0.00000000E+00
  0.00000000E+00  0.00000000E+00  0.00000000E+00
  0.00000000E+00  0.00000000E+00  0.00000000E+00
  0.00000000E+00  0.00000000E+00  0.00000000E+00
  0.00000000E+00  0.00000000E+00  0.00000000E+00
  0.00000000E+00  0.00000000E+00  0.00000000E+00
  0.00000000E+00  0.00000000E+00  0.00000000E+00
  0.00000000E+00  0.00000000E+00  0.00000000E+00
  0.00000000E+00  0.00000000E+00  0.00000000E+00
  0.00000000E+00  0.00000000E+00  0.00000000E+00
  0.00000000E+00  0.00000000E+00  0.00000000E+00
  0.00000000E+00  0.00000000E+00  0.00000000E+00
  0.00000000E+00  0.00000000E+00  0.00000000E+00
  0.00000000E+00  0.00000000E+00  0.00000000E+00
  0.00000000E+00  0.00000000E+00  0.00000000E+00
  0.00000000E+00  0.00000000E+00  0.00000000E+00
  0.00000000E+00  0.00000000E+00  0.00000000E+00
  0.00000000E+00  0.00000000E+00  0.00000000E+00
  0.00000000E+00  0.00000000E+00  0.00000000E+00
  0.00000000E+00  0.00000000E+00  0.00000000E+00
  0.00000000E+00  0.00000000E+00  0.00000000E+00
  0.00000000E+00  0.00000000E+00  0.00000000E+00
  0.00000000E+00  0.00000000E+00  0.00000000E+00
  0.00000000E+00  0.00000000E+00  0.00000000E+00
  0.00000000E+00  0.00000000E+00  0.00000000E+00
  0.00000000E+00  0.00000000E+00  0.00000000E+00
  0.00000000E+00  0.00000000E+00  0.00000000E+00
  0.00000000E+00  0.00000000E+00  0.00000000E+00
  0.00000000E+00  0.00000000E+00  0.00000000E+00
  0.00000000E+00  0.00000000E+00  0.00000000E+00
  0.00000000E+00  0.00000000E+00  0.00000000E+00
  0.00000000E+00  0.00000000E+00  0.00000000E+00
  0.00000000E+00  0.00000000E+00  0.00000000E+00
  0.00000000E+00  0.00000000E+00  0.00000000E+00
  0.00000000E+00  0.00000000E+00  0.00000000E+00
  0.00000000E+00  0.00000000E+00  0.00000000E+00
  0.00000000E+00  0.00000000E+00  0.00000000E+00
  0.00000000E+00  0.00000000E+00  0.00000000E+00
  0.00000000E+00  0.00000000E+00  0.00000000E+00
  0.00000000E+00  0.00000000E+00  0.00000000E+00
  0.00000000E+00  0.00000000E+00  0.00000000E+00
  0.00000000E+00  0.00000000E+00  0.00000000E+00
  0.00000000E+00  0.00000000E+00  0.00000000E+00
  0.00000000E+00  0.00000000E+00  0.00000000E+00
  0.00000000E+00  0.00000000E+00  0.00000000E+00
  0.00000000E+00  0.00000000E+00  0.00000000E+00
  0.00000000E+00  0.00000000E+00  0.00000000E+00
  0.00000000E+00  0.00000000E+00  0.00000000E+00
  0.00000000E+00  0.00000000E+00  0.00000000E+00
  0.00000000E+00  0.00000000E+00  0.00000000E+00
  0.00000000E+00  0.00000000E+00  0.00000000E+00
  0.00000000E+00  0.00000000E+00  0.00000000E+00
  0.00000000E+00  0.00000000E+00  0.00000000E+00
  0.00000000E+00  0.00000000E+00  0.00000000E+00
  0.00000000E+00  0.00000000E+00  0.00000000E+00
  0.00000000E+00  0.00000000E+00  0.00000000E+00
  0.00000000E+00  0.00000000E+00  0.00000000E+00
  0.00000000E+00  0.00000000E+00  0.00000000E+00
  0.00000000E+00  0.00000000E+00  0.00000000E+00
  0.00000000E+00  0.00000000E+00  0.00000000E+00
  0.00000000E+00  0.00000000E+00  0.00000000E+00
  0.00000000E+00  0.00000000E+00  0.00000000E+00
  0.00000000E+00  0.00000000E+00  0.00000000E+00
  0.00000000E+00  0.00000000E+00  0.00000000E+00
  0.00000000E+00  0.00000000E+00  0.00000000E+00
  0.00000000E+00  0.00000000E+00  0.00000000E+00
  0.00000000E+00  0.00000000E+00  0.00000000E+00
  0.00000000E+00  0.00000000E+00  0.00000000E+00
  0.00000000E+00  0.00000000E+00  0.00000000E+00
  0.00000000E+00  0.00000000E+00  0.00000000E+00
  0.00000000E+00  0.00000000E+00  0.00000000E+00
  0.00000000E+00  0.00000000E+00  0.00000000E+00
  0.00000000E+00  0.00000000E+00  0.00000000E+00
  0.00000000E+00  0.00000000E+00  0.00000000E+00
  0.00000000E+00  0.00000000E+00  0.00000000E+00
  0.00000000E+00  0.00000000E+00  0.00000000E+00
  0.00000000E+00  0.00000000E+00  0.00000000E+00
  0.00000000E+00  0.00000000E+00  0.00000000E+00
  0.00000000E+00  0.00000000E+00  0.00000000E+00
  0.00000000E+00  0.00000000E+00  0.00000000E+00
  0.00000000E+00  0.00000000E+00  0.00000000E+00
  0.00000000E+00  0.00000000E+00  0.00000000E+00
  0.00000000E+00  0.00000000E+00  0.00000000E+00
  0.00000000E+00  0.00000000E+00  0.00000000E+00
  0.00000000E+00  0.00000000E+00  0.00000000E+00
  0.00000000E+00  0.00000000E+00  0.00000000E+00
  0.00000000E+00  0.00000000E+00  0.00000000E+00
  0.00000000E+00  0.00000000E+00  0.00000000E+00
  0.00000000E+00  0.00000000E+00  0.00000000E+00
  0.00000000E+00  0.00000000E+00  0.00000000E+00
  0.00000000E+00  0.00000000E+00  0.00000000E+00
  0.00000000E+00  0.00000000E+00  0.00000000E+00
  0.00000000E+00  0.00000000E+00  0.00000000E+00
  0.00000000E+00  0.00000000E+00  0.00000000E+00
  0.00000000E+00  0.00000000E+00  0.00000000E+00
  0.00000000E+00  0.00000000E+00  0.00000000E+00
  0.00000000E+00  0.00000000E+00  0.00000000E+00
  0.00000000E+00  0.00000000E+00  0.00000000E+00
  0.00000000E+00  0.00000000E+00  0.00000000E+00
  0.00000000E+00  0.00000000E+00  0.00000000E+00
  0.00000000E+00  0.00000000E+00  0.00000000E+00
  0.00000000E+00  0.00000000E+00  0.00000000E+00
  0.00000000E+00  0.00000000E+00  0.00000000E+00
  0.00000000E+00  0.00000000E+00  0.00000000E+00
  0.00000000E+00  0.00000000E+00  0.00000000E+00
  0.00000000E+00  0.00000000E+00  0.00000000E+00
  0.00000000E+00  0.00000000E+00  0.00000000E+00
  0.00000000E+00  0.00000000E+00  0.00000000E+00
  0.00000000E+00  0.00000000E+00  0.00000000E+00
  0.00000000E+00  0.00000000E+00  0.00000000E+00
  0.00000000E+00  0.00000000E+00  0.00000000E+00
  0.00000000E+00  0.00000000E+00  0.00000000E+00
  0.00000000E+00  0.00000000E+00  0.00000000E+00
  0.00000000E+00  0.00000000E+00  0.00000000E+00
  0.00000000E+00  0.00000000E+00  0.00000000E+00
  0.00000000E+00  0.00000000E+00  0.00000000E+00
  0.00000000E+00  0.00000000E+00  0.00000000E+00
  0.00000000E+00  0.00000000E+00  0.00000000E+00
  0.00000000E+00  0.00000000E+00  0.00000000E+00
  0.00000000E+00  0.00000000E+00  0.00000000E+00
  0.00000000E+00  0.00000000E+00  0.00000000E+00
  0.00000000E+00  0.00000000E+00  0.00000000E+00
  0.00000000E+00  0.00000000E+00  0.00000000E+00
  0.00000000E+00  0.00000000E+00  0.00000000E+00
  0.00000000E+00  0.00000000E+00  0.00000000E+00
  0.00000000E+00  0.00000000E+00  0.00000000E+00
  0.00000000E+00  0.00000000E+00  0.00000000E+00
  0.00000000E+00  0.00000000E+00  0.00000000E+00
  0.00000000E+00  0.00000000E+00  0.00000000E+00
  0.00000000E+00  0.00000000E+00  0.00000000E+00
  0.00000000E+00  0.00000000E+00  0.00000000E+00
  0.00000000E+00  0.00000000E+00  0.00000000E+00
  0.00000000E+00  0.00000000E+00  0.00000000E+00
  0.00000000E+00  0.00000000E+00  0.00000000E+00
  0.00000000E+00  0.00000000E+00  0.00000000E+00
  0.00000000E+00  0.00000000E+00  0.00000000E+00
  0.00000000E+00  0.00000000E+00  0.00000000E+00
  0.00000000E+00  0.00000000E+00  0.00000000E+00
  0.00000000E+00  0.00000000E+00  0.00000000E+00
  0.00000000E+00  0.00000000E+00  0.00000000E+00
  0.00000000E+00  0.00000000E+00  0.00000000E+00
  0.00000000E+00  0.00000000E+00  0.00000000E+00
  0.00000000E+00  0.00000000E+00  0.00000000E+00
  0.00000000E+00  0.00000000E+00  0.00000000E+00
  0.00000000E+00  0.00000000E+00  0.00000000E+00
  0.00000000E+00  0.00000000E+00  0.00000000E+00
  0.00000000E+00  0.00000000E+00  0.00000000E+00
  0.00000000E+00  0.00000000E+00  0.00000000E+00
  0.00000000E+00  0.00000000E+00  0.00000000E+00
  0.00000000E+00  0.00000000E+00  0.00000000E+00
  0.00000000E+00  0.00000000E+00  0.00000000E+00
  0.00000000E+00  0.00000000E+00  0.00000000E+00
  0.00000000E+00  0.00000000E+00  0.00000000E+00
  0.00000000E+00  0.00000000E+00  0.00000000E+00
  0.00000000E+00  0.00000000E+00  0.00000000E+00
  0.00000000E+00  0.00000000E+00  0.00000000E+00
  0.00000000E+00  0.00000000E+00  0.00000000E+00
  0.00000000E+00  0.00000000E+00  0.00000000E+00
  0.00000000E+00  0.00000000E+00  0.00000000E+00
  0.00000000E+00  0.00000000E+00  0.00000000E+00
  0.00000000E+00  0.00000000E+00  0.00000000E+00
  0.00000000E+00  0.00000000E+00  0.00000000E+00
  0.00000000E+00  0.00000000E+00  0.00000000E+00
  0.00000000E+00  0.00000000E+00  0.00000000E+00
  0.00000000E+00  0.00000000E+00  0.00000000E+00
  0.00000000E+00  0.00000000E+00  0.00000000E+00
  0.00000000E+00  0.00000000E+00  0.00000000E+00
  0.00000000E+00  0.00000000E+00  0.00000000E+00
  0.00000000E+00  0.00000000E+00  0.00000000E+00
  0.00000000E+00  0.00000000E+00  0.00000000E+00
  0.00000000E+00  0.00000000E+00  0.00000000E+00
  0.00000000E+00  0.00000000E+00  0.00000000E+00
  0.00000000E+00  0.00000000E+00  0.00000000E+00
  0.00000000E+00  0.00000000E+00  0.00000000E+00
  0.00000000E+00  0.00000000E+00  0.00000000E+00
  0.00000000E+00  0.00000000E+00  0.00000000E+00
  0.00000000E+00  0.00000000E+00  0.00000000E+00
  0.00000000E+00  0.00000000E+00  0.00000000E+00
  0.00000000E+00  0.00000000E+00  0.00000000E+00
  0.00000000E+00  0.00000000E+00  0.00000000E+00
  0.00000000E+00  0.00000000E+00  0.00000000E+00
  0.00000000E+00  0.00000000E+00  0.00000000E+00
  0.00000000E+00  0.00000000E+00  0.00000000E+00
  0.00000000E+00  0.00000000E+00  0.00000000E+00
  0.00000000E+00  0.00000000E+00  0.00000000E+00
  0.00000000E+00  0.00000000E+00  0.00000000E+00
  0.00000000E+00  0.00000000E+00  0.00000000E+00
  0.00000000E+00  0.00000000E+00  0.00000000E+00
  0.00000000E+00  0.00000000E+00  0.00000000E+00
  0.00000000E+00  0.00000000E+00  0.00000000E+00
  0.00000000E+00  0.00000000E+00  0.00000000E+00
  0.00000000E+00  0.00000000E+00  0.00000000E+00
  0.00000000E+00  0.00000000E+00  0.00000000E+00
  0.00000000E+00  0.00000000E+00  0.00000000E+00
  0.00000000E+00  0.00000000E+00  0.00000000E+00
  0.00000000E+00  0.00000000E+00  0.00000000E+00
  0.00000000E+00  0.00000000E+00  0.00000000E+00
  0.00000000E+00  0.00000000E+00  0.00000000E+00
  0.00000000E+00  0.00000000E+00  0.00000000E+00
  0.00000000E+00  0.00000000E+00  0.00000000E+00
  0.00000000E+00  0.00000000E+00  0.00000000E+00
  0.00000000E+00  0.00000000E+00  0.00000000E+00
  0.00000000E+00  0.00000000E+00  0.00000000E+00
  0.00000000E+00  0.00000000E+00  0.00000000E+00
  0.00000000E+00  0.00000000E+00  0.00000000E+00
  0.00000000E+00  0.00000000E+00  0.00000000E+00
  0.00000000E+00  0.00000000E+00  0.00000000E+00
  0.00000000E+00  0.00000000E+00  0.00000000E+00
  0.00000000E+00  0.00000000E+00  0.00000000E+00
  0.00000000E+00  0.00000000E+00  0.00000000E+00
  0.00000000E+00  0.00000000E+00  0.00000000E+00
  0.00000000E+00  0.00000000E+00  0.00000000E+00
  0.00000000E+00  0.00000000E+00  0.00000000E+00