B N P                                   
   1.0000000000000000     
     8.7639499999999995  -15.1796066749929999    0.0000000000000000
     8.7639499999999995   15.1796066749929999    0.0000000000000000
     0.0000000000000000    0.0000000000000000   15.0000000000000000
   B    N    P 
    48    48     1
Selective dynamics
Direct
  0.9055200400050974  0.9532641104706592  0.1184145350405166   T   T   T
  0.9044057204113999  0.0957403657844799  0.1186320603111411   T   T   T
  0.9040853103452530  0.2386439684846071  0.1173376942503787   T   T   T
  0.9041943563773702  0.3815069399133093  0.1156035400286208   T   T   T
  0.9050223945325215  0.5243877310290652  0.1141939966903553   T   T   T
  0.9067506116961135  0.6676425383227512  0.1145705230683614   T   T   T
  0.9071975273346053  0.8112127936694838  0.1165019149540789   T   T   T
  0.0480598998856067  0.9520894397596996  0.1192937683272992   T   T   T
  0.0468867924041087  0.0946275214083553  0.1183982580135753   T   T   T
  0.0466638960834040  0.2378532120282285  0.1152648110162665   T   T   T
  0.0471503748551385  0.3809723477396503  0.1130964578151081   T   T   T
  0.0481944198157554  0.5237338589505539  0.1136149805409994   T   T   T
  0.0488458175885280  0.6665612366857466  0.1157491354429777   T   T   T
  0.0488697829699217  0.8094687984297684  0.1179063439861314   T   T   T
  0.1906816603492558  0.9512799335610259  0.1179061282451148   T   T   T
  0.1889459516002684  0.0929538328458667  0.1164896118350947   T   T   T
  0.1881033852562730  0.2357556987523368  0.1114356405323485   T   T   T
  0.1892591587613257  0.3799357406222160  0.1064900507586664   T   T   T
  0.1915202164767638  0.5231245041668797  0.1065100192733321   T   T   T
  0.1915943338465756  0.6659805998698257  0.1108570000609509   T   T   T
  0.1913899060829313  0.8087659664503686  0.1156529965235497   T   T   T
  0.3335929794210606  0.9513123031377412  0.1157233313772546   T   T   T
  0.3325226371567412  0.0934104680681255  0.1145573844103649   T   T   T
  0.3291016093618921  0.2328684867556354  0.1085405519452025   T   T   T
  0.3287007223828438  0.3762586480180298  0.1007278966010019   T   T   T
  0.3352259581965342  0.5223751589263623  0.0978663038602006   T   T   T
  0.3345974720990278  0.6655406405926753  0.1028308137656274   T   T   T
  0.3341713495905240  0.8085606121882077  0.1108442116878548   T   T   T
  0.4764154162257690  0.9519565276305608  0.1136114783386112   T   T   T
  0.4757667141407692  0.0951287650829819  0.1141755730637957   T   T   T
  0.4744022916560510  0.2376821141738480  0.1077142712144580   T   T   T
  0.4666471190248950  0.3736810603657697  0.0997159270501396   T   T   T
  0.4777706812161487  0.6649306918023025  0.0978687554326404   T   T   T
  0.4770177910211857  0.8086272899003537  0.1065068493369939   T   T   T
  0.6191775172655406  0.9530014074019605  0.1130990360343404   T   T   T
  0.6186462933972010  0.0959589347614953  0.1155934657095494   T   T   T
  0.6180756811217358  0.2391739092376385  0.1114394513059825   T   T   T
  0.6174477092035884  0.3827101210791513  0.1039569467888697   T   T   T
  0.6264702987771401  0.5334985138622589  0.0996961834386999   T   T   T
  0.6238816365849464  0.6714384466031201  0.1007541094734506   T   T   T
  0.6202180809416564  0.8108934545181714  0.1065111931938547   T   T   T
  0.7622934271947879  0.9534830016435740  0.1152842353523870   T   T   T
  0.7615116079246588  0.0960702378113572  0.1173381752741332   T   T   T
  0.7611208461143160  0.2390220389440124  0.1158699597023745   T   T   T
  0.7609687791485780  0.3820653177416812  0.1114448062107394   T   T   T
  0.7624694854239729  0.5257499023925359  0.1077251125069176   T   T   T
  0.7672852248168879  0.6710487431763800  0.1085607545946535   T   T   T
  0.7643845996270721  0.8120343468719260  0.1114659282945370   T   T   T
  0.9532917999603231  0.9056126342198972  0.1189450298030936   T   T   T
  0.9521280020662281  0.0480225128847619  0.1193970080174746   T   T   T
  0.9517406574205111  0.1908982348068653  0.1178561584348583   T   T   T
  0.9518830362544071  0.3338834258852314  0.1161432280011862   T   T   T
  0.9524663316666260  0.4766363667584967  0.1152378317684991   T   T   T
  0.9533271770240384  0.6193702312202408  0.1155270188207954   T   T   T
  0.9536838239030681  0.7624746615798853  0.1170667433724340   T   T   T
  0.0957378127022921  0.9044119258091736  0.1187947131247885   T   T   T
  0.0945423068290877  0.0468611589208821  0.1189424011966089   T   T   T
  0.0939328613316892  0.1896959363265149  0.1157322508729766   T   T   T
  0.0946743478053595  0.3331550319487139  0.1116963009689801   T   T   T
  0.0961143294696311  0.4760993947655877  0.1111265758895234   T   T   T
  0.0963222904096717  0.6187647586458920  0.1138162593863238   T   T   T
  0.0962348011558129  0.7615657651779362  0.1168295725725706   T   T   T
  0.2385873144561929  0.9039185199917893  0.1168213595694886   T   T   T
  0.2376786547270484  0.0464707843553420  0.1170612314602239   T   T   T
  0.2354632844496945  0.1878182851696811  0.1124404698138012   T   T   T
  0.2355936768654957  0.3310573286346021  0.1056666478516532   T   T   T
  0.2398567238860142  0.4752234275382632  0.1028001581168735   T   T   T
  0.2395434597073338  0.6181785631914151  0.1060714823125701   T   T   T
  0.2391012470669469  0.7610513544906201  0.1124451152739522   T   T   T
  0.3813876190907319  0.9038304304056303  0.1137968304736469   T   T   T
  0.3807810976773660  0.0468273517641763  0.1155028471529023   T   T   T
  0.3795911031236264  0.1890085623195319  0.1101757176687791   T   T   T
  0.3751201347465176  0.3279539142746642  0.1027935549338796   T   T   T
  0.3820890972292142  0.4714167788961568  0.0948302617298299   T   T   T
  0.3829473961400334  0.6171990286904316  0.0974039251282535   T   T   T
  0.3819659038307878  0.7606018784435927  0.1060597717007922   T   T   T
  0.5240499950468060  0.9040330184016718  0.1111229471035072   T   T   T
  0.5235175822056921  0.0476872813042094  0.1152234971502590   T   T   T
  0.5228062975784743  0.1913267655793305  0.1110649658226741   T   T   T
  0.5214046399025751  0.3354670620494146  0.1023311707930959   T   T   T
  0.5287287119977837  0.6180539106733668  0.0948406839056816   T   T   T
  0.5249252179842128  0.7602925281446604  0.1028044987151863   T   T   T
  0.6669906494073826  0.9054727009461502  0.1117099125269679   T   T   T
  0.6662732317075478  0.0482728090810426  0.1161454931764707   T   T   T
  0.6657133311767905  0.1916643419423766  0.1148685544224243   T   T   T
  0.6648870407156465  0.3352605122823807  0.1085474942160886   T   T   T
  0.6646831979049805  0.4787453995920092  0.1023199177185074   T   T   T
  0.6721971423762535  0.6250308574558879  0.1028029789523285   T   T   T
  0.6690867645665451  0.7645507426155297  0.1056959674782469   T   T   T
  0.8104458146019698  0.9062132556770027  0.1157609645133321   T   T   T
  0.8092528245545324  0.0484102930756409  0.1178677067686603   T   T   T
  0.8087859253277333  0.1913679172589857  0.1176213143559087   T   T   T
  0.8084854658593550  0.3344339365133828  0.1148723218490608   T   T   T
  0.8088256722934760  0.4773399795763648  0.1110784860836541   T   T   T
  0.8111443902080605  0.6205597241710865  0.1101919126736434   T   T   T
  0.8123345748906426  0.7646906671213789  0.1124614475079549   T   T   T
  0.4923018254140105  0.5078376884823854  0.0815906445641161   T   T   T

  0.00000000E+00  0.00000000E+00  0.00000000E+00
  0.00000000E+00  0.00000000E+00  0.00000000E+00
  0.00000000E+00  0.00000000E+00  0.00000000E+00
  0.00000000E+00  0.00000000E+00  0.00000000E+00
  0.00000000E+00  0.00000000E+00  0.00000000E+00
  0.00000000E+00  0.00000000E+00  0.00000000E+00
  0.00000000E+00  0.00000000E+00  0.00000000E+00
  0.00000000E+00  0.00000000E+00  0.00000000E+00
  0.00000000E+00  0.00000000E+00  0.00000000E+00
  0.00000000E+00  0.00000000E+00  0.00000000E+00
  0.00000000E+00  0.00000000E+00  0.00000000E+00
  0.00000000E+00  0.00000000E+00  0.00000000E+00
  0.00000000E+00  0.00000000E+00  0.00000000E+00
  0.00000000E+00  0.00000000E+00  0.00000000E+00
  0.00000000E+00  0.00000000E+00  0.00000000E+00
  0.00000000E+00  0.00000000E+00  0.00000000E+00
  0.00000000E+00  0.00000000E+00  0.00000000E+00
  0.00000000E+00  0.00000000E+00  0.00000000E+00
  0.00000000E+00  0.00000000E+00  0.00000000E+00
  0.00000000E+00  0.00000000E+00  0.00000000E+00
  0.00000000E+00  0.00000000E+00  0.00000000E+00
  0.00000000E+00  0.00000000E+00  0.00000000E+00
  0.00000000E+00  0.00000000E+00  0.00000000E+00
  0.00000000E+00  0.00000000E+00  0.00000000E+00
  0.00000000E+00  0.00000000E+00  0.00000000E+00
  0.00000000E+00  0.00000000E+00  0.00000000E+00
  0.00000000E+00  0.00000000E+00  0.00000000E+00
  0.00000000E+00  0.00000000E+00  0.00000000E+00
  0.00000000E+00  0.00000000E+00  0.00000000E+00
  0.00000000E+00  0.00000000E+00  0.00000000E+00
  0.00000000E+00  0.00000000E+00  0.00000000E+00
  0.00000000E+00  0.00000000E+00  0.00000000E+00
  0.00000000E+00  0.00000000E+00  0.00000000E+00
  0.00000000E+00  0.00000000E+00  0.00000000E+00
  0.00000000E+00  0.00000000E+00  0.00000000E+00
  0.00000000E+00  0.00000000E+00  0.00000000E+00
  0.00000000E+00  0.00000000E+00  0.00000000E+00
  0.00000000E+00  0.00000000E+00  0.00000000E+00
  0.00000000E+00  0.00000000E+00  0.00000000E+00
  0.00000000E+00  0.00000000E+00  0.00000000E+00
  0.00000000E+00  0.00000000E+00  0.00000000E+00
  0.00000000E+00  0.00000000E+00  0.00000000E+00
  0.00000000E+00  0.00000000E+00  0.00000000E+00
  0.00000000E+00  0.00000000E+00  0.00000000E+00
  0.00000000E+00  0.00000000E+00  0.00000000E+00
  0.00000000E+00  0.00000000E+00  0.00000000E+00
  0.00000000E+00  0.00000000E+00  0.00000000E+00
  0.00000000E+00  0.00000000E+00  0.00000000E+00
  0.00000000E+00  0.00000000E+00  0.00000000E+00
  0.00000000E+00  0.00000000E+00  0.00000000E+00
  0.00000000E+00  0.00000000E+00  0.00000000E+00
  0.00000000E+00  0.00000000E+00  0.00000000E+00
  0.00000000E+00  0.00000000E+00  0.00000000E+00
  0.00000000E+00  0.00000000E+00  0.00000000E+00
  0.00000000E+00  0.00000000E+00  0.00000000E+00
  0.00000000E+00  0.00000000E+00  0.00000000E+00
  0.00000000E+00  0.00000000E+00  0.00000000E+00
  0.00000000E+00  0.00000000E+00  0.00000000E+00
  0.00000000E+00  0.00000000E+00  0.00000000E+00
  0.00000000E+00  0.00000000E+00  0.00000000E+00
  0.00000000E+00  0.00000000E+00  0.00000000E+00
  0.00000000E+00  0.00000000E+00  0.00000000E+00
  0.00000000E+00  0.00000000E+00  0.00000000E+00
  0.00000000E+00  0.00000000E+00  0.00000000E+00
  0.00000000E+00  0.00000000E+00  0.00000000E+00
  0.00000000E+00  0.00000000E+00  0.00000000E+00
  0.00000000E+00  0.00000000E+00  0.00000000E+00
  0.00000000E+00  0.00000000E+00  0.00000000E+00
  0.00000000E+00  0.00000000E+00  0.00000000E+00
  0.00000000E+00  0.00000000E+00  0.00000000E+00
  0.00000000E+00  0.00000000E+00  0.00000000E+00
  0.00000000E+00  0.00000000E+00  0.00000000E+00
  0.00000000E+00  0.00000000E+00  0.00000000E+00
  0.00000000E+00  0.00000000E+00  0.00000000E+00
  0.00000000E+00  0.00000000E+00  0.00000000E+00
  0.00000000E+00  0.00000000E+00  0.00000000E+00
  0.00000000E+00  0.00000000E+00  0.00000000E+00
  0.00000000E+00  0.00000000E+00  0.00000000E+00
  0.00000000E+00  0.00000000E+00  0.00000000E+00
  0.00000000E+00  0.00000000E+00  0.00000000E+00
  0.00000000E+00  0.00000000E+00  0.00000000E+00
  0.00000000E+00  0.00000000E+00  0.00000000E+00
  0.00000000E+00  0.00000000E+00  0.00000000E+00
  0.00000000E+00  0.00000000E+00  0.00000000E+00
  0.00000000E+00  0.00000000E+00  0.00000000E+00
  0.00000000E+00  0.00000000E+00  0.00000000E+00
  0.00000000E+00  0.00000000E+00  0.00000000E+00
  0.00000000E+00  0.00000000E+00  0.00000000E+00
  0.00000000E+00  0.00000000E+00  0.00000000E+00
  0.00000000E+00  0.00000000E+00  0.00000000E+00
  0.00000000E+00  0.00000000E+00  0.00000000E+00
  0.00000000E+00  0.00000000E+00  0.00000000E+00
  0.00000000E+00  0.00000000E+00  0.00000000E+00
  0.00000000E+00  0.00000000E+00  0.00000000E+00
  0.00000000E+00  0.00000000E+00  0.00000000E+00
  0.00000000E+00  0.00000000E+00  0.00000000E+00
  0.00000000E+00  0.00000000E+00  0.00000000E+00
