 B C N 
 1.0
 14.936314146199660   0.000000000000000   0.000000000000000
 -7.468157073099825  12.935227489513863   0.000000000000000
  0.000000000000001   0.000000000000001  13.341276283792837
 B C N 
 143   1 143
Cartesian
  1.219216692943155   0.701334961184589   5.002978606422314 
  5.175422281482679   6.962102798632113   5.002978606422314 
  6.214979787861798   0.766363651995006   5.002978606422314 
 10.004142154673584   7.209080348828499   5.002978606422314 
 11.175371137972848   0.703113539463105   5.002978606422314 
 -3.734220530977306   9.342026761905815  11.673616748318732 
  1.244749346875391   9.342278222341733  11.673616748318732 
  2.489573692386968   2.874522337255838  11.673616748318732 
  6.223345453766923   9.341868566626760  11.673616748318732 
  7.468107455791251   2.874533493468079  11.673616748318732 
 12.446660966448304   2.874429267179926  11.673616748318732 
 -1.211195032044773   9.348894922551700   5.002978606422314 
 -0.059339357455887   2.840235403669006   5.002978606422314 
  4.966978468497502   2.953285550919517   5.002978606422314 
  3.791762420107540   9.228480469782555   5.002978606422314 
  8.755932106312120   9.371043571108572   5.002978606422314 
  9.919398652469662   2.888780473908533   5.002978606422314 
 -4.978846576521295  11.497812513536296  11.673616748318732 
  0.000042813245374  11.498004708917614  11.673616748318732 
  1.244810522969592   5.030515390077213  11.673616748318732 
  6.223472424356030   5.030407678911259  11.673616748318732 
  4.978675242201517  11.497766818348158  11.673616748318732 
 11.201955639496726   5.030357425833584  11.673616748318732 
 -1.272403451613694   5.016947644719193   5.002978606422314 
 -2.466759779914382  11.523596858054287   5.002978606422314 
  2.499134647058612  11.460981072650124   5.002978606422314 
  7.469221927005884  11.485796640841405   5.002978606422314 
  8.705175568714250   5.069786324705553   5.002978606422314 
  0.000016449143762   7.186435465808886  11.673616748318732 
  1.244638291057619   0.718454590599725  11.673616748318732 
  4.978811362474216   7.186223876293204  11.673616748318732 
  6.223639252174419   0.718587941071958  11.673616748318732 
  9.957264151155091   7.186163273419312  11.673616748318732 
 -2.460188275455998   7.193119506633718   5.002978606422314 
 11.202045123980220   0.718513772464824  11.673616748318732 
  3.734339918135534   0.748323634391747   5.002978606422314 
  2.551723854941264   7.136629254814085   5.002978606422314 
  7.552550775263526   7.234962220836510   5.002978606422314 
  8.685682393703624   0.745566052010139   5.002978606422314 
  2.489598773807532   7.186506435110633  11.673616748318732 
 13.659907709488417   0.690842251792194   5.002978606422314 
 -1.244700500822000   9.342196653920091  11.673616748318732 
 -0.000145922092377   2.874410749510344  11.673616748318732 
  4.979110833136583   2.874545062297261  11.673616748318732 
  3.734087066235014   9.342046524677658  11.673616748318732 
  8.712646335068090   9.341904566887431  11.673616748318732 
  9.957310081546733   2.874518324269667  11.673616748318732 
 -3.695861150902981   9.364173560317552   5.002978606422314 
  1.281794594062301   9.310891050802311   5.002978606422314 
  2.407719075972748   2.837250955725181   5.002978606422314 
  6.253765842277859   9.315752521061933   5.002978606422314 
  7.398594044180719   2.981264842541596   5.002978606422314 
 12.407012176870477   2.860920970862551   5.002978606422314 
 -1.244866618579527   5.030403579783457  11.673616748318732 
 -2.489313385099352  11.497929405243323  11.673616748318732 
  2.489333925870148  11.497935501594981  11.673616748318732 
  3.734518979463719   5.030620535756928  11.673616748318732 
  7.468009449602628  11.497741939458434  11.673616748318732 
 -4.958212676658922  11.519824688064032   5.002978606422314 
  8.712582533364259   5.030383472679766  11.673616748318732 
  0.013801118528934  11.505948070176757   5.002978606422314 
  1.171605251522801   4.978262903610782   5.002978606422314 
  0.025851545669976   7.171613914780553   5.002978606422314 
  6.127683337082212   5.312738268264539   5.002978606422314 
  4.972070911562813  11.457803482854207   5.002978606422314 
 11.192216946140256   5.037380111374765   5.002978606422314 
 -2.489568327720741   7.186256112437627  11.673616748318732 
  3.734258209586495   0.718539008976579  11.673616748318732 
  7.467917130462199   7.186098963228026  11.673616748318732 
  8.712785507357937   0.718601164013172  11.673616748318732 
 13.691430632049974   0.718424962637299  11.673616748318732 
 -0.000521412513947   1.436845596074902   1.667955498447991 
  3.735810401945630   7.905185065227766   1.665315444275003 
  4.978790926644925   1.437639358920560   1.669507429315560 
  8.711916190446640   7.904322155381704   1.666769202347354 
  9.957457667855255   1.437274896416225   1.667715933596557 
 -4.979405840194800  10.060205092113604   8.338103340817268 
 -0.000024680544008  10.060591047450277   8.338172740494532 
  1.244409083081347   3.592954916768857   8.336372380841532 
  4.978824092901461  10.060845826268810   8.339447623437444 
  6.224610598044074   3.594456675697847   8.340641768569624 
 11.201895583538693   3.592989917278174   8.338198301667468 
 -2.489806238278458  10.060489688778993   1.667732001335352 
 -1.245301609773610   3.592868141984262   1.667955498447991 
  3.735028320179973   3.594005220836618   1.672721146390140 
  2.490003351924938  10.060742899904650   1.667790054164855 
  7.467746521833862  10.060417045145229   1.667393438991477 
  8.712974424524809   3.593107728796952   1.666509589407184 
 -6.223921180527792  12.216098819399262   8.337976823853399 
 -1.244827680226938  12.216653088315274   8.338172740494532 
 -0.000312333336310   5.748987867795416   8.336741779905161 
  4.981544381933134   5.750590987558951   8.329221707365317 
  3.734059715412485  12.216516345767296   8.338241279248070 
  9.957064303645327   5.748792170863086   8.338563773853151 
 -2.490051441656179   5.748846722829646   1.667980388991229 
 -3.734440035495243  12.216204420022557   1.668106856292598 
  1.244703993194859  12.216610176211400   1.667865194164543 
  2.490628291635085   5.749369295216540   1.672721146390140 
  6.223182644640282  12.216373683750843   1.667758911177160 
  7.467961821401842   5.748665836217517   1.662697866882339 
 -1.245219416317571   7.904747836358742   8.337850356552030 
 -0.000521412513946   1.436845596074902   8.338001714396649 
  3.735810401945630   7.905185065227767   8.340641768569624 
  4.978790926644926   1.437639358920561   8.336449783529080 
  8.711916190446640   7.904322155381705   8.339188010497287 
 -3.734852507178615   7.904575486600368   1.667853872027360 
  9.957457667855255   1.437274896416226   8.338241279248070 
  2.489227681857835   1.436978074003331   1.669215432939467 
  1.245041978594696   7.904682239650452   1.669507429315560 
  6.223085871699739   7.904854230222132   1.662697866882339 
  7.468474917190473   1.437777204827726   1.667790054164855 
  1.245041978594696   7.904682239650453   8.336449783529080 
 12.446637265101598   1.437079380172609   1.667635320758685 
 -2.489806238278458  10.060489688778993   8.338225211509275 
 -1.245301609773610   3.592868141984263   8.338001714396649 
  3.735028320179973   3.594005220836619   8.333236066454488 
  2.490003351924938  10.060742899904650   8.338167158679758 
  7.467746521833863  10.060417045145229   8.338563773853151 
  8.712974424524809   3.593107728796952   8.339447623437444 
 -4.979405840194801  10.060205092113604   1.667853872027360 
 -0.000024680544008  10.060591047450277   1.667784472350096 
  1.244409083081347   3.592954916768856   1.669584832003096 
  4.978824092901460  10.060845826268810   1.666509589407184 
  6.224610598044073   3.594456675697846   1.665315444275003 
 11.201895583538693   3.592989917278173   1.667758911177160 
 -2.490051441656178   5.748846722829647   8.337976823853399 
 -3.734440035495243  12.216204420022557   8.337850356552030 
  1.244703993194860  12.216610176211400   8.338092018680099 
  2.490628291635085   5.749369295216541   8.333236066454488 
  6.223182644640283  12.216373683750843   8.338198301667468 
 -6.223921180527793  12.216098819399262   1.667980388991229 
  7.467961821401842   5.748665836217518   8.343259345962290 
 -1.244827680226939  12.216653088315274   1.667784472350096 
 -0.000312333336310   5.748987867795415   1.669215432939467 
 -1.245219416317572   7.904747836358741   1.668106856292598 
  4.981544381933134   5.750590987558950   1.676735505479296 
  3.734059715412485  12.216516345767296   1.667715933596557 
  9.957064303645327   5.748792170863085   1.667393438991477 
 -3.734852507178615   7.904575486600369   8.338103340817268 
  2.489227681857836   1.436978074003331   8.336741779905161 
  6.223085871699740   7.904854230222133   8.343259345962290 
  7.468474917190474   1.437777204827727   8.338167158679758 
 12.446637265101598   1.437079380172609   8.338321892085943 
  3.544041942435811   4.920648567154362   5.002978606422314 
  1.244605784625372   0.718857670411676   1.669295950586479 
  4.978074181651240   7.187625840410017   1.653844913352150 
  6.223031930586988   0.718748706057005   1.668808000003380 
  9.957457414635197   7.186136171769937   1.667261336374763 
 11.202256855154419   0.718636015515303   1.667426193737786 
 -3.734237484653880   9.342016973695976   8.338183810560906 
  1.244584912642758   9.341671883926237   8.337149212841341 
  2.489449253728653   2.874891123796020   8.331447795231856 
  6.223395395478521   9.342694143294427   8.341345544266938 
  7.468650074869982   2.874118147727601   8.340704324967762 
 12.447032301223651   2.874435243728676   8.337774832151389 
 -1.244864327244090   9.341820357546618   1.668189974644036 
  0.000028091643868   2.874511216387797   1.669908133083071 
  4.978240107958922   2.874735144303622   1.672917983314433 
  3.733998675811712   9.342724119454758   1.665252887876865 
  8.712719496091285   9.342085488795538   1.667261336374763 
  9.957988930715153   2.874235593737337   1.667409349686306 
 -4.979002691313706  11.498051084628523   8.337550224646700 
 -0.000376657196305  11.497762527545261   8.338323407699395 
  1.245067682152874   5.030223229767691   8.331447795231856 
  6.224317970484948   5.029068279532883   8.352112299492489 
  4.978769814962305  11.498496084239509   8.338547863158309 
 11.202499658325934   5.030194803896536   8.338007353687562 
 -1.244533794438741   5.030173888481356   1.669295950586479 
 -2.489721180529175  11.497975675586716   1.668189974644036 
  2.489109060426909  11.497985102153383   1.667973632512754 
  3.734503763735488   5.030611750952025   1.682053945275738 
  7.468140624288581  11.498294384553107   1.667949859157065 
  8.713322474587041   5.030013935136870   1.664611668577677 
 -0.000000109047143   7.185841503014381   8.335393533932912 
  1.244605784625372   0.718857670411677   8.336661262258135 
  4.978074181651241   7.187625840410018   8.352112299492489 
  6.223031930586989   0.718748706057006   8.337149212841341 
  9.957457414635197   7.186136171769938   8.338695876469853 
 -2.489439776490477   7.186001627515390   1.668406988197927 
 11.202256855154419   0.718636015515303   8.338531019106842 
  3.733735543622105   0.718821650559854   1.670563678911717 
  2.489328027065012   7.185657323983883   1.672917983314433 
  7.467791580868210   7.186026477136147   1.662149361485193 
  8.712716029979998   0.718381624547588   1.667973632512754 
  2.489328027065012   7.185657323983884   8.333039229530208 
 13.691621475280645   0.718743559711762   1.668182380693238 
 -1.244864327244090   9.341820357546618   8.337767238200605 
  0.000028091643868   2.874511216387798   8.336049079761569 
  4.978240107958923   2.874735144303623   8.333039229530208 
  3.733998675811713   9.342724119454758   8.340704324967762 
  8.712719496091285   9.342085488795538   8.338695876469853 
  9.957988930715153   2.874235593737338   8.338547863158309 
 -3.734237484653880   9.342016973695976   1.667773402283721 
  1.244584912642758   9.341671883926237   1.668808000003380 
  2.489449253728653   2.874891123796020   1.674509417612759 
  6.223395395478520   9.342694143294427   1.664611668577677 
  7.468650074869982   2.874118147727601   1.665252887876865 
 12.447032301223651   2.874435243728675   1.668182380693238 
 -1.244533794438740   5.030173888481357   8.336661262258135 
 -2.489721180529175  11.497975675586716   8.337767238200605 
  2.489109060426909  11.497985102153383   8.337983580331874 
  3.734503763735488   5.030611750952026   8.323903267568875 
  7.468140624288582  11.498294384553107   8.338007353687562 
 -4.979002691313707  11.498051084628523   1.668406988197927 
  8.713322474587041   5.030013935136870   8.341345544266938 
 -0.000376657196305  11.497762527545261   1.667633805145233 
  1.245067682152874   5.030223229767691   1.674509417612759 
 -0.000000109047144   7.185841503014380   1.670563678911717 
  6.224317970484947   5.029068279532882   1.653844913352150 
  4.978769814962305  11.498496084239509   1.667409349686306 
 11.202499658325934   5.030194803896535   1.667949859157065 
 -2.489439776490477   7.186001627515391   8.337550224646700 
  3.733735543622105   0.718821650559854   8.335393533932912 
  7.467791580868211   7.186026477136148   8.343807851359330 
  8.712716029979998   0.718381624547589   8.337983580331874 
 13.691621475280645   0.718743559711762   8.337774832151389 
 -0.032894232485044   1.410908677177958   5.002978606422314 
  3.844183266112788   7.745700415404316   5.002978606422314 
  4.965269570998091   1.506380535597057   5.002978606422314 
  8.781965501698977   7.944765144089818   5.002978606422314 
  9.934866246559380   1.445339043821851   5.002978606422314 
 -4.978792923996397  10.060747187514924  11.673616748318732 
 -0.000065498124498  10.060753468196252  11.673616748318732 
  1.244665767430771   3.593103113547043  11.673616748318732 
  4.978711881402672  10.060745144600391  11.673616748318732 
  6.223356824391250   3.592863047321657  11.673616748318732 
 11.202247795376564   3.593114429131945  11.673616748318732 
 -2.452018462961799  10.082306471030117   5.002978606422314 
 -1.283950050419809   3.577800916945624   5.002978606422314 
  3.640757256362756   3.606377659505716   5.002978606422314 
  2.535545051761252   9.998443900077264   5.002978606422314 
  7.492667255410566  10.056133151799894   5.002978606422314 
  8.682017411529550   3.631280726835639   5.002978606422314 
 -6.223475390007331  12.216642359080497  11.673616748318732 
 -1.244707428525131  12.216536528880766  11.673616748318732 
  0.000011497148057   5.748993977473462  11.673616748318732 
  4.978635480388063   5.748911532468797  11.673616748318732 
  3.734006359624153  12.216587845833198  11.673616748318732 
  9.957582954687190   5.748956728235797  11.673616748318732 
 -2.494589040773322   5.752722130691453   5.002978606422314 
 -3.714935789920593  12.247534704116937   5.002978606422314 
  1.251826415656387  12.220722308736889   5.002978606422314 
  2.454207605920687   5.661541939774485   5.002978606422314 
  6.212282649532787  12.190189322285221   5.002978606422314 
  7.489155725568322   5.814488867272760   5.002978606422314 
 -1.244716271271891   7.904851150984362  11.673616748318732 
  0.000002279784946   1.437231355439116  11.673616748318732 
  3.733803392461238   7.904896079581934  11.673616748318732 
  4.978776276980605   1.437137605243767  11.673616748318732 
  8.712840250245332   7.904855661555193  11.673616748318732 
 -3.689896717028619   7.926097950959608   5.002978606422314 
  9.957492910834478   1.437192938915230  11.673616748318732 
  2.462832089002684   1.425142983142032   5.002978606422314 
  1.297812906059099   7.858601813828543   5.002978606422314 
  6.290687240830851   7.890297174108160   5.002978606422314 
  7.437293250627797   1.508366973731115   5.002978606422314 
  1.244600122332035   7.904920429507312  11.673616748318732 
 12.419185372747304   1.421230022732135   5.002978606422314 
 -2.489413664539031  10.060716341333121  11.673616748318732 
 -1.244705686215067   3.593128793136868  11.673616748318732 
  3.734047083524758   3.593104080521643  11.673616748318732 
  2.489221838916539  10.060765802012522  11.673616748318732 
  7.468148358219941  10.060783931436827  11.673616748318732 
  8.712831125892874   3.593060891622604  11.673616748318732 
 -4.938288944232662  10.088376716251094   5.002978606422314 
  0.036872368040935  10.055949540156258   5.002978606422314 
  1.182803048298567   3.557386656003262   5.002978606422314 
  4.996404372443939  10.014949767570300   5.002978606422314 
  6.140679271866880   3.768052654059211   5.002978606422314 
 11.173769263773849   3.596642425346757   5.002978606422314 
 -2.489357827223975   5.748961018904410  11.673616748318732 
 -3.734098989881995  12.216588499101031  11.673616748318732 
  1.244602819794615  12.216551763721473  11.673616748318732 
  2.489357262902333   5.748970089503488  11.673616748318732 
  6.223466580987611  12.216616452223150  11.673616748318732 
 -6.222833778428022  12.210231439360735   5.002978606422314 
  7.468116153401712   5.748929212679621  11.673616748318732 
 -1.230398819162939  12.250927623361513   5.002978606422314 
 -0.023759619105830   5.732046159265488   5.002978606422314 
 -1.208334471596684   7.905973866460770   5.002978606422314 
  3.729747761277624  12.192919527314762   5.002978606422314 
  9.965814709969532   5.772516105894097   5.002978606422314 
 -3.734076580690610   7.904835239897942  11.673616748318732 
  2.489394888236461   1.437255464590213  11.673616748318732 
  6.223391128406553   7.904856197423690  11.673616748318732 
  7.468103994493544   1.437088943655039  11.673616748318732 
 12.446909859091658   1.437236762386157  11.673616748318732 
Generated by cif2cell 2.0.0.  :  Failed to get author information, No journal information. Species order: B C N 
 1.0
 14.936314146199660   0.000000000000000   0.000000000000000
 -7.468157073099825  12.935227489513863   0.000000000000000
  0.000000000000001   0.000000000000001  13.341276283792837
 B C N 
 143   1 143
Cartesian
  1.219216692943155   0.701334961184589   5.002978606422314 
  5.175422281482679   6.962102798632113   5.002978606422314 
  6.214979787861798   0.766363651995006   5.002978606422314 
 10.004142154673584   7.209080348828499   5.002978606422314 
 11.175371137972848   0.703113539463105   5.002978606422314 
 -3.734220530977306   9.342026761905815  11.673616748318732 
  1.244749346875391   9.342278222341733  11.673616748318732 
  2.489573692386968   2.874522337255838  11.673616748318732 
  6.223345453766923   9.341868566626760  11.673616748318732 
  7.468107455791251   2.874533493468079  11.673616748318732 
 12.446660966448304   2.874429267179926  11.673616748318732 
 -1.211195032044773   9.348894922551700   5.002978606422314 
 -0.059339357455887   2.840235403669006   5.002978606422314 
  4.966978468497502   2.953285550919517   5.002978606422314 
  3.791762420107540   9.228480469782555   5.002978606422314 
  8.755932106312120   9.371043571108572   5.002978606422314 
  9.919398652469662   2.888780473908533   5.002978606422314 
 -4.978846576521295  11.497812513536296  11.673616748318732 
  0.000042813245374  11.498004708917614  11.673616748318732 
  1.244810522969592   5.030515390077213  11.673616748318732 
  6.223472424356030   5.030407678911259  11.673616748318732 
  4.978675242201517  11.497766818348158  11.673616748318732 
 11.201955639496726   5.030357425833584  11.673616748318732 
 -1.272403451613694   5.016947644719193   5.002978606422314 
 -2.466759779914382  11.523596858054287   5.002978606422314 
  2.499134647058612  11.460981072650124   5.002978606422314 
  7.469221927005884  11.485796640841405   5.002978606422314 
  8.705175568714250   5.069786324705553   5.002978606422314 
  0.000016449143762   7.186435465808886  11.673616748318732 
  1.244638291057619   0.718454590599725  11.673616748318732 
  4.978811362474216   7.186223876293204  11.673616748318732 
  6.223639252174419   0.718587941071958  11.673616748318732 
  9.957264151155091   7.186163273419312  11.673616748318732 
 -2.460188275455998   7.193119506633718   5.002978606422314 
 11.202045123980220   0.718513772464824  11.673616748318732 
  3.734339918135534   0.748323634391747   5.002978606422314 
  2.551723854941264   7.136629254814085   5.002978606422314 
  7.552550775263526   7.234962220836510   5.002978606422314 
  8.685682393703624   0.745566052010139   5.002978606422314 
  2.489598773807532   7.186506435110633  11.673616748318732 
 13.659907709488417   0.690842251792194   5.002978606422314 
 -1.244700500822000   9.342196653920091  11.673616748318732 
 -0.000145922092377   2.874410749510344  11.673616748318732 
  4.979110833136583   2.874545062297261  11.673616748318732 
  3.734087066235014   9.342046524677658  11.673616748318732 
  8.712646335068090   9.341904566887431  11.673616748318732 
  9.957310081546733   2.874518324269667  11.673616748318732 
 -3.695861150902981   9.364173560317552   5.002978606422314 
  1.281794594062301   9.310891050802311   5.002978606422314 
  2.407719075972748   2.837250955725181   5.002978606422314 
  6.253765842277859   9.315752521061933   5.002978606422314 
  7.398594044180719   2.981264842541596   5.002978606422314 
 12.407012176870477   2.860920970862551   5.002978606422314 
 -1.244866618579527   5.030403579783457  11.673616748318732 
 -2.489313385099352  11.497929405243323  11.673616748318732 
  2.489333925870148  11.497935501594981  11.673616748318732 
  3.734518979463719   5.030620535756928  11.673616748318732 
  7.468009449602628  11.497741939458434  11.673616748318732 
 -4.958212676658922  11.519824688064032   5.002978606422314 
  8.712582533364259   5.030383472679766  11.673616748318732 
  0.013801118528934  11.505948070176757   5.002978606422314 
  1.171605251522801   4.978262903610782   5.002978606422314 
  0.025851545669976   7.171613914780553   5.002978606422314 
  6.127683337082212   5.312738268264539   5.002978606422314 
  4.972070911562813  11.457803482854207   5.002978606422314 
 11.192216946140256   5.037380111374765   5.002978606422314 
 -2.489568327720741   7.186256112437627  11.673616748318732 
  3.734258209586495   0.718539008976579  11.673616748318732 
  7.467917130462199   7.186098963228026  11.673616748318732 
  8.712785507357937   0.718601164013172  11.673616748318732 
 13.691430632049974   0.718424962637299  11.673616748318732 
 -0.000521412513947   1.436845596074902   1.667955498447991 
  3.735810401945630   7.905185065227766   1.665315444275003 
  4.978790926644925   1.437639358920560   1.669507429315560 
  8.711916190446640   7.904322155381704   1.666769202347354 
  9.957457667855255   1.437274896416225   1.667715933596557 
 -4.979405840194800  10.060205092113604   8.338103340817268 
 -0.000024680544008  10.060591047450277   8.338172740494532 
  1.244409083081347   3.592954916768857   8.336372380841532 
  4.978824092901461  10.060845826268810   8.339447623437444 
  6.224610598044074   3.594456675697847   8.340641768569624 
 11.201895583538693   3.592989917278174   8.338198301667468 
 -2.489806238278458  10.060489688778993   1.667732001335352 
 -1.245301609773610   3.592868141984262   1.667955498447991 
  3.735028320179973   3.594005220836618   1.672721146390140 
  2.490003351924938  10.060742899904650   1.667790054164855 
  7.467746521833862  10.060417045145229   1.667393438991477 
  8.712974424524809   3.593107728796952   1.666509589407184 
 -6.223921180527792  12.216098819399262   8.337976823853399 
 -1.244827680226938  12.216653088315274   8.338172740494532 
 -0.000312333336310   5.748987867795416   8.336741779905161 
  4.981544381933134   5.750590987558951   8.329221707365317 
  3.734059715412485  12.216516345767296   8.338241279248070 
  9.957064303645327   5.748792170863086   8.338563773853151 
 -2.490051441656179   5.748846722829646   1.667980388991229 
 -3.734440035495243  12.216204420022557   1.668106856292598 
  1.244703993194859  12.216610176211400   1.667865194164543 
  2.490628291635085   5.749369295216540   1.672721146390140 
  6.223182644640282  12.216373683750843   1.667758911177160 
  7.467961821401842   5.748665836217517   1.662697866882339 
 -1.245219416317571   7.904747836358742   8.337850356552030 
 -0.000521412513946   1.436845596074902   8.338001714396649 
  3.735810401945630   7.905185065227767   8.340641768569624 
  4.978790926644926   1.437639358920561   8.336449783529080 
  8.711916190446640   7.904322155381705   8.339188010497287 
 -3.734852507178615   7.904575486600368   1.667853872027360 
  9.957457667855255   1.437274896416226   8.338241279248070 
  2.489227681857835   1.436978074003331   1.669215432939467 
  1.245041978594696   7.904682239650452   1.669507429315560 
  6.223085871699739   7.904854230222132   1.662697866882339 
  7.468474917190473   1.437777204827726   1.667790054164855 
  1.245041978594696   7.904682239650453   8.336449783529080 
 12.446637265101598   1.437079380172609   1.667635320758685 
 -2.489806238278458  10.060489688778993   8.338225211509275 
 -1.245301609773610   3.592868141984263   8.338001714396649 
  3.735028320179973   3.594005220836619   8.333236066454488 
  2.490003351924938  10.060742899904650   8.338167158679758 
  7.467746521833863  10.060417045145229   8.338563773853151 
  8.712974424524809   3.593107728796952   8.339447623437444 
 -4.979405840194801  10.060205092113604   1.667853872027360 
 -0.000024680544008  10.060591047450277   1.667784472350096 
  1.244409083081347   3.592954916768856   1.669584832003096 
  4.978824092901460  10.060845826268810   1.666509589407184 
  6.224610598044073   3.594456675697846   1.665315444275003 
 11.201895583538693   3.592989917278173   1.667758911177160 
 -2.490051441656178   5.748846722829647   8.337976823853399 
 -3.734440035495243  12.216204420022557   8.337850356552030 
  1.244703993194860  12.216610176211400   8.338092018680099 
  2.490628291635085   5.749369295216541   8.333236066454488 
  6.223182644640283  12.216373683750843   8.338198301667468 
 -6.223921180527793  12.216098819399262   1.667980388991229 
  7.467961821401842   5.748665836217518   8.343259345962290 
 -1.244827680226939  12.216653088315274   1.667784472350096 
 -0.000312333336310   5.748987867795415   1.669215432939467 
 -1.245219416317572   7.904747836358741   1.668106856292598 
  4.981544381933134   5.750590987558950   1.676735505479296 
  3.734059715412485  12.216516345767296   1.667715933596557 
  9.957064303645327   5.748792170863085   1.667393438991477 
 -3.734852507178615   7.904575486600369   8.338103340817268 
  2.489227681857836   1.436978074003331   8.336741779905161 
  6.223085871699740   7.904854230222133   8.343259345962290 
  7.468474917190474   1.437777204827727   8.338167158679758 
 12.446637265101598   1.437079380172609   8.338321892085943 
  3.544041942435811   4.920648567154362   5.002978606422314 
  1.244605784625372   0.718857670411676   1.669295950586479 
  4.978074181651240   7.187625840410017   1.653844913352150 
  6.223031930586988   0.718748706057005   1.668808000003380 
  9.957457414635197   7.186136171769937   1.667261336374763 
 11.202256855154419   0.718636015515303   1.667426193737786 
 -3.734237484653880   9.342016973695976   8.338183810560906 
  1.244584912642758   9.341671883926237   8.337149212841341 
  2.489449253728653   2.874891123796020   8.331447795231856 
  6.223395395478521   9.342694143294427   8.341345544266938 
  7.468650074869982   2.874118147727601   8.340704324967762 
 12.447032301223651   2.874435243728676   8.337774832151389 
 -1.244864327244090   9.341820357546618   1.668189974644036 
  0.000028091643868   2.874511216387797   1.669908133083071 
  4.978240107958922   2.874735144303622   1.672917983314433 
  3.733998675811712   9.342724119454758   1.665252887876865 
  8.712719496091285   9.342085488795538   1.667261336374763 
  9.957988930715153   2.874235593737337   1.667409349686306 
 -4.979002691313706  11.498051084628523   8.337550224646700 
 -0.000376657196305  11.497762527545261   8.338323407699395 
  1.245067682152874   5.030223229767691   8.331447795231856 
  6.224317970484948   5.029068279532883   8.352112299492489 
  4.978769814962305  11.498496084239509   8.338547863158309 
 11.202499658325934   5.030194803896536   8.338007353687562 
 -1.244533794438741   5.030173888481356   1.669295950586479 
 -2.489721180529175  11.497975675586716   1.668189974644036 
  2.489109060426909  11.497985102153383   1.667973632512754 
  3.734503763735488   5.030611750952025   1.682053945275738 
  7.468140624288581  11.498294384553107   1.667949859157065 
  8.713322474587041   5.030013935136870   1.664611668577677 
 -0.000000109047143   7.185841503014381   8.335393533932912 
  1.244605784625372   0.718857670411677   8.336661262258135 
  4.978074181651241   7.187625840410018   8.352112299492489 
  6.223031930586989   0.718748706057006   8.337149212841341 
  9.957457414635197   7.186136171769938   8.338695876469853 
 -2.489439776490477   7.186001627515390   1.668406988197927 
 11.202256855154419   0.718636015515303   8.338531019106842 
  3.733735543622105   0.718821650559854   1.670563678911717 
  2.489328027065012   7.185657323983883   1.672917983314433 
  7.467791580868210   7.186026477136147   1.662149361485193 
  8.712716029979998   0.718381624547588   1.667973632512754 
  2.489328027065012   7.185657323983884   8.333039229530208 
 13.691621475280645   0.718743559711762   1.668182380693238 
 -1.244864327244090   9.341820357546618   8.337767238200605 
  0.000028091643868   2.874511216387798   8.336049079761569 
  4.978240107958923   2.874735144303623   8.333039229530208 
  3.733998675811713   9.342724119454758   8.340704324967762 
  8.712719496091285   9.342085488795538   8.338695876469853 
  9.957988930715153   2.874235593737338   8.338547863158309 
 -3.734237484653880   9.342016973695976   1.667773402283721 
  1.244584912642758   9.341671883926237   1.668808000003380 
  2.489449253728653   2.874891123796020   1.674509417612759 