Species order: X N B                    
   2.51242800000000     
     5.9449720136058266    0.0000000000000000    0.0000000000000000
    -2.9724860068029120    5.1484967885702053   -0.0000000000000001
     0.0000000000000000    0.0000000000000009    5.3101128803662583
   C    N    B 
     1   143   143
Direct
  0.4274802775820353  0.3804068054576816  0.3750000000000000
  0.1111143243173446  0.0555736395818654  0.1251226580634093
  0.6111180982202828  0.5556628861948330  0.1239645201982107
  0.4444203318525968  0.0555652157366130  0.1250860835578883
  0.9444348136872189  0.5555477224962214  0.1249701528481332
  0.7777796743192744  0.0555565038263048  0.1249825097890667
  0.1110969221483414  0.7222151277408324  0.6249914650737164
  0.4444203318525968  0.7221884494493201  0.6249139164421190
  0.2777973452706778  0.2222528460459308  0.6244865647039344
  0.7777957975677520  0.7222674785478821  0.6252284539223671
  0.6111295512263845  0.2221930886068716  0.6251803911069714
  0.9444490872969328  0.2222176027486856  0.6249608099549094
  0.2777551496506321  0.7221999276873715  0.1250397592523115
  0.1111136187930424  0.2222234760631819  0.1251685444151772
  0.4444181578130794  0.2222407875419333  0.1253941487852038
  0.6111295512263845  0.7222697959528412  0.1248196088930292
  0.9444348136872189  0.7222204245243338  0.1249701528481332
  0.7777976220076821  0.2222021681541651  0.1249812472373350
  0.1110983728187594  0.8888943850388087  0.6249439744213432
  0.4444108210491276  0.8888720771912276  0.6250019286257421
  0.2777973452706778  0.3888778325580684  0.6244865647039344
  0.6111180982202828  0.3887885453587713  0.6260354798017901
  0.7777976220076821  0.8889287871868462  0.6250187527626642
  0.9444554958039019  0.3888756350032758  0.6249782386874554
  0.1111143243173446  0.3888740180688077  0.1251226580634093
  0.2777551496506321  0.8888885552965902  0.1250397592523115
  0.6110927880166326  0.8888892840481082  0.1250235432526819
  0.4444824035804914  0.3889078684569067  0.1260789379887978
  0.9444554958039019  0.8889131941339546  0.1250217613125448
  0.7777957975677520  0.3888616523531981  0.1247715460776322
  0.2777624637821209  0.5555249421658556  0.6247823189194318
  0.1111143243173446  0.0555736395818654  0.6248773419365904
  0.6111180982202828  0.5556628861948330  0.6260354798017901
  0.4444203318525968  0.0555652157366130  0.6249139164421190
  0.9444348136872189  0.5555477224962214  0.6250298471518657
  0.1110983728187594  0.5555373211132799  0.1250560255786571
  0.7777796743192744  0.0555565038263048  0.6250174902109332
  0.2777624637821209  0.0555708549496004  0.1252176810805680
  0.4444181578130794  0.5555107036044817  0.1253941487852038
  0.7777451510553701  0.5555392421943568  0.1245869829938530
  0.6110927880166326  0.0555368373018535  0.1250235432526819
  0.4444181578130794  0.5555107036044817  0.6246058512147965
  0.9444490872969328  0.0555648178815893  0.1250391900450910
  0.2777551496506321  0.7221999276873715  0.6249602407476886
  0.1111136187930424  0.2222234760631819  0.6248314555848243
  0.4444181578130794  0.2222407875419333  0.6246058512147965
  0.6111295512263845  0.7222697959528412  0.6251803911069714
  0.9444348136872189  0.7222204245243338  0.6250298471518657
  0.7777976220076821  0.2222021681541651  0.6250187527626642
  0.1110969221483414  0.7222151277408324  0.1250085349262842
  0.4444203318525968  0.7221884494493201  0.1250860835578883
  0.2777973452706778  0.2222528460459308  0.1255134352960654
  0.7777957975677520  0.7222674785478821  0.1247715460776322
  0.6111295512263845  0.2221930886068716  0.1248196088930292
  0.9444490872969328  0.2222176027486856  0.1250391900450910
  0.1111143243173446  0.3888740180688077  0.6248773419365904
  0.2777551496506321  0.8888885552965902  0.6249602407476886
  0.6110927880166326  0.8888892840481082  0.6249764567473185
  0.4444824035804914  0.3889078684569067  0.6239210620112013
  0.9444554958039019  0.8889131941339546  0.6249782386874554
  0.1110983728187594  0.8888943850388087  0.1250560255786571
  0.7777957975677520  0.3888616523531981  0.6252284539223671
  0.4444108210491276  0.8888720771912276  0.1249980713742584
  0.2777973452706778  0.3888778325580684  0.1255134352960654
  0.2777624637821209  0.5555249421658556  0.1252176810805680
  0.6111180982202828  0.3887885453587713  0.1239645201982107
  0.7777976220076821  0.8889287871868462  0.1249812472373350
  0.9444554958039019  0.3888756350032758  0.1250217613125448
  0.1110983728187594  0.5555373211132799  0.6249439744213432
  0.2777624637821209  0.0555708549496004  0.6247823189194318
  0.7777451510553701  0.5555392421943568  0.6254130170061389
  0.6110927880166326  0.0555368373018535  0.6249764567473185
  0.9444490872969328  0.0555648178815893  0.6249608099549094
  0.0523351520618973  0.1090749024956645  0.3750000000000000
  0.5567749449166857  0.5988066635614628  0.3750000000000000
  0.3906572077698094  0.1164556662662662  0.3750000000000000
  0.8950586915506921  0.6141960124420204  0.3750000000000000
  0.7210167801217752  0.1117366544186049  0.3750000000000000
  0.0555546813519055  0.7777789138745967  0.8750000000000000
  0.3888853145517777  0.7777793994231756  0.8750000000000000
  0.2222198050184785  0.2777765691759075  0.8750000000000000
  0.7222187276792489  0.7777787559404176  0.8750000000000000
  0.5555384809601829  0.2777580100724366  0.8750000000000000
  0.8888895378277166  0.2777774439641485  0.8750000000000000
  0.2255579160402765  0.7794456246868093  0.3750000000000000
  0.0523351520618973  0.2765935828995681  0.3750000000000000
  0.3831534549193937  0.2788028012981824  0.3750000000000000
  0.5562382558124007  0.7729623547929604  0.3750000000000000
  0.8903520846870082  0.7774222107768924  0.3750000000000000
  0.7216330756817705  0.2807280142370428  0.3750000000000000
  0.0555563010043047  0.9444474300111153  0.8750000000000000
  0.3888853145517777  0.9444392484619448  0.8750000000000000
  0.2222231458928166  0.4444447522963135  0.8750000000000000
  0.5555434238986932  0.4444383786160109  0.8750000000000000
  0.7222167755315505  0.9444432156865238  0.8750000000000000
  0.8888902937724903  0.4444418726223620  0.8750000000000000
  0.0553514489493271  0.4447329693548095  0.3750000000000000
  0.2246994563424127  0.9468356636205734  0.3750000000000000
  0.5561923543507525  0.9447628438420430  0.3750000000000000
  0.3831534549193937  0.4376839869545471  0.3750000000000000
  0.8871192455200179  0.9424023916214375  0.3750000000000000
  0.7261599034490019  0.4495080486204335  0.3750000000000000
  0.2222202637253266  0.6111103308691362  0.8750000000000000
  0.0555550841802975  0.1111098630931874  0.8750000000000000
  0.5555384809601829  0.6111138042210816  0.8750000000000000
  0.3888849687664424  0.1111026154282016  0.8750000000000000
  0.8888880258137448  0.6111106795735430  0.8750000000000000
  0.0593344556030716  0.6127528841209029  0.3750000000000000
  0.7222167755315505  0.1111068931783624  0.8750000000000000
  0.2199765445338753  0.1101753319991736  0.3750000000000000
  0.3906572077698094  0.6075348748368931  0.3750000000000000
  0.7261599034490019  0.6099851881619052  0.3750000000000000
  0.5562382558124007  0.1166092343527703  0.3750000000000000
  0.3888849687664424  0.6111156866715759  0.8750000000000000
  0.8864123223011307  0.1098728278172364  0.3750000000000000
  0.2222197250862310  0.7777765292097868  0.8750000000000000
  0.0555550841802975  0.2777785544204527  0.8750000000000000
  0.3888862161564909  0.2777766439310360  0.8750000000000000
  0.5555458730809749  0.7777803529291182  0.8750000000000000
  0.8888902937724903  0.7777817544834640  0.8750000000000000
  0.7222187276792489  0.2777733050721660  0.8750000000000000
  0.0593344556030716  0.7799149048155043  0.3750000000000000
  0.3911726470679514  0.7774080160792119  0.3750000000000000
  0.2166974502593161  0.2750153917963260  0.3750000000000000
  0.7216330756817705  0.7742383947780639  0.3750000000000000
  0.5567749449166857  0.2913016146885581  0.3750000000000000
  0.8871192455200179  0.2780501872319157  0.3750000000000000
  0.0555563010043047  0.4444422043265102  0.8750000000000000
  0.2222202637253266  0.9444432661895267  0.8750000000000000
  0.5555475191487874  0.9444404262410540  0.8750000000000000
  0.3888862161564909  0.4444429055587913  0.8750000000000000
  0.8888895378277166  0.9444454271969106  0.8750000000000000
  0.0553514489493271  0.9439518129278469  0.3750000000000000
  0.7222171331097135  0.4444397454424422  0.8750000000000000
  0.3911726470679514  0.9470979643220744  0.3750000000000000
  0.2199765445338753  0.4431345458680375  0.3750000000000000
  0.2246994563424127  0.6111971260551754  0.3750000000000000
  0.7210167801217752  0.9426134590365063  0.3750000000000000
  0.8903520846870082  0.4462632072434504  0.3750000000000000
  0.0555546813519055  0.6111091008106444  0.8750000000000000
  0.2222231458928166  0.1111117269298389  0.8750000000000000
  0.7222171331097135  0.6111107210006073  0.8750000000000000
  0.5555458730809749  0.1110988534851854  0.8750000000000000
  0.8888872288564315  0.1111102810948840  0.8750000000000000
  0.1087371760983225  0.0542189893260975  0.3750000000000000
  0.6156133378286158  0.5382280910232191  0.3750000000000000
  0.4457217479141026  0.0592462446150462  0.3750000000000000
  0.9484472873305055  0.5573214970260590  0.3750000000000000
  0.7753796429221094  0.0543564881277186  0.3750000000000000
  0.1110984355673766  0.7222158844503559  0.8750000000000000
  0.4444547783616215  0.7222353244204778  0.8750000000000000
  0.2777914214296913  0.2222243357982001  0.8750000000000000
  0.7777605419740524  0.7222036546477345  0.8750000000000000
  0.6111092772082635  0.2222251982656171  0.8750000000000000
  0.9444239950731281  0.2222171407120694  0.8750000000000000
  0.2802828011742850  0.7227468500365006  0.3750000000000000
  0.1058140115388801  0.2195736724361044  0.3750000000000000
  0.4467004785121183  0.2283133832252768  0.3750000000000000
  0.6105808979565472  0.7134378175616748  0.3750000000000000
  0.9484472873305055  0.7244591236377834  0.3750000000000000
  0.7757761870359892  0.2233266076109106  0.3750000000000000
  0.1110996030893537  0.8888759415214899  0.8750000000000000
  0.4444482662927619  0.8888907998130410  0.8750000000000000
  0.2777914214296913  0.3889004189648207  0.8750000000000000
  0.6111132614488706  0.3888920920014149  0.8750000000000000
  0.7777631011336281  0.8888724089057567  0.8750000000000000
  0.9444253592517595  0.3888882070231479  0.8750000000000000
  0.1087371760983225  0.3878515201055608  0.3750000000000000
  0.2802828011742850  0.8908692844711132  0.3750000000000000
  0.6103336516157700  0.8860285667137394  0.3750000000000000
  0.9440448005735481  0.8879470152459660  0.3750000000000000
  0.7787877219344986  0.3919363868022767  0.3750000000000000
  0.2777865314849482  0.5555708603992221  0.8750000000000000
  0.1111009199524042  0.0555424781807777  0.8750000000000000
  0.6111132614488706  0.5555545027807840  0.8750000000000000
  0.4444547783616215  0.0555527872744793  0.8750000000000000
  0.9444229221098319  0.5555498176777243  0.8750000000000000
  0.1133319232203482  0.5560875920013716  0.3750000000000000
  0.7777607735228970  0.0555470534281126  0.8750000000000000
  0.2789433008111066  0.0578516021460297  0.3750000000000000
  0.4467004785121183  0.5517204286201769  0.3750000000000000
  0.7853114259801962  0.5593223796567658  0.3750000000000000
  0.6103336516157700  0.0576384182353609  0.3750000000000000
  0.4444691062112357  0.5555763469128382  0.8750000000000000
  0.9412473205851299  0.0534078161634367  0.3750000000000000
  0.2777806633905600  0.7222290185072879  0.8750000000000000
  0.1110980849529855  0.2222157091431535  0.8750000000000000
  0.4444691062112357  0.2222260926317341  0.8750000000000000
  0.6111092772082635  0.7222174122759673  0.8750000000000000
  0.9444229221098319  0.7222064377654425  0.8750000000000000
  0.7777631011336281  0.2222240255612000  0.8750000000000000
  0.1145226967069329  0.7239280150201266  0.3750000000000000
  0.4457217479141026  0.7198088366323917  0.3750000000000000
  0.2708704864813380  0.2193429499423366  0.3750000000000000
  0.7787877219344986  0.7201846684655442  0.3750000000000000
  0.6105808979565472  0.2304764137282009  0.3750000000000000
  0.9412473205851299  0.2211728377550218  0.3750000000000000
  0.1111009199524042  0.3888917751049551  0.8750000000000000
  0.2777806633905600  0.8888849782166016  0.8750000000000000
  0.6111059256987657  0.8888854495149744  0.8750000000000000
  0.4444837618565359  0.3889085475949358  0.8750000000000000
  0.9444253592517595  0.8888704855619473  0.8750000000000000
  0.1133319232203482  0.8905776645523054  0.3750000000000000
  0.7777605419740524  0.3888902206596460  0.8750000000000000
  0.4456764412538159  0.8895048872935728  0.3750000000000000
  0.2708704864813380  0.3848608698723304  0.3750000000000000
  0.2789433008111066  0.5544250319984191  0.3750000000000000
  0.6156133378286158  0.4107185801387250  0.3750000000000000
  0.7757761870359892  0.8857829127584067  0.3750000000000000
  0.9440448005735481  0.3894311186609123  0.3750000000000000
  0.1110996030893537  0.5555569949011928  0.8750000000000000
  0.2777865314849482  0.0555490044190617  0.8750000000000000
  0.7777563586034305  0.5555448459683867  0.8750000000000000
  0.6111059256987657  0.0555538095171279  0.8750000000000000
  0.9444239950731281  0.0555401876943952  0.8750000000000000
  0.0555051113045018  0.1110800407058711  0.1250221840075557
  0.5556840225846780  0.6111361452000917  0.1248242978295896
  0.3889053444281818  0.1111414051346222  0.1251385095250367
  0.8888055369400173  0.6110694351366809  0.1249332647710895
  0.7222175839777263  0.1111132291706023  0.1250042273408673
  0.0554926918198677  0.7777370054194304  0.6249854334361177
  0.3888817690933474  0.7777668429570370  0.6249906353130439
  0.2221968913467479  0.2777651123400450  0.6248556887296215
  0.7222301321050986  0.7777865394655625  0.6250861946070569
  0.5556840225846780  0.2778812107179214  0.6251757021704103
  0.8888611440227917  0.2777678181687089  0.6249925512596441
  0.2221846808546059  0.7777590070939746  0.1250054317038118
  0.0555051113045018  0.2777584039319664  0.1250221840075557
  0.3889867436523612  0.2778463095256847  0.1253793948051422
  0.5555973108361494  0.7777785824068839  0.1250097830738213
  0.8888492087846349  0.7777533911406550  0.1249800546456749
  0.7222301321050986  0.2777769259728723  0.1249138053929429
  0.0555054448630709  0.9444054099011729  0.6249759503131257
  0.3888817690933474  0.9444482594696447  0.6249906353130439
  0.2222012289790838  0.4444442799677018  0.6248833771648030
  0.5558030954184204  0.4445682143758781  0.6243197075143231
  0.7222175839777263  0.9444376881404523  0.6249957726591330
  0.8888492087846349  0.4444291509773157  0.6250199453543251
  0.0555054448630709  0.4444333682952260  0.1250240496868743
  0.2221825841634833  0.9444135737021875  0.1250335290873956
  0.5555565506853296  0.9444449420093288  0.1250154152186093
  0.3889867436523612  0.4444737674600117  0.1253793948051422
  0.8888611440227917  0.9444266591874186  0.1250074487403564
  0.7221966198513444  0.4444193842650050  0.1246280964065039
  0.2221825841634833  0.6111023437946375  0.6249664709126040
  0.0555051113045018  0.1110800407058711  0.6249778159924453
  0.5556840225846780  0.6111361452000917  0.6251757021704103
  0.3889053444281818  0.1111414051346222  0.6248614904749636
  0.8888055369400173  0.6110694351366809  0.6250667352289107
  0.0554926918198677  0.6110890197337722  0.1250145665638816
  0.7222175839777263  0.1111132291706023  0.6249957726591330
  0.2222012289790838  0.1110902823447245  0.1251166228351967
  0.3889053444281818  0.6110972726269022  0.1251385095250367
  0.7221966198513444  0.6111105689196673  0.1246280964065039
  0.5555973108361494  0.1111520617626005  0.1250097830738213
  0.3889053444281818  0.6110972726269022  0.6248614904749636
  0.8888628949645583  0.1110981141489470  0.1249981849775906
  0.2221846808546059  0.7777590070939746  0.6249945682961882
  0.0555051113045018  0.2777584039319664  0.6249778159924453
  0.3889867436523612  0.2778463095256847  0.6246206051948582
  0.5555973108361494  0.7777785824068839  0.6249902169261782
  0.8888492087846349  0.7777533911406550  0.6250199453543251
  0.7222301321050986  0.2777769259728723  0.6250861946070569
  0.0554926918198677  0.7777370054194304  0.1250145665638816
  0.3888817690933474  0.7777668429570370  0.1250093646869562
  0.2221968913467479  0.2777651123400450  0.1251443112703786
  0.7222301321050986  0.7777865394655625  0.1249138053929429
  0.5556840225846780  0.2778812107179214  0.1248242978295896
  0.8888611440227917  0.2777678181687089  0.1250074487403564
  0.0555054448630709  0.4444333682952260  0.6249759503131257
  0.2221825841634833  0.9444135737021875  0.6249664709126040
  0.5555565506853296  0.9444449420093288  0.6249845847813918
  0.3889867436523612  0.4444737674600117  0.6246206051948582
  0.8888611440227917  0.9444266591874186  0.6249925512596441
  0.0555054448630709  0.9444054099011729  0.1250240496868743
  0.7221966198513444  0.4444193842650050  0.6253719035934957
  0.3888817690933474  0.9444482594696447  0.1250093646869562
  0.2222012289790838  0.4444442799677018  0.1251166228351967
  0.2221825841634833  0.6111023437946375  0.1250335290873956
  0.5558030954184204  0.4445682143758781  0.1256802924856765
  0.7222175839777263  0.9444376881404523  0.1250042273408673
  0.8888492087846349  0.4444291509773157  0.1249800546456749
  0.0554926918198677  0.6110890197337722  0.6249854334361177
  0.2222012289790838  0.1110902823447245  0.6248833771648030
  0.7221966198513444  0.6111105689196673  0.6253719035934957
  0.5555973108361494  0.1111520617626005  0.6249902169261782
  0.8888628949645583  0.1110981141489470  0.6250018150224095
 
  0.00000000E+00  0.00000000E+00  0.00000000E+00
  0.00000000E+00  0.00000000E+00  0.00000000E+00
  0.00000000E+00  0.00000000E+00  0.00000000E+00
  0.00000000E+00  0.00000000E+00  0.00000000E+00
  0.00000000E+00  0.00000000E+00  0.00000000E+00
  0.00000000E+00  0.00000000E+00  0.00000000E+00
  0.00000000E+00  0.00000000E+00  0.00000000E+00
  0.00000000E+00  0.00000000E+00  0.00000000E+00
  0.00000000E+00  0.00000000E+00  0.00000000E+00
  0.00000000E+00  0.00000000E+00  0.00000000E+00
  0.00000000E+00  0.00000000E+00  0.00000000E+00
  0.00000000E+00  0.00000000E+00  0.00000000E+00
  0.00000000E+00  0.00000000E+00  0.00000000E+00
  0.00000000E+00  0.00000000E+00  0.00000000E+00
  0.00000000E+00  0.00000000E+00  0.00000000E+00
  0.00000000E+00  0.00000000E+00  0.00000000E+00
  0.00000000E+00  0.00000000E+00  0.00000000E+00
  0.00000000E+00  0.00000000E+00  0.00000000E+00
  0.00000000E+00  0.00000000E+00  0.00000000E+00
  0.00000000E+00  0.00000000E+00  0.00000000E+00
  0.00000000E+00  0.00000000E+00  0.00000000E+00
  0.00000000E+00  0.00000000E+00  0.00000000E+00
  0.00000000E+00  0.00000000E+00  0.00000000E+00
  0.00000000E+00  0.00000000E+00  0.00000000E+00
  0.00000000E+00  0.00000000E+00  0.00000000E+00
  0.00000000E+00  0.00000000E+00  0.00000000E+00
  0.00000000E+00  0.00000000E+00  0.00000000E+00
  0.00000000E+00  0.00000000E+00  0.00000000E+00
  0.00000000E+00  0.00000000E+00  0.00000000E+00
  0.00000000E+00  0.00000000E+00  0.00000000E+00
  0.00000000E+00  0.00000000E+00  0.00000000E+00
  0.00000000E+00  0.00000000E+00  0.00000000E+00
  0.00000000E+00  0.00000000E+00  0.00000000E+00
  0.00000000E+00  0.00000000E+00  0.00000000E+00
  0.00000000E+00  0.00000000E+00  0.00000000E+00
  0.00000000E+00  0.00000000E+00  0.00000000E+00
  0.00000000E+00  0.00000000E+00  0.00000000E+00
  0.00000000E+00  0.00000000E+00  0.00000000E+00
  0.00000000E+00  0.00000000E+00  0.00000000E+00
  0.00000000E+00  0.00000000E+00  0.00000000E+00
  0.00000000E+00  0.00000000E+00  0.00000000E+00
  0.00000000E+00  0.00000000E+00  0.00000000E+00
  0.00000000E+00  0.00000000E+00  0.00000000E+00
  0.00000000E+00  0.00000000E+00  0.00000000E+00
  0.00000000E+00  0.00000000E+00  0.00000000E+00
  0.00000000E+00  0.00000000E+00  0.00000000E+00
  0.00000000E+00  0.00000000E+00  0.00000000E+00
  0.00000000E+00  0.00000000E+00  0.00000000E+00
  0.00000000E+00  0.00000000E+00  0.00000000E+00
  0.00000000E+00  0.00000000E+00  0.00000000E+00
  0.00000000E+00  0.00000000E+00  0.00000000E+00
  0.00000000E+00  0.00000000E+00  0.00000000E+00
  0.00000000E+00  0.00000000E+00  0.00000000E+00
  0.00000000E+00  0.00000000E+00  0.00000000E+00
  0.00000000E+00  0.00000000E+00  0.00000000E+00
  0.00000000E+00  0.00000000E+00  0.00000000E+00
  0.00000000E+00  0.00000000E+00  0.00000000E+00
  0.00000000E+00  0.00000000E+00  0.00000000E+00
  0.00000000E+00  0.00000000E+00  0.00000000E+00
  0.00000000E+00  0.00000000E+00  0.00000000E+00
  0.00000000E+00  0.00000000E+00  0.00000000E+00
  0.00000000E+00  0.00000000E+00  0.00000000E+00
  0.00000000E+00  0.00000000E+00  0.00000000E+00
  0.00000000E+00  0.00000000E+00  0.00000000E+00
  0.00000000E+00  0.00000000E+00  0.00000000E+00
  0.00000000E+00  0.00000000E+00  0.00000000E+00
  0.00000000E+00  0.00000000E+00  0.00000000E+00
  0.00000000E+00  0.00000000E+00  0.00000000E+00
  0.00000000E+00  0.00000000E+00  0.00000000E+00
  0.00000000E+00  0.00000000E+00  0.00000000E+00
  0.00000000E+00  0.00000000E+00  0.00000000E+00
  0.00000000E+00  0.00000000E+00  0.00000000E+00
  0.00000000E+00  0.00000000E+00  0.00000000E+00
  0.00000000E+00  0.00000000E+00  0.00000000E+00
  0.00000000E+00  0.00000000E+00  0.00000000E+00
  0.00000000E+00  0.00000000E+00  0.00000000E+00
  0.00000000E+00  0.00000000E+00  0.00000000E+00
  0.00000000E+00  0.00000000E+00  0.00000000E+00
  0.00000000E+00  0.00000000E+00  0.00000000E+00
  0.00000000E+00  0.00000000E+00  0.00000000E+00
  0.00000000E+00  0.00000000E+00  0.00000000E+00
  0.00000000E+00  0.00000000E+00  0.00000000E+00
  0.00000000E+00  0.00000000E+00  0.00000000E+00
  0.00000000E+00  0.00000000E+00  0.00000000E+00
  0.00000000E+00  0.00000000E+00  0.00000000E+00
  0.00000000E+00  0.00000000E+00  0.00000000E+00
  0.00000000E+00  0.00000000E+00  0.00000000E+00
  0.00000000E+00  0.00000000E+00  0.00000000E+00
  0.00000000E+00  0.00000000E+00  0.00000000E+00
  0.00000000E+00  0.00000000E+00  0.00000000E+00
  0.00000000E+00  0.00000000E+00  0.00000000E+00
  0.00000000E+00  0.00000000E+00  0.00000000E+00
  0.00000000E+00  0.00000000E+00  0.00000000E+00
  0.00000000E+00  0.00000000E+00  0.00000000E+00
  0.00000000E+00  0.00000000E+00  0.00000000E+00
  0.00000000E+00  0.00000000E+00  0.00000000E+00
  0.00000000E+00  0.00000000E+00  0.00000000E+00
  0.00000000E+00  0.00000000E+00  0.00000000E+00
  0.00000000E+00  0.00000000E+00  0.00000000E+00
  0.00000000E+00  0.00000000E+00  0.00000000E+00
  0.00000000E+00  0.00000000E+00  0.00000000E+00
  0.00000000E+00  0.00000000E+00  0.00000000E+00
  0.00000000E+00  0.00000000E+00  0.00000000E+00
  0.00000000E+00  0.00000000E+00  0.00000000E+00
  0.00000000E+00  0.00000000E+00  0.00000000E+00
  0.00000000E+00  0.00000000E+00  0.00000000E+00
  0.00000000E+00  0.00000000E+00  0.00000000E+00
  0.00000000E+00  0.00000000E+00  0.00000000E+00
  0.00000000E+00  0.00000000E+00  0.00000000E+00
  0.00000000E+00  0.00000000E+00  0.00000000E+00
  0.00000000E+00  0.00000000E+00  0.00000000E+00
  0.00000000E+00  0.00000000E+00  0.00000000E+00
  0.00000000E+00  0.00000000E+00  0.00000000E+00
  0.00000000E+00  0.00000000E+00  0.00000000E+00
  0.00000000E+00  0.00000000E+00  0.00000000E+00
  0.00000000E+00  0.00000000E+00  0.00000000E+00
  0.00000000E+00  0.00000000E+00  0.00000000E+00
  0.00000000E+00  0.00000000E+00  0.00000000E+00
  0.00000000E+00  0.00000000E+00  0.00000000E+00
  0.00000000E+00  0.00000000E+00  0.00000000E+00
  0.00000000E+00  0.00000000E+00  0.00000000E+00
  0.00000000E+00  0.00000000E+00  0.00000000E+00
  0.00000000E+00  0.00000000E+00  0.00000000E+00
  0.00000000E+00  0.00000000E+00  0.00000000E+00
  0.00000000E+00  0.00000000E+00  0.00000000E+00
  0.00000000E+00  0.00000000E+00  0.00000000E+00
  0.00000000E+00  0.00000000E+00  0.00000000E+00
  0.00000000E+00  0.00000000E+00  0.00000000E+00
  0.00000000E+00  0.00000000E+00  0.00000000E+00
  0.00000000E+00  0.00000000E+00  0.00000000E+00
  0.00000000E+00  0.00000000E+00  0.00000000E+00
  0.00000000E+00  0.00000000E+00  0.00000000E+00
  0.00000000E+00  0.00000000E+00  0.00000000E+00
  0.00000000E+00  0.00000000E+00  0.00000000E+00
  0.00000000E+00  0.00000000E+00  0.00000000E+00
  0.00000000E+00  0.00000000E+00  0.00000000E+00
  0.00000000E+00  0.00000000E+00  0.00000000E+00
  0.00000000E+00  0.00000000E+00  0.00000000E+00
  0.00000000E+00  0.00000000E+00  0.00000000E+00
  0.00000000E+00  0.00000000E+00  0.00000000E+00
  0.00000000E+00  0.00000000E+00  0.00000000E+00
  0.00000000E+00  0.00000000E+00  0.00000000E+00
  0.00000000E+00  0.00000000E+00  0.00000000E+00
  0.00000000E+00  0.00000000E+00  0.00000000E+00
  0.00000000E+00  0.00000000E+00  0.00000000E+00
  0.00000000E+00  0.00000000E+00  0.00000000E+00
  0.00000000E+00  0.00000000E+00  0.00000000E+00
  0.00000000E+00  0.00000000E+00  0.00000000E+00
  0.00000000E+00  0.00000000E+00  0.00000000E+00
  0.00000000E+00  0.00000000E+00  0.00000000E+00
  0.00000000E+00  0.00000000E+00  0.00000000E+00
  0.00000000E+00  0.00000000E+00  0.00000000E+00
  0.00000000E+00  0.00000000E+00  0.00000000E+00
  0.00000000E+00  0.00000000E+00  0.00000000E+00
  0.00000000E+00  0.00000000E+00  0.00000000E+00
  0.00000000E+00  0.00000000E+00  0.00000000E+00
  0.00000000E+00  0.00000000E+00  0.00000000E+00
  0.00000000E+00  0.00000000E+00  0.00000000E+00
  0.00000000E+00  0.00000000E+00  0.00000000E+00
  0.00000000E+00  0.00000000E+00  0.00000000E+00
  0.00000000E+00  0.00000000E+00  0.00000000E+00
  0.00000000E+00  0.00000000E+00  0.00000000E+00
  0.00000000E+00  0.00000000E+00  0.00000000E+00
  0.00000000E+00  0.00000000E+00  0.00000000E+00
  0.00000000E+00  0.00000000E+00  0.00000000E+00
  0.00000000E+00  0.00000000E+00  0.00000000E+00
  0.00000000E+00  0.00000000E+00  0.00000000E+00
  0.00000000E+00  0.00000000E+00  0.00000000E+00
  0.00000000E+00  0.00000000E+00  0.00000000E+00
  0.00000000E+00  0.00000000E+00  0.00000000E+00
  0.00000000E+00  0.00000000E+00  0.00000000E+00
  0.00000000E+00  0.00000000E+00  0.00000000E+00
  0.00000000E+00  0.00000000E+00  0.00000000E+00
  0.00000000E+00  0.00000000E+00  0.00000000E+00
  0.00000000E+00  0.00000000E+00  0.00000000E+00
  0.00000000E+00  0.00000000E+00  0.00000000E+00
  0.00000000E+00  0.00000000E+00  0.00000000E+00
  0.00000000E+00  0.00000000E+00  0.00000000E+00
  0.00000000E+00  0.00000000E+00  0.00000000E+00
  0.00000000E+00  0.00000000E+00  0.00000000E+00
  0.00000000E+00  0.00000000E+00  0.00000000E+00
  0.00000000E+00  0.00000000E+00  0.00000000E+00
  0.00000000E+00  0.00000000E+00  0.00000000E+00
  0.00000000E+00  0.00000000E+00  0.00000000E+00
  0.00000000E+00  0.00000000E+00  0.00000000E+00
  0.00000000E+00  0.00000000E+00  0.00000000E+00
  0.00000000E+00  0.00000000E+00  0.00000000E+00
  0.00000000E+00  0.00000000E+00  0.00000000E+00
  0.00000000E+00  0.00000000E+00  0.00000000E+00
  0.00000000E+00  0.00000000E+00  0.00000000E+00
  0.00000000E+00  0.00000000E+00  0.00000000E+00
  0.00000000E+00  0.00000000E+00  0.00000000E+00
  0.00000000E+00  0.00000000E+00  0.00000000E+00
  0.00000000E+00  0.00000000E+00  0.00000000E+00
  0.00000000E+00  0.00000000E+00  0.00000000E+00
  0.00000000E+00  0.00000000E+00  0.00000000E+00
  0.00000000E+00  0.00000000E+00  0.00000000E+00
  0.00000000E+00  0.00000000E+00  0.00000000E+00
  0.00000000E+00  0.00000000E+00  0.00000000E+00
  0.00000000E+00  0.00000000E+00  0.00000000E+00
  0.00000000E+00  0.00000000E+00  0.00000000E+00
  0.00000000E+00  0.00000000E+00  0.00000000E+00
  0.00000000E+00  0.00000000E+00  0.00000000E+00
  0.00000000E+00  0.00000000E+00  0.00000000E+00
  0.00000000E+00  0.00000000E+00  0.00000000E+00
  0.00000000E+00  0.00000000E+00  0.00000000E+00
  0.00000000E+00  0.00000000E+00  0.00000000E+00
  0.00000000E+00  0.00000000E+00  0.00000000E+00
  0.00000000E+00  0.00000000E+00  0.00000000E+00
  0.00000000E+00  0.00000000E+00  0.00000000E+00
  0.00000000E+00  0.00000000E+00  0.00000000E+00
  0.00000000E+00  0.00000000E+00  0.00000000E+00
  0.00000000E+00  0.00000000E+00  0.00000000E+00
  0.00000000E+00  0.00000000E+00  0.00000000E+00
  0.00000000E+00  0.00000000E+00  0.00000000E+00
  0.00000000E+00  0.00000000E+00  0.00000000E+00
  0.00000000E+00  0.00000000E+00  0.00000000E+00
  0.00000000E+00  0.00000000E+00  0.00000000E+00
  0.00000000E+00  0.00000000E+00  0.00000000E+00
  0.00000000E+00  0.00000000E+00  0.00000000E+00
  0.00000000E+00  0.00000000E+00  0.00000000E+00
  0.00000000E+00  0.00000000E+00  0.00000000E+00
  0.00000000E+00  0.00000000E+00  0.00000000E+00
  0.00000000E+00  0.00000000E+00  0.00000000E+00
  0.00000000E+00  0.00000000E+00  0.00000000E+00
  0.00000000E+00  0.00000000E+00  0.00000000E+00
  0.00000000E+00  0.00000000E+00  0.00000000E+00
  0.00000000E+00  0.00000000E+00  0.00000000E+00
  0.00000000E+00  0.00000000E+00  0.00000000E+00
  0.00000000E+00  0.00000000E+00  0.00000000E+00
  0.00000000E+00  0.00000000E+00  0.00000000E+00
  0.00000000E+00  0.00000000E+00  0.00000000E+00
  0.00000000E+00  0.00000000E+00  0.00000000E+00
  0.00000000E+00  0.00000000E+00  0.00000000E+00
  0.00000000E+00  0.00000000E+00  0.00000000E+00
  0.00000000E+00  0.00000000E+00  0.00000000E+00
  0.00000000E+00  0.00000000E+00  0.00000000E+00
  0.00000000E+00  0.00000000E+00  0.00000000E+00
  0.00000000E+00  0.00000000E+00  0.00000000E+00
  0.00000000E+00  0.00000000E+00  0.00000000E+00
  0.00000000E+00  0.00000000E+00  0.00000000E+00
  0.00000000E+00  0.00000000E+00  0.00000000E+00
  0.00000000E+00  0.00000000E+00  0.00000000E+00
  0.00000000E+00  0.00000000E+00  0.00000000E+00
  0.00000000E+00  0.00000000E+00  0.00000000E+00
  0.00000000E+00  0.00000000E+00  0.00000000E+00
  0.00000000E+00  0.00000000E+00  0.00000000E+00
  0.00000000E+00  0.00000000E+00  0.00000000E+00