 B As N 
 1.0
 14.936314146199660   0.000000000000000   0.000000000000000
 -7.468157073099825  12.935227489513863   0.000000000000000
  0.000000000000001   0.000000000000001  13.341276283792837
 B As N 
 143   1 143
Cartesian
  1.238162726212665   0.712641128013807   5.002978606422314 
  4.942439070318451   7.439983542333528   5.002978606422314 
  6.235491651565566   0.672141788106682   5.002978606422314 
  9.952781845244601   7.178488337105259   5.002978606422314 
 11.209907131438440   0.723052904587258   5.002978606422314 
 -3.733875432868944   9.342226004391515  11.673616748318732 
  1.244427367424224   9.342607600045945  11.673616748318732 
  2.488656369377189   2.873869989026287  11.673616748318732 
  6.223754127519157   9.343189023925138  11.673616748318732 
  7.468992522735395   2.873867338123646  11.673616748318732 
 12.447105607103421   2.874321381882463  11.673616748318732 
 -1.267375446488432   9.339893244565326   5.002978606422314 
  0.002448687046431   2.875908747795119   5.002978606422314 
  4.996956482665830   2.762841405147158   5.002978606422314 
  3.707532869623318   9.411918745717834   5.002978606422314 
  8.703758492292426   9.341860244258477   5.002978606422314 
  9.977262877968288   2.860577573559500   5.002978606422314 
 -4.978782354977252  11.498116342333438  11.673616748318732 
  0.000144591767840  11.498063470775035  11.673616748318732 
  1.243786911325813   5.030047139162018  11.673616748318732 
  6.224092249627378   5.030080508514364  11.673616748318732 
  4.978901932675670  11.498886873950285  11.673616748318732 
 11.202821613372768   5.030104840596993  11.673616748318732 
 -1.253139007285359   5.027702307416834   5.002978606422314 
 -2.502645668949107  11.479444030944141   5.002978606422314 
  2.483853788743613  11.517946791251145   5.002978606422314 
  7.461750196749559  11.507586489951088   5.002978606422314 
  8.746929241521473   5.004765122471265   5.002978606422314 
 -0.000509491166741   7.186260581835718  11.673616748318732 
  1.244311283844764   0.718493420900428  11.673616748318732 
  4.978837937234806   7.186924245922562  11.673616748318732 
  6.223763511908125   0.718144409835645  11.673616748318732 
  9.958255101120495   7.186314840174517  11.673616748318732 
 -2.508150374799678   7.179892816292266   5.002978606422314 
 11.202597260081589   0.718832548391638  11.673616748318732 
  3.722246121452907   0.681219138595853   5.002978606422314 
  2.401783393784548   7.257813049525034   5.002978606422314 
  7.479436644237819   7.192749757607252   5.002978606422314 
  8.727375723999451   0.703849581217197   5.002978606422314 
  2.488754243241901   7.186612948834962  11.673616748318732 
 13.694225005067745   0.726544489894416   5.002978606422314 
 -1.244770971757603   9.342212185166218  11.673616748318732 
 -0.000559307250713   2.874172081477951  11.673616748318732 
  4.978780811444888   2.873760420510990  11.673616748318732 
  3.733952692255881   9.343146092807656  11.673616748318732 
  8.713273070711153   9.342686971353771  11.673616748318732 
  9.958393423388902   2.874154616178016  11.673616748318732 
 -3.750818576054918   9.332443876112173   5.002978606422314 
  1.210451998194978   9.375765777792900   5.002978606422314 
  2.477475838228666   2.851949362121597   5.002978606422314 
  6.218332665761913   9.384422863531539   5.002978606422314 
  7.515341475924978   2.816600774105277   5.002978606422314 
 12.455089869828580   2.872789501572396   5.002978606422314 
 -1.244996494159109   5.030100968079553  11.673616748318732 
 -2.489335170113447  11.497860609999785  11.673616748318732 
  2.489518830746868  11.498563056527559  11.673616748318732 
  3.733519966575728   5.030043755397053  11.673616748318732 
  7.468223691309186  11.498618187452317  11.673616748318732 
 -4.993648376174448  11.484901636784297   5.002978606422314 
  8.713930419805378   5.030077165881884  11.673616748318732 
 -0.007415361924935  11.493698729475458   5.002978606422314 
  1.219212825985203   5.031324828611950   5.002978606422314 
 -0.038309550738683   7.194692627523064   5.002978606422314 
  6.425048595524927   4.872028516890323   5.002978606422314 
  4.976578596149464  11.522016822280845   5.002978606422314 
 11.207351643885708   5.020014478607722   5.002978606422314 
 -2.489273093491986   7.186159815527654  11.673616748318732 
  3.733843785467766   0.718170973293393  11.673616748318732 
  7.468928993804439   7.186683162800980  11.673616748318732 
  8.713421438310247   0.718447518867290  11.673616748318732 
 13.691559520969239   0.718863975388905  11.673616748318732 
 -0.000403215306123   1.436553641961561   1.664608198881589 
  3.731323027117694   7.907263328572215   1.665377464423675 
  4.978539240854597   1.433303710622823   1.664481828137854 
  8.715907792861504   7.906626708110407   1.664906705390905 
  9.957989191295807   1.436453539941678   1.663847554819071 
 -4.977191933817759  10.061338112347709   8.341556138976383 
 -0.001740224475329  10.061311052335371   8.341555425484273 
  1.242517563418605   3.591862847382335   8.342823043551787 
  4.978573505142795  10.063076026211183   8.341514333388437 
  6.224166739482146   3.589531363428340   8.340579748420966 
 11.203129933469061   3.593084091713309   8.341815712662902 
 -2.489424470941644  10.060710102253593   1.664636001961868 
 -1.245495350848590   3.593116480825565   1.664608198881589 
  3.732156916922587   3.588749332841128   1.661870951149694 
  2.487170503373858  10.062534079272153   1.664066984059781 
  7.470029624358351  10.062497261761067   1.664482135708772 
  8.714780540451098   3.591775613460870   1.664442879456189 
 -6.222816124030804  12.216221643017365   8.341579966034951 
 -1.245061909671259  12.214807381246892   8.341555425484273 
 -0.002717690934472   5.749675900460080   8.341851329321097 
  4.978518471237369   5.748843977204146   8.337306799581919 
  3.733614161560183  12.217387336806896   8.342109658025544 
  9.960007375342270   5.749729287340806   8.341475077135842 
 -2.489392545034230   5.749742318019614   1.664377246809663 
 -3.733872443655595  12.214909329377761   1.664594131313362 
  1.243931319169581  12.216164072654934   1.663824452464060 
  2.484640857482860   5.749510531048866   1.661870951149694 
  6.223881377058679  12.217395574930137   1.664141500181725 
  7.471174870603217   5.749508846870140   1.667385678270683 
 -1.246057201796298   7.905886930633176   8.341363081531279 
 -0.000403215306122   1.436553641961561   8.341349013963052 
  3.731323027117694   7.907263328572216   8.340579748420966 
  4.978539240854598   1.433303710622824   8.341475384706760 
  8.715907792861504   7.906626708110408   8.341050507453723 
 -3.732764329684374   7.905926275647457   1.664401073868258 
  9.957989191295807   1.436453539941678   8.342109658025544 
  2.488620856825023   1.434550956885740   1.664105883523530 
  1.241161354131810   7.906632097511136   1.664481828137854 
  6.225422464941206   7.907215307127911   1.667385678270683 
  7.468609699749918   1.434428296333679   1.664066984059781 
  1.241161354131811   7.906632097511137   8.341475384706760 
 12.447000777752562   1.437289254299564   1.664470347704587 
 -2.489424470941644  10.060710102253593   8.341321210882761 
 -1.245495350848590   3.593116480825566   8.341349013963052 
  3.732156916922587   3.588749332841129   8.344086261694933 
  2.487170503373858  10.062534079272153   8.341890228784861 
  7.470029624358352  10.062497261761067   8.341475077135842 
  8.714780540451098   3.591775613460871   8.341514333388437 
 -4.977191933817760  10.061338112347709   1.664401073868258 
 -0.001740224475330  10.061311052335371   1.664401787360354 
  1.242517563418604   3.591862847382334   1.663134169292867 
  4.978573505142794  10.063076026211183   1.664442879456189 
  6.224166739482145   3.589531363428339   1.665377464423675 
 11.203129933469061   3.593084091713308   1.664141500181725 
 -2.489392545034229   5.749742318019615   8.341579966034951 
 -3.733872443655594  12.214909329377761   8.341363081531279 
  1.243931319169582  12.216164072654934   8.342132760380554 
  2.484640857482861   5.749510531048867   8.344086261694933 
  6.223881377058680  12.217395574930137   8.341815712662902 
 -6.222816124030805  12.216221643017365   1.664377246809663 
  7.471174870603217   5.749508846870141   8.338571534573944 
 -1.245061909671260  12.214807381246892   1.664401787360354 
 -0.002717690934472   5.749675900460079   1.664105883523530 
 -1.246057201796298   7.905886930633175   1.664594131313362 
  4.978518471237368   5.748843977204145   1.668650413262696 
  3.733614161560182  12.217387336806896   1.663847554819071 
  9.960007375342270   5.749729287340805   1.664482135708772 
 -3.732764329684374   7.905926275647458   8.341556138976383 
  2.488620856825024   1.434550956885741   8.341851329321097 
  6.225422464941207   7.907215307127912   8.338571534573944 
  7.468609699749919   1.434428296333680   8.341890228784861 
 12.447000777752562   1.437289254299564   8.341486865140039 
  4.077636864419361   5.228719738999766   5.002978606422314 
  1.244767311699815   0.718207980946681   1.670341973107270 
  4.978394881619149   7.186103869451479   1.689491610054565 
  6.223387035243203   0.718210998686683   1.671792039448434 
  9.957518656017367   7.186395575788404   1.671948141040724 
 11.202070537071839   0.718528444720161   1.669555093316475 
 -3.734059641151147   9.342119651690213   8.335936127654016 
  1.244296796728372   9.342248267264671   8.334165173396194 
  2.489203999490589   2.874033750593366   8.334057524265882 
  6.223419965620507   9.341755844748885   8.329391148866771 
  7.467786888718457   2.874266180778364   8.330035647954329 
 12.446792355100898   2.874636422989378   8.336138107561696 
 -1.244906487807720   9.342210952977414   1.670084819852595 
 -0.000013829693429   2.874487013092486   1.670706088315454 
  4.978671032320662   2.874068489587073   1.677033680781182 
  3.733695283118496   9.341902561793987   1.675921564890312 
  8.712974767252213   9.342008823379013   1.671948141040724 
  9.957234841292559   2.874578351510478   1.670647371263562 
 -4.978650038500305  11.497689463841253   8.335953750239890 
 -0.000212335048053  11.497857398981806   8.336058789354484 
  1.244202548059767   5.030439519968559   8.334057524265882 
  6.223160254954927   5.030106999331458   8.316465602790077 
  4.978689607189885  11.497671644756261   8.335309841581067 
 11.202020101378814   5.030642590858368   8.335598238325925 
 -1.245015678482783   5.030638619763733   1.670341973107270 
 -2.489403995245318  11.497743865752176   1.670084819852595 
  2.489082657919615  11.497875011412413   1.670048929794252 
  3.733049204012021   5.029771960504172   1.679481866896882 
  7.468288640699452  11.497655182573425   1.670358974518703 
  8.712522169281261   5.030504362776774   1.676566063977844 
 -0.000362246939654   7.186502380090407   8.334505637915507 
  1.244767311699815   0.718207980946682   8.335615239737370 
  4.978394881619150   7.186103869451480   8.316465602790077 
  6.223387035243204   0.718210998686684   8.334165173396194 
  9.957518656017367   7.186395575788405   8.334009071803903 
 -2.489576622872082   7.186487844204134   1.670003462604739 
 11.202070537071839   0.718528444720162   8.336402119528152 
  3.734126811012468   0.718177591407254   1.671451574929120 
  2.488966149325798   7.186363842786534   1.677033680781182 
  7.468063113140614   7.186183246366635   1.680497748721962 
  8.712607487347949   0.718413804676033   1.670048929794252 
  2.488966149325799   7.186363842786535   8.328923532063445 
 13.691675728569797   0.718435170643489   1.669819105282932 
 -1.244906487807719   9.342210952977414   8.335872392992020 
 -0.000013829693429   2.874487013092486   8.335251124529186 
  4.978671032320663   2.874068489587074   8.328923532063445 
  3.733695283118496   9.341902561793987   8.330035647954329 
  8.712974767252213   9.342008823379013   8.334009071803903 
  9.957234841292559   2.874578351510479   8.335309841581067 
 -3.734059641151148   9.342119651690213   1.670021085190611 
  1.244296796728372   9.342248267264671   1.671792039448434 
  2.489203999490588   2.874033750593365   1.671899688578746 
  6.223419965620506   9.341755844748885   1.676566063977844 
  7.467786888718456   2.874266180778363   1.675921564890312 
 12.446792355100898   2.874636422989377   1.669819105282932 
 -1.245015678482783   5.030638619763734   8.335615239737370 
 -2.489403995245317  11.497743865752176   8.335872392992020 
  2.489082657919615  11.497875011412413   8.335908283050362 
  3.733049204012022   5.029771960504173   8.326475345947745 
  7.468288640699453  11.497655182573425   8.335598238325925 
 -4.978650038500306  11.497689463841253   1.670003462604739 
  8.712522169281261   5.030504362776775   8.329391148866771 
 -0.000212335048054  11.497857398981806   1.669898423490144 
  1.244202548059767   5.030439519968558   1.671899688578746 
 -0.000362246939654   7.186502380090406   1.671451574929120 
  6.223160254954926   5.030106999331457   1.689491610054565 
  4.978689607189884  11.497671644756261   1.670647371263562 
 11.202020101378814   5.030642590858367   1.670358974518703 
 -2.489576622872082   7.186487844204135   8.335953750239890 
  3.734126811012468   0.718177591407255   8.334505637915507 
  7.468063113140615   7.186183246366636   8.325459464122652 
  8.712607487347949   0.718413804676034   8.335908283050362 
 13.691675728569797   0.718435170643490   8.336138107561696 
  0.004754485540994   1.442392970082893   5.002978606422314 
  3.679521514550105   7.937726748123488   5.002978606422314 
  4.987363746489611   1.372155455874947   5.002978606422314 
  8.696204456520526   7.895250981570000   5.002978606422314 
  9.962072835048639   1.432373331783624   5.002978606422314 
 -4.978810706950738  10.060781628823362  11.673616748318732 
  0.000187268080178  10.060796816732049  11.673616748318732 
  1.244753938967966   3.593154019407777  11.673616748318732 
  4.978859509268839  10.060825350130131  11.673616748318732 
  6.223559203534083   3.593244999786965  11.673616748318732 
 11.202368112544740   3.593135803468364  11.673616748318732 
 -2.509586827864058  10.049069360056965   5.002978606422314 
 -1.237859493930934   3.594663516723635   5.002978606422314 
  3.783684364417931   3.493832604144913   5.002978606422314 
  2.467351393411156  10.080346735575517   5.002978606422314 
  7.458524326008410  10.060241910811833   5.002978606422314 
  8.718451766342577   3.578847089933141   5.002978606422314 
 -6.223475348930414  12.216691261541555  11.673616748318732 
 -1.244543504489522  12.216733756567246  11.673616748318732 
  0.000091420871476   5.748954607055996  11.673616748318732 
  4.978875922091311   5.749050351550883  11.673616748318732 
  3.734201442703330  12.216697257049544  11.673616748318732 
  9.957623103718074   5.748944998169430  11.673616748318732 
 -2.496280419316050   5.744696362083269   5.002978606422314 
 -3.747968621468400  12.193997806376728   5.002978606422314 
  1.238994414675289  12.213313749516175   5.002978606422314 
  2.428204282935487   5.841592973920124   5.002978606422314 
  6.221751446355710  12.222960035788050   5.002978606422314 
  7.457125887598584   5.749362123018833   5.002978606422314 
 -1.244577214976215   7.904820587045264  11.673616748318732 
  0.000044194494380   1.437303410040766  11.673616748318732 
  3.734235362570649   7.904880368828168  11.673616748318732 
  4.978870047109307   1.437421051276148  11.673616748318732 
  8.712842284180219   7.904856835848063  11.673616748318732 
 -3.753448114682949   7.895431306419598   5.002978606422314 
  9.957685205266866   1.437307180209499  11.673616748318732 
  2.491466682324299   1.426066778108094   5.002978606422314 
  1.192617664940574   7.944848470940836   5.002978606422314 
  6.218270906856309   7.895121892874231   5.002978606422314 
  7.474126357636161   1.408358115473900   5.002978606422314 
  1.244892478860985   7.904859913804771  11.673616748318732 
 12.451515381216762   1.439895761824895   5.002978606422314 
 -2.489324293424939  10.060767939769841  11.673616748318732 
 -1.244622327744809   3.593129065039114  11.673616748318732 
  3.734173311044590   3.593223016697125  11.673616748318732 
  2.489553343139263  10.060807966443809  11.673616748318732 
  7.468158274199923  10.060824566550693  11.673616748318732 
  8.712974399852229   3.593148638340155  11.673616748318732 
 -4.996622736280305  10.048672913706445   5.002978606422314 
 -0.024389460885864  10.066865619273070   5.002978606422314 
  1.260758422292433   3.602394212163399   5.002978606422314 
  4.969212688280095  10.072719662860100   5.002978606422314 
  6.224648078415888   3.529438227814725   5.002978606422314 
 11.206883932578888   3.588457287187291   5.002978606422314 
 -2.489315455911985   5.748936603247627  11.673616748318732 
 -3.734055930881856  12.216724207355190  11.673616748318732 
  1.244855143927579  12.216697443127616  11.673616748318732 
  2.489523378411639   5.749019937654590  11.673616748318732 
  6.223545250290086  12.216709962778985  11.673616748318732 
 -6.230629987198960  12.212779546879396   5.002978606422314 
  7.468200330961933   5.748996018935473  11.673616748318732 
 -1.251576131801466  12.192415283670213   5.002978606422314 
 -0.008642292536510   5.756382547025986   5.002978606422314 
 -1.271215200853425   7.904135044051555   5.002978606422314 
  3.732122419519010  12.222963980115857   5.002978606422314 
  9.952301534950804   5.740893082166267   5.002978606422314 
 -3.734055645119742   7.904802618753522  11.673616748318732 
  2.489400754316488   1.437344365773790  11.673616748318732 
  6.223491073101357   7.904895694201356  11.673616748318732 
  7.468306262073475   1.437354952517841  11.673616748318732 
 12.447042588581393   1.437313393792838  11.673616748318732 
Generated by cif2cell 2.0.0.  :  Failed to get author information, No journal information. Species order: B As N 
 1.0
 14.936314146199660   0.000000000000000   0.000000000000000
 -7.468157073099825  12.935227489513863   0.000000000000000
  0.000000000000001   0.000000000000001  13.341276283792837
 B As N 
 143   1 143
Cartesian
  1.238162726212665   0.712641128013807   5.002978606422314 
  4.942439070318451   7.439983542333528   5.002978606422314 
  6.235491651565566   0.672141788106682   5.002978606422314 
  9.952781845244601   7.178488337105259   5.002978606422314 
 11.209907131438440   0.723052904587258   5.002978606422314 
 -3.733875432868944   9.342226004391515  11.673616748318732 
  1.244427367424224   9.342607600045945  11.673616748318732 
  2.488656369377189   2.873869989026287  11.673616748318732 
  6.223754127519157   9.343189023925138  11.673616748318732 
  7.468992522735395   2.873867338123646  11.673616748318732 
 12.447105607103421   2.874321381882463  11.673616748318732 
 -1.267375446488432   9.339893244565326   5.002978606422314 
  0.002448687046431   2.875908747795119   5.002978606422314 
  4.996956482665830   2.762841405147158   5.002978606422314 
  3.707532869623318   9.411918745717834   5.002978606422314 
  8.703758492292426   9.341860244258477   5.002978606422314 
  9.977262877968288   2.860577573559500   5.002978606422314 
 -4.978782354977252  11.498116342333438  11.673616748318732 
  0.000144591767840  11.498063470775035  11.673616748318732 
  1.243786911325813   5.030047139162018  11.673616748318732 
  6.224092249627378   5.030080508514364  11.673616748318732 
  4.978901932675670  11.498886873950285  11.673616748318732 
 11.202821613372768   5.030104840596993  11.673616748318732 
 -1.253139007285359   5.027702307416834   5.002978606422314 
 -2.502645668949107  11.479444030944141   5.002978606422314 
  2.483853788743613  11.517946791251145   5.002978606422314 
  7.461750196749559  11.507586489951088   5.002978606422314 
  8.746929241521473   5.004765122471265   5.002978606422314 
 -0.000509491166741   7.186260581835718  11.673616748318732 
  1.244311283844764   0.718493420900428  11.673616748318732 
  4.978837937234806   7.186924245922562  11.673616748318732 
  6.223763511908125   0.718144409835645  11.673616748318732 
  9.958255101120495   7.186314840174517  11.673616748318732 
 -2.508150374799678   7.179892816292266   5.002978606422314 
 11.202597260081589   0.718832548391638  11.673616748318732 
  3.722246121452907   0.681219138595853   5.002978606422314 
  2.401783393784548   7.257813049525034   5.002978606422314 
  7.479436644237819   7.192749757607252   5.002978606422314 
  8.727375723999451   0.703849581217197   5.002978606422314 
  2.488754243241901   7.186612948834962  11.673616748318732 
 13.694225005067745   0.726544489894416   5.002978606422314 
 -1.244770971757603   9.342212185166218  11.673616748318732 
 -0.000559307250713   2.874172081477951  11.673616748318732 
  4.978780811444888   2.873760420510990  11.673616748318732 
  3.733952692255881   9.343146092807656  11.673616748318732 
  8.713273070711153   9.342686971353771  11.673616748318732 
  9.958393423388902   2.874154616178016  11.673616748318732 
 -3.750818576054918   9.332443876112173   5.002978606422314 
  1.210451998194978   9.375765777792900   5.002978606422314 
  2.477475838228666   2.851949362121597   5.002978606422314 
  6.218332665761913   9.384422863531539   5.002978606422314 
  7.515341475924978   2.816600774105277   5.002978606422314 
 12.455089869828580   2.872789501572396   5.002978606422314 
 -1.244996494159109   5.030100968079553  11.673616748318732 
 -2.489335170113447  11.497860609999785  11.673616748318732 
  2.489518830746868  11.498563056527559  11.673616748318732 
  3.733519966575728   5.030043755397053  11.673616748318732 
  7.468223691309186  11.498618187452317  11.673616748318732 
 -4.993648376174448  11.484901636784297   5.002978606422314 
  8.713930419805378   5.030077165881884  11.673616748318732 
 -0.007415361924935  11.493698729475458   5.002978606422314 
  1.219212825985203   5.031324828611950   5.002978606422314 
 -0.038309550738683   7.194692627523064   5.002978606422314 
  6.425048595524927   4.872028516890323   5.002978606422314 
  4.976578596149464  11.522016822280845   5.002978606422314 
 11.207351643885708   5.020014478607722   5.002978606422314 
 -2.489273093491986   7.186159815527654  11.673616748318732 
  3.733843785467766   0.718170973293393  11.673616748318732 
  7.468928993804439   7.186683162800980  11.673616748318732 
  8.713421438310247   0.718447518867290  11.673616748318732 
 13.691559520969239   0.718863975388905  11.673616748318732 
 -0.000403215306123   1.436553641961561   1.664608198881589 
  3.731323027117694   7.907263328572215   1.665377464423675 
  4.978539240854597   1.433303710622823   1.664481828137854 
  8.715907792861504   7.906626708110407   1.664906705390905 
  9.957989191295807   1.436453539941678   1.663847554819071 
 -4.977191933817759  10.061338112347709   8.341556138976383 
 -0.001740224475329  10.061311052335371   8.341555425484273 
  1.242517563418605   3.591862847382335   8.342823043551787 
  4.978573505142795  10.063076026211183   8.341514333388437 
  6.224166739482146   3.589531363428340   8.340579748420966 
 11.203129933469061   3.593084091713309   8.341815712662902 
 -2.489424470941644  10.060710102253593   1.664636001961868 
 -1.245495350848590   3.593116480825565   1.664608198881589 
  3.732156916922587   3.588749332841128   1.661870951149694 
  2.487170503373858  10.062534079272153   1.664066984059781 
  7.470029624358351  10.062497261761067   1.664482135708772 
  8.714780540451098   3.591775613460870   1.664442879456189 
 -6.222816124030804  12.216221643017365   8.341579966034951 
 -1.245061909671259  12.214807381246892   8.341555425484273 
 -0.002717690934472   5.749675900460080   8.341851329321097 
  4.978518471237369   5.748843977204146   8.337306799581919 
  3.733614161560183  12.217387336806896   8.342109658025544 
  9.960007375342270   5.749729287340806   8.341475077135842 
 -2.489392545034230   5.749742318019614   1.664377246809663 
 -3.733872443655595  12.214909329377761   1.664594131313362 
  1.243931319169581  12.216164072654934   1.663824452464060 
  2.484640857482860   5.749510531048866   1.661870951149694 
  6.223881377058679  12.217395574930137   1.664141500181725 
  7.471174870603217   5.749508846870140   1.667385678270683 
 -1.246057201796298   7.905886930633176   8.341363081531279 
 -0.000403215306122   1.436553641961561   8.341349013963052 
  3.731323027117694   7.907263328572216   8.340579748420966 
  4.978539240854598   1.433303710622824   8.341475384706760 
  8.715907792861504   7.906626708110408   8.341050507453723 
 -3.732764329684374   7.905926275647457   1.664401073868258 
  9.957989191295807   1.436453539941678   8.342109658025544 
  2.488620856825023   1.434550956885740   1.664105883523530 
  1.241161354131810   7.906632097511136   1.664481828137854 
  6.225422464941206   7.907215307127911   1.667385678270683 
  7.468609699749918   1.434428296333679   1.664066984059781 
  1.241161354131811   7.906632097511137   8.341475384706760 
 12.447000777752562   1.437289254299564   1.664470347704587 
 -2.489424470941644  10.060710102253593   8.341321210882761 
 -1.245495350848590   3.593116480825566   8.341349013963052 
  3.732156916922587   3.588749332841129   8.344086261694933 
  2.487170503373858  10.062534079272153   8.341890228784861 
  7.470029624358352  10.062497261761067   8.341475077135842 
  8.714780540451098   3.591775613460871   8.341514333388437 
 -4.977191933817760  10.061338112347709   1.664401073868258 
 -0.001740224475330  10.061311052335371   1.664401787360354 
  1.242517563418604   3.591862847382334   1.663134169292867 
  4.978573505142794  10.063076026211183   1.664442879456189 
  6.224166739482145   3.589531363428339   1.665377464423675 
 11.203129933469061   3.593084091713308   1.664141500181725 
 -2.489392545034229   5.749742318019615   8.341579966034951 
 -3.733872443655594  12.214909329377761   8.341363081531279 
  1.243931319169582  12.216164072654934   8.342132760380554 
  2.484640857482861   5.749510531048867   8.344086261694933 
  6.223881377058680  12.217395574930137   8.341815712662902 
 -6.222816124030805  12.216221643017365   1.664377246809663 
  7.471174870603217   5.749508846870141   8.338571534573944 
 -1.245061909671260  12.214807381246892   1.664401787360354 
 -0.002717690934472   5.749675900460079   1.664105883523530 
 -1.246057201796298   7.905886930633175   1.664594131313362 
  4.978518471237368   5.748843977204145   1.668650413262696 
  3.733614161560182  12.217387336806896   1.663847554819071 
  9.960007375342270   5.749729287340805   1.664482135708772 
 -3.732764329684374   7.905926275647458   8.341556138976383 
  2.488620856825024   1.434550956885741   8.341851329321097 
  6.225422464941207   7.907215307127912   8.338571534573944 
  7.468609699749919   1.434428296333680   8.341890228784861 
 12.447000777752562   1.437289254299564   8.341486865140039 
  4.077636864419361   5.228719738999766   5.002978606422314 
  1.244767311699815   0.718207980946681   1.670341973107270 
  4.978394881619149   7.186103869451479   1.689491610054565 
  6.223387035243203   0.718210998686683   1.671792039448434 
  9.957518656017367   7.186395575788404   1.671948141040724 
 11.202070537071839   0.718528444720161   1.669555093316475 
 -3.734059641151147   9.342119651690213   8.335936127654016 
  1.244296796728372   9.342248267264671   8.334165173396194 
  2.489203999490589   2.874033750593366   8.334057524265882 
  6.223419965620507   9.341755844748885   8.329391148866771 
  7.467786888718457   2.874266180778364   8.330035647954329 
 12.446792355100898   2.874636422989378   8.336138107561696 
 -1.244906487807720   9.342210952977414   1.670084819852595 
 -0.000013829693429   2.874487013092486   1.670706088315454 
  4.978671032320662   2.874068489587073   1.677033680781182 
  3.733695283118496   9.341902561793987   1.675921564890312 
  8.712974767252213   9.342008823379013   1.671948141040724 
  9.957234841292559   2.874578351510478   1.670647371263562 
 -4.978650038500305  11.497689463841253   8.335953750239890 
 -0.000212335048053  11.497857398981806   8.336058789354484 
  1.244202548059767   5.030439519968559   8.334057524265882 
  6.223160254954927   5.030106999331458   8.316465602790077 
  4.978689607189885  11.497671644756261   8.335309841581067 
 11.202020101378814   5.030642590858368   8.335598238325925 
 -1.245015678482783   5.030638619763733   1.670341973107270 
 -2.489403995245318  11.497743865752176   1.670084819852595 
  2.489082657919615  11.497875011412413   1.670048929794252 
  3.733049204012021   5.029771960504172   1.679481866896882 
  7.468288640699452  11.497655182573425   1.670358974518703 
  8.712522169281261   5.030504362776774   1.676566063977844 
 -0.000362246939654   7.186502380090407   8.334505637915507 
  1.244767311699815   0.718207980946682   8.335615239737370 
  4.978394881619150   7.186103869451480   8.316465602790077 
  6.223387035243204   0.718210998686684   8.334165173396194 
  9.957518656017367   7.186395575788405   8.334009071803903 
 -2.489576622872082   7.186487844204134   1.670003462604739 
 11.202070537071839   0.718528444720162   8.336402119528152 
  3.734126811012468   0.718177591407254   1.671451574929120 
  2.488966149325798   7.186363842786534   1.677033680781182 
  7.468063113140614   7.186183246366635   1.680497748721962 
  8.712607487347949   0.718413804676033   1.670048929794252 
  2.488966149325799   7.186363842786535   8.328923532063445 
 13.691675728569797   0.718435170643489   1.669819105282932 
 -1.244906487807719   9.342210952977414   8.335872392992020 
 -0.000013829693429   2.874487013092486   8.335251124529186 
  4.978671032320663   2.874068489587074   8.328923532063445 
  3.733695283118496   9.341902561793987   8.330035647954329 
  8.712974767252213   9.342008823379013   8.334009071803903 
  9.957234841292559   2.874578351510479   8.335309841581067 
 -3.734059641151148   9.342119651690213   1.670021085190611 
  1.244296796728372   9.342248267264671   1.671792039448434 
  2.489203999490588   2.874033750593365   1.671899688578746 