Al B N S                                
   1.0000000000000000     
     8.7639499999999995  -15.1796066749929999    0.0000000000000000
     8.7639499999999995   15.1796066749929999    0.0000000000000000
     0.0000000000000000    0.0000000000000000   15.0000000000000000
   Al   B    N    S 
     1    49    47     1
Selective dynamics
Direct
  0.5257454131728063  0.6234801221391559  0.1112012358716508   T   T   T
  0.9081378648785777  0.9550332583377380  0.1109990854182810   T   T   T
  0.9046638830239396  0.0953842981159840  0.1111231610480562   T   T   T
  0.9038885621700715  0.2375156183981599  0.1110166534157582   T   T   T
  0.9044283418617834  0.3802697870657741  0.1109288124176476   T   T   T
  0.9070132020532149  0.5238541450002758  0.1111054113665266   T   T   T
  0.9112356942350966  0.6684431401383194  0.1110719943540743   T   T   T
  0.9110798007365780  0.8133033515343339  0.1109797175574250   T   T   T
  0.0496438817552064  0.9533451854836948  0.1110718194295762   T   T   T
  0.0470385545605158  0.0944054057237042  0.1110177051323056   T   T   T
  0.0454196631066751  0.2366518169608100  0.1109067705592966   T   T   T
  0.0452043636780370  0.3798635393198999  0.1108532103154442   T   T   T
  0.0463631109465387  0.5235641908222739  0.1108769847212236   T   T   T
  0.0490728961950618  0.6674560227800401  0.1110705554835549   T   T   T
  0.0502819363549760  0.8108486435933622  0.1111305185112022   T   T   T
  0.1909731148553859  0.9523316669987119  0.1110027727264883   T   T   T
  0.1893231122049042  0.0931977691145204  0.1109729934149628   T   T   T
  0.1857844825321729  0.2334313226434133  0.1107977639516024   T   T   T
  0.1855794303101058  0.3784204811376884  0.1109497948080153   T   T   T
  0.1855453012933667  0.5232907097442130  0.1109570226969742   T   T   T
  0.1877894422454826  0.6674999033509973  0.1109581172734208   T   T   T
  0.1906360634302937  0.8103931067956502  0.1109212824022758   T   T   T
  0.3329249873828935  0.9525783889899022  0.1109169821661815   T   T   T
  0.3324612458294228  0.0932027116520656  0.1110570084520133   T   T   T
  0.3290896020687369  0.2321432088931513  0.1110727113772620   T   T   T
  0.3228376784299978  0.3719000635146095  0.1116087945054738   T   T   T
  0.3239958352275573  0.5222090001654369  0.1117088205936623   T   T   T
  0.3258719257279682  0.6682457135161152  0.1112853294831404   T   T   T
  0.3317624711714430  0.8112338938526310  0.1109730307598719   T   T   T
  0.4756697112645623  0.9545536135669387  0.1109496958921715   T   T   T
  0.4758598160800868  0.0936882677915406  0.1110009176867023   T   T   T
  0.4752385497581320  0.2316036590699173  0.1111351575955073   T   T   T
  0.4686355481255106  0.3609284435335549  0.1113502897570992   T   T   T
  0.4498948110519765  0.5069389399473372  0.1101567279551330   T   T   T
  0.4625854744351202  0.6792790328904483  0.1110698035820612   T   T   T
  0.4745371766728704  0.8161464473837577  0.1111786663105399   T   T   T
  0.6194141238960531  0.9539794314219886  0.1109820398715433   T   T   T
  0.6192768530785077  0.0953320191511653  0.1109637250196089   T   T   T
  0.6195962774642702  0.2367546283815386  0.1110104817587132   T   T   T
  0.6209333223217040  0.3789257658662512  0.1109618044320189   T   T   T
  0.6400090549353263  0.5343647502965085  0.1108658893742875   T   T   T
  0.6454321801190051  0.6785284052388498  0.1117782443368453   T   T   T
  0.6204955708747079  0.8121213535036661  0.1111209441418180   T   T   T
  0.7634248972746590  0.9540562123177415  0.1109553184254197   T   T   T
  0.7620751160244397  0.0955812025549090  0.1110690600399183   T   T   T
  0.7620659193430279  0.2375925068778093  0.1110070462296823   T   T   T
  0.7632930636546496  0.3801669122303722  0.1110227523352748   T   T   T
  0.7684726441644668  0.5245305401846958  0.1108706330462143   T   T   T
  0.7779874086608034  0.6733417747215831  0.1107887749165185   T   T   T
  0.7704587009128531  0.8164050747023178  0.1108308048617391   T   T   T
  0.9558638743955432  0.9074350484662851  0.1110191701788900   T   T   T
  0.9531693946719622  0.0487911762391617  0.1111129204354257   T   T   T
  0.9510961481406831  0.1899084075701853  0.1110296802350759   T   T   T
  0.9508970054479308  0.3322809817515046  0.1108658757443921   T   T   T
  0.9522518968305542  0.4752717220832897  0.1109129199568823   T   T   T
  0.9553927852900314  0.6190501383939988  0.1111722073976856   T   T   T
  0.9564269176245290  0.7635698133349957  0.1111284856022993   T   T   T
  0.0966910148312296  0.9054964105840840  0.1110518943675900   T   T   T
  0.0952318341146027  0.0474157945382640  0.1110039127075406   T   T   T
  0.0922242074211080  0.1882561352999290  0.1108160094488009   T   T   T
  0.0916090466143197  0.3314057787999635  0.1108197621389064   T   T   T
  0.0917398734490757  0.4748941774495854  0.1107931330158499   T   T   T
  0.0939799466144795  0.6187697285102565  0.1108864942504977   T   T   T
  0.0963392926090332  0.7624981997565237  0.1110269555444122   T   T   T
  0.2382546039486322  0.9051246456244758  0.1108644046018009   T   T   T
  0.2378051680049259  0.0467514023848993  0.1109932779562368   T   T   T
  0.2349956853502765  0.1871126050510901  0.1108122641749373   T   T   T
  0.2300198479187229  0.3268895028424588  0.1109030322041963   T   T   T
  0.2304378829088820  0.4740149812303691  0.1111196456384176   T   T   T
  0.2323239779031325  0.6188206858563671  0.1110199024268383   T   T   T
  0.2369350975509047  0.7626620616076235  0.1108792941153915   T   T   T
  0.3805429894982991  0.9060636401380683  0.1108653445176771   T   T   T
  0.3808381837384390  0.0470416412389832  0.1109789330913426   T   T   T
  0.3798641967668087  0.1874924887147787  0.1110417593103244   T   T   T
  0.3751215734303224  0.3261195009548983  0.1113743785188319   T   T   T
  0.3603333816179481  0.4641527325794559  0.1121813996598549   T   T   T
  0.3699980153604009  0.6198845186147282  0.1115347882752011   T   T   T
  0.3784731129283273  0.7642830945041461  0.1111391721135760   T   T   T
  0.5240464668398098  0.9094321691293379  0.1109875787509331   T   T   T
  0.5242214791978485  0.0483645354819408  0.1109042934196784   T   T   T
  0.5243367244942541  0.1875733361719375  0.1109884736094950   T   T   T
  0.5243717156450097  0.3253374856834508  0.1112431297111743   T   T   T
  0.5226064002917319  0.7715677755056510  0.1112685096706604   T   T   T
  0.6678605852642100  0.9068797896335516  0.1109199806849244   T   T   T
  0.6672007440988124  0.0485147660731799  0.1109720777614044   T   T   T
  0.6672023264661330  0.1900818831115048  0.1109543935783536   T   T   T
  0.6679991878546346  0.3321039726272204  0.1109565011522928   T   T   T
  0.6730508504204155  0.4756474828600659  0.1107169118267181   T   T   T
  0.6866263205276384  0.6266227912592333  0.1110436095527027   T   T   T
  0.6771932425379974  0.7710473795202352  0.1111348256591877   T   T   T
  0.8144240013609557  0.9097002293868363  0.1108060627198863   T   T   T
  0.8099282313598326  0.0485409022311827  0.1110861053867101   T   T   T
  0.8092804872193635  0.1902330475782857  0.1110060485622689   T   T   T
  0.8097469618401465  0.3324484891413050  0.1109685863565982   T   T   T
  0.8125867204134413  0.4753518269356075  0.1110411591033010   T   T   T
  0.8181320717124060  0.6202053037224912  0.1107617346516795   T   T   T
  0.8179812685735628  0.7673875405903415  0.1107314393711706   T   T   T
  0.5232830436422613  0.4732706981138137  0.1105167230601756   T   T   T

  0.00000000E+00  0.00000000E+00  0.00000000E+00
  0.00000000E+00  0.00000000E+00  0.00000000E+00
  0.00000000E+00  0.00000000E+00  0.00000000E+00
  0.00000000E+00  0.00000000E+00  0.00000000E+00
  0.00000000E+00  0.00000000E+00  0.00000000E+00
  0.00000000E+00  0.00000000E+00  0.00000000E+00
  0.00000000E+00  0.00000000E+00  0.00000000E+00
  0.00000000E+00  0.00000000E+00  0.00000000E+00
  0.00000000E+00  0.00000000E+00  0.00000000E+00
  0.00000000E+00  0.00000000E+00  0.00000000E+00
  0.00000000E+00  0.00000000E+00  0.00000000E+00
  0.00000000E+00  0.00000000E+00  0.00000000E+00
  0.00000000E+00  0.00000000E+00  0.00000000E+00
  0.00000000E+00  0.00000000E+00  0.00000000E+00
  0.00000000E+00  0.00000000E+00  0.00000000E+00
  0.00000000E+00  0.00000000E+00  0.00000000E+00
  0.00000000E+00  0.00000000E+00  0.00000000E+00
  0.00000000E+00  0.00000000E+00  0.00000000E+00
  0.00000000E+00  0.00000000E+00  0.00000000E+00
  0.00000000E+00  0.00000000E+00  0.00000000E+00
  0.00000000E+00  0.00000000E+00  0.00000000E+00
  0.00000000E+00  0.00000000E+00  0.00000000E+00
  0.00000000E+00  0.00000000E+00  0.00000000E+00
  0.00000000E+00  0.00000000E+00  0.00000000E+00
  0.00000000E+00  0.00000000E+00  0.00000000E+00
  0.00000000E+00  0.00000000E+00  0.00000000E+00
  0.00000000E+00  0.00000000E+00  0.00000000E+00
  0.00000000E+00  0.00000000E+00  0.00000000E+00
  0.00000000E+00  0.00000000E+00  0.00000000E+00
  0.00000000E+00  0.00000000E+00  0.00000000E+00
  0.00000000E+00  0.00000000E+00  0.00000000E+00
  0.00000000E+00  0.00000000E+00  0.00000000E+00
  0.00000000E+00  0.00000000E+00  0.00000000E+00
  0.00000000E+00  0.00000000E+00  0.00000000E+00
  0.00000000E+00  0.00000000E+00  0.00000000E+00
  0.00000000E+00  0.00000000E+00  0.00000000E+00
  0.00000000E+00  0.00000000E+00  0.00000000E+00
  0.00000000E+00  0.00000000E+00  0.00000000E+00
  0.00000000E+00  0.00000000E+00  0.00000000E+00
  0.00000000E+00  0.00000000E+00  0.00000000E+00
  0.00000000E+00  0.00000000E+00  0.00000000E+00
  0.00000000E+00  0.00000000E+00  0.00000000E+00
  0.00000000E+00  0.00000000E+00  0.00000000E+00
  0.00000000E+00  0.00000000E+00  0.00000000E+00
  0.00000000E+00  0.00000000E+00  0.00000000E+00
  0.00000000E+00  0.00000000E+00  0.00000000E+00
  0.00000000E+00  0.00000000E+00  0.00000000E+00
  0.00000000E+00  0.00000000E+00  0.00000000E+00
  0.00000000E+00  0.00000000E+00  0.00000000E+00
  0.00000000E+00  0.00000000E+00  0.00000000E+00
  0.00000000E+00  0.00000000E+00  0.00000000E+00
  0.00000000E+00  0.00000000E+00  0.00000000E+00
  0.00000000E+00  0.00000000E+00  0.00000000E+00
  0.00000000E+00  0.00000000E+00  0.00000000E+00
  0.00000000E+00  0.00000000E+00  0.00000000E+00
  0.00000000E+00  0.00000000E+00  0.00000000E+00
  0.00000000E+00  0.00000000E+00  0.00000000E+00
  0.00000000E+00  0.00000000E+00  0.00000000E+00
  0.00000000E+00  0.00000000E+00  0.00000000E+00
  0.00000000E+00  0.00000000E+00  0.00000000E+00
  0.00000000E+00  0.00000000E+00  0.00000000E+00
  0.00000000E+00  0.00000000E+00  0.00000000E+00
  0.00000000E+00  0.00000000E+00  0.00000000E+00
  0.00000000E+00  0.00000000E+00  0.00000000E+00
  0.00000000E+00  0.00000000E+00  0.00000000E+00
  0.00000000E+00  0.00000000E+00  0.00000000E+00
  0.00000000E+00  0.00000000E+00  0.00000000E+00
  0.00000000E+00  0.00000000E+00  0.00000000E+00
  0.00000000E+00  0.00000000E+00  0.00000000E+00
  0.00000000E+00  0.00000000E+00  0.00000000E+00
  0.00000000E+00  0.00000000E+00  0.00000000E+00
  0.00000000E+00  0.00000000E+00  0.00000000E+00
  0.00000000E+00  0.00000000E+00  0.00000000E+00
  0.00000000E+00  0.00000000E+00  0.00000000E+00
  0.00000000E+00  0.00000000E+00  0.00000000E+00
  0.00000000E+00  0.00000000E+00  0.00000000E+00
  0.00000000E+00  0.00000000E+00  0.00000000E+00
  0.00000000E+00  0.00000000E+00  0.00000000E+00
  0.00000000E+00  0.00000000E+00  0.00000000E+00
  0.00000000E+00  0.00000000E+00  0.00000000E+00
  0.00000000E+00  0.00000000E+00  0.00000000E+00
  0.00000000E+00  0.00000000E+00  0.00000000E+00
  0.00000000E+00  0.00000000E+00  0.00000000E+00
  0.00000000E+00  0.00000000E+00  0.00000000E+00
  0.00000000E+00  0.00000000E+00  0.00000000E+00
  0.00000000E+00  0.00000000E+00  0.00000000E+00
  0.00000000E+00  0.00000000E+00  0.00000000E+00
  0.00000000E+00  0.00000000E+00  0.00000000E+00
  0.00000000E+00  0.00000000E+00  0.00000000E+00
  0.00000000E+00  0.00000000E+00  0.00000000E+00
  0.00000000E+00  0.00000000E+00  0.00000000E+00
  0.00000000E+00  0.00000000E+00  0.00000000E+00
  0.00000000E+00  0.00000000E+00  0.00000000E+00
  0.00000000E+00  0.00000000E+00  0.00000000E+00
  0.00000000E+00  0.00000000E+00  0.00000000E+00
  0.00000000E+00  0.00000000E+00  0.00000000E+00
  0.00000000E+00  0.00000000E+00  0.00000000E+00
  0.00000000E+00  0.00000000E+00  0.00000000E+00
