 S N Al B 
 1.0
 17.527899999999772   0.000000000000000   0.000000000000000
 -8.763949999999658  15.179606674993195   0.000000000000000
  0.000000000000001   0.000000000000002  15.000000000000000
 S N Al B 
   1  47   1  49
Cartesian
  5.024332125922668   7.184063048167141   1.657750845902640 
  8.801571011011632  13.774507118821592   1.665287552683350 
 16.279454403869277   0.740630864520753   1.666693806531390 
 15.006370386470202   2.882734931189709   1.665445203526140 
 13.755133711769584   5.043894608568437   1.662988136165880 
 12.525718413704361   7.214437804971020   1.663693799353230 
 11.320704740907040   9.396937612921009   1.667583110965290 
 10.072267703853786  11.590689435323213   1.666927284034485 
 -6.240934828677780  13.745079358284540   1.665778415513850 
  1.253664412633726   0.719753111273138   1.665058690613115 
 -0.033370671705330   2.857654088007224   1.662240141732015 
 -1.298709466962713   5.030609372003252   1.662296432083590 
 -2.553941498631090   7.208706825929124   1.661896995237750 
 -3.775595855913325   9.392681101178010   1.663297413757470 
 -4.993870610834080  11.574422762694427   1.665404333166180 
 -3.756364265469146  13.739436112422148   1.662966069027015 
  3.758498251342368   0.709667899707106   1.664899169343555 
  2.479135358213631   2.840295748608892   1.662183962624055 
  1.166921633898476   4.962054079332598   1.663545483062940 
 -0.115151426915190   7.195360973131283   1.666794684576270 
 -1.351162097522424   9.393454613649174   1.665298536402570 
 -2.530957478463422  11.576910121143159   1.663189411730880 
 -1.270576973360563  13.753689679808449   1.662980167765155 
  6.263023009012529   0.714073611353902   1.664683996370145 
  5.015046858037040   2.846062233205946   1.665626389654860 
  3.716998426535688   4.950365753540419   1.670615677782480 
  2.248076138971584   7.045655917679442   1.682720994897825 
  1.052651286522154   9.409603176489069   1.673021824128015 
 -0.064299949983012  11.601516762919589   1.667087581703640 
  1.215216007480636  13.804822624969239   1.664813681263995 
  8.764637294494900   0.734154625634617   1.663564401295170 
  7.546638333718731   2.847289465806278   1.664827104142425 
  6.339893536998680   4.938495069306016   1.668646945667610 
  2.398211317530842  11.712095355275231   1.669027645059900 
  3.758344420093736  13.766078508137891   1.663799710273860 
 11.269446938362385   0.736435066920177   1.664581166421060 
 10.028787538570571   2.885368221674678   1.664315903675310 
  8.798080353890892   5.041207679683906   1.664347517284395 
  7.628617243672525   7.220141705766369   1.660753677400770 
  6.543426672120086   9.511887504901521   1.665654143290545 
  5.112354754135501  11.704195948901372   1.667022384887820 
  6.302575128120065  13.808891674243258   1.662090940798290 
 13.770931006342874   0.736831803518658   1.666291580800650 
 12.517794534608450   2.887662838823648   1.665090728434035 
 11.279601836027885   5.046437304860756   1.664528795348970 
 10.076979133062409   7.215653765121965   1.665617386549515 
  8.904688868209181   9.414472568252107   1.661426019775200 
  7.612147841073903  11.648641033451767   1.660971590567565 
  3.751064411130263   9.464183023749106   1.668018538074765 
  7.547885957396325  14.497029223104029   1.664986281274215 
 15.020914855781566   1.447896128370932   1.666847415720840 
 13.761693325000124   3.605393666451846   1.665249801236370 
 12.520064132963979   5.772345798041864   1.663932186264720 
 11.307005170193349   7.951899876169043   1.666581170497905 
 10.113845866968155  10.146703951897038   1.666079915311110 
  8.841565731651409  12.345624983744914   1.664695763361375 
 -7.484916543302439  14.471404941140921   1.666077291443640 
 -0.002877175010966   1.433036926878978   1.665265576984590 
 -1.277893378286131   3.592281500387579   1.663601558389455 
 -2.536767499310254   5.766179117046894   1.662798154731660 
 -3.775842417796859   7.947498485793202   1.663154770818360 
 -4.989406393625488  10.131719898656305   1.666058332253325 
 -6.224900217783396  12.308363482698976   1.666957777668030 
 -4.998829453119360  14.456020129181045   1.665041590897320 
  2.501655989785128   1.414705478145243   1.664594901224445 
  1.210631391294973   3.543395663350442   1.661966459274030 
 -0.063640479134046   5.744274061431786   1.664246922120225 
 -1.333874129122652   7.943347150595182   1.664355340454610 
 -2.558381213238183  10.132385988464106   1.664371759101315 
 -3.760794812101654  12.301448613283723   1.663819236034140 
 -2.512873485839175  14.459765271965381   1.663754732492715 
  5.010523565990375   1.414780503921167   1.665855126780195 
  3.733758160521489   3.523842603268815   1.666090670658930 
  2.399352982114348   5.645296686556768   1.674131917582110 
  1.102353033285318   7.926927224652791   1.675632308904930 
 -0.144621494002151  10.143707093424808   1.669279942247100 
 -1.294513865583629  12.314211430106118   1.664595461398080 
 -0.028169009545643  14.489748404139583   1.664245438382580 
  7.519743975758405   1.422151055137026   1.665013765300530 
  6.300170888399734   3.515652449170561   1.667027363932605 
  5.051038191283261   5.478751810656856   1.670254346356485 
  3.442923735886537   7.695133716638571   1.652350919326995 
  2.154984457051224  10.311188541846766   1.666047053730915 
  1.164973521455683  12.388782060478475   1.667679994658100 
  2.496400784227070  14.481032545019438   1.664730598073145 
 10.019137703834819   1.447102554247604   1.664455875294135 
  8.785315866361529   3.593842137315943   1.665157226380695 
  7.562770714559052   5.751944084870252   1.664427066480285 
  6.534868760639847   8.111446730481960   1.662988340614305 
  5.366481692814973  10.299794309336136   1.676673665052675 
  3.758593380696476  12.327682718548756   1.666814162127270 
  5.019934314998572  14.482198048817121   1.664329776381300 
 12.519907546033545   1.450885060306373   1.666035900598770 
 11.275166377000794   3.606560803330756   1.665105693445230 
 10.047160679990927   5.770784198503708   1.665341285029125 
  8.872752231998698   7.962167289025398   1.663059495693210 
  7.735351853694524  10.221063298115505   1.661831623747785 
  6.349589809293119  12.392707921449626   1.662462072926085 
