B N                                     
   1.0000000000000000     
     8.7639499999999995  -15.1796066749929999    0.0000000000000000
     8.7639499999999995   15.1796066749929999    0.0000000000000000
     0.0000000000000000    0.0000000000000000   15.0000000000000000
   B    N 
    48    49
Selective dynamics
Direct
  0.9043157407733465  0.9521669218976830  0.1110223508100960   T   T   T
  0.9047957105529945  0.0952060583180490  0.1110545525888996   T   T   T
  0.9050288715263514  0.2380649306200274  0.1110567245114007   T   T   T
  0.9051272298365652  0.3809035935728142  0.1110043480211663   T   T   T
  0.9055093885770639  0.5238953390676426  0.1110284699521129   T   T   T
  0.9051397278708813  0.6669422650095640  0.1110825668156621   T   T   T
  0.9048800199206194  0.8098842910799842  0.1110589406861779   T   T   T
  0.0474596699716884  0.9525420521843012  0.1109861535248505   T   T   T
  0.0478347838694067  0.0956859614186646  0.1110223520000988   T   T   T
  0.0480612956192787  0.2384760986814840  0.1110163745672611   T   T   T
  0.0480308176684808  0.3811229662156175  0.1110243243183302   T   T   T
  0.0479146185866125  0.5239475325142439  0.1110128687656338   T   T   T
  0.0476524756583807  0.6668831643662102  0.1110208746839104   T   T   T
  0.0475807543561561  0.8097481313379561  0.1109624752654467   T   T   T
  0.1902536116821011  0.9524209976828809  0.1109624717294449   T   T   T
  0.1901174192299823  0.0951217235364761  0.1110589386251776   T   T   T
  0.1915619689599787  0.2394436644812892  0.1110464114079360   T   T   T
  0.1912424286194263  0.3817238173326725  0.1109978733611989   T   T   T
  0.1906248443508460  0.5242034227906600  0.1110776446819126   T   T   T
  0.1901174557526486  0.6669701492995758  0.1110779058442170   T   T   T
  0.1902685494417487  0.8097330868962370  0.1109940599678434   T   T   T
  0.3331185030957439  0.9523491657007871  0.1110208718009117   T   T   T
  0.3330594868375364  0.0948620118780217  0.1110825658116652   T   T   T
  0.3324181887207287  0.2370781226021093  0.1111152684722303   T   T   T
  0.3361677373345031  0.3838341410325073  0.1109730236644270   T   T   T
  0.3336625792969614  0.5257365172797954  0.1110289924363912   T   T   T
  0.3325112970968297  0.6674905255152956  0.1111049363536555   T   T   T
  0.3330315027264188  0.8098842288343083  0.1110779040622185   T   T   T
  0.4760541114017998  0.9520869728644124  0.1110128740616356   T   T   T
  0.4761063813533468  0.0944922806479621  0.1110284839721159   T   T   T
  0.4759600361492152  0.2364242024740620  0.1110947174995427   T   T   T
  0.4731080625738534  0.3744835068610359  0.1108883622685642   T   T   T
  0.4742652117091822  0.6663391829539300  0.1110289921073885   T   T   T
  0.4757983642203838  0.8093769854780960  0.1110776446569086   T   T   T
  0.6188787786744656  0.9519709100555993  0.1110243270513334   T   T   T
  0.6190980644642735  0.0948743840695109  0.1110043552391650   T   T   T
  0.6192093353834983  0.2376734062734588  0.1110179101040545   T   T   T
  0.6193280668405002  0.3806737324385831  0.1109915777197238   T   T   T
  0.6255182272040698  0.5268935731370221  0.1108883620945594   T   T   T
  0.6161675165935216  0.6638338605994321  0.1109730212504291   T   T   T
  0.6182779073971773  0.8087593349934185  0.1109978715262010   T   T   T
  0.7615256239204761  0.9519404526305951  0.1110163769212607   T   T   T
  0.7619367702830748  0.0949728174816883  0.1110567240153992   T   T   T
  0.7621364086106666  0.2378652146202924  0.1110628236505866   T   T   T
  0.7623283261064123  0.3807923892435153  0.1110179035270578   T   T   T
  0.7635776666208823  0.5240417358358060  0.1110947102655425   T   T   T
  0.7629236664759118  0.6675835038362917  0.1111152700312250   T   T   T
  0.7605579911876393  0.8084396947420097  0.1110464124279414   T   T   T
  0.9522791796608308  0.9049472698093282  0.1110014571117782   T   T   T
  0.9523670713733601  0.0476346487555493  0.1110127127213415   T   T   T
  0.9526929548626385  0.1905424249649893  0.1110309414212504   T   T   T
  0.9527427693745392  0.3333286387365841  0.1110085594614786   T   T   T
  0.9528371569609893  0.4761563886273721  0.1109663139493819   T   T   T
  0.9525873265295834  0.6191668492054625  0.1110345214063682   T   T   T
  0.9524175389697628  0.7621510278678619  0.1110184686146855   T   T   T
  0.0950738138516419  0.9049279517214044  0.1109255743775110   T   T   T
  0.0950544451096991  0.0477225468322264  0.1110014676187797   T   T   T
  0.0960134084726599  0.1912713847653842  0.1110120205393443   T   T   T
  0.0958748553176895  0.3337385038926102  0.1109846499044034   T   T   T
  0.0955105308778401  0.4763524419844184  0.1110190280094995   T   T   T
  0.0950947867839516  0.6191859588346849  0.1110208272815824   T   T   T
  0.0951189267114224  0.7620989562569800  0.1109609516628505   T   T   T
  0.2379027113699866  0.9048827256675508  0.1109609507398484   T   T   T
  0.2378507153039950  0.0475842383853017  0.1110184584076822   T   T   T
  0.2376949077383754  0.1903119591717938  0.1110766581658688   T   T   T
  0.2402028526468036  0.3354781885091748  0.1109840309701453   T   T   T
  0.2385679894604459  0.4768218195622831  0.1110300697721133   T   T   T
  0.2375698040642311  0.6194032052840225  0.1110885307190598   T   T   T
  0.2378290147137181  0.7621726347292913  0.1110455907909085   T   T   T
  0.3808156847563360  0.9049068364350155  0.1110208179975813   T   T   T
  0.3808348561085546  0.0474143043225303  0.1110345269663722   T   T   T
  0.3806809444695661  0.1899734839467654  0.1111065941742437   T   T   T
  0.3802204243811771  0.3325264604285724  0.1110182279302869   T   T   T
  0.3838964229852183  0.4808702041702596  0.1109194959769132   T   T   T
  0.3798097234185362  0.6201920314163964  0.1110464477631863   T   T   T
  0.3805985934890170  0.7624320547906847  0.1110885376010570   T   T   T
  0.5236493343325624  0.9044912721850894  0.1110190332774989   T   T   T
  0.5238452681937359  0.0471643871450273  0.1109663319463778   T   T   T
  0.5239032477563066  0.1894931946338647  0.1110371649438835   T   T   T
  0.5237476650628577  0.3315476548186915  0.1110044238995519   T   T   T
  0.4756608445847731  0.5243406941583955  0.1107687208696062   T   T   T
  0.5191313426038707  0.6161050769777593  0.1109194995099093   T   T   T
  0.5231799167396586  0.7614338236225366  0.1110300647451158   T   T   T
  0.6662632513333429  0.9041269288383643  0.1109846486094037   T   T   T
  0.6666730737535826  0.0472589050074459  0.1110085621724763   T   T   T
  0.6668600558395915  0.1901698676811970  0.1110165396426911   T   T   T
  0.6668976334241155  0.3331041247447543  0.1109846765036142   T   T   T
  0.6684542801481632  0.4762541099641805  0.1110044190565495   T   T   T
  0.6674753347604723  0.6197812237688440  0.1110182292382887   T   T   T
  0.6645234148697631  0.7597987972152227  0.1109840261851445   T   T   T
  0.8087302984925809  0.9039882996143430  0.1110120222123455   T   T   T
  0.8094593448700188  0.0473088282993759  0.1110309448872494   T   T   T
  0.8097238036062596  0.1902778538246735  0.1110608043870240   T   T   T
  0.8098317606429176  0.3331415874212982  0.1110165341266910   T   T   T
  0.8105085304071503  0.4760984702787385  0.1110371456148829   T   T   T
  0.8100283496021390  0.6193208065764576  0.1111065935442410   T   T   T
  0.8096897686721863  0.7623067859246748  0.1110766629178650   T   T   T

  0.00000000E+00  0.00000000E+00  0.00000000E+00
  0.00000000E+00  0.00000000E+00  0.00000000E+00
  0.00000000E+00  0.00000000E+00  0.00000000E+00
  0.00000000E+00  0.00000000E+00  0.00000000E+00
  0.00000000E+00  0.00000000E+00  0.00000000E+00
  0.00000000E+00  0.00000000E+00  0.00000000E+00
  0.00000000E+00  0.00000000E+00  0.00000000E+00
  0.00000000E+00  0.00000000E+00  0.00000000E+00
  0.00000000E+00  0.00000000E+00  0.00000000E+00
  0.00000000E+00  0.00000000E+00  0.00000000E+00
  0.00000000E+00  0.00000000E+00  0.00000000E+00
  0.00000000E+00  0.00000000E+00  0.00000000E+00
  0.00000000E+00  0.00000000E+00  0.00000000E+00
  0.00000000E+00  0.00000000E+00  0.00000000E+00
  0.00000000E+00  0.00000000E+00  0.00000000E+00
  0.00000000E+00  0.00000000E+00  0.00000000E+00
  0.00000000E+00  0.00000000E+00  0.00000000E+00
  0.00000000E+00  0.00000000E+00  0.00000000E+00
  0.00000000E+00  0.00000000E+00  0.00000000E+00
  0.00000000E+00  0.00000000E+00  0.00000000E+00
  0.00000000E+00  0.00000000E+00  0.00000000E+00
  0.00000000E+00  0.00000000E+00  0.00000000E+00
  0.00000000E+00  0.00000000E+00  0.00000000E+00
  0.00000000E+00  0.00000000E+00  0.00000000E+00
  0.00000000E+00  0.00000000E+00  0.00000000E+00
  0.00000000E+00  0.00000000E+00  0.00000000E+00
  0.00000000E+00  0.00000000E+00  0.00000000E+00
  0.00000000E+00  0.00000000E+00  0.00000000E+00
  0.00000000E+00  0.00000000E+00  0.00000000E+00
  0.00000000E+00  0.00000000E+00  0.00000000E+00
  0.00000000E+00  0.00000000E+00  0.00000000E+00
  0.00000000E+00  0.00000000E+00  0.00000000E+00
  0.00000000E+00  0.00000000E+00  0.00000000E+00
  0.00000000E+00  0.00000000E+00  0.00000000E+00
  0.00000000E+00  0.00000000E+00  0.00000000E+00
  0.00000000E+00  0.00000000E+00  0.00000000E+00
  0.00000000E+00  0.00000000E+00  0.00000000E+00
  0.00000000E+00  0.00000000E+00  0.00000000E+00
  0.00000000E+00  0.00000000E+00  0.00000000E+00
  0.00000000E+00  0.00000000E+00  0.00000000E+00
  0.00000000E+00  0.00000000E+00  0.00000000E+00
  0.00000000E+00  0.00000000E+00  0.00000000E+00
  0.00000000E+00  0.00000000E+00  0.00000000E+00
  0.00000000E+00  0.00000000E+00  0.00000000E+00
  0.00000000E+00  0.00000000E+00  0.00000000E+00
  0.00000000E+00  0.00000000E+00  0.00000000E+00
  0.00000000E+00  0.00000000E+00  0.00000000E+00
  0.00000000E+00  0.00000000E+00  0.00000000E+00
  0.00000000E+00  0.00000000E+00  0.00000000E+00
  0.00000000E+00  0.00000000E+00  0.00000000E+00
  0.00000000E+00  0.00000000E+00  0.00000000E+00
  0.00000000E+00  0.00000000E+00  0.00000000E+00
  0.00000000E+00  0.00000000E+00  0.00000000E+00
  0.00000000E+00  0.00000000E+00  0.00000000E+00
  0.00000000E+00  0.00000000E+00  0.00000000E+00
  0.00000000E+00  0.00000000E+00  0.00000000E+00
  0.00000000E+00  0.00000000E+00  0.00000000E+00
  0.00000000E+00  0.00000000E+00  0.00000000E+00
  0.00000000E+00  0.00000000E+00  0.00000000E+00
  0.00000000E+00  0.00000000E+00  0.00000000E+00
  0.00000000E+00  0.00000000E+00  0.00000000E+00
  0.00000000E+00  0.00000000E+00  0.00000000E+00
  0.00000000E+00  0.00000000E+00  0.00000000E+00
  0.00000000E+00  0.00000000E+00  0.00000000E+00
  0.00000000E+00  0.00000000E+00  0.00000000E+00
  0.00000000E+00  0.00000000E+00  0.00000000E+00
  0.00000000E+00  0.00000000E+00  0.00000000E+00
  0.00000000E+00  0.00000000E+00  0.00000000E+00
  0.00000000E+00  0.00000000E+00  0.00000000E+00
  0.00000000E+00  0.00000000E+00  0.00000000E+00
  0.00000000E+00  0.00000000E+00  0.00000000E+00
  0.00000000E+00  0.00000000E+00  0.00000000E+00
  0.00000000E+00  0.00000000E+00  0.00000000E+00
  0.00000000E+00  0.00000000E+00  0.00000000E+00
  0.00000000E+00  0.00000000E+00  0.00000000E+00
  0.00000000E+00  0.00000000E+00  0.00000000E+00
  0.00000000E+00  0.00000000E+00  0.00000000E+00
  0.00000000E+00  0.00000000E+00  0.00000000E+00
  0.00000000E+00  0.00000000E+00  0.00000000E+00
  0.00000000E+00  0.00000000E+00  0.00000000E+00
  0.00000000E+00  0.00000000E+00  0.00000000E+00
  0.00000000E+00  0.00000000E+00  0.00000000E+00
  0.00000000E+00  0.00000000E+00  0.00000000E+00
  0.00000000E+00  0.00000000E+00  0.00000000E+00
  0.00000000E+00  0.00000000E+00  0.00000000E+00
  0.00000000E+00  0.00000000E+00  0.00000000E+00
  0.00000000E+00  0.00000000E+00  0.00000000E+00
  0.00000000E+00  0.00000000E+00  0.00000000E+00
  0.00000000E+00  0.00000000E+00  0.00000000E+00
  0.00000000E+00  0.00000000E+00  0.00000000E+00
  0.00000000E+00  0.00000000E+00  0.00000000E+00
  0.00000000E+00  0.00000000E+00  0.00000000E+00
  0.00000000E+00  0.00000000E+00  0.00000000E+00
  0.00000000E+00  0.00000000E+00  0.00000000E+00
  0.00000000E+00  0.00000000E+00  0.00000000E+00
  0.00000000E+00  0.00000000E+00  0.00000000E+00
  0.00000000E+00  0.00000000E+00  0.00000000E+00
