B Ga N                                  
   1.0000000000000000     
     8.7639499999999995  -15.1796066749929999    0.0000000000000000
     8.7639499999999995   15.1796066749929999    0.0000000000000000
     0.0000000000000000    0.0000000000000000   15.0000000000000000
   B    Ga   N 
    47     1    49
Selective dynamics
Direct
  0.9075440117778448  0.9566046946000356  0.1110344342457546   T   T   T
  0.9066173240739049  0.0982889740849551  0.1110562031266162   T   T   T
  0.9054711080713952  0.2399020171664018  0.1110967930452643   T   T   T
  0.9035044274886526  0.3815211573125821  0.1109824554949613   T   T   T
  0.8987845243853633  0.5230046318058499  0.1110146027645493   T   T   T
  0.9012883797896528  0.6659042918803705  0.1111249885074932   T   T   T
  0.9062278436662986  0.8126589877067423  0.1110692170551955   T   T   T
  0.0484122462287126  0.9535395916161598  0.1110324679671086   T   T   T
  0.0492489286947404  0.0970208124924117  0.1109833709179871   T   T   T
  0.0490417513997429  0.2397818895032447  0.1110069433618676   T   T   T
  0.0476602977347749  0.3818694631155936  0.1109911422901934   T   T   T
  0.0447202606580371  0.5233993800904527  0.1110101108795564   T   T   T
  0.0443736506328763  0.6651974542367773  0.1110102232894388   T   T   T
  0.0454367940310188  0.8082505928909212  0.1110336819009408   T   T   T
  0.1882693801507318  0.9497708404898301  0.1110675674601550   T   T   T
  0.1911216902423503  0.0949417778224258  0.1109956018970951   T   T   T
  0.1913085781295794  0.2376528172329090  0.1108846091031917   T   T   T
  0.1916264398320073  0.3814166506370038  0.1109654667602471   T   T   T
  0.1896868276079564  0.5236933595224149  0.1111008695013968   T   T   T
  0.1883854142469910  0.6653443554582751  0.1110844280491897   T   T   T
  0.1878079092957948  0.8071640727455861  0.1110208629530261   T   T   T
  0.3306210308557533  0.9487046222895491  0.1110390735016385   T   T   T
  0.3302435438168683  0.0899792673785277  0.1110791227412359   T   T   T
  0.3351637175648708  0.2364721801728210  0.1109345700847608   T   T   T
  0.3334284762031207  0.3784631748823631  0.1110965304134022   T   T   T
  0.3342780406207483  0.5239403119718691  0.1113210012953862   T   T   T
  0.3327056235426006  0.6663147984703783  0.1111865454184227   T   T   T
  0.3312543662852406  0.8076583555976186  0.1110077333289244   T   T   T
  0.4744312646861157  0.9504600149000638  0.1109950324822854   T   T   T
  0.4735016639155588  0.0890006758499699  0.1110697668411054   T   T   T
  0.4715523447242694  0.2254726091749608  0.1108516390245805   T   T   T
  0.4827177991532051  0.3708054080317265  0.1108194727338016   T   T   T
  0.4774874298641184  0.6731016705974264  0.1113430767169256   T   T   T
  0.4754556284500153  0.8115657775244882  0.1109504724628311   T   T   T
  0.6191804720479803  0.9547727080906435  0.1109485176487163   T   T   T
  0.6181291418244628  0.0937538748297934  0.1110805943216099   T   T   T
  0.6166966556928420  0.2324126907028707  0.1109872127007920   T   T   T
  0.6126121928353541  0.3676970345094028  0.1107630408608452   T   T   T
  0.6246103029029145  0.6819590719860190  0.1110880499206615   T   T   T
  0.6206879116678288  0.8165340953519203  0.1108543057509943   T   T   T
  0.7640237370024607  0.9570899348194265  0.1109510178223331   T   T   T
  0.7627075627978395  0.0974031992751449  0.1110741522879863   T   T   T
  0.7614362919585502  0.2382180208976400  0.1110607253304473   T   T   T
  0.7592424275838441  0.3795716777503354  0.1109639178168803   T   T   T
  0.7521027869740571  0.5238685729295167  0.1110983567072021   T   T   T
  0.7642173447779763  0.6725554278812768  0.1110068855204379   T   T   T
  0.7664696757726931  0.8175792049895823  0.1108974248261952   T   T   T
  0.4970033020646497  0.5231368483868098  0.1117188473418431   T   T   T
  0.9537368311686181  0.9074030988404089  0.1110479467318156   T   T   T
  0.9546308706153597  0.0510254774793304  0.1110112297736109   T   T   T
  0.9538901658353975  0.1931061828487341  0.1110703831958346   T   T   T
  0.9521648653363904  0.3349127976406736  0.1110062342364415   T   T   T
  0.9481758258236882  0.4763971957563389  0.1109574028829959   T   T   T
  0.9477731391908425  0.6177097332625675  0.1110285432573096   T   T   T
  0.9499027859357617  0.7611117405806064  0.1110694910116113   T   T   T
  0.0934915894259389  0.9034320157990893  0.1110277805032948   T   T   T
  0.0963465932909684  0.0487648759171357  0.1109689700132321   T   T   T
  0.0967304474632903  0.1918392808271554  0.1109228272868493   T   T   T
  0.0963428373256227  0.3347797855319095  0.1109338717960145   T   T   T
  0.0939117076185929  0.4766956594272028  0.1109983417084829   T   T   T
  0.0924577637165819  0.6181134187422633  0.1110149316669834   T   T   T
  0.0922628871033268  0.7600244706758864  0.1109969580515615   T   T   T
  0.2355506349276611  0.9020341116093651  0.1110138038359216   T   T   T
  0.2361260365167797  0.0448650544187358  0.1110630904322456   T   T   T
  0.2401637830273683  0.1908643703059567  0.1109127691523186   T   T   T
  0.2390270075654944  0.3322889517617690  0.1108694135070506   T   T   T
  0.2386703709390408  0.4766154319895009  0.1110830573029394   T   T   T
  0.2371162638437485  0.6185743946266526  0.1111398315891488   T   T   T
  0.2358223762169472  0.7601236086023707  0.1110176485518420   T   T   T
  0.3790759830043726  0.9024724985133256  0.1109710883442257   T   T   T
  0.3785186263149258  0.0434261574085401  0.1110762774679091   T   T   T
  0.3782996378447397  0.1847953927264751  0.1109853975458231   T   T   T
  0.3876125353834769  0.3346165857181549  0.1109324696957382   T   T   T
  0.3775755801451454  0.4712587025201773  0.1114351137958148   T   T   T
  0.3820395917782772  0.6197805531517119  0.1113017804585726   T   T   T
  0.3799644588379933  0.7614468358174340  0.1110279605744126   T   T   T
  0.5236687736855721  0.9058125670843507  0.1109210679967052   T   T   T
  0.5227944925336910  0.0447544525646588  0.1110486436260466   T   T   T
  0.5218933059291733  0.1829839241787675  0.1110033512480345   T   T   T
  0.5203111019046158  0.3178830304439668  0.1105849674990888   T   T   T
  0.5641725366039168  0.4649173297648561  0.1110840850504562   T   T   T
  0.5331545176729126  0.6363208254125544  0.1116879043322517   T   T   T
  0.5250313327237032  0.7673229397426817  0.1109141538075341   T   T   T
  0.6686811395551001  0.9101533530502087  0.1108757583444328   T   T   T
  0.6673487464025372  0.0491138679523201  0.1110337413725337   T   T   T
  0.6661769041369261  0.1886678321336798  0.1110465306003021   T   T   T
  0.6644723496398478  0.3282629537724330  0.1108754614606205   T   T   T
  0.6423247994810153  0.4633440245977448  0.1109863896566029   T   T   T
  0.6740884599502927  0.6391901500687731  0.1102199953273334   T   T   T
  0.6726817755522787  0.7742463068020715  0.1107968860206356   T   T   T
  0.8131581747867763  0.9111369708144317  0.1109377379574538   T   T   T
  0.8114786072064619  0.0514436589375823  0.1110207357373244   T   T   T
  0.8101274457512679  0.1923847170936155  0.1110939465064632   T   T   T
  0.8079689001787712  0.3339117779482292  0.1109667243927458   T   T   T
  0.7999494580111657  0.4752379617665181  0.1110018990241615   T   T   T
  0.8037802017020318  0.6177074389125994  0.1111977177420486   T   T   T
  0.8118925232173794  0.7675795502834564  0.1110004077757335   T   T   T

  0.00000000E+00  0.00000000E+00  0.00000000E+00
  0.00000000E+00  0.00000000E+00  0.00000000E+00
  0.00000000E+00  0.00000000E+00  0.00000000E+00
  0.00000000E+00  0.00000000E+00  0.00000000E+00
  0.00000000E+00  0.00000000E+00  0.00000000E+00
  0.00000000E+00  0.00000000E+00  0.00000000E+00
  0.00000000E+00  0.00000000E+00  0.00000000E+00
  0.00000000E+00  0.00000000E+00  0.00000000E+00
  0.00000000E+00  0.00000000E+00  0.00000000E+00
  0.00000000E+00  0.00000000E+00  0.00000000E+00
  0.00000000E+00  0.00000000E+00  0.00000000E+00
  0.00000000E+00  0.00000000E+00  0.00000000E+00
  0.00000000E+00  0.00000000E+00  0.00000000E+00
  0.00000000E+00  0.00000000E+00  0.00000000E+00
  0.00000000E+00  0.00000000E+00  0.00000000E+00
  0.00000000E+00  0.00000000E+00  0.00000000E+00
  0.00000000E+00  0.00000000E+00  0.00000000E+00
  0.00000000E+00  0.00000000E+00  0.00000000E+00
  0.00000000E+00  0.00000000E+00  0.00000000E+00
  0.00000000E+00  0.00000000E+00  0.00000000E+00
  0.00000000E+00  0.00000000E+00  0.00000000E+00
  0.00000000E+00  0.00000000E+00  0.00000000E+00
  0.00000000E+00  0.00000000E+00  0.00000000E+00
  0.00000000E+00  0.00000000E+00  0.00000000E+00
  0.00000000E+00  0.00000000E+00  0.00000000E+00
  0.00000000E+00  0.00000000E+00  0.00000000E+00
  0.00000000E+00  0.00000000E+00  0.00000000E+00
  0.00000000E+00  0.00000000E+00  0.00000000E+00
  0.00000000E+00  0.00000000E+00  0.00000000E+00
  0.00000000E+00  0.00000000E+00  0.00000000E+00
  0.00000000E+00  0.00000000E+00  0.00000000E+00
  0.00000000E+00  0.00000000E+00  0.00000000E+00
  0.00000000E+00  0.00000000E+00  0.00000000E+00
  0.00000000E+00  0.00000000E+00  0.00000000E+00
  0.00000000E+00  0.00000000E+00  0.00000000E+00
  0.00000000E+00  0.00000000E+00  0.00000000E+00
  0.00000000E+00  0.00000000E+00  0.00000000E+00
  0.00000000E+00  0.00000000E+00  0.00000000E+00
  0.00000000E+00  0.00000000E+00  0.00000000E+00
  0.00000000E+00  0.00000000E+00  0.00000000E+00
  0.00000000E+00  0.00000000E+00  0.00000000E+00
  0.00000000E+00  0.00000000E+00  0.00000000E+00
  0.00000000E+00  0.00000000E+00  0.00000000E+00
  0.00000000E+00  0.00000000E+00  0.00000000E+00
  0.00000000E+00  0.00000000E+00  0.00000000E+00
  0.00000000E+00  0.00000000E+00  0.00000000E+00
  0.00000000E+00  0.00000000E+00  0.00000000E+00
  0.00000000E+00  0.00000000E+00  0.00000000E+00
  0.00000000E+00  0.00000000E+00  0.00000000E+00
  0.00000000E+00  0.00000000E+00  0.00000000E+00
  0.00000000E+00  0.00000000E+00  0.00000000E+00
  0.00000000E+00  0.00000000E+00  0.00000000E+00
  0.00000000E+00  0.00000000E+00  0.00000000E+00
  0.00000000E+00  0.00000000E+00  0.00000000E+00
  0.00000000E+00  0.00000000E+00  0.00000000E+00
  0.00000000E+00  0.00000000E+00  0.00000000E+00
  0.00000000E+00  0.00000000E+00  0.00000000E+00
  0.00000000E+00  0.00000000E+00  0.00000000E+00
  0.00000000E+00  0.00000000E+00  0.00000000E+00
  0.00000000E+00  0.00000000E+00  0.00000000E+00
  0.00000000E+00  0.00000000E+00  0.00000000E+00
  0.00000000E+00  0.00000000E+00  0.00000000E+00
  0.00000000E+00  0.00000000E+00  0.00000000E+00
  0.00000000E+00  0.00000000E+00  0.00000000E+00
  0.00000000E+00  0.00000000E+00  0.00000000E+00
  0.00000000E+00  0.00000000E+00  0.00000000E+00
  0.00000000E+00  0.00000000E+00  0.00000000E+00
  0.00000000E+00  0.00000000E+00  0.00000000E+00
  0.00000000E+00  0.00000000E+00  0.00000000E+00
  0.00000000E+00  0.00000000E+00  0.00000000E+00
  0.00000000E+00  0.00000000E+00  0.00000000E+00
  0.00000000E+00  0.00000000E+00  0.00000000E+00
  0.00000000E+00  0.00000000E+00  0.00000000E+00
  0.00000000E+00  0.00000000E+00  0.00000000E+00
  0.00000000E+00  0.00000000E+00  0.00000000E+00
  0.00000000E+00  0.00000000E+00  0.00000000E+00
  0.00000000E+00  0.00000000E+00  0.00000000E+00
  0.00000000E+00  0.00000000E+00  0.00000000E+00
  0.00000000E+00  0.00000000E+00  0.00000000E+00
  0.00000000E+00  0.00000000E+00  0.00000000E+00
  0.00000000E+00  0.00000000E+00  0.00000000E+00
  0.00000000E+00  0.00000000E+00  0.00000000E+00
  0.00000000E+00  0.00000000E+00  0.00000000E+00
  0.00000000E+00  0.00000000E+00  0.00000000E+00
  0.00000000E+00  0.00000000E+00  0.00000000E+00
  0.00000000E+00  0.00000000E+00  0.00000000E+00
  0.00000000E+00  0.00000000E+00  0.00000000E+00
  0.00000000E+00  0.00000000E+00  0.00000000E+00
  0.00000000E+00  0.00000000E+00  0.00000000E+00
  0.00000000E+00  0.00000000E+00  0.00000000E+00
  0.00000000E+00  0.00000000E+00  0.00000000E+00
  0.00000000E+00  0.00000000E+00  0.00000000E+00
  0.00000000E+00  0.00000000E+00  0.00000000E+00
  0.00000000E+00  0.00000000E+00  0.00000000E+00
  0.00000000E+00  0.00000000E+00  0.00000000E+00
  0.00000000E+00  0.00000000E+00  0.00000000E+00
  0.00000000E+00  0.00000000E+00  0.00000000E+00
