 B N O 
 1.0
 17.527899999999772   0.000000000000000   0.000000000000000
 -8.763949999999658  15.179606674993195   0.000000000000000
  0.000000000000001   0.000000000000002  15.000000000000000
 B N O 
  47  48   2
Cartesian
  7.488490566376393  14.418152810058590   1.667268505869720 
 15.019173530613372   1.423547131816274   1.665507935643255 
 13.786649368424126   3.604575153829019   1.665439221857775 
 12.567004780060643   5.789077409083448   1.667556889868805 
 11.324092101860561   7.970148022744304   1.666976956218780 
 10.018317173990118  10.126924378242087   1.667442097142655 
  8.725835207340392  12.237928186576527   1.667573331835665 
 -7.540061305850264  14.446602207437223   1.663633259094930 
 -0.017812140314468   1.440028245449716   1.665830648927835 
 -1.259297171368996   3.614586380129842   1.669042753307970 
 -2.497235332374800   5.795060061851786   1.671308631736365 
 -3.741264550299242   7.978381368223952   1.668609843577920 
 -5.011972858011248  10.151282719201618   1.667537866228800 
 -6.276133356049444  12.308146827925469   1.664895440043945 
 -5.024263102148119  14.500308747489633   1.661811459831855 
  2.479415245186966   1.462681633426352   1.665686659699260 
  1.230500908360280   3.643311430525295   1.669391827721565 
 -0.027722715130268   5.810225089457980   1.669772165666580 
 -1.272415848953675   7.985490042928605   1.666392595722030 
 -2.529736408054196  10.162149694795529   1.664795352216885 
 -3.776719829664854  12.333626731084374   1.664753433974850 
 -2.523324388988454  14.519035772657992   1.663782073422045 
  5.001570898901865   1.523914338316992   1.664869364561190 
  3.729592978990513   3.644043958981617   1.664893724659470 
  2.462841144255743   5.873924805119629   1.662972630939870 
  1.189746930011061   8.017856777458718   1.661962737832515 
 -0.055578130428702  10.171223241219236   1.660421119449375 
 -1.282587148778538  12.341243890148467   1.663504772865015 
 -0.019832824786359  14.504510430096346   1.664595976106925 
  7.496085875316134   1.530373267458491   1.664180216340300 
  6.232230963443819   3.778571004801802   1.664845676709945 
  2.426544834783613  10.136691836597072   1.659911387633820 
  1.221982760090697  12.317539659744897   1.662452486913480 
  2.501305496089579  14.447395268996269   1.667045484315750 
 10.027043252321169   1.449139766823528   1.663735265950875 
  8.808807992375762   3.622437420014615   1.663671859956900 
  7.707015224941762   5.793991015105401   1.662595322727570 
  6.351631022616877   7.660560895140033   1.664484779308995 
  4.965249543209346   9.988201763642252   1.664963797090440 
  3.742738952560812  12.247403028397468   1.666579159491300 
  5.000159040243263  14.419500078800089   1.669104937417035 
 12.528683841866929   1.426175044933093   1.665312071262900 
 11.303076815845849   3.604869069484486   1.663215431488110 
 10.115677861175900   5.786092334457014   1.664770499854485 
  8.873742827169227   7.959057611847776   1.664409040972455 
  7.459820933976197   9.997595535676135   1.667876823916500 
  6.227109952871590  12.210691238512894   1.669975616154240 
  8.736917681728597  13.695816002472229   1.665879588328905 
 16.265113297532924   0.695290049955092   1.665173749833855 
 15.028631167317698   2.875778845208947   1.664944100369910 
 13.799067386808003   5.056012189866728   1.668631355451990 
 12.559600893270105   7.238721960031744   1.667958688767690 
 11.277779326638889   9.414793325838961   1.667196259464330 
 10.002118984845108  11.565833444665223   1.665805881681435 
 -6.274550768763946  13.756191969544606   1.660877051076720 
  1.232095382798818   0.719995445859995   1.664095721997435 
 -0.011265175412318   2.895560939253094   1.668601433253900 
 -1.258674105201796   5.066196437026070   1.672304183881665 
 -2.502094383413734   7.245885044593733   1.670237165609940 
 -3.764112178818911   9.426405522539497   1.665921796769130 
 -5.020816114638333  11.598017389102960   1.666966212479730 
 -3.771884408512284  13.784674696227414   1.661927384474865 
  3.748845836716299   0.774780996804744   1.663212410539380 
  2.473286382019649   2.908836775484950   1.668273186275670 
  1.218460260937999   5.102276721063444   1.668983483337255 
 -0.029807622357881   7.257493362580665   1.665416268600840 
 -1.287546658844396   9.433656761208642   1.662812099363415 
 -2.527851862375748  11.610769948803840   1.663409837981610 
 -1.275961611332473  13.788673899884627   1.664283805190385 
  6.247309145195103   0.794894052176596   1.664199335810130 
  5.009203235175157   2.988454231589915   1.665758596794075 
  3.572406028384913   5.036443175015280   1.655403009494805 
  2.422919006111085   7.315152233039948   1.661133226517385 
  1.177887705752056   9.446225571451343   1.658506969142280 
 -0.037630587811804  11.612165539680239   1.661019346584525 
  1.229765621192388  13.760225627007809   1.664596108212825 
  8.746146139853169   0.775509468756484   1.663369851832470 
  7.497736386048184   2.997354137474740   1.664203440547635 
  6.405637271059311   5.258373699274382   1.662859754766705 
  3.648038895142449   9.396173823076536   1.659901765614600 
  2.469084914187534  11.573005448570827   1.661758095866430 
  3.747907096085480  13.699240707053173   1.668389361245160 
 11.274037323927976   0.712270115186330   1.666783980139590 
 10.046022062811812   2.887552984752940   1.661885097728520 
  8.893302059497763   5.046658454551948   1.663666520287785 
  7.684420968647249   7.206205668483062   1.661789715191340 
  6.188267582882777   9.171504582687664   1.666641933752355 
  4.977255296767459  11.465794458946515   1.667999917101915 
  6.240837260601404  13.672552144692318   1.670050367519880 
 13.773031305858673   0.691466973191808   1.666641652911225 
 12.542071991038545   2.874409514942650   1.662490198799115 
 11.336824027305543   5.051958998573033   1.665166479825990 
 10.103873645435669   7.230374842049765   1.664981598422940 
  8.774234606960757   9.383529184084452   1.666023284664600 
  7.468794961470993  11.469120634791947   1.669490786067525 
  3.678040745045075   7.976522503862737   1.674586677937320 
  5.537580786931876   6.440203203227698   1.664469823790850 
