 Sn B N 
 1.0
 17.527899999999772   0.000000000000000   0.000000000000000
 -8.763949999999658  15.179606674993195   0.000000000000000
  0.000000000000001   0.000000000000002  15.000000000000000
 Sn B N 
   1  48  49
Cartesian
  3.764184292660005   7.946501722383952   3.005880627314760 
  7.520528421987995  14.464583133753681   1.578128325827175 
 15.023739694625510   1.445795302466809   1.595204715969885 
 13.769015231999257   3.612219899717842   1.609764539751990 
 12.520342655010799   5.782311831063867   1.604549169898095 
 11.280227193544672   7.954657108634089   1.589652357675225 
 10.025182188079992  10.126048663310506   1.602693454054965 
  8.773570313253524  12.292618089490354   1.598514591639060 
 -7.508544208645153  14.454815243414370   1.605609502023420 
 -0.002467249776487   1.434372560880012   1.578128318732160 
 -1.261805274462140   3.603239116886784   1.565468007763440 
 -2.518901395094371   5.780107796186196   1.572523530019170 
 -3.766834103203940   7.955136732414827   1.592112268116060 
 -5.007452667485536  10.124402522174824   1.613944802591340 
 -6.256586462049022  12.290722261898498   1.625053186978980 
 -5.008405723902056  14.452635124210863   1.625053164089010 
  2.505030417609642   1.435188855315172   1.598514529779135 
  1.235736928349624   3.577461585893424   1.567448019701670 
 -0.031211445082723   5.765689015745509   1.596968056250160 
 -1.292261957744387   7.956680833018958   1.590129587137290 
 -2.512190242123317  10.126373461974055   1.618865097876165 
 -3.759737348251195  12.290440301734247   1.631230395914205 
 -2.507750800417420  14.454012799319141   1.613944838801310 
  5.007140505500525   1.434546302195497   1.602693388399950 
  3.755694431595064   3.597661130404439   1.680372471243120 
  2.431708740098659   5.684847725770283   1.930927368044760 
  1.131512022642702   7.936861155735262   1.955581449852330 
 -0.013231159027476  10.127394028181534   1.714258876561785 
 -1.261827083210440  12.292065238020884   1.618865150871210 
 -0.008801830731611  14.464236331897345   1.592112347781075 
  7.515143013402906   1.433342478111475   1.589652488070225 
  6.277012419016186   3.575815873969060   1.573474629931890 
  5.076415819370109   5.686342460924154   1.902653418629160 
  2.456197623872690  10.231286134520015   1.955581457562420 
  1.227146578745041  12.320423551263659   1.590129673192290 
  2.498794832724318  14.471010943467682   1.572523561624185 
 10.016506879638635   1.445541568413264   1.604549186188095 
  8.774829030638356   3.602365080507063   1.576926383640480 
  7.543131927386867   5.764726084259361   1.587621829794675 
  6.377653773371012   7.940155692269960   1.902653339759085 
  5.056595627807393  10.231287433908980   1.930927363739730 
  3.755126166476909  12.323818930292656   1.596967991030115 
  5.012566189586448  14.470768640607236   1.565468041153380 
 12.520198448857141   1.449205198254810   1.609764575796960 
 11.271925261883128   3.611905955069608   1.615062959296515 
 10.031641399948947   5.779225927094001   1.576926257535480 
  8.805724787324277   7.955672067618909   1.573474510471920 
  7.526145629219186  10.128274833190041   1.680372600663105 
  6.283660101365200  12.320722368259137   1.567448056811610 
  8.767592904646964  13.734893611602818   1.593618633414585 
 16.276055709904526   0.722770016597246   1.590761040565950 
 15.019450459418946   2.888361363680528   1.597023743897610 
 13.765550282661582   5.059868891664398   1.601823233741835 
 12.520415172224020   7.228181336657910   1.601657553694680 
 11.271177319601538   9.399572329190564   1.601389054674540 
 10.020144880442389  11.567933143964728   1.614239604361065 
 -6.258864781042405  13.733312784001891   1.626475980630345 
  1.252994495536663   0.719227774662730   1.593618730869540 
 -0.011223118461284   2.874942101782993   1.552216759323600 
 -1.268607318152044   5.050916771777311   1.557536195922330 
 -2.523874315822852   7.227344667278291   1.567422975040665 
 -3.758352493942649   9.399950252272422   1.607653688886555 
 -5.008210392125194  11.567357119412950   1.630447760479080 
 -3.757765298532153  13.733191510998637   1.630447773859110 
  3.755913277503057   0.717966939124606   1.614239493016110 
  2.503740879292481   2.884214357253934   1.604291762708085 
  1.219073275731449   5.017583800795608   1.610503320898875 
 -0.053226601160817   7.222475809624135   1.629788870130345 
 -1.257744623846904   9.400768463957162   1.633463363412225 
 -2.508476033659392  11.568023634243044   1.629572764449210 
 -1.255806917103303  13.734484963734639   1.607653751136600 
  6.259285166998300   0.718721199341034   1.601389170894540 
  5.008256240081381   2.883907005679511   1.608170416806840 
  3.754830404184204   5.052692203950421   1.883529535586085 
  2.230821786428407   7.066246628390215   2.308927882960500 
  1.247030275949428   9.399782712695218   1.926967812139965 
 -0.006211103756683  11.568487148506659   1.633463432727240 
  1.242965137617194  13.751697834121115   1.567423181710650 
  8.764383429199228   0.722543626453356   1.601657560369770 
  7.524112293742394   2.874007952718669   1.565838097319655 
  6.292609864981035   5.015980134490370   1.604297361510150 
  5.264865082390204   7.080082668190357   2.228569314332865 
  3.759826145186667   9.714560556643255   2.308927906630500 
  2.482504146762627  11.614492537272902   1.629788827890330 
  3.755440175065869  13.752820980003568   1.557536162727330 
 11.264735643575271   0.728381098152979   1.601823211721910 
 10.017813062742976   2.888114361259499   1.606966944003360 
  8.780851218412996   5.050129290945528   1.564309549482990 
  7.566302840857321   7.222082656926418   1.604297055525150 
  6.265619126824543   9.401507778618523   1.883529575111025 
  5.028145407836853  11.615093026410239   1.610503213933800 
  6.268580532553588  13.751881163340444   1.552216764963690 
 13.772296175705154   0.728226287470140   1.597023889202610 
 12.520439972905917   2.891075139647796   1.624759387978230 
 11.271706590869270   5.059868891664398   1.606966854903435 
 10.037060028213720   7.226556943186905   1.565837789654610 
  8.770556628735395   9.400401906344683   1.608170647101870 
  7.518031842610920  11.569221971021769   1.604291932148025 
