 B N C 
 1.0
 14.936314146199660   0.000000000000000   0.000000000000000
 -7.468157073099825  12.935227489513863   0.000000000000000
  0.000000000000001   0.000000000000001  13.341276283792837
 B N C 
 143 143   1
Cartesian
  1.254464110224743   0.725556547020545   5.002978606422314 
  4.929097417486397   7.246818842694927   5.002978606422314 
  6.229426687774322   0.709066129912568   5.002978606422314 
  9.950669565175598   7.180490464434031   5.002978606422314 
 11.213101456525825   0.724897149036339   5.002978606422314 
 -3.734446943059250   9.341896042829305  11.673616748318732 
  1.244258559180111   9.341569113613543  11.673616748318732 
  2.489086982225174   2.874488302937984  11.673616748318732 
  6.223051967293201   9.341837398594274  11.673616748318732 
  7.467449316507561   2.874305851215819  11.673616748318732 
 12.446877657201112   2.874458800277489  11.673616748318732 
 -1.249948786565720   9.340769934095205   5.002978606422314 
  0.012271418575858   2.881579904487759   5.002978606422314 
  4.982871398396824   2.872047933075352   5.002978606422314 
  3.721898128242616   9.382178729482012   5.002978606422314 
  8.704436245386251   9.339029892394427   5.002978606422314 
  9.974894416034353   2.870596109524425   5.002978606422314 
 -4.979072821854018  11.497913185147979  11.673616748318732 
 -0.000516910984905  11.497681551982609  11.673616748318732 
  1.244537693304849   5.030110903871720  11.673616748318732 
  6.222604173972726   5.029998329021632  11.673616748318732 
  4.978481528594471  11.497788303804118  11.673616748318732 
 11.202051655156790   5.030193350751683  11.673616748318732 
 -1.233803234318965   5.035362010584770   5.002978606422314 
 -2.493173103583637  11.494097616375369   5.002978606422314 
  2.489993906186190  11.511473629315613   5.002978606422314 
  7.471332470640631  11.504018396894429   5.002978606422314 
  8.722548701688730   5.019904008009554   5.002978606422314 
 -0.000257150716240   7.185780293519672  11.673616748318732 
  1.244520310658975   0.718698602339544  11.673616748318732 
  4.978022729879112   7.185676624349232  11.673616748318732 
  6.222779752154167   0.718517460823998  11.673616748318732 
  9.957235415925560   7.186010905601778  11.673616748318732 
 -2.493114207389351   7.186387838690569   5.002978606422314 
 11.201955322780243   0.718461925717903  11.673616748318732 
  3.733992500635519   0.715954317128858   5.002978606422314 
  2.489316479094947   7.191011744769548   5.002978606422314 
  7.450526969469782   7.176058749097733   5.002978606422314 
  8.724839860041765   0.712403659872441   5.002978606422314 
  2.488888954409583   7.185444355502662  11.673616748318732 
 13.703113167572084   0.727158313248019   5.002978606422314 
 -1.245042184082628   9.341758329582520  11.673616748318732 
  0.000004325249839   2.874497494853869  11.673616748318732 
  4.977836135516272   2.874461380470512  11.673616748318732 
  3.733560852619730   9.341590380464897  11.673616748318732 
  8.712500013052605   9.341955865357466  11.673616748318732 
  9.957231831693942   2.874339820636822  11.673616748318732 
 -3.741653642960207   9.337735252701517   5.002978606422314 
  1.239396934321265   9.352051194173722   5.002978606422314 
  2.507615516090939   2.899170735585794   5.002978606422314 
  6.219253055306706   9.355739253909221   5.002978606422314 
  7.496768495665436   2.843911461119446   5.002978606422314 
 12.460065537698400   2.880179964417328   5.002978606422314 
 -1.244714288413337   5.030179399891161  11.673616748318732 
 -2.489863826741084  11.497852661028331  11.673616748318732 
  2.488976046083613  11.497625037000409  11.673616748318732 
  3.733002229359730   5.029744839676036  11.673616748318732 
  7.467915364243652  11.497907129000081  11.673616748318732 
 -4.980505438074207  11.494675828538046   5.002978606422314 
  8.712408797819489   5.030144889954085  11.673616748318732 
 -0.000650054344447  11.497604681628255   5.002978606422314 
  1.275177573937986   5.033815868570356   5.002978606422314 
 -0.002354814132852   7.187497701031267   5.002978606422314 
  6.251092232107476   4.957056656428604   5.002978606422314 
  4.984070671836856  11.514956406095687   5.002978606422314 
 11.209052721601058   5.030097017751832   5.002978606422314 
 -2.489594266213946   7.186009842426158  11.673616748318732 
  3.733554013810120   0.718629650692056  11.673616748318732 
  7.467618404322390   7.185926493610721  11.673616748318732 
  8.712337697238848   0.718446463323726  11.673616748318732 
 13.691564553839179   0.718597855785111  11.673616748318732 
  0.000252034760461   1.437793068797321   1.667869838256306 
  3.732043559889370   7.903990472007821   1.670222644255255 
  4.977969464104180   1.437975311189746   1.669215539652881 
  8.712429742429471   7.904618654757200   1.667942937268844 
  9.957263294381171   1.436870126256141   1.667380835272416 
 -4.978855285152178  10.061008772114729   8.338430198262504 
 -0.000073268526320  10.060418584904857   8.338306546856707 
  1.245573216462753   3.593627029489873   8.334799078656312 
  4.977802184902454  10.060583173269674   8.338691207505921 
  6.221692628940230   3.591791791395148   8.335734568589373 
 11.202358275547336   3.592830090468398   8.338524144420083 
 -2.489313088817189  10.060774408753138   1.667311191694302 
 -1.244094350689406   3.593064230611190   1.667869838256306 
  3.732937805083592   3.594366598303219   1.677240149675335 
  2.488756980311314  10.060508243277251   1.667556902979090 
  7.467588410568164  10.060868704378640   1.667627164405558 
  8.712236006355674   3.592354057009051   1.667266005338801 
 -6.223576594421304  12.217351635145475   8.338582899602397 
 -1.245001331163630  12.216697241160983   8.338306546856707 
  0.001317886613563   5.748080190483673   8.335977154763947 
  4.974919175964714   5.746765923109586   8.335731462482180 
  3.733611987434065  12.216550398481049   8.338576377572211 
  9.957376396382466   5.748429412873660   8.338330048439085 
 -2.488794178340408   5.748518735278472   1.667374313242217 
 -3.734294475549237  12.217386407902650   1.667698993338680 
  1.244373468743649  12.216419347830614   1.667424579850691 
  2.489895996153267   5.747378167302882   1.677240149675335 
  6.223275576567132  12.216854300189347   1.667433068424531 
  7.466907606139079   5.747857526351746   1.669844801305298 
 -1.244123004813396   7.904282901029631   8.338258219505947 
  0.000252034760461   1.437793068797322   8.338087374588321 
  3.732043559889370   7.903990472007822   8.335734568589373 
  4.977969464104181   1.437975311189747   8.336741673191760 
  8.712429742429471   7.904618654757201   8.338014275575784 
 -3.733881222359833   7.904650441252921   1.667527014582123 
  9.957263294381171   1.436870126256142   8.338576377572211 
  2.489256720222416   1.438843724549458   1.669980058080680 
  1.244922190523890   7.903802856087328   1.669215539652881 
  6.221858747190417   7.904345407956501   1.669844801305298 
  7.467648512783168   1.436815143661472   1.667556902979090 
  1.244922190523890   7.903802856087329   8.336741673191760 
 12.446985233474889   1.437280279806717   1.667225233725677 
 -2.489313088817188  10.060774408753138   8.338646021150325 
 -1.244094350689405   3.593064230611191   8.338087374588321 
  3.732937805083592   3.594366598303220   8.328717063169305 
  2.488756980311315  10.060508243277251   8.338400309865523 
  7.467588410568164  10.060868704378640   8.338330048439085 
  8.712236006355674   3.592354057009052   8.338691207505921 
 -4.978855285152179  10.061008772114729   1.667527014582123 
 -0.000073268526321  10.060418584904857   1.667650665987935 
  1.245573216462753   3.593627029489872   1.671158134188314 
  4.977802184902453  10.060583173269674   1.667266005338801 
  6.221692628940229   3.591791791395147   1.670222644255255 
 11.202358275547336   3.592830090468397   1.667433068424531 
 -2.488794178340407   5.748518735278473   8.338582899602397 
 -3.734294475549237  12.217386407902650   8.338258219505947 
  1.244373468743649  12.216419347830614   8.338532632993937 
  2.489895996153267   5.747378167302883   8.328717063169305 
  6.223275576567133  12.216854300189347   8.338524144420083 
 -6.223576594421305  12.217351635145475   1.667374313242217 
  7.466907606139080   5.747857526351747   8.336112411539343 
 -1.245001331163630  12.216697241160983   1.667650665987935 
  0.001317886613563   5.748080190483672   1.669980058080680 
 -1.244123004813396   7.904282901029630   1.667698993338680 
  4.974919175964713   5.746765923109585   1.670225750362448 
  3.733611987434064  12.216550398481049   1.667380835272416 
  9.957376396382466   5.748429412873659   1.667627164405558 
 -3.733881222359832   7.904650441252922   8.338430198262504 
  2.489256720222417   1.438843724549459   8.335977154763947 
  6.221858747190418   7.904345407956502   8.336112411539343 
  7.467648512783168   1.436815143661473   8.338400309865523 
 12.446985233474889   1.437280279806717   8.338731979118950 
  1.244377994767647   0.718453803732114   1.667674973392873 
  4.977966460075565   7.185879897318351   1.673637062472421 
  6.223299309795782   0.718496835231981   1.668172752412121 
  9.956910146921739   7.185969039395912   1.668849049247717 
 11.201961301105968   0.718465377305860   1.668029797472269 
 -3.734452977586682   9.341892558793274   8.337831463185230 
  1.244500475714212   9.342029376526009   8.337784460432507 
  2.488949194034467   2.874288478881558   8.336915199091754 
  6.222904421030817   9.341771522585253   8.336647099009371 
  7.467906797153073   2.874035828252489   8.337339285523388 
 12.446566443344009   2.874341543073399   8.338217690833810 
 -1.244905726346860   9.341983479888995   1.667807237420539 
 -0.000356412941936   2.874289222561740   1.667920396608688 
  4.978732539480083   2.874348359317445   1.669600597533726 
  3.733555746196585   9.342121581807403   1.668617927321238 
  8.712301121352851   9.341695107240035   1.668849049247717 
  9.957170467546952   2.874310521414755   1.668339615104584 
 -4.979072057963430  11.497752987828491   8.338163120616738 
 -0.000216200546715  11.497855167235045   8.337718185025462 
  1.244295746500336   5.030091487826452   8.336915199091754 
  6.222752078626167   5.029847961457644   8.332320150372206 
  4.978425472650296  11.497749810505075   8.337617597740032 
 11.201853400055146   5.030195212187381   8.338001851535218 
 -1.244997448171853   5.030178550017636   1.667674973392873 
 -2.489600611988130  11.497858261740822   1.667807237420539 
  2.489094902008406  11.497998793655441   1.667858615170282 
  3.733665970751375   5.030128050947105   1.660499794942522 
  7.467817848743438  11.497734504327765   1.667955361309410 
  8.712277974390977   5.030050049147150   1.669310113835258 
 -0.000170160385807   7.186119429480883   8.337935063667379 
  1.244377994767648   0.718453803732115   8.338282239451756 
  4.977966460075566   7.185879897318352   8.332320150372206 
  6.223299309795783   0.718496835231981   8.337784460432507 
  9.956910146921739   7.185969039395913   8.337108163596898 
 -2.489732619216998   7.186090602634645   1.667794092227890 
 11.201961301105968   0.718465377305861   8.337927415372359 
  3.733891209333185   0.718535418547308   1.668022149177250 
  2.489239277201769   7.186277174683908   1.669600597533726 
  7.467167952938595   7.185666425383083   1.671854422204151 
  8.712720807959350   0.718362517246448   1.667858615170282 
  2.489239277201769   7.186277174683909   8.336356615310901 
 13.691307399193049   0.718386965280998   1.667739522010818 
 -1.244905726346860   9.341983479888995   8.338149975424077 
 -0.000356412941935   2.874289222561741   8.338036816235940 
  4.978732539480084   2.874348359317446   8.336356615310901 
  3.733555746196586   9.342121581807403   8.337339285523388 
  8.712301121352851   9.341695107240035   8.337108163596898 
  9.957170467546952   2.874310521414756   8.337617597740032 
 -3.734452977586683   9.341892558793274   1.668125749659385 
  1.244500475714212   9.342029376526009   1.668172752412121 
  2.488949194034467   2.874288478881557   1.669042013752873 
  6.222904421030816   9.341771522585253   1.669310113835258 
  7.467906797153072   2.874035828252488   1.668617927321238 
 12.446566443344009   2.874341543073398   1.667739522010818 
 -1.244997448171852   5.030178550017637   8.338282239451756 
 -2.489600611988129  11.497858261740822   8.338149975424077 
  2.489094902008407  11.497998793655441   8.338098597674346 
  3.733665970751376   5.030128050947106   8.345457417902105 
  7.467817848743439  11.497734504327765   8.338001851535218 
 -4.979072057963431  11.497752987828491   1.667794092227890 
  8.712277974390977   5.030050049147150   8.336647099009371 
 -0.000216200546715  11.497855167235045   1.668239027819179 
  1.244295746500335   5.030091487826451   1.669042013752873 
 -0.000170160385807   7.186119429480882   1.668022149177250 
  6.222752078626166   5.029847961457643   1.673637062472421 
  4.978425472650295  11.497749810505075   1.668339615104584 
 11.201853400055146   5.030195212187380   1.667955361309410 
 -2.489732619216997   7.186090602634646   8.338163120616738 
  3.733891209333185   0.718535418547308   8.337935063667379 
  7.467167952938596   7.185666425383084   8.334102790640477 
  8.712720807959350   0.718362517246448   8.338098597674346 
 13.691307399193049   0.718386965280999   8.338217690833810 
  0.008208707915344   1.442222198812426   5.002978606422314 
  3.715737083715605   7.959530095177466   5.002978606422314 
  4.986444901387772   1.423657275837488   5.002978606422314 
  8.695409301380661   7.894791898535900   5.002978606422314 
  9.967996275475372   1.436700100270188   5.002978606422314 
 -4.979203682210409  10.060463580008451  11.673616748318732 
 -0.000410693524905  10.060506403502719  11.673616748318732 
  1.244300730440290   3.592892359342316  11.673616748318732 
  4.978405480003553  10.060517280032162  11.673616748318732 
  6.223039667997742   3.592895006574068  11.673616748318732 
 11.201892916050033   3.592962662086176  11.673616748318732 
 -2.496712943412289  10.056502100710684   5.002978606422314 
 -1.236280275002167   3.597740346685287   5.002978606422314 
  3.755573886684048   3.539831087384475   5.002978606422314 
  2.479391343358818  10.083703095171046   5.002978606422314 
  7.465784352950479  10.064827540554974   5.002978606422314 
  8.728139138737584   3.583947118295384   5.002978606422314 
 -6.223810924519533  12.216334894579392  11.673616748318732 
 -1.245093990526311  12.216361113241511  11.673616748318732 
 -0.000435406965255   5.748804031270703  11.673616748318732 
  4.978480936398552   5.748822306454842  11.673616748318732 
  3.733708674869622  12.216376981543410  11.673616748318732 
  9.957183456036198   5.748808342590445  11.673616748318732 
 -2.486423398418902   5.750791555015796   5.002978606422314 
 -3.736030300191527  12.210267233724817   5.002978606422314 
  1.245860322204255  12.217277783076254   5.002978606422314 
  2.453984899089551   5.794249344470297   5.002978606422314 
  6.229491080005274  12.225006356667272   5.002978606422314 
  7.466989187482924   5.729861993160076   5.002978606422314 
 -1.245137033506007   7.904657033551498  11.673616748318732 
 -0.000345485614027   1.437004049468092  11.673616748318732 
  3.733672491788965   7.904605434461964  11.673616748318732 
  4.978360634532070   1.437018120117020  11.673616748318732 
  8.712440666767822   7.904624961926898  11.673616748318732 
 -3.743730863255414   7.901076862478692   5.002978606422314 
  9.957161454625506   1.437040568500380  11.673616748318732 
  2.496747333475642   1.438039109943972   5.002978606422314 
  1.236760126818295   7.918301817759320   5.002978606422314 
  6.206314948963646   7.913413826068685   5.002978606422314 
  7.483053025283956   1.417106838191103   5.002978606422314 
  1.244288823952578   7.904620215151454  11.673616748318732 
 12.456841762452916   1.442970949465336   5.002978606422314 
 -2.489819375192725  10.060482104177998  11.673616748318732 
 -1.245076421659788   3.592941272452131  11.673616748318732 
  3.733657980909856   3.592831836363618  11.673616748318732 
  2.488969395400856  10.060504074252954  11.673616748318732 
  7.467820103156015  10.060512148278967  11.673616748318732 
  8.712480588688607   3.592909472511326  11.673616748318732 
 -4.986874915600880  10.054265522268116   5.002978606422314 
 -0.006505729238149  10.063149293282880   5.002978606422314 
  1.250135416204562   3.596261016738963   5.002978606422314 
  4.978473128599322  10.078559159268973   5.002978606422314 
  6.261638115434918   3.549900157197558   5.002978606422314 
 11.212525915269376   3.594136846104176   5.002978606422314 
 -2.489791866548862   5.748824169743666  11.673616748318732 
 -3.734477481627223  12.216321167033751  11.673616748318732 
  1.244280753614889  12.216365818725963  11.673616748318732 
  2.488926941238062   5.748769238833213  11.673616748318732 
  6.223157707207298  12.216385001233901  11.673616748318732 
 -6.220422884829911  12.218268380915800   5.002978606422314 
  7.467702910152467   5.748769005568944  11.673616748318732 
 -1.245852698693858  12.209761212586695   5.002978606422314 
  0.004366376551569   5.754969559153635   5.002978606422314 
 -1.251156302826526   7.906339219881835   5.002978606422314 
  3.738831231158019  12.225930445759955   5.002978606422314 
  9.959902820271749   5.744887635058689   5.002978606422314 
 -3.734527571102920   7.904621316603019  11.673616748318732 
  2.489006937942871   1.436963407376395  11.673616748318732 
  6.223045763354212   7.904578421827252  11.673616748318732 
  7.467751109846980   1.437001185037325  11.673616748318732 
 12.446600874056585   1.437058369792992  11.673616748318732 
  4.920125214375410   5.715130614636097   5.002978606422314 
Generated by cif2cell 2.0.0.  :  Failed to get author information, No journal information. Species order: B N C 
 1.0
 14.936314146199660   0.000000000000000   0.000000000000000
 -7.468157073099825  12.935227489513863   0.000000000000000
  0.000000000000001   0.000000000000001  13.341276283792837
 B N C 
 143 143   1
Cartesian
  1.254464110224743   0.725556547020545   5.002978606422314 
  4.929097417486397   7.246818842694927   5.002978606422314 
  6.229426687774322   0.709066129912568   5.002978606422314 
  9.950669565175598   7.180490464434031   5.002978606422314 
 11.213101456525825   0.724897149036339   5.002978606422314 
 -3.734446943059250   9.341896042829305  11.673616748318732 
  1.244258559180111   9.341569113613543  11.673616748318732 
  2.489086982225174   2.874488302937984  11.673616748318732 
  6.223051967293201   9.341837398594274  11.673616748318732 
  7.467449316507561   2.874305851215819  11.673616748318732 
 12.446877657201112   2.874458800277489  11.673616748318732 
 -1.249948786565720   9.340769934095205   5.002978606422314 
  0.012271418575858   2.881579904487759   5.002978606422314 
  4.982871398396824   2.872047933075352   5.002978606422314 
  3.721898128242616   9.382178729482012   5.002978606422314 
  8.704436245386251   9.339029892394427   5.002978606422314 
  9.974894416034353   2.870596109524425   5.002978606422314 
 -4.979072821854018  11.497913185147979  11.673616748318732 
 -0.000516910984905  11.497681551982609  11.673616748318732 
  1.244537693304849   5.030110903871720  11.673616748318732 
  6.222604173972726   5.029998329021632  11.673616748318732 
  4.978481528594471  11.497788303804118  11.673616748318732 
 11.202051655156790   5.030193350751683  11.673616748318732 
 -1.233803234318965   5.035362010584770   5.002978606422314 
 -2.493173103583637  11.494097616375369   5.002978606422314 
  2.489993906186190  11.511473629315613   5.002978606422314 
  7.471332470640631  11.504018396894429   5.002978606422314 
  8.722548701688730   5.019904008009554   5.002978606422314 
 -0.000257150716240   7.185780293519672  11.673616748318732 
  1.244520310658975   0.718698602339544  11.673616748318732 
  4.978022729879112   7.185676624349232  11.673616748318732 
  6.222779752154167   0.718517460823998  11.673616748318732 
  9.957235415925560   7.186010905601778  11.673616748318732 
 -2.493114207389351   7.186387838690569   5.002978606422314 
 11.201955322780243   0.718461925717903  11.673616748318732 
  3.733992500635519   0.715954317128858   5.002978606422314 
  2.489316479094947   7.191011744769548   5.002978606422314 
  7.450526969469782   7.176058749097733   5.002978606422314 
  8.724839860041765   0.712403659872441   5.002978606422314 
  2.488888954409583   7.185444355502662  11.673616748318732 
 13.703113167572084   0.727158313248019   5.002978606422314 
 -1.245042184082628   9.341758329582520  11.673616748318732 
  0.000004325249839   2.874497494853869  11.673616748318732 
  4.977836135516272   2.874461380470512  11.673616748318732 
  3.733560852619730   9.341590380464897  11.673616748318732 
  8.712500013052605   9.341955865357466  11.673616748318732 
  9.957231831693942   2.874339820636822  11.673616748318732 
 -3.741653642960207   9.337735252701517   5.002978606422314 
  1.239396934321265   9.352051194173722   5.002978606422314 
  2.507615516090939   2.899170735585794   5.002978606422314 
  6.219253055306706   9.355739253909221   5.002978606422314 
  7.496768495665436   2.843911461119446   5.002978606422314 
 12.460065537698400   2.880179964417328   5.002978606422314 
 -1.244714288413337   5.030179399891161  11.673616748318732 
 -2.489863826741084  11.497852661028331  11.673616748318732 
  2.488976046083613  11.497625037000409  11.673616748318732 
  3.733002229359730   5.029744839676036  11.673616748318732 
  7.467915364243652  11.497907129000081  11.673616748318732 
 -4.980505438074207  11.494675828538046   5.002978606422314 
  8.712408797819489   5.030144889954085  11.673616748318732 
 -0.000650054344447  11.497604681628255   5.002978606422314 
  1.275177573937986   5.033815868570356   5.002978606422314 
 -0.002354814132852   7.187497701031267   5.002978606422314 
  6.251092232107476   4.957056656428604   5.002978606422314 
  4.984070671836856  11.514956406095687   5.002978606422314 
 11.209052721601058   5.030097017751832   5.002978606422314 
 -2.489594266213946   7.186009842426158  11.673616748318732 
  3.733554013810120   0.718629650692056  11.673616748318732 
  7.467618404322390   7.185926493610721  11.673616748318732 
  8.712337697238848   0.718446463323726  11.673616748318732 
 13.691564553839179   0.718597855785111  11.673616748318732 
  0.000252034760461   1.437793068797321   1.667869838256306 
  3.732043559889370   7.903990472007821   1.670222644255255 
  4.977969464104180   1.437975311189746   1.669215539652881 
  8.712429742429471   7.904618654757200   1.667942937268844 
  9.957263294381171   1.436870126256141   1.667380835272416 
 -4.978855285152178  10.061008772114729   8.338430198262504 
 -0.000073268526320  10.060418584904857   8.338306546856707 
  1.245573216462753   3.593627029489873   8.334799078656312 
  4.977802184902454  10.060583173269674   8.338691207505921 
  6.221692628940230   3.591791791395148   8.335734568589373 
 11.202358275547336   3.592830090468398   8.338524144420083 
 -2.489313088817189  10.060774408753138   1.667311191694302 
 -1.244094350689406   3.593064230611190   1.667869838256306 
  3.732937805083592   3.594366598303219   1.677240149675335 
  2.488756980311314  10.060508243277251   1.667556902979090 
  7.467588410568164  10.060868704378640   1.667627164405558 
  8.712236006355674   3.592354057009051   1.667266005338801 
 -6.223576594421304  12.217351635145475   8.338582899602397 
 -1.245001331163630  12.216697241160983   8.338306546856707 
  0.001317886613563   5.748080190483673   8.335977154763947 
  4.974919175964714   5.746765923109586   8.335731462482180 
  3.733611987434065  12.216550398481049   8.338576377572211 
  9.957376396382466   5.748429412873660   8.338330048439085 
 -2.488794178340408   5.748518735278472   1.667374313242217 
 -3.734294475549237  12.217386407902650   1.667698993338680 
  1.244373468743649  12.216419347830614   1.667424579850691 
  2.489895996153267   5.747378167302882   1.677240149675335 
  6.223275576567132  12.216854300189347   1.667433068424531 
  7.466907606139079   5.747857526351746   1.669844801305298 
 -1.244123004813396   7.904282901029631   8.338258219505947 
  0.000252034760461   1.437793068797322   8.338087374588321 
  3.732043559889370   7.903990472007822   8.335734568589373 
  4.977969464104181   1.437975311189747   8.336741673191760 
  8.712429742429471   7.904618654757201   8.338014275575784 
 -3.733881222359833   7.904650441252921   1.667527014582123 
  9.957263294381171   1.436870126256142   8.338576377572211 
  2.489256720222416   1.438843724549458   1.669980058080680 
  1.244922190523890   7.903802856087328   1.669215539652881 
  6.221858747190417   7.904345407956501   1.669844801305298 
  7.467648512783168   1.436815143661472   1.667556902979090 
  1.244922190523890   7.903802856087329   8.336741673191760 
 12.446985233474889   1.437280279806717   1.667225233725677 
 -2.489313088817188  10.060774408753138   8.338646021150325 
 -1.244094350689405   3.593064230611191   8.338087374588321 
  3.732937805083592   3.594366598303220   8.328717063169305 
  2.488756980311315  10.060508243277251   8.338400309865523 
  7.467588410568164  10.060868704378640   8.338330048439085 
  8.712236006355674   3.592354057009052   8.338691207505921 
 -4.978855285152179  10.061008772114729   1.667527014582123 
 -0.000073268526321  10.060418584904857   1.667650665987935 
  1.245573216462753   3.593627029489872   1.671158134188314 
  4.977802184902453  10.060583173269674   1.667266005338801 
  6.221692628940229   3.591791791395147   1.670222644255255 
 11.202358275547336   3.592830090468397   1.667433068424531 
 -2.488794178340407   5.748518735278473   8.338582899602397 
 -3.734294475549237  12.217386407902650   8.338258219505947 
  1.244373468743649  12.216419347830614   8.338532632993937 
  2.489895996153267   5.747378167302883   8.328717063169305 
  6.223275576567133  12.216854300189347   8.338524144420083 
 -6.223576594421305  12.217351635145475   1.667374313242217 
  7.466907606139080   5.747857526351747   8.336112411539343 
 -1.245001331163630  12.216697241160983   1.667650665987935 
  0.001317886613563   5.748080190483672   1.669980058080680 
 -1.244123004813396   7.904282901029630   1.667698993338680 
  4.974919175964713   5.746765923109585   1.670225750362448 
  3.733611987434064  12.216550398481049   1.667380835272416 
  9.957376396382466   5.748429412873659   1.667627164405558 
 -3.733881222359832   7.904650441252922   8.338430198262504 
  2.489256720222417   1.438843724549459   8.335977154763947 
  6.221858747190418   7.904345407956502   8.336112411539343 
  7.467648512783168   1.436815143661473   8.338400309865523 
 12.446985233474889   1.437280279806717   8.338731979118950 
  1.244377994767647   0.718453803732114   1.667674973392873 
  4.977966460075565   7.185879897318351   1.673637062472421 
  6.223299309795782   0.718496835231981   1.668172752412121 
  9.956910146921739   7.185969039395912   1.668849049247717 
 11.201961301105968   0.718465377305860   1.668029797472269 
 -3.734452977586682   9.341892558793274   8.337831463185230 
  1.244500475714212   9.342029376526009   8.337784460432507 
  2.488949194034467   2.874288478881558   8.336915199091754 
  6.222904421030817   9.341771522585253   8.336647099009371 
  7.467906797153073   2.874035828252489   8.337339285523388 
 12.446566443344009   2.874341543073399   8.338217690833810 
 -1.244905726346860   9.341983479888995   1.667807237420539 
 -0.000356412941936   2.874289222561740   1.667920396608688 
  4.978732539480083   2.874348359317445   1.669600597533726 
  3.733555746196585   9.342121581807403   1.668617927321238 
  8.712301121352851   9.341695107240035   1.668849049247717 
  9.957170467546952   2.874310521414755   1.668339615104584 
 -4.979072057963430  11.497752987828491   8.338163120616738 
 -0.000216200546715  11.497855167235045   8.337718185025462 
  1.244295746500336   5.030091487826452   8.336915199091754 
  6.222752078626167   5.029847961457644   8.332320150372206 
  4.978425472650296  11.497749810505075   8.337617597740032 
 11.201853400055146   5.030195212187381   8.338001851535218 
 -1.244997448171853   5.030178550017636   1.667674973392873 
 -2.489600611988130  11.497858261740822   1.667807237420539 
  2.489094902008406  11.497998793655441   1.667858615170282 
  3.733665970751375   5.030128050947105   1.660499794942522 
  7.467817848743438  11.497734504327765   1.667955361309410 
  8.712277974390977   5.030050049147150   1.669310113835258 
 -0.000170160385807   7.186119429480883   8.337935063667379 
  1.244377994767648   0.718453803732115   8.338282239451756 
  4.977966460075566   7.185879897318352   8.332320150372206 
  6.223299309795783   0.718496835231981   8.337784460432507 
  9.956910146921739   7.185969039395913   8.337108163596898 
 -2.489732619216998   7.186090602634645   1.667794092227890 
 11.201961301105968   0.718465377305861   8.337927415372359 
  3.733891209333185   0.718535418547308   1.668022149177250 
  2.489239277201769   7.186277174683908   1.669600597533726 
  7.467167952938595   7.185666425383083   1.671854422204151 
  8.712720807959350   0.718362517246448   1.667858615170282 
  2.489239277201769   7.186277174683909   8.336356615310901 
 13.691307399193049   0.718386965280998   1.667739522010818 
 -1.244905726346860   9.341983479888995   8.338149975424077 
 -0.000356412941935   2.874289222561741   8.338036816235940 
  4.978732539480084   2.874348359317446   8.336356615310901 
  3.733555746196586   9.342121581807403   8.337339285523388 
  8.712301121352851   9.341695107240035   8.337108163596898 
  9.957170467546952   2.874310521414756   8.337617597740032 
 -3.734452977586683   9.341892558793274   1.668125749659385 
  1.244500475714212   9.342029376526009   1.668172752412121 
  2.488949194034467   2.874288478881557   1.669042013752873 
  6.222904421030816   9.341771522585253   1.669310113835258 