 B Al N 
 1.0
 14.936314146199660   0.000000000000000   0.000000000000000
 -7.468157073099825  12.935227489513863   0.000000000000000
  0.000000000000001   0.000000000000001  13.341276283792837
 B Al N 
 143   1 143
Cartesian
  1.241664538614614   0.709372842646709   5.002978606422314 
  4.964562889637732   7.242298104759173   5.002978606422314 
  6.234918675141151   0.685510200076354   5.002978606422314 
  9.946816722433020   7.180390423730010   5.002978606422314 
 11.206543215198192   0.721110746640479   5.002978606422314 
 -3.734131108583613   9.342078389948824  11.673616748318732 
  1.244524788217615   9.342004738748992  11.673616748318732 
  2.489175531421570   2.874413665944037  11.673616748318732 
  6.223403654746898   9.342115801792181  11.673616748318732 
  7.468029156241661   2.874363592711465  11.673616748318732 
 12.446955109904211   2.874469982056208  11.673616748318732 
 -1.260136220187431   9.341727523627783   5.002978606422314 
  0.014781996093340   2.883029387093290   5.002978606422314 
  4.988824310741767   2.793960688349670   5.002978606422314 
  3.722338755170694   9.366532457610580   5.002978606422314 
  8.702423186223882   9.335743253054551   5.002978606422314 
  9.963501414750574   2.870243858533010   5.002978606422314 
 -4.978870650259404  11.498020856877243  11.673616748318732 
 -0.000140177395343  11.497899059222075  11.673616748318732 
  1.244517330370219   5.030224908222269  11.673616748318732 
  6.223334123856469   5.030221948136504  11.673616748318732 
  4.978719241939549  11.498008430686903  11.673616748318732 
 11.202281236705343   5.030301991328607  11.673616748318732 
 -1.254218519239049   5.032369108599655   5.002978606422314 
 -2.497437523532881  11.484796245293310   5.002978606422314 
  2.487344876968001  11.506403011193722   5.002978606422314 
  7.461967287249895  11.494831188528430   5.002978606422314 
  8.712928878929869   5.021117748319789   5.002978606422314 
 -0.000102919781253   7.186100964733016  11.673616748318732 
  1.244592009927129   0.718652524786623  11.673616748318732 
  4.978581364655175   7.186196969934708  11.673616748318732 
  6.223290129106693   0.718530209366067  11.673616748318732 
  9.957570387410055   7.186212943366429  11.673616748318732 
 -2.505623722997945   7.183548813108522   5.002978606422314 
 11.202215439446338   0.718612104145155  11.673616748318732 
  3.728792149011778   0.691826825281349   5.002978606422314 
  2.424667397623401   7.235210740449687   5.002978606422314 
  7.462655161091255   7.183060963795241   5.002978606422314 
  8.719124061326223   0.712644842335069   5.002978606422314 
  2.489184844952871   7.186161100525636  11.673616748318732 
 13.695816974524607   0.723382003924857   5.002978606422314 
 -1.244787059684609   9.342006582432836  11.673616748318732 
 -0.000062329868623   2.874459011503222  11.673616748318732 
  4.978604800185780   2.874359256686369  11.673616748318732 
  3.733900778088809   9.342063665657019  11.673616748318732 
  8.712842468631571   9.342144940290243  11.673616748318732 
  9.957541323838971   2.874435622991189  11.673616748318732 
 -3.747301416151219   9.334474509329363   5.002978606422314 
  1.221742894356754   9.368585359668765   5.002978606422314 
  2.507037202331787   2.858195736194082   5.002978606422314 
  6.215494273869529   9.346801372865039   5.002978606422314 
  7.483438740214253   2.852116191168547   5.002978606422314 
 12.453147061368261   2.875749430548866   5.002978606422314 
 -1.244718343110589   5.030264532055199  11.673616748318732 
 -2.489521271267146  11.497949478812995  11.673616748318732 
  2.489261877253787  11.497936645456786  11.673616748318732 
  3.733863026621882   5.030241821207057  11.673616748318732 
  7.468124240517433  11.498051632164895  11.673616748318732 
 -4.989218864154543  11.485261783022976   5.002978606422314 
  8.712825745788219   5.030310258624226  11.673616748318732 
 -0.003872363660037  11.495744280477478   5.002978606422314 
  1.239403026665135   5.053802533859429   5.002978606422314 
 -0.025850010814222   7.195057810340171   5.002978606422314 
  6.264909894286921   4.990031025236759   5.002978606422314 
  4.978069112887940  11.505265903054211   5.002978606422314 
 11.196413774070933   5.026580135207251   5.002978606422314 
 -2.489399933963759   7.186131092298269  11.673616748318732 
  3.733908838694691   0.718602882993029  11.673616748318732 
  7.468109820978389   7.186210213149357  11.673616748318732 
  8.712750473663190   0.718538196150102  11.673616748318732 
 13.691612963895105   0.718659340904319  11.673616748318732 
  0.000483562606915   1.437697745179217   1.667598337814728 
  3.733908467193616   7.905726015450409   1.661481713526236 
  4.978999998681457   1.436904827643664   1.667407066963036 
  8.713422074580414   7.905191577991742   1.666126743840797 
  9.957906702232540   1.437168168161201   1.667605463344244 
 -4.978295441444951  10.061170635949072   8.338137281271615 
  0.000088772643083  10.060914590592926   8.338467866475501 
  1.245032241693667   3.593314697561308   8.335130968445773 
  4.978806725707982  10.061466693527603   8.341435842710842 
  6.224128107303051   3.592539076774954   8.344475499318404 
 11.202927252936766   3.593122296222491   8.338282832023619 
 -2.489050376476532  10.060926085793668   1.667686867395431 
 -1.244061139441030   3.593312401416942   1.667598337814728 
  3.734028284650177   3.590856624387166   1.681520332475134 
  2.489208275742747  10.061225617414030   1.666182109174267 
  7.468637895490084  10.061487606740547   1.666750839567462 
  8.713503427746570   3.592782254736798   1.664521370133785 
 -6.223051904985378  12.217178248857211   8.338342962369580 
 -1.244490757052640  12.216589570086111   8.338467866475501 
  0.000262600422477   5.749136122597357   8.337909159454874 
  4.981382877681185   5.750497743035612   8.328448796595959 
  3.734191803220924  12.216958585072799   8.338351749500385 
  9.958437124011247   5.749028842296070   8.339206373277166 
 -2.488681990552803   5.749059822803304   1.667614250475048 
 -3.733793405417394  12.216905069366236   1.667672016048982 
  1.244803752551055  12.216667772302554   1.667724401655677 
  2.487401509358689   5.750077537267788   1.681520332475134 
  6.223813122868029  12.217200946185711   1.667674380820995 
  7.469082810116663   5.748932092446586   1.658856786959426 
 -1.244289321147838   7.904957509761104   8.338285196795646 
  0.000483562606915   1.437697745179217   8.338358875029900 
  3.733908467193616   7.905726015450410   8.344475499318404 
  4.978999998681458   1.436904827643665   8.338550145881593 
  8.713422074580414   7.905191577991743   8.339830469003831 
 -3.733461122313722   7.905054348208358   1.667819931573013 
  9.957906702232540   1.437168168161201   8.338351749500385 
  2.489643541161988   1.437401853842885   1.668048053389753 
  1.244510391867281   7.905230566983781   1.667407066963036 
  6.223876950715378   7.905691906812094   1.658856786959426 
  7.468495424725352   1.436847289901316   1.666182109174267 
  1.244510391867281   7.905230566983782   8.338550145881593 
 12.447377249911181   1.437506610601677   1.667682891844134 
 -2.489050376476531  10.060926085793668   8.338270345449196 
 -1.244061139441030   3.593312401416943   8.338358875029900 
  3.734028284650177   3.590856624387167   8.324436880369495 
  2.489208275742747  10.061225617414030   8.339775103670375 
  7.468637895490085  10.061487606740547   8.339206373277166 
  8.713503427746570   3.592782254736799   8.341435842710842 
 -4.978295441444952  10.061170635949072   1.667819931573013 
  0.000088772643083  10.060914590592926   1.667489346369127 
  1.245032241693667   3.593314697561307   1.670826244398841 
  4.978806725707981  10.061466693527603   1.664521370133785 
  6.224128107303050   3.592539076774953   1.661481713526236 
 11.202927252936766   3.593122296222490   1.667674380820995 
 -2.488681990552802   5.749059822803305   8.338342962369580 
 -3.733793405417393  12.216905069366236   8.338285196795646 
  1.244803752551056  12.216667772302554   8.338232811188952 
  2.487401509358690   5.750077537267789   8.324436880369495 
  6.223813122868030  12.217200946185711   8.338282832023619 
 -6.223051904985379  12.217178248857211   1.667614250475048 
  7.469082810116664   5.748932092446587   8.347100425885202 
 -1.244490757052640  12.216589570086111   1.667489346369127 
  0.000262600422476   5.749136122597356   1.668048053389753 
 -1.244289321147839   7.904957509761103   1.667672016048982 
  4.981382877681185   5.750497743035611   1.677508416248669 
  3.734191803220924  12.216958585072799   1.667605463344244 
  9.958437124011247   5.749028842296069   1.666750839567462 
 -3.733461122313722   7.905054348208359   8.338137281271615 
  2.489643541161988   1.437401853842885   8.337909159454874 
  6.223876950715379   7.905691906812095   8.347100425885202 
  7.468495424725353   1.436847289901317   8.339775103670375 
 12.447377249911181   1.437506610601677   8.338274321000494 
  4.081240828294213   5.230800488513088   5.002978606422314 
  1.244937800347730   0.718710549643935   1.666365494111363 
  4.979252722910148   7.187871255637193   1.655508552199334 
  6.223924062614898   0.718537626217899   1.666539738689594 
  9.957842298733222   7.186342480566180   1.668149169783745 
 11.202526805854710   0.718791871624774   1.667843260025568 
 -3.733881101793164   9.342222731436589   8.338028096624560 
  1.244848178153827   9.342550032845477   8.339417474155034 
  2.489672247920299   2.874464914938379   8.336878499314411 
  6.223812676986074   9.342704210411595   8.341303981358662 
  7.468859404900968   2.874259326537887   8.342203987750887 
 12.447247734525849   2.874631379683325   8.338477789808280 
 -1.244503682370337   9.342292829772072   1.667644815737798 
  0.000316100747259   2.874677498521300   1.666809924102781 
  4.979553290357289   2.874416699364547   1.667444622982796 
  3.734225605263338   9.342834815174312   1.663753225093742 
  8.713090606798922   9.342315653803727   1.668149169783745 
  9.958004047937024   2.874507531719988   1.667582029577829 
 -4.978552623847137  11.498098286472587   8.338336488048506 
  0.000245630544622  11.498121805539947   8.338313983661612 
  1.244810071550602   5.030629452831477   8.336878499314411 
  6.225119776935558   5.029966218589008   8.350448660645293 
  4.979012878774426  11.498373207146438   8.338375183266798 
 11.202630005731468   5.030460184510370   8.337867624638832 
 -1.244495196899857   5.030534982915258   1.666365494111363 
 -2.489131685142524  11.498051767096493   1.667644815737798 
  2.489554412048713  11.498319033643055   1.667686457309120 
  3.734656293342069   5.030699813961487   1.700536722483970 
  7.468435624344601  11.498274578410703   1.668089588205796 
  8.713539833719967   5.030370277964459   1.664653231485965 
  0.000208923299442   7.186535720798558   8.338849646327690 
  1.244937800347730   0.718710549643936   8.339591718733280 
  4.979252722910148   7.187871255637194   8.350448660645293 
  6.223924062614898   0.718537626217899   8.339417474155034 
  9.957842298733222   7.186342480566181   8.337808043060884 
 -2.489173864761121   7.186367796452812   1.667620724796123 
 11.202526805854710   0.718791871624775   8.338113952819059 
  3.734441270032186   0.718655568990236   1.667107566516937 
  2.489708836857250   7.186953795770208   1.667444622982796 
  7.468530925146080   7.186453337753930   1.663134019714987 
  8.713227898944080   0.718600344620851   1.667686457309120 
  2.489708836857250   7.186953795770209   8.338512589861818 
 13.691899050651104   0.718832062446896   1.667479423036346 
 -1.244503682370337   9.342292829772072   8.338312397106829 
  0.000316100747260   2.874677498521300   8.339147288741833 
  4.979553290357289   2.874416699364548   8.338512589861818 
  3.734225605263338   9.342834815174312   8.342203987750887 
  8.713090606798922   9.342315653803727   8.337808043060884 
  9.958004047937024   2.874507531719989   8.338375183266798 
 -3.733881101793164   9.342222731436589   1.667929116220066 
  1.244848178153827   9.342550032845477   1.666539738689594 
  2.489672247920298   2.874464914938378   1.669078713530216 
  6.223812676986073   9.342704210411595   1.664653231485965 
  7.468859404900967   2.874259326537886   1.663753225093742 
 12.447247734525849   2.874631379683324   1.667479423036346 
 -1.244495196899856   5.030534982915259   8.339591718733280 
 -2.489131685142523  11.498051767096493   8.338312397106829 
  2.489554412048714  11.498319033643055   8.338270755535508 
  3.734656293342069   5.030699813961488   8.305420490360657 
  7.468435624344602  11.498274578410703   8.337867624638832 
 -4.978552623847138  11.498098286472587   1.667620724796123 
  8.713539833719967   5.030370277964460   8.341303981358662 
  0.000245630544622  11.498121805539947   1.667643229183017 
  1.244810071550602   5.030629452831476   1.669078713530216 
  0.000208923299441   7.186535720798557   1.667107566516937 
  6.225119776935557   5.029966218589007   1.655508552199334 
  4.979012878774425  11.498373207146438   1.667582029577829 
 11.202630005731468   5.030460184510369   1.668089588205796 
 -2.489173864761121   7.186367796452813   8.338336488048506 
  3.734441270032187   0.718655568990237   8.338849646327690 
  7.468530925146081   7.186453337753931   8.342823193129641 
  8.713227898944080   0.718600344620851   8.338270755535508 
 13.691899050651104   0.718832062446897   8.338477789808280 
  0.003146626799441   1.439750920044440   5.002978606422314 
  3.709106057276573   7.927832567635007   5.002978606422314 
  4.993373757980137   1.375967392085158   5.002978606422314 
  8.700380720531836   7.897662148721137   5.002978606422314 
  9.961124424710313   1.435266762691974   5.002978606422314 
 -4.978861364582830  10.060703110027523  11.673616748318732 
 -0.000104788225385  10.060695109670140  11.673616748318732 
  1.244616414334833   3.593074619523809  11.673616748318732 
  4.978694805829212  10.060677456728211  11.673616748318732 
  6.223337298348981   3.593003998888635  11.673616748318732 
 11.202168563834782   3.593095264844660  11.673616748318732 
 -2.504249519882481  10.052150856256851   5.002978606422314 
 -1.240951505753080   3.594592095226980   5.002978606422314 
  3.776082559138677   3.488650054500301   5.002978606422314 
  2.477460759356531  10.074689314354968   5.002978606422314 
  7.459188467822011  10.055409535437922   5.002978606422314 
  8.715938529635054   3.586118209173982   5.002978606422314 
 -6.223569496263707  12.216555405350807  11.673616748318732 
 -1.244777613541609  12.216531681918156  11.673616748318732 
 -0.000091541174563   5.748913005764924  11.673616748318732 
  4.978562440313738   5.748869362762216  11.673616748318732 
  3.733985080420860  12.216547822746103  11.673616748318732 
  9.957499779445932   5.748959616977186  11.673616748318732 
 -2.502239228311053   5.747675849624257   5.002978606422314 
 -3.743376468025926  12.194408355596718   5.002978606422314 
  1.242574208448699  12.215380544414964   5.002978606422314 
  2.419915160647303   5.837600892255884   5.002978606422314 
  6.222372168586032  12.219007215901067   5.002978606422314 
  7.457591824888066   5.744224945565099   5.002978606422314 
 -1.244800175288417   7.904783211658836  11.673616748318732 
 -0.000091171042379   1.437190510087911  11.673616748318732 
  3.733915697077802   7.904808693749819  11.673616748318732 
  4.978675480716078   1.437180288143754  11.673616748318732 
  8.712825629922644   7.904847220508022  11.673616748318732 
 -3.750131077754564   7.899124358502459   5.002978606422314 
  9.957447610222610   1.437194522128258  11.673616748318732 
  2.485976890920290   1.413792088345756   5.002978606422314 
  1.198923904281492   7.948147325463551   5.002978606422314 
  6.214054949322419   7.898093995130271   5.002978606422314 
  7.474281570111899   1.419941793809100   5.002978606422314 
  1.244586688675415   7.904811795931722  11.673616748318732 
 12.449919548430797   1.438974407336278   5.002978606422314 
 -2.489484867367202  10.060675232361048  11.673616748318732 
 -1.244787784740439   3.593068285021898  11.673616748318732 
  3.734010513070609   3.593142749035518  11.673616748318732 
  2.489255303955625  10.060693391504000  11.673616748318732 
  7.468109272322688  10.060710455194329  11.673616748318732 
  8.712763968689353   3.593079947678215  11.673616748318732 
 -4.991765940894908  10.049699025910376   5.002978606422314 
 -0.019098429316358  10.069507399307405   5.002978606422314 
  1.259810724306604   3.601847058476230   5.002978606422314 
  4.974253043902856  10.066907576405226   5.002978606422314 
  6.230871738126478   3.560006283619420   5.002978606422314 
 11.203771051255403   3.590971258350820   5.002978606422314 
 -2.489480184491036   5.748922997360594  11.673616748318732 
 -3.734199779072079  12.216549805754001  11.673616748318732 
  1.244581645646253  12.216539538821278  11.673616748318732 
  2.489372465590609   5.748919084304216  11.673616748318732 
  6.223410368457130  12.216557417838750  11.673616748318732 
 -6.231029079795715  12.206129323142944   5.002978606422314 
  7.468094502397071   5.748974471648232  11.673616748318732 
 -1.246642767395761  12.195676561404454   5.002978606422314 
 -0.022017381396324   5.757765593089896   5.002978606422314 
 -1.268563578078168   7.907906690980806   5.002978606422314 
  3.734153999020506  12.220695917215593   5.002978606422314 
  9.948448646023184   5.743884433535504   5.002978606422314 
 -3.734148973207652   7.904798007355142  11.673616748318732 
  2.489273245518576   1.437206716639516  11.673616748318732 
  6.223419498320808   7.904814817619334  11.673616748318732 
  7.468058017673145   1.437154130483391  11.673616748318732 
 12.446861965824006   1.437209111195170  11.673616748318732 
Generated by cif2cell 2.0.0.  :  Failed to get author information, No journal information. Species order: B Al N 
 1.0
 14.936314146199660   0.000000000000000   0.000000000000000
 -7.468157073099825  12.935227489513863   0.000000000000000
  0.000000000000001   0.000000000000001  13.341276283792837
 B Al N 
 143   1 143
Cartesian
  1.241664538614614   0.709372842646709   5.002978606422314 
  4.964562889637732   7.242298104759173   5.002978606422314 
  6.234918675141151   0.685510200076354   5.002978606422314 
  9.946816722433020   7.180390423730010   5.002978606422314 
 11.206543215198192   0.721110746640479   5.002978606422314 
 -3.734131108583613   9.342078389948824  11.673616748318732 
  1.244524788217615   9.342004738748992  11.673616748318732 
  2.489175531421570   2.874413665944037  11.673616748318732 
  6.223403654746898   9.342115801792181  11.673616748318732 
  7.468029156241661   2.874363592711465  11.673616748318732 
 12.446955109904211   2.874469982056208  11.673616748318732 
 -1.260136220187431   9.341727523627783   5.002978606422314 
  0.014781996093340   2.883029387093290   5.002978606422314 
  4.988824310741767   2.793960688349670   5.002978606422314 
  3.722338755170694   9.366532457610580   5.002978606422314 
  8.702423186223882   9.335743253054551   5.002978606422314 
  9.963501414750574   2.870243858533010   5.002978606422314 
 -4.978870650259404  11.498020856877243  11.673616748318732 
 -0.000140177395343  11.497899059222075  11.673616748318732 
  1.244517330370219   5.030224908222269  11.673616748318732 
  6.223334123856469   5.030221948136504  11.673616748318732 
  4.978719241939549  11.498008430686903  11.673616748318732 
 11.202281236705343   5.030301991328607  11.673616748318732 
 -1.254218519239049   5.032369108599655   5.002978606422314 
 -2.497437523532881  11.484796245293310   5.002978606422314 
  2.487344876968001  11.506403011193722   5.002978606422314 
  7.461967287249895  11.494831188528430   5.002978606422314 
  8.712928878929869   5.021117748319789   5.002978606422314 
 -0.000102919781253   7.186100964733016  11.673616748318732 
  1.244592009927129   0.718652524786623  11.673616748318732 
  4.978581364655175   7.186196969934708  11.673616748318732 
  6.223290129106693   0.718530209366067  11.673616748318732 
  9.957570387410055   7.186212943366429  11.673616748318732 
 -2.505623722997945   7.183548813108522   5.002978606422314 
 11.202215439446338   0.718612104145155  11.673616748318732 
  3.728792149011778   0.691826825281349   5.002978606422314 
  2.424667397623401   7.235210740449687   5.002978606422314 
  7.462655161091255   7.183060963795241   5.002978606422314 
  8.719124061326223   0.712644842335069   5.002978606422314 
  2.489184844952871   7.186161100525636  11.673616748318732 
 13.695816974524607   0.723382003924857   5.002978606422314 
 -1.244787059684609   9.342006582432836  11.673616748318732 
 -0.000062329868623   2.874459011503222  11.673616748318732 
  4.978604800185780   2.874359256686369  11.673616748318732 
  3.733900778088809   9.342063665657019  11.673616748318732 
  8.712842468631571   9.342144940290243  11.673616748318732 
  9.957541323838971   2.874435622991189  11.673616748318732 
 -3.747301416151219   9.334474509329363   5.002978606422314 
  1.221742894356754   9.368585359668765   5.002978606422314 
  2.507037202331787   2.858195736194082   5.002978606422314 
  6.215494273869529   9.346801372865039   5.002978606422314 
  7.483438740214253   2.852116191168547   5.002978606422314 
 12.453147061368261   2.875749430548866   5.002978606422314 
 -1.244718343110589   5.030264532055199  11.673616748318732 
 -2.489521271267146  11.497949478812995  11.673616748318732 
  2.489261877253787  11.497936645456786  11.673616748318732 
  3.733863026621882   5.030241821207057  11.673616748318732 
  7.468124240517433  11.498051632164895  11.673616748318732 
 -4.989218864154543  11.485261783022976   5.002978606422314 
  8.712825745788219   5.030310258624226  11.673616748318732 
 -0.003872363660037  11.495744280477478   5.002978606422314 
  1.239403026665135   5.053802533859429   5.002978606422314 
 -0.025850010814222   7.195057810340171   5.002978606422314 
  6.264909894286921   4.990031025236759   5.002978606422314 
  4.978069112887940  11.505265903054211   5.002978606422314 
 11.196413774070933   5.026580135207251   5.002978606422314 
 -2.489399933963759   7.186131092298269  11.673616748318732 
  3.733908838694691   0.718602882993029  11.673616748318732 
  7.468109820978389   7.186210213149357  11.673616748318732 
  8.712750473663190   0.718538196150102  11.673616748318732 
 13.691612963895105   0.718659340904319  11.673616748318732 
  0.000483562606915   1.437697745179217   1.667598337814728 
  3.733908467193616   7.905726015450409   1.661481713526236 
  4.978999998681457   1.436904827643664   1.667407066963036 
  8.713422074580414   7.905191577991742   1.666126743840797 
  9.957906702232540   1.437168168161201   1.667605463344244 
 -4.978295441444951  10.061170635949072   8.338137281271615 
  0.000088772643083  10.060914590592926   8.338467866475501 
  1.245032241693667   3.593314697561308   8.335130968445773 
  4.978806725707982  10.061466693527603   8.341435842710842 
  6.224128107303051   3.592539076774954   8.344475499318404 
 11.202927252936766   3.593122296222491   8.338282832023619 
 -2.489050376476532  10.060926085793668   1.667686867395431 
 -1.244061139441030   3.593312401416942   1.667598337814728 
  3.734028284650177   3.590856624387166   1.681520332475134 
  2.489208275742747  10.061225617414030   1.666182109174267 
  7.468637895490084  10.061487606740547   1.666750839567462 
  8.713503427746570   3.592782254736798   1.664521370133785 
 -6.223051904985378  12.217178248857211   8.338342962369580 
 -1.244490757052640  12.216589570086111   8.338467866475501 
  0.000262600422477   5.749136122597357   8.337909159454874 
  4.981382877681185   5.750497743035612   8.328448796595959 
  3.734191803220924  12.216958585072799   8.338351749500385 
  9.958437124011247   5.749028842296070   8.339206373277166 
 -2.488681990552803   5.749059822803304   1.667614250475048 
 -3.733793405417394  12.216905069366236   1.667672016048982 
  1.244803752551055  12.216667772302554   1.667724401655677 
  2.487401509358689   5.750077537267788   1.681520332475134 
  6.223813122868029  12.217200946185711   1.667674380820995 
  7.469082810116663   5.748932092446586   1.658856786959426 
 -1.244289321147838   7.904957509761104   8.338285196795646 
  0.000483562606915   1.437697745179217   8.338358875029900 
  3.733908467193616   7.905726015450410   8.344475499318404 
  4.978999998681458   1.436904827643665   8.338550145881593 
  8.713422074580414   7.905191577991743   8.339830469003831 
 -3.733461122313722   7.905054348208358   1.667819931573013 
  9.957906702232540   1.437168168161201   8.338351749500385 
  2.489643541161988   1.437401853842885   1.668048053389753 
  1.244510391867281   7.905230566983781   1.667407066963036 
  6.223876950715378   7.905691906812094   1.658856786959426 
  7.468495424725352   1.436847289901316   1.666182109174267 
  1.244510391867281   7.905230566983782   8.338550145881593 
 12.447377249911181   1.437506610601677   1.667682891844134 
 -2.489050376476531  10.060926085793668   8.338270345449196 
 -1.244061139441030   3.593312401416943   8.338358875029900 
  3.734028284650177   3.590856624387167   8.324436880369495 
  2.489208275742747  10.061225617414030   8.339775103670375 
  7.468637895490085  10.061487606740547   8.339206373277166 
  8.713503427746570   3.592782254736799   8.341435842710842 
 -4.978295441444952  10.061170635949072   1.667819931573013 
  0.000088772643083  10.060914590592926   1.667489346369127 
  1.245032241693667   3.593314697561307   1.670826244398841 
  4.978806725707981  10.061466693527603   1.664521370133785 
  6.224128107303050   3.592539076774953   1.661481713526236 
 11.202927252936766   3.593122296222490   1.667674380820995 
 -2.488681990552802   5.749059822803305   8.338342962369580 
 -3.733793405417393  12.216905069366236   8.338285196795646 
  1.244803752551056  12.216667772302554   8.338232811188952 
  2.487401509358690   5.750077537267789   8.324436880369495 
  6.223813122868030  12.217200946185711   8.338282832023619 
 -6.223051904985379  12.217178248857211   1.667614250475048 
  7.469082810116664   5.748932092446587   8.347100425885202 
 -1.244490757052640  12.216589570086111   1.667489346369127 
  0.000262600422476   5.749136122597356   1.668048053389753 
 -1.244289321147839   7.904957509761103   1.667672016048982 
  4.981382877681185   5.750497743035611   1.677508416248669 
  3.734191803220924  12.216958585072799   1.667605463344244 
  9.958437124011247   5.749028842296069   1.666750839567462 
 -3.733461122313722   7.905054348208359   8.338137281271615 
  2.489643541161988   1.437401853842885   8.337909159454874 
  6.223876950715379   7.905691906812095   8.347100425885202 
  7.468495424725353   1.436847289901317   8.339775103670375 
 12.447377249911181   1.437506610601677   8.338274321000494 
  4.081240828294213   5.230800488513088   5.002978606422314 
  1.244937800347730   0.718710549643935   1.666365494111363 
  4.979252722910148   7.187871255637193   1.655508552199334 
  6.223924062614898   0.718537626217899   1.666539738689594 
  9.957842298733222   7.186342480566180   1.668149169783745 
 11.202526805854710   0.718791871624774   1.667843260025568 
 -3.733881101793164   9.342222731436589   8.338028096624560 
  1.244848178153827   9.342550032845477   8.339417474155034 
  2.489672247920299   2.874464914938379   8.336878499314411 
  6.223812676986074   9.342704210411595   8.341303981358662 
  7.468859404900968   2.874259326537887   8.342203987750887 
 12.447247734525849   2.874631379683325   8.338477789808280 
 -1.244503682370337   9.342292829772072   1.667644815737798 
  0.000316100747259   2.874677498521300   1.666809924102781 
  4.979553290357289   2.874416699364547   1.667444622982796 
  3.734225605263338   9.342834815174312   1.663753225093742 
  8.713090606798922   9.342315653803727   1.668149169783745 
  9.958004047937024   2.874507531719988   1.667582029577829 
 -4.978552623847137  11.498098286472587   8.338336488048506 
  0.000245630544622  11.498121805539947   8.338313983661612 
  1.244810071550602   5.030629452831477   8.336878499314411 
  6.225119776935558   5.029966218589008   8.350448660645293 
  4.979012878774426  11.498373207146438   8.338375183266798 
 11.202630005731468   5.030460184510370   8.337867624638832 
 -1.244495196899857   5.030534982915258   1.666365494111363 
 -2.489131685142524  11.498051767096493   1.667644815737798 
  2.489554412048713  11.498319033643055   1.667686457309120 
  3.734656293342069   5.030699813961487   1.700536722483970 
  7.468435624344601  11.498274578410703   1.668089588205796 
  8.713539833719967   5.030370277964459   1.664653231485965 
  0.000208923299442   7.186535720798558   8.338849646327690 
  1.244937800347730   0.718710549643936   8.339591718733280 
  4.979252722910148   7.187871255637194   8.350448660645293 
  6.223924062614898   0.718537626217899   8.339417474155034 
  9.957842298733222   7.186342480566181   8.337808043060884 
 -2.489173864761121   7.186367796452812   1.667620724796123 
 11.202526805854710   0.718791871624775   8.338113952819059 
  3.734441270032186   0.718655568990236   1.667107566516937 
  2.489708836857250   7.186953795770208   1.667444622982796 
  7.468530925146080   7.186453337753930   1.663134019714987 
  8.713227898944080   0.718600344620851   1.667686457309120 
  2.489708836857250   7.186953795770209   8.338512589861818 
 13.691899050651104   0.718832062446896   1.667479423036346 
 -1.244503682370337   9.342292829772072   8.338312397106829 
  0.000316100747260   2.874677498521300   8.339147288741833 
  4.979553290357289   2.874416699364548   8.338512589861818 
  3.734225605263338   9.342834815174312   8.342203987750887 
  8.713090606798922   9.342315653803727   8.337808043060884 
  9.958004047937024   2.874507531719989   8.338375183266798 
 -3.733881101793164   9.342222731436589   1.667929116220066 
  1.244848178153827   9.342550032845477   1.666539738689594 
  2.489672247920298   2.874464914938378   1.669078713530216 