Al B N Se                               
   1.0000000000000000     
     8.7639499999999995  -15.1796066749929999    0.0000000000000000
     8.7639499999999995   15.1796066749929999    0.0000000000000000
     0.0000000000000000    0.0000000000000000   15.0000000000000000
   Al   B    N    Se
     1    48    48     1
Selective dynamics
Direct
  0.4539730561681005  0.4793744963871846  0.1106246427473135   T   T   T
  0.9070741270022702  0.9541464460303188  0.1110492057566140   T   T   T
  0.9041825085013218  0.0947729443871361  0.1110526384017235   T   T   T
  0.9035433936746601  0.2371419068560971  0.1110549109692299   T   T   T
  0.9045190190811414  0.3804647106572948  0.1110303109833551   T   T   T
  0.9072741150025520  0.5244766563572805  0.1111070181820080   T   T   T
  0.9094227388008703  0.6686651376258332  0.1111543660430831   T   T   T
  0.9087174293022008  0.8120147646563842  0.1111553687939167   T   T   T
  0.0495540835769781  0.9542805283535987  0.1110748801222929   T   T   T
  0.0467763005168110  0.0945937142012630  0.1110127180596151   T   T   T
  0.0448346463143313  0.2366283855057154  0.1109552240297297   T   T   T
  0.0443261125103872  0.3802298680042488  0.1109947515278798   T   T   T
  0.0457741573027383  0.5244766563572805  0.1111070181820080   T   T   T
  0.0485209608543299  0.6684720173166548  0.1111477885157019   T   T   T
  0.0497311262193231  0.8117822829803251  0.1111469954877126   T   T   T
  0.1914983429805043  0.9544267815689962  0.1110548903936583   T   T   T
  0.1914655985611326  0.0967816930176692  0.1110206435081802   T   T   T
  0.1856673032687127  0.2344382746333543  0.1109265375590860   T   T   T
  0.1837324712700239  0.3792628568075047  0.1109406885798860   T   T   T
  0.1837290964055792  0.5243719483712168  0.1110480454625288   T   T   T
  0.1878140147729671  0.6686651376258332  0.1111543660430831   T   T   T
  0.1906210611530074  0.8117822829803251  0.1111469954877126   T   T   T
  0.3332963491696354  0.9542805283535987  0.1110748801222929   T   T   T
  0.3338877104055379  0.0967816930176692  0.1110206435081802   T   T   T
  0.3344501282005794  0.2403286404511606  0.1108700230723295   T   T   T
  0.3195797952799332  0.3750386620580461  0.1109441140764990   T   T   T
  0.3203430941704282  0.5232625551347254  0.1107867522841101   T   T   T
  0.3264917123909793  0.6690522442928454  0.1110805529264151   T   T   T
  0.3318689513031691  0.8120147646563842  0.1111553687939167   T   T   T
  0.4756439349770475  0.9541464460303188  0.1110492057566140   T   T   T
  0.4763890296334545  0.0945937142012630  0.1110127180596151   T   T   T
  0.4773425873136447  0.2344382746333543  0.1109265375590860   T   T   T
  0.4840304827281166  0.3750386620580461  0.1109441140764990   T   T   T
  0.4634526789793159  0.6768578721023643  0.1113088565557885   T   T   T
  0.4744214602103788  0.8144252707417454  0.1110959199384530   T   T   T
  0.6189291740431356  0.9531017037584895  0.1110308089651629   T   T   T
  0.6191637633908044  0.0947729443871361  0.1110526384017235   T   T   T
  0.6203653551403924  0.2366283855057154  0.1109552240297297   T   T   T
  0.6241020014864924  0.3792628568075047  0.1109406885798860   T   T   T
  0.6314910769133186  0.5232625551347222  0.1107867522841101   T   T   T
  0.6419768090720468  0.6768578721023643  0.1113088565557885   T   T   T
  0.6199963735713451  0.8114211311936624  0.1110974903764329   T   T   T
  0.7627441456643794  0.9531017037584895  0.1110308089651629   T   T   T
  0.7616821063295053  0.0947908851540024  0.1111464259301673   T   T   T
  0.7621718406864164  0.2371419068560971  0.1110549109692299   T   T   T
  0.7644753714428599  0.3802298680042488  0.1109947515278798   T   T   T
  0.7692144679136265  0.5243719483712168  0.1110480454625288   T   T   T
  0.7711321478508870  0.6690522442928454  0.1110805529264151   T   T   T
  0.7685754264803579  0.8144252707417454  0.1110959199384530   T   T   T
  0.9548829333181232  0.9068357826951222  0.1110785274943939   T   T   T
  0.9525588110677843  0.0480978700479921  0.1110062627150359   T   T   T
  0.9505529729989819  0.1893680714686241  0.1109871812974662   T   T   T
  0.9503741924835251  0.3320604526926441  0.1109836701029335   T   T   T
  0.9521284594688286  0.4756824991376384  0.1110589329604668   T   T   T
  0.9546772272068278  0.6199018496102605  0.1111235133122343   T   T   T
  0.9554324880123461  0.7638745376893724  0.1111530603135233   T   T   T
  0.0968387628503200  0.9067642825950711  0.1110605539174032   T   T   T
  0.0963215309727570  0.0490379336924692  0.1110156265711960   T   T   T
  0.0919100616118699  0.1884297093337613  0.1109285238679706   T   T   T
  0.0901839856878133  0.3314604575503326  0.1109209095860991   T   T   T
  0.0904086994793930  0.4754870929105144  0.1110392040609600   T   T   T
  0.0937973306464522  0.6199018496102605  0.1111235133122343   T   T   T
  0.0961329464414984  0.7636948961960103  0.1111416574166021   T   T   T
  0.2384965164317471  0.9067642825950711  0.1110605539174032   T   T   T
  0.2389815737150602  0.0493904391871104  0.1110114842128980   T   T   T
  0.2385811930748163  0.1919053508900437  0.1109465499081217   T   T   T
  0.2277148391336982  0.3273582652444180  0.1109226408923039   T   T   T
  0.2273572487227981  0.4748878665101125  0.1109465497694591   T   T   T
  0.2326601323652798  0.6200243537834421  0.1110738735692479   T   T   T
  0.2370147579200258  0.7638745376893724  0.1111530603135233   T   T   T
  0.3805255576199933  0.9068357826951222  0.1110785274943943   T   T   T
  0.3812891109627133  0.0490379336924692  0.1110156265711960   T   T   T
  0.3818968660582303  0.1919053508900437  0.1109465499081217   T   T   T
  0.3830021405544915  0.3374315728659815  0.1106823503793150   T   T   T
  0.3541709959611409  0.4663929254797686  0.1105908356692477   T   T   T
  0.3709659556456771  0.6202128827020703  0.1110012178277704   T   T   T
  0.3786249625332810  0.7645275477519554  0.1111131655624508   T   T   T
  0.5236363535970352  0.9079165462461937  0.1109791243734200   T   T   T
  0.5241134787791917  0.0480978700479921  0.1110062627150359   T   T   T
  0.5250923559648923  0.1884297093337613  0.1109285238679706   T   T   T
  0.5282161343537216  0.3273582652444180  0.1109226408923037   T   T   T
  0.5407946377616104  0.4663929254797686  0.1105908356692477   T   T   T
  0.5227506015010344  0.7686006499050591  0.1111854760657520   T   T   T
  0.6671769676097569  0.9057812269775272  0.1109776891162863   T   T   T
  0.6667707395159982  0.0475562246665421  0.1110773609074704   T   T   T
  0.6673895182686257  0.1893680714686241  0.1109871812974662   T   T   T
  0.6698491801055304  0.3314604575503326  0.1109209095860991   T   T   T
  0.6761033260303037  0.4748878665101125  0.1109465497694591   T   T   T
  0.6778196352983819  0.6202128827020703  0.1110012178277704   T   T   T
  0.6744227566460265  0.7686006499050591  0.1111854760657520   T   T   T
  0.8128529008921442  0.9079165462461937  0.1109791243734200   T   T   T
  0.8093599049495382  0.0475562246665421  0.1110773609074704   T   T   T
  0.8090214972867052  0.1894685747734110  0.1111140523867251   T   T   T
  0.8102606800091110  0.3320604526926441  0.1109836701029335   T   T   T
  0.8136511016751176  0.4754870929105144  0.1110392040609600   T   T   T
  0.8159369296611665  0.6200243537834421  0.1110738735692479   T   T   T
  0.8144752934616685  0.7645275477519554  0.1111131655624508   T   T   T
  0.5229379819922013  0.6173032557423803  0.1108526114800292   T   T   T

  0.00000000E+00  0.00000000E+00  0.00000000E+00
  0.00000000E+00  0.00000000E+00  0.00000000E+00
  0.00000000E+00  0.00000000E+00  0.00000000E+00
  0.00000000E+00  0.00000000E+00  0.00000000E+00
  0.00000000E+00  0.00000000E+00  0.00000000E+00
  0.00000000E+00  0.00000000E+00  0.00000000E+00
  0.00000000E+00  0.00000000E+00  0.00000000E+00
  0.00000000E+00  0.00000000E+00  0.00000000E+00
  0.00000000E+00  0.00000000E+00  0.00000000E+00
  0.00000000E+00  0.00000000E+00  0.00000000E+00
  0.00000000E+00  0.00000000E+00  0.00000000E+00
  0.00000000E+00  0.00000000E+00  0.00000000E+00
  0.00000000E+00  0.00000000E+00  0.00000000E+00
  0.00000000E+00  0.00000000E+00  0.00000000E+00
  0.00000000E+00  0.00000000E+00  0.00000000E+00
  0.00000000E+00  0.00000000E+00  0.00000000E+00
  0.00000000E+00  0.00000000E+00  0.00000000E+00
  0.00000000E+00  0.00000000E+00  0.00000000E+00
  0.00000000E+00  0.00000000E+00  0.00000000E+00
  0.00000000E+00  0.00000000E+00  0.00000000E+00
  0.00000000E+00  0.00000000E+00  0.00000000E+00
  0.00000000E+00  0.00000000E+00  0.00000000E+00
  0.00000000E+00  0.00000000E+00  0.00000000E+00
  0.00000000E+00  0.00000000E+00  0.00000000E+00
  0.00000000E+00  0.00000000E+00  0.00000000E+00
  0.00000000E+00  0.00000000E+00  0.00000000E+00
  0.00000000E+00  0.00000000E+00  0.00000000E+00
  0.00000000E+00  0.00000000E+00  0.00000000E+00
  0.00000000E+00  0.00000000E+00  0.00000000E+00
  0.00000000E+00  0.00000000E+00  0.00000000E+00
  0.00000000E+00  0.00000000E+00  0.00000000E+00
  0.00000000E+00  0.00000000E+00  0.00000000E+00
  0.00000000E+00  0.00000000E+00  0.00000000E+00
  0.00000000E+00  0.00000000E+00  0.00000000E+00
  0.00000000E+00  0.00000000E+00  0.00000000E+00
  0.00000000E+00  0.00000000E+00  0.00000000E+00
  0.00000000E+00  0.00000000E+00  0.00000000E+00
  0.00000000E+00  0.00000000E+00  0.00000000E+00
  0.00000000E+00  0.00000000E+00  0.00000000E+00
  0.00000000E+00  0.00000000E+00  0.00000000E+00
  0.00000000E+00  0.00000000E+00  0.00000000E+00
  0.00000000E+00  0.00000000E+00  0.00000000E+00
  0.00000000E+00  0.00000000E+00  0.00000000E+00
  0.00000000E+00  0.00000000E+00  0.00000000E+00
  0.00000000E+00  0.00000000E+00  0.00000000E+00
  0.00000000E+00  0.00000000E+00  0.00000000E+00
  0.00000000E+00  0.00000000E+00  0.00000000E+00
  0.00000000E+00  0.00000000E+00  0.00000000E+00
  0.00000000E+00  0.00000000E+00  0.00000000E+00
  0.00000000E+00  0.00000000E+00  0.00000000E+00
  0.00000000E+00  0.00000000E+00  0.00000000E+00
  0.00000000E+00  0.00000000E+00  0.00000000E+00
  0.00000000E+00  0.00000000E+00  0.00000000E+00
  0.00000000E+00  0.00000000E+00  0.00000000E+00
  0.00000000E+00  0.00000000E+00  0.00000000E+00
  0.00000000E+00  0.00000000E+00  0.00000000E+00
  0.00000000E+00  0.00000000E+00  0.00000000E+00
  0.00000000E+00  0.00000000E+00  0.00000000E+00
  0.00000000E+00  0.00000000E+00  0.00000000E+00
  0.00000000E+00  0.00000000E+00  0.00000000E+00
  0.00000000E+00  0.00000000E+00  0.00000000E+00
  0.00000000E+00  0.00000000E+00  0.00000000E+00
  0.00000000E+00  0.00000000E+00  0.00000000E+00
  0.00000000E+00  0.00000000E+00  0.00000000E+00
  0.00000000E+00  0.00000000E+00  0.00000000E+00
  0.00000000E+00  0.00000000E+00  0.00000000E+00
  0.00000000E+00  0.00000000E+00  0.00000000E+00
  0.00000000E+00  0.00000000E+00  0.00000000E+00
  0.00000000E+00  0.00000000E+00  0.00000000E+00
  0.00000000E+00  0.00000000E+00  0.00000000E+00
  0.00000000E+00  0.00000000E+00  0.00000000E+00
  0.00000000E+00  0.00000000E+00  0.00000000E+00
  0.00000000E+00  0.00000000E+00  0.00000000E+00
  0.00000000E+00  0.00000000E+00  0.00000000E+00
  0.00000000E+00  0.00000000E+00  0.00000000E+00
  0.00000000E+00  0.00000000E+00  0.00000000E+00
  0.00000000E+00  0.00000000E+00  0.00000000E+00
  0.00000000E+00  0.00000000E+00  0.00000000E+00
  0.00000000E+00  0.00000000E+00  0.00000000E+00
  0.00000000E+00  0.00000000E+00  0.00000000E+00
  0.00000000E+00  0.00000000E+00  0.00000000E+00
  0.00000000E+00  0.00000000E+00  0.00000000E+00
  0.00000000E+00  0.00000000E+00  0.00000000E+00
  0.00000000E+00  0.00000000E+00  0.00000000E+00
  0.00000000E+00  0.00000000E+00  0.00000000E+00
  0.00000000E+00  0.00000000E+00  0.00000000E+00
  0.00000000E+00  0.00000000E+00  0.00000000E+00
  0.00000000E+00  0.00000000E+00  0.00000000E+00
  0.00000000E+00  0.00000000E+00  0.00000000E+00
  0.00000000E+00  0.00000000E+00  0.00000000E+00
  0.00000000E+00  0.00000000E+00  0.00000000E+00
  0.00000000E+00  0.00000000E+00  0.00000000E+00
  0.00000000E+00  0.00000000E+00  0.00000000E+00
  0.00000000E+00  0.00000000E+00  0.00000000E+00
  0.00000000E+00  0.00000000E+00  0.00000000E+00
  0.00000000E+00  0.00000000E+00  0.00000000E+00
  0.00000000E+00  0.00000000E+00  0.00000000E+00
  0.00000000E+00  0.00000000E+00  0.00000000E+00
