 B O N S 
 1.0
 17.527899999999772   0.000000000000000   0.000000000000000
 -8.763949999999658  15.179606674993195   0.000000000000000
  0.000000000000001   0.000000000000002  15.000000000000000
 B O N S 
  48   1  48   1
Cartesian
  7.513916402054704  14.451256337038087   1.682203830847230 
 15.031481739629436   1.441319452474768   1.678214156665500 
 13.781993764397161   3.609583616982492   1.661727522056955 
 12.530158742504561   5.779082538264324   1.649030631518595 
 11.276142592419692   7.949163258598387   1.647787688102820 
 10.012241915204585  10.116662579719458   1.661854068746205 
  8.757543612995821  12.278616158842617   1.662401821006485 
 -7.513779753319748  14.457842301962083   1.656384175172430 
  0.005761274193929   1.446758144931713   1.682203763947260 
 -1.244340163872929   3.613191347618502   1.693098293671185 
 -2.501309816287964   5.782664255831182   1.703310044523015 
 -3.761276840866568   7.953926913295670   1.686168147105645 
 -5.016678394347632  10.122984185756264   1.658475292834305 
 -6.267142548447581  12.289907634915275   1.645361961519405 
 -5.012974393793597  14.462193620904939   1.645361950254390 
  2.509142584649472   1.456077049039714   1.662401710516515 
  1.260380465790711   3.620156211642645   1.694317971589125 
 -0.001029978278307   5.784096891246782   1.705054643798325 
 -1.274322210685363   7.960491772064552   1.736438493468195 
 -2.522633273436663  10.129090653914654   1.704416827267890 
 -3.767925661952805  12.295171331097491   1.658331862662765 
 -2.511135207404782  14.462718561105961   1.658475290029290 
  5.008803322630546   1.450455594776453   1.661854175426205 
  3.772318998070030   3.633957304230752   1.698196753499130 
  2.513741550670420   5.773520284199161   1.544845911934995 
  1.185046302301120   7.979420452592101   1.587596881952235 
 -0.034793649420021  10.139845042399601   1.684864788894255 
 -1.269407493171815  12.299751070715216   1.704416684017890 
 -0.004979302057055  14.460024953498221   1.686168028650645 
  7.517867957368114   1.439629975518984   1.647787696787820 
  6.280227544665735   3.596068258730166   1.705204660959240 
  5.072765976768379   5.762387782522704   1.870234413679545 
  2.446113398056524  10.163650018317940   1.587596828312160 
  1.232803171845905  12.302989018338106   1.736438490318180 
  2.505376325912493  14.454494426148877   1.703310181623045 
 10.024215785071718   1.438650088626046   1.649030626433595 
  8.781960198591962   3.601055771863363   1.654428814130100 
  7.549287340461255   5.761176165576486   1.761510205683120 
  6.309982106306977   7.905280777908686   1.870234528264470 
  5.020824454407982  10.115894169879390   1.544845847630055 
  3.754272151966189  12.288472026722346   1.705054734248325 
  5.012680373110747  14.450656023780034   1.693098422161260 
 12.528971688184271   1.439277956946514   1.661727565347015 
 11.281786601190312   3.606210151876393   1.632158672797425 
 10.036340860734231   5.773705419029472   1.654428844865085 
  8.789807684554223   7.942767635613405   1.705204685964195 
  7.503031788642792  10.095726567823005   1.698196861199115 
  6.259011523716286  12.278022155103278   1.694318055994140 
  5.161064843688958   7.140006382481874   2.059085941004475 
  8.762187217325863  13.727057430019823   1.666252372566975 
 16.282303566480760   0.719157264457287   1.680305685616800 
 15.033968037550880   2.888232882460316   1.676145039391020 
 13.781109468101000   5.056472685467903   1.668293774102025 
 12.524280203002505   7.225530571452968   1.652334095020740 
 11.263916143386711   9.394871995321919   1.650569818602060 
 10.009991982801051  11.561199016872150   1.653578423410905 
 -6.263853832583380  13.736199152322152   1.640433202158480 
  1.257078283107985   0.727833337074563   1.666252284876900 
  0.010153769388858   2.896059637002526   1.700321117471475 
 -1.244441061108814   5.059868891664398   1.711209291785250 
 -2.510847246628434   7.229929733030721   1.723097256754890 
 -3.765974508362845   9.399787986305824   1.682583099055680 
 -5.016549708945567  11.568208170093619   1.649379146313495 
 -3.762669950709727  13.739995569585524   1.649379173568495 
  3.756672126018705   0.730138060287168   1.653578292085875 
  2.517984177826016   2.909859508093028   1.676799998460600 
  1.262572854722075   5.072711773311784   1.664522614816770 
 -0.019741693545430   7.236149402819450   1.731625195815960 
 -1.271257560024443   9.405519901729734   1.725448467944805 
 -2.517041579675958  11.572967763457870   1.686985271676360 
 -1.259481737650257  13.741169372307336   1.682582878735695 
  6.259729831374656   0.727370224518320   1.650569961537000 
  5.015988430582665   2.899362197114810   1.692520341947940 
  3.787454336158321   5.102860148691956   1.708019960765970 
  2.421487044491857   7.235688861757022   1.345027359223095 
  1.217831366621843   9.416645668283079   1.588220419509570 
 -0.017089402021656  11.577815267172026   1.725448372079835 
  1.247236318960061  13.739127524978748   1.723097330644905 
  8.768619945228535   0.720511316325114   1.652333947570695 
  7.527284365704966   2.881717735647243   1.655637602389290 
  6.296923327570759   5.035994628943881   1.795268411121855 
  3.708422955423790   9.464710001814341   1.345027167118200 
  2.487394991904099  11.578670113605030   1.731625264771035 
  3.759744507349922  13.727407056449811   1.711209500030295 
 11.275487213176849   0.716601820967931   1.668293879012025 
 10.030411383906644   2.882066668240514   1.632394176264960 
  8.788784104446053   5.045546886172492   1.680042186190170 
  7.551145529519949   7.208340567240502   1.795268522766840 
  6.238489753911854   9.348165477932667   1.708020129741000 
  5.002153018124381  11.549843431846192   1.664522612926755 
  6.260980988305558  13.722797038175027   1.700321242151475 
 13.779663568732190   0.715706857189388   1.676145086641005 
 12.532003831710428   2.884395548096585   1.643135398251465 
 11.283225962827640   5.052004166351981   1.632394156149960 
 10.031980340058958   7.219955269323828   1.655637647599320 
  8.761046727717456   9.385984050550427   1.692520263677970 
  7.502949855738454  11.544063595167209   1.676800145550615 
  3.564348610909514   8.061867920506089   0.523362965039910 
