 Si B N 
 1.0
 17.527899999999772   0.000000000000000   0.000000000000000
 -8.763949999999658  15.179606674993195   0.000000000000000
  0.000000000000001   0.000000000000002  15.000000000000000
 Si B N 
   1  47  49
Cartesian
  3.886520044847271   7.915114458414326   1.667419698536100 
  7.518168242865672  14.477504705802287   1.665124730096415 
 15.024291342688429   1.455173397350242   1.665512987431965 
 13.770552500456557   3.616150707346792   1.665642246283725 
 12.517554585790858   5.779583502872447   1.664477537337360 
 11.263527015357127   7.945543071977167   1.664749235746875 
 10.013543114210350  10.119737783328796   1.666349868228720 
  8.772632535531274  12.307248035012879   1.665716383387620 
 -7.510201285590642  14.459700607437034   1.664705595670170 
 -0.000577655670515   1.443412264585368   1.664780799781635 
 -1.255988419236266   3.610568135083761   1.664732559572760 
 -2.512546169135946   5.780467027907904   1.665071277080070 
 -3.769226489883041   7.949509623502687   1.665169859941500 
 -5.017241000625471  10.116654460147043   1.665506304503070 
 -6.264151294983493  12.285863471569165   1.664734852700775 
 -5.013779490906466  14.446306516015280   1.664638510379805 
  2.503023674450647   1.434210422683184   1.665653815657050 
  1.243729715887314   3.588029376086643   1.664954128810740 
 -0.014006738831473   5.769977678524929   1.665026034905175 
 -1.278953554088233   7.951136364796777   1.666326125143065 
 -2.518642434491368  10.119737783328796   1.666664458286145 
 -3.766545015473270  12.283127729096957   1.665096845057475 
 -2.512722385205895  14.445668207481161   1.665310035282120 
  5.003235938583048   1.421742970524029   1.666252732706295 
  3.759496807139503   3.589666351732021   1.666297677206970 
  2.485746064257749   5.716476196400872   1.665824219844885 
  1.197226025288507   7.950068288299885   1.665898493646975 
 -0.020726487882781  10.126871371900156   1.666835099567910 
 -1.267525322440108  12.288371302220828   1.666351514192490 
 -0.012318344306536  14.457810166214546   1.665083494404765 
  7.512828829480526   1.420678794170370   1.665303784852200 
  6.272915436778236   3.554001078435520   1.665717954611415 
  5.072543911052209   5.724768990881189   1.667638332071040 
  2.457861349171005  10.188394857909612   1.665588308012445 
  1.224723173844268  12.316600646690123   1.665677112130545 
  2.491151547568002  14.477949217489829   1.664936651933475 
 10.013835550647318   1.441243831671088   1.664766569035485 
  8.773844094823376   3.585140330683434   1.664752273632255 
  7.519485017179603   5.718996920588284   1.664740695666705 
  4.999510777818174  10.242080674095995   1.664944931560950 
  3.736330508199358  12.344838488693320   1.664939834031375 
  5.006516474051477  14.483976210237897   1.665053347454040 
 12.517972496094888   1.454860136307109   1.665796852878915 
 11.270205579666836   3.610450781241845   1.665429293446935 
 10.020145604740437   5.769288041796413   1.664693168500770 
  8.760247617508208   7.948634757268805   1.665336102380085 
  7.543198022082658  10.147974828953394   1.665088092291120 
  6.272111620994129  12.341175978620420   1.665348282219900 
  8.765715292591487  13.749120633792360   1.664873596814010 
 16.275739546381601   0.735004200094728   1.664849630488395 
 15.022206623305252   2.895715667158517   1.665288245050755 
 13.769658268116206   5.059868891664398   1.664670583624665 
 12.516186591328188   7.224298516896108   1.664073812700945 
 11.264060131660644   9.394139067705543   1.665402443699970 
 10.014086700330942  11.568339392948905   1.665648673046100 
 -6.264429704334849  13.729661762695804   1.663979671307160 
  1.249928882425382   0.721549364716073   1.664751737626170 
 -0.007825333372554   2.883036737506875   1.664272179612780 
 -1.260724121546120   5.055623784633046   1.664520102524040 
 -2.518715408592605   7.226056273633843   1.665325055333145 
 -3.764765156935956   9.394451658749922   1.665563223666600 
 -5.014744016132811  11.561328255677022   1.664634181697220 
 -3.763455276782885  13.724421773745929   1.664433378252285 
  3.749795905618160   0.707009059168087   1.665396285017925 
  2.499970948489984   2.876405401767705   1.665527871883995 
  1.231236795502814   5.028765463072819   1.664871189716160 
 -0.032453766180727   7.222863372195180   1.665583025993850 
 -1.265308166636851   9.396909909802385   1.666787636266665 
 -2.514625383597024  11.562099294100404   1.666169418364605 
 -1.260537486337673  13.728447775967620   1.665355586989695 
  6.256342765072913   0.703581344527302   1.665370646446485 
  5.004800543966955   2.856883600294857   1.666100685821040 
  3.760418353498383   5.034073827171905   1.666350006329520 
  2.410961343868680   7.168026816978231   1.665694058669910 
  1.237588978556421   9.404558863756785   1.665836079500940 
 -0.014327628475064  11.570447222256442   1.666433138719005 
  1.239628153793095  13.749885877933972   1.664860266234900 
  8.764537356112248   0.712014387744590   1.664421122860200 
  7.526287643292410   2.850106881844371   1.664851959153105 
  6.288427739444719   4.968878190563505   1.665610955312415 
  5.249759119408036   7.121030961480159   1.669778216711445 
  3.742304543077588   9.548037776580973   1.665355699379880 
  2.477835740784115  11.615123953464989   1.665037590985185 
  3.745560503516389  13.773164780100879   1.664692009551210 
 11.266305344113626   0.732133137953877   1.664852774632965 
 10.024337805488164   2.876813175318516   1.664742216491970 
  8.787902625640267   5.018381727080710   1.664550557997345 
  7.633993486122804   7.115217796830240   1.662128076683010 
  6.245480572441332   9.618783004370986   1.661956848003975 
  5.000824661013670  11.664414435683410   1.664775506683380 
  6.263531687632583  13.773721967207814   1.664807209608420 
 13.771134115104481   0.740362334436746   1.665419124153000 
 12.522554314626007   2.893895849965997   1.665665012624865 
 11.274961604629635   5.051941300029183   1.664594990871615 
 10.025120572055037   7.216980637301547   1.664714053638855 
  8.765866007644496   9.400327722982905   1.666281311706810 
  7.517617767844700  11.606440383844292   1.665521338281015 
