 As P N B 
 1.0
 17.527899999999772   0.000000000000000   0.000000000000000
 -8.763949999999658  15.179606674993195   0.000000000000000
  0.000000000000001   0.000000000000002  15.000000000000000
 As P N B 
   1   1  48  48
Cartesian
  3.421386431953670   8.144419859822323   1.676953437356775 
  5.140045396817574   7.152145376861703   1.663854245660775 
  8.788656553680370  13.758095081951506   1.667031437369850 
 16.266572374704744   0.728242031042951   1.663807816275060 
 14.993470197203797   2.881969938199259   1.665481065542145 
 13.745064951117030   5.049877474994172   1.664430166231380 
 12.524859224147725   7.224285319759407   1.665316794261600 
 11.303018476307972   9.404132902501484   1.668638238340305 
 10.056002439909335  11.583771102398448   1.668362949889065 
 -6.240439233317884  13.722671241589104   1.666807097512110 
  1.243430714527542   0.689380573957696   1.667031437369850 
 -0.053687315736167   2.827883975417168   1.668017804240160 
 -1.314883282677688   5.016673169723100   1.667795601380010 
 -2.553663232870530   7.211339751955486   1.665461511788550 
 -3.744733360816412   9.393662887213202   1.666901292318675 
 -4.983083630882749  11.561923258586585   1.667348807980140 
 -3.740498787643801  13.714143339790507   1.667348807980140 
  3.760123459992667   0.678988830878231   1.668362949889065 
  2.460919067197575   2.794305965359807   1.669113182932980 
  1.135497897709306   4.910976130587375   1.669366704421020 
 -0.139528964444288   7.175932656929556   1.665509434299510 
 -1.256961675909296   9.389204557664735   1.666333541984430 
 -2.491266302201034  11.558085240570152   1.667326357984620 
 -1.243555088982750  13.725830732816560   1.666901292318675 
  6.271253530361625   0.688860364378860   1.668638238340305 
  5.009131579156155   2.817132531841887   1.664182787533545 
  3.675245699265032   4.888156700991991   1.662121746288975 
  2.143511934277780   6.943681115591890   1.652104122776745 
  1.257665114401444   9.393638678021320   1.657356654527835 
  0.004191780118225  11.573586419645840   1.666333541984430 
  1.241927249372497  13.785495311955511   1.665461511788550 
  8.769977287296545   0.720639028741706   1.665316794261600 
  7.540517422560408   2.838315615084908   1.662523189730895 
  6.317965467718816   4.931258260638592   1.658383976401905 
  3.822314011579794   9.851451609361371   1.652104122776745 
  2.479657827352061  11.712497254864862   1.665509434299495 
  3.761954237518855  13.810013696505889   1.667795601380010 
 11.263172582536152   0.751113793725547   1.664430166231380 
 10.015127302387738   2.892766234651728   1.665444782592795 
  8.783345504671102   5.048685078853871   1.659031267296435 
  7.652350093854990   7.242480229945238   1.658383976401905 
  6.368317255215882   9.552693464347923   1.662121746288975 
  5.078681148708490  11.740769864903401   1.669366704421020 
  6.288099266805085  13.812180547136936   1.668017804240160 
 13.764838205517444   0.753916904793985   1.665481065542145 
 12.506329814748737   2.899219085251918   1.664969819930895 
 11.266329177454020   5.059868891664398   1.665444782592795 
 10.076167571006764   7.230190502382885   1.662523189730880 
  8.828819737514809   9.433026491188036   1.664182787533545 
  7.574481867989813  11.651256544026749   1.669113182932980 
  7.538211700411455  14.487371749386821   1.666332497463780 
 15.015307929194627   1.450666162416432   1.665088014042075 
 13.751845231747186   3.611412103825513   1.665405090646155 
 12.510727225688335   5.781822216018123   1.665119147094585 
 11.304054279091257   7.960735745821524   1.666084475103720 
 10.068629782457956  10.143919935266508   1.667755225347600 
  8.819648642225840  12.331066139538475   1.668755904410565 
 -7.491074723856670  14.444732245640777   1.667067802635300 
 -0.013358405171505   1.407668649598723   1.666332497463780 
 -1.289527302595115   3.578549450020795   1.667219450544720 
 -2.543795141159098   5.766039957763198   1.665861384010305 
 -3.771478147262512   7.950595922818201   1.666024927021740 
 -4.981907330151167  10.122954497853309   1.668283243187940 
 -6.226496896507141  12.288657918633900   1.667872115377140 
 -4.991570670546618  14.427612885596986   1.667872115377140 
  2.494775502187268   1.376064509563731   1.668755904410565 
  1.191743554911835   3.499738905881856   1.669743328333320 
 -0.077711594000247   5.716049984446335   1.668194757189285 
 -1.329726598324236   7.940486387503411   1.666152807451095 
 -2.498343185423531  10.119737783328796   1.667422820378085 
 -3.736787189142440  12.277193326858326   1.667295403769460 
 -2.493721707892163  14.432618414237881   1.668283243187940 
  5.013390247010903   1.387988215410902   1.667755225347600 
  3.714466082134964   3.475324165620122   1.665723906515025 
  2.378435605036044   5.578419674487833   1.661705139658365 
  1.081622527880190   7.877724761397274   1.657191349607955 
  0.000000000000152  10.119737783328796   1.664359742884185 
 -1.249189306372490  12.283397130238011   1.667422820378100 
 -0.007189404338591  14.470535279891843   1.666024927021740 
  7.521795464527466   1.409671311591467   1.666084475103720 
  6.289912286069121   3.509450185485215   1.661373636129405 
  4.987408004306083   5.447108195123922   1.661322715953210 
  2.482469210217760  10.304062388820293   1.657191349607955 
  1.222441484533668  12.360971176438550   1.666152807451095 
  2.498533060422281  14.499608591339305   1.665861384010305 
 10.012126407267798   1.454118650680684   1.665119147094585 
  8.771501364225585   3.599434106012906   1.662217592265855 
  7.543746305983650   5.764374276844433   1.658523811706700 
  6.540337641665152   8.136861227639931   1.661322715953210 
  5.122132365092758  10.330641863498089   1.661705139658365 
  3.774867420828513  12.388912578303222   1.668194757189285 
  5.020089329946382  14.507126033864123   1.667219450544720 
 12.512315704086564   1.464483984435682   1.665405090646140 
 11.262403544320200   3.617406519266858   1.665697224428580 
 10.032517020718196   5.783577292197829   1.662217592265855 
  8.869650842740533   7.977688435914360   1.661373636129405 
  7.611481740906588  10.225153284534228   1.665723906515025 
  6.328976692010473  12.397687709662542   1.669743328333320 
