 N B Si 
 1.0
 17.527899999999772   0.000000000000000   0.000000000000000
 -8.763949999999658  15.179606674993195   0.000000000000000
  0.000000000000001   0.000000000000002  15.000000000000000
 N B Si 
  47  49   1
Cartesian
  8.774085608634920  13.737560297919657   1.561652680793790 
 16.282364155754284   0.716043202041151   1.604405373975105 
 15.026648997374698   2.873373285272038   1.617493447898730 
 13.771746710085448   5.039891964139733   1.606200060537120 
 12.524019153262529   7.212565979503358   1.586431985899035 
 11.281550423935210   9.390810560654382   1.560175232119785 
 10.029576061217371  11.568640933138301   1.527489424523490 
 -6.253508459215491  13.741289850647886   1.582370834857920 
  1.257856804058963   0.730944401922964   1.585509593637630 
  0.011788957834034   2.903821066011627   1.592461127931870 
 -1.253159953950200   5.050465874547640   1.579303913011230 
 -2.519576644378130   7.214798613688266   1.574563105729650 
 -3.764884021268355   9.390418224605449   1.594037413434465 
 -5.005506107065905  11.567602947142765   1.592178337850970 
 -3.754242362220285  13.738745667929576   1.620718057909290 
  3.759756725920282   0.732659673488496   1.607446214942145 
  2.507121928329448   2.905316260655729   1.595907992936580 
  1.274365658900615   5.105302990881390   1.608992582819580 
 -0.037557200465643   7.221639831532941   1.525306867182390 
 -1.286405347071057   9.392203569174956   1.552854272323875 
 -2.511387882903298  11.565430282133562   1.614707775673635 
 -1.252277740688577  13.728892739375576   1.650967163869890 
  6.263924281503282   0.722674597294276   1.647840478544820 
  5.011111193412101   2.898380475592689   1.716678883155870 
  3.747071942736731   5.067235900846012   1.845471912617085 
  2.486675844952709   7.349985918962136   1.716705700621680 
  1.179446547695217   9.397149416962401   1.565969538413955 
 -0.013458092577858  11.558386470385134   1.657869656952420 
  1.261882543176354  13.688517694196261   1.697526060971895 
  8.772790105564502   0.699255984148670   1.657601075776515 
  7.520199703948438   2.879968180166725   1.713261152159310 
  6.268553135668659   5.040679148787683   2.034843138897720 
  2.512833685812554  11.468339628985255   1.842228999200550 
  3.757231709784094  13.677622838017610   1.694411850267690 
 11.273544925064234   0.687678430909315   1.668514309011900 
 10.021660392137694   2.869570668981189   1.667381108202360 
  8.769562045781031   5.050148543237182   1.750647094325340 
  7.575237677553341   7.235825757007013   1.836251345416530 
  6.327985928332841   9.403684762508895   1.552453275087195 
  5.010228778486280  11.510570144149515   1.604877880802700 
  6.264540378175665  13.708586868364554   1.605119648644290 
 13.774121345988428   0.690149417967287   1.643816288710410 
 12.523515750910168   2.864635199590011   1.640083426217205 
 11.272533361237562   5.038654713730061   1.628446412686920 
 10.042077085511407   7.212735106226901   1.584721072347225 
  8.801268771138140   9.393153274511880   1.512571904094795 
  7.533596246207512  11.569856956009392   1.478088761236485 
  7.517385526412692  14.448829494992443   1.588527047373780 
 15.024713422152594   1.426456615448906   1.622977347658335 
 13.773700399664655   3.593308994832063   1.621968087925545 
 12.522081172400238   5.764789261532137   1.604418480958890 
 11.284046885298441   7.941683583664903   1.569728331858690 
 10.042522041107105  10.119737783328796   1.526995294403670 
  8.783666010609455  12.296546415854710   1.517867205900870 
 -7.503422857108385  14.465612882386486   1.576921322307015 
  0.007216039072984   1.453522380946905   1.593036315980115 
 -1.250142952983681   3.606727207370766   1.597633792006485 
 -2.507712377095590   5.769103332851174   1.584539597311440 
 -3.762193944889981   7.942382094653907   1.585471131525195 
 -5.004796563426458  10.119737783328796   1.583946878008560 
 -6.250388972321811  12.295341423469877   1.568137139777070 
 -5.003033597377565  14.466046480480456   1.603042342761855 
  2.508420971212004   1.458146671094836   1.591815976825035 
  1.265281766899141   3.646692702075026   1.598375425020720 
 -0.004469734365702   5.783557469404171   1.566154227943380 
 -1.280752378033908   7.946852278302136   1.543699088621580 
 -2.523376616582192  10.119737783328796   1.588978664447805 
 -3.756501625247358  12.292731930593865   1.611311807498820 
 -2.504606732269403  14.457843896598876   1.637531557896000 
  5.013034023727997   1.453661478992790   1.650899026084905 
  3.753826975000658   3.625221040569225   1.694383547019015 
  2.526836311578784   5.868681273039548   1.737462577886340 
  1.188186006970053   7.958279461652691   1.564659924098460 
 -0.045922685998749  10.123003532456739   1.573180702788555 
 -1.258755962918648  12.286602882398403   1.641301785018060 
  0.010503508452539  14.429605615991083   1.665597946925010 
  7.521464009685745   1.433306964362805   1.666591827841140 
  6.270930654500097   3.607966258872647   1.809015192702885 
  4.976986167065427   5.670069524208352   2.286673701422565 
  3.378871741843118   8.490845700808794   2.206643992383990 
  2.453728008708325   9.990864961455278   1.885107081604935 
  1.261999733671789  12.232600765444694   1.733711166500985 
  2.508550011661635  14.416142440443853   1.694049178951575 
 10.023387502967239   1.420562982534946   1.664149363391670 
  8.771625633319104   3.600434268069664   1.715450068841640 
  7.522832194702702   5.779905456458628   1.908368001988275 
  6.417674777103199   8.052178997771257   2.046327918165435 
  5.087945549689549  10.091534648792388   1.548143079302295 
  3.744706084023307  12.222524833018879   1.726244935152180 
  5.005723439910115  14.419896429330185   1.647656606688330 
 12.522815064703913   1.416031208488322   1.653136892376810 
 11.273366101169065   3.591568868633525   1.647490627634340 
 10.023563651300886   5.766543806441669   1.653067048426875 
  8.808039795213359   7.943323050217887   1.614356880255855 
  7.569631596460327  10.133377094447093   1.477757762359440 
  6.271683690971423  12.265847695117372   1.561709883492330 
  4.876183133341425   7.486245448721052   3.073394087633835 
