 B N 
 1.0
 17.527899999999772   0.000000000000000   0.000000000000000
 -8.763949999999658  15.179606674993195   0.000000000000000
  0.000000000000001   0.000000000000002  15.000000000000000
 B N 
  48  49
Cartesian
  7.503650805937719  14.433007600528040   1.665041419763340 
 15.043285700911373   1.434510634921819   1.665818884155900 
 13.801316872072832   3.604191096393520   1.665893968604445 
 12.547695974629276   5.772708901537182   1.665206982460665 
 11.268481105496798   7.937914696280541   1.664936884179390 
  9.973360739258400  10.093239687688017   1.665332726890890 
  8.715238919878782  12.238088280636044   1.665397901010945 
 -7.526314535626067  14.465074934245605   1.665027581890410 
  0.016439148485368   1.464776494264741   1.665041437613370 
 -1.223554439816761   3.624792800861808   1.665761456830920 
 -2.482747540567969   5.785495617647433   1.665277363111815 
 -3.761510768858167   7.953549037473908   1.665206801154930 
 -5.037703935863834  10.119737783328796   1.665265845323445 
 -6.293091449136584  12.288554093552632   1.664773552325790 
 -5.024780548665997  14.485333286770954   1.664773499285760 
  2.523088813724606   1.512970695000874   1.665397870095930 
  1.291358072807646   3.679446973178603   1.665224680661475 
  0.027087205923863   5.809583080755339   1.665287027109000 
 -1.265440324873188   7.965581271383424   1.665868042249950 
 -2.536039437275333  10.133544877024054   1.666168200010590 
 -3.785327279563389  12.305214066467144   1.665459989399805 
 -2.518866352719975  14.482542283715915   1.665265802078475 
  5.009643852731824   1.495829478550592   1.665332711830935 
  3.821522693786647   3.763131087839967   1.665967691436315 
  2.568135943572199   5.898022052162839   1.665031387624740 
  1.220996596217254   7.997020827126641   1.665382893934605 
 -0.044107674561717  10.145221805465932   1.666501168924890 
 -1.279962819619884  12.309134385528990   1.666168173280605 
 -0.004766034128408  14.460420196296564   1.665206880594960 
  7.523770299058275   1.451883765606714   1.664937094479435 
  6.297179861139619   3.637212909611014   1.665981523491795 
  5.219246580150987   6.021153844904462   1.666160486657040 
  2.448839968490391  10.123708941448479   1.665382888999575 
  1.232849386656179  12.292747283699452   1.665868041874890 
  2.512205493920538  14.437007533655608   1.665277404106860 
 10.038500347646035   1.426653249690196   1.665207090730635 
  8.805945790161513   3.587770988583532   1.664984198037060 
  7.591894248246028   5.736573803676451   1.665668047522950 
  6.159117159522394   7.649054454964839   1.666160484046965 
  4.940196093021437  10.006548937415925   1.665031351414770 
  3.746261844310395  12.251383697119662   1.665286999584030 
  5.013025003110332  14.426866040104269   1.665761492140920 
 12.543302397341844   1.425245748379660   1.665893961164430 
 11.302708051470839   3.594132673912424   1.665284841059910 
 10.059837326445212   5.759574601232384   1.664984099382105 
  8.762638383596272   7.907509386276408   1.665981414981780 
  7.415760752348306   9.988531089464775   1.665967714821240 
  6.223148925552904  12.221559546312395   1.665224695961550 
  8.749612896076336  13.707553872721560   1.664856370055370 
 16.292427657271006   0.713317696905226   1.664935078742460 
 15.052463290691104   2.884668754869119   1.665679785993885 
 13.798742956561517   5.051597819072003   1.665189939986580 
 12.526491149459545   7.220539682962060   1.664611257399825 
 11.243942904430753   9.387348133679019   1.664831307590430 
  9.984585562236536  11.545351462103168   1.664939395917900 
 -6.276189237377813  13.743315196149887   1.664528586147180 
  1.267681498547886   0.748468904835110   1.664856527660400 
  0.034216247821725   2.917638806601866   1.665032727365175 
 -1.228791915453508   5.069530886586223   1.665164456444475 
 -2.510179204928680   7.232968562418358   1.665119842028910 
 -3.783194781779628   9.402969059834906   1.665307437906165 
 -5.037135332156202  11.572260715089270   1.664851552777230 
 -3.776474675929670  13.755788559859454   1.664851538932200 
  3.757690096811174   0.760053180335275   1.664939242812855 
  2.555410201102322   2.978080799365479   1.665371366818920 
  1.297594601776352   5.123783721862671   1.664816962673535 
 -0.018264937530137   7.249939671887677   1.665497052143145 
 -1.292337650317513   9.414295379494479   1.666186777140255 
 -2.535864222473042  11.583836366732710   1.665783503578170 
 -1.270842884817304  13.754489573387730   1.665307298646135 
  6.256255092148602   0.748417169906888   1.664831390990490 
  5.029130115581604   2.945361793226944   1.665798013477635 
  3.876153268229756   5.249754844723719   1.665639691540845 
  2.473850395912757   7.333933199842416   1.663914156541935 
  1.183705847828839   9.436342651913591   1.665709354712295 
 -0.035222544730415  11.591684437375925   1.666186880370210 
  1.244941210860104  13.737028723090955   1.665119921048895 
  8.774040288375900   0.721100716720977   1.664611527354765 
  7.544149334620484   2.886202268762247   1.665005924410695 
  6.334624864240055   5.059868891664398   1.665981135700800 
  3.712259333439694   7.976479429541415   1.663190463842355 
  3.649516703334073   9.370245555897762   1.663914209536875 
  2.476200143434758  11.570482260835940   1.665496976738190 
  3.759226638391518  13.709033329234240   1.665164437019475 
 11.288524779415514   0.703771241243458   1.665189980651550 
 10.055190116137819   2.865800200887733   1.664876850596685 
  8.833964311389828   5.019463902345581   1.664718719323995 
  7.549271875872146   7.163753117496303   1.665981063055770 
  6.155622596532775   9.197907071651132   1.665639711160890 
  4.975434078816583  11.493989969366378   1.664816890898520 
  6.254323332715241  13.691181059945299   1.665032752460190 
 13.792000616073842   0.701483765985232   1.665679837983870 
 12.552518400162493   2.872554678754327   1.665744285075855 
 11.309703421572538   5.038681438147398   1.664876767856685 
 10.036515361675171   7.203106645982830   1.665005634475695 
  8.727773713704138   9.351597919538220   1.665798004027590 
  7.462576916077044  11.477541833204173   1.665371438098860 
