 B Ga N 
 1.0
 17.527899999999772   0.000000000000000   0.000000000000000
 -8.763949999999658  15.179606674993195   0.000000000000000
  0.000000000000001   0.000000000000002  15.000000000000000
 B Ga N 
  49   1  48
Cartesian
  7.509319632473732  14.454776400028310   1.813249472756820 
 15.019713987145961   1.443032702230219   1.802075926091070 
 13.767344827568065   3.611926377182129   1.801821856746690 
 12.516313576735481   5.781347158765473   1.812013797712620 
 11.275136209527783   7.952089472700266   1.830921133462830 
 10.024449693618871  10.124535770536259   1.830367409356650 
  8.768668988051104  12.294127158288916   1.833018176588190 
 -7.512203383455773  14.457786303153386   1.832561512018680 
 -0.003824706739066   1.443868976250759   1.801233596285520 
 -1.256952151735298   3.611257568420029   1.781228269193940 
 -2.507810318235024   5.780301993944038   1.799371714863945 
 -3.755438538822978   7.950422910473787   1.830037371838365 
 -5.003106781568656  10.119737783328796   1.850351673836460 
 -6.256499827228311  12.291164107376503   1.851499046130480 
 -5.007619383118485  14.457881534454376   1.806834169691340 
  2.500171191015676   1.441465699479993   1.758875336810910 
  1.245219481310996   3.610590145176346   1.689881170401525 
 -0.006611325291374   5.778654903857628   1.688722149792705 
 -1.257747061360202   7.949731735063120   1.756237542477045 
 -2.502938770503681  10.119737783328796   1.804138313857575 
 -3.754474432841245  12.288990443308052   1.822681263942870 
 -2.504049939968702  14.456879504044799   1.777005928731675 
  5.008526532761466   1.444715357529113   1.697308431319935 
  3.742344584071620   3.594439864193478   1.547967047105865 
  2.483779361345370   5.771332186753316   1.397129258344665 
  1.227984441058629   7.949426387786445   1.547066410062210 
  0.000000000000152  10.119737783328796   1.693019080041450 
 -1.251721956939999  12.287783809698755   1.773673432092840 
 -0.001137698204852  14.456218132647555   1.761144804493470 
  7.510498647589880   1.444971260179414   1.711476637574550 
  6.263867002991541   3.604741436543593   1.506597630232200 
  4.979778113848750   5.594531444092453   0.918948666582795 
  3.578982050958892   8.020944498007134   0.918102085675815 
  2.498201633509047  10.127886880440109   1.503661815594870 
  1.250921256650829  12.287592219432058   1.707138936339615 
  2.502813100201069  14.453929689297512   1.745969809237725 
 10.012574365602486   1.446187437417285   1.747788832635480 
  8.760350627028883   3.617703398574585   1.653676152212730 
  7.518578914853090   5.794298997278271   1.403600500629720 
  6.440865844175216   8.055592334855710   1.005046403119965 
  5.021802249832731  10.119737783328796   1.402636789331595 
  3.757548237651270  12.283808659483086   1.651275961189065 
  5.005855253412566  14.453395416662270   1.761333394137315 
 12.516150361809963   1.443341753673603   1.777396050583305 
 11.263695451941214   3.613745485356139   1.761536927804430 
 10.012388220392049   5.784601196454975   1.722675631681095 
  8.789131295282722   7.958572167936357   1.681659469326390 
  7.531109775439722  10.137895792231131   1.682289258000195 
  6.260087552832229  12.284697539536483   1.723345008812445 
  5.099282286432700   7.281345852391877  14.577863380653165 
  8.764103850895459  13.737326729056520   1.837781865724755 
 16.272082407945433   0.721015905300313   1.814527493038680 
 15.019383674313003   2.888815484163409   1.803070802929680 
 13.766667645378760   5.059868891664398   1.813461652075575 
 12.522701420951273   7.226714086442076   1.835585462442390 
 11.274202693468997   9.398090729775555   1.852259614057980 
 10.020404721715281  11.570133454202317   1.853630308261305 
 -6.258972938594821  13.736552097482132   1.838807878994595 
  1.249130216084790   0.722449365744340   1.808570275616940 
 -0.004324544580944   2.889784619420284   1.769317038218805 
 -1.257418100823962   5.059868891664398   1.768187369918355 
 -2.505997488230766   7.226018228082979   1.805916867546390 
 -3.753183430818877   9.396285387904658   1.836619144843605 
 -5.005086266311307  11.566889195986588   1.847598027787515 
 -3.755564923185491  13.734830957324887   1.806851317638525 
  3.755019068673992   0.723591262672565   1.762203410226690 
  2.495983775948591   2.884676230444915   1.687354292985255 
  1.246024697228193   5.056486366834163   1.608734664600390 
 -0.009877805592546   7.224759123645384   1.685789184044910 
 -1.251779749518971   9.395528326233498   1.758504576116970 
 -2.502839512179633  11.565234710803654   1.804516177853865 
 -1.252439904363733  13.733624887967727   1.777648467000750 
  6.258687746896985   0.723051182202850   1.733255994394455 
  5.005418377495003   2.887355402049159   1.577512533911625 
  3.728080303558064   5.026203257302015   1.321404771823200 
  2.460970877775127   7.221317461991474   1.321505285097420 
  1.247491264716886   9.396774224313281   1.574734082814840 
 -0.000289326691439  11.564268454023413   1.727726481778290 
  1.250769676146717  13.732249097815400   1.746211066106205 
  8.761668084644688   0.722673785694868   1.748949772607160 
  7.510827901895459   2.890365038183107   1.637163999919050 
  6.268750218094942   5.041860015757630   1.268832234498420 
  3.745284551727116   9.413619770770458   1.267875730448340 
  2.502884864238557  11.565223770051292   1.633182206187615 
  3.755235219862244  13.728586147670571   1.725872405131425 
 11.264454179119411   0.720938303224831   1.763663123506125 
 10.010510577039071   2.893362983752796   1.727935413474180 
  8.755296220860441   5.066679152133192   1.607554219900350 
  7.560715818140626   7.250038993870451   1.420432802889885 
  6.303310954963741   9.428408244905347   1.420308801009450 
  5.009904980175459  11.554970819053899   1.606519445094465 
  6.257085970236874  13.729961707888741   1.776531926162310 
 13.768097722979928   0.719658526825585   1.786190877607065 
 12.515136446132814   2.889506900703130   1.786184449284225 
 11.262182745164994   5.059868891664398   1.775622444880770 
 10.027175416325541   7.228712739502487   1.778669620217610 
  8.777691685456510   9.404762980931668   1.752866599545945 
  7.518060395971006  11.575128137120213   1.780303182428100 
