B C N                                   
   1.0000000000000000     
     8.7639499999999995  -15.1796066749929999    0.0000000000000000
     8.7639499999999995   15.1796066749929999    0.0000000000000000
     0.0000000000000000    0.0000000000000000   15.0000000000000000
   B    C    N 
    47     3    48
Selective dynamics
Direct
  0.9047356437142976  0.9523009441041279  0.1110090341715984   T   T   T
  0.9047944547326650  0.0952219835028546  0.1110331634928611   T   T   T
  0.9047760263285918  0.2381165892658618  0.1110396745490828   T   T   T
  0.9047051520642908  0.3809901835863093  0.1109924730492350   T   T   T
  0.9052576508577228  0.5239024360889314  0.1109943828251364   T   T   T
  0.9053769226903202  0.6669680628064508  0.1110489891097264   T   T   T
  0.9052359060899221  0.8098942977632189  0.1110388249403764   T   T   T
  0.0478003625772726  0.9525386840506291  0.1110029253460743   T   T   T
  0.0478030339775715  0.0953983942476014  0.1110054335171193   T   T   T
  0.0477331796420655  0.2381185941353315  0.1109945234462486   T   T   T
  0.0477456511368553  0.3809172801366613  0.1110141442364654   T   T   T
  0.0477857190627949  0.5238136157993170  0.1110004107301969   T   T   T
  0.0477681395305301  0.6667163590578685  0.1110107542143156   T   T   T
  0.0477761132642833  0.8095993058133240  0.1109931451769350   T   T   T
  0.1903169946165679  0.9521235983713245  0.1109900157616461   T   T   T
  0.1905355803609368  0.0952402899014424  0.1110311675964414   T   T   T
  0.1909170198241394  0.2386209755060752  0.1110042766886657   T   T   T
  0.1906881802151433  0.3806823305821366  0.1109930287572776   T   T   T
  0.1904386409821916  0.5238157854035902  0.1110502886121103   T   T   T
  0.1903562438341533  0.6667141417927526  0.1110535869363631   T   T   T
  0.1904541314431977  0.8094979924313227  0.1109946572145296   T   T   T
  0.3332360382041494  0.9521351264687430  0.1110139445789690   T   T   T
  0.3327463132816021  0.0941024022975752  0.1110566506589773   T   T   T
  0.3330944189442628  0.2365026568025526  0.1110503065444852   T   T   T
  0.3347178634963073  0.3820695190249503  0.1110303556379661   T   T   T
  0.3326614770809774  0.5247211569904969  0.1110454048414377   T   T   T
  0.3328885951936262  0.6670559650385097  0.1110752153760774   T   T   T
  0.3332540336821400  0.8096039009192055  0.1110538960000495   T   T   T
  0.4761383304019463  0.9523438828126908  0.1110029229706879   T   T   T
  0.4760365133844046  0.0953008426394868  0.1109868574041689   T   T   T
  0.4748607489996665  0.2372390055504970  0.1110186127463080   T   T   T
  0.4753289296363033  0.6663298790605182  0.1110491536551604   T   T   T
  0.4760750025807116  0.8093091118406648  0.1110466492616335   T   T   T
  0.6189444028691528  0.9522343756469148  0.1110106138460425   T   T   T
  0.6189127011367276  0.0952931322170774  0.1109950487256358   T   T   T
  0.6187073108040528  0.2382812842431759  0.1110023185297798   T   T   T
  0.6193490746728992  0.3826013277128449  0.1110145910938461   T   T   T
  0.6219225660695801  0.5251945589717392  0.1110751260534997   T   T   T
  0.6188923491146000  0.6652491002812192  0.1110181813254526   T   T   T
  0.6188303052102031  0.8091705810844129  0.1109970593058713   T   T   T
  0.7618198552154957  0.9521945961435411  0.1109979122908631   T   T   T
  0.7618364183082350  0.0952057322434372  0.1110393188652234   T   T   T
  0.7617642280586377  0.2381876956561135  0.1110473963748358   T   T   T
  0.7616831431234071  0.3812227482663077  0.1110045851515746   T   T   T
  0.7633594471508011  0.5243936617190726  0.1110212317352193   T   T   T
  0.7631638475035676  0.6674624669235052  0.1110337988263121   T   T   T
  0.7616939080496635  0.8090277695020777  0.1110031869117225   T   T   T
  0.4733226448949894  0.3776078674820298  0.1112046706390628   T   T   T
  0.4726317154369525  0.5242811307335123  0.1112140241456210   T   T   T
  0.5218444828123322  0.4752568521896789  0.1112751941999167   T   T   T
  0.9525731248411746  0.9049733076540080  0.1110019692810698   T   T   T
  0.9525197015727113  0.0476666333243565  0.1109985102378080   T   T   T
  0.9525568246706513  0.1905499213067082  0.1110090500537325   T   T   T
  0.9524864569777644  0.3334045852469917  0.1110024747775040   T   T   T
  0.9525716474184186  0.4761538798032030  0.1109580785438562   T   T   T
  0.9525727294147837  0.6190554432351622  0.1110027940113920   T   T   T
  0.9525864676527986  0.7620725149696917  0.1110166157354325   T   T   T
  0.0953443206588678  0.9048840034329522  0.1109677195491945   T   T   T
  0.0956456508198043  0.0479984960102981  0.1109949367394233   T   T   T
  0.0959917302971586  0.1910073874780006  0.1109814787190744   T   T   T
  0.0958401814337489  0.3334539259799562  0.1109789820271020   T   T   T
  0.0956139860722848  0.4761713196739689  0.1110045146464837   T   T   T
  0.0953610270896857  0.6189970415110377  0.1110050178640396   T   T   T
  0.0953462042244370  0.7619430060740949  0.1109773725219725   T   T   T
  0.2381857063668829  0.9048320392145208  0.1109750263853310   T   T   T
  0.2381309166232414  0.0477045997089768  0.1110189208536114   T   T   T
  0.2390075694269966  0.1912473650636849  0.1110072685883491   T   T   T
  0.2400170128611541  0.3343634880501733  0.1109758751496477   T   T   T
  0.2387633072763028  0.4760914443800768  0.1110104411389268   T   T   T
  0.2381923031262871  0.6189290079483112  0.1110492061526977   T   T   T
  0.2381955445618924  0.7618819945508400  0.1110175146127216   T   T   T
  0.3810022961812170  0.9047550788160788  0.1110088078223106   T   T   T
  0.3809559710255183  0.0476528822280749  0.1110049097400333   T   T   T
  0.3806970370930233  0.1901452483490019  0.1110304695991522   T   T   T
  0.3844913486957225  0.3340343736843767  0.1110746849553364   T   T   T
  0.3835314953546772  0.4782755178730347  0.1110549095049569   T   T   T
  0.3807675142212139  0.6189428693672002  0.1110464675845497   T   T   T
  0.3809815138580185  0.7617879386551752  0.1110459309726647   T   T   T
  0.5236831675621789  0.9043947239521095  0.1109998551973639   T   T   T
  0.5236595322491444  0.0478219664046512  0.1109623577496180   T   T   T
  0.5233805666337161  0.1913027269386501  0.1109791100476937   T   T   T
  0.5205872843749567  0.3349095543994866  0.1110543014085163   T   T   T
  0.5207974858995370  0.6150192358040597  0.1110558974495498   T   T   T
  0.5235318058272701  0.7607879224855558  0.1110051683021259   T   T   T
  0.6663152233044405  0.9040935595781777  0.1109823537970005   T   T   T
  0.6664395199221788  0.0475195379906359  0.1109982778635056   T   T   T
  0.6662321816263691  0.1908181142642792  0.1110043129257771   T   T   T
  0.6652023922466729  0.3338676907880391  0.1109769725051815   T   T   T
  0.6679081527969059  0.4768876053254905  0.1110078366139408   T   T   T
  0.6679557969807406  0.6196806859920856  0.1109899149979797   T   T   T
  0.6651423794545276  0.7599248520656922  0.1109788107695258   T   T   T
  0.8090506821437243  0.9041603156857855  0.1109849636754820   T   T   T
  0.8093923902168001  0.0474173205482446  0.1110108736561200   T   T   T
  0.8093660643228408  0.1905378019544579  0.1110322530901969   T   T   T
  0.8090465382357651  0.3334579302083798  0.1110005986336493   T   T   T
  0.8098292952140067  0.4762068808998330  0.1109965942772250   T   T   T
  0.8100827965824758  0.6193409942722508  0.1110243048608117   T   T   T
  0.8098336086243376  0.7621889583375305  0.1110161663335961   T   T   T

  0.00000000E+00  0.00000000E+00  0.00000000E+00
  0.00000000E+00  0.00000000E+00  0.00000000E+00
  0.00000000E+00  0.00000000E+00  0.00000000E+00
  0.00000000E+00  0.00000000E+00  0.00000000E+00
  0.00000000E+00  0.00000000E+00  0.00000000E+00
  0.00000000E+00  0.00000000E+00  0.00000000E+00
  0.00000000E+00  0.00000000E+00  0.00000000E+00
  0.00000000E+00  0.00000000E+00  0.00000000E+00
  0.00000000E+00  0.00000000E+00  0.00000000E+00
  0.00000000E+00  0.00000000E+00  0.00000000E+00
  0.00000000E+00  0.00000000E+00  0.00000000E+00
  0.00000000E+00  0.00000000E+00  0.00000000E+00
  0.00000000E+00  0.00000000E+00  0.00000000E+00
  0.00000000E+00  0.00000000E+00  0.00000000E+00
  0.00000000E+00  0.00000000E+00  0.00000000E+00
  0.00000000E+00  0.00000000E+00  0.00000000E+00
  0.00000000E+00  0.00000000E+00  0.00000000E+00
  0.00000000E+00  0.00000000E+00  0.00000000E+00
  0.00000000E+00  0.00000000E+00  0.00000000E+00
  0.00000000E+00  0.00000000E+00  0.00000000E+00
  0.00000000E+00  0.00000000E+00  0.00000000E+00
  0.00000000E+00  0.00000000E+00  0.00000000E+00
  0.00000000E+00  0.00000000E+00  0.00000000E+00
  0.00000000E+00  0.00000000E+00  0.00000000E+00
  0.00000000E+00  0.00000000E+00  0.00000000E+00
  0.00000000E+00  0.00000000E+00  0.00000000E+00
  0.00000000E+00  0.00000000E+00  0.00000000E+00
  0.00000000E+00  0.00000000E+00  0.00000000E+00
  0.00000000E+00  0.00000000E+00  0.00000000E+00
  0.00000000E+00  0.00000000E+00  0.00000000E+00
  0.00000000E+00  0.00000000E+00  0.00000000E+00
  0.00000000E+00  0.00000000E+00  0.00000000E+00
  0.00000000E+00  0.00000000E+00  0.00000000E+00
  0.00000000E+00  0.00000000E+00  0.00000000E+00
  0.00000000E+00  0.00000000E+00  0.00000000E+00
  0.00000000E+00  0.00000000E+00  0.00000000E+00
  0.00000000E+00  0.00000000E+00  0.00000000E+00
  0.00000000E+00  0.00000000E+00  0.00000000E+00
  0.00000000E+00  0.00000000E+00  0.00000000E+00
  0.00000000E+00  0.00000000E+00  0.00000000E+00
  0.00000000E+00  0.00000000E+00  0.00000000E+00
  0.00000000E+00  0.00000000E+00  0.00000000E+00
  0.00000000E+00  0.00000000E+00  0.00000000E+00
  0.00000000E+00  0.00000000E+00  0.00000000E+00
  0.00000000E+00  0.00000000E+00  0.00000000E+00
  0.00000000E+00  0.00000000E+00  0.00000000E+00
  0.00000000E+00  0.00000000E+00  0.00000000E+00
  0.00000000E+00  0.00000000E+00  0.00000000E+00
  0.00000000E+00  0.00000000E+00  0.00000000E+00
  0.00000000E+00  0.00000000E+00  0.00000000E+00
  0.00000000E+00  0.00000000E+00  0.00000000E+00
  0.00000000E+00  0.00000000E+00  0.00000000E+00
  0.00000000E+00  0.00000000E+00  0.00000000E+00
  0.00000000E+00  0.00000000E+00  0.00000000E+00
  0.00000000E+00  0.00000000E+00  0.00000000E+00
  0.00000000E+00  0.00000000E+00  0.00000000E+00
  0.00000000E+00  0.00000000E+00  0.00000000E+00
  0.00000000E+00  0.00000000E+00  0.00000000E+00
  0.00000000E+00  0.00000000E+00  0.00000000E+00
  0.00000000E+00  0.00000000E+00  0.00000000E+00
  0.00000000E+00  0.00000000E+00  0.00000000E+00
  0.00000000E+00  0.00000000E+00  0.00000000E+00
  0.00000000E+00  0.00000000E+00  0.00000000E+00
  0.00000000E+00  0.00000000E+00  0.00000000E+00
  0.00000000E+00  0.00000000E+00  0.00000000E+00
  0.00000000E+00  0.00000000E+00  0.00000000E+00
  0.00000000E+00  0.00000000E+00  0.00000000E+00
  0.00000000E+00  0.00000000E+00  0.00000000E+00
  0.00000000E+00  0.00000000E+00  0.00000000E+00
  0.00000000E+00  0.00000000E+00  0.00000000E+00
  0.00000000E+00  0.00000000E+00  0.00000000E+00
  0.00000000E+00  0.00000000E+00  0.00000000E+00
  0.00000000E+00  0.00000000E+00  0.00000000E+00
  0.00000000E+00  0.00000000E+00  0.00000000E+00
  0.00000000E+00  0.00000000E+00  0.00000000E+00
  0.00000000E+00  0.00000000E+00  0.00000000E+00
  0.00000000E+00  0.00000000E+00  0.00000000E+00
  0.00000000E+00  0.00000000E+00  0.00000000E+00
  0.00000000E+00  0.00000000E+00  0.00000000E+00
  0.00000000E+00  0.00000000E+00  0.00000000E+00
  0.00000000E+00  0.00000000E+00  0.00000000E+00
  0.00000000E+00  0.00000000E+00  0.00000000E+00
  0.00000000E+00  0.00000000E+00  0.00000000E+00
  0.00000000E+00  0.00000000E+00  0.00000000E+00
  0.00000000E+00  0.00000000E+00  0.00000000E+00
  0.00000000E+00  0.00000000E+00  0.00000000E+00
  0.00000000E+00  0.00000000E+00  0.00000000E+00
  0.00000000E+00  0.00000000E+00  0.00000000E+00
  0.00000000E+00  0.00000000E+00  0.00000000E+00
  0.00000000E+00  0.00000000E+00  0.00000000E+00
  0.00000000E+00  0.00000000E+00  0.00000000E+00
  0.00000000E+00  0.00000000E+00  0.00000000E+00
  0.00000000E+00  0.00000000E+00  0.00000000E+00
  0.00000000E+00  0.00000000E+00  0.00000000E+00
  0.00000000E+00  0.00000000E+00  0.00000000E+00
  0.00000000E+00  0.00000000E+00  0.00000000E+00
  0.00000000E+00  0.00000000E+00  0.00000000E+00
  0.00000000E+00  0.00000000E+00  0.00000000E+00
