 N C B 
 1.0
 17.527899999999772   0.000000000000000   0.000000000000000
 -8.763949999999658  15.179606674993195   0.000000000000000
  0.000000000000001   0.000000000000002  15.000000000000000
 N C B 
  48   3  47
Cartesian
  8.765465655289379  13.737138861555449   1.665029539216050 
 16.277922086073133   0.723560745384848   1.664977653567120 
 15.026350784308626   2.892472857386733   1.665135750805995 
 13.773770702593779   5.059868891664398   1.665037121662560 
 12.523591783883969   7.227828612184608   1.664371178157840 
 11.271228592168590   9.397018138323336   1.665041910170880 
 10.018074928802907  11.567961035062789   1.665249236031495 
 -6.259172443809360  13.735783258605405   1.664515793237925 
  1.255810983894986   0.728598290427554   1.664924051091345 
  0.008554255987790   2.899417013934076   1.664722180786110 
 -1.241439550513965   5.059868891664398   1.664684730406530 
 -2.497229250580136   7.228093342563298   1.665067719697260 
 -3.753380575225164   9.396131623121992   1.665075267960600 
 -5.006411675057317  11.565995140966713   1.664660587829580 
 -3.755007507445758  13.734994462208448   1.664625395779965 
  3.755854166860979   0.724137060170266   1.665283812804165 
  2.513218431109590   2.903059779295573   1.665109028825235 
  1.276649308631767   5.075506235080414   1.664638127244720 
  0.012577759633643   7.226880867018968   1.665156617083905 
 -1.249252009241197   9.395098900399098   1.665738092290470 
 -2.502028020617242  11.565069010041061   1.665262719190830 
 -1.251058125755200  13.733826233630547   1.665132117334665 
  6.259730687335368   0.723352009151952   1.665073646100495 
  5.006396147194540   2.886330081056750   1.665457043987280 
  3.811865361552576   5.070510408456540   1.666120274330040 
  2.530918972563933   7.260034243591350   1.665823642574355 
  1.249670552527469   9.395309311285791   1.665697013768250 
  0.001534471775105  11.563641278539402   1.665688964589975 
  1.252996051733213  13.728356188532077   1.664997827960460 
  8.759542592837626   0.725918640447341   1.664435366244270 
  7.497194700145075   2.903900150782332   1.664686650715410 
  6.189671272516421   5.083795307481449   1.665814521127740 
  3.738488421473595   9.335750097060524   1.665838461743250 
  2.508905826092658  11.548461426415953   1.665077524531890 
  3.755675851092879  13.723784631791270   1.664735306955000 
 11.264826406270791   0.721327896075251   1.664974167952590 
 10.005330643822319   2.896543920995664   1.665064693886655 
  8.733601262378587   5.067980227650681   1.664654587577730 
  7.527608182716561   7.238966277020344   1.665117549209115 
  6.277011865898447   9.406509077449831   1.664848724969700 
  4.998605705580007  11.535360356909596   1.664682161542890 
  6.256943652892668  13.724797963247896   1.664774455132230 
 13.771385850062089   0.719776275504432   1.665163104841800 
 12.516623669405432   2.892288890386422   1.665483796352955 
 11.259570150875929   5.059868891664398   1.665008979504735 
 10.021153609719480   7.228633147984795   1.664948914158375 
  8.771176743465713   9.401352690751983   1.665364572912180 
  7.514896587184404  11.569728599586496   1.665242495003940 
  4.987015517235762   5.731938905760169   1.668070059585945 
  3.689467829315459   7.958381351655399   1.668210362184315 
  4.981710620538578   7.214212085834705   1.669127912998755 
  7.512198030378590  14.455553767725343   1.665135512573970 
 15.024626020788657   1.445432256386030   1.665497452392915 
 13.771981829388251   3.614516167846692   1.665595118236245 
 12.518602515426378   5.783281133873619   1.664887095738525 
 11.275810823707468   7.952632915900732   1.664915742377040 
 10.024081409191083  10.124312858184085   1.665734836645890 
  8.769011307471651  12.293876888365485   1.665582374105640 
 -7.510161424867012  14.459162566604162   1.665043880191110 
  0.001820041989226   1.448110102104517   1.665081502756785 
 -1.250197053624121   3.614546600976681   1.664917851693735 
 -2.501458998691890   5.782174488182712   1.665212163546975 
 -3.753093033023492   7.951284658839633   1.665006160952955 
 -5.005358160455939  10.119737783328796   1.665161313214740 
 -6.257872900497389  12.289399026593790   1.664897177654025 
 -5.008506360006350  14.452861729255904   1.664850236424690 
  2.505007460326715   1.445710140316216   1.665467513946615 
  1.255112133489098   3.622172552585404   1.665064150329990 
  0.006082442887772   5.778608046356573   1.664895431359170 
 -1.252705897215894   7.951317592579137   1.665754329181650 
 -2.506088127032498  10.119737783328796   1.665803804045445 
 -3.756138960245031  12.287861129304103   1.664919858217950 
 -2.501831308282158  14.453036721240421   1.665209168684535 
  5.007635355952715   1.428437454049165   1.665849759884655 
  3.765748206728418   3.590017307853659   1.665754598167275 
  2.518463078318263   5.799665021302570   1.665455334569490 
  1.232227120320893   7.965060777163101   1.665681072621570 
 -0.011207117104740  10.125647179492592   1.666128230641155 
 -1.252694774127342  12.289468778493708   1.665808440000750 
 -0.000589130323798  14.456205560432462   1.665043844560320 
  7.508708583100105   1.446629307062833   1.664802861062535 
  6.244160939696958   3.601194792223072   1.665279191194620 
  2.491836202179848  10.114625479934448   1.665737304827400 
  1.251850447018633  12.284993996229373   1.665699738924510 
  2.503461142599630  14.454543284727889   1.665159207690630 
 10.013095688160496   1.446512265883351   1.664925730884540 
  8.756354611999317   3.617016172823665   1.665034777946700 
  7.502789739950107   5.807737668011161   1.665218866407690 
  6.298217690710656   7.972246833037516   1.666126890802500 
  5.017673353636295  10.098219683162009   1.665272719881795 
  3.755265192599311  12.282891153837078   1.664955889588065 
  5.008116409359657  14.453939447512944   1.664968684362945 
 12.519014279369902   1.445185568660091   1.665589782978345 
 11.264662157643507   3.615595534882796   1.665710945622540 
 10.009688859684212   5.786811374242499   1.665068777273625 
  8.784328222091659   7.960089527754964   1.665318476028285 
  7.527051915663593  10.131817718219461   1.665506982394680 
  6.260615730376070  12.280723330188600   1.665047803675845 
