Species order:X N B                     
   2.51242800000000     
     5.9449720136058266    0.0000000000000000    0.0000000000000000
    -2.9724860068029120    5.1484967885702053   -0.0000000000000001
     0.0000000000000000    0.0000000000000009    5.3101128803662583
   P    N    B 
     2   143   143
Direct
  0.4272350982404228  0.3802842157868767  0.3750000000000000
  0.5710536768036956  0.4521935050685121  0.3750000000000000
  0.1111185934042346  0.0555469349477908  0.1252355453484283
  0.6111379108882455  0.5556371347687201  0.1234177075674292
  0.4444538589509442  0.0555512094118092  0.1252832557188343
  0.9444432870100262  0.5555608504041719  0.1252578319998036
  0.7778100284486019  0.0555716808909679  0.1250192815407759
  0.1111095400547720  0.7222214366940527  0.6248727471171838
  0.4444538589509442  0.7222359828724687  0.6247167442811656
  0.2777797051155418  0.2222229491200665  0.6246504585587631
  0.7777990550582021  0.7222504346713339  0.6249968078329631
  0.6111398116331365  0.2222081475564666  0.6250072570123791
  0.9444690262060786  0.2222368182217582  0.6249553997973675
  0.2777805490218816  0.7222299924047553  0.1251422731751406
  0.1111125359990543  0.2222229346661916  0.1252068458132134
  0.4444613369688893  0.2222260595739676  0.1251043879751749
  0.6111398116331365  0.7222649974099982  0.1249927429876208
  0.9444432870100262  0.7222157699391891  0.1252578319998036
  0.7778131709387049  0.2222239350111534  0.1250307461437852
  0.1111125245056208  0.8888770537697522  0.6248425899247936
  0.4444532885370691  0.8888933109351993  0.6248767101270097
  0.2777797051155418  0.3888900893288043  0.6246504585587631
  0.6111379108882455  0.3888341094528549  0.6265822924325720
  0.7778131709387049  0.8889225692608793  0.6249692538562159
  0.9444635341269007  0.3889016607076088  0.6248703459421908
  0.1111185934042346  0.3889049917897724  0.1252355453484283
  0.2777805490218816  0.8888838899504560  0.1251422731751406
  0.6111318078714383  0.8889102994542671  0.1251105928747318
  0.4444110829802099  0.3888722081567685  0.1234677256284664
  0.9444635341269007  0.8888952067526201  0.1251296540578093
  0.7777990550582021  0.3888819537201962  0.1250031921670372
  0.2777845578081528  0.5555706314733919  0.6246195797442821
  0.1111185934042346  0.0555469349477908  0.6247644546515714
  0.6111379108882455  0.5556371347687201  0.6265822924325720
  0.4444538589509442  0.0555512094118092  0.6247167442811656
  0.9444432870100262  0.5555608504041719  0.6247421680001960
  0.1111125245056208  0.5555688040691974  0.1251574100752083
  0.7778100284486019  0.0555716808909679  0.6249807184592259
  0.2777845578081528  0.0555472596680971  0.1253804202557183
  0.4444613369688893  0.5555686107282591  0.1251043879751749
  0.7777580705323818  0.5555457019328586  0.1250478531606156
  0.6111318078714383  0.0555548417505004  0.1251105928747318
  0.4444613369688893  0.5555686107282591  0.6248956120248250
  0.9444690262060786  0.0555655413176549  0.1250446002026304
  0.2777805490218816  0.7222299924047553  0.6248577268248586
  0.1111125359990543  0.2222229346661916  0.6247931541867866
  0.4444613369688893  0.2222260595739676  0.6248956120248250
  0.6111398116331365  0.7222649974099982  0.6250072570123791
  0.9444432870100262  0.7222157699391891  0.6247421680001960
  0.7778131709387049  0.2222239350111534  0.6249692538562159
  0.1111095400547720  0.7222214366940527  0.1251272528828160
  0.4444538589509442  0.7222359828724687  0.1252832557188343
  0.2777797051155418  0.2222229491200665  0.1253495414412373
  0.7777990550582021  0.7222504346713339  0.1250031921670372
  0.6111398116331365  0.2222081475564666  0.1249927429876208
  0.9444690262060786  0.2222368182217582  0.1250446002026304
  0.1111185934042346  0.3889049917897724  0.6247644546515714
  0.2777805490218816  0.8888838899504560  0.6248577268248586
  0.6111318078714383  0.8889102994542671  0.6248894071252686
  0.4444110829802099  0.3888722081567685  0.6265322743715331
  0.9444635341269007  0.8888952067526201  0.6248703459421908
  0.1111125245056208  0.8888770537697522  0.1251574100752083
  0.7777990550582021  0.3888819537201962  0.6249968078329631
  0.4444532885370691  0.8888933109351993  0.1251232898729901
  0.2777797051155418  0.3888900893288043  0.1253495414412373
  0.2777845578081528  0.5555706314733919  0.1253804202557183
  0.6111379108882455  0.3888341094528549  0.1234177075674292
  0.7778131709387049  0.8889225692608793  0.1250307461437852
  0.9444635341269007  0.3889016607076088  0.1251296540578093
  0.1111125245056208  0.5555688040691974  0.6248425899247936
  0.2777845578081528  0.0555472596680971  0.6246195797442821
  0.7777580705323818  0.5555457019328586  0.6249521468393834
  0.6111318078714383  0.0555548417505004  0.6248894071252686
  0.9444690262060786  0.0555655413176549  0.6249553997973675
  0.0545959594020484  0.1104958254371162  0.3750000000000000
  0.5555143978456474  0.6207116748968082  0.3750000000000000
  0.3869762879721651  0.1055467349813741  0.3750000000000000
  0.8912866253203372  0.6123099793268398  0.3750000000000000
  0.7226937276205947  0.1103459956137718  0.3750000000000000
  0.0555529381350964  0.7777791587525673  0.8750000000000000
  0.3888923390909244  0.7777792266585208  0.8750000000000000
  0.2222213592198816  0.2777773462766090  0.8750000000000000
  0.7222175840493190  0.7777762577007166  0.8750000000000000
  0.5555471576674321  0.2777690740065281  0.8750000000000000
  0.8888881109085776  0.2777768012657073  0.8750000000000000
  0.2215697554750435  0.7774515444041893  0.3750000000000000
  0.0545959594020484  0.2774334672982681  0.3750000000000000
  0.3768441399646652  0.2592139175206976  0.3750000000000000
  0.5552441372718623  0.7818380459386577  0.3750000000000000
  0.8925873380709799  0.7812468561843291  0.3750000000000000
  0.7238986611208315  0.2758349398040945  0.3750000000000000
  0.0555535396678068  0.9444473422548559  0.8750000000000000
  0.3888923390909244  0.9444464457657414  0.8750000000000000
  0.2222214417354396  0.4444409801927723  0.8750000000000000
  0.5555493162977075  0.4444413248155181  0.8750000000000000
  0.7222182114659272  0.9444427532127169  0.8750000000000000
  0.8888872394527680  0.4444418782532188  0.8750000000000000
  0.0549155487838704  0.4448072558464485  0.3750000000000000
  0.2210335014446001  0.9422768990865222  0.3750000000000000
  0.5552401910898154  0.9442867622115724  0.3750000000000000
  0.3768441399646651  0.4509635557773036  0.3750000000000000
  0.8895312203574377  0.9455944328623794  0.3750000000000000
  0.7316763237085198  0.4443354333612528  0.3750000000000000
  0.2222214783480533  0.6111072216864278  0.8750000000000000
  0.0555534757905346  0.1111111585552659  0.8750000000000000
  0.5555471576674321  0.6111114169942407  0.8750000000000000
  0.3888890040902914  0.1111111322244294  0.8750000000000000
  0.8888873300775322  0.6111103317054372  0.8750000000000000
  0.0559732766214075  0.6115762532303594  0.3750000000000000
  0.7222182114659272  0.1111087915865466  0.8750000000000000
  0.2170503807898554  0.1048011810400660  0.3750000000000000
  0.3869762879721651  0.6147628863241332  0.3750000000000000
  0.7316763237085198  0.6206742236806030  0.3750000000000000
  0.5552441372718623  0.1067394246665417  0.3750000000000000
  0.3888890040902914  0.6111112051992038  0.8750000000000000
  0.8889745503624169  0.1111539418478793  0.3750000000000000
  0.2222224418719016  0.7777778876026180  0.8750000000000000
  0.0555534757905346  0.2777756505686044  0.8750000000000000
  0.3888858021523888  0.2777727291762525  0.8750000000000000
  0.5555527633231410  0.7777780261180106  0.8750000000000000
  0.8888872394527680  0.7777786945328837  0.8750000000000000
  0.7222175840493190  0.2777746596819388  0.8750000000000000
  0.0559732766214075  0.7777303567243856  0.3750000000000000
  0.3878911214372368  0.7787310941805197  0.3750000000000000
  0.2199297597885691  0.2766315465609522  0.3750000000000000
  0.7238986611208315  0.7813970546500725  0.3750000000000000
  0.5555143978456474  0.2681360562821772  0.3750000000000000
  0.8895312203574377  0.2772701208283944  0.3750000000000000
  0.0555535396678068  0.4444395307462791  0.8750000000000000
  0.2222214783480533  0.9444475899949605  0.8750000000000000
  0.5555542841073281  0.9444438087203277  0.8750000000000000
  0.3888858021523888  0.4444464063094712  0.8750000000000000
  0.8888881109085776  0.9444446429762051  0.8750000000000000
  0.0549155487838704  0.9434416262707531  0.3750000000000000
  0.7222196722945183  0.4444434558259338  0.8750000000000000
  0.3878911214372368  0.9424933605900517  0.3750000000000000
  0.2170503807898554  0.4455825330831250  0.3750000000000000
  0.2210335014446001  0.6120899356914151  0.3750000000000000
  0.7226937276205947  0.9456810653401584  0.3750000000000000
  0.8925873380709799  0.4446738152199881  0.3750000000000000
  0.0555529381350964  0.6111071127158660  0.8750000000000000
  0.2222214417354396  0.1111137948760032  0.8750000000000000
  0.7222196722945183  0.6111095498019190  0.8750000000000000
  0.5555527633231410  0.1111080705384653  0.8750000000000000
  0.8888872044906185  0.1111102689119800  0.8750000000000000
  0.1074690653856765  0.0524907967109975  0.3750000000000000
  0.6244530423370035  0.5824522686411383  0.3750000000000000
  0.4441403367919377  0.0518470852436129  0.3750000000000000
  0.9459927620096931  0.5558023306349360  0.3750000000000000
  0.7784009214809654  0.0558671274071511  0.3750000000000000
  0.1111081595738006  0.7222207464535642  0.8750000000000000
  0.4444547030641773  0.7222498281287906  0.8750000000000000
  0.2777552746461817  0.2222008914433834  0.8750000000000000
  0.7777880355838338  0.7222404803662661  0.8750000000000000
  0.6111246039195302  0.2222056575676682  0.8750000000000000
  0.9444192414650839  0.2222068697965852  0.8750000000000000
  0.2770447929046075  0.7228070912222060  0.3750000000000000
  0.1084800463754311  0.2209066898543799  0.3750000000000000
  0.4435315142775454  0.2137400569366510  0.3750000000000000
  0.6126696680369971  0.7304059893483419  0.3750000000000000
  0.9459927620096931  0.7235237647080922  0.3750000000000000
  0.7790204305718104  0.2207592252800239  0.3750000000000000
  0.1110993816377201  0.8888804740181439  0.8750000000000000
  0.4444567970814717  0.8888950652074007  0.8750000000000000
  0.2777552746461817  0.3888877165361274  0.8750000000000000
  0.6111253739820773  0.3888889681893560  0.8750000000000000
  0.7777796633119413  0.8889033855073052  0.8750000000000000
  0.9444331945033576  0.3888743871112882  0.8750000000000000
  0.1074690653856766  0.3883116020080082  0.3750000000000000
  0.2770447929046075  0.8875710350157305  0.3750000000000000
  0.6119069843232608  0.8914641485171493  0.3750000000000000
  0.9454807562555556  0.8907076652585583  0.3750000000000000
  0.7840171220683816  0.3873330136209803  0.3750000000000000
  0.2777673655964643  0.5555685666367033  0.8750000000000000
  0.1110808300930353  0.0555366126866126  0.8750000000000000
  0.6111253739820773  0.5555697391260499  0.8750000000000000
  0.4444547030641773  0.0555382082687227  0.8750000000000000
  0.9444473264593118  0.5555526040490224  0.8750000000000000
  0.1104313726621004  0.5557878673756795  0.3750000000000000
  0.7777733076674876  0.0555533205004115  0.8750000000000000
  0.2754377516201628  0.0516276780771690  0.3750000000000000
  0.4435315142775454  0.5631247906742308  0.3750000000000000
  0.7819772822209324  0.5576553077771355  0.3750000000000000
  0.6119069843232608  0.0537761691394417  0.3750000000000000
  0.4444538627209823  0.5555860426629917  0.8750000000000000
  0.9440392235330797  0.0558294750862236  0.3750000000000000
  0.2777789001243433  0.7222310036133386  0.8750000000000000
  0.1110702795511342  0.2222018064422312  0.8750000000000000
  0.4444538627209823  0.2222011533913277  0.8750000000000000
  0.6111246039195302  0.7222522796851899  0.8750000000000000
  0.9444473264593118  0.7222280557436249  0.8750000000000000
  0.7777796633119413  0.2222096111379636  0.8750000000000000
  0.1110988568330371  0.7222160950831820  0.3750000000000000
  0.4441403367919377  0.7256265848816621  0.3750000000000000
  0.2673727521077409  0.2123281834044437  0.3750000000000000
  0.7840171220683816  0.7300174417807282  0.3750000000000000
  0.6126696680369971  0.2155970120219833  0.3750000000000000
  0.9440392235330797  0.2215430817801912  0.3750000000000000
  0.1110808300930353  0.3888775507397509  0.8750000000000000
  0.2777789001243433  0.8888812298443333  0.8750000000000000
  0.6111217937018015  0.8889066789277281  0.8750000000000000
  0.4444612285156949  0.3888972809245120  0.8750000000000000
  0.9444331945033576  0.8888921407253988  0.8750000000000000
  0.1104313726621004  0.8879768386197466  0.3750000000000000
  0.7777880355838338  0.3888808885508964  0.8750000000000000
  0.4442986284378248  0.8888159808855766  0.3750000000000000
  0.2673727521077404  0.3883779020366259  0.3750000000000000
  0.2754377516201628  0.5571434068763299  0.3750000000000000
  0.6244530423370035  0.3753341070291927  0.3750000000000000
  0.7790204305718104  0.8915945386251130  0.3750000000000000
  0.9454807562555556  0.3881064243303264  0.3750000000000000
  0.1110993816377201  0.5555522409529058  0.8750000000000000
  0.2777673655964643  0.0555321322930940  0.8750000000000000
  0.7777924480143044  0.5555628906738210  0.8750000000000000
  0.6111217937018015  0.0555484481074013  0.8750000000000000
  0.9444192414650839  0.0555457050018346  0.8750000000000000
  0.0554874071944001  0.1110497888929975  0.1248796413832528
  0.5556658727310556  0.6112370702612133  0.1239709880097516
  0.3888705585374948  0.1109903112481258  0.1249225056501044
  0.8889433268471968  0.6111383300902697  0.1249626448800829
  0.7222649516549680  0.1111057662858648  0.1248504852260109
  0.0555596214477091  0.7777568684530840  0.6250577938578922
  0.3888763007032511  0.7778184482319850  0.6250733773314088
  0.2220916773031798  0.2777125053182569  0.6252632063167924
  0.7223055114307102  0.7778862272339043  0.6253153735860126
  0.5556658727310556  0.2777621358031790  0.6260290119902483
  0.8889095770625010  0.2777807882053036  0.6251477982468102
  0.2221999159290756  0.7777666246312057  0.1248818533080239
  0.0554874071944001  0.2777709516347382  0.1248796413832528
  0.3888757354594601  0.2776966978618661  0.1237843064773861
  0.5555978195829044  0.7778754114767045  0.1248701371109276
  0.8889463594938900  0.7778165889107883  0.1248989142519741
  0.7223055114307102  0.2777526175301406  0.1246846264139861
  0.0555288402318931  0.9443827210762399  0.6250798620630519
  0.3888763007032511  0.9443911858046025  0.6250733773314088
  0.2221311531747867  0.4445014482567365  0.6250492316954422
  0.5557222657711536  0.4445277995522411  0.6267627318761412
  0.7222649516549680  0.9444925187024392  0.6251495147739891
  0.8889463594938900  0.4444631039164395  0.6251010857480260
  0.0555288402318931  0.4444794524889812  0.1249201379369473
  0.2221810047942868  0.9443480281044361  0.1249460332851917
  0.5555784160630503  0.9444558746981881  0.1248993042474732
  0.3888757354594601  0.4445123709309286  0.1237843064773861
  0.8889095770625010  0.9444621221905330  0.1248522017531912
  0.7223062289454102  0.4444415932522232  0.1240646072606107
  0.2221810047942868  0.6111663100231868  0.6250539667148097
  0.0554874071944001  0.1110497888929975  0.6251203586167468
  0.5556658727310556  0.6112370702612133  0.6260290119902483
  0.3888705585374948  0.1109903112481258  0.6250774943498962
  0.8889433268471968  0.6111383300902697  0.6250373551199185
  0.0555596214477091  0.6111360863279592  0.1249422061421082
  0.7222649516549680  0.1111057662858648  0.6251495147739891
  0.2221311531747867  0.1109630382513860  0.1249507683045580
  0.3888705585374948  0.6112135806227110  0.1249225056501044
  0.7223062289454102  0.6111979690265249  0.1240646072606107
  0.5555978195829044  0.1110557414395342  0.1248701371109276
  0.3888705585374948  0.6112135806227110  0.6250774943498962
  0.8888898269008064  0.1111115801170747  0.1248327644529376
  0.2221999159290756  0.7777666246312057  0.6251181466919757
  0.0554874071944001  0.2777709516347382  0.6251203586167468
  0.3888757354594601  0.2776966978618661  0.6262156935226129
  0.5555978195829044  0.7778754114767045  0.6251298628890714
  0.8889463594938900  0.7778165889107883  0.6251010857480260
  0.7223055114307102  0.2777526175301406  0.6253153735860126
  0.0555596214477091  0.7777568684530840  0.1249422061421082
  0.3888763007032511  0.7778184482319850  0.1249266226685909
  0.2220916773031798  0.2777125053182569  0.1247367936832086
  0.7223055114307102  0.7778862272339043  0.1246846264139861
  0.5556658727310556  0.2777621358031790  0.1239709880097516
  0.8889095770625010  0.2777807882053036  0.1248522017531912
  0.0555288402318931  0.4444794524889812  0.6250798620630519
  0.2221810047942868  0.9443480281044361  0.6250539667148097
  0.5555784160630503  0.9444558746981881  0.6251006957525258
  0.3888757354594601  0.4445123709309286  0.6262156935226129
  0.8889095770625010  0.9444621221905330  0.6251477982468102
  0.0555288402318931  0.9443827210762399  0.1249201379369473
  0.7223062289454102  0.4444415932522232  0.6259353927393891
  0.3888763007032511  0.9443911858046025  0.1249266226685909
  0.2221311531747867  0.4445014482567365  0.1249507683045580
  0.2221810047942868  0.6111663100231868  0.1249460332851917
  0.5557222657711536  0.4445277995522411  0.1232372681238592
  0.7222649516549680  0.9444925187024392  0.1248504852260109
  0.8889463594938900  0.4444631039164395  0.1248989142519741
  0.0555596214477091  0.6111360863279592  0.6250577938578922
  0.2221311531747867  0.1109630382513860  0.6250492316954422
  0.7223062289454102  0.6111979690265249  0.6259353927393891
  0.5555978195829044  0.1110557414395342  0.6251298628890714
  0.8888898269008064  0.1111115801170747  0.6251672355470622
 
  0.00000000E+00  0.00000000E+00  0.00000000E+00
  0.00000000E+00  0.00000000E+00  0.00000000E+00
  0.00000000E+00  0.00000000E+00  0.00000000E+00
  0.00000000E+00  0.00000000E+00  0.00000000E+00
  0.00000000E+00  0.00000000E+00  0.00000000E+00
  0.00000000E+00  0.00000000E+00  0.00000000E+00
  0.00000000E+00  0.00000000E+00  0.00000000E+00
  0.00000000E+00  0.00000000E+00  0.00000000E+00
  0.00000000E+00  0.00000000E+00  0.00000000E+00
  0.00000000E+00  0.00000000E+00  0.00000000E+00
  0.00000000E+00  0.00000000E+00  0.00000000E+00
  0.00000000E+00  0.00000000E+00  0.00000000E+00
  0.00000000E+00  0.00000000E+00  0.00000000E+00
  0.00000000E+00  0.00000000E+00  0.00000000E+00
  0.00000000E+00  0.00000000E+00  0.00000000E+00
  0.00000000E+00  0.00000000E+00  0.00000000E+00
  0.00000000E+00  0.00000000E+00  0.00000000E+00
  0.00000000E+00  0.00000000E+00  0.00000000E+00
  0.00000000E+00  0.00000000E+00  0.00000000E+00
  0.00000000E+00  0.00000000E+00  0.00000000E+00
  0.00000000E+00  0.00000000E+00  0.00000000E+00
  0.00000000E+00  0.00000000E+00  0.00000000E+00
  0.00000000E+00  0.00000000E+00  0.00000000E+00
  0.00000000E+00  0.00000000E+00  0.00000000E+00
  0.00000000E+00  0.00000000E+00  0.00000000E+00
  0.00000000E+00  0.00000000E+00  0.00000000E+00
  0.00000000E+00  0.00000000E+00  0.00000000E+00
  0.00000000E+00  0.00000000E+00  0.00000000E+00
  0.00000000E+00  0.00000000E+00  0.00000000E+00
  0.00000000E+00  0.00000000E+00  0.00000000E+00
  0.00000000E+00  0.00000000E+00  0.00000000E+00
  0.00000000E+00  0.00000000E+00  0.00000000E+00
  0.00000000E+00  0.00000000E+00  0.00000000E+00
  0.00000000E+00  0.00000000E+00  0.00000000E+00
  0.00000000E+00  0.00000000E+00  0.00000000E+00
  0.00000000E+00  0.00000000E+00  0.00000000E+00
  0.00000000E+00  0.00000000E+00  0.00000000E+00
  0.00000000E+00  0.00000000E+00  0.00000000E+00
  0.00000000E+00  0.00000000E+00  0.00000000E+00
  0.00000000E+00  0.00000000E+00  0.00000000E+00
  0.00000000E+00  0.00000000E+00  0.00000000E+00
  0.00000000E+00  0.00000000E+00  0.00000000E+00
  0.00000000E+00  0.00000000E+00  0.00000000E+00
  0.00000000E+00  0.00000000E+00  0.00000000E+00
  0.00000000E+00  0.00000000E+00  0.00000000E+00
  0.00000000E+00  0.00000000E+00  0.00000000E+00
  0.00000000E+00  0.00000000E+00  0.00000000E+00
  0.00000000E+00  0.00000000E+00  0.00000000E+00
  0.00000000E+00  0.00000000E+00  0.00000000E+00
  0.00000000E+00  0.00000000E+00  0.00000000E+00
  0.00000000E+00  0.00000000E+00  0.00000000E+00
  0.00000000E+00  0.00000000E+00  0.00000000E+00
  0.00000000E+00  0.00000000E+00  0.00000000E+00
  0.00000000E+00  0.00000000E+00  0.00000000E+00
  0.00000000E+00  0.00000000E+00  0.00000000E+00
  0.00000000E+00  0.00000000E+00  0.00000000E+00
  0.00000000E+00  0.00000000E+00  0.00000000E+00
  0.00000000E+00  0.00000000E+00  0.00000000E+00
  0.00000000E+00  0.00000000E+00  0.00000000E+00
  0.00000000E+00  0.00000000E+00  0.00000000E+00
  0.00000000E+00  0.00000000E+00  0.00000000E+00
  0.00000000E+00  0.00000000E+00  0.00000000E+00
  0.00000000E+00  0.00000000E+00  0.00000000E+00
  0.00000000E+00  0.00000000E+00  0.00000000E+00
  0.00000000E+00  0.00000000E+00  0.00000000E+00
  0.00000000E+00  0.00000000E+00  0.00000000E+00
  0.00000000E+00  0.00000000E+00  0.00000000E+00
  0.00000000E+00  0.00000000E+00  0.00000000E+00
  0.00000000E+00  0.00000000E+00  0.00000000E+00
  0.00000000E+00  0.00000000E+00  0.00000000E+00
  0.00000000E+00  0.00000000E+00  0.00000000E+00
  0.00000000E+00  0.00000000E+00  0.00000000E+00
  0.00000000E+00  0.00000000E+00  0.00000000E+00
  0.00000000E+00  0.00000000E+00  0.00000000E+00
  0.00000000E+00  0.00000000E+00  0.00000000E+00
  0.00000000E+00  0.00000000E+00  0.00000000E+00
  0.00000000E+00  0.00000000E+00  0.00000000E+00
  0.00000000E+00  0.00000000E+00  0.00000000E+00
  0.00000000E+00  0.00000000E+00  0.00000000E+00
  0.00000000E+00  0.00000000E+00  0.00000000E+00
  0.00000000E+00  0.00000000E+00  0.00000000E+00
  0.00000000E+00  0.00000000E+00  0.00000000E+00
  0.00000000E+00  0.00000000E+00  0.00000000E+00
  0.00000000E+00  0.00000000E+00  0.00000000E+00
  0.00000000E+00  0.00000000E+00  0.00000000E+00
  0.00000000E+00  0.00000000E+00  0.00000000E+00
  0.00000000E+00  0.00000000E+00  0.00000000E+00
  0.00000000E+00  0.00000000E+00  0.00000000E+00
  0.00000000E+00  0.00000000E+00  0.00000000E+00
  0.00000000E+00  0.00000000E+00  0.00000000E+00
  0.00000000E+00  0.00000000E+00  0.00000000E+00
  0.00000000E+00  0.00000000E+00  0.00000000E+00
  0.00000000E+00  0.00000000E+00  0.00000000E+00
  0.00000000E+00  0.00000000E+00  0.00000000E+00
  0.00000000E+00  0.00000000E+00  0.00000000E+00
  0.00000000E+00  0.00000000E+00  0.00000000E+00
  0.00000000E+00  0.00000000E+00  0.00000000E+00
  0.00000000E+00  0.00000000E+00  0.00000000E+00
  0.00000000E+00  0.00000000E+00  0.00000000E+00
  0.00000000E+00  0.00000000E+00  0.00000000E+00
  0.00000000E+00  0.00000000E+00  0.00000000E+00
  0.00000000E+00  0.00000000E+00  0.00000000E+00
  0.00000000E+00  0.00000000E+00  0.00000000E+00
  0.00000000E+00  0.00000000E+00  0.00000000E+00
  0.00000000E+00  0.00000000E+00  0.00000000E+00
  0.00000000E+00  0.00000000E+00  0.00000000E+00
  0.00000000E+00  0.00000000E+00  0.00000000E+00
  0.00000000E+00  0.00000000E+00  0.00000000E+00
  0.00000000E+00  0.00000000E+00  0.00000000E+00
  0.00000000E+00  0.00000000E+00  0.00000000E+00
  0.00000000E+00  0.00000000E+00  0.00000000E+00
  0.00000000E+00  0.00000000E+00  0.00000000E+00
  0.00000000E+00  0.00000000E+00  0.00000000E+00
  0.00000000E+00  0.00000000E+00  0.00000000E+00
  0.00000000E+00  0.00000000E+00  0.00000000E+00
  0.00000000E+00  0.00000000E+00  0.00000000E+00
  0.00000000E+00  0.00000000E+00  0.00000000E+00
  0.00000000E+00  0.00000000E+00  0.00000000E+00
  0.00000000E+00  0.00000000E+00  0.00000000E+00
  0.00000000E+00  0.00000000E+00  0.00000000E+00
  0.00000000E+00  0.00000000E+00  0.00000000E+00
  0.00000000E+00  0.00000000E+00  0.00000000E+00
  0.00000000E+00  0.00000000E+00  0.00000000E+00
  0.00000000E+00  0.00000000E+00  0.00000000E+00
  0.00000000E+00  0.00000000E+00  0.00000000E+00
  0.00000000E+00  0.00000000E+00  0.00000000E+00
  0.00000000E+00  0.00000000E+00  0.00000000E+00
  0.00000000E+00  0.00000000E+00  0.00000000E+00
  0.00000000E+00  0.00000000E+00  0.00000000E+00
  0.00000000E+00  0.00000000E+00  0.00000000E+00
  0.00000000E+00  0.00000000E+00  0.00000000E+00
  0.00000000E+00  0.00000000E+00  0.00000000E+00
  0.00000000E+00  0.00000000E+00  0.00000000E+00
  0.00000000E+00  0.00000000E+00  0.00000000E+00
  0.00000000E+00  0.00000000E+00  0.00000000E+00
  0.00000000E+00  0.00000000E+00  0.00000000E+00
  0.00000000E+00  0.00000000E+00  0.00000000E+00
  0.00000000E+00  0.00000000E+00  0.00000000E+00
  0.00000000E+00  0.00000000E+00  0.00000000E+00
  0.00000000E+00  0.00000000E+00  0.00000000E+00
  0.00000000E+00  0.00000000E+00  0.00000000E+00
  0.00000000E+00  0.00000000E+00  0.00000000E+00
  0.00000000E+00  0.00000000E+00  0.00000000E+00
  0.00000000E+00  0.00000000E+00  0.00000000E+00
  0.00000000E+00  0.00000000E+00  0.00000000E+00
  0.00000000E+00  0.00000000E+00  0.00000000E+00
  0.00000000E+00  0.00000000E+00  0.00000000E+00
  0.00000000E+00  0.00000000E+00  0.00000000E+00
  0.00000000E+00  0.00000000E+00  0.00000000E+00
  0.00000000E+00  0.00000000E+00  0.00000000E+00
  0.00000000E+00  0.00000000E+00  0.00000000E+00
  0.00000000E+00  0.00000000E+00  0.00000000E+00
  0.00000000E+00  0.00000000E+00  0.00000000E+00
  0.00000000E+00  0.00000000E+00  0.00000000E+00
  0.00000000E+00  0.00000000E+00  0.00000000E+00
  0.00000000E+00  0.00000000E+00  0.00000000E+00
  0.00000000E+00  0.00000000E+00  0.00000000E+00
  0.00000000E+00  0.00000000E+00  0.00000000E+00
  0.00000000E+00  0.00000000E+00  0.00000000E+00
  0.00000000E+00  0.00000000E+00  0.00000000E+00
  0.00000000E+00  0.00000000E+00  0.00000000E+00
  0.00000000E+00  0.00000000E+00  0.00000000E+00
  0.00000000E+00  0.00000000E+00  0.00000000E+00
  0.00000000E+00  0.00000000E+00  0.00000000E+00
  0.00000000E+00  0.00000000E+00  0.00000000E+00
  0.00000000E+00  0.00000000E+00  0.00000000E+00
  0.00000000E+00  0.00000000E+00  0.00000000E+00
  0.00000000E+00  0.00000000E+00  0.00000000E+00
  0.00000000E+00  0.00000000E+00  0.00000000E+00
  0.00000000E+00  0.00000000E+00  0.00000000E+00
  0.00000000E+00  0.00000000E+00  0.00000000E+00
  0.00000000E+00  0.00000000E+00  0.00000000E+00
  0.00000000E+00  0.00000000E+00  0.00000000E+00
  0.00000000E+00  0.00000000E+00  0.00000000E+00
  0.00000000E+00  0.00000000E+00  0.00000000E+00
  0.00000000E+00  0.00000000E+00  0.00000000E+00
  0.00000000E+00  0.00000000E+00  0.00000000E+00
  0.00000000E+00  0.00000000E+00  0.00000000E+00
  0.00000000E+00  0.00000000E+00  0.00000000E+00
  0.00000000E+00  0.00000000E+00  0.00000000E+00
  0.00000000E+00  0.00000000E+00  0.00000000E+00
  0.00000000E+00  0.00000000E+00  0.00000000E+00
  0.00000000E+00  0.00000000E+00  0.00000000E+00
  0.00000000E+00  0.00000000E+00  0.00000000E+00
  0.00000000E+00  0.00000000E+00  0.00000000E+00
  0.00000000E+00  0.00000000E+00  0.00000000E+00
  0.00000000E+00  0.00000000E+00  0.00000000E+00
  0.00000000E+00  0.00000000E+00  0.00000000E+00
  0.00000000E+00  0.00000000E+00  0.00000000E+00
  0.00000000E+00  0.00000000E+00  0.00000000E+00
  0.00000000E+00  0.00000000E+00  0.00000000E+00
  0.00000000E+00  0.00000000E+00  0.00000000E+00
  0.00000000E+00  0.00000000E+00  0.00000000E+00
  0.00000000E+00  0.00000000E+00  0.00000000E+00
  0.00000000E+00  0.00000000E+00  0.00000000E+00
  0.00000000E+00  0.00000000E+00  0.00000000E+00
  0.00000000E+00  0.00000000E+00  0.00000000E+00
  0.00000000E+00  0.00000000E+00  0.00000000E+00
  0.00000000E+00  0.00000000E+00  0.00000000E+00
  0.00000000E+00  0.00000000E+00  0.00000000E+00
  0.00000000E+00  0.00000000E+00  0.00000000E+00
  0.00000000E+00  0.00000000E+00  0.00000000E+00
  0.00000000E+00  0.00000000E+00  0.00000000E+00
  0.00000000E+00  0.00000000E+00  0.00000000E+00
  0.00000000E+00  0.00000000E+00  0.00000000E+00
  0.00000000E+00  0.00000000E+00  0.00000000E+00
  0.00000000E+00  0.00000000E+00  0.00000000E+00
  0.00000000E+00  0.00000000E+00  0.00000000E+00
  0.00000000E+00  0.00000000E+00  0.00000000E+00
  0.00000000E+00  0.00000000E+00  0.00000000E+00
  0.00000000E+00  0.00000000E+00  0.00000000E+00
  0.00000000E+00  0.00000000E+00  0.00000000E+00
  0.00000000E+00  0.00000000E+00  0.00000000E+00
  0.00000000E+00  0.00000000E+00  0.00000000E+00
  0.00000000E+00  0.00000000E+00  0.00000000E+00
  0.00000000E+00  0.00000000E+00  0.00000000E+00
  0.00000000E+00  0.00000000E+00  0.00000000E+00
  0.00000000E+00  0.00000000E+00  0.00000000E+00
  0.00000000E+00  0.00000000E+00  0.00000000E+00
  0.00000000E+00  0.00000000E+00  0.00000000E+00
  0.00000000E+00  0.00000000E+00  0.00000000E+00
  0.00000000E+00  0.00000000E+00  0.00000000E+00
  0.00000000E+00  0.00000000E+00  0.00000000E+00
  0.00000000E+00  0.00000000E+00  0.00000000E+00
  0.00000000E+00  0.00000000E+00  0.00000000E+00
  0.00000000E+00  0.00000000E+00  0.00000000E+00
  0.00000000E+00  0.00000000E+00  0.00000000E+00
  0.00000000E+00  0.00000000E+00  0.00000000E+00
  0.00000000E+00  0.00000000E+00  0.00000000E+00
  0.00000000E+00  0.00000000E+00  0.00000000E+00
  0.00000000E+00  0.00000000E+00  0.00000000E+00
  0.00000000E+00  0.00000000E+00  0.00000000E+00
  0.00000000E+00  0.00000000E+00  0.00000000E+00
  0.00000000E+00  0.00000000E+00  0.00000000E+00
  0.00000000E+00  0.00000000E+00  0.00000000E+00
  0.00000000E+00  0.00000000E+00  0.00000000E+00
  0.00000000E+00  0.00000000E+00  0.00000000E+00
  0.00000000E+00  0.00000000E+00  0.00000000E+00
  0.00000000E+00  0.00000000E+00  0.00000000E+00
  0.00000000E+00  0.00000000E+00  0.00000000E+00
  0.00000000E+00  0.00000000E+00  0.00000000E+00
  0.00000000E+00  0.00000000E+00  0.00000000E+00
  0.00000000E+00  0.00000000E+00  0.00000000E+00
  0.00000000E+00  0.00000000E+00  0.00000000E+00
  0.00000000E+00  0.00000000E+00  0.00000000E+00
  0.00000000E+00  0.00000000E+00  0.00000000E+00
  0.00000000E+00  0.00000000E+00  0.00000000E+00