 N P B 
 1.0
 14.936314146199660   0.000000000000000   0.000000000000000
 -7.468157073099825  12.935227489513863   0.000000000000000
  0.000000000000001   0.000000000000001  13.341276283792837
 N P B 
 143   2 143
Cartesian
  1.244868983450122   0.718512239894905   1.670802011044845 
  4.978562425579078   7.187292739855066   1.646549734969420 
  6.223637303293962   0.718567531059373   1.671438528278033 
  9.957485933567886   7.186305984245745   1.671099343418293 
 11.202596889262885   0.718832334299342   1.667916775836774 
 -3.734096135893180   9.342098581441112   8.336599961502966 
  1.244730696845780   9.342286739568026   8.334518684566595 
  2.489409049768317   2.874504400258719   8.333634348430346 
  6.223571336726406   9.342473676873976   8.338255089788138 
  7.468690864927567   2.874312938666366   8.338394495177667 
 12.447186610863252   2.874683800244180   8.337702653744884 
 -1.244709482287760   9.342209251505377   1.669557641211433 
  0.000015961930467   2.874504213294570   1.670419122616325 
  4.978995036172798   2.874544634687536   1.669052204291620 
  3.734187764741901   9.342662049211466   1.667562717666961 
  8.712880817475568   9.342025280677818   1.671099343418293 
  9.958058616126573   2.874517152984209   1.668069728273002 
 -4.978661884633443  11.497826900720590   8.336197626067348 
  0.000099073609356  11.498037190853980   8.336652833111970 
  1.244712667765111   5.030381773885448   8.333634348430346 
  6.224273618906206   5.029657661455214   8.359407477875221 
  4.979048495128491  11.498415653952613   8.337887484571640 
 11.202425357195558   5.030531452302658   8.336567926763978 
 -1.244701346629131   5.030574540608222   1.670802011044845 
 -2.489306966003340  11.497915328273153   1.669557641211433 
  2.489534926882063  11.498256941212835   1.669134985570923 
  3.733704813567307   5.030150476857383   1.647217039740895 
  7.468395019795246  11.498061713683599   1.669389286080649 
  8.713219515690191   5.030276537937338   1.667702123056489 
 -0.000011320658815   7.186432504601197   8.333222385635038 
  1.244868983450123   0.718512239894905   8.335155201799770 
  4.978562425579079   7.187292739855067   8.359407477875221 
  6.223637303293963   0.718567531059374   8.334518684566595 
  9.957485933567886   7.186305984245746   8.334857869426335 
 -2.489463522109721   7.186408866712218   1.669759586777307 
 11.202596889262885   0.718832334299342   8.338040437007880 
  3.734241760204121   0.718516440225933   1.672734827209589 
  2.489540505004740   7.186406365803203   1.669052204291620 
  7.467936307893681   7.186110035323193   1.668297957710936 
  8.713164382738793   0.718614516186660   1.669134985570923 
  2.489540505004741   7.186406365803204   8.336905008553009 
 13.691913886357209   0.718752917521850   1.668254559099705 
 -1.244709482287760   9.342209251505377   8.336399571633194 
  0.000015961930468   2.874504213294571   8.335538090228303 
  4.978995036172799   2.874544634687537   8.336905008553009 
  3.734187764741902   9.342662049211466   8.338394495177667 
  8.712880817475568   9.342025280677818   8.334857869426335 
  9.958058616126573   2.874517152984210   8.337887484571640 
 -3.734096135893180   9.342098581441112   1.669357251341662 
  1.244730696845780   9.342286739568026   1.671438528278033 
  2.489409049768317   2.874504400258718   1.672322864414283 
  6.223571336726406   9.342473676873976   1.667702123056489 
  7.468690864927567   2.874312938666365   1.667562717666961 
 12.447186610863252   2.874683800244179   1.668254559099705 
 -1.244701346629131   5.030574540608223   8.335155201799770 
 -2.489306966003340  11.497915328273153   8.336399571633194 
  2.489534926882064  11.498256941212835   8.336822227273718 
  3.733704813567307   5.030150476857384   8.358740173103721 
  7.468395019795247  11.498061713683599   8.336567926763978 
 -4.978661884633444  11.497826900720590   1.669759586777307 
  8.713219515690191   5.030276537937339   8.338255089788138 
  0.000099073609356  11.498037190853980   1.669304379732658 
  1.244712667765110   5.030381773885447   1.672322864414283 
 -0.000011320658816   7.186432504601196   1.672734827209589 
  6.224273618906205   5.029657661455213   1.646549734969420 
  4.979048495128490  11.498415653952613   1.668069728273002 
 11.202425357195558   5.030531452302657   1.669389286080649 
 -2.489463522109720   7.186408866712219   8.336197626067348 
  3.734241760204122   0.718516440225934   8.333222385635038 
  7.467936307893682   7.186110035323193   8.337659255133680 
  8.713164382738793   0.718614516186661   8.336822227273718 
 13.691913886357209   0.718752917521850   8.337702653744884 
 -0.009737779544049   1.429288638670709   5.002978606422314 
  3.661765273723290   8.029046720187383   5.002978606422314 
  4.991759808888741   1.365271027759504   5.002978606422314 
  8.739709927051358   7.920368876692207   5.002978606422314 
  9.970299319598023   1.427350555821040   5.002978606422314 
 -4.978820790017425  10.060750355067173  11.673616748318732 
  0.000040712832499  10.060751233446135  11.673616748318732 
  1.244683177961084   3.593113165521405  11.673616748318732 
  4.978713457033264  10.060712829301535  11.673616748318732 
  6.223403795218837   3.593006161826053  11.673616748318732 
 11.202231282236951   3.593106115681404  11.673616748318732 
 -2.496694777262626  10.056512588942073   5.002978606422314 
 -1.256454310376017   3.588665012707702   5.002978606422314 
  3.692812207088556   3.352990991578312   5.002978606422314 
  2.454411529332804  10.113252984173531   5.002978606422314 
  7.497490649498279  10.105605810211816   5.002978606422314 
  8.752399155808044   3.567987695922332   5.002978606422314 
 -6.223515978819203  12.216641223933324  11.673616748318732 
 -1.244656258396964  12.216629627642678  11.673616748318732 
  0.000014213979867   5.748945184456032  11.673616748318732 
  4.978701488430139   5.748949642229650  11.673616748318732 
  3.734031261018119  12.216581863629296  11.673616748318732 
  9.957537292356195   5.748956801072214  11.673616748318732 
 -2.501654565768938   5.753683043360201   5.002978606422314 
 -3.735646074320557  12.188566047797860   5.002978606422314 
  1.241160058468523  12.214564084543168   5.002978606422314 
  2.260795789878150   5.833316183459503   5.002978606422314 
  6.224469998046056  12.231479101892717   5.002978606422314 
  7.610180614761212   5.747579912179535   5.002978606422314 
 -1.244674909420454   7.904810932998727  11.673616748318732 
 -0.000031418344097   1.437248112535812  11.673616748318732 
  3.733950818671481   7.904865200259676  11.673616748318732 
  4.978772945073312   1.437247771940445  11.673616748318732 
  8.712832456444346   7.904851161802106  11.673616748318732 
 -3.731313077892727   7.910877962719232   5.002978606422314 
  9.957500180790898   1.437217495256971  11.673616748318732 
  2.459260991575950   1.355627117922981   5.002978606422314 
  1.188853606501645   7.952097786712812   5.002978606422314 
  6.293254830575892   8.028562280186012   5.002978606422314 
  7.496154072826097   1.380698740161549   5.002978606422314 
  1.244693863536318   7.904862460642692  11.673616748318732 
 12.447888055175486   1.437801524158510   5.002978606422314 
 -2.489383230465810  10.060733912453410  11.673616748318732 
 -1.244708023208096   3.593091231152605  11.673616748318732 
  3.734070135833055   3.593053442277959  11.673616748318732 
  2.489342130728899  10.060735704181528  11.673616748318732 
  7.468125590132639  10.060744350279968  11.673616748318732 
  8.712803927838415   3.593078413808177  11.673616748318732 
 -4.972178021126204  10.060119089730700   5.002978606422314 
 -0.022022484738763  10.073063856383072   5.002978606422314 
  1.219012141208579   3.578291985541961   5.002978606422314 
  4.976781871929756  10.107548661534778   5.002978606422314 
  6.294855373682692   3.468400886151053   5.002978606422314 
 11.215620936087236   3.586552088960273   5.002978606422314 
 -2.489379104696260   5.748926435535911  11.673616748318732 
 -3.734113138753518  12.216644428507927  11.673616748318732 
  1.244678602454053  12.216595516860361  11.673616748318732 
  2.489324935051056   5.749015372509918  11.673616748318732 
  6.223451124758503  12.216606308149915  11.673616748318732 
 -6.225534366143890  12.203632058889109   5.002978606422314 
  7.468126369736916   5.748977207334162  11.673616748318732 
 -1.245024812931967  12.191366026588742   5.002978606422314 
 -0.085747673064942   5.763711430784060   5.002978606422314 
 -1.269757968196036   7.917522562210365   5.002978606422314 
  3.731885810212580  12.232599712700766   5.002978606422314 
 10.011070985990839   5.751956958500598   5.002978606422314 
 -3.734087770520417   7.904809523439718  11.673616748318732 
  2.489353990659752   1.437282213944280  11.673616748318732 
  6.223437801164242   7.904841047702225  11.673616748318732 
  7.468138074913432   1.437208168335999  11.673616748318732 
 12.446909586140075   1.437236604797523  11.673616748318732 
  3.541295385684447   4.919062841874634   5.002978606422314 
  5.152384987795164   5.849225857341844   5.002978606422314 
  1.213182206869044   0.678980396562586   5.002978606422314 
  4.977181780100240   7.534152596656562   5.002978606422314 
  6.246617418941606   0.670653842294352   5.002978606422314 
  9.978825966631200   7.189429585964898   5.002978606422314 
 11.209216212231505   0.722654002197154   5.002978606422314 
 -3.734111600366246   9.342089653023365  11.673616748318732 
  1.244639906237274   9.342465831108203  11.673616748318732 
  2.489208878797354   2.874219079192935  11.673616748318732 
  6.223481086709321   9.342344915673424  11.673616748318732 
  7.468482313367164   2.874280730094805  11.673616748318732 
 12.446666669875349   2.874296410551616  11.673616748318732 
 -1.260008831405791   9.349674155993034   5.002978606422314 
 -0.029473807073312   2.857478287221890   5.002978606422314 
  5.028481712972843   2.764776260097227   5.002978606422314 
  3.696239974062152   9.447967631924243   5.002978606422314 
  8.726255952447314   9.358944490568671   5.002978606422314 
  9.987029307601226   2.855570799405951   5.002978606422314 
 -4.978883733589414  11.497871142411611  11.673616748318732 
  0.000138377150401  11.498059882763993  11.673616748318732 
  1.244365486988424   5.030351081272387  11.673616748318732 
  6.223676670076224   5.030367271691641  11.673616748318732 
  4.978691281973794  11.498167507736031  11.673616748318732 
 11.202175878548516   5.030178662129789  11.673616748318732 
 -1.294780315503885   5.022898908791153   5.002978606422314 
 -2.490491843639227  11.480933251031756   5.002978606422314 
  2.482040659942639  11.531291559815095   5.002978606422314 
  7.470052844254482  11.521506276773213   5.002978606422314 
  8.817662245894127   5.010240645386349   5.002978606422314 
 -0.000252688408746   7.186405795468896  11.673616748318732 
  1.244382027038666   0.718378719098362  11.673616748318732 
  4.978878491655621   7.186420961885329  11.673616748318732 
  6.223747005813083   0.718399358315933  11.673616748318732 
  9.957607853126941   7.186199315765920  11.673616748318732 
 -2.501273419207581   7.189242500416182   5.002978606422314 
 11.202185534421067   0.718594838470705  11.673616748318732 
  3.728461176721939   0.667815760683569   5.002978606422314 
  2.419221642477436   7.284147272356054   5.002978606422314 
  7.515200911315799   7.213398266832112   5.002978606422314 
  8.738026068182961   0.695606981333258   5.002978606422314 
  2.489298682863320   7.186631851844558  11.673616748318732 
 13.683523119771852   0.722166960860455   5.002978606422314 
 -1.244741662603936   9.342222331718451  11.673616748318732 
 -0.000457404755151   2.874230914911187  11.673616748318732 
  4.979069401742100   2.874222467549194  11.673616748318732 
  3.734055595520517   9.342497542547926  11.673616748318732 
  8.712849399641783   9.342184200353092  11.673616748318732 
  9.957665108621805   2.874331870425979  11.673616748318732 
 -3.734215811860099   9.342029486489334   5.002978606422314 
  1.214726283010050   9.386144947883340   5.002978606422314 
  2.407863194904852   2.746513354771706   5.002978606422314 
  6.258441109891736   9.442941680746660   5.002978606422314 
  7.540914279377287   2.788796396563806   5.002978606422314 
 12.445947875831420   2.865710161554745   5.002978606422314 
 -1.245060457236607   5.030219584383651  11.673616748318732 
 -2.489311728364619  11.497880919195309  11.673616748318732 
  2.489412390759348  11.498210108878423  11.673616748318732 
  3.734266555670572   5.030474798811944  11.673616748318732 
  7.467964755219810  11.498022053924009  11.673616748318732 
 -4.982112834409714  11.486182412965766   5.002978606422314 
  8.713062880210947   5.030262759730127  11.673616748318732 
 -0.001633465261788  11.497036909070344   5.002978606422314 
  1.093096243484673   5.023756514743887   5.002978606422314 
 -0.046809688872728   7.206776712228113   5.002978606422314 
  6.523972743709920   4.855032058996157   5.002978606422314 
  4.977125817357964  11.532978185523991   5.002978606422314 
 11.223557856641408   5.020244888854566   5.002978606422314 
 -2.489536132159390   7.186194619035060  11.673616748318732 
  3.734097945542094   0.718320764188951  11.673616748318732 
  7.468321412545833   7.186332375597796  11.673616748318732 
  8.713062556686129   0.718531812958689  11.673616748318732 
 13.691318426548317   0.718496330264165  11.673616748318732 
 -0.000559921373828   1.436454281993419   1.666053797914948 
  3.734785585821160   7.906490553852759   1.653931202212870 
  4.979399746530907   1.435684925126459   1.666625661941709 
  8.713459745451512   7.905213327279258   1.667161170498678 
  9.958220900358354   1.437178362304424   1.665664817565808 
 -4.978554498502954  10.060462024972550   8.339068721196165 
 -0.000491754435467  10.061258573421387   8.339276624621817 
  1.243230450575884   3.592274432974484   8.341809185562484 
  4.979205498276678  10.062135310230223   8.342505163514133 
  6.225228776295428   3.592916414587365   8.352026010631757 
 11.202522132364304   3.593157687652078   8.340269494615475 
 -2.489635571384684  10.060588223355987   1.666083307814437 
 -1.245659752138980   3.593030449374088   1.666053797914948 
  3.734487590343370   3.592069959930035   1.651440632312494 
  2.489287816023631  10.061995405950370   1.665926998791983 
  7.468725624472798  10.061234522678729   1.666310922581336 
  8.714281853080781   3.592793293560310   1.663452049330481 
 -6.223402296241095  12.215805334287284   8.339363139218293 
 -1.244483122724008  12.215914827474283   8.339276624621817 
 -0.001785949325444   5.749727352619256   8.338954491021335 
  4.980638909180246   5.750068212621257   8.361814770344369 
  3.734357730670824  12.217225591559975   8.340292395278819 
  9.958261811275815   5.749231359854592   8.339646290263293 
 -2.490046165075437   5.749442832359539   1.666594073626321 
 -3.733974120630252  12.215356572804710   1.666939550621723 
  1.244948934307779  12.216751593028864   1.666316125619038 
  2.488681941608739   5.749868639894736   1.651440632312494 
  6.223641212458888  12.216832405763585   1.665687718229166 
  7.469433117059113   5.748953114519494   1.655180202504062 
 -1.245720716114220   7.905575254076681   8.339017662222931 
 -0.000559921373827   1.436454281993420   8.339903414929680 
  3.734785585821160   7.906490553852760   8.352026010631757 
  4.979399746530908   1.435684925126460   8.339331550902919 
  8.713459745451512   7.905213327279259   8.338796042345976 
 -3.734204325949778   7.905184303703333   1.666888491648461 
  9.958220900358354   1.437178362304425   8.340292395278819 
  2.489131286506479   1.435332142709307   1.667002721823293 
  1.243653799221981   7.906186710035089   1.666625661941709 
  6.224070309835768   7.905984770486949   1.655180202504062 
  7.469201851293814   1.436531279537004   1.665926998791983 
  1.243653799221982   7.906186710035090   8.339331550902919 
 12.446938962996843   1.437253565533711   1.665428399836279 
 -2.489635571384684  10.060588223355987   8.339873905030190 
 -1.245659752138980   3.593030449374089   8.339903414929680 
  3.734487590343370   3.592069959930036   8.354516580532120 
  2.489287816023631  10.061995405950370   8.340030214052630 
  7.468725624472799  10.061234522678729   8.339646290263293 
  8.714281853080781   3.592793293560311   8.342505163514133 
 -4.978554498502955  10.060462024972550   1.666888491648461 
 -0.000491754435467  10.061258573421387   1.666680588222810 
  1.243230450575884   3.592274432974483   1.664148027282156 
  4.979205498276677  10.062135310230223   1.663452049330481 
  6.225228776295427   3.592916414587364   1.653931202212870 
 11.202522132364304   3.593157687652077   1.665687718229166 
 -2.490046165075436   5.749442832359540   8.339363139218293 
 -3.733974120630252  12.215356572804710   8.339017662222931 
  1.244948934307779  12.216751593028864   8.339641087225576 
  2.488681941608740   5.749868639894737   8.354516580532120 
  6.223641212458889  12.216832405763585   8.340269494615475 
 -6.223402296241096  12.215805334287284   1.666594073626321 
  7.469433117059114   5.748953114519495   8.350777010340567 
 -1.244483122724009  12.215914827474283   1.666680588222810 
 -0.001785949325444   5.749727352619256   1.667002721823293 
 -1.245720716114221   7.905575254076680   1.666939550621723 
  4.980638909180245   5.750068212621256   1.644142442500259 
  3.734357730670824  12.217225591559975   1.665664817565808 
  9.958261811275815   5.749231359854591   1.666310922581336 
 -3.734204325949778   7.905184303703334   8.339068721196165 
  2.489131286506480   1.435332142709307   8.338954491021335 
  6.224070309835769   7.905984770486950   8.350777010340567 
  7.469201851293815   1.436531279537005   8.340030214052630 
 12.446938962996843   1.437253565533712   8.340528813008348 
Generated by cif2cell 2.0.0.  :  Failed to get author information, No journal information. Species order: N P B 
 1.0
 14.936314146199660   0.000000000000000   0.000000000000000
 -7.468157073099825  12.935227489513863   0.000000000000000
  0.000000000000001   0.000000000000001  13.341276283792837
 N P B 
 143   2 143
Cartesian
  1.244868983450122   0.718512239894905   1.670802011044845 
  4.978562425579078   7.187292739855066   1.646549734969420 
  6.223637303293962   0.718567531059373   1.671438528278033 
  9.957485933567886   7.186305984245745   1.671099343418293 
 11.202596889262885   0.718832334299342   1.667916775836774 
 -3.734096135893180   9.342098581441112   8.336599961502966 
  1.244730696845780   9.342286739568026   8.334518684566595 
  2.489409049768317   2.874504400258719   8.333634348430346 
  6.223571336726406   9.342473676873976   8.338255089788138 
  7.468690864927567   2.874312938666366   8.338394495177667 
 12.447186610863252   2.874683800244180   8.337702653744884 
 -1.244709482287760   9.342209251505377   1.669557641211433 
  0.000015961930467   2.874504213294570   1.670419122616325 
  4.978995036172798   2.874544634687536   1.669052204291620 
  3.734187764741901   9.342662049211466   1.667562717666961 
  8.712880817475568   9.342025280677818   1.671099343418293 
  9.958058616126573   2.874517152984209   1.668069728273002 
 -4.978661884633443  11.497826900720590   8.336197626067348 
  0.000099073609356  11.498037190853980   8.336652833111970 
  1.244712667765111   5.030381773885448   8.333634348430346 
  6.224273618906206   5.029657661455214   8.359407477875221 
  4.979048495128491  11.498415653952613   8.337887484571640 
 11.202425357195558   5.030531452302658   8.336567926763978 
 -1.244701346629131   5.030574540608222   1.670802011044845 
 -2.489306966003340  11.497915328273153   1.669557641211433 
  2.489534926882063  11.498256941212835   1.669134985570923 
  3.733704813567307   5.030150476857383   1.647217039740895 
  7.468395019795246  11.498061713683599   1.669389286080649 
  8.713219515690191   5.030276537937338   1.667702123056489 
 -0.000011320658815   7.186432504601197   8.333222385635038 
  1.244868983450123   0.718512239894905   8.335155201799770 
  4.978562425579079   7.187292739855067   8.359407477875221 
  6.223637303293963   0.718567531059374   8.334518684566595 
  9.957485933567886   7.186305984245746   8.334857869426335 
 -2.489463522109721   7.186408866712218   1.669759586777307 
 11.202596889262885   0.718832334299342   8.338040437007880 
  3.734241760204121   0.718516440225933   1.672734827209589 
  2.489540505004740   7.186406365803203   1.669052204291620 
  7.467936307893681   7.186110035323193   1.668297957710936 
  8.713164382738793   0.718614516186660   1.669134985570923 
  2.489540505004741   7.186406365803204   8.336905008553009 
 13.691913886357209   0.718752917521850   1.668254559099705 
 -1.244709482287760   9.342209251505377   8.336399571633194 
  0.000015961930468   2.874504213294571   8.335538090228303 
  4.978995036172799   2.874544634687537   8.336905008553009 
  3.734187764741902   9.342662049211466   8.338394495177667 
  8.712880817475568   9.342025280677818   8.334857869426335 
  9.958058616126573   2.874517152984210   8.337887484571640 
 -3.734096135893180   9.342098581441112   1.669357251341662 
  1.244730696845780   9.342286739568026   1.671438528278033 
  2.489409049768317   2.874504400258718   1.672322864414283 
  6.223571336726406   9.342473676873976   1.667702123056489 
  7.468690864927567   2.874312938666365   1.667562717666961 
 12.447186610863252   2.874683800244179   1.668254559099705 
 -1.244701346629131   5.030574540608223   8.335155201799770 
 -2.489306966003340  11.497915328273153   8.336399571633194 
  2.489534926882064  11.498256941212835   8.336822227273718 
  3.733704813567307   5.030150476857384   8.358740173103721 
  7.468395019795247  11.498061713683599   8.336567926763978 
 -4.978661884633444  11.497826900720590   1.669759586777307 
  8.713219515690191   5.030276537937339   8.338255089788138 
  0.000099073609356  11.498037190853980   1.669304379732658 
  1.244712667765110   5.030381773885447   1.672322864414283 
 -0.000011320658816   7.186432504601196   1.672734827209589 
  6.224273618906205   5.029657661455213   1.646549734969420 
  4.979048495128490  11.498415653952613   1.668069728273002 
 11.202425357195558   5.030531452302657   1.669389286080649 
 -2.489463522109720   7.186408866712219   8.336197626067348 
  3.734241760204122   0.718516440225934   8.333222385635038 
  7.467936307893682   7.186110035323193   8.337659255133680 
  8.713164382738793   0.718614516186661   8.336822227273718 
 13.691913886357209   0.718752917521850   8.337702653744884 
 -0.009737779544049   1.429288638670709   5.002978606422314 
  3.661765273723290   8.029046720187383   5.002978606422314 
  4.991759808888741   1.365271027759504   5.002978606422314 
  8.739709927051358   7.920368876692207   5.002978606422314 
  9.970299319598023   1.427350555821040   5.002978606422314 
 -4.978820790017425  10.060750355067173  11.673616748318732 
  0.000040712832499  10.060751233446135  11.673616748318732 
  1.244683177961084   3.593113165521405  11.673616748318732 
  4.978713457033264  10.060712829301535  11.673616748318732 
  6.223403795218837   3.593006161826053  11.673616748318732 
 11.202231282236951   3.593106115681404  11.673616748318732 
 -2.496694777262626  10.056512588942073   5.002978606422314 
 -1.256454310376017   3.588665012707702   5.002978606422314 
  3.692812207088556   3.352990991578312   5.002978606422314 
  2.454411529332804  10.113252984173531   5.002978606422314 
  7.497490649498279  10.105605810211816   5.002978606422314 
  8.752399155808044   3.567987695922332   5.002978606422314 
 -6.223515978819203  12.216641223933324  11.673616748318732 
 -1.244656258396964  12.216629627642678  11.673616748318732 
  0.000014213979867   5.748945184456032  11.673616748318732 
  4.978701488430139   5.748949642229650  11.673616748318732 
  3.734031261018119  12.216581863629296  11.673616748318732 
  9.957537292356195   5.748956801072214  11.673616748318732 
 -2.501654565768938   5.753683043360201   5.002978606422314 
 -3.735646074320557  12.188566047797860   5.002978606422314 
  1.241160058468523  12.214564084543168   5.002978606422314 
  2.260795789878150   5.833316183459503   5.002978606422314 
  6.224469998046056  12.231479101892717   5.002978606422314 
  7.610180614761212   5.747579912179535   5.002978606422314 
 -1.244674909420454   7.904810932998727  11.673616748318732 
 -0.000031418344097   1.437248112535812  11.673616748318732 
  3.733950818671481   7.904865200259676  11.673616748318732 
  4.978772945073312   1.437247771940445  11.673616748318732 
  8.712832456444346   7.904851161802106  11.673616748318732 
 -3.731313077892727   7.910877962719232   5.002978606422314 
  9.957500180790898   1.437217495256971  11.673616748318732 
  2.459260991575950   1.355627117922981   5.002978606422314 
  1.188853606501645   7.952097786712812   5.002978606422314 
  6.293254830575892   8.028562280186012   5.002978606422314 
  7.496154072826097   1.380698740161549   5.002978606422314 
  1.244693863536318   7.904862460642692  11.673616748318732 
 12.447888055175486   1.437801524158510   5.002978606422314 
 -2.489383230465810  10.060733912453410  11.673616748318732 
 -1.244708023208096   3.593091231152605  11.673616748318732 
  3.734070135833055   3.593053442277959  11.673616748318732 
  2.489342130728899  10.060735704181528  11.673616748318732 
  7.468125590132639  10.060744350279968  11.673616748318732 
  8.712803927838415   3.593078413808177  11.673616748318732 
 -4.972178021126204  10.060119089730700   5.002978606422314 
 -0.022022484738763  10.073063856383072   5.002978606422314 
  1.219012141208579   3.578291985541961   5.002978606422314 
  4.976781871929756  10.107548661534778   5.002978606422314 
  6.294855373682692   3.468400886151053   5.002978606422314 
 11.215620936087236   3.586552088960273   5.002978606422314 
 -2.489379104696260   5.748926435535911  11.673616748318732 
 -3.734113138753518  12.216644428507927  11.673616748318732 
  1.244678602454053  12.216595516860361  11.673616748318732 
  2.489324935051056   5.749015372509918  11.673616748318732 
  6.223451124758503  12.216606308149915  11.673616748318732 
 -6.225534366143890  12.203632058889109   5.002978606422314 
  7.468126369736916   5.748977207334162  11.673616748318732 
 -1.245024812931967  12.191366026588742   5.002978606422314 
 -0.085747673064942   5.763711430784060   5.002978606422314 
 -1.269757968196036   7.917522562210365   5.002978606422314 
  3.731885810212580  12.232599712700766   5.002978606422314 
 10.011070985990839   5.751956958500598   5.002978606422314 
 -3.734087770520417   7.904809523439718  11.673616748318732 
  2.489353990659752   1.437282213944280  11.673616748318732 
  6.223437801164242   7.904841047702225  11.673616748318732 
  7.468138074913432   1.437208168335999  11.673616748318732 
 12.446909586140075   1.437236604797523  11.673616748318732 
  3.541295385684447   4.919062841874634   5.002978606422314 
  5.152384987795164   5.849225857341844   5.002978606422314 
  1.213182206869044   0.678980396562586   5.002978606422314 
  4.977181780100240   7.534152596656562   5.002978606422314 
  6.246617418941606   0.670653842294352   5.002978606422314 
  9.978825966631200   7.189429585964898   5.002978606422314 
 11.209216212231505   0.722654002197154   5.002978606422314 
 -3.734111600366246   9.342089653023365  11.673616748318732 
  1.244639906237274   9.342465831108203  11.673616748318732 
  2.489208878797354   2.874219079192935  11.673616748318732 
  6.223481086709321   9.342344915673424  11.673616748318732 
  7.468482313367164   2.874280730094805  11.673616748318732 
 12.446666669875349   2.874296410551616  11.673616748318732 
 -1.260008831405791   9.349674155993034   5.002978606422314 
 -0.029473807073312   2.857478287221890   5.002978606422314 
  5.028481712972843   2.764776260097227   5.002978606422314 
  3.696239974062152   9.447967631924243   5.002978606422314 
  8.726255952447314   9.358944490568671   5.002978606422314 
  9.987029307601226   2.855570799405951   5.002978606422314 
 -4.978883733589414  11.497871142411611  11.673616748318732 
  0.000138377150401  11.498059882763993  11.673616748318732 
  1.244365486988424   5.030351081272387  11.673616748318732 
  6.223676670076224   5.030367271691641  11.673616748318732 
  4.978691281973794  11.498167507736031  11.673616748318732 
 11.202175878548516   5.030178662129789  11.673616748318732 
 -1.294780315503885   5.022898908791153   5.002978606422314 
 -2.490491843639227  11.480933251031756   5.002978606422314 
  2.482040659942639  11.531291559815095   5.002978606422314 
  7.470052844254482  11.521506276773213   5.002978606422314 
  8.817662245894127   5.010240645386349   5.002978606422314 
 -0.000252688408746   7.186405795468896  11.673616748318732 
  1.244382027038666   0.718378719098362  11.673616748318732 
  4.978878491655621   7.186420961885329  11.673616748318732 
  6.223747005813083   0.718399358315933  11.673616748318732 
  9.957607853126941   7.186199315765920  11.673616748318732 
 -2.501273419207581   7.189242500416182   5.002978606422314 
 11.202185534421067   0.718594838470705  11.673616748318732 
  3.728461176721939   0.667815760683569   5.002978606422314 
  2.419221642477436   7.284147272356054   5.002978606422314 
  7.515200911315799   7.213398266832112   5.002978606422314 
  8.738026068182961   0.695606981333258   5.002978606422314 
  2.489298682863320   7.186631851844558  11.673616748318732 
 13.683523119771852   0.722166960860455   5.002978606422314 
 -1.244741662603936   9.342222331718451  11.673616748318732 
 -0.000457404755151   2.874230914911187  11.673616748318732 
  4.979069401742100   2.874222467549194  11.673616748318732 
  3.734055595520517   9.342497542547926  11.673616748318732 
  8.712849399641783   9.342184200353092  11.673616748318732 
  9.957665108621805   2.874331870425979  11.673616748318732 
 -3.734215811860099   9.342029486489334   5.002978606422314 
  1.214726283010050   9.386144947883340   5.002978606422314 