Species order: N B                      
   2.51242800000000     
     5.9449720136058266    0.0000000000000000    0.0000000000000000
    -2.9724860068029120    5.1484967885702053   -0.0000000000000001
     0.0000000000000000    0.0000000000000009    5.3101128803662583
   N    B 
   143   143
Direct
  0.1110795597969077  0.0555608531924292  0.1250121557336845
  0.6111098916063931  0.5555355100848520  0.1250931759322755
  0.4444459805356327  0.0555607340495679  0.1250466175569957
  0.9444453533369106  0.5555483473575799  0.1248660124201218
  0.7777238397047991  0.0555285865190707  0.1248757140495698
  0.1111163023991350  0.7222248178662284  0.6251411886851155
  0.4444459805356327  0.7222185798194009  0.6249533824430046
  0.2777480401403737  0.2222227980354603  0.6241616947295198
  0.7777629632459073  0.7222130359309314  0.6251242405654414
  0.6110900580104668  0.2222216244423592  0.6248853945723050
  0.9443871527924808  0.2221891782015383  0.6251661297693063
  0.2777828878996962  0.7222130174664854  0.1248961446336062
  0.1110573754017932  0.2221953543675609  0.1251321849667299
  0.4444630381132512  0.2222317741895952  0.1257120083503093
  0.6110900580104668  0.7222017669014290  0.1251146054277023
  0.9444453533369106  0.7222303393126597  0.1248660124201218
  0.7777355692321913  0.2222036455095777  0.1248956897982139
  0.1111099519110639  0.8889094249147101  0.6250998913528832
  0.4444392865952134  0.8888863099642678  0.6251305303578432
  0.2777480401403737  0.3888585754382421  0.6241616947295198
  0.6111098916063931  0.3889077148548625  0.6249068240677247
  0.7777355692321913  0.8888652570559497  0.6251043102017864
  0.9444210530713231  0.3888639902300391  0.6251663461051117
  0.1110795597969077  0.3888520399378002  0.1250121557336845
  0.2777828878996962  0.8889032037665393  0.1248961446336062
  0.6110824226346467  0.8888737113434138  0.1249330895755367
  0.4444815834238263  0.3889074583785738  0.1254488441807591
  0.9444210530713231  0.8888903961746045  0.1248336538948884
  0.7777629632459073  0.3888832606483044  0.1248757594345590
  0.2777812098185028  0.5555325275215869  0.6247262562680423
  0.1110795597969077  0.0555608531924292  0.6249878442663155
  0.6111098916063931  0.5555355100848520  0.6249068240677247
  0.4444459805356327  0.0555607340495679  0.6249533824430046
  0.9444453533369106  0.5555483473575799  0.6251339875798781
  0.1111099519110639  0.5555338603296819  0.1249001086471165
  0.7777238397047991  0.0555285865190707  0.6251242859504303
  0.2777812098185028  0.0555820156302513  0.1252737437319576
  0.4444630381132512  0.5555645972569919  0.1257120083503094
  0.7777791810368908  0.5555562571851165  0.1249123268302692
  0.6110824226346467  0.0555420446245685  0.1249330895755367
  0.4444630381132512  0.5555645972569919  0.6242879916496911
  0.9443871527924808  0.0555313079242781  0.1248338702306936
  0.2777828878996962  0.7222130174664854  0.6251038553663940
  0.1110573754017932  0.2221953543675609  0.6248678150332705
  0.4444630381132512  0.2222317741895952  0.6242879916496911
  0.6110900580104668  0.7222017669014290  0.6248853945723050
  0.9444453533369106  0.7222303393126597  0.6251339875798781
  0.7777355692321913  0.2222036455095777  0.6251043102017864
  0.1111163023991350  0.7222248178662284  0.1248588113148846
  0.4444459805356327  0.7222185798194009  0.1250466175569957
  0.2777480401403737  0.2222227980354603  0.1258383052704802
  0.7777629632459073  0.7222130359309314  0.1248757594345590
  0.6110900580104668  0.2222216244423592  0.1251146054277023
  0.9443871527924808  0.2221891782015383  0.1248338702306936
  0.1110795597969077  0.3888520399378002  0.6249878442663155
  0.2777828878996962  0.8889032037665393  0.6251038553663940
  0.6110824226346467  0.8888737113434138  0.6250669104244631
  0.4444815834238263  0.3889074583785738  0.6245511558192406
  0.9444210530713231  0.8888903961746045  0.6251663461051117
  0.1111099519110639  0.8889094249147101  0.1249001086471165
  0.7777629632459073  0.3888832606483044  0.6251242405654414
  0.4444392865952134  0.8888863099642678  0.1248694696421572
  0.2777480401403737  0.3888585754382421  0.1258383052704802
  0.2777812098185028  0.5555325275215869  0.1252737437319576
  0.6111098916063931  0.3889077148548625  0.1250931759322755
  0.7777355692321913  0.8888652570559497  0.1248956897982139
  0.9444210530713231  0.3888639902300391  0.1248336538948884
  0.1111099519110639  0.5555338603296819  0.6250998913528832
  0.2777812098185028  0.0555820156302513  0.6247262562680423
  0.7777791810368908  0.5555562571851165  0.6250876731697308
  0.6110824226346467  0.0555420446245685  0.6250669104244631
  0.9443871527924808  0.0555313079242781  0.6251661297693063
  0.0539352306010322  0.1100674451498401  0.3750000000000000
  0.5565985508885989  0.6021245274411128  0.3750000000000000
  0.3899818376789259  0.1120061916409920  0.3750000000000000
  0.8916287472511818  0.6124810402922621  0.3750000000000000
  0.7216149857794661  0.1115695666178850  0.3750000000000000
  0.0555512925517345  0.7777743625777870  0.8750000000000000
  0.3888804169825278  0.7777747150569089  0.8750000000000000
  0.2222171633606104  0.2777752483469694  0.8750000000000000
  0.7222187998647058  0.7777740364044884  0.8750000000000000
  0.5555492916843118  0.2777761534060311  0.8750000000000000
  0.8888887704375136  0.2777816695866532  0.8750000000000000
  0.2235222878543246  0.7784278105938337  0.3750000000000000
  0.0539352306010322  0.2772011187845280  0.3750000000000000
  0.3861024367337305  0.2749428995532544  0.3750000000000000
  0.5561978446417408  0.7746942189701298  0.3750000000000000
  0.8891208542194912  0.7771612058275736  0.3750000000000000
  0.7217794032217779  0.2796285863592352  0.3750000000000000
  0.0555514363919216  0.9444381668180823  0.8750000000000000
  0.3888804169825278  0.9444390352589543  0.8750000000000000
  0.2222153199162210  0.4444449096997449  0.8750000000000000
  0.5555524244920936  0.4444428789127147  0.8750000000000000
  0.7222163599139421  0.9444406510573159  0.8750000000000000
  0.8888905790371820  0.4444478389040609  0.8750000000000000
  0.0548908580394391  0.4446231559174926  0.3750000000000000
  0.2230735793270041  0.9450457299457045  0.3750000000000000
  0.5560572143844769  0.9446952738589023  0.3750000000000000
  0.3861024367337305  0.4444928705138121  0.3750000000000000
  0.8878187534590262  0.9432339748608055  0.3750000000000000
  0.7233210532108704  0.4469626252781432  0.3750000000000000
  0.2222136088004632  0.6111102235045194  0.8750000000000000
  0.0555523089097980  0.1111065585529321  0.8750000000000000
  0.5555492916843118  0.6111064716116164  0.8750000000000000
  0.3888808410548499  0.1111062357316961  0.8750000000000000
  0.8888906802410992  0.6111120067872251  0.8750000000000000
  0.0570003637395861  0.6118092446814769  0.3750000000000000
  0.7222163599139421  0.1111090421899694  0.8750000000000000
  0.2202882437976074  0.1096473247590084  0.3750000000000000
  0.3899818376789259  0.6113089793712692  0.3750000000000000
  0.7233210532108704  0.6096917612660696  0.3750000000000000
  0.5561978446417408  0.1148369590049473  0.3750000000000000
  0.3888808410548499  0.6111079386564970  0.8750000000000000
  0.8875474442140230  0.1104403887736828  0.3750000000000000
  0.2222137339666078  0.7777735336499682  0.8750000000000000
  0.0555523089097980  0.2777790836902015  0.8750000000000000
  0.3888820116629639  0.2777727844204029  0.8750000000000000
  0.5555468749696029  0.7777735075892269  0.8750000000000000
  0.8888905790371820  0.7777760734664574  0.8750000000000000
  0.7222187998647058  0.2777780967935535  0.8750000000000000
  0.0570003637395861  0.7785244523914450  0.3750000000000000
  0.3899926375184653  0.7780661866541970  0.3750000000000000
  0.2201783114910256  0.2767558224121840  0.3750000000000000
  0.7217794032217779  0.7754841501958709  0.3750000000000000
  0.5565985508885989  0.2878073567808224  0.3750000000000000
  0.8878187534590262  0.2779181119315561  0.3750000000000000
  0.0555514363919216  0.4444466029071681  0.8750000000000000
  0.2222136088004632  0.9444367186292799  0.8750000000000000
  0.5555457366431893  0.9444395349882555  0.8750000000000000
  0.3888820116629639  0.4444425605758898  0.8750000000000000
  0.8888887704375136  0.9444404341841953  0.8750000000000000
  0.0548908580394391  0.9436010354552755  0.3750000000000000
  0.7222222313021338  0.4444457801026705  0.8750000000000000
  0.3899926375184653  0.9452597841976113  0.3750000000000000
  0.2202882437976074  0.4439742523719347  0.3750000000000000
  0.2230735793270041  0.6113611827146425  0.3750000000000000
  0.7216149857794661  0.9433787524949238  0.3750000000000000
  0.8891208542194912  0.4452929817252529  0.3750000000000000
  0.0555512925517345  0.6111102633072829  0.8750000000000000
  0.2222153199162210  0.1111037435498051  0.8750000000000000
  0.7222222313021338  0.6111097845327996  0.8750000000000000
  0.5555468749696029  0.1111067007137194  0.8750000000000000
  0.8888874854029101  0.1111104093681227  0.8750000000000000
  0.1102478039771479  0.0548944886384355  0.3750000000000000
  0.6120320616538131  0.5418959970902275  0.3750000000000000
  0.4449316330589793  0.0570433399769773  0.3750000000000000
  0.9461531398117903  0.5562871162823608  0.3750000000000000
  0.7765960452100770  0.0549646892717100  0.3750000000000000
  0.1111118557482805  0.7222225945408013  0.8750000000000000
  0.4444199449542000  0.7221711165551723  0.8750000000000000
  0.2778183525699398  0.2222639422668400  0.8750000000000000
  0.7777484076908763  0.7221877050705636  0.8750000000000000
  0.6110685328306228  0.2222433060390120  0.8750000000000000
  0.9444791183567893  0.2222413323033666  0.8750000000000000
  0.2788918297900259  0.7224290821502949  0.3750000000000000
  0.1102543985279917  0.2217938659306602  0.3750000000000000
  0.4432790973036011  0.2254534516317011  0.3750000000000000
  0.6104351205391328  0.7154502079389635  0.3750000000000000
  0.9461531398117903  0.7231993568627655  0.3750000000000000
  0.7766640211887591  0.2229613001570524  0.3750000000000000
  0.1111238419896869  0.8889089449961164  0.8750000000000000
  0.4444231376981114  0.8888782355157202  0.8750000000000000
  0.2778183525699398  0.3888877436364284  0.8750000000000000
  0.6110535488039671  0.3888850181364574  0.8750000000000000
  0.7777696175317310  0.8888671694064250  0.8750000000000000
  0.9444561343563902  0.3888982978515076  0.8750000000000000
  0.1102478039771479  0.3886866486720483  0.3750000000000000
  0.2788918297900259  0.8897960809730525  0.3750000000000000
  0.6105865097383421  0.8868184755994484  0.3750000000000000
  0.9440334038050028  0.8881553788992033  0.3750000000000000
  0.7776610948006895  0.3903680698398230  0.3750000000000000
  0.2777895239149182  0.5555253411493170  0.8750000000000000
  0.1111545512368583  0.0555915847645328  0.8750000000000000
  0.6110535488039669  0.5555018640008382  0.8750000000000000
  0.4444199449542000  0.0555821617323702  0.8750000000000000
  0.9444357846778049  0.5555525141223198  0.8750000000000000
  0.1120710335055104  0.5557702765498275  0.3750000000000000
  0.7777793393497892  0.0555563363415624  0.8750000000000000
  0.2785055910239385  0.0568651394068080  0.3750000000000000
  0.4432790973036011  0.5511589790052429  0.3750000000000000
  0.7813672971451748  0.5573503152392590  0.3750000000000000
  0.6105865097383421  0.0571013674722150  0.3750000000000000
  0.4444149715064064  0.5554887914456516  0.8750000000000000
  0.9432685640416001  0.0546986410275747  0.3750000000000000
  0.2777745464584427  0.7222054438320883  0.8750000000000000
  0.1111742878362860  0.2222538105848036  0.8750000000000000
  0.4444149715064064  0.2222595133940908  0.8750000000000000
  0.6110685328306228  0.7221585601249393  0.8750000000000000
  0.9444357846778049  0.7222166038888215  0.8750000000000000
  0.7777696175317310  0.2222357814586277  0.8750000000000000
  0.1125726055943255  0.7229529694638239  0.3750000000000000
  0.4449316330589793  0.7212216264153446  0.3750000000000000
  0.2783449342593766  0.2224986967923098  0.3750000000000000
  0.7776610948006895  0.7206263582941955  0.3750000000000000
  0.6104351205391328  0.2283182459334902  0.3750000000000000
  0.9432685640416001  0.2219032563473541  0.3750000000000000
  0.1111545512368583  0.3888962998056541  0.8750000000000000
  0.2777745464584427  0.8889024359596830  0.8750000000000000
  0.6110844754446796  0.8888582480795517  0.8750000000000000
  0.4444143516373210  0.3888738424853249  0.8750000000000000
  0.9444561343563902  0.8888911698382177  0.8750000000000000
  0.1120710335055104  0.8896340902890122  0.3750000000000000
  0.7777484076908763  0.3888940359536417  0.8750000000000000
  0.4450086669824455  0.8891710001578866  0.3750000000000000
  0.2783449342593767  0.3891795708003954  0.3750000000000000
  0.2785055910239385  0.5549737849504655  0.3750000000000000
  0.6120320616538131  0.4034693978969146  0.3750000000000000
  0.7766640211887591  0.8870360543650353  0.3750000000000000
  0.9440334038050028  0.3892113582391282  0.3750000000000000
  0.1111238419896869  0.5555482303268987  0.8750000000000000
  0.2777895239149182  0.0555975160989370  0.8750000000000000
  0.7777378411071832  0.5555355872202595  0.8750000000000000
  0.6110844754446796  0.0555595606984564  0.8750000000000000
  0.9444791183567893  0.0555711193867585  0.8750000000000000
  0.0556220987385880  0.1111937257615882  0.1252548344249789
  0.5554017349776526  0.6109221735473223  0.1258230758733729
  0.3889444046653516  0.1113145838170577  0.1258167358656533
  0.8888182203523616  0.6110757768428557  0.1250164007768874
  0.7221596195086840  0.1110944914009818  0.1250627739335047
  0.0555815297478116  0.7778314954655696  0.6249779593111926
  0.3889254388003725  0.7777325966492830  0.6248539634727480
  0.2223801357656686  0.2778567345495019  0.6237236873404101
  0.7221083407470676  0.7776831170992281  0.6248519933577200
  0.5554017349776526  0.2778128947636662  0.6241769241266271
  0.8888620737007846  0.2777452026434576  0.6249882978764337
  0.2222837302799623  0.7778085318066524  0.1250411347282476
  0.0556220987385880  0.2777617063103355  0.1252548344249789
  0.3889685900283721  0.2780125423619217  0.1273087177687956
  0.5555041063190154  0.7776750651953740  0.1252988276813593
  0.8888281770913815  0.7777690357867266  0.1250164324119145
  0.7221083407470676  0.2777585569811757  0.1251480066422795
  0.0556036864724072  0.9445600277829002  0.6248919217711384
  0.3889254388003725  0.9445261754844251  0.6248539634727480
  0.2223500527614302  0.4443390926556517  0.6241471872155048
  0.5552321392836382  0.4442827363084834  0.6240019734314493
  0.7221596195086840  0.9443984614410450  0.6249372260664958
  0.8888281770913815  0.4443924746379904  0.6249835675880854
  0.0556036864724072  0.4443769920228361  0.1251080782288617
  0.2223035966928303  0.9446074146352658  0.1252439694382951
  0.5555269331092194  0.9444301332212702  0.1251021502700875
  0.3889685900283721  0.4442893809997860  0.1273087177687956
  0.8888620737007846  0.9444502043906633  0.1250117021235664
  0.7220273143828054  0.4443692129898369  0.1251799219565048
  0.2223035966928303  0.6110295153908996  0.6247560305617048
  0.0556220987385880  0.1111937257615882  0.6247451655750212
  0.5554017349776526  0.6109221735473223  0.6241769241266271
  0.3889444046653516  0.1113145838170577  0.6241832641343469
  0.8888182203523616  0.6110757768428557  0.6249835992231126
  0.0555815297478116  0.6110833676155845  0.1250220406888076
  0.7221596195086840  0.1110944914009818  0.6249372260664958
  0.2223500527614302  0.1113442934391141  0.1258528127844951
  0.3889444046653516  0.6109631541816360  0.1258167358656533
  0.7220273143828054  0.6109914347263040  0.1251799219565048
  0.5555041063190154  0.1111623744569705  0.1252988276813593
  0.3889444046653516  0.6109631541816360  0.6241832641343469
  0.8888749838600113  0.1111041585966771  0.1250119315575485
  0.2222837302799623  0.7778085318066524  0.6249588652717524
  0.0556220987385880  0.2777617063103355  0.6247451655750212
  0.3889685900283721  0.2780125423619217  0.6226912822312046
  0.5555041063190154  0.7776750651953740  0.6247011723186408
  0.8888281770913815  0.7777690357867266  0.6249835675880854
  0.7221083407470676  0.2777585569811757  0.6248519933577200
  0.0555815297478116  0.7778314954655696  0.1250220406888076
  0.3889254388003725  0.7777325966492830  0.1251460365272519
  0.2223801357656686  0.2778567345495019  0.1262763126595901
  0.7221083407470676  0.7776831170992281  0.1251480066422795
  0.5554017349776526  0.2778128947636662  0.1258230758733729
  0.8888620737007846  0.2777452026434576  0.1250117021235664
  0.0556036864724072  0.4443769920228361  0.6248919217711384
  0.2223035966928303  0.9446074146352658  0.6247560305617048
  0.5555269331092194  0.9444301332212702  0.6248978497299120
  0.3889685900283721  0.4442893809997860  0.6226912822312046
  0.8888620737007846  0.9444502043906633  0.6249882978764337
  0.0556036864724072  0.9445600277829002  0.1251080782288617
  0.7220273143828054  0.4443692129898369  0.6248200780434950
  0.3889254388003725  0.9445261754844251  0.1251460365272519
  0.2223500527614302  0.4443390926556517  0.1258528127844951
  0.2223035966928303  0.6110295153908996  0.1252439694382951
  0.5552321392836382  0.4442827363084834  0.1259980265685506
  0.7221596195086840  0.9443984614410450  0.1250627739335047
  0.8888281770913815  0.4443924746379904  0.1250164324119145
  0.0555815297478116  0.6110833676155845  0.6249779593111926
  0.2223500527614302  0.1113442934391141  0.6241471872155048
  0.7220273143828054  0.6109914347263040  0.6248200780434950
  0.5555041063190154  0.1111623744569705  0.6247011723186408
  0.8888749838600113  0.1111041585966771  0.6249880684424517
 
  0.00000000E+00  0.00000000E+00  0.00000000E+00
  0.00000000E+00  0.00000000E+00  0.00000000E+00
  0.00000000E+00  0.00000000E+00  0.00000000E+00
  0.00000000E+00  0.00000000E+00  0.00000000E+00
  0.00000000E+00  0.00000000E+00  0.00000000E+00
  0.00000000E+00  0.00000000E+00  0.00000000E+00
  0.00000000E+00  0.00000000E+00  0.00000000E+00
  0.00000000E+00  0.00000000E+00  0.00000000E+00
  0.00000000E+00  0.00000000E+00  0.00000000E+00
  0.00000000E+00  0.00000000E+00  0.00000000E+00
  0.00000000E+00  0.00000000E+00  0.00000000E+00
  0.00000000E+00  0.00000000E+00  0.00000000E+00
  0.00000000E+00  0.00000000E+00  0.00000000E+00
  0.00000000E+00  0.00000000E+00  0.00000000E+00
  0.00000000E+00  0.00000000E+00  0.00000000E+00
  0.00000000E+00  0.00000000E+00  0.00000000E+00
  0.00000000E+00  0.00000000E+00  0.00000000E+00
  0.00000000E+00  0.00000000E+00  0.00000000E+00
  0.00000000E+00  0.00000000E+00  0.00000000E+00
  0.00000000E+00  0.00000000E+00  0.00000000E+00
  0.00000000E+00  0.00000000E+00  0.00000000E+00
  0.00000000E+00  0.00000000E+00  0.00000000E+00
  0.00000000E+00  0.00000000E+00  0.00000000E+00
  0.00000000E+00  0.00000000E+00  0.00000000E+00
  0.00000000E+00  0.00000000E+00  0.00000000E+00
  0.00000000E+00  0.00000000E+00  0.00000000E+00
  0.00000000E+00  0.00000000E+00  0.00000000E+00
  0.00000000E+00  0.00000000E+00  0.00000000E+00
  0.00000000E+00  0.00000000E+00  0.00000000E+00
  0.00000000E+00  0.00000000E+00  0.00000000E+00
  0.00000000E+00  0.00000000E+00  0.00000000E+00
  0.00000000E+00  0.00000000E+00  0.00000000E+00
  0.00000000E+00  0.00000000E+00  0.00000000E+00
  0.00000000E+00  0.00000000E+00  0.00000000E+00
  0.00000000E+00  0.00000000E+00  0.00000000E+00
  0.00000000E+00  0.00000000E+00  0.00000000E+00
  0.00000000E+00  0.00000000E+00  0.00000000E+00
  0.00000000E+00  0.00000000E+00  0.00000000E+00
  0.00000000E+00  0.00000000E+00  0.00000000E+00
  0.00000000E+00  0.00000000E+00  0.00000000E+00
  0.00000000E+00  0.00000000E+00  0.00000000E+00
  0.00000000E+00  0.00000000E+00  0.00000000E+00
  0.00000000E+00  0.00000000E+00  0.00000000E+00
  0.00000000E+00  0.00000000E+00  0.00000000E+00
  0.00000000E+00  0.00000000E+00  0.00000000E+00
  0.00000000E+00  0.00000000E+00  0.00000000E+00
  0.00000000E+00  0.00000000E+00  0.00000000E+00
  0.00000000E+00  0.00000000E+00  0.00000000E+00
  0.00000000E+00  0.00000000E+00  0.00000000E+00
  0.00000000E+00  0.00000000E+00  0.00000000E+00
  0.00000000E+00  0.00000000E+00  0.00000000E+00
  0.00000000E+00  0.00000000E+00  0.00000000E+00
  0.00000000E+00  0.00000000E+00  0.00000000E+00
  0.00000000E+00  0.00000000E+00  0.00000000E+00
  0.00000000E+00  0.00000000E+00  0.00000000E+00
  0.00000000E+00  0.00000000E+00  0.00000000E+00
  0.00000000E+00  0.00000000E+00  0.00000000E+00
  0.00000000E+00  0.00000000E+00  0.00000000E+00
  0.00000000E+00  0.00000000E+00  0.00000000E+00
  0.00000000E+00  0.00000000E+00  0.00000000E+00
  0.00000000E+00  0.00000000E+00  0.00000000E+00
  0.00000000E+00  0.00000000E+00  0.00000000E+00
  0.00000000E+00  0.00000000E+00  0.00000000E+00
  0.00000000E+00  0.00000000E+00  0.00000000E+00
  0.00000000E+00  0.00000000E+00  0.00000000E+00
  0.00000000E+00  0.00000000E+00  0.00000000E+00
  0.00000000E+00  0.00000000E+00  0.00000000E+00
  0.00000000E+00  0.00000000E+00  0.00000000E+00
  0.00000000E+00  0.00000000E+00  0.00000000E+00
  0.00000000E+00  0.00000000E+00  0.00000000E+00
  0.00000000E+00  0.00000000E+00  0.00000000E+00
  0.00000000E+00  0.00000000E+00  0.00000000E+00
  0.00000000E+00  0.00000000E+00  0.00000000E+00
  0.00000000E+00  0.00000000E+00  0.00000000E+00
  0.00000000E+00  0.00000000E+00  0.00000000E+00
  0.00000000E+00  0.00000000E+00  0.00000000E+00
  0.00000000E+00  0.00000000E+00  0.00000000E+00
  0.00000000E+00  0.00000000E+00  0.00000000E+00
  0.00000000E+00  0.00000000E+00  0.00000000E+00
  0.00000000E+00  0.00000000E+00  0.00000000E+00
  0.00000000E+00  0.00000000E+00  0.00000000E+00
  0.00000000E+00  0.00000000E+00  0.00000000E+00
  0.00000000E+00  0.00000000E+00  0.00000000E+00
  0.00000000E+00  0.00000000E+00  0.00000000E+00
  0.00000000E+00  0.00000000E+00  0.00000000E+00
  0.00000000E+00  0.00000000E+00  0.00000000E+00
  0.00000000E+00  0.00000000E+00  0.00000000E+00
  0.00000000E+00  0.00000000E+00  0.00000000E+00
  0.00000000E+00  0.00000000E+00  0.00000000E+00
  0.00000000E+00  0.00000000E+00  0.00000000E+00
  0.00000000E+00  0.00000000E+00  0.00000000E+00
  0.00000000E+00  0.00000000E+00  0.00000000E+00
  0.00000000E+00  0.00000000E+00  0.00000000E+00
  0.00000000E+00  0.00000000E+00  0.00000000E+00
  0.00000000E+00  0.00000000E+00  0.00000000E+00
  0.00000000E+00  0.00000000E+00  0.00000000E+00
  0.00000000E+00  0.00000000E+00  0.00000000E+00
  0.00000000E+00  0.00000000E+00  0.00000000E+00
  0.00000000E+00  0.00000000E+00  0.00000000E+00
  0.00000000E+00  0.00000000E+00  0.00000000E+00
  0.00000000E+00  0.00000000E+00  0.00000000E+00
  0.00000000E+00  0.00000000E+00  0.00000000E+00
  0.00000000E+00  0.00000000E+00  0.00000000E+00
  0.00000000E+00  0.00000000E+00  0.00000000E+00
  0.00000000E+00  0.00000000E+00  0.00000000E+00
  0.00000000E+00  0.00000000E+00  0.00000000E+00
  0.00000000E+00  0.00000000E+00  0.00000000E+00
  0.00000000E+00  0.00000000E+00  0.00000000E+00
  0.00000000E+00  0.00000000E+00  0.00000000E+00
  0.00000000E+00  0.00000000E+00  0.00000000E+00
  0.00000000E+00  0.00000000E+00  0.00000000E+00
  0.00000000E+00  0.00000000E+00  0.00000000E+00
  0.00000000E+00  0.00000000E+00  0.00000000E+00
  0.00000000E+00  0.00000000E+00  0.00000000E+00
  0.00000000E+00  0.00000000E+00  0.00000000E+00
  0.00000000E+00  0.00000000E+00  0.00000000E+00
  0.00000000E+00  0.00000000E+00  0.00000000E+00
  0.00000000E+00  0.00000000E+00  0.00000000E+00
  0.00000000E+00  0.00000000E+00  0.00000000E+00
  0.00000000E+00  0.00000000E+00  0.00000000E+00
  0.00000000E+00  0.00000000E+00  0.00000000E+00
  0.00000000E+00  0.00000000E+00  0.00000000E+00
  0.00000000E+00  0.00000000E+00  0.00000000E+00
  0.00000000E+00  0.00000000E+00  0.00000000E+00
  0.00000000E+00  0.00000000E+00  0.00000000E+00
  0.00000000E+00  0.00000000E+00  0.00000000E+00
  0.00000000E+00  0.00000000E+00  0.00000000E+00
  0.00000000E+00  0.00000000E+00  0.00000000E+00
  0.00000000E+00  0.00000000E+00  0.00000000E+00
  0.00000000E+00  0.00000000E+00  0.00000000E+00
  0.00000000E+00  0.00000000E+00  0.00000000E+00
  0.00000000E+00  0.00000000E+00  0.00000000E+00
  0.00000000E+00  0.00000000E+00  0.00000000E+00
  0.00000000E+00  0.00000000E+00  0.00000000E+00
  0.00000000E+00  0.00000000E+00  0.00000000E+00
  0.00000000E+00  0.00000000E+00  0.00000000E+00
  0.00000000E+00  0.00000000E+00  0.00000000E+00
  0.00000000E+00  0.00000000E+00  0.00000000E+00
  0.00000000E+00  0.00000000E+00  0.00000000E+00
  0.00000000E+00  0.00000000E+00  0.00000000E+00
  0.00000000E+00  0.00000000E+00  0.00000000E+00
  0.00000000E+00  0.00000000E+00  0.00000000E+00
  0.00000000E+00  0.00000000E+00  0.00000000E+00
  0.00000000E+00  0.00000000E+00  0.00000000E+00
  0.00000000E+00  0.00000000E+00  0.00000000E+00
  0.00000000E+00  0.00000000E+00  0.00000000E+00
  0.00000000E+00  0.00000000E+00  0.00000000E+00
  0.00000000E+00  0.00000000E+00  0.00000000E+00
  0.00000000E+00  0.00000000E+00  0.00000000E+00
  0.00000000E+00  0.00000000E+00  0.00000000E+00
  0.00000000E+00  0.00000000E+00  0.00000000E+00
  0.00000000E+00  0.00000000E+00  0.00000000E+00
  0.00000000E+00  0.00000000E+00  0.00000000E+00
  0.00000000E+00  0.00000000E+00  0.00000000E+00
  0.00000000E+00  0.00000000E+00  0.00000000E+00
  0.00000000E+00  0.00000000E+00  0.00000000E+00
  0.00000000E+00  0.00000000E+00  0.00000000E+00
  0.00000000E+00  0.00000000E+00  0.00000000E+00
  0.00000000E+00  0.00000000E+00  0.00000000E+00
  0.00000000E+00  0.00000000E+00  0.00000000E+00
  0.00000000E+00  0.00000000E+00  0.00000000E+00
  0.00000000E+00  0.00000000E+00  0.00000000E+00
  0.00000000E+00  0.00000000E+00  0.00000000E+00
  0.00000000E+00  0.00000000E+00  0.00000000E+00
  0.00000000E+00  0.00000000E+00  0.00000000E+00
  0.00000000E+00  0.00000000E+00  0.00000000E+00
  0.00000000E+00  0.00000000E+00  0.00000000E+00
  0.00000000E+00  0.00000000E+00  0.00000000E+00
  0.00000000E+00  0.00000000E+00  0.00000000E+00
  0.00000000E+00  0.00000000E+00  0.00000000E+00
  0.00000000E+00  0.00000000E+00  0.00000000E+00
  0.00000000E+00  0.00000000E+00  0.00000000E+00
  0.00000000E+00  0.00000000E+00  0.00000000E+00
  0.00000000E+00  0.00000000E+00  0.00000000E+00
  0.00000000E+00  0.00000000E+00  0.00000000E+00
  0.00000000E+00  0.00000000E+00  0.00000000E+00
  0.00000000E+00  0.00000000E+00  0.00000000E+00
  0.00000000E+00  0.00000000E+00  0.00000000E+00
  0.00000000E+00  0.00000000E+00  0.00000000E+00
  0.00000000E+00  0.00000000E+00  0.00000000E+00
  0.00000000E+00  0.00000000E+00  0.00000000E+00
  0.00000000E+00  0.00000000E+00  0.00000000E+00
  0.00000000E+00  0.00000000E+00  0.00000000E+00
  0.00000000E+00  0.00000000E+00  0.00000000E+00
  0.00000000E+00  0.00000000E+00  0.00000000E+00
  0.00000000E+00  0.00000000E+00  0.00000000E+00
  0.00000000E+00  0.00000000E+00  0.00000000E+00
  0.00000000E+00  0.00000000E+00  0.00000000E+00
  0.00000000E+00  0.00000000E+00  0.00000000E+00
  0.00000000E+00  0.00000000E+00  0.00000000E+00
  0.00000000E+00  0.00000000E+00  0.00000000E+00
  0.00000000E+00  0.00000000E+00  0.00000000E+00
  0.00000000E+00  0.00000000E+00  0.00000000E+00
  0.00000000E+00  0.00000000E+00  0.00000000E+00
  0.00000000E+00  0.00000000E+00  0.00000000E+00
  0.00000000E+00  0.00000000E+00  0.00000000E+00
  0.00000000E+00  0.00000000E+00  0.00000000E+00
  0.00000000E+00  0.00000000E+00  0.00000000E+00
  0.00000000E+00  0.00000000E+00  0.00000000E+00
  0.00000000E+00  0.00000000E+00  0.00000000E+00
  0.00000000E+00  0.00000000E+00  0.00000000E+00
  0.00000000E+00  0.00000000E+00  0.00000000E+00
  0.00000000E+00  0.00000000E+00  0.00000000E+00
  0.00000000E+00  0.00000000E+00  0.00000000E+00
  0.00000000E+00  0.00000000E+00  0.00000000E+00
  0.00000000E+00  0.00000000E+00  0.00000000E+00
  0.00000000E+00  0.00000000E+00  0.00000000E+00
  0.00000000E+00  0.00000000E+00  0.00000000E+00
  0.00000000E+00  0.00000000E+00  0.00000000E+00
  0.00000000E+00  0.00000000E+00  0.00000000E+00
  0.00000000E+00  0.00000000E+00  0.00000000E+00
  0.00000000E+00  0.00000000E+00  0.00000000E+00
  0.00000000E+00  0.00000000E+00  0.00000000E+00
  0.00000000E+00  0.00000000E+00  0.00000000E+00
  0.00000000E+00  0.00000000E+00  0.00000000E+00
  0.00000000E+00  0.00000000E+00  0.00000000E+00
  0.00000000E+00  0.00000000E+00  0.00000000E+00
  0.00000000E+00  0.00000000E+00  0.00000000E+00
  0.00000000E+00  0.00000000E+00  0.00000000E+00
  0.00000000E+00  0.00000000E+00  0.00000000E+00
  0.00000000E+00  0.00000000E+00  0.00000000E+00
  0.00000000E+00  0.00000000E+00  0.00000000E+00
  0.00000000E+00  0.00000000E+00  0.00000000E+00
  0.00000000E+00  0.00000000E+00  0.00000000E+00
  0.00000000E+00  0.00000000E+00  0.00000000E+00
  0.00000000E+00  0.00000000E+00  0.00000000E+00
  0.00000000E+00  0.00000000E+00  0.00000000E+00
  0.00000000E+00  0.00000000E+00  0.00000000E+00
  0.00000000E+00  0.00000000E+00  0.00000000E+00
  0.00000000E+00  0.00000000E+00  0.00000000E+00
  0.00000000E+00  0.00000000E+00  0.00000000E+00
  0.00000000E+00  0.00000000E+00  0.00000000E+00
  0.00000000E+00  0.00000000E+00  0.00000000E+00
  0.00000000E+00  0.00000000E+00  0.00000000E+00
  0.00000000E+00  0.00000000E+00  0.00000000E+00
  0.00000000E+00  0.00000000E+00  0.00000000E+00
  0.00000000E+00  0.00000000E+00  0.00000000E+00
  0.00000000E+00  0.00000000E+00  0.00000000E+00
  0.00000000E+00  0.00000000E+00  0.00000000E+00
  0.00000000E+00  0.00000000E+00  0.00000000E+00
  0.00000000E+00  0.00000000E+00  0.00000000E+00
  0.00000000E+00  0.00000000E+00  0.00000000E+00
  0.00000000E+00  0.00000000E+00  0.00000000E+00
  0.00000000E+00  0.00000000E+00  0.00000000E+00
  0.00000000E+00  0.00000000E+00  0.00000000E+00
  0.00000000E+00  0.00000000E+00  0.00000000E+00
  0.00000000E+00  0.00000000E+00  0.00000000E+00
  0.00000000E+00  0.00000000E+00  0.00000000E+00
  0.00000000E+00  0.00000000E+00  0.00000000E+00
  0.00000000E+00  0.00000000E+00  0.00000000E+00