 B N Sn 
 1.0
 14.936314146199660   0.000000000000000   0.000000000000000
 -7.468157073099825  12.935227489513863   0.000000000000000
  0.000000000000001   0.000000000000001  13.341276283792837
 B N Sn 
 143 143   1
Cartesian
  1.272541836199419   0.720284018493126   5.002978606422314 
  4.865577505956440   7.402947340233605   5.002978606422314 
  6.261959492227046   0.662228573776681   5.002978606422314 
  9.933112393584228   7.177299098670443   5.002978606422314 
 11.244135508443518   0.742814667265064   5.002978606422314 
 -3.731875487197946   9.343380673563063  11.673616748318732 
  1.247292934964295   9.342370635800144  11.673616748318732 
  2.493188909713178   2.877041517812746  11.673616748318732 
  6.225507327216467   9.341151594122341  11.673616748318732 
  7.468430248902364   2.877182630802334  11.673616748318732 
 12.449290897789941   2.876303860847042  11.673616748318732 
 -1.264887243425346   9.349285122812656   5.002978606422314 
  0.065494115717001   2.912308043009240   5.002978606422314 
  5.037260174723951   2.755952697058439   5.002978606422314 
  3.693385042620260   9.471085312554207   5.002978606422314 
  8.692893855766545   9.325420618659464   5.002978606422314 
 10.008375046016512   2.872061223254811   5.002978606422314 
 -4.976245797149567  11.499286034891281  11.673616748318732 
  0.002034314655933  11.499154502793154  11.673616748318732 
  1.248799805991715   5.032386669843431  11.673616748318732 
  6.223658544845864   5.032673227036835  11.673616748318732 
  4.981078105785294  11.497711390627009  11.673616748318732 
 11.203834045047493   5.032301777971683  11.673616748318732 
 -1.229330514978549   5.053654044785202   5.002978606422314 
 -2.493267962266119  11.476902938882869   5.002978606422314 
  2.496612998096192  11.549928809745266   5.002978606422314 
  7.481238314591567  11.512271507792159   5.002978606422314 
  8.742705425917009   5.010564600515644   5.002978606422314 
  0.003230510122318   7.187531215137929  11.673616748318732 
  1.247858207680812   0.720364367093363  11.673616748318732 
  4.980866444949394   7.185252287302752  11.673616748318732 
  6.224991078621500   0.720744546244520  11.673616748318732 
  9.959025177288222   7.187768061879243  11.673616748318732 
 -2.508494936803033   7.192414696896073   5.002978606422314 
 11.204174699478695   0.719743283452170  11.673616748318732 
  3.748971651294422   0.679398811043575   5.002978606422314 
  2.415969443609491   7.296161424758083   5.002978606422314 
  7.415599972818256   7.155893638179031   5.002978606422314 
  8.761452569155960   0.698908371401660   5.002978606422314 
  2.492782767855908   7.186566965893658  11.673616748318732 
 13.734719608810153   0.750823095777765   5.002978606422314 
 -1.242185635036090   9.343260958461167  11.673616748318732 
  0.003574532540987   2.876558754994459  11.673616748318732 
  4.980755251356589   2.877272216637129  11.673616748318732 
  3.736542683020067   9.341001503045064  11.673616748318732 
  8.714916635708647   9.342627266025499  11.673616748318732 
  9.958463511524027   2.876626979035633  11.673616748318732 
 -3.753662362876705   9.330802015025121   5.002978606422314 
  1.215100823082761   9.403644207354089   5.002978606422314 
  2.561134899369204   2.868109883125501   5.002978606422314 
  6.221243253274802   9.377865192894955   5.002978606422314 
  7.559507312358480   2.774765113094055   5.002978606422314 
 12.496363061163235   2.895719554187831   5.002978606422314 
 -1.241602745308882   5.032237221130379  11.673616748318732 
 -2.487134237436462  11.499575190630491  11.673616748318732 
  2.491508032099880  11.498263963158111  11.673616748318732 
  3.737727492661108   5.032472971715062  11.673616748318732 
  7.470632510723561  11.498396510314869  11.673616748318732 
 -4.982976390470083  11.478342297034324   5.002978606422314 
  8.713042553686412   5.032614196259009  11.673616748318732 
  0.004403683921184  11.500522458776297   5.002978606422314 
  1.275037778283252   5.095695440314448   5.002978606422314 
 -0.026523235721385   7.218747779071514   5.002978606422314 
  6.354543521465689   4.823982550628209   5.002978606422314 
  5.002079812537875  11.543218925329764   5.002978606422314 
 11.221153047274257   5.034549174810324   5.002978606422314 
 -2.486991831108435   7.187771692765676  11.673616748318732 
  3.736814186830896   0.720774592768814  11.673616748318732 
  7.469237272496828   7.186861147587001  11.673616748318732 
  8.714157016530685   0.720319764457004  11.673616748318732 
 13.694369043458295   0.719765253155796  11.673616748318732 
 -0.002481604853370   1.436643553469540   1.670923325866266 
  3.737193285697438   7.900248248248986   1.665979953366356 
  4.976317305977355   1.442113661774055   1.671226896682007 
  8.705897284552943   7.900847138443750   1.669652962016832 
  9.955103855988721   1.436127301922383   1.669903352778277 
 -4.982808989502650  10.059077481857548   8.336224554468018 
 -0.000281511094973  10.058427953205076   8.335241034200809 
  1.243288252180506   3.592307804746481   8.340056990483783 
  4.976097198282163  10.058252060882831   8.340210716351566 
  6.221026631002542   3.598122696646746   8.339977259478259 
 11.199607959709686   3.591115825144806   8.335775590909519 
 -2.491531316977944  10.059493714127386   1.669697306220543 
 -1.246456679972211   3.591271586924699   1.670923325866266 
  3.730110041440389   3.596430508935135   1.667225795916347 
  2.489254216338686  10.057851446902973   1.668413860100802 
  7.463516817800313  10.058436620710475   1.667836523643418 
  8.709364710499461   3.592043051476161   1.665746496493062 
 -6.226672481533836  12.216245798119475   8.335127787426661 
 -1.246829390069554  12.217512213656283   8.335241034200809 
  0.000125827251043   5.745848530772665   8.337337748986133 
  4.975109959735951   5.746876072171267   8.226719155284481 
  3.731888963494250  12.215051682142173   8.336053860066365 
  9.953234353757781   5.746119351936920   8.338120689201210 
 -2.491299804853703   5.746390536904887   1.670829425417954 
 -3.736689135482827  12.218024918015859   1.670637981019698 
  1.242985830579530  12.215618194562911   1.670581076383844 
  2.490269513370113   5.743897296835896   1.667225795916347 
  6.220415821329256  12.215329589467293   1.670181621935123 
  7.460339919990132   5.744004803979901   1.662313093744593 
 -1.244767368801571   7.901889809637100   8.335319231824956 
 -0.002481604853370   1.436643553469541   8.335033886978374 
  3.737193285697438   7.900248248248987   8.339977259478259 
  4.976317305977356   1.442113661774056   8.334730316162593 
  8.705897284552943   7.900847138443751   8.336304250827810 
 -3.737530620959866   7.902192077974950   1.669732658376596 
  9.955103855988721   1.436127301922384   8.336053860066365 
  2.486728016538813   1.438927200714213   1.668619463858494 
  1.247680028196256   7.900302869886274   1.671226896682007 
  6.215238348668205   7.900583986093338   1.662313093744593 
  7.465596277644053   1.438574160879980   1.668413860100802 
  1.247680028196256   7.900302869886275   8.334730316162593 
 12.444445827174830   1.435814152895754   1.669756629703951 
 -2.491531316977944  10.059493714127386   8.336259906624070 
 -1.246456679972211   3.591271586924699   8.335033886978374 
  3.730110041440390   3.596430508935136   8.338731416928267 
  2.489254216338687  10.057851446902973   8.337543352743813 
  7.463516817800314  10.058436620710475   8.338120689201210 
  8.709364710499461   3.592043051476162   8.340210716351566 
 -4.982808989502651  10.059077481857548   1.669732658376596 
 -0.000281511094974  10.058427953205076   1.670716178643819 
  1.243288252180506   3.592307804746480   1.665900222360817 
  4.976097198282162  10.058252060882831   1.665746496493062 
  6.221026631002541   3.598122696646745   1.665979953366356 
 11.199607959709686   3.591115825144805   1.670181621935123 
 -2.491299804853703   5.746390536904888   8.335127787426661 
 -3.736689135482826  12.218024918015859   8.335319231824956 
  1.242985830579531  12.215618194562911   8.335376136460797 
  2.490269513370113   5.743897296835897   8.338731416928267 
  6.220415821329257  12.215329589467293   8.335775590909519 
 -6.226672481533837  12.216245798119475   1.670829425417954 
  7.460339919990133   5.744004803979902   8.343644119100034 
 -1.246829390069554  12.217512213656283   1.670716178643819 
  0.000125827251043   5.745848530772664   1.668619463858494 
 -1.244767368801572   7.901889809637099   1.670637981019698 
  4.975109959735950   5.746876072171266   1.779238057560133 
  3.731888963494249  12.215051682142173   1.669903352778277 
  9.953234353757781   5.746119351936919   1.667836523643418 
 -3.737530620959866   7.902192077974951   8.336224554468018 
  2.486728016538814   1.438927200714214   8.337337748986133 
  6.215238348668206   7.900583986093339   8.343644119100034 
  7.465596277644054   1.438574160879981   8.337543352743813 
 12.444445827174830   1.435814152895755   8.336200583140677 
  1.241190148077639   0.716778457751489   1.665966766034805 
  4.977610726102667   7.191160007244161   1.648211993185956 
  6.221529851869679   0.717447250196430   1.665985786683558 
  9.955535041389059   7.184609233219176   1.665426339781205 
 11.200128582526080   0.717407256740422   1.665618316789799 
 -3.736448965816998   9.340740174451167   8.339881590367584 
  1.242706779446941   9.341021773528851   8.339971426161084 
  2.484152616008892   2.871181067158613   8.353954228904671 
  6.221229606141375   9.343435048019044   8.349694260754038 
  7.468039895349405   2.871944787662894   8.350146230224945 
 12.444295747693756   2.872457709043314   8.339858275656370 
 -1.246863328512945   9.340677704588742   1.666620788431384 
 -0.004289727190033   2.872018322521777   1.664763622140862 
  4.976919092499763   2.873543607096441   1.659049863834231 
  3.731811401023802   9.343282368521448   1.655810982619696 
  8.710435941893239   9.341184134004205   1.665426339781205 
  9.956592094653731   2.872101180034791   1.665163480656378 
 -4.981377001591243  11.496913036330616   8.339890087629691 
 -0.002103856630499  11.496765328486994   8.339504457163400 
  1.239206359995461   5.027491235266543   8.353954228904671 
  6.227146920970191   5.026899831837312   8.357745219658698 
  4.976222940443011  11.498353595576654   8.340793732188251 
 11.200418661928275   5.028296856052720   8.339445936633684 
 -1.248042263696199   5.028255466791019   1.665966766034805 
 -2.491710247652824  11.496815816184615   1.666620788431384 
  2.487135897759797  11.497465767247846   1.666005171115775 
  3.724240620405604   5.024686322387810   1.650894025071419 
  7.465456455041942  11.497441162729473   1.666511276210931 
  8.712881222231761   5.027767854189363   1.656262952090588 
 -0.002159734633932   7.184612961800260   8.340647969936699 
  1.241190148077639   0.716778457751489   8.339990446809836 
  4.977610726102668   7.191160007244162   8.357745219658698 
  6.221529851869680   0.717447250196431   8.339971426161084 
  9.955535041389059   7.184609233219177   8.340530873063422 
 -2.491612510365952   7.184514438647504   1.666067125214937 
 11.200128582526080   0.717407256740423   8.340338896054815 
  3.731591782927687   0.717565630546093   1.665309242907956 
  2.487635617844490   7.185109059640998   1.659049863834231 
  7.466511658861054   7.185287513820696   1.660175975344265 
  8.711279691425174   0.716932483004838   1.666005171115775 
  2.487635617844491   7.185109059640999   8.346907349010369 
 13.688540603241361   0.717362402178646   1.666098937188231 
 -1.246863328512945   9.340677704588742   8.339336424413244 
 -0.004289727190033   2.872018322521777   8.341193590703767 
  4.976919092499764   2.873543607096442   8.346907349010369 
  3.731811401023803   9.343282368521448   8.350146230224945 
  8.710435941893239   9.341184134004205   8.340530873063422 
  9.956592094653731   2.872101180034792   8.340793732188251 
 -3.736448965816998   9.340740174451167   1.666075622477070 
  1.242706779446941   9.341021773528851   1.665985786683558 
  2.484152616008892   2.871181067158612   1.652002983939984 
  6.221229606141375   9.343435048019044   1.656262952090588 
  7.468039895349404   2.871944787662893   1.655810982619696 
 12.444295747693756   2.872457709043313   1.666098937188231 
 -1.248042263696199   5.028255466791020   8.339990446809836 
 -2.491710247652823  11.496815816184615   8.339336424413244 
  2.487135897759797  11.497465767247846   8.339952041728825 
  3.724240620405604   5.024686322387811   8.355063187773220 
  7.465456455041942  11.497441162729473   8.339445936633684 
 -4.981377001591244  11.496913036330616   1.666067125214937 
  8.712881222231761   5.027767854189364   8.349694260754038 
 -0.002103856630500  11.496765328486994   1.666452755681228 
  1.239206359995461   5.027491235266542   1.652002983939984 
 -0.002159734633932   7.184612961800259   1.665309242907956 
  6.227146920970190   5.026899831837311   1.648211993185956 
  4.976222940443010  11.498353595576654   1.665163480656378 
 11.200418661928275   5.028296856052719   1.666511276210931 
 -2.491612510365952   7.184514438647505   8.339890087629691 
  3.731591782927687   0.717565630546093   8.340647969936699 
  7.466511658861069   7.185287513820697   8.345781237500335 
  8.711279691425174   0.716932483004839   8.339952041728825 
 13.688540603241361   0.717362402178647   8.339858275656370 
  0.039752102820576   1.462779779387043   5.002978606422314 
  3.632895243344181   8.098470211372877   5.002978606422314 
  5.019722632346416   1.331901072144003   5.002978606422314 
  8.681992364604085   7.887045626476298   5.002978606422314 
 10.000364962590220   1.437472444926005   5.002978606422314 
 -4.976183805506623  10.062137156043919  11.673616748318732 
  0.002016832233682  10.062137871908291  11.673616748318732 
  1.246983182394583   3.594441073700241  11.673616748318732 
  4.981044985639547  10.061705789609791  11.673616748318732 
  6.225385523440670   3.594056149027023  11.673616748318732 
 11.204338380499344   3.594606551193389  11.673616748318732 
 -2.510560469887624  10.048507227572566   5.002978606422314 
 -1.202705190531632   3.614778937707591   5.002978606422314 
  3.822183183727141   3.442134757002237   5.002978606422314 
  2.449300811540120  10.149648677232934   5.002978606422314 
  7.472170110872294  10.081716131884214   5.002978606422314 
  8.772333960766248   3.562835945934822   5.002978606422314 
 -6.221090234650888  12.217727094111076  11.673616748318732 
 -1.242467334562259  12.217647678013899  11.673616748318732 
  0.002002576097862   5.750541115845968  11.673616748318732 
  4.980798499605350   5.750160352196159  11.673616748318732 
  3.736264786394093  12.217722512759106  11.673616748318732 
  9.959858746055534   5.750620039897273  11.673616748318732 
 -2.484324485037149   5.759369551446545   5.002978606422314 
 -3.736742481757064  12.179843036718800   5.002978606422314 
  1.253608623689052  12.221751267024299   5.002978606422314 
  2.402682043643570   5.900782853028947   5.002978606422314 
  6.250915710171190  12.251612237740336   5.002978606422314 
  7.505219155901588   5.705141438232542   5.002978606422314 
 -1.242671193368641   7.906368266622075  11.673616748318732 
  0.002340168301910   1.438458023684773  11.673616748318732 
  3.735850998372093   7.906056433642682  11.673616748318732 
  4.980989908053698   1.437953215885180  11.673616748318732 
  8.715735817077613   7.906527417845318  11.673616748318732 
 -3.757634447510971   7.899509204807602   5.002978606422314 
  9.959604774602120   1.438581460407631  11.673616748318732 
  2.511861203398558   1.408139072400763   5.002978606422314 
  1.173935788944300   7.992999279996449   5.002978606422314 
  6.204021304610153   7.958882227368774   5.002978606422314 
  7.525118308707567   1.358074882191758   5.002978606422314 
  1.246413277403612   7.906429684930561  11.673616748318732 
 12.488324854888846   1.461147721358203   5.002978606422314 
 -2.487072624685641  10.062067941322582  11.673616748318732 
 -1.242474416093770   3.594540129860842  11.673616748318732 
  3.736483921588463   3.593856713387889  11.673616748318732 
  2.491373185909958  10.061921145346606  11.673616748318732 
  7.470726724057347  10.061923168744817  11.673616748318732 
  8.714829620993477   3.594601096656702  11.673616748318732 
 -4.995184339096253  10.043008493934678   5.002978606422314 
 -0.030745402292056  10.084532490116832   5.002978606422314 
  1.301322200730524   3.625813720563988   5.002978606422314 
  4.982287728045735  10.127388584041812   5.002978606422314 
  6.340542865479224   3.408686960841919   5.002978606422314 
 11.246279599251706   3.599388179557986   5.002978606422314 
 -2.487225841452958   5.750484256519877  11.673616748318732 
 -3.731762590247624  12.217601030699093  11.673616748318732 
  1.246794201210160  12.217816958371714  11.673616748318732 
  2.491227481116064   5.750704136738468  11.673616748318732 
  6.225804089159811  12.217680891017437  11.673616748318732 
 -6.211944665316373  12.215797095009263   5.002978606422314 
  7.470605238705249   5.750766561979106  11.673616748318732 
 -1.239454143548508  12.178077441525620   5.002978606422314 
 -0.013970880573507   5.783008573227990   5.002978606422314 
 -1.277860521106233   7.920934551056956   5.002978606422314 
  3.755684444807866  12.253576378760641   5.002978606422314 
  9.977721648357905   5.741973567976789   5.002978606422314 
 -3.731568273389138   7.906399818527047  11.673616748318732 
  2.491730288845132   1.438206220355417  11.673616748318732 
  6.226226862227294   7.906093133879010  11.673616748318732 
  7.470180224667594   1.438374393136771  11.673616748318732 
 12.449168830613171   1.438540980202247  11.673616748318732 
  4.435333510371618   5.435235993828547   5.002978606422314 
Generated by cif2cell 2.0.0.  :  Failed to get author information, No journal information. Species order: B N Sn 
 1.0
 14.936314146199660   0.000000000000000   0.000000000000000
 -7.468157073099825  12.935227489513863   0.000000000000000
  0.000000000000001   0.000000000000001  13.341276283792837
 B N Sn 
 143 143   1
Cartesian
  1.272541836199419   0.720284018493126   5.002978606422314 
  4.865577505956440   7.402947340233605   5.002978606422314 
  6.261959492227046   0.662228573776681   5.002978606422314 
  9.933112393584228   7.177299098670443   5.002978606422314 
 11.244135508443518   0.742814667265064   5.002978606422314 
 -3.731875487197946   9.343380673563063  11.673616748318732 
  1.247292934964295   9.342370635800144  11.673616748318732 
  2.493188909713178   2.877041517812746  11.673616748318732 
  6.225507327216467   9.341151594122341  11.673616748318732 
  7.468430248902364   2.877182630802334  11.673616748318732 
 12.449290897789941   2.876303860847042  11.673616748318732 
 -1.264887243425346   9.349285122812656   5.002978606422314 
  0.065494115717001   2.912308043009240   5.002978606422314 
  5.037260174723951   2.755952697058439   5.002978606422314 
  3.693385042620260   9.471085312554207   5.002978606422314 
  8.692893855766545   9.325420618659464   5.002978606422314 
 10.008375046016512   2.872061223254811   5.002978606422314 
 -4.976245797149567  11.499286034891281  11.673616748318732 
  0.002034314655933  11.499154502793154  11.673616748318732 
  1.248799805991715   5.032386669843431  11.673616748318732 
  6.223658544845864   5.032673227036835  11.673616748318732 
  4.981078105785294  11.497711390627009  11.673616748318732 
 11.203834045047493   5.032301777971683  11.673616748318732 
 -1.229330514978549   5.053654044785202   5.002978606422314 
 -2.493267962266119  11.476902938882869   5.002978606422314 
  2.496612998096192  11.549928809745266   5.002978606422314 
  7.481238314591567  11.512271507792159   5.002978606422314 
  8.742705425917009   5.010564600515644   5.002978606422314 
  0.003230510122318   7.187531215137929  11.673616748318732 
  1.247858207680812   0.720364367093363  11.673616748318732 
  4.980866444949394   7.185252287302752  11.673616748318732 
  6.224991078621500   0.720744546244520  11.673616748318732 
  9.959025177288222   7.187768061879243  11.673616748318732 
 -2.508494936803033   7.192414696896073   5.002978606422314 
 11.204174699478695   0.719743283452170  11.673616748318732 
  3.748971651294422   0.679398811043575   5.002978606422314 
  2.415969443609491   7.296161424758083   5.002978606422314 
  7.415599972818256   7.155893638179031   5.002978606422314 
  8.761452569155960   0.698908371401660   5.002978606422314 
  2.492782767855908   7.186566965893658  11.673616748318732 
 13.734719608810153   0.750823095777765   5.002978606422314 
 -1.242185635036090   9.343260958461167  11.673616748318732 
  0.003574532540987   2.876558754994459  11.673616748318732 
  4.980755251356589   2.877272216637129  11.673616748318732 
  3.736542683020067   9.341001503045064  11.673616748318732 
  8.714916635708647   9.342627266025499  11.673616748318732 
  9.958463511524027   2.876626979035633  11.673616748318732 
 -3.753662362876705   9.330802015025121   5.002978606422314 
  1.215100823082761   9.403644207354089   5.002978606422314 
  2.561134899369204   2.868109883125501   5.002978606422314 
  6.221243253274802   9.377865192894955   5.002978606422314 
  7.559507312358480   2.774765113094055   5.002978606422314 
 12.496363061163235   2.895719554187831   5.002978606422314 
 -1.241602745308882   5.032237221130379  11.673616748318732 
 -2.487134237436462  11.499575190630491  11.673616748318732 
  2.491508032099880  11.498263963158111  11.673616748318732 
  3.737727492661108   5.032472971715062  11.673616748318732 
  7.470632510723561  11.498396510314869  11.673616748318732 
 -4.982976390470083  11.478342297034324   5.002978606422314 
  8.713042553686412   5.032614196259009  11.673616748318732 
  0.004403683921184  11.500522458776297   5.002978606422314 
  1.275037778283252   5.095695440314448   5.002978606422314 
 -0.026523235721385   7.218747779071514   5.002978606422314 
  6.354543521465689   4.823982550628209   5.002978606422314 
  5.002079812537875  11.543218925329764   5.002978606422314 
 11.221153047274257   5.034549174810324   5.002978606422314 
 -2.486991831108435   7.187771692765676  11.673616748318732 
  3.736814186830896   0.720774592768814  11.673616748318732 
  7.469237272496828   7.186861147587001  11.673616748318732 
  8.714157016530685   0.720319764457004  11.673616748318732 
 13.694369043458295   0.719765253155796  11.673616748318732 
 -0.002481604853370   1.436643553469540   1.670923325866266 
  3.737193285697438   7.900248248248986   1.665979953366356 
  4.976317305977355   1.442113661774055   1.671226896682007 
  8.705897284552943   7.900847138443750   1.669652962016832 
  9.955103855988721   1.436127301922383   1.669903352778277 
 -4.982808989502650  10.059077481857548   8.336224554468018 
 -0.000281511094973  10.058427953205076   8.335241034200809 
  1.243288252180506   3.592307804746481   8.340056990483783 
  4.976097198282163  10.058252060882831   8.340210716351566 
  6.221026631002542   3.598122696646746   8.339977259478259 
 11.199607959709686   3.591115825144806   8.335775590909519 
 -2.491531316977944  10.059493714127386   1.669697306220543 
 -1.246456679972211   3.591271586924699   1.670923325866266 
  3.730110041440389   3.596430508935135   1.667225795916347 
  2.489254216338686  10.057851446902973   1.668413860100802 
  7.463516817800313  10.058436620710475   1.667836523643418 
  8.709364710499461   3.592043051476161   1.665746496493062 
 -6.226672481533836  12.216245798119475   8.335127787426661 
 -1.246829390069554  12.217512213656283   8.335241034200809 
  0.000125827251043   5.745848530772665   8.337337748986133 
  4.975109959735951   5.746876072171267   8.226719155284481 
  3.731888963494250  12.215051682142173   8.336053860066365 
  9.953234353757781   5.746119351936920   8.338120689201210 
 -2.491299804853703   5.746390536904887   1.670829425417954 
 -3.736689135482827  12.218024918015859   1.670637981019698 
  1.242985830579530  12.215618194562911   1.670581076383844 
  2.490269513370113   5.743897296835896   1.667225795916347 
  6.220415821329256  12.215329589467293   1.670181621935123 
  7.460339919990132   5.744004803979901   1.662313093744593 
 -1.244767368801571   7.901889809637100   8.335319231824956 
 -0.002481604853370   1.436643553469541   8.335033886978374 
  3.737193285697438   7.900248248248987   8.339977259478259 
  4.976317305977356   1.442113661774056   8.334730316162593 
  8.705897284552943   7.900847138443751   8.336304250827810 
 -3.737530620959866   7.902192077974950   1.669732658376596 
  9.955103855988721   1.436127301922384   8.336053860066365 
  2.486728016538813   1.438927200714213   1.668619463858494 
  1.247680028196256   7.900302869886274   1.671226896682007 
  6.215238348668205   7.900583986093338   1.662313093744593 
  7.465596277644053   1.438574160879980   1.668413860100802 
  1.247680028196256   7.900302869886275   8.334730316162593 
 12.444445827174830   1.435814152895754   1.669756629703951 
 -2.491531316977944  10.059493714127386   8.336259906624070 
 -1.246456679972211   3.591271586924699   8.335033886978374 
  3.730110041440390   3.596430508935136   8.338731416928267 
  2.489254216338687  10.057851446902973   8.337543352743813 
  7.463516817800314  10.058436620710475   8.338120689201210 
  8.709364710499461   3.592043051476162   8.340210716351566 
 -4.982808989502651  10.059077481857548   1.669732658376596 
 -0.000281511094974  10.058427953205076   1.670716178643819 
  1.243288252180506   3.592307804746480   1.665900222360817 
  4.976097198282162  10.058252060882831   1.665746496493062 
  6.221026631002541   3.598122696646745   1.665979953366356 
 11.199607959709686   3.591115825144805   1.670181621935123 
 -2.491299804853703   5.746390536904888   8.335127787426661 
 -3.736689135482826  12.218024918015859   8.335319231824956 
  1.242985830579531  12.215618194562911   8.335376136460797 
  2.490269513370113   5.743897296835897   8.338731416928267 
  6.220415821329257  12.215329589467293   8.335775590909519 
 -6.226672481533837  12.216245798119475   1.670829425417954 
  7.460339919990133   5.744004803979902   8.343644119100034 
 -1.246829390069554  12.217512213656283   1.670716178643819 
  0.000125827251043   5.745848530772664   1.668619463858494 
 -1.244767368801572   7.901889809637099   1.670637981019698 
  4.975109959735950   5.746876072171266   1.779238057560133 
  3.731888963494249  12.215051682142173   1.669903352778277 
  9.953234353757781   5.746119351936919   1.667836523643418 
 -3.737530620959866   7.902192077974951   8.336224554468018 
  2.486728016538814   1.438927200714214   8.337337748986133 
  6.215238348668206   7.900583986093339   8.343644119100034 
  7.465596277644054   1.438574160879981   8.337543352743813 
 12.444445827174830   1.435814152895755   8.336200583140677 
  1.241190148077639   0.716778457751489   1.665966766034805 
  4.977610726102667   7.191160007244161   1.648211993185956 
  6.221529851869679   0.717447250196430   1.665985786683558 
  9.955535041389059   7.184609233219176   1.665426339781205 
 11.200128582526080   0.717407256740422   1.665618316789799 
 -3.736448965816998   9.340740174451167   8.339881590367584 
  1.242706779446941   9.341021773528851   8.339971426161084 
  2.484152616008892   2.871181067158613   8.353954228904671 
  6.221229606141375   9.343435048019044   8.349694260754038 
  7.468039895349405   2.871944787662894   8.350146230224945 
 12.444295747693756   2.872457709043314   8.339858275656370 
 -1.246863328512945   9.340677704588742   1.666620788431384 
 -0.004289727190033   2.872018322521777   1.664763622140862 
  4.976919092499763   2.873543607096441   1.659049863834231 
  3.731811401023802   9.343282368521448   1.655810982619696 
  8.710435941893239   9.341184134004205   1.665426339781205 
  9.956592094653731   2.872101180034791   1.665163480656378 
 -4.981377001591243  11.496913036330616   8.339890087629691 
 -0.002103856630499  11.496765328486994   8.339504457163400 
  1.239206359995461   5.027491235266543   8.353954228904671 
  6.227146920970191   5.026899831837312   8.357745219658698 
  4.976222940443011  11.498353595576654   8.340793732188251 
 11.200418661928275   5.028296856052720   8.339445936633684 
 -1.248042263696199   5.028255466791019   1.665966766034805 
 -2.491710247652824  11.496815816184615   1.666620788431384 
  2.487135897759797  11.497465767247846   1.666005171115775 
  3.724240620405604   5.024686322387810   1.650894025071419 
  7.465456455041942  11.497441162729473   1.666511276210931 
  8.712881222231761   5.027767854189363   1.656262952090588 
 -0.002159734633932   7.184612961800260   8.340647969936699 
  1.241190148077639   0.716778457751489   8.339990446809836 
  4.977610726102668   7.191160007244162   8.357745219658698 
  6.221529851869680   0.717447250196431   8.339971426161084 
  9.955535041389059   7.184609233219177   8.340530873063422 
 -2.491612510365952   7.184514438647504   1.666067125214937 
 11.200128582526080   0.717407256740423   8.340338896054815 
  3.731591782927687   0.717565630546093   1.665309242907956 
  2.487635617844490   7.185109059640998   1.659049863834231 
  7.466511658861054   7.185287513820696   1.660175975344265 
  8.711279691425174   0.716932483004838   1.666005171115775 
  2.487635617844491   7.185109059640999   8.346907349010369 
 13.688540603241361   0.717362402178646   1.666098937188231 
 -1.246863328512945   9.340677704588742   8.339336424413244 
 -0.004289727190033   2.872018322521777   8.341193590703767 
  4.976919092499764   2.873543607096442   8.346907349010369 
  3.731811401023803   9.343282368521448   8.350146230224945 
  8.710435941893239   9.341184134004205   8.340530873063422 
  9.956592094653731   2.872101180034792   8.340793732188251 
 -3.736448965816998   9.340740174451167   1.666075622477070 
  1.242706779446941   9.341021773528851   1.665985786683558 
  2.484152616008892   2.871181067158612   1.652002983939984 
  6.221229606141375   9.343435048019044   1.656262952090588 