Species order: X N B                    
   2.51242800000000     
     5.9449720136058266    0.0000000000000000    0.0000000000000000
    -2.9724860068029120    5.1484967885702053   -0.0000000000000001
     0.0000000000000000    0.0000000000000009    5.3101128803662583
   In   N    B 
     1   143   143
Direct
  0.4866353495167473  0.4099843414250370  0.3750000000000000
  0.1111942333609796  0.0555842925132544  0.1249094697181282
  0.6111934578986132  0.5556290530370939  0.1264016264363220
  0.4445010645380078  0.0555460868717183  0.1249379030085440
  0.9445110382658553  0.5555915431052338  0.1252199371296264
  0.7778440293238850  0.0555886813286095  0.1250832924890592
  0.1111697433382828  0.7222515383358040  0.6248396800297954
  0.4445010645380078  0.7222883109996246  0.6250620969914543
  0.2778773176793269  0.2222545517567197  0.6244581920184340
  0.7778500852930136  0.7222614867671393  0.6246938026223130
  0.6111646233115058  0.2222155046097710  0.6248558897385822
  0.9445289719586989  0.2222680647796187  0.6249483422766504
  0.2778321711702629  0.7222625105407375  0.1250847471016641
  0.1112206463294485  0.2222769898313885  0.1250000381680185
  0.4445343401845234  0.2222199052745528  0.1257304725933988
  0.6111646233115058  0.7222824520350629  0.1251441102614177
  0.9445110382658553  0.7222528284939557  0.1252199371296264
  0.7778404278339303  0.2222535847284152  0.1250750615259642
  0.1111755757758147  0.8889097610385641  0.6249290699398977
  0.4444970743327415  0.8889152038330296  0.6249673623410743
  0.2778773176793269  0.3889560992559366  0.6244581920184340
  0.6111934578986132  0.3888977381948511  0.6235983735636775
  0.7778404278339303  0.8889201764388455  0.6249249384740374
  0.9445210770406359  0.3889305766023733  0.6249259253243802
  0.1111942333609796  0.3889432741810531  0.1249094697181282
  0.2778321711702629  0.8889029939628558  0.1250847471016641
  0.6111658529768006  0.8889325401635275  0.1249946977125495
  0.4446564077122885  0.3889948705228093  0.1300904559303598
  0.9445210770406359  0.8889238337715932  0.1250740746756201
  0.7778500852930136  0.3889219318592091  0.1253061973776847
  0.2778464884520963  0.5556187616621672  0.6249748311493500
  0.1111942333609796  0.0555842925132544  0.6250905302818702
  0.6111934578986132  0.5556290530370939  0.6235983735636775
  0.4445010645380078  0.0555460868717183  0.6250620969914543
  0.9445110382658553  0.5555915431052338  0.6247800628703742
  0.1111755757758147  0.5555991480705795  0.1250709300601043
  0.7778440293238850  0.0555886813286095  0.6249167075109394
  0.2778464884520963  0.0555610601232636  0.1250251688506479
  0.4445343401845234  0.5556477682433093  0.1257304725933988
  0.7778386323576294  0.5555859828454826  0.1256509912548862
  0.6111658529768006  0.0555666461465982  0.1249946977125495
  0.4445343401845234  0.5556477682433093  0.6242695274065998
  0.9445289719586989  0.0555942405124162  0.1250516577233469
  0.2778321711702629  0.7222625105407375  0.6249152528983372
  0.1112206463294485  0.2222769898313885  0.6249999618319821
  0.4445343401845234  0.2222199052745528  0.6242695274065998
  0.6111646233115058  0.7222824520350629  0.6248558897385822
  0.9445110382658553  0.7222528284939557  0.6247800628703742
  0.7778404278339303  0.2222535847284152  0.6249249384740374
  0.1111697433382828  0.7222515383358040  0.1251603199702061
  0.4445010645380078  0.7222883109996246  0.1249379030085440
  0.2778773176793269  0.2222545517567197  0.1255418079815646
  0.7778500852930136  0.7222614867671393  0.1253061973776847
  0.6111646233115058  0.2222155046097710  0.1251441102614177
  0.9445289719586989  0.2222680647796187  0.1250516577233469
  0.1111942333609796  0.3889432741810531  0.6250905302818702
  0.2778321711702629  0.8889029939628558  0.6249152528983372
  0.6111658529768006  0.8889325401635275  0.6250053022874525
  0.4446564077122885  0.3889948705228093  0.6199095440696406
  0.9445210770406359  0.8889238337715932  0.6249259253243802
  0.1111755757758147  0.8889097610385641  0.1250709300601043
  0.7778500852930136  0.3889219318592091  0.6246938026223130
  0.4444970743327415  0.8889152038330296  0.1250326376589262
  0.2778773176793269  0.3889560992559366  0.1255418079815646
  0.2778464884520963  0.5556187616621672  0.1250251688506479
  0.6111934578986132  0.3888977381948511  0.1264016264363220
  0.7778404278339303  0.8889201764388455  0.1250750615259642
  0.9445210770406359  0.3889305766023733  0.1250740746756201
  0.1111755757758147  0.5555991480705795  0.6249290699398977
  0.2778464884520963  0.0555610601232636  0.6249748311493500
  0.7778386323576294  0.5555859828454826  0.6243490087451123
  0.6111658529768006  0.0555666461465982  0.6250053022874525
  0.9445289719586989  0.0555942405124162  0.6249483422766504
  0.0557974473941822  0.1112807540009778  0.3750000000000000
  0.5545180440210046  0.6158373645841803  0.3750000000000000
  0.3864692573462981  0.1034258050395341  0.3750000000000000
  0.8871091359957129  0.6102212346645262  0.3750000000000000
  0.7225283789631521  0.1106346328681617  0.3750000000000000
  0.0555544224171162  0.7777809077714243  0.8750000000000000
  0.3889019025555976  0.7777802846765292  0.8750000000000000
  0.2222273940932084  0.2777803637132720  0.8750000000000000
  0.7222324625410294  0.7777844392322615  0.8750000000000000
  0.5555675337932088  0.2777895347162671  0.8750000000000000
  0.8888974273839312  0.2777793859791881  0.8750000000000000
  0.2198555879701666  0.7765944606517515  0.3750000000000000
  0.0557974473941823  0.2778500267265415  0.3750000000000000
  0.3838670040871242  0.2622131864101473  0.3750000000000000
  0.5550512323645047  0.7801877338554573  0.3750000000000000
  0.8883895094501675  0.7780401455997729  0.3750000000000000
  0.7224395023602875  0.2763227657911702  0.3750000000000000
  0.0555584593376238  0.9444502623675729  0.8750000000000000
  0.3889019025555976  0.9444549512124081  0.8750000000000000
  0.2222283911920476  0.4444395989776877  0.8750000000000000
  0.5555535961390502  0.4444434647361894  0.8750000000000000
  0.7222321045327705  0.9444503733282359  0.8750000000000000
  0.8888934803936646  0.4444422225693111  0.8750000000000000
  0.0541136716936197  0.4442599129153365  0.3750000000000000
  0.2196955842182757  0.9415684460898809  0.3750000000000000
  0.5551023091023310  0.9442178212178274  0.3750000000000000
  0.3838670040871242  0.4549871510103129  0.3750000000000000
  0.8890660826403308  0.9450791603406944  0.3750000000000000
  0.7228250659553285  0.4436341169268217  0.3750000000000000
  0.2222292213279276  0.6111067256513384  0.8750000000000000
  0.0555588691393258  0.1111140911204416  0.8750000000000000
  0.5555675337932088  0.6111113324102780  0.8750000000000000
  0.3889045898646545  0.1111313928260654  0.8750000000000000
  0.8888864259602081  0.6111098796467748  0.8750000000000000
  0.0533730226623413  0.6103371081179393  0.3750000000000000
  0.7222321045327705  0.1111150645378722  0.8750000000000000
  0.2196318187214344  0.1075069882981648  0.3750000000000000
  0.3864692573462981  0.6163767856401078  0.3750000000000000
  0.7228250659553285  0.6125242823618451  0.3750000000000000
  0.5550512323645047  0.1081968318423857  0.3750000000000000
  0.3889045898646545  0.6111065303719315  0.8750000000000000
  0.8893312487562897  0.1113322910448159  0.3750000000000000
  0.2222263652840064  0.7777798493086713  0.8750000000000000
  0.0555588691393258  0.2777781113522205  0.8750000000000000
  0.3889044625937805  0.2777997985825236  0.8750000000000000
  0.5555688117117755  0.7777822301321549  0.8750000000000000
  0.8888934803936646  0.7777845911576858  0.8750000000000000
  0.7222324625410294  0.2777813566421038  0.8750000000000000
  0.0533730226623413  0.7763692478777334  0.3750000000000000
  0.3871433847584465  0.7787710243529551  0.3750000000000000
  0.2233980472848829  0.2783656903091101  0.3750000000000000
  0.7224395023602875  0.7794500699024532  0.3750000000000000
  0.5545180440210046  0.2720140127701595  0.3750000000000000
  0.8890660826403308  0.2773202556329698  0.3750000000000000
  0.0555584593376238  0.4444415303033800  0.8750000000000000
  0.2222292213279276  0.9444558290099268  0.8750000000000000
  0.5555665848725357  0.9444499591029297  0.8750000000000000
  0.3889044625937805  0.4444379973445936  0.8750000000000000
  0.8888974273839312  0.9444513747380756  0.8750000000000000
  0.0541136716936194  0.9431870921116100  0.3750000000000000
  0.7222235784704125  0.4444441771167262  0.8750000000000000
  0.3871433847584465  0.9417056937388282  0.3750000000000000
  0.2196318187214343  0.4454581637566050  0.3750000000000000
  0.2196955842182757  0.6114604714617295  0.3750000000000000
  0.7225283789631521  0.9452270794283280  0.3750000000000000
  0.8883895094501675  0.4436826971837299  0.3750000000000000
  0.0555544224171162  0.6111068479790244  0.8750000000000000
  0.2222283911920476  0.1111221255476967  0.8750000000000000
  0.7222235784704124  0.6111127346870211  0.8750000000000000
  0.5555688117117755  0.1111199149129572  0.8750000000000000
  0.8888966188518589  0.1111149760925999  0.8750000000000000
  0.1095489704161210  0.0540101209485821  0.3750000000000000
  0.6175750327954738  0.5719474028928044  0.3750000000000000
  0.4434572443059928  0.0510145103054414  0.3750000000000000
  0.9432492341995429  0.5547113952802474  0.3750000000000000
  0.7786201223772549  0.0559767278552957  0.3750000000000000
  0.1111298207162478  0.7222315770247896  0.8750000000000000
  0.4444413187675925  0.7222413278743097  0.8750000000000000
  0.2777091622952310  0.2221868452016591  0.8750000000000000
  0.7778311896781663  0.7222987327048598  0.8750000000000000
  0.6111344824832331  0.2221798664807021  0.8750000000000000
  0.9444607717156824  0.2222145209093662  0.8750000000000000
  0.2758323123999347  0.7221415491333131  0.3750000000000000
  0.1121113206280628  0.2227223269806960  0.3750000000000000
  0.4402336905380068  0.2115721536840419  0.3750000000000000
  0.6119529351473253  0.7276408203821412  0.3750000000000000
  0.9432492341995429  0.7218711722526308  0.3750000000000000
  0.7786159014558014  0.2211188237681571  0.3750000000000000
  0.1111221564558759  0.8889096165904662  0.8750000000000000
  0.4444505927939589  0.8888919630636450  0.8750000000000000
  0.2777091622952310  0.3888556504269020  0.8750000000000000
  0.6111339959774167  0.3888545817474413  0.8750000000000000
  0.7778181177693084  0.8889508545176413  0.8750000000000000
  0.9444781729081899  0.3888711236271460  0.8750000000000000
  0.1095489704161210  0.3888721828008680  0.3750000000000000
  0.2758323123999347  0.8870240965999489  0.3750000000000000
  0.6115963191447380  0.8905987626747698  0.3750000000000000
  0.9440363037547045  0.8892938923685065  0.3750000000000000
  0.7790435797185682  0.3868975673695246  0.3750000000000000
  0.2777525980952358  0.5555437200641224  0.8750000000000000
  0.1110976543361030  0.0555611892461471  0.8750000000000000
  0.6111339959774167  0.5556127475633047  0.8750000000000000
  0.4444413187675925  0.0555333242266155  0.8750000000000000
  0.9444903277054522  0.5555588567344045  0.8750000000000000
  0.1090881380702530  0.5551418154384328  0.3750000000000000
  0.7778094344217885  0.0555713838775617  0.8750000000000000
  0.2750739365164322  0.0517884217440898  0.3750000000000000
  0.4402336905380069  0.5619948701873012  0.3750000000000000
  0.7779396564864353  0.5556364949098873  0.3750000000000000
  0.6115963191447380  0.0543308898032957  0.3750000000000000
  0.4444115346515692  0.5555676532675582  0.8750000000000000
  0.9451096456543289  0.0562889189605766  0.3750000000000000
  0.2777774280558525  0.7222223184789959  0.8750000000000000
  0.1110812659932445  0.2222072996632861  0.8750000000000000
  0.4444115346515692  0.2221772147173481  0.8750000000000000
  0.6111344824832331  0.7222879493358560  0.8750000000000000
  0.9444903277054522  0.7222648043043827  0.8750000000000000
  0.7778181177693084  0.2222005965849941  0.8750000000000000
  0.1091178406632166  0.7212255869982745  0.3750000000000000
  0.4434572443059928  0.7257760673338882  0.3750000000000000
  0.2757941446190727  0.2185819483731845  0.3750000000000000
  0.7790435797185682  0.7254793456823738  0.3750000000000000
  0.6119529351473253  0.2176454480985111  0.3750000000000000
  0.9451096456543289  0.2221540600270918  0.3750000000000000
  0.1110976543361030  0.3888697984232827  0.8750000000000000
  0.2777774280558525  0.8888884429101863  0.8750000000000000
  0.6111334056059842  0.8889222002747016  0.8750000000000000
  0.4443703177898113  0.3888518255615713  0.8750000000000000
  0.9444781729081899  0.8889403826143727  0.8750000000000000
  0.1090881380702530  0.8872796559651478  0.3750000000000000
  0.7778311896781663  0.3888657903066312  0.8750000000000000
  0.4437482985737132  0.8885408159535210  0.3750000000000000
  0.2757941446190727  0.3905455295792186  0.3750000000000000
  0.2750739365164322  0.5566188481056785  0.3750000000000000
  0.6175750327954738  0.3789609632359998  0.3750000000000000
  0.7786159014558014  0.8908304110209717  0.3750000000000000
  0.9440363037547045  0.3880757447195294  0.3750000000000000
  0.1111221564558759  0.5555458731987399  0.8750000000000000
  0.2777525980952358  0.0555422113644499  0.8750000000000000
  0.7778338655703910  0.5555835994518625  0.8750000000000000
  0.6111334056059842  0.0555445386646139  0.8750000000000000
  0.9444607717156824  0.0555795841396522  0.8750000000000000
  0.0556533071080066  0.1111622406105033  0.1248809568138344
  0.5555048772714479  0.6113643823487018  0.1250817280681671
  0.3888093757078888  0.1108831222307262  0.1249214020077132
  0.8891925838964462  0.6112629586148963  0.1249310243933451
  0.7222883709556578  0.1110869686426655  0.1248505469149965
  0.0557409852282488  0.7778761563423752  0.6250612139061552
  0.3888835500638848  0.7778424580394220  0.6251684223751622
  0.2222188223531846  0.2777760778432592  0.6246504469422546
  0.7223407407502223  0.7779764059134761  0.6252224582338196
  0.5555048772714479  0.2774738282560807  0.6249182719318352
  0.8890280669041942  0.2777957857808991  0.6251194774644306
  0.2222985065972819  0.7778159199653110  0.1249601099107906
  0.0556533071080066  0.2778243998308386  0.1248809568138344
  0.3886396889296191  0.2773556568520946  0.1269089630687247
  0.5555414106967878  0.7779297247804395  0.1247222005929563
  0.8891276008626382  0.7779602773610973  0.1248677832895239
  0.7223407407502223  0.2776976681700806  0.1247775417661813
  0.0556894857662953  0.9445216294210369  0.6251499387789365
  0.3888835500638848  0.9443744253577969  0.6251684223751622
  0.2222270682284991  0.4445154586500567  0.6250216071403577
  0.5558012626907209  0.4445672980120248  0.6240045851718873
  0.7222883709556578  0.9445347356463295  0.6251494530850027
  0.8891276008626382  0.4445006568348798  0.6251322167104780
  0.0556894857662953  0.4445011896785900  0.1248500612210629
  0.2222734223608558  0.9444210047050797  0.1248950889820057
  0.5555648968801331  0.9444491151067325  0.1248148170206691
  0.3886396889296191  0.4446173654108597  0.1269089630687247
  0.8890280669041942  0.9445656144566325  0.1248805225355706
  0.7225445877651389  0.4445149234959797  0.1250205364490498
  0.2222734223608558  0.6111857509891140  0.6251049110179943
  0.0556533071080066  0.1111622406105033  0.6251190431861614
  0.5555048772714479  0.6113643823487018  0.6249182719318352
  0.3888093757078888  0.1108831222307262  0.6250785979922848
  0.8891925838964462  0.6112629586148963  0.6250689756066545
  0.0557409852282488  0.6111981622192098  0.1249387860938424
  0.7222883709556578  0.1110869686426655  0.6251494530850027
  0.2222270682284991  0.1110449429117768  0.1249783928596417
  0.3888093757078888  0.6112595868105068  0.1249214020077132
  0.7225445877651389  0.6113629976024948  0.1250205364490498
  0.5555414106967878  0.1109450192496863  0.1247222005929563
  0.3888093757078888  0.6112595868105068  0.6250785979922848
  0.8889960586821440  0.1111646960077432  0.1249322900241531
  0.2222985065972819  0.7778159199653110  0.6250398900892115
  0.0556533071080066  0.2778243998308386  0.6251190431861614
  0.3886396889296191  0.2773556568520946  0.6230910369312743
  0.5555414106967878  0.7779297247804395  0.6252777994070465
  0.8891276008626382  0.7779602773610973  0.6251322167104780
  0.7223407407502223  0.2776976681700806  0.6252224582338196
  0.0557409852282488  0.7778761563423752  0.1249387860938424
  0.3888835500638848  0.7778424580394220  0.1248315776248353
  0.2222188223531846  0.2777760778432592  0.1253495530577449
  0.7223407407502223  0.7779764059134761  0.1247775417661813
  0.5555048772714479  0.2774738282560807  0.1250817280681671
  0.8890280669041942  0.2777957857808991  0.1248805225355706
  0.0556894857662953  0.4445011896785900  0.6251499387789365
  0.2222734223608558  0.9444210047050797  0.6251049110179943
  0.5555648968801331  0.9444491151067325  0.6251851829793312
  0.3886396889296191  0.4446173654108597  0.6230910369312743
  0.8890280669041942  0.9445656144566325  0.6251194774644306
  0.0556894857662953  0.9445216294210369  0.1248500612210629
  0.7225445877651389  0.4445149234959797  0.6249794635509504
  0.3888835500638848  0.9443744253577969  0.1248315776248353
  0.2222270682284991  0.4445154586500567  0.1249783928596417
  0.2222734223608558  0.6111857509891140  0.1248950889820057
  0.5558012626907209  0.4445672980120248  0.1259954148281102
  0.7222883709556578  0.9445347356463295  0.1248505469149965
  0.8891276008626382  0.4445006568348798  0.1248677832895239
  0.0557409852282488  0.6111981622192098  0.6250612139061552
  0.2222270682284991  0.1110449429117768  0.6250216071403577
  0.7225445877651389  0.6113629976024948  0.6249794635509504
  0.5555414106967878  0.1109450192496863  0.6252777994070465
  0.8889960586821440  0.1111646960077432  0.6250677099758466
 
  0.00000000E+00  0.00000000E+00  0.00000000E+00
  0.00000000E+00  0.00000000E+00  0.00000000E+00
  0.00000000E+00  0.00000000E+00  0.00000000E+00
  0.00000000E+00  0.00000000E+00  0.00000000E+00
  0.00000000E+00  0.00000000E+00  0.00000000E+00
  0.00000000E+00  0.00000000E+00  0.00000000E+00
  0.00000000E+00  0.00000000E+00  0.00000000E+00
  0.00000000E+00  0.00000000E+00  0.00000000E+00
  0.00000000E+00  0.00000000E+00  0.00000000E+00
  0.00000000E+00  0.00000000E+00  0.00000000E+00
  0.00000000E+00  0.00000000E+00  0.00000000E+00
  0.00000000E+00  0.00000000E+00  0.00000000E+00
  0.00000000E+00  0.00000000E+00  0.00000000E+00
  0.00000000E+00  0.00000000E+00  0.00000000E+00
  0.00000000E+00  0.00000000E+00  0.00000000E+00
  0.00000000E+00  0.00000000E+00  0.00000000E+00
  0.00000000E+00  0.00000000E+00  0.00000000E+00
  0.00000000E+00  0.00000000E+00  0.00000000E+00
  0.00000000E+00  0.00000000E+00  0.00000000E+00
  0.00000000E+00  0.00000000E+00  0.00000000E+00
  0.00000000E+00  0.00000000E+00  0.00000000E+00
  0.00000000E+00  0.00000000E+00  0.00000000E+00
  0.00000000E+00  0.00000000E+00  0.00000000E+00
  0.00000000E+00  0.00000000E+00  0.00000000E+00
  0.00000000E+00  0.00000000E+00  0.00000000E+00
  0.00000000E+00  0.00000000E+00  0.00000000E+00
  0.00000000E+00  0.00000000E+00  0.00000000E+00
  0.00000000E+00  0.00000000E+00  0.00000000E+00
  0.00000000E+00  0.00000000E+00  0.00000000E+00
  0.00000000E+00  0.00000000E+00  0.00000000E+00
  0.00000000E+00  0.00000000E+00  0.00000000E+00
  0.00000000E+00  0.00000000E+00  0.00000000E+00
  0.00000000E+00  0.00000000E+00  0.00000000E+00
  0.00000000E+00  0.00000000E+00  0.00000000E+00
  0.00000000E+00  0.00000000E+00  0.00000000E+00
  0.00000000E+00  0.00000000E+00  0.00000000E+00
  0.00000000E+00  0.00000000E+00  0.00000000E+00
  0.00000000E+00  0.00000000E+00  0.00000000E+00
  0.00000000E+00  0.00000000E+00  0.00000000E+00
  0.00000000E+00  0.00000000E+00  0.00000000E+00
  0.00000000E+00  0.00000000E+00  0.00000000E+00
  0.00000000E+00  0.00000000E+00  0.00000000E+00
  0.00000000E+00  0.00000000E+00  0.00000000E+00
  0.00000000E+00  0.00000000E+00  0.00000000E+00
  0.00000000E+00  0.00000000E+00  0.00000000E+00
  0.00000000E+00  0.00000000E+00  0.00000000E+00
  0.00000000E+00  0.00000000E+00  0.00000000E+00
  0.00000000E+00  0.00000000E+00  0.00000000E+00
  0.00000000E+00  0.00000000E+00  0.00000000E+00
  0.00000000E+00  0.00000000E+00  0.00000000E+00
  0.00000000E+00  0.00000000E+00  0.00000000E+00
  0.00000000E+00  0.00000000E+00  0.00000000E+00
  0.00000000E+00  0.00000000E+00  0.00000000E+00
  0.00000000E+00  0.00000000E+00  0.00000000E+00
  0.00000000E+00  0.00000000E+00  0.00000000E+00
  0.00000000E+00  0.00000000E+00  0.00000000E+00
  0.00000000E+00  0.00000000E+00  0.00000000E+00
  0.00000000E+00  0.00000000E+00  0.00000000E+00
  0.00000000E+00  0.00000000E+00  0.00000000E+00
  0.00000000E+00  0.00000000E+00  0.00000000E+00
  0.00000000E+00  0.00000000E+00  0.00000000E+00
  0.00000000E+00  0.00000000E+00  0.00000000E+00
  0.00000000E+00  0.00000000E+00  0.00000000E+00
  0.00000000E+00  0.00000000E+00  0.00000000E+00
  0.00000000E+00  0.00000000E+00  0.00000000E+00
  0.00000000E+00  0.00000000E+00  0.00000000E+00
  0.00000000E+00  0.00000000E+00  0.00000000E+00
  0.00000000E+00  0.00000000E+00  0.00000000E+00
  0.00000000E+00  0.00000000E+00  0.00000000E+00
  0.00000000E+00  0.00000000E+00  0.00000000E+00
  0.00000000E+00  0.00000000E+00  0.00000000E+00
  0.00000000E+00  0.00000000E+00  0.00000000E+00
  0.00000000E+00  0.00000000E+00  0.00000000E+00
  0.00000000E+00  0.00000000E+00  0.00000000E+00
  0.00000000E+00  0.00000000E+00  0.00000000E+00
  0.00000000E+00  0.00000000E+00  0.00000000E+00
  0.00000000E+00  0.00000000E+00  0.00000000E+00
  0.00000000E+00  0.00000000E+00  0.00000000E+00
  0.00000000E+00  0.00000000E+00  0.00000000E+00
  0.00000000E+00  0.00000000E+00  0.00000000E+00
  0.00000000E+00  0.00000000E+00  0.00000000E+00
  0.00000000E+00  0.00000000E+00  0.00000000E+00
  0.00000000E+00  0.00000000E+00  0.00000000E+00
  0.00000000E+00  0.00000000E+00  0.00000000E+00
  0.00000000E+00  0.00000000E+00  0.00000000E+00
  0.00000000E+00  0.00000000E+00  0.00000000E+00
  0.00000000E+00  0.00000000E+00  0.00000000E+00
  0.00000000E+00  0.00000000E+00  0.00000000E+00
  0.00000000E+00  0.00000000E+00  0.00000000E+00
  0.00000000E+00  0.00000000E+00  0.00000000E+00
  0.00000000E+00  0.00000000E+00  0.00000000E+00
  0.00000000E+00  0.00000000E+00  0.00000000E+00
  0.00000000E+00  0.00000000E+00  0.00000000E+00
  0.00000000E+00  0.00000000E+00  0.00000000E+00
  0.00000000E+00  0.00000000E+00  0.00000000E+00
  0.00000000E+00  0.00000000E+00  0.00000000E+00
  0.00000000E+00  0.00000000E+00  0.00000000E+00
  0.00000000E+00  0.00000000E+00  0.00000000E+00
  0.00000000E+00  0.00000000E+00  0.00000000E+00
  0.00000000E+00  0.00000000E+00  0.00000000E+00
  0.00000000E+00  0.00000000E+00  0.00000000E+00
  0.00000000E+00  0.00000000E+00  0.00000000E+00
  0.00000000E+00  0.00000000E+00  0.00000000E+00
  0.00000000E+00  0.00000000E+00  0.00000000E+00
  0.00000000E+00  0.00000000E+00  0.00000000E+00
  0.00000000E+00  0.00000000E+00  0.00000000E+00
  0.00000000E+00  0.00000000E+00  0.00000000E+00
  0.00000000E+00  0.00000000E+00  0.00000000E+00
  0.00000000E+00  0.00000000E+00  0.00000000E+00
  0.00000000E+00  0.00000000E+00  0.00000000E+00
  0.00000000E+00  0.00000000E+00  0.00000000E+00
  0.00000000E+00  0.00000000E+00  0.00000000E+00
  0.00000000E+00  0.00000000E+00  0.00000000E+00
  0.00000000E+00  0.00000000E+00  0.00000000E+00
  0.00000000E+00  0.00000000E+00  0.00000000E+00
  0.00000000E+00  0.00000000E+00  0.00000000E+00
  0.00000000E+00  0.00000000E+00  0.00000000E+00
  0.00000000E+00  0.00000000E+00  0.00000000E+00
  0.00000000E+00  0.00000000E+00  0.00000000E+00
  0.00000000E+00  0.00000000E+00  0.00000000E+00
  0.00000000E+00  0.00000000E+00  0.00000000E+00
  0.00000000E+00  0.00000000E+00  0.00000000E+00
  0.00000000E+00  0.00000000E+00  0.00000000E+00
  0.00000000E+00  0.00000000E+00  0.00000000E+00
  0.00000000E+00  0.00000000E+00  0.00000000E+00
  0.00000000E+00  0.00000000E+00  0.00000000E+00
  0.00000000E+00  0.00000000E+00  0.00000000E+00
  0.00000000E+00  0.00000000E+00  0.00000000E+00
  0.00000000E+00  0.00000000E+00  0.00000000E+00
  0.00000000E+00  0.00000000E+00  0.00000000E+00
  0.00000000E+00  0.00000000E+00  0.00000000E+00
  0.00000000E+00  0.00000000E+00  0.00000000E+00
  0.00000000E+00  0.00000000E+00  0.00000000E+00
  0.00000000E+00  0.00000000E+00  0.00000000E+00
  0.00000000E+00  0.00000000E+00  0.00000000E+00
  0.00000000E+00  0.00000000E+00  0.00000000E+00
  0.00000000E+00  0.00000000E+00  0.00000000E+00
  0.00000000E+00  0.00000000E+00  0.00000000E+00
  0.00000000E+00  0.00000000E+00  0.00000000E+00
  0.00000000E+00  0.00000000E+00  0.00000000E+00
  0.00000000E+00  0.00000000E+00  0.00000000E+00
  0.00000000E+00  0.00000000E+00  0.00000000E+00
  0.00000000E+00  0.00000000E+00  0.00000000E+00
  0.00000000E+00  0.00000000E+00  0.00000000E+00
  0.00000000E+00  0.00000000E+00  0.00000000E+00
  0.00000000E+00  0.00000000E+00  0.00000000E+00
  0.00000000E+00  0.00000000E+00  0.00000000E+00
  0.00000000E+00  0.00000000E+00  0.00000000E+00
  0.00000000E+00  0.00000000E+00  0.00000000E+00
  0.00000000E+00  0.00000000E+00  0.00000000E+00
  0.00000000E+00  0.00000000E+00  0.00000000E+00
  0.00000000E+00  0.00000000E+00  0.00000000E+00
  0.00000000E+00  0.00000000E+00  0.00000000E+00
  0.00000000E+00  0.00000000E+00  0.00000000E+00
  0.00000000E+00  0.00000000E+00  0.00000000E+00
  0.00000000E+00  0.00000000E+00  0.00000000E+00
  0.00000000E+00  0.00000000E+00  0.00000000E+00
  0.00000000E+00  0.00000000E+00  0.00000000E+00
  0.00000000E+00  0.00000000E+00  0.00000000E+00
  0.00000000E+00  0.00000000E+00  0.00000000E+00
  0.00000000E+00  0.00000000E+00  0.00000000E+00
  0.00000000E+00  0.00000000E+00  0.00000000E+00
  0.00000000E+00  0.00000000E+00  0.00000000E+00
  0.00000000E+00  0.00000000E+00  0.00000000E+00
  0.00000000E+00  0.00000000E+00  0.00000000E+00
  0.00000000E+00  0.00000000E+00  0.00000000E+00
  0.00000000E+00  0.00000000E+00  0.00000000E+00
  0.00000000E+00  0.00000000E+00  0.00000000E+00
  0.00000000E+00  0.00000000E+00  0.00000000E+00
  0.00000000E+00  0.00000000E+00  0.00000000E+00
  0.00000000E+00  0.00000000E+00  0.00000000E+00
  0.00000000E+00  0.00000000E+00  0.00000000E+00
  0.00000000E+00  0.00000000E+00  0.00000000E+00
  0.00000000E+00  0.00000000E+00  0.00000000E+00
  0.00000000E+00  0.00000000E+00  0.00000000E+00
  0.00000000E+00  0.00000000E+00  0.00000000E+00
  0.00000000E+00  0.00000000E+00  0.00000000E+00
  0.00000000E+00  0.00000000E+00  0.00000000E+00
  0.00000000E+00  0.00000000E+00  0.00000000E+00
  0.00000000E+00  0.00000000E+00  0.00000000E+00
  0.00000000E+00  0.00000000E+00  0.00000000E+00
  0.00000000E+00  0.00000000E+00  0.00000000E+00
  0.00000000E+00  0.00000000E+00  0.00000000E+00
  0.00000000E+00  0.00000000E+00  0.00000000E+00
  0.00000000E+00  0.00000000E+00  0.00000000E+00
  0.00000000E+00  0.00000000E+00  0.00000000E+00
  0.00000000E+00  0.00000000E+00  0.00000000E+00
  0.00000000E+00  0.00000000E+00  0.00000000E+00
  0.00000000E+00  0.00000000E+00  0.00000000E+00
  0.00000000E+00  0.00000000E+00  0.00000000E+00
  0.00000000E+00  0.00000000E+00  0.00000000E+00
  0.00000000E+00  0.00000000E+00  0.00000000E+00
  0.00000000E+00  0.00000000E+00  0.00000000E+00
  0.00000000E+00  0.00000000E+00  0.00000000E+00
  0.00000000E+00  0.00000000E+00  0.00000000E+00
  0.00000000E+00  0.00000000E+00  0.00000000E+00
  0.00000000E+00  0.00000000E+00  0.00000000E+00
  0.00000000E+00  0.00000000E+00  0.00000000E+00
  0.00000000E+00  0.00000000E+00  0.00000000E+00
  0.00000000E+00  0.00000000E+00  0.00000000E+00
  0.00000000E+00  0.00000000E+00  0.00000000E+00
  0.00000000E+00  0.00000000E+00  0.00000000E+00
  0.00000000E+00  0.00000000E+00  0.00000000E+00
  0.00000000E+00  0.00000000E+00  0.00000000E+00
  0.00000000E+00  0.00000000E+00  0.00000000E+00
  0.00000000E+00  0.00000000E+00  0.00000000E+00
  0.00000000E+00  0.00000000E+00  0.00000000E+00
  0.00000000E+00  0.00000000E+00  0.00000000E+00
  0.00000000E+00  0.00000000E+00  0.00000000E+00
  0.00000000E+00  0.00000000E+00  0.00000000E+00
  0.00000000E+00  0.00000000E+00  0.00000000E+00
  0.00000000E+00  0.00000000E+00  0.00000000E+00
  0.00000000E+00  0.00000000E+00  0.00000000E+00
  0.00000000E+00  0.00000000E+00  0.00000000E+00
  0.00000000E+00  0.00000000E+00  0.00000000E+00
  0.00000000E+00  0.00000000E+00  0.00000000E+00
  0.00000000E+00  0.00000000E+00  0.00000000E+00
  0.00000000E+00  0.00000000E+00  0.00000000E+00
  0.00000000E+00  0.00000000E+00  0.00000000E+00
  0.00000000E+00  0.00000000E+00  0.00000000E+00
  0.00000000E+00  0.00000000E+00  0.00000000E+00
  0.00000000E+00  0.00000000E+00  0.00000000E+00
  0.00000000E+00  0.00000000E+00  0.00000000E+00
  0.00000000E+00  0.00000000E+00  0.00000000E+00
  0.00000000E+00  0.00000000E+00  0.00000000E+00
  0.00000000E+00  0.00000000E+00  0.00000000E+00
  0.00000000E+00  0.00000000E+00  0.00000000E+00
  0.00000000E+00  0.00000000E+00  0.00000000E+00
  0.00000000E+00  0.00000000E+00  0.00000000E+00
  0.00000000E+00  0.00000000E+00  0.00000000E+00
  0.00000000E+00  0.00000000E+00  0.00000000E+00
  0.00000000E+00  0.00000000E+00  0.00000000E+00
  0.00000000E+00  0.00000000E+00  0.00000000E+00
  0.00000000E+00  0.00000000E+00  0.00000000E+00
  0.00000000E+00  0.00000000E+00  0.00000000E+00
  0.00000000E+00  0.00000000E+00  0.00000000E+00
  0.00000000E+00  0.00000000E+00  0.00000000E+00
  0.00000000E+00  0.00000000E+00  0.00000000E+00
  0.00000000E+00  0.00000000E+00  0.00000000E+00
  0.00000000E+00  0.00000000E+00  0.00000000E+00
  0.00000000E+00  0.00000000E+00  0.00000000E+00
  0.00000000E+00  0.00000000E+00  0.00000000E+00
  0.00000000E+00  0.00000000E+00  0.00000000E+00
  0.00000000E+00  0.00000000E+00  0.00000000E+00
  0.00000000E+00  0.00000000E+00  0.00000000E+00
  0.00000000E+00  0.00000000E+00  0.00000000E+00
  0.00000000E+00  0.00000000E+00  0.00000000E+00
  0.00000000E+00  0.00000000E+00  0.00000000E+00