 N B In 
 1.0
 14.936314146199660   0.000000000000000   0.000000000000000
 -7.468157073099825  12.935227489513863   0.000000000000000
  0.000000000000001   0.000000000000001  13.341276283792837
 N B In 
 143 143   1
Cartesian
  1.245719773439324   0.718995468502623   1.666451745971601 
  4.979452448817008   7.187188200817975   1.686359021007744 
  6.224380636705818   0.718501269837972   1.666831082354698 
  9.958268669696219   7.186703001316249   1.670593777485510 
 11.202977775078736   0.719052238827662   1.668770763583006 
 -3.733421724526782   9.342487953024968   8.336158804354207 
  1.245044979650681   9.342963615796888   8.339126130489904 
  2.490631008231170   2.874913187553107   8.331069267395687 
  6.224251001557055   9.342616638247449   8.334212613557428 
  7.469006516320526   2.874408103824505   8.336375062557616 
 12.447848625254016   2.875087981578377   8.337608497411118 
 -1.244181288209885   9.342629880991851   1.668790169971655 
  0.001227039323401   2.875203429153363   1.667660044684178 
  4.980131396409896   2.874465027424565   1.677404972160379 
  3.734428005882893   9.342887828757426   1.669582150287012 
  8.713616012408526   9.342504641514161   1.670593777485510 
  9.958244304930622   2.874900678821992   1.668660952030274 
 -4.977964394075428  11.498249976683233   8.337351379841877 
  0.000589572408866  11.498320380467829   8.337862249345534 
  1.245677667178206   5.031235627309480   8.331069267395687 
  6.224628097063340   5.030480713707803   8.319598191836883 
  4.979473482649021  11.498384702255262   8.337296260814368 
 11.203068887787985   5.030905485979494   8.337309426657443 
 -1.243857463384404   5.031069732048285   1.666451745971601 
 -2.488678593143550  11.498162443019512   1.668790169971655 
  2.489877338160730  11.498544629846654   1.667588796192285 
  3.736452999016904   5.031737142466525   1.735572714451509 
  7.469040707757455  11.498432010686361   1.668647786187184 
  8.713683156286658   5.030793664260077   1.671744599287173 
  0.000554251084664   7.187055079542114   8.337961892780257 
  1.245719773439325   0.718995468502624   8.339505466873000 
  4.979452448817009   7.187188200817975   8.319598191836883 
  6.224380636705819   0.718501269837973   8.339126130489904 
  9.958268669696219   7.186703001316250   8.335363435359119 
 -2.488748382299341   7.186801373273050   1.668605833002778 
 11.202977775078736   0.719052238827663   8.337186449261596 
  3.735063711790463   0.718694952252977   1.667995320064345 
  2.490039743211223   7.187430286267879   1.677404972160379 
  7.468838780441239   7.186631078091470   1.676344589663872 
  8.713584734043424   0.718767208735564   1.667588796192285 
  2.490039743211223   7.187430286267880   8.328552240684235 
 13.692594924855726   0.719124148134849   1.668348715433469 
 -1.244181288209884   9.342629880991851   8.337167042872988 
  0.001227039323401   2.875203429153364   8.338297168160450 
  4.980131396409897   2.874465027424566   8.328552240684235 
  3.734428005882893   9.342887828757426   8.336375062557616 
  8.713616012408526   9.342504641514161   8.335363435359119 
  9.958244304930622   2.874900678821993   8.337296260814368 
 -3.733421724526782   9.342487953024968   1.669798408490432 
  1.245044979650681   9.342963615796888   1.666831082354698 
  2.490631008231169   2.874913187553106   1.674887945448927 
  6.224251001557054   9.342616638247449   1.671744599287173 
  7.469006516320525   2.874408103824504   1.669582150287012 
 12.447848625254016   2.875087981578376   1.668348715433469 
 -1.243857463384403   5.031069732048286   8.339505466873000 
 -2.488678593143549  11.498162443019512   8.337167042872988 
  2.489877338160730  11.498544629846654   8.338368416652370 
  3.736452999016904   5.031737142466526   8.270384498393133 
  7.469040707757456  11.498432010686361   8.337309426657443 
 -4.977964394075429  11.498249976683233   1.668605833002778 
  8.713683156286658   5.030793664260078   8.334212613557428 
  0.000589572408866  11.498320380467829   1.668094963499092 
  1.245677667178206   5.031235627309479   1.674887945448927 
  0.000554251084664   7.187055079542113   1.667995320064345 
  6.224628097063339   5.030480713707802   1.686359021007744 
  4.979473482649020  11.498384702255262   1.668660952030274 
 11.203068887787985   5.030905485979493   1.668647786187184 
 -2.488748382299340   7.186801373273051   8.337351379841877 
  3.735063711790463   0.718694952252978   8.337961892780257 
  7.468838780441239   7.186631078091470   8.329612623180729 
  8.713584734043424   0.718767208735565   8.338368416652370 
 13.692594924855726   0.719124148134850   8.337608497411118 
  0.002346052743267   1.439441868207281   5.002978606422314 
  3.683285535035403   7.965996407439058   5.002978606422314 
  5.000026078125748   1.337836316472482   5.002978606422314 
  8.692912707380138   7.893350489317668   5.002978606422314 
  9.965674031753869   1.431084144368524   5.002978606422314 
 -4.978811682262440  10.060772979023971  11.673616748318732 
  0.000175654300524  10.060764919149758  11.673616748318732 
  1.244750782033955   3.593152196751077  11.673616748318732 
  4.978874585896798  10.060818659273270  11.673616748318732 
  6.223555335640367   3.593270825761124  11.673616748318732 
 11.202351132993293   3.593139549538276  11.673616748318732 
 -2.515897285526676  10.045426015626735   5.002978606422314 
 -1.241619439523248   3.594053303675329   5.002978606422314 
  3.775308900656811   3.391787216965557   5.002978606422314 
  2.463855030893156  10.091905821948634   5.002978606422314 
  7.458738780819344  10.064126279307553   5.002978606422314 
  8.726961541075578   3.574297836040444   5.002978606422314 
 -6.223464304945763  12.216678996255613  11.673616748318732 
 -1.244576935495954  12.216739647530217  11.673616748318732 
  0.000128328378110   5.748927318124708  11.673616748318732 
  4.978749432221224   5.748977322590338  11.673616748318732 
  3.734181864009343  12.216680431557030  11.673616748318732 
  9.957627937603343   5.748961254879191  11.673616748318732 
 -2.509544010913165   5.746603038031504   5.002978606422314 
 -3.750338788056720  12.179402047120680   5.002978606422314 
  1.239615471958423  12.213672317105724   5.002978606422314 
  2.335642653418586   5.885362303124198   5.002978606422314 
  6.221370691109495  12.224813934605624   5.002978606422314 
  7.483212989660829   5.738508224558036   5.002978606422314 
 -1.244555553372647   7.904804516671994  11.673616748318732 
  0.000027237550384   1.437286045933491  11.673616748318732 
  3.734255794573491   7.904864106146873  11.673616748318732 
  4.978854429739997   1.437509847431681  11.673616748318732 
  8.712822328309064   7.904845314320474  11.673616748318732 
 -3.760897157549319   7.894849338797560   5.002978606422314 
  9.957660844615926   1.437298637309390  11.673616748318732 
  2.477610765857913   1.390627350349270   5.002978606422314 
  1.169227584200081   7.972973941510120   5.002978606422314 
  6.221914706090263   7.923140935201689   5.002978606422314 
  7.482388638820803   1.399550633525941   5.002978606422314 
  1.244961569902772   7.904801990688454  11.673616748318732 
 12.451883874625231   1.440108511593462   5.002978606422314 
 -2.489339279479034  10.060759287567473  11.673616748318732 
 -1.244645843974829   3.593123061948494  11.673616748318732 
  3.734146695469870   3.593403591206080  11.673616748318732 
  2.489550438265126  10.060790084060852  11.673616748318732 
  7.468174769866222  10.060820624463203  11.673616748318732 
  8.712976143714194   3.593165040511400  11.673616748318732 
 -5.000851256458324  10.042512837161254   5.002978606422314 
 -0.033489119471506  10.073580362247213   5.002978606422314 
  1.257864714904283   3.600723529423903   5.002978606422314 
  4.969527806207254  10.082363970905712   5.002978606422314 
  6.251012331782166   3.518563135517550   5.002978606422314 
 11.208299078427874   3.587200594062606   5.002978606422314 
 -2.489320555968884   5.748952300261891  11.673616748318732 
 -3.734059017431577  12.216751002040814  11.673616748318732 
  1.244816398524106  12.216675073458465  11.673616748318732 
  2.489666452736302   5.748906600636283  11.673616748318732 
  6.223540004706078  12.216693385021122  11.673616748318732 
 -6.235610553189570  12.200339601636742   5.002978606422314 
  7.468179326894262   5.748986537394644  11.673616748318732 
 -1.250310823098795  12.181177376682211   5.002978606422314 
 -0.046261695504435   5.762102685252806   5.002978606422314 
 -1.285040582450838   7.909380299202878   5.002978606422314 
  3.732806548819879  12.226727301654211   5.002978606422314 
  9.955772724151224   5.739136621232641   5.002978606422314 
 -3.734063623721566   7.904806099008442  11.673616748318732 
  2.489395575162060   1.437389973077782  11.673616748318732 
  6.223472359812302   7.904882244915547  11.673616748318732 
  7.468289323038484   1.437361378014524  11.673616748318732 
 12.447015048032799   1.437297493249677  11.673616748318732 
  1.232901769746787   0.698633201206067   5.002978606422314 
  4.952901656327787   7.398269768455060   5.002978606422314 
  6.242632335394018   0.659884296067029   5.002978606422314 
  9.945995049975380   7.175318088975644   5.002978606422314 
 11.211671752317592   0.724071708926862   5.002978606422314 
 -3.733868947144998   9.342229748926014  11.673616748318732 
  1.244503475414496   9.342355878382770  11.673616748318732 
  2.488625029777011   2.874037387860862  11.673616748318732 
  6.223690612204463   9.343098422924934  11.673616748318732 
  7.468822474586492   2.873947116517698  11.673616748318732 
 12.447229839032817   2.874395379435986  11.673616748318732 
 -1.273148448261103   9.341065217669357   5.002978606422314 
  0.011204582667927   2.880963966489194   5.002978606422314 
  4.995414623610075   2.736733938349472   5.002978606422314 
  3.706185342636348   9.412199542299490   5.002978606422314 
  8.697619579241280   9.337567831209830   5.002978606422314 
  9.978301595650604   2.860222287654836   5.002978606422314 
 -4.978761203058428  11.498248108214225  11.673616748318732 
  0.000068875259886  11.498019755828805  11.673616748318732 
  1.243916213169016   5.029936298854857  11.673616748318732 
  6.224062254256595   5.029922475242915  11.673616748318732 
  4.978911143804054  11.498781530183431  11.673616748318732 
 11.202872062345060   5.030136448220004  11.673616748318732 
 -1.267900705988154   5.030150148873049   5.002978606422314 
 -2.504517211354778  11.473858478200860   5.002978606422314 
  2.483863304641656  11.520097597077719   5.002978606422314 
  7.459036325941085  11.503218802821895   5.002978606422314 
  8.746627835940634   5.004608049064323   5.002978606422314 
 -0.000287702339478   7.186084399400226  11.673616748318732 
  1.244449777611485   0.718696622486844  11.673616748318732 
  4.978686078721696   7.186977285805191  11.673616748318732 
  6.223583568548293   0.718336182120198  11.673616748318732 
  9.958203437211397   7.186280195673771  11.673616748318732 
 -2.516511575698708   7.180885671637851   5.002978606422314 
 11.202590234834563   0.718828492363369  11.673616748318732 
  3.721826661088409   0.669895016582691   5.002978606422314 
  2.378402734781407   7.269531493812551   5.002978606422314 
  7.469970476534376   7.187284463135501   5.002978606422314 
  8.729243134432899   0.702782419313343   5.002978606422314 
  2.488803792414948   7.186393980831223  11.673616748318732 
 13.696080081823926   0.728109971893874   5.002978606422314 
 -1.244698787933887   9.342109987529946  11.673616748318732 
 -0.000334332042123   2.874301970975183  11.673616748318732 
  4.978615954177551   2.873912815355465  11.673616748318732 
  3.733936758297380   9.342958937593764  11.673616748318732 
  8.713217235738856   9.342659551346408  11.673616748318732 
  9.958306798574883   2.874215265132596  11.673616748318732 
 -3.756407621740971   9.329217039080859   5.002978606422314 
  1.203407040616171   9.388078537408573   5.002978606422314 
  2.486943659917753   2.827407227308323   5.002978606422314 
  6.218045933410814   9.384240375345176   5.002978606422314 
  7.514910889404517   2.815293383211423   5.002978606422314 
 12.457373155387332   2.873613304169554   5.002978606422314 
 -1.244751269539808   5.030119306406566  11.673616748318732 
 -2.489387583950814  11.497974221843014  11.673616748318732 
  2.489469913950858  11.498410881032475  11.673616748318732 
  3.733248152299768   5.029886823351684  11.673616748318732 
  7.468276288799814  11.498646073732411  11.673616748318732 
 -4.996969138672397  11.477164196726786   5.002978606422314 
  8.713820199380281   5.030067460505868  11.673616748318732 
 -0.007798390062596  11.493477588077063   5.002978606422314 
  1.202692624618334   5.051795270119865   5.002978606422314 
 -0.048326258259892   7.199991425198121   5.002978606422314 
  6.394154700663101   4.901946269102960   5.002978606422314 
  4.976790268371584  11.523094021133412   5.002978606422314 
 11.202212180471793   5.019848041109617   5.002978606422314 
 -2.489148404932476   7.186112250686326  11.673616748318732 
  3.733802101416561   0.718451139269824  11.673616748318732 
  7.468785381767507   7.186600248352798  11.673616748318732 
  8.713265192067629   0.718481243426882  11.673616748318732 
 13.691685720695098   0.718934564618977  11.673616748318732 
  0.001078204763167   1.437908870540933   1.666071347437761 
  3.731430120393672   7.908137364666595   1.668749892211661 
  4.979286404986012   1.434298410802013   1.666610937943652 
  8.716251981644554   7.906825425596978   1.666739312848878 
  9.958711082142564   1.436935210513365   1.665665640575615 
 -4.976736452796209  10.062005040957272   8.339114349004946 
 -0.000562784720914  10.061569145742565   8.340544646809931 
  1.244654759382644   3.593096758047467   8.333634193451303 
  4.979058225916377  10.063301791965191   8.341265554129521 
  6.224977223581699   3.589187090878709   8.337207320632993 
 11.204179929612705   3.593351684704190   8.339891659233183 
 -2.488531135490542  10.061225869716806   1.667127350772982 
 -1.243580978436275   3.593721813949560   1.666071347437761 
  3.733508873049882   3.587658516885393   1.693127539189522 
  2.488039654896506  10.062697960889901   1.663953336833257 
  7.470359614576206  10.063093165471091   1.665895595810310 
  8.715218419716164   3.592082511087531   1.664691658715121 
 -6.222040233410792  12.217602145327424   8.340298052045975 
 -1.244249674346865  12.215698027282034   8.340544646809931 
 -0.000457963769829   5.749908580244081   8.338585944199743 
  4.981523851285670   5.750579134184049   8.325017573131683 
  3.734392245934890  12.217771677333117   8.340291572269013 
  9.960688438202258   5.749717115397509   8.340061617034344 
 -2.487809049653752   5.749724007852113   1.665659160798652 
 -3.733138743539620  12.216300541735452   1.666259888597833 
  1.244797489235475  12.216664156175643   1.665188958183794 
  2.484372161217980   5.751226767377787   1.693127539189522 
  6.224638117458471  12.218171101768981   1.666065553611470 
  7.472445677491518   5.749901657904353   1.667933517914769 
 -1.244485526494514   7.905826727393563   8.339697324246796 
  0.001078204763167   1.437908870540934   8.339885865406799 
  3.731430120393672   7.908137364666596   8.337207320632993 
  4.979286404986013   1.434298410802014   8.339346274900949 
  8.716251981644554   7.906825425596979   8.339217899995749 
 -3.731959012055205   7.905987269478278   1.666842863839641 
  9.958711082142564   1.436935210513366   8.340291572269013 
  2.489952227011253   1.436391598123916   1.667371268644886 
  1.242396371821837   7.906781810540155   1.666610937943652 
  6.226398052719863   7.908119452659392   1.667933517914769 
  7.469186201155411   1.435099062823183   1.663953336833257 
  1.242396371821837   7.906781810540156   8.339346274900949 
 12.448128996440634   1.437940631662809   1.666756197979161 
 -2.488531135490542  10.061225869716806   8.338829862071673 
 -1.243580978436275   3.593721813949561   8.339885865406799 
  3.733508873049883   3.587658516885394   8.312829673655092 
  2.488039654896507  10.062697960889901   8.342003876011411 
  7.470359614576207  10.063093165471091   8.340061617034344 
  8.715218419716164   3.592082511087532   8.341265554129521 
 -4.976736452796210  10.062005040957272   1.666842863839641 
 -0.000562784720914  10.061569145742565   1.665412566034656 
  1.244654759382644   3.593096758047466   1.672323019393325 
  4.979058225916376  10.063301791965191   1.664691658715121 
  6.224977223581698   3.589187090878708   1.668749892211661 
 11.204179929612705   3.593351684704189   1.666065553611470 
 -2.487809049653751   5.749724007852114   8.340298052045975 
 -3.733138743539619  12.216300541735452   8.339697324246796 
  1.244797489235476  12.216664156175643   8.340768254660833 
  2.484372161217981   5.751226767377788   8.312829673655092 
  6.224638117458472  12.218171101768981   8.339891659233183 
 -6.222040233410793  12.217602145327424   1.665659160798652 
  7.472445677491518   5.749901657904354   8.338023694929859 
 -1.244249674346865  12.215698027282034   1.665412566034656 
 -0.000457963769829   5.749908580244080   1.667371268644886 
 -1.244485526494514   7.905826727393563   1.666259888597833 
  4.981523851285669   5.750579134184048   1.680939639712904 
  3.734392245934890  12.217771677333117   1.665665640575615 
  9.960688438202258   5.749717115397508   1.665895595810310 
 -3.731959012055204   7.905987269478279   8.339114349004946 
  2.489952227011253   1.436391598123916   8.338585944199743 
  6.226398052719864   7.908119452659393   8.338023694929859 
  7.469186201155412   1.435099062823184   8.342003876011411 
 12.448128996440634   1.437940631662810   8.339201014865468 
  4.206710995754240   5.303240723471377   5.002978606422314 
Generated by cif2cell 2.0.0.  :  Failed to get author information, No journal information. Species order: N B In 
 1.0
 14.936314146199660   0.000000000000000   0.000000000000000
 -7.468157073099825  12.935227489513863   0.000000000000000
  0.000000000000001   0.000000000000001  13.341276283792837
 N B In 
 143 143   1
Cartesian
  1.245719773439324   0.718995468502623   1.666451745971601 
  4.979452448817008   7.187188200817975   1.686359021007744 
  6.224380636705818   0.718501269837972   1.666831082354698 
  9.958268669696219   7.186703001316249   1.670593777485510 
 11.202977775078736   0.719052238827662   1.668770763583006 
 -3.733421724526782   9.342487953024968   8.336158804354207 
  1.245044979650681   9.342963615796888   8.339126130489904 
  2.490631008231170   2.874913187553107   8.331069267395687 
  6.224251001557055   9.342616638247449   8.334212613557428 
  7.469006516320526   2.874408103824505   8.336375062557616 
 12.447848625254016   2.875087981578377   8.337608497411118 
 -1.244181288209885   9.342629880991851   1.668790169971655 
  0.001227039323401   2.875203429153363   1.667660044684178 
  4.980131396409896   2.874465027424565   1.677404972160379 
  3.734428005882893   9.342887828757426   1.669582150287012 
  8.713616012408526   9.342504641514161   1.670593777485510 
  9.958244304930622   2.874900678821992   1.668660952030274 
 -4.977964394075428  11.498249976683233   8.337351379841877 
  0.000589572408866  11.498320380467829   8.337862249345534 
  1.245677667178206   5.031235627309480   8.331069267395687 
  6.224628097063340   5.030480713707803   8.319598191836883 
  4.979473482649021  11.498384702255262   8.337296260814368 
 11.203068887787985   5.030905485979494   8.337309426657443 
 -1.243857463384404   5.031069732048285   1.666451745971601 
 -2.488678593143550  11.498162443019512   1.668790169971655 
  2.489877338160730  11.498544629846654   1.667588796192285 
  3.736452999016904   5.031737142466525   1.735572714451509 
  7.469040707757455  11.498432010686361   1.668647786187184 
  8.713683156286658   5.030793664260077   1.671744599287173 
  0.000554251084664   7.187055079542114   8.337961892780257 
  1.245719773439325   0.718995468502624   8.339505466873000 
  4.979452448817009   7.187188200817975   8.319598191836883 
  6.224380636705819   0.718501269837973   8.339126130489904 
  9.958268669696219   7.186703001316250   8.335363435359119 
 -2.488748382299341   7.186801373273050   1.668605833002778 
 11.202977775078736   0.719052238827663   8.337186449261596 
  3.735063711790463   0.718694952252977   1.667995320064345 
  2.490039743211223   7.187430286267879   1.677404972160379 
  7.468838780441239   7.186631078091470   1.676344589663872 
  8.713584734043424   0.718767208735564   1.667588796192285 
  2.490039743211223   7.187430286267880   8.328552240684235 
 13.692594924855726   0.719124148134849   1.668348715433469 
 -1.244181288209884   9.342629880991851   8.337167042872988 
  0.001227039323401   2.875203429153364   8.338297168160450 
  4.980131396409897   2.874465027424566   8.328552240684235 
  3.734428005882893   9.342887828757426   8.336375062557616 
  8.713616012408526   9.342504641514161   8.335363435359119 
  9.958244304930622   2.874900678821993   8.337296260814368 
 -3.733421724526782   9.342487953024968   1.669798408490432 
  1.245044979650681   9.342963615796888   1.666831082354698 
  2.490631008231169   2.874913187553106   1.674887945448927 
  6.224251001557054   9.342616638247449   1.671744599287173 
  7.469006516320525   2.874408103824504   1.669582150287012 
 12.447848625254016   2.875087981578376   1.668348715433469 
 -1.243857463384403   5.031069732048286   8.339505466873000 
 -2.488678593143549  11.498162443019512   8.337167042872988 
  2.489877338160730  11.498544629846654   8.338368416652370 
  3.736452999016904   5.031737142466526   8.270384498393133 
  7.469040707757456  11.498432010686361   8.337309426657443 
 -4.977964394075429  11.498249976683233   1.668605833002778 
  8.713683156286658   5.030793664260078   8.334212613557428 
  0.000589572408866  11.498320380467829   1.668094963499092 
  1.245677667178206   5.031235627309479   1.674887945448927 
  0.000554251084664   7.187055079542113   1.667995320064345 
  6.224628097063339   5.030480713707802   1.686359021007744 
  4.979473482649020  11.498384702255262   1.668660952030274 
 11.203068887787985   5.030905485979493   1.668647786187184 
 -2.488748382299340   7.186801373273051   8.337351379841877 
  3.735063711790463   0.718694952252978   8.337961892780257 
  7.468838780441239   7.186631078091470   8.329612623180729 
  8.713584734043424   0.718767208735565   8.338368416652370 
 13.692594924855726   0.719124148134850   8.337608497411118 
  0.002346052743267   1.439441868207281   5.002978606422314 
  3.683285535035403   7.965996407439058   5.002978606422314 
  5.000026078125748   1.337836316472482   5.002978606422314 
  8.692912707380138   7.893350489317668   5.002978606422314 
  9.965674031753869   1.431084144368524   5.002978606422314 
 -4.978811682262440  10.060772979023971  11.673616748318732 
  0.000175654300524  10.060764919149758  11.673616748318732 
  1.244750782033955   3.593152196751077  11.673616748318732 
  4.978874585896798  10.060818659273270  11.673616748318732 
  6.223555335640367   3.593270825761124  11.673616748318732 
 11.202351132993293   3.593139549538276  11.673616748318732 
 -2.515897285526676  10.045426015626735   5.002978606422314 
 -1.241619439523248   3.594053303675329   5.002978606422314 
  3.775308900656811   3.391787216965557   5.002978606422314 
  2.463855030893156  10.091905821948634   5.002978606422314 
  7.458738780819344  10.064126279307553   5.002978606422314 
  8.726961541075578   3.574297836040444   5.002978606422314 
 -6.223464304945763  12.216678996255613  11.673616748318732 
 -1.244576935495954  12.216739647530217  11.673616748318732 
  0.000128328378110   5.748927318124708  11.673616748318732 
  4.978749432221224   5.748977322590338  11.673616748318732 
  3.734181864009343  12.216680431557030  11.673616748318732 
  9.957627937603343   5.748961254879191  11.673616748318732 
 -2.509544010913165   5.746603038031504   5.002978606422314 
 -3.750338788056720  12.179402047120680   5.002978606422314 
  1.239615471958423  12.213672317105724   5.002978606422314 
  2.335642653418586   5.885362303124198   5.002978606422314 
  6.221370691109495  12.224813934605624   5.002978606422314 
  7.483212989660829   5.738508224558036   5.002978606422314 
 -1.244555553372647   7.904804516671994  11.673616748318732 
  0.000027237550384   1.437286045933491  11.673616748318732 
  3.734255794573491   7.904864106146873  11.673616748318732 
  4.978854429739997   1.437509847431681  11.673616748318732 
  8.712822328309064   7.904845314320474  11.673616748318732 
 -3.760897157549319   7.894849338797560   5.002978606422314 
  9.957660844615926   1.437298637309390  11.673616748318732 
  2.477610765857913   1.390627350349270   5.002978606422314 
  1.169227584200081   7.972973941510120   5.002978606422314 
  6.221914706090263   7.923140935201689   5.002978606422314 
  7.482388638820803   1.399550633525941   5.002978606422314 
  1.244961569902772   7.904801990688454  11.673616748318732 
 12.451883874625231   1.440108511593462   5.002978606422314 
 -2.489339279479034  10.060759287567473  11.673616748318732 
 -1.244645843974829   3.593123061948494  11.673616748318732 
  3.734146695469870   3.593403591206080  11.673616748318732 
  2.489550438265126  10.060790084060852  11.673616748318732 
  7.468174769866222  10.060820624463203  11.673616748318732 
  8.712976143714194   3.593165040511400  11.673616748318732 
 -5.000851256458324  10.042512837161254   5.002978606422314 
 -0.033489119471506  10.073580362247213   5.002978606422314 
  1.257864714904283   3.600723529423903   5.002978606422314 
  4.969527806207254  10.082363970905712   5.002978606422314 
  6.251012331782166   3.518563135517550   5.002978606422314 
 11.208299078427874   3.587200594062606   5.002978606422314 
 -2.489320555968884   5.748952300261891  11.673616748318732 
 -3.734059017431577  12.216751002040814  11.673616748318732 
  1.244816398524106  12.216675073458465  11.673616748318732 
  2.489666452736302   5.748906600636283  11.673616748318732 
  6.223540004706078  12.216693385021122  11.673616748318732 
 -6.235610553189570  12.200339601636742   5.002978606422314 
  7.468179326894262   5.748986537394644  11.673616748318732 
 -1.250310823098795  12.181177376682211   5.002978606422314 
 -0.046261695504435   5.762102685252806   5.002978606422314 
 -1.285040582450838   7.909380299202878   5.002978606422314 
  3.732806548819879  12.226727301654211   5.002978606422314 
  9.955772724151224   5.739136621232641   5.002978606422314 
 -3.734063623721566   7.904806099008442  11.673616748318732 
  2.489395575162060   1.437389973077782  11.673616748318732 
  6.223472359812302   7.904882244915547  11.673616748318732 
  7.468289323038484   1.437361378014524  11.673616748318732 
 12.447015048032799   1.437297493249677  11.673616748318732 
  1.232901769746787   0.698633201206067   5.002978606422314 
  4.952901656327787   7.398269768455060   5.002978606422314 
  6.242632335394018   0.659884296067029   5.002978606422314 
  9.945995049975380   7.175318088975644   5.002978606422314 
 11.211671752317592   0.724071708926862   5.002978606422314 
 -3.733868947144998   9.342229748926014  11.673616748318732 
  1.244503475414496   9.342355878382770  11.673616748318732 
  2.488625029777011   2.874037387860862  11.673616748318732 
  6.223690612204463   9.343098422924934  11.673616748318732 
  7.468822474586492   2.873947116517698  11.673616748318732 
 12.447229839032817   2.874395379435986  11.673616748318732 
 -1.273148448261103   9.341065217669357   5.002978606422314 
  0.011204582667927   2.880963966489194   5.002978606422314 
  4.995414623610075   2.736733938349472   5.002978606422314 
  3.706185342636348   9.412199542299490   5.002978606422314 
  8.697619579241280   9.337567831209830   5.002978606422314 
  9.978301595650604   2.860222287654836   5.002978606422314 
 -4.978761203058428  11.498248108214225  11.673616748318732 
  0.000068875259886  11.498019755828805  11.673616748318732 
  1.243916213169016   5.029936298854857  11.673616748318732 
  6.224062254256595   5.029922475242915  11.673616748318732 
  4.978911143804054  11.498781530183431  11.673616748318732 
 11.202872062345060   5.030136448220004  11.673616748318732 
 -1.267900705988154   5.030150148873049   5.002978606422314 
 -2.504517211354778  11.473858478200860   5.002978606422314 
  2.483863304641656  11.520097597077719   5.002978606422314 
  7.459036325941085  11.503218802821895   5.002978606422314 
  8.746627835940634   5.004608049064323   5.002978606422314 
 -0.000287702339478   7.186084399400226  11.673616748318732 
  1.244449777611485   0.718696622486844  11.673616748318732 
  4.978686078721696   7.186977285805191  11.673616748318732 
  6.223583568548293   0.718336182120198  11.673616748318732 
  9.958203437211397   7.186280195673771  11.673616748318732 
 -2.516511575698708   7.180885671637851   5.002978606422314 
 11.202590234834563   0.718828492363369  11.673616748318732 
  3.721826661088409   0.669895016582691   5.002978606422314 
  2.378402734781407   7.269531493812551   5.002978606422314 
  7.469970476534376   7.187284463135501   5.002978606422314 
  8.729243134432899   0.702782419313343   5.002978606422314 
  2.488803792414948   7.186393980831223  11.673616748318732 
 13.696080081823926   0.728109971893874   5.002978606422314 
 -1.244698787933887   9.342109987529946  11.673616748318732 
 -0.000334332042123   2.874301970975183  11.673616748318732 
  4.978615954177551   2.873912815355465  11.673616748318732 
  3.733936758297380   9.342958937593764  11.673616748318732 
  8.713217235738856   9.342659551346408  11.673616748318732 
  9.958306798574883   2.874215265132596  11.673616748318732 
 -3.756407621740971   9.329217039080859   5.002978606422314 
  1.203407040616171   9.388078537408573   5.002978606422314 
  2.486943659917753   2.827407227308323   5.002978606422314 
  6.218045933410814   9.384240375345176   5.002978606422314 
  7.514910889404517   2.815293383211423   5.002978606422314 