 N B C 
 1.0
 14.936314146199660   0.000000000000000   0.000000000000000
 -7.468157073099825  12.935227489513863   0.000000000000000
  0.000000000000001   0.000000000000001  13.341276283792837
 N B C 
 142 142   3
Cartesian
  1.243338560135761   0.718998956089009   1.665818944549869 
  4.978428378710461   7.186481203868468   1.663349590989379 
  6.222562771232254   0.719283221186321   1.668373805691677 
  9.957005774201974   7.186479310499316   1.667852237052470 
 11.200870549591411   0.718777602901772   1.666456750276770 
 -3.734678843732632   9.342430038214491   8.339891660014343 
  1.244089014883062   9.342369519818511   8.341750346296964 
  2.488056517553815   2.874801834477618   8.339995619362600 
  6.222621015998920   9.342541146985441   8.340304502591374 
  7.467404183430145   2.875155275768343   8.333635836183237 
 12.445640159172365   2.874348450261370   8.340627792250045 
 -1.245203933397925   9.342312798481895   1.665733915228757 
 -0.001569279235788   2.874310381766466   1.663886908796035 
  4.977891649485459   2.875113974388745   1.668979269868927 
  3.733335226160150   9.342111363660718   1.664937023008042 
  8.712090666811871   9.342636720999037   1.666596013152797 
  9.956651043025968   2.874638847423065   1.668387804762363 
 -4.979700559449210  11.498583206396637   8.340084330793760 
 -0.000830460797545  11.498465695190392   8.339927745509934 
  1.243098450559294   5.029824703932912   8.348988887245843 
  6.223894563352185   5.030804926051924   8.347055957054506 
  4.977557838092256  11.498225256508363   8.339706428216155 
 11.201581959534579   5.030367336671433   8.338693369527782 
 -1.245688844614130   5.030104244122672   1.664315742751320 
 -2.490147641201983  11.498551056773572   1.665838353811255 
  2.488297053960415  11.498302284581969   1.666080537729487 
  3.733431724765123   5.030029845767957   1.659164587612284 
  7.467017677674129  11.498487357416376   1.665787591029069 
  8.712653400023317   5.030500014921546   1.669702031889782 
 -0.000512242176768   7.186140715086078   8.341783887486267 
  1.243338560135761   0.718998956089010   8.340138268294718 
  4.978428378710462   7.186481203868469   8.342607621855102 
  6.222562771232255   0.719283221186321   8.337583407152977 
  9.957005774201974   7.186479310499317   8.338104975792143 
 -2.489899516241382   7.186243010338275   1.666324316036299 
 11.200870549591411   0.718777602901773   8.339500462568058 
  3.733014809516560   0.719362651274291   1.667142208732008 
  2.488826191415024   7.186822561800501   1.657678187651403 
  7.467626988430938   7.186825157852643   1.667772932712968 
  8.711681003147596   0.719157143255567   1.668355185729253 
  2.488826191415024   7.186822561800501   8.348279025193133 
 13.690147229396114   0.718722952235312   1.665576173867203 
 -1.245203933397925   9.342312798481895   8.340223297615925 
 -0.001569279235787   2.874310381766467   8.342070304048619 
  4.977891649485460   2.875113974388746   8.336977942975635 
  3.733335226160151   9.342111363660718   8.341020189836627 
  8.712090666811871   9.342636720999037   8.339361199691885 
  9.956651043025968   2.874638847423066   8.337569408082198 
 -3.734678843732633   9.342430038214491   1.666065552830218 
  1.244089014883062   9.342369519818511   1.664206866547717 
  2.488056517553814   2.874801834477617   1.665961593481947 
  6.222621015998919   9.342541146985441   1.665652710253306 
  7.467404183430144   2.875155275768342   1.672321376661417 
 12.445640159172365   2.874348450261369   1.665329420594664 
 -1.245688844614129   5.030104244122673   8.341641470093361 
 -2.490147641201982  11.498551056773572   8.340118859033332 
  2.488297053960415  11.498302284581969   8.339876675115153 
  3.733431724765123   5.030029845767958   8.346792625232316 
  7.467017677674130  11.498487357416376   8.340169621815624 
 -4.979700559449211  11.498583206396637   1.665872882050843 
  8.712653400023317   5.030500014921547   8.336255180954845 
 -0.000830460797545  11.498465695190392   1.666029467334653 
  1.243098450559294   5.029824703932912   1.656968325598851 
 -0.000512242176768   7.186140715086077   1.664173325358186 
  6.223894563352184   5.030804926051923   1.658901255790043 
  4.977557838092255  11.498225256508363   1.666250784628473 
 11.201581959534579   5.030367336671432   1.667263843316832 
 -2.489899516241382   7.186243010338276   8.339632896808302 
  3.733014809516561   0.719362651274292   8.338815004112567 
  7.467626988430939   7.186825157852644   8.338184280131632 
  8.711681003147596   0.719157143255568   8.337602027115400 
 13.690147229396114   0.718722952235312   8.340381038977291 
 -0.039968269362922   1.407428991962905   5.002978606422314 
  3.835349929965059   7.818949443858514   5.002978606422314 
  4.952042663000818   1.464115376968426   5.002978606422314 
  8.771258879599884   7.946234322514415   5.002978606422314 
  9.916157344960485   1.463803047926913   5.002978606422314 
 -4.978849977579675  10.060719031741435  11.673616748318732 
 -0.000203057211430  10.060740061473187  11.673616748318732 
  1.244610064733697   3.593040096869658  11.673616748318732 
  4.978684862365383  10.060667647698919  11.673616748318732 
  6.223334130218903   3.593033383282448  11.673616748318732 
 11.202128247987346   3.593173227695921  11.673616748318732 
 -2.460603262051897  10.080440312503754   5.002978606422314 
 -1.279958640314740   3.582198627487599   5.002978606422314 
  3.651306184640068   3.534932964213994   5.002978606422314 
  2.517249089093527  10.038345255394189   5.002978606422314 
  7.474548390907541  10.052236880772213   5.002978606422314 
  8.660634480857667   3.639320720892797   5.002978606422314 
 -6.223558541255469  12.216530273993449  11.673616748318732 
 -1.244834987794228  12.216530055884000  11.673616748318732 
 -0.000176432364009   5.749052556003021  11.673616748318732 
  4.978650995458969   5.749015150185915  11.673616748318732 
  3.733954861253689  12.216527075079467  11.673616748318732 
  9.957495871293766   5.749059156392026  11.673616748318732 
 -2.468686299351617   5.757114634919952   5.002978606422314 
 -3.730506297907409  12.228775747385093   5.002978606422314 
  1.226713525835877  12.257524771150901   5.002978606422314 
  6.202856536542105  12.200077417906742   5.002978606422314 
  7.652935491927665   5.873648534425818   5.002978606422314 
 -1.244929725564143   7.904916572771498  11.673616748318732 
 -0.000071066642883   1.437148749906092  11.673616748318732 
  3.733971804509454   7.904821308316368  11.673616748318732 
  4.978669953028247   1.437101793510325  11.673616748318732 
  8.712869588018757   7.904897444594658  11.673616748318732 
 -3.690302859290851   7.927709524271291   5.002978606422314 
  9.957388978308428   1.437197412107108  11.673616748318732 
  2.453291212913391   1.408711237347369   5.002978606422314 
  1.290938020483221   7.890860285349782   5.002978606422314 
  6.255579187035084   7.881350302684669   5.002978606422314 
  7.393640498153367   1.563760462815667   5.002978606422314 
  1.244462925411887   7.904866055000520  11.673616748318732 
 12.410019258342825   1.431724030287340   5.002978606422314 
 -2.489557382719437  10.060720651709898  11.673616748318732 
 -1.244794579612541   3.593125872797551  11.673616748318732 
  3.733969744107029   3.593024889696239  11.673616748318732 
  2.489222886515116  10.060662524042467  11.673616748318732 
  7.468123100000433  10.060736849210583  11.673616748318732 
  8.712716714082619   3.593120872863367  11.673616748318732 
 -4.951684886399362  10.080204606398325   5.002978606422314 
  0.024427405215140  10.072753668610027   5.002978606422314 
  1.182613287350147   3.540370837106610   5.002978606422314 
  4.989747254532845  10.041881562963855   5.002978606422314 
  6.009922046777156   3.842571529934411   5.002978606422314 
 11.170078963574674   3.603291579352340   5.002978606422314 
 -2.489523164577482   5.749075478387289  11.673616748318732 
 -3.734198120353266  12.216508214824369  11.673616748318732 
  1.244507109978069  12.216547438695487  11.673616748318732 
  2.489283983826222   5.748998998487888  11.673616748318732 
  6.223412417153560  12.216552738007284  11.673616748318732 
 -6.236507393199635  12.201464766815132   5.002978606422314 
  7.468135324126796   5.749062210589604  11.673616748318732 
 -1.241714190631189  12.252502984988547   5.002978606422314 
  0.011243758101081   5.732171094100810   5.002978606422314 
 -1.205875419544529   7.910089823407573   5.002978606422314 
  3.715698807407057  12.215472904873170   5.002978606422314 
 10.005536827533454   5.780082997391183   5.002978606422314 
 -3.734184925762504   7.904880734395419  11.673616748318732 
  2.489273948034520   1.437099078221412  11.673616748318732 
  6.223439477290897   7.904863141184284  11.673616748318732 
  7.468007161504956   1.437148878319580  11.673616748318732 
 12.446855487340157   1.437192493437908  11.673616748318732 
  1.212415192105289   0.697883097071062   5.002978606422314 
  5.095742916236095   7.001533002544617   5.002978606422314 
  6.199305339906349   0.768738078416654   5.002978606422314 
 10.003830253244658   7.214991701897367   5.002978606422314 
 11.161835113918922   0.722669684043829   5.002978606422314 
 -3.734145795295587   9.341973680141054  11.673616748318732 
  1.244698698877908   9.341376624955938  11.673616748318732 
  2.489664751903341   2.875169102617765  11.673616748318732 
  6.223153679177069   9.341338586017475  11.673616748318732 
  7.467343429419838   2.874969581546110  11.673616748318732 
 12.447049666529807   2.874789192959642  11.673616748318732 
 -1.214056210341557   9.349325259250852   5.002978606422314 
 -0.048441604786355   2.843967029504582   5.002978606422314 
  4.923220590260470   2.909807438688782   5.002978606422314 
  3.775910606060755   9.274298107173857   5.002978606422314 
  8.740844937228957   9.369073186946354   5.002978606422314 
  9.905382795078218   2.901084124476393   5.002978606422314 
 -4.978808416760730  11.497988887387542  11.673616748318732 
 -0.000197977317942  11.497743512810603  11.673616748318732 
  1.245373495314633   5.030782752061682  11.673616748318732 
  6.222654454286617   5.030653880479242  11.673616748318732 
  4.978637100668887  11.497425080767833  11.673616748318732 
 11.202123139957509   5.030644319503854  11.673616748318732 
 -1.230712194802156   5.027342811452155   5.002978606422314 
 -2.477064772291461  11.520562794735895   5.002978606422314 
  2.475978291649373  11.493575103555276   5.002978606422314 
  7.454898446004996  11.484587897401413   5.002978606422314 
  8.762045327456940   5.053162640520631   5.002978606422314 
  0.000387788741292   7.186036148208742  11.673616748318732 
  1.244878720154655   0.718902568152459  11.673616748318732 
  4.978341886675199   7.185523763927373  11.673616748318732 
  6.223122109042923   0.718905615792471  11.673616748318732 
  9.957246277891283   7.186171559056592  11.673616748318732 
 -2.450014173689313   7.197043030599601   5.002978606422314 
 11.202050879529372   0.718531566783640  11.673616748318732 
  3.716809769633137   0.730439100810953   5.002978606422314 
  2.563643495400810   7.140765277892467   5.002978606422314 
  7.514106648479101   7.248908439853095   5.002978606422314 
  8.648894459094530   0.789448852927923   5.002978606422314 
  2.489510883481497   7.185592640113189  11.673616748318732 
 13.654300131541026   0.700703257780936   5.002978606422314 
 -1.244621637711334   9.341862321663296  11.673616748318732 
  0.000518562955796   2.874983323681421  11.673616748318732 
  4.978458594813545   2.875167025694345  11.673616748318732 
  3.733884318037264   9.341091139024108  11.673616748318732 
  8.712597429195508   9.341791116265124  11.673616748318732 
  9.957063322269128   2.874791164984046  11.673616748318732 
 -3.702033583187372   9.362972771439621   5.002978606422314 
  1.270306588165195   9.322582405622761   5.002978606422314 
  2.414779222729970   2.840073509114493   5.002978606422314 
  6.230022402057222   9.316092339916333   5.002978606422314 
  7.318815788299412   3.077488478970768   5.002978606422314 
 12.410655341030820   2.873407904115922   5.002978606422314 
 -1.244203378520561   5.030695763553549  11.673616748318732 
 -2.489470725062981  11.497997154834053  11.673616748318732 
  2.489148026807563  11.497408609251714  11.673616748318732 
  3.734002345832765   5.030792354978407  11.673616748318732 
  7.468107535586646  11.497735756768325  11.673616748318732 
 -4.972861429185651  11.510376356554294   5.002978606422314 
  8.712073047358221   5.030641225800694  11.673616748318732 
 -0.000195076986493  11.517592557245830   5.002978606422314 
  1.259551823674938   4.981522902455611   5.002978606422314 
  0.046837723829689   7.171541033971153   5.002978606422314 
  4.961562368330603  11.480357069569008   5.002978606422314 
 11.225414930330079   5.042860358762090   5.002978606422314 
 -2.489243564080395   7.186261107474081  11.673616748318732 
  3.734058801951706   0.719030471622114  11.673616748318732 
  7.467558635165222   7.185860746561109  11.673616748318732 
  8.712386309981932   0.718648935604412  11.673616748318732 
 13.691773876112666   0.718670438140176  11.673616748318732 
 -0.001052743359090   1.438508672393999   1.667587457420118 
  3.733309058464561   7.901989710618310   1.669789475639084 
  4.977840879174991   1.440448299304272   1.671666858986540 
  8.710563093845083   7.903969291539003   1.670235678944274 
  9.955965176174894   1.437856777012263   1.669580254640554 
 -4.979765249833430  10.060920758702071   8.338025838742414 
  0.000508577693785  10.060216070941319   8.337618730612585 
  1.244408859482178   3.595531138275295   8.338007155471992 
  4.977157917115862  10.059378103543631   8.337475425702372 
  6.221671973337263   3.596962341284378   8.328750774603423 
 11.201127118598606   3.593356901134825   8.337081367452209 
 -2.489317274790094  10.060885799859284   1.667880754315403 
 -1.245005264889624   3.593608324859000   1.667507605836698 
  3.733453143068821   3.596844293850721   1.671386652871748 
  2.488969449073185  10.059379604266773   1.668568165859899 
  7.466297184102880  10.060278969557563   1.668195639528039 
  8.710744932832132   3.594133819876051   1.673246229399405 
 -6.224654671000110  12.217622011680094   8.338202558106222 
 -1.245206612999036  12.217960486330851   8.336966573305446 
  0.001806727602136   5.748234000754899   8.337908711409497 
  4.977632365271504   5.747399849154583   8.324562734651479 
  3.732685006907932  12.216326478136628   8.337676165725121 
  9.955836649622675   5.748637596297063   8.334915467896113 
 -2.489201059525215   5.748601496741925   1.668700960534454 
 -3.734761488053917  12.218233380458107   1.668279766560212 
  1.243778334490363  12.216986424004153   1.669150530810560 
  2.490281547072468   5.748322258909162   1.681134269816663 
  6.221973865719375  12.216705657516201   1.667761194329286 
  7.464730774178399   5.748164296209080   1.674834985749037 
 -1.243364431805632   7.903869103971230   8.337019836406263 
 -0.001052743359090   1.438508672394000   8.338369755424576 
  3.733309058464561   7.901989710618311   8.336167737205583 
  4.977840879174992   1.440448299304273   8.334290353858099 
  8.710563093845083   7.903969291539004   8.335721533900367 
 -3.734534622917876   7.904356722022084   1.668842136414780 
  9.955965176174894   1.437856777012263   8.336376958204074 
  2.488462741288263   1.439938970631831   1.669270346066683 
  1.246633360768940   7.902854210013385   1.668744102211595 
  6.220717409363068   7.902785468749379   1.670406405093270 
  7.466654146420768   1.439368049752370   1.673284900518485 
  1.246633360768941   7.902854210013386   8.337213110633019 
 12.445649036709419   1.437623319189177   1.667673889732231 
 -2.489317274790094  10.060885799859284   8.338076458529212 
 -1.245005264889623   3.593608324859001   8.338449607008050 
  3.733453143068822   3.596844293850722   8.334570559972812 
  2.488969449073185  10.059379604266773   8.337389046984915 
  7.466297184102881  10.060278969557563   8.337761573316669 
  8.710744932832132   3.594133819876052   8.332710983445223 
 -4.979765249833431  10.060920758702071   1.667931374102295 
  0.000508577693784  10.060216070941319   1.668338482232029 
  1.244408859482177   3.595531138275295   1.667950057372636 
  4.977157917115861  10.059378103543631   1.668481787142214 
  6.221671973337262   3.596962341284377   1.677206438241219 
 11.201127118598606   3.593356901134824   1.668875845392220 
 -2.489201059525215   5.748601496741926   8.337256252310095 
 -3.734761488053916  12.218233380458107   8.337677446284548 
  1.243778334490364  12.216986424004153   8.336806682033949 
  2.490281547072468   5.748322258909162   8.324822943027991 
  6.221973865719376  12.216705657516201   8.338196018515369 
 -6.224654671000111  12.217622011680094   1.667754654738259 
  7.464730774178400   5.748164296209080   8.331122227095538 
 -1.245206612999037  12.217960486330851   1.668990639539155 
  0.001806727602135   5.748234000754898   1.668048501434904 
 -1.243364431805633   7.903869103971229   1.668937376438497 
  4.977632365271504   5.747399849154582   1.681394478193109 
  3.732685006907932  12.216326478136628   1.668281047119521 
  9.955836649622675   5.748637596297062   1.671041744948420 
 -3.734534622917876   7.904356722022085   8.337115076429860 
  2.488462741288263   1.439938970631832   8.336686866777931 
  6.220717409363069   7.902785468749379   8.335550807751465 
  7.466654146420769   1.439368049752370   8.332672312326009 
 12.445649036709419   1.437623319189177   8.338283323112410 
  2.577776186955870   5.662301754919056   5.002978606422314 
  3.774850741267724   4.908010818713753   5.002978606422314 
  5.088192462074716   5.373736130595950   5.002978606422314 
Generated by cif2cell 2.0.0.  :  Failed to get author information, No journal information. Species order: N B C 
 1.0
 14.936314146199660   0.000000000000000   0.000000000000000
 -7.468157073099825  12.935227489513863   0.000000000000000
  0.000000000000001   0.000000000000001  13.341276283792837
 N B C 
 142 142   3
Cartesian
  1.243338560135761   0.718998956089009   1.665818944549869 
  4.978428378710461   7.186481203868468   1.663349590989379 
  6.222562771232254   0.719283221186321   1.668373805691677 
  9.957005774201974   7.186479310499316   1.667852237052470 
 11.200870549591411   0.718777602901772   1.666456750276770 
 -3.734678843732632   9.342430038214491   8.339891660014343 
  1.244089014883062   9.342369519818511   8.341750346296964 
  2.488056517553815   2.874801834477618   8.339995619362600 
  6.222621015998920   9.342541146985441   8.340304502591374 
  7.467404183430145   2.875155275768343   8.333635836183237 
 12.445640159172365   2.874348450261370   8.340627792250045 
 -1.245203933397925   9.342312798481895   1.665733915228757 
 -0.001569279235788   2.874310381766466   1.663886908796035 
  4.977891649485459   2.875113974388745   1.668979269868927 
  3.733335226160150   9.342111363660718   1.664937023008042 
  8.712090666811871   9.342636720999037   1.666596013152797 
  9.956651043025968   2.874638847423065   1.668387804762363 
 -4.979700559449210  11.498583206396637   8.340084330793760 
 -0.000830460797545  11.498465695190392   8.339927745509934 
  1.243098450559294   5.029824703932912   8.348988887245843 
  6.223894563352185   5.030804926051924   8.347055957054506 
  4.977557838092256  11.498225256508363   8.339706428216155 
 11.201581959534579   5.030367336671433   8.338693369527782 
 -1.245688844614130   5.030104244122672   1.664315742751320 
 -2.490147641201983  11.498551056773572   1.665838353811255 
  2.488297053960415  11.498302284581969   1.666080537729487 
  3.733431724765123   5.030029845767957   1.659164587612284 
  7.467017677674129  11.498487357416376   1.665787591029069 
  8.712653400023317   5.030500014921546   1.669702031889782 
 -0.000512242176768   7.186140715086078   8.341783887486267 
  1.243338560135761   0.718998956089010   8.340138268294718 
  4.978428378710462   7.186481203868469   8.342607621855102 
  6.222562771232255   0.719283221186321   8.337583407152977 
  9.957005774201974   7.186479310499317   8.338104975792143 
 -2.489899516241382   7.186243010338275   1.666324316036299 
 11.200870549591411   0.718777602901773   8.339500462568058 
  3.733014809516560   0.719362651274291   1.667142208732008 
  2.488826191415024   7.186822561800501   1.657678187651403 
  7.467626988430938   7.186825157852643   1.667772932712968 
  8.711681003147596   0.719157143255567   1.668355185729253 
  2.488826191415024   7.186822561800501   8.348279025193133 
 13.690147229396114   0.718722952235312   1.665576173867203 
 -1.245203933397925   9.342312798481895   8.340223297615925 
 -0.001569279235787   2.874310381766467   8.342070304048619 
  4.977891649485460   2.875113974388746   8.336977942975635 
  3.733335226160151   9.342111363660718   8.341020189836627 
  8.712090666811871   9.342636720999037   8.339361199691885 
  9.956651043025968   2.874638847423066   8.337569408082198 
 -3.734678843732633   9.342430038214491   1.666065552830218 
  1.244089014883062   9.342369519818511   1.664206866547717 
  2.488056517553814   2.874801834477617   1.665961593481947 
  6.222621015998919   9.342541146985441   1.665652710253306 
  7.467404183430144   2.875155275768342   1.672321376661417 
 12.445640159172365   2.874348450261369   1.665329420594664 
 -1.245688844614129   5.030104244122673   8.341641470093361 
 -2.490147641201982  11.498551056773572   8.340118859033332 
  2.488297053960415  11.498302284581969   8.339876675115153 
  3.733431724765123   5.030029845767958   8.346792625232316 
  7.467017677674130  11.498487357416376   8.340169621815624 
 -4.979700559449211  11.498583206396637   1.665872882050843 
  8.712653400023317   5.030500014921547   8.336255180954845 
 -0.000830460797545  11.498465695190392   1.666029467334653 
  1.243098450559294   5.029824703932912   1.656968325598851 
 -0.000512242176768   7.186140715086077   1.664173325358186 
  6.223894563352184   5.030804926051923   1.658901255790043 
  4.977557838092255  11.498225256508363   1.666250784628473 
 11.201581959534579   5.030367336671432   1.667263843316832 
 -2.489899516241382   7.186243010338276   8.339632896808302 
  3.733014809516561   0.719362651274292   8.338815004112567 
  7.467626988430939   7.186825157852644   8.338184280131632 
  8.711681003147596   0.719157143255568   8.337602027115400 
 13.690147229396114   0.718722952235312   8.340381038977291 
 -0.039968269362922   1.407428991962905   5.002978606422314 
  3.835349929965059   7.818949443858514   5.002978606422314 
  4.952042663000818   1.464115376968426   5.002978606422314 
  8.771258879599884   7.946234322514415   5.002978606422314 
  9.916157344960485   1.463803047926913   5.002978606422314 
 -4.978849977579675  10.060719031741435  11.673616748318732 
 -0.000203057211430  10.060740061473187  11.673616748318732 
  1.244610064733697   3.593040096869658  11.673616748318732 
  4.978684862365383  10.060667647698919  11.673616748318732 
  6.223334130218903   3.593033383282448  11.673616748318732 
 11.202128247987346   3.593173227695921  11.673616748318732 
 -2.460603262051897  10.080440312503754   5.002978606422314 
 -1.279958640314740   3.582198627487599   5.002978606422314 
  3.651306184640068   3.534932964213994   5.002978606422314 
  2.517249089093527  10.038345255394189   5.002978606422314 
  7.474548390907541  10.052236880772213   5.002978606422314 
  8.660634480857667   3.639320720892797   5.002978606422314 
 -6.223558541255469  12.216530273993449  11.673616748318732 
 -1.244834987794228  12.216530055884000  11.673616748318732 
 -0.000176432364009   5.749052556003021  11.673616748318732 
  4.978650995458969   5.749015150185915  11.673616748318732 
  3.733954861253689  12.216527075079467  11.673616748318732 
  9.957495871293766   5.749059156392026  11.673616748318732 
 -2.468686299351617   5.757114634919952   5.002978606422314 
 -3.730506297907409  12.228775747385093   5.002978606422314 
  1.226713525835877  12.257524771150901   5.002978606422314 
  6.202856536542105  12.200077417906742   5.002978606422314 
  7.652935491927665   5.873648534425818   5.002978606422314 
 -1.244929725564143   7.904916572771498  11.673616748318732 
 -0.000071066642883   1.437148749906092  11.673616748318732 
  3.733971804509454   7.904821308316368  11.673616748318732 
  4.978669953028247   1.437101793510325  11.673616748318732 
  8.712869588018757   7.904897444594658  11.673616748318732 
 -3.690302859290851   7.927709524271291   5.002978606422314 
  9.957388978308428   1.437197412107108  11.673616748318732 
  2.453291212913391   1.408711237347369   5.002978606422314 
  1.290938020483221   7.890860285349782   5.002978606422314 
  6.255579187035084   7.881350302684669   5.002978606422314 
  7.393640498153367   1.563760462815667   5.002978606422314 
  1.244462925411887   7.904866055000520  11.673616748318732 
 12.410019258342825   1.431724030287340   5.002978606422314 
 -2.489557382719437  10.060720651709898  11.673616748318732 
 -1.244794579612541   3.593125872797551  11.673616748318732 
  3.733969744107029   3.593024889696239  11.673616748318732 
  2.489222886515116  10.060662524042467  11.673616748318732 
  7.468123100000433  10.060736849210583  11.673616748318732 
  8.712716714082619   3.593120872863367  11.673616748318732 
 -4.951684886399362  10.080204606398325   5.002978606422314 
  0.024427405215140  10.072753668610027   5.002978606422314 
  1.182613287350147   3.540370837106610   5.002978606422314 
  4.989747254532845  10.041881562963855   5.002978606422314 
  6.009922046777156   3.842571529934411   5.002978606422314 
 11.170078963574674   3.603291579352340   5.002978606422314 
 -2.489523164577482   5.749075478387289  11.673616748318732 
 -3.734198120353266  12.216508214824369  11.673616748318732 
  1.244507109978069  12.216547438695487  11.673616748318732 
  2.489283983826222   5.748998998487888  11.673616748318732 
  6.223412417153560  12.216552738007284  11.673616748318732 
 -6.236507393199635  12.201464766815132   5.002978606422314 
  7.468135324126796   5.749062210589604  11.673616748318732 
 -1.241714190631189  12.252502984988547   5.002978606422314 
  0.011243758101081   5.732171094100810   5.002978606422314 
 -1.205875419544529   7.910089823407573   5.002978606422314 
  3.715698807407057  12.215472904873170   5.002978606422314 
 10.005536827533454   5.780082997391183   5.002978606422314 
 -3.734184925762504   7.904880734395419  11.673616748318732 
  2.489273948034520   1.437099078221412  11.673616748318732 
  6.223439477290897   7.904863141184284  11.673616748318732 
  7.468007161504956   1.437148878319580  11.673616748318732 
 12.446855487340157   1.437192493437908  11.673616748318732 
  1.212415192105289   0.697883097071062   5.002978606422314 
  5.095742916236095   7.001533002544617   5.002978606422314 
  6.199305339906349   0.768738078416654   5.002978606422314 
 10.003830253244658   7.214991701897367   5.002978606422314 
 11.161835113918922   0.722669684043829   5.002978606422314 
 -3.734145795295587   9.341973680141054  11.673616748318732 
  1.244698698877908   9.341376624955938  11.673616748318732 
  2.489664751903341   2.875169102617765  11.673616748318732 
  6.223153679177069   9.341338586017475  11.673616748318732 
  7.467343429419838   2.874969581546110  11.673616748318732 
 12.447049666529807   2.874789192959642  11.673616748318732 
 -1.214056210341557   9.349325259250852   5.002978606422314 
 -0.048441604786355   2.843967029504582   5.002978606422314 
  4.923220590260470   2.909807438688782   5.002978606422314 
  3.775910606060755   9.274298107173857   5.002978606422314 
  8.740844937228957   9.369073186946354   5.002978606422314 
  9.905382795078218   2.901084124476393   5.002978606422314 
 -4.978808416760730  11.497988887387542  11.673616748318732 
 -0.000197977317942  11.497743512810603  11.673616748318732 
  1.245373495314633   5.030782752061682  11.673616748318732 
  6.222654454286617   5.030653880479242  11.673616748318732 
  4.978637100668887  11.497425080767833  11.673616748318732 
 11.202123139957509   5.030644319503854  11.673616748318732 
 -1.230712194802156   5.027342811452155   5.002978606422314 
 -2.477064772291461  11.520562794735895   5.002978606422314 
  2.475978291649373  11.493575103555276   5.002978606422314 
  7.454898446004996  11.484587897401413   5.002978606422314 
  8.762045327456940   5.053162640520631   5.002978606422314 
  0.000387788741292   7.186036148208742  11.673616748318732 
  1.244878720154655   0.718902568152459  11.673616748318732 
  4.978341886675199   7.185523763927373  11.673616748318732 
  6.223122109042923   0.718905615792471  11.673616748318732 
  9.957246277891283   7.186171559056592  11.673616748318732 
 -2.450014173689313   7.197043030599601   5.002978606422314 
 11.202050879529372   0.718531566783640  11.673616748318732 
  3.716809769633137   0.730439100810953   5.002978606422314 
  2.563643495400810   7.140765277892467   5.002978606422314 
  7.514106648479101   7.248908439853095   5.002978606422314 
  8.648894459094530   0.789448852927923   5.002978606422314 
  2.489510883481497   7.185592640113189  11.673616748318732 
 13.654300131541026   0.700703257780936   5.002978606422314 
 -1.244621637711334   9.341862321663296  11.673616748318732 
  0.000518562955796   2.874983323681421  11.673616748318732 
  4.978458594813545   2.875167025694345  11.673616748318732 
  3.733884318037264   9.341091139024108  11.673616748318732 
  8.712597429195508   9.341791116265124  11.673616748318732 
  9.957063322269128   2.874791164984046  11.673616748318732 
 -3.702033583187372   9.362972771439621   5.002978606422314 
  1.270306588165195   9.322582405622761   5.002978606422314 
  2.414779222729970   2.840073509114493   5.002978606422314 
  6.230022402057222   9.316092339916333   5.002978606422314 
  7.318815788299412   3.077488478970768   5.002978606422314 
 12.410655341030820   2.873407904115922   5.002978606422314 