Species order: X N B                    
   2.51242800000000     
     5.9449720136058266    0.0000000000000000    0.0000000000000000
    -2.9724860068029120    5.1484967885702053   -0.0000000000000001
     0.0000000000000000    0.0000000000000009    5.3101128803662583
   O    N    B 
     1   143   144
Direct
  0.5555555555555571  0.4444444444444429  0.3750000000000000
  0.1111056430073215  0.0555421213432334  0.1248271383302205
  0.6111073183381754  0.5555479700094298  0.1232497945739116
  0.4444538423192830  0.0555741276285128  0.1244324332821924
  0.9444258723714506  0.5555461576804728  0.1244324332821924
  0.7777795595330342  0.0555564464332496  0.1252300473467804
  0.1111048536360668  0.7222190934848692  0.6247724092118857
  0.4444538423192830  0.7222130480242970  0.6255675667176832
  0.2777327953942190  0.2222102195388376  0.6262771380476939
  0.7777897804612837  0.7222672046057502  0.6262771380476939
  0.6111440908114468  0.2222102195388376  0.6262771380476939
  0.9444435535666093  0.2222204404668717  0.6247699526532648
  0.2777809065152951  0.7222190934848692  0.1252275907882719
  0.1110487324442004  0.2221910328887731  0.1246419083460922
  0.4444541231361446  0.2222415796057809  0.1232624842318123
  0.6111440908114468  0.7222672046057502  0.1237228619522541
  0.9444258723714506  0.7222130480242970  0.1244324332821923
  0.7778089671115054  0.2221910328887731  0.1246419083460922
  0.1111165365238729  0.8888834634763941  0.6249472859224722
  0.4444335936189153  0.8888834634763941  0.6249472859224722
  0.2777327953942190  0.3888559091889082  0.6262771380476939
  0.6111073183381754  0.3888926816619494  0.6267502054261556
  0.7778089671115558  0.8889512675556691  0.6253580916539614
  0.9444578786566128  0.3888968549975111  0.6251728616699571
  0.1111056430073215  0.3888968549975111  0.1248271383302205
  0.2777809065152951  0.8888951463639188  0.1252275907882719
  0.6111031450029247  0.8888943569926760  0.1248271383302205
  0.4444520299904066  0.3888926816619494  0.1232497945739040
  0.9444578786566102  0.8888943569926760  0.1248271383302205
  0.7777897804612837  0.3888559091889078  0.1237228619522560
  0.2777869519758245  0.5555461576804728  0.6255675667176832
  0.1111056430073215  0.0555421213432334  0.6251728616699571
  0.6111073183381754  0.5555479700094298  0.6267502054261722
  0.4444538423192830  0.0555741276285124  0.6255675667176832
  0.9444258723714506  0.5555461576804728  0.6255675667176832
  0.1111165365238729  0.5555664063811209  0.1250527140777659
  0.7777795595330342  0.0555564464332496  0.6247699526532648
  0.2777869519758245  0.0555741276285136  0.1244324332821924
  0.4444541231361446  0.5555458768637700  0.1232624842318066
  0.7777584203943751  0.5555458768637700  0.1232624842318089
  0.6111031450029247  0.0555421213432334  0.1248271383302205
  0.4444541231361446  0.5555458768637700  0.6267375157680133
  0.9444435535666093  0.0555564464332496  0.1252300473467804
  0.2777809065152951  0.7222190934848692  0.6247724092118857
  0.1110487324442004  0.2221910328887736  0.6253580916539614
  0.4444541231361446  0.2222415796057809  0.6267375157680133
  0.6111440908114468  0.7222672046057502  0.6262771380476939
  0.9444258723714506  0.7222130480242970  0.6255675667176832
  0.7778089671115054  0.2221910328887731  0.6253580916539614
  0.1111048536360668  0.7222190934848692  0.1252275907882719
  0.4444538423192830  0.7222130480242970  0.1244324332821924
  0.2777327953942190  0.2222102195388404  0.1237228619522571
  0.7777897804612837  0.7222672046057502  0.1237228619522574
  0.6111440908114468  0.2222102195388404  0.1237228619522571
  0.9444435535666093  0.2222204404668717  0.1252300473467804
  0.1111056430073215  0.3888968549975111  0.6251728616699571
  0.2777809065152951  0.8888951463639188  0.6247724092118857
  0.6111031450029247  0.8888943569926760  0.6251728616699571
  0.4444520299904066  0.3888926816619494  0.6267502054261702
  0.9444578786566127  0.8888943569926760  0.6251728616699571
  0.1111165365238733  0.8888834634763941  0.1250527140777658
  0.7777897804612837  0.3888559091889082  0.6262771380476939
  0.4444335936189153  0.8888834634763941  0.1250527140777658
  0.2777327953942190  0.3888559091889082  0.1237228619522571
  0.2777869519758245  0.5555461576804728  0.1244324332821924
  0.6111073183381754  0.3888926816619494  0.1232497945739156
  0.7778089671115054  0.8889512675556691  0.1246419083460922
  0.9444578786566127  0.3888968549975111  0.1248271383302205
  0.1111165365238729  0.5555664063811209  0.6249472859224722
  0.2777869519758245  0.0555741276285147  0.6255675667176832
  0.7777584203943751  0.5555458768637700  0.6267375157680133
  0.6111031450029247  0.0555421213432334  0.6251728616699571
  0.9444435535666093  0.0555564464332496  0.6247699526532648
  0.0556387546477702  0.1112064746616549  0.3750000000000000
  0.5551003419229861  0.6102813267995768  0.3750000000000000
  0.3888079174365965  0.1109491682066061  0.3750000000000000
  0.8890508317934552  0.6111920825631705  0.3750000000000000
  0.7222343866803976  0.1112064746616547  0.3750000000000000
  0.0555502693874930  0.7777716615978082  0.8750000000000000
  0.3888880588768667  0.7777716615978082  0.8750000000000000
  0.2222168583028254  0.2777750958179472  0.8750000000000000
  0.7222249041816683  0.7777831416974412  0.8750000000000000
  0.5555661786937236  0.2777850864500462  0.8750000000000000
  0.8888976104492102  0.2777929199932399  0.8750000000000000
  0.2222222222222214  0.7777777777777786  0.3750000000000000
  0.0556387546477708  0.2777656133195084  0.3750000000000000
  0.3897186732005108  0.2781523484568101  0.3750000000000000
  0.5555177078024370  0.7775877612389369  0.3750000000000000
  0.8887367201030827  0.7775877612389369  0.3750000000000000
  0.7220414484167426  0.2779585515833091  0.3750000000000000
  0.0555631732268486  0.9444368267728259  0.8750000000000000
  0.3888880588768667  0.9444497306123671  0.8750000000000000
  0.2222251901071146  0.4444521869072535  0.8750000000000000
  0.5555555555555571  0.4444444444444429  0.8750000000000000
  0.7222070800069358  0.9444380237890982  0.8750000000000000
  0.8888936634669673  0.4444521869072535  0.8750000000000000
  0.0555505550105319  0.4444344433543492  0.3750000000000000
  0.2221962095455228  0.9443881171092975  0.3750000000000000
  0.5555655566455200  0.9444494449894977  0.3750000000000000
  0.3897186732005139  0.4448996580768501  0.3750000000000000
  0.8887935253382446  0.9443612453524168  0.3750000000000000
  0.7218476515433278  0.4448996580770190  0.3750000000000000
  0.2222283384023358  0.6111119411230206  0.8750000000000000
  0.0555619762106835  0.1111023895508321  0.8750000000000000
  0.5555661786937236  0.6111144255768629  0.8750000000000000
  0.3888956392039080  0.1111246117413506  0.8750000000000000
  0.8888753882588345  0.6111043607959947  0.8750000000000000
  0.0556118828904558  0.6111414257694462  0.3750000000000000
  0.7222070800069358  0.1111023895508326  0.8750000000000000
  0.2224122387612958  0.1112632798971901  0.3750000000000000
  0.3888079174365965  0.6111920825631705  0.3750000000000000
  0.7218476515433279  0.6102813267995768  0.3750000000000000
  0.5555177078024383  0.1112632798971899  0.3750000000000000
  0.3888956392039113  0.6111043607959947  0.8750000000000000
  0.8888888888888857  0.1111111111111143  0.3750000000000000
  0.2222222222222214  0.7777777777777786  0.8750000000000000
  0.0555619762106829  0.2777929199932399  0.8750000000000000
  0.3888855744231796  0.2777850864500462  0.8750000000000000
  0.5555478130926698  0.7777748098930130  0.8750000000000000
  0.8888936634669673  0.7777748098930130  0.8750000000000000
  0.7222249041816683  0.2777750958179472  0.8750000000000000
  0.0556118828904562  0.7778037904543473  0.3750000000000000
  0.3888585742306753  0.7778037904543473  0.3750000000000000
  0.2225837698334255  0.2779585515832594  0.3750000000000000
  0.7220414484167426  0.7774162301668169  0.3750000000000000
  0.5551003419229861  0.2781523484568111  0.3750000000000000
  0.8887935253382446  0.2777656133195084  0.3750000000000000
  0.0555631732268489  0.4444596797870535  0.8750000000000000
  0.2222283384023358  0.9444497306123671  0.8750000000000000
  0.5555403202128746  0.9444368267728259  0.8750000000000000
  0.3888855744231976  0.4444338213064951  0.8750000000000000
  0.8888976104492102  0.9444380237890982  0.8750000000000000
  0.0555505550105279  0.9444494449894977  0.3750000000000000
  0.7222149135500275  0.4444338213064993  0.8750000000000000
  0.3888585742306753  0.9443881171092975  0.3750000000000000
  0.2224122387613001  0.4444822921973366  0.3750000000000000
  0.2221962095455228  0.6111414257694462  0.3750000000000000
  0.7222343866803976  0.9443612453524168  0.3750000000000000
  0.8887367201030827  0.4444822921973366  0.3750000000000000
  0.0555502693874930  0.6111119411230203  0.8750000000000000
  0.2222251901071146  0.1111063365332878  0.8750000000000000
  0.7222149135500275  0.6111144255768629  0.8750000000000000
  0.5555478130926698  0.1111063365332882  0.8750000000000000
  0.8888888888888857  0.1111111111111143  0.8750000000000000
  0.1112003638634327  0.0556808212920269  0.3750000000000000
  0.6122222343079172  0.5577778019493365  0.3750000000000000
  0.4444487431256207  0.0552923593757910  0.3750000000000000
  0.9447076406244546  0.5555512568745292  0.3750000000000000
  0.7778790879840729  0.0556062106586059  0.3750000000000000
  0.1111229754230452  0.7222281543782442  0.8750000000000000
  0.4444712509696594  0.7222247580094766  0.8750000000000000
  0.2777417405238053  0.2221934485063555  0.8750000000000000
  0.7778065514936835  0.7222582594762306  0.8750000000000000
  0.6111183746493397  0.2221934485063561  0.8750000000000000
  0.9444393404880698  0.2222120143088570  0.8750000000000000
  0.2776945113159963  0.7223054886837311  0.3750000000000000
  0.1112681264379063  0.2223007298855766  0.3750000000000000
  0.4439793315863124  0.2212919965061802  0.3750000000000000
  0.6109140539891309  0.7221416158937615  0.3750000000000000
  0.9447076406244546  0.7224897170834559  0.3750000000000000
  0.7776992701147561  0.2223007298855766  0.3750000000000000
  0.1111157406939837  0.8888842593060825  0.8750000000000000
  0.4444351852787304  0.8888842593060825  0.8750000000000000
  0.2777417405238053  0.3888816253509280  0.8750000000000000
  0.6111123974289501  0.3888876025708133  0.8750000000000000
  0.7777865638240921  0.8889064609817158  0.8750000000000000
  0.9444466764905748  0.3889115825789459  0.8750000000000000
  0.1112003638634327  0.3888528759048176  0.3750000000000000
  0.2776945113159963  0.8887223559653211  0.3750000000000000
  0.6111471240953860  0.8887996361366227  0.3750000000000000
  0.4422221980507868  0.3877777656919961  0.3750000000000000
  0.9443191787080322  0.8887996361366231  0.3750000000000000
  0.7778942285710272  0.3890859460108322  0.3750000000000000
  0.2777752419905062  0.5555287490304319  0.8750000000000000
  0.1111315727552648  0.0555533235096918  0.8750000000000000
  0.6111123974289501  0.5555581281917019  0.8750000000000000
  0.4444712509696594  0.0555798262934745  0.8750000000000000
  0.9444201737061991  0.5555287490304319  0.8750000000000000
  0.1110720006327656  0.5554773345985217  0.3750000000000000
  0.7777879856909223  0.0555606595122245  0.8750000000000000
  0.2775102829167349  0.0552923593757911  0.3750000000000000
  0.4439793315862812  0.5560206684134741  0.3750000000000000
  0.7787080034940398  0.5560206684134741  0.3750000000000000
  0.6111471240953860  0.0556808212920371  0.3750000000000000
  0.4444492918411045  0.5555507081589413  0.8750000000000000
  0.9443937893412154  0.0556062106586060  0.3750000000000000
  0.2777718456219139  0.7222281543782442  0.8750000000000000
  0.1110935390184059  0.2222134361759109  0.8750000000000000
  0.4444492918411045  0.2222319170155716  0.8750000000000000
  0.6111183746493397  0.7222582594762307  0.8750000000000000
  0.9444201737061991  0.7222247580094766  0.8750000000000000
  0.7777865638240921  0.2222134361759109  0.8750000000000000
  0.1112776440343506  0.7223054886837311  0.3750000000000000
  0.4444487431256207  0.7224897170834559  0.3750000000000000
  0.2778583841065742  0.2221057714289613  0.3750000000000000
  0.7778942285710272  0.7221416158937812  0.3750000000000000
  0.6109140539891307  0.2221057714289611  0.3750000000000000
  0.9443937893412154  0.2221209120161302  0.3750000000000000
  0.1111315727552626  0.3889115825789459  0.8750000000000000
  0.2777718456219139  0.8888770245771563  0.8750000000000000
  0.6110884174208875  0.8888684272449120  0.8750000000000000
  0.4444418718084143  0.3888876025708133  0.8750000000000000
  0.9444466764905750  0.8888684272449120  0.8750000000000000
  0.1110720006327654  0.8889279993674623  0.3750000000000000
  0.7778065514936835  0.3888816253509280  0.8750000000000000
  0.4445226654009832  0.8889279993674623  0.3750000000000000
  0.2778583841065490  0.3890859460108347  0.3750000000000000
  0.2775102829167349  0.5555512568745292  0.3750000000000000
  0.6122222343079172  0.3877777656919961  0.3750000000000000
  0.7776992701147561  0.8887318735624096  0.3750000000000000
  0.9443191787080322  0.3888528759048179  0.3750000000000000
  0.1111157406939837  0.5555648147214753  0.8750000000000000
  0.2777752419905062  0.0555798262934746  0.8750000000000000
  0.7777680829844553  0.5555507081589413  0.8750000000000000
  0.6110884174208875  0.0555533235096918  0.8750000000000000
  0.9444393404880698  0.0555606595122245  0.8750000000000000
  0.0555287708741609  0.1111393872358342  0.1250092608899629
  0.5555029488791335  0.6111814740514183  0.1232846910285344
  0.3888956707125599  0.1111246747584157  0.1240520314953958
  0.8888753252415373  0.6111043292871418  0.1240520314953958
  0.7222772830283198  0.1111393872358342  0.1250092608899629
  0.0555742708514961  0.7778143943696509  0.6249698568261003
  0.3889067901848431  0.7778143943696547  0.6249698568261003
  0.2220895960672146  0.2777114647002980  0.6259574940881308
  0.7222885352998606  0.7779104039327397  0.6259574940881278
  0.5555029488791335  0.2776548081607357  0.6267153089713227
  0.8888606127641479  0.2777227169715902  0.6249907391096751
  0.2222222222222214  0.7777777777777786  0.1254393444951038
  0.0555287708741585  0.2777227169715902  0.1250092608899629
  0.3888185259482205  0.2776548081607357  0.1232846910285344
  0.5555829388601092  0.7778188203790306  0.1243834790370523
  0.8889025481855710  0.7778188203790306  0.1243834790370530
  0.7222885352998606  0.2777114647002980  0.1240425059118995
  0.0555658081745706  0.9444341918255392  0.6249930841282152
  0.3889067901848431  0.9444257291484334  0.6249698568261003
  0.2221811796210110  0.4444170611399733  0.6256165209628904
  0.5555555555555571  0.4444444444444429  0.6274349974547954
  0.7222772830283198  0.9444712291256825  0.6249907391096751
  0.8889025481855710  0.4444170611399733  0.6256165209628904
  0.0555658081745684  0.4444649496824498  0.1250069158719078
  0.2221856056303591  0.9444257291484334  0.1250301431738528
  0.5555350503175408  0.9444341918255392  0.1250069158719080
  0.3888185259482205  0.4444970511209223  0.1232846910285344
  0.8888606127641479  0.9444712291256825  0.1250092608899629
  0.7223451918393478  0.4444970511209223  0.1232846910285343
  0.2221856056303591  0.6110932098151276  0.6249698568261003
  0.0555287708741585  0.1111393872358342  0.6249907391096751
  0.5555029488791335  0.6111814740514183  0.6267153089713352
  0.3888956707125599  0.1111246747584148  0.6259479685045438
  0.8888753252415373  0.6111043292871418  0.6259479685045438
  0.0555742708514958  0.6110932098151276  0.1250301431738528
  0.7222772830283198  0.1111393872358342  0.6249907391096751
  0.2221811796210110  0.1110974518144464  0.1243834790370532
  0.3888956707125599  0.6111043292871418  0.1240520314953969
  0.7223451918393478  0.6111814740514177  0.1232846910285344
  0.5555829388601092  0.1110974518144456  0.1243834790370533
  0.3888956707125594  0.6111043292871418  0.6259479685045438
  0.8888888888888857  0.1111111111111143  0.1254001933395690
  0.2222222222222214  0.7777777777777786  0.6245606555048540
  0.0555287708741585  0.2777227169715902  0.6249907391096751
  0.3888185259482205  0.2776548081607357  0.6267153089713227
  0.5555829388601092  0.7778188203790306  0.6256165209628904
  0.8889025481855710  0.7778188203790306  0.6256165209628904
  0.7222885352998606  0.2777114647002980  0.6259574940881278
  0.0555742708514961  0.7778143943696547  0.1250301431738528
  0.3889067901848299  0.7778143943696509  0.1250301431738528
  0.2220895960672146  0.2777114647002980  0.1240425059118996
  0.7222885352998606  0.7779104039327397  0.1240425059118993
  0.5555029488791335  0.2776548081607357  0.1232846910285328
  0.8888606127641479  0.2777227169715902  0.1250092608899629
  0.0555658081745685  0.4444649496824498  0.6249930841282152
  0.2221856056303591  0.9444257291484334  0.6249698568261003
  0.5555350503175408  0.9444341918255392  0.6249930841282152
  0.3888185259482205  0.4444970511209223  0.6267153089713352
  0.8888606127641479  0.9444712291256825  0.6249907391096751
  0.0555658081745685  0.9444341918255392  0.1250069158719080
  0.7223451918393478  0.4444970511209223  0.6267153089713363
  0.3889067901848431  0.9444257291484334  0.1250301431738528
  0.2221811796210110  0.4444170611399736  0.1243834790370522
  0.2221856056303602  0.6110932098151276  0.1250301431738528
  0.5555555555555571  0.4444444444444429  0.1225650025451318
  0.7222772830283198  0.9444712291256825  0.1250092608899629
  0.8889025481855710  0.4444170611399736  0.1243834790370529
  0.0555742708514961  0.6110932098151276  0.6249698568261003
  0.2221811796210110  0.1110974518144469  0.6256165209628907
  0.7223451918393478  0.6111814740514183  0.6267153089713352
  0.5555829388601092  0.1110974518144466  0.6256165209628907
  0.8888888888888857  0.1111111111111143  0.6245998066606334
 
  0.00000000E+00  0.00000000E+00  0.00000000E+00
  0.00000000E+00  0.00000000E+00  0.00000000E+00
  0.00000000E+00  0.00000000E+00  0.00000000E+00
  0.00000000E+00  0.00000000E+00  0.00000000E+00
  0.00000000E+00  0.00000000E+00  0.00000000E+00
  0.00000000E+00  0.00000000E+00  0.00000000E+00
  0.00000000E+00  0.00000000E+00  0.00000000E+00
  0.00000000E+00  0.00000000E+00  0.00000000E+00
  0.00000000E+00  0.00000000E+00  0.00000000E+00
  0.00000000E+00  0.00000000E+00  0.00000000E+00
  0.00000000E+00  0.00000000E+00  0.00000000E+00
  0.00000000E+00  0.00000000E+00  0.00000000E+00
  0.00000000E+00  0.00000000E+00  0.00000000E+00
  0.00000000E+00  0.00000000E+00  0.00000000E+00
  0.00000000E+00  0.00000000E+00  0.00000000E+00
  0.00000000E+00  0.00000000E+00  0.00000000E+00
  0.00000000E+00  0.00000000E+00  0.00000000E+00
  0.00000000E+00  0.00000000E+00  0.00000000E+00
  0.00000000E+00  0.00000000E+00  0.00000000E+00
  0.00000000E+00  0.00000000E+00  0.00000000E+00
  0.00000000E+00  0.00000000E+00  0.00000000E+00
  0.00000000E+00  0.00000000E+00  0.00000000E+00
  0.00000000E+00  0.00000000E+00  0.00000000E+00
  0.00000000E+00  0.00000000E+00  0.00000000E+00
  0.00000000E+00  0.00000000E+00  0.00000000E+00
  0.00000000E+00  0.00000000E+00  0.00000000E+00
  0.00000000E+00  0.00000000E+00  0.00000000E+00
  0.00000000E+00  0.00000000E+00  0.00000000E+00
  0.00000000E+00  0.00000000E+00  0.00000000E+00
  0.00000000E+00  0.00000000E+00  0.00000000E+00
  0.00000000E+00  0.00000000E+00  0.00000000E+00
  0.00000000E+00  0.00000000E+00  0.00000000E+00
  0.00000000E+00  0.00000000E+00  0.00000000E+00
  0.00000000E+00  0.00000000E+00  0.00000000E+00
  0.00000000E+00  0.00000000E+00  0.00000000E+00
  0.00000000E+00  0.00000000E+00  0.00000000E+00
  0.00000000E+00  0.00000000E+00  0.00000000E+00
  0.00000000E+00  0.00000000E+00  0.00000000E+00
  0.00000000E+00  0.00000000E+00  0.00000000E+00
  0.00000000E+00  0.00000000E+00  0.00000000E+00
  0.00000000E+00  0.00000000E+00  0.00000000E+00
  0.00000000E+00  0.00000000E+00  0.00000000E+00
  0.00000000E+00  0.00000000E+00  0.00000000E+00
  0.00000000E+00  0.00000000E+00  0.00000000E+00
  0.00000000E+00  0.00000000E+00  0.00000000E+00
  0.00000000E+00  0.00000000E+00  0.00000000E+00
  0.00000000E+00  0.00000000E+00  0.00000000E+00
  0.00000000E+00  0.00000000E+00  0.00000000E+00
  0.00000000E+00  0.00000000E+00  0.00000000E+00
  0.00000000E+00  0.00000000E+00  0.00000000E+00
  0.00000000E+00  0.00000000E+00  0.00000000E+00
  0.00000000E+00  0.00000000E+00  0.00000000E+00
  0.00000000E+00  0.00000000E+00  0.00000000E+00
  0.00000000E+00  0.00000000E+00  0.00000000E+00
  0.00000000E+00  0.00000000E+00  0.00000000E+00
  0.00000000E+00  0.00000000E+00  0.00000000E+00
  0.00000000E+00  0.00000000E+00  0.00000000E+00
  0.00000000E+00  0.00000000E+00  0.00000000E+00
  0.00000000E+00  0.00000000E+00  0.00000000E+00
  0.00000000E+00  0.00000000E+00  0.00000000E+00
  0.00000000E+00  0.00000000E+00  0.00000000E+00
  0.00000000E+00  0.00000000E+00  0.00000000E+00
  0.00000000E+00  0.00000000E+00  0.00000000E+00
  0.00000000E+00  0.00000000E+00  0.00000000E+00
  0.00000000E+00  0.00000000E+00  0.00000000E+00
  0.00000000E+00  0.00000000E+00  0.00000000E+00
  0.00000000E+00  0.00000000E+00  0.00000000E+00
  0.00000000E+00  0.00000000E+00  0.00000000E+00
  0.00000000E+00  0.00000000E+00  0.00000000E+00
  0.00000000E+00  0.00000000E+00  0.00000000E+00
  0.00000000E+00  0.00000000E+00  0.00000000E+00
  0.00000000E+00  0.00000000E+00  0.00000000E+00
  0.00000000E+00  0.00000000E+00  0.00000000E+00
  0.00000000E+00  0.00000000E+00  0.00000000E+00
  0.00000000E+00  0.00000000E+00  0.00000000E+00
  0.00000000E+00  0.00000000E+00  0.00000000E+00
  0.00000000E+00  0.00000000E+00  0.00000000E+00
  0.00000000E+00  0.00000000E+00  0.00000000E+00
  0.00000000E+00  0.00000000E+00  0.00000000E+00
  0.00000000E+00  0.00000000E+00  0.00000000E+00
  0.00000000E+00  0.00000000E+00  0.00000000E+00
  0.00000000E+00  0.00000000E+00  0.00000000E+00
  0.00000000E+00  0.00000000E+00  0.00000000E+00
  0.00000000E+00  0.00000000E+00  0.00000000E+00
  0.00000000E+00  0.00000000E+00  0.00000000E+00
  0.00000000E+00  0.00000000E+00  0.00000000E+00
  0.00000000E+00  0.00000000E+00  0.00000000E+00
  0.00000000E+00  0.00000000E+00  0.00000000E+00
  0.00000000E+00  0.00000000E+00  0.00000000E+00
  0.00000000E+00  0.00000000E+00  0.00000000E+00
  0.00000000E+00  0.00000000E+00  0.00000000E+00
  0.00000000E+00  0.00000000E+00  0.00000000E+00
  0.00000000E+00  0.00000000E+00  0.00000000E+00
  0.00000000E+00  0.00000000E+00  0.00000000E+00
  0.00000000E+00  0.00000000E+00  0.00000000E+00
  0.00000000E+00  0.00000000E+00  0.00000000E+00
  0.00000000E+00  0.00000000E+00  0.00000000E+00
  0.00000000E+00  0.00000000E+00  0.00000000E+00
  0.00000000E+00  0.00000000E+00  0.00000000E+00
  0.00000000E+00  0.00000000E+00  0.00000000E+00
  0.00000000E+00  0.00000000E+00  0.00000000E+00
  0.00000000E+00  0.00000000E+00  0.00000000E+00
  0.00000000E+00  0.00000000E+00  0.00000000E+00
  0.00000000E+00  0.00000000E+00  0.00000000E+00
  0.00000000E+00  0.00000000E+00  0.00000000E+00
  0.00000000E+00  0.00000000E+00  0.00000000E+00
  0.00000000E+00  0.00000000E+00  0.00000000E+00
  0.00000000E+00  0.00000000E+00  0.00000000E+00
  0.00000000E+00  0.00000000E+00  0.00000000E+00
  0.00000000E+00  0.00000000E+00  0.00000000E+00
  0.00000000E+00  0.00000000E+00  0.00000000E+00
  0.00000000E+00  0.00000000E+00  0.00000000E+00
  0.00000000E+00  0.00000000E+00  0.00000000E+00
  0.00000000E+00  0.00000000E+00  0.00000000E+00
  0.00000000E+00  0.00000000E+00  0.00000000E+00
  0.00000000E+00  0.00000000E+00  0.00000000E+00
  0.00000000E+00  0.00000000E+00  0.00000000E+00
  0.00000000E+00  0.00000000E+00  0.00000000E+00
  0.00000000E+00  0.00000000E+00  0.00000000E+00
  0.00000000E+00  0.00000000E+00  0.00000000E+00
  0.00000000E+00  0.00000000E+00  0.00000000E+00
  0.00000000E+00  0.00000000E+00  0.00000000E+00
  0.00000000E+00  0.00000000E+00  0.00000000E+00
  0.00000000E+00  0.00000000E+00  0.00000000E+00
  0.00000000E+00  0.00000000E+00  0.00000000E+00
  0.00000000E+00  0.00000000E+00  0.00000000E+00
  0.00000000E+00  0.00000000E+00  0.00000000E+00
  0.00000000E+00  0.00000000E+00  0.00000000E+00
  0.00000000E+00  0.00000000E+00  0.00000000E+00
  0.00000000E+00  0.00000000E+00  0.00000000E+00
  0.00000000E+00  0.00000000E+00  0.00000000E+00
  0.00000000E+00  0.00000000E+00  0.00000000E+00
  0.00000000E+00  0.00000000E+00  0.00000000E+00
  0.00000000E+00  0.00000000E+00  0.00000000E+00
  0.00000000E+00  0.00000000E+00  0.00000000E+00
  0.00000000E+00  0.00000000E+00  0.00000000E+00
  0.00000000E+00  0.00000000E+00  0.00000000E+00
  0.00000000E+00  0.00000000E+00  0.00000000E+00
  0.00000000E+00  0.00000000E+00  0.00000000E+00
  0.00000000E+00  0.00000000E+00  0.00000000E+00
  0.00000000E+00  0.00000000E+00  0.00000000E+00
  0.00000000E+00  0.00000000E+00  0.00000000E+00
  0.00000000E+00  0.00000000E+00  0.00000000E+00
  0.00000000E+00  0.00000000E+00  0.00000000E+00
  0.00000000E+00  0.00000000E+00  0.00000000E+00
  0.00000000E+00  0.00000000E+00  0.00000000E+00
  0.00000000E+00  0.00000000E+00  0.00000000E+00
  0.00000000E+00  0.00000000E+00  0.00000000E+00
  0.00000000E+00  0.00000000E+00  0.00000000E+00
  0.00000000E+00  0.00000000E+00  0.00000000E+00
  0.00000000E+00  0.00000000E+00  0.00000000E+00
  0.00000000E+00  0.00000000E+00  0.00000000E+00
  0.00000000E+00  0.00000000E+00  0.00000000E+00
  0.00000000E+00  0.00000000E+00  0.00000000E+00
  0.00000000E+00  0.00000000E+00  0.00000000E+00
  0.00000000E+00  0.00000000E+00  0.00000000E+00
  0.00000000E+00  0.00000000E+00  0.00000000E+00
  0.00000000E+00  0.00000000E+00  0.00000000E+00
  0.00000000E+00  0.00000000E+00  0.00000000E+00
  0.00000000E+00  0.00000000E+00  0.00000000E+00
  0.00000000E+00  0.00000000E+00  0.00000000E+00
  0.00000000E+00  0.00000000E+00  0.00000000E+00
  0.00000000E+00  0.00000000E+00  0.00000000E+00
  0.00000000E+00  0.00000000E+00  0.00000000E+00
  0.00000000E+00  0.00000000E+00  0.00000000E+00
  0.00000000E+00  0.00000000E+00  0.00000000E+00
  0.00000000E+00  0.00000000E+00  0.00000000E+00
  0.00000000E+00  0.00000000E+00  0.00000000E+00
  0.00000000E+00  0.00000000E+00  0.00000000E+00
  0.00000000E+00  0.00000000E+00  0.00000000E+00
  0.00000000E+00  0.00000000E+00  0.00000000E+00
  0.00000000E+00  0.00000000E+00  0.00000000E+00
  0.00000000E+00  0.00000000E+00  0.00000000E+00
  0.00000000E+00  0.00000000E+00  0.00000000E+00
  0.00000000E+00  0.00000000E+00  0.00000000E+00
  0.00000000E+00  0.00000000E+00  0.00000000E+00
  0.00000000E+00  0.00000000E+00  0.00000000E+00
  0.00000000E+00  0.00000000E+00  0.00000000E+00
  0.00000000E+00  0.00000000E+00  0.00000000E+00
  0.00000000E+00  0.00000000E+00  0.00000000E+00
  0.00000000E+00  0.00000000E+00  0.00000000E+00
  0.00000000E+00  0.00000000E+00  0.00000000E+00
  0.00000000E+00  0.00000000E+00  0.00000000E+00
  0.00000000E+00  0.00000000E+00  0.00000000E+00
  0.00000000E+00  0.00000000E+00  0.00000000E+00
  0.00000000E+00  0.00000000E+00  0.00000000E+00
  0.00000000E+00  0.00000000E+00  0.00000000E+00
  0.00000000E+00  0.00000000E+00  0.00000000E+00
  0.00000000E+00  0.00000000E+00  0.00000000E+00
  0.00000000E+00  0.00000000E+00  0.00000000E+00
  0.00000000E+00  0.00000000E+00  0.00000000E+00
  0.00000000E+00  0.00000000E+00  0.00000000E+00
  0.00000000E+00  0.00000000E+00  0.00000000E+00
  0.00000000E+00  0.00000000E+00  0.00000000E+00
  0.00000000E+00  0.00000000E+00  0.00000000E+00
  0.00000000E+00  0.00000000E+00  0.00000000E+00
  0.00000000E+00  0.00000000E+00  0.00000000E+00
  0.00000000E+00  0.00000000E+00  0.00000000E+00
  0.00000000E+00  0.00000000E+00  0.00000000E+00
  0.00000000E+00  0.00000000E+00  0.00000000E+00
  0.00000000E+00  0.00000000E+00  0.00000000E+00
  0.00000000E+00  0.00000000E+00  0.00000000E+00
  0.00000000E+00  0.00000000E+00  0.00000000E+00
  0.00000000E+00  0.00000000E+00  0.00000000E+00
  0.00000000E+00  0.00000000E+00  0.00000000E+00
  0.00000000E+00  0.00000000E+00  0.00000000E+00
  0.00000000E+00  0.00000000E+00  0.00000000E+00
  0.00000000E+00  0.00000000E+00  0.00000000E+00
  0.00000000E+00  0.00000000E+00  0.00000000E+00
  0.00000000E+00  0.00000000E+00  0.00000000E+00
  0.00000000E+00  0.00000000E+00  0.00000000E+00
  0.00000000E+00  0.00000000E+00  0.00000000E+00
  0.00000000E+00  0.00000000E+00  0.00000000E+00
  0.00000000E+00  0.00000000E+00  0.00000000E+00
  0.00000000E+00  0.00000000E+00  0.00000000E+00
  0.00000000E+00  0.00000000E+00  0.00000000E+00
  0.00000000E+00  0.00000000E+00  0.00000000E+00
  0.00000000E+00  0.00000000E+00  0.00000000E+00
  0.00000000E+00  0.00000000E+00  0.00000000E+00
  0.00000000E+00  0.00000000E+00  0.00000000E+00
  0.00000000E+00  0.00000000E+00  0.00000000E+00
  0.00000000E+00  0.00000000E+00  0.00000000E+00
  0.00000000E+00  0.00000000E+00  0.00000000E+00
  0.00000000E+00  0.00000000E+00  0.00000000E+00
  0.00000000E+00  0.00000000E+00  0.00000000E+00
  0.00000000E+00  0.00000000E+00  0.00000000E+00
  0.00000000E+00  0.00000000E+00  0.00000000E+00
  0.00000000E+00  0.00000000E+00  0.00000000E+00
  0.00000000E+00  0.00000000E+00  0.00000000E+00
  0.00000000E+00  0.00000000E+00  0.00000000E+00
  0.00000000E+00  0.00000000E+00  0.00000000E+00
  0.00000000E+00  0.00000000E+00  0.00000000E+00
  0.00000000E+00  0.00000000E+00  0.00000000E+00
  0.00000000E+00  0.00000000E+00  0.00000000E+00
  0.00000000E+00  0.00000000E+00  0.00000000E+00
  0.00000000E+00  0.00000000E+00  0.00000000E+00
  0.00000000E+00  0.00000000E+00  0.00000000E+00
  0.00000000E+00  0.00000000E+00  0.00000000E+00
  0.00000000E+00  0.00000000E+00  0.00000000E+00
  0.00000000E+00  0.00000000E+00  0.00000000E+00
  0.00000000E+00  0.00000000E+00  0.00000000E+00
  0.00000000E+00  0.00000000E+00  0.00000000E+00
  0.00000000E+00  0.00000000E+00  0.00000000E+00
  0.00000000E+00  0.00000000E+00  0.00000000E+00
  0.00000000E+00  0.00000000E+00  0.00000000E+00
  0.00000000E+00  0.00000000E+00  0.00000000E+00
  0.00000000E+00  0.00000000E+00  0.00000000E+00