B N P                                   
   1.0000000000000000     
     8.7639499999999995  -15.1796066749929999    0.0000000000000000
     8.7639499999999995   15.1796066749929999    0.0000000000000000
     0.0000000000000000    0.0000000000000000   15.0000000000000000
   B    N    P 
    48    48     1
Selective dynamics
Direct
  0.9053620146439308  0.9536324981622983  0.1109901414830511   T   T   T
  0.9041198543252010  0.0958821668707814  0.1110006374472854   T   T   T
  0.9036829191132985  0.2386228038384745  0.1110317682960962   T   T   T
  0.9036916471553901  0.3814152981189178  0.1109584623447291   T   T   T
  0.9044799743202410  0.5242655728153836  0.1109795098938219   T   T   T
  0.9058199089526966  0.6674649892615740  0.1110426121879799   T   T   T
  0.9065230892742838  0.8112519983603711  0.1110166565263214   T   T   T
  0.0476833980620958  0.9523186231339156  0.1109626813757067   T   T   T
  0.0463695230337123  0.0946400065520725  0.1109901414830511   T   T   T
  0.0460242836830964  0.2378091027766827  0.1109880938354308   T   T   T
  0.0463928550975203  0.3808843083981258  0.1109735334504916   T   T   T
  0.0473654636419265  0.5237289435649961  0.1109698012710222   T   T   T
  0.0481899885353719  0.6666075711112950  0.1110123181123891   T   T   T
  0.0482816504580561  0.8095943418009495  0.1109699144740710   T   T   T
  0.1904076793950676  0.9517203707379617  0.1109699144740710   T   T   T
  0.1887500228356317  0.0934789319217197  0.1110166565263214   T   T   T
  0.1871928538330182  0.2356038489605707  0.1110110120508313   T   T   T
  0.1884557016097280  0.3798790100570256  0.1110183151471187   T   T   T
  0.1903392428212069  0.5230604319060201  0.1110615321836518   T   T   T
  0.1912175593068171  0.6660791344171603  0.1110555965654719   T   T   T
  0.1909652709004383  0.8090367502955792  0.1109777625419259   T   T   T
  0.3333944500856882  0.9518120326606466  0.1110123181123891   T   T   T
  0.3325370319354100  0.0941821122433068  0.1110426121879799   T   T   T
  0.3293896604268229  0.2342398814972509  0.1110228445833300   T   T   T
  0.3276641241431233  0.3765173782279893  0.1110575404400665   T   T   T
  0.3339602088660477  0.5212585609298070  0.1111664166865126   T   T   T
  0.3347281906593241  0.6652738305376592  0.1111403025628154   T   T   T
  0.3339228867798672  0.8087844618891923  0.1110555965654719   T   T   T
  0.4762730776320018  0.9526365575540769  0.1109698012710222   T   T   T
  0.4757364483816279  0.0955220468757549  0.1109795098938219   T   T   T
  0.4747749908970435  0.2381962381828876  0.1110355083013271   T   T   T
  0.4688807495054931  0.3765594655065236  0.1111365531915417   T   T   T
  0.4787434602672130  0.6660418123309585  0.1111664166865126   T   T   T
  0.4769415892909927  0.8096627783748035  0.1110615321836518   T   T   T
  0.6191177127978994  0.9536091660984695  0.1109735334504916   T   T   T
  0.6185867230770864  0.0963103740406134  0.1109584623447291   T   T   T
  0.6180493998708925  0.2393782945136472  0.1110336628925366   T   T   T
  0.6171153840021599  0.3828866371938217  0.1110678846912235   T   T   T
  0.6234425556894730  0.5311212716915049  0.1111365531915417   T   T   T
  0.6234846429679929  0.6723378970538672  0.1110575404400665   T   T   T
  0.6201230111389918  0.8115463195862830  0.1110183151471187   T   T   T
  0.7621929184193206  0.9539777375129217  0.1109880938354308   T   T   T
  0.7613792173575284  0.0963191020827043  0.1110317682960962   T   T   T
  0.7609382016863449  0.2390638195096586  0.1110475392780656   T   T   T
  0.7606237266823562  0.3819526213250972  0.1110336628925366   T   T   T
  0.7618057830131298  0.5252270302999478  0.1110355083013271   T   T   T
  0.7657621396987309  0.6706123607701754  0.1110228445833300   T   T   T
  0.7643981722354396  0.8128091673630063  0.1110110120508313   T   T   T
  0.9532089426765441  0.9060063303644271  0.1109699725315533   T   T   T
  0.9517681846910028  0.0482332172270029  0.1109751739793700   T   T   T
  0.9509843763057371  0.1907693315481894  0.1110021764208170   T   T   T
  0.9510483122068693  0.3336349531535913  0.1109639945266542   T   T   T
  0.9519152677145140  0.4765110386390498  0.1109259786252784   T   T   T
  0.9530600163870397  0.6194693774178759  0.1110019917184879   T   T   T
  0.9535382020693428  0.7627626526031273  0.1110035384189634   T   T   T
  0.0954106422206333  0.9045907596973731  0.1109223851004172   T   T   T
  0.0939950715535585  0.0467924592414336  0.1109699725315533   T   T   T
  0.0924619960355420  0.1890113801139441  0.1109794357676716   T   T   T
  0.0929937465470637  0.3326676512943786  0.1109641166348689   T   T   T
  0.0944972524831780  0.4759763575618624  0.1109716280785928   T   T   T
  0.0956220628543906  0.6189368699761412  0.1109973878583506   T   T   T
  0.0957989649891440  0.7618119465382478  0.1109538987879328   T   T   T
  0.2381894553797656  0.9042024369288554  0.1109538987879328   T   T   T
  0.2372387493148856  0.0464631998486705  0.1110035384189634   T   T   T
  0.2345052632048674  0.1873806171138241  0.1110015368272957   T   T   T
  0.2326729995491929  0.3293762608842467  0.1109942195190149   T   T   T
  0.2366924459297714  0.4749872660987000  0.1110700422208361   T   T   T
  0.2386064999169457  0.6185206121361144  0.1110748834507714   T   T   T
  0.2385305106799012  0.7614708912381113  0.1110284478518195   T   T   T
  0.3810645319418501  0.9043793390636012  0.1109973878583506   T   T   T
  0.3805320245001297  0.0469413855309723  0.1110019917184879   T   T   T
  0.3792693846451955  0.1886732022179870  0.1110236579453623   T   T   T
  0.3741837415063077  0.3270882610738556  0.1110256815737555   T   T   T
  0.3734843165051385  0.4684475130307969  0.1111297652759747   T   T   T
  0.3821191832104224  0.6178822187075765  0.1111814690789873   T   T   T
  0.3814807897818696  0.7613949020010532  0.1110748834507714   T   T   T
  0.5240250443551414  0.9055041494348350  0.1109716280785928   T   T   T
  0.5234903632779330  0.0480861342034770  0.1109259786252784   T   T   T
  0.5228802683313454  0.1907432440749260  0.1110002801843087   T   T   T
  0.5215138642542145  0.3333837850916086  0.1110623543467415   T   T   T
  0.5315538888862203  0.6265170854128599  0.1111297652759747   T   T   T
  0.5250141358182970  0.7633089559882347  0.1110700422208361   T   T   T
  0.6673337506226106  0.9070076553709286  0.1109641166348689   T   T   T
  0.6663664487633850  0.0489530897111443  0.1109639945266542   T   T   T
  0.6658303707112903  0.1916068294623574  0.1109923276815781   T   T   T
  0.6652817091690063  0.3347196927479901  0.1110362819560201   T   T   T
  0.6666176168253956  0.4784875376627961  0.1110623543467415   T   T   T
  0.6729131408431406  0.6258176604116770  0.1110256815737555   T   T   T
  0.6706251410327575  0.7673284023688124  0.1109942195190149   T   T   T
  0.8109900218040688  0.9075394058824564  0.1109794357676716   T   T   T
  0.8092320703698096  0.0490170256122472  0.1110021764208170   T   T   T
  0.8085820510309499  0.1914193508870550  0.1110362353224967   T   T   T
  0.8083945724556412  0.3341710312057065  0.1109923276815781   T   T   T
  0.8092581578430798  0.4771211335856437  0.1110002801843087   T   T   T
  0.8113281997000189  0.6207320172728104  0.1110236579453623   T   T   T
  0.8126207848041597  0.7654961387131451  0.1110015368272957   T   T   T
  0.5022674729120311  0.4977345482849601  0.1112860278666602   T   T   T

  0.00000000E+00  0.00000000E+00  0.00000000E+00
  0.00000000E+00  0.00000000E+00  0.00000000E+00
  0.00000000E+00  0.00000000E+00  0.00000000E+00
  0.00000000E+00  0.00000000E+00  0.00000000E+00
  0.00000000E+00  0.00000000E+00  0.00000000E+00
  0.00000000E+00  0.00000000E+00  0.00000000E+00
  0.00000000E+00  0.00000000E+00  0.00000000E+00
  0.00000000E+00  0.00000000E+00  0.00000000E+00
  0.00000000E+00  0.00000000E+00  0.00000000E+00
  0.00000000E+00  0.00000000E+00  0.00000000E+00
  0.00000000E+00  0.00000000E+00  0.00000000E+00
  0.00000000E+00  0.00000000E+00  0.00000000E+00
  0.00000000E+00  0.00000000E+00  0.00000000E+00
  0.00000000E+00  0.00000000E+00  0.00000000E+00
  0.00000000E+00  0.00000000E+00  0.00000000E+00
  0.00000000E+00  0.00000000E+00  0.00000000E+00
  0.00000000E+00  0.00000000E+00  0.00000000E+00
  0.00000000E+00  0.00000000E+00  0.00000000E+00
  0.00000000E+00  0.00000000E+00  0.00000000E+00
  0.00000000E+00  0.00000000E+00  0.00000000E+00
  0.00000000E+00  0.00000000E+00  0.00000000E+00
  0.00000000E+00  0.00000000E+00  0.00000000E+00
  0.00000000E+00  0.00000000E+00  0.00000000E+00
  0.00000000E+00  0.00000000E+00  0.00000000E+00
  0.00000000E+00  0.00000000E+00  0.00000000E+00
  0.00000000E+00  0.00000000E+00  0.00000000E+00
  0.00000000E+00  0.00000000E+00  0.00000000E+00
  0.00000000E+00  0.00000000E+00  0.00000000E+00
  0.00000000E+00  0.00000000E+00  0.00000000E+00
  0.00000000E+00  0.00000000E+00  0.00000000E+00
  0.00000000E+00  0.00000000E+00  0.00000000E+00
  0.00000000E+00  0.00000000E+00  0.00000000E+00
  0.00000000E+00  0.00000000E+00  0.00000000E+00
  0.00000000E+00  0.00000000E+00  0.00000000E+00
  0.00000000E+00  0.00000000E+00  0.00000000E+00
  0.00000000E+00  0.00000000E+00  0.00000000E+00
  0.00000000E+00  0.00000000E+00  0.00000000E+00
  0.00000000E+00  0.00000000E+00  0.00000000E+00
  0.00000000E+00  0.00000000E+00  0.00000000E+00
  0.00000000E+00  0.00000000E+00  0.00000000E+00
  0.00000000E+00  0.00000000E+00  0.00000000E+00
  0.00000000E+00  0.00000000E+00  0.00000000E+00
  0.00000000E+00  0.00000000E+00  0.00000000E+00
  0.00000000E+00  0.00000000E+00  0.00000000E+00
  0.00000000E+00  0.00000000E+00  0.00000000E+00
  0.00000000E+00  0.00000000E+00  0.00000000E+00
  0.00000000E+00  0.00000000E+00  0.00000000E+00
  0.00000000E+00  0.00000000E+00  0.00000000E+00
  0.00000000E+00  0.00000000E+00  0.00000000E+00
  0.00000000E+00  0.00000000E+00  0.00000000E+00
  0.00000000E+00  0.00000000E+00  0.00000000E+00
  0.00000000E+00  0.00000000E+00  0.00000000E+00
  0.00000000E+00  0.00000000E+00  0.00000000E+00
  0.00000000E+00  0.00000000E+00  0.00000000E+00
  0.00000000E+00  0.00000000E+00  0.00000000E+00
  0.00000000E+00  0.00000000E+00  0.00000000E+00
  0.00000000E+00  0.00000000E+00  0.00000000E+00
  0.00000000E+00  0.00000000E+00  0.00000000E+00
  0.00000000E+00  0.00000000E+00  0.00000000E+00
  0.00000000E+00  0.00000000E+00  0.00000000E+00
  0.00000000E+00  0.00000000E+00  0.00000000E+00
  0.00000000E+00  0.00000000E+00  0.00000000E+00
  0.00000000E+00  0.00000000E+00  0.00000000E+00
  0.00000000E+00  0.00000000E+00  0.00000000E+00
  0.00000000E+00  0.00000000E+00  0.00000000E+00
  0.00000000E+00  0.00000000E+00  0.00000000E+00
  0.00000000E+00  0.00000000E+00  0.00000000E+00
  0.00000000E+00  0.00000000E+00  0.00000000E+00
  0.00000000E+00  0.00000000E+00  0.00000000E+00
  0.00000000E+00  0.00000000E+00  0.00000000E+00
  0.00000000E+00  0.00000000E+00  0.00000000E+00
  0.00000000E+00  0.00000000E+00  0.00000000E+00
  0.00000000E+00  0.00000000E+00  0.00000000E+00
  0.00000000E+00  0.00000000E+00  0.00000000E+00
  0.00000000E+00  0.00000000E+00  0.00000000E+00
  0.00000000E+00  0.00000000E+00  0.00000000E+00
  0.00000000E+00  0.00000000E+00  0.00000000E+00
  0.00000000E+00  0.00000000E+00  0.00000000E+00
  0.00000000E+00  0.00000000E+00  0.00000000E+00
  0.00000000E+00  0.00000000E+00  0.00000000E+00
  0.00000000E+00  0.00000000E+00  0.00000000E+00
  0.00000000E+00  0.00000000E+00  0.00000000E+00
  0.00000000E+00  0.00000000E+00  0.00000000E+00
  0.00000000E+00  0.00000000E+00  0.00000000E+00
  0.00000000E+00  0.00000000E+00  0.00000000E+00
  0.00000000E+00  0.00000000E+00  0.00000000E+00
  0.00000000E+00  0.00000000E+00  0.00000000E+00
  0.00000000E+00  0.00000000E+00  0.00000000E+00
  0.00000000E+00  0.00000000E+00  0.00000000E+00
  0.00000000E+00  0.00000000E+00  0.00000000E+00
  0.00000000E+00  0.00000000E+00  0.00000000E+00
  0.00000000E+00  0.00000000E+00  0.00000000E+00
  0.00000000E+00  0.00000000E+00  0.00000000E+00
  0.00000000E+00  0.00000000E+00  0.00000000E+00
  0.00000000E+00  0.00000000E+00  0.00000000E+00
  0.00000000E+00  0.00000000E+00  0.00000000E+00
  0.00000000E+00  0.00000000E+00  0.00000000E+00
