 C N B 
 1.0
 17.527899999999772   0.000000000000000   0.000000000000000
 -8.763949999999658  15.179606674993195   0.000000000000000
  0.000000000000001   0.000000000000002  15.000000000000000
 C N B 
   1  49  48
Cartesian
  3.756354303965456   7.951022368464269   1.666596738020880 
  8.762847449962592  13.733409537441492   1.665202593117345 
 16.276296926961120   0.722630749864324   1.665238983382080 
 15.025255255971206   2.891914044161822   1.665233465789595 
 13.773496563941045   5.059868891664398   1.665259869112260 
 12.520018325620409   7.228667569579313   1.664971765559445 
 11.266962792882566   9.396162947138681   1.665240788339250 
 10.014634297790359  11.564737144819858   1.665234109156005 
 -6.260442795696926  13.734223851187474   1.665118360891320 
  1.251907014119400   0.724079496052915   1.665202690572300 
  0.003486521647888   2.896407541176822   1.665206525349180 
 -1.247940785582962   5.059868891664398   1.665150658494450 
 -2.497845075052188   7.228720730655142   1.665200896061970 
 -3.754978299775874   9.396143168988367   1.665272161612680 
 -5.007960417035246  11.565023460524694   1.665119727006375 
 -3.755619303105676  13.734141855664012   1.665119740386390 
  3.755925802626727   0.724337243263656   1.665233997811050 
  2.504150171585569   2.894417961734589   1.665296203951020 
  1.259535187109522   5.073313011400928   1.665146034603735 
  0.015439761421701   7.228246404886576   1.665167012365995 
 -1.249356169247020   9.395586525782875   1.665318964350285 
 -2.502703811720338  11.564691040352313   1.665222144811050 
 -1.250822789182040  13.733466367510847   1.665272223862725 
  6.260130515106662   0.724075777570426   1.665240904559250 
  5.007694733212422   2.894439606953420   1.665371890434075 
  3.756641032807603   5.059868891664398   1.665448541219160 
  2.537841624636704   7.247939738618415   1.665383655109455 
  1.252943360334184   9.396368791834211   1.665312099151095 
  0.002470813644145  11.563813502811644   1.665319033665285 
  1.254788052160175  13.728467818684058   1.665201102731955 
  8.763763915835550   0.722644189232770   1.664971772234535 
  7.508640149925249   2.896486573397612   1.665206065071870 
  6.252404464834740   5.073338258718458   1.665319935397800 
  4.974274725191777   7.247855089142599   1.665463484154855 
  3.755985215140511   9.357827022175497   1.665383678779485 
  2.511839845962326  11.552140425259307   1.665166970125965 
  3.757989292442630  13.730447177847442   1.665150625299465 
 11.268708784214871   0.721499416699575   1.665259847092320 
 10.015648682701343   2.891863177458496   1.665308872112955 
  8.763949999999962   5.059868891664398   1.665106809770460 
  7.496526548089141   7.228222492708656   1.665319629412800 
  6.260280665496204   9.396351384377216   1.665448580744130 
  5.000113451408829  11.552187377968524   1.665145927638735 
  6.257345736789083  13.728409521628507   1.665206530989255 
 13.772121862432840   0.721422845951358   1.665233611094580 
 12.519893296154557   2.891390763617677   1.665372147994185 
 11.267377830785950   5.059868891664398   1.665308783013015 
 10.009856899754537   7.228716902444301   1.665205757406840 
  8.761154375030639   9.395621884920223   1.665372120729105 
  7.509399908067750  11.563765711257355   1.665296373390945 
  7.510302966473869  14.454710081036577   1.665250691613420 
 15.024386400043824   1.445421926919510   1.665510138536415 
 13.772585342578406   3.614670929221523   1.665472212516045 
 12.519933121532116   5.783127429353552   1.665117561753090 
 11.265398566678432   7.950513980969160   1.665100254758385 
 10.013342139950350  10.119737783328796   1.665476412991095 
  8.761835354711835  12.287494229281835   1.665404761898235 
 -7.512901533515135  14.457330946100930   1.665207646540875 
  0.000970336932575   1.448164591479402   1.665250684518405 
 -1.250034613702198   3.616052545147338   1.665136226780055 
 -2.501503424040300   5.783257327698869   1.665324762797205 
 -3.753257175975687   7.950600163191491   1.665187197833970 
 -5.008408777830236  10.119737783328796   1.665293410198965 
 -6.260576310142416  12.288056971940502   1.665152236982835 
 -5.008092439137098  14.457423078995859   1.665152214092880 
  2.503600331444491   1.447913557629151   1.665404700038280 
  1.256013090222576   3.623068092425648   1.665317205582525 
  0.004003558916844   5.784947415680711   1.665097570412505 
 -1.242443150079755   7.950296793108041   1.665414823673445 
 -2.503169753112004  10.119737783328796   1.665551010959925 
 -3.755352863900363  12.287908918514402   1.665130605124665 
 -2.504219496509988  14.457173184589061   1.665293446408935 
  5.006655821403219   1.447955524647895   1.665476347336095 
  3.754041242742845   3.617547617189218   1.665622341741780 
  2.514817293519543   5.796555317107557   1.665286587649875 
  1.269353526086634   7.953873738017573   1.665374617607070 
  0.000000000000152  10.119737783328796   1.665494326903005 
 -1.251599151654390  12.287571104704643   1.665551063954970 
  0.001915417075722  14.454746652624408   1.665187277498985 
  7.511316753778142   1.448256009513039   1.665100385153385 
  6.255906189599669   3.623095859468964   1.665476197574265 
  4.997042312279102   5.796564211326206   1.665542861900595 
  2.510385047154442  10.103405599700817   1.665374625317175 
  1.257584723318598  12.280471218194990   1.665414909728445 
  2.504766243951218  14.454369092804065   1.665324794402220 
 10.015595784060791   1.445488435664509   1.665117578043105 
  8.762338355337096   3.616063997096211   1.665202506391905 
  7.508071276819482   5.784968360302527   1.665218538719955 
  6.242512183928848   7.953784290596513   1.665542783030565 
  5.001408292624279  10.103459519705975   1.665286583344845 
  3.756055404896583  12.283692642266971   1.665097505192460 
  5.007354765584104  14.454168235239065   1.665136260169980 
 12.519860850331279   1.444887877046923   1.665472248561030 
 11.267163114700960   3.614655382027193   1.665685307580210 
 10.013532452527905   5.783193710920512   1.665202380286920 
  8.754226004082726   7.950310605721507   1.665476078114310 
  7.508111560257908  10.119737783328796   1.665622471161780 
  6.254301789067471  12.280359443719409   1.665317242692465 
