 B N 
 1.0
 14.936314146199660   0.000000000000000   0.000000000000000
 -7.468157073099825  12.935227489513863   0.000000000000000
  0.000000000000001   0.000000000000001  13.341276283792837
 B N 
 144 143
Cartesian
  1.249453564925726   0.724479392584407   5.002978606422314 
  4.978771382066597   7.085359982252729   5.002978606422314 
  6.222301604213794   0.720572905413138   5.002978606422314 
  9.955273433840196   7.186269777549452   5.002978606422314 
 11.201344627140191   0.718109340425778   5.002978606422314 
 -3.734035490706595   9.342133594955870  11.673616748318732 
  1.244601871428947   9.342212847184786  11.673616748318732 
  2.489360918725509   2.874428278967831  11.673616748318732 
  6.223509621520079   9.342163555225479  11.673616748318732 
  7.468181845407667   2.874428278967831  11.673616748318732 
 12.446928455166312   2.874436700480504  11.673616748318732 
 -1.244245320784864   9.341850363902322   5.002978606422314 
  0.006679515312725   2.878351417633619   5.002978606422314 
  4.978771382066535   2.872244392707785   5.002978606422314 
  3.744813852016984   9.313582888625486   5.002978606422314 
  8.711743211692937   9.340127303055931   5.002978606422314 
  9.950863248820360   2.878351417633619   5.002978606422314 
 -4.978773984657215  11.497981493285414  11.673616748318732 
  0.000002602590737  11.497981493285414  11.673616748318732 
  1.244622679272019   5.030378151825123  11.673616748318732 
  6.223354286186063   5.030429720617288  11.673616748318732 
  4.978771382066590  11.498136984162942  11.673616748318732 
 11.202346192245979   5.030316307799427  11.673616748318732 
 -1.237241350073968   5.031561328287078   5.002978606422314 
 -2.489385691033231  11.498496747727632   5.002978606422314 
  2.492076467066903  11.490929265146933   5.002978606422314 
  3.821441024544645   5.080805001882845   5.002978606422314 
  7.465466297066293  11.490929265146933   5.002978606422314 
  8.682778146826536   5.035332116910523   5.002978606422314 
 -0.000135644409010   7.186264227666336  11.673616748318732 
  1.244594306535667   0.718552951141200  11.673616748318732 
  4.978771382066590   7.186110544783855  11.673616748318732 
  6.223508897904498   0.718492911167390  11.673616748318732 
  9.957678408542098   7.186264227666336  11.673616748318732 
 -2.489385691033233   7.185652327553970   5.002978606422314 
 11.202286096496564   0.718652898012123  11.673616748318732 
  3.735241159919274   0.720572905413138   5.002978606422314 
  2.487436609962307   7.187362796655369   5.002978606422314 
  7.470106154170765   7.187362796655369   5.002978606422314 
  8.708089199207446   0.724479392584407   5.002978606422314 
  2.489339367252860   7.186264239221464  11.673616748318732 
 13.692512283192444   0.718109340425778   5.002978606422314 
 -1.244735891359884   9.342133594955870  11.673616748318732 
 -0.000135960345312   2.874416500927746  11.673616748318732 
  4.978771382066483   2.874441507575684  11.673616748318732 
  3.734033142613101   9.342163555225479  11.673616748318732 
  8.712940892704129   9.342212847184786  11.673616748318732 
  9.957678724478484   2.874416500927746  11.673616748318732 
 -3.734526061281601   9.341850363902322   5.002978606422314 
  1.245799552440139   9.340127303055931   5.002978606422314 
  2.508722147356251   2.898054980482407   5.002978606422314 
  6.212728912116193   9.313582888625486   5.002978606422314 
  7.448820616776922   2.898054980482407   5.002978606422314 
 12.446928455166319   2.875523815653179   5.002978606422314 
 -1.244803428112908   5.030316307799427  11.673616748318732 
 -2.489385691033239  11.497930285620560  11.673616748318732 
  2.489373647417970  11.498100727077883  11.673616748318732 
  3.734188477947114   5.030429720617288  11.673616748318732 
  7.468169116715123  11.498100727077883  11.673616748318732 
 -4.979278151225201  11.498272573989155   5.002978606422314 
  8.712920084861155   5.030378151825123  11.673616748318732 
  0.000506769158738  11.498272573989155   5.002978606422314 
  1.274764617306655   5.035332116910523   5.002978606422314 
  0.002269330292878   7.186269777549452   5.002978606422314 
  6.136101739588547   5.080805001882845   5.002978606422314 
  4.978771382066598  11.490267150751178   5.002978606422314 
 11.194784114207142   5.031561328287078   5.002978606422314 
 -2.489385691033241   7.186234488961469  11.673616748318732 
  3.734033866228571   0.718492911167390  11.673616748318732 
  7.468203396880109   7.186264239221464  11.673616748318732 
  8.712948457597403   0.718552951141200  11.673616748318732 
 13.691570813836059   0.718652898012123  11.673616748318732 
 -0.000019297639468   1.437168814748286   1.667587541510382 
  3.734738565618575   7.904296273175097   1.668194493050398 
  4.978771382066542   1.437639088311578   1.667942972378374 
  8.712510792181785   7.904665448853464   1.667942972378374 
  9.957562061772549   1.437168814748286   1.667587541510382 
 -4.978711865991859  10.060750000310048   8.338330245705809 
 -0.000059516074710  10.060750000310048   8.338330245705809 
  1.244777984546762   3.593167902129168   8.338244982746597 
  4.978771382066538  10.060634181760186   8.338244982746597 
  6.223304963384247   3.593972834236267   8.337762719794243 
 11.202313400887327   3.593141376884488   8.338369671334339 
 -2.489385691033300  10.060732491844131   1.667664178686105 
 -1.244770636754243   3.593141376884487   1.667587541510382 
  3.734237800748824   3.593972834236266   1.668194493050398 
  2.489409879361685  10.060698080069976   1.667727508306473 
  7.468132884771285  10.060698080069976   1.667727508306473 
  8.712764779586308   3.593167902129167   1.667712230098031 
 -6.223382468792371  12.216556536636542   8.338364296286763 
 -1.244707440777725  12.216543443430847   8.338330245705809 
  0.000041895634800   5.748986253519694   8.338229704538156 
  4.978771382066590   5.748989995339477   8.327663456580334 
  3.734020042951770  12.216659794385734   8.338369671334339 
  9.957500868498167   5.748986253519694   8.338229704538156 
 -2.489385691033287   5.749084402259287   1.667592916557866 
 -3.734063941288843  12.216543443430847   1.667626967138818 
  1.244611086725803  12.216556536636542   1.667592916557866 
  2.490204984300864   5.748700878607155   1.668194493050398 
  6.223522721181322  12.216659794385734   1.667587541510382 
  7.467337779832208   5.748700878607155   1.668194493050398 
 -1.244737766330269   7.904904031791477   8.338330245705809 
 -0.000019297639468   1.437168814748287   8.338369671334339 
  3.734738565618576   7.904296273175098   8.337762719794243 
  4.978771382066543   1.437639088311579   8.338014240466254 
  8.712510792181785   7.904665448853465   8.338014240466254 
 -3.734033615736303   7.904904031791476   1.667626967138818 
  9.957562061772549   1.437168814748287   8.338369671334339 
  2.489403398339591   1.437285652428955   1.667727508306473 
  1.245031971951303   7.904665448853464   1.667942972378374 
  6.222804198514498   7.904296273175097   1.668194493050398 
  7.468139365793358   1.437285652428955   1.667727508306473 
  1.245031971951304   7.904665448853465   8.338014240466254 
 12.446928455166319   1.437247498834911   1.667592168737105 
 -2.489385691033300  10.060732491844131   8.338293034158511 
 -1.244770636754242   3.593141376884488   8.338369671334339 
  3.734237800748825   3.593972834236267   8.337762719794243 
  2.489409879361685  10.060698080069976   8.338229704538156 
  7.468132884771286  10.060698080069976   8.338229704538156 
  8.712764779586308   3.593167902129168   8.338244982746597 
 -4.978711865991860  10.060750000310048   1.667626967138818 
 -0.000059516074710  10.060750000310048   1.667626967138818 
  1.244777984546762   3.593167902129167   1.667712230098031 
  4.978771382066538  10.060634181760186   1.667712230098031 
  6.223304963384246   3.593972834236266   1.668194493050398 
 11.202313400887327   3.593141376884487   1.667587541510382 
 -2.489385691033286   5.749084402259288   8.338364296286763 
 -3.734063941288842  12.216543443430847   8.338330245705809 
  1.244611086725804  12.216556536636542   8.338364296286763 
  2.490204984300864   5.748700878607156   8.337762719794243 
  6.223522721181323  12.216659794385734   8.338369671334339 
 -6.223382468792372  12.216556536636542   1.667592916557866 
  7.467337779832209   5.748700878607156   8.337762719794243 
 -1.244707440777725  12.216543443430847   1.667626967138818 
  0.000041895634800   5.748986253519693   1.667727508306473 
 -1.244737766330270   7.904904031791476   1.667626967138818 
  4.978771382066589   5.748989995339476   1.678293756264293 
  3.734020042951769  12.216659794385734   1.667587541510382 
  9.957500868498167   5.748986253519693   1.667727508306473 
 -3.734033615736302   7.904904031791477   8.338330245705809 
  2.489403398339591   1.437285652428956   8.338229704538156 
  6.222804198514499   7.904296273175098   8.337762719794243 
  7.468139365793359   1.437285652428956   8.338229704538156 
 12.446928455166319   1.437247498834912   8.338365044107523 
  1.244699931422315   0.718561423459850   1.668023934243859 
  4.978771382066596   7.187135244911929   1.664934123097332 
  6.223508844884457   0.718465144247831   1.667929642816371 
  9.957702428889792   7.186278157042827   1.667929642816371 
 11.202205949258150   0.718606624982380   1.668130810971534 
 -3.734067777127891   9.342114954381833   8.338009108339971 
  1.244577798061205   9.342226684727862   8.338027570028258 
  2.489157541390020   2.874241571470385   8.337352486933082 
  6.223569626288200   9.342433038913288   8.337352486933082 
  7.468385222743171   2.874241571470385   8.337352486933082 
 12.446928455166356   2.874529246539885   8.337826401873093 
 -1.244703604938575   9.342114954381833   1.667948104504657 
 -0.000061004367134   2.874459776781923   1.668121617586833 
  4.978771382066542   2.874094732492719   1.668868068000140 
  3.733973137844995   9.342433038913288   1.668604725911546 
  8.712964966071869   9.342226684727862   1.667929642816371 
  9.957603768500308   2.874459776781923   1.668121617586833 
 -4.978768507048493  11.497978330786543   8.338038294908038 
 -0.000002875017984  11.497978330786543   8.338038294908038 
  1.244359297168419   5.030295375634745   8.337352486933082 
  6.224241702528249   5.029917370553244   8.341023089747296 
  4.978771382066591  11.498050432454583   8.337835595257888 
 11.202286042559578   5.030403545475031   8.337933278600769 
 -1.244743278426299   5.030403545475030   1.668023934243859 
 -2.489385691033232  11.497967566768613   1.667948104504657 
  2.489328172218027  11.498005017083459   1.668023934243859 
  3.733301061604943   5.029917370553243   1.664934123097332 
  7.468214591915258  11.498005017083459   1.668023934243859 
  8.713183466964773   5.030295375634744   1.668604725911546 
 -0.000159664756824   7.186278157042828   8.338027570028258 
  1.244699931422316   0.718561423459851   8.337933278600769 
  4.978771382066597   7.187135244911930   8.341023089747296 
  6.223508844884458   0.718465144247832   8.338027570028258 
  9.957702428889792   7.186278157042828   8.338027570028258 
 -2.489385691033242   7.186240813959208   1.667918917936589 
 11.202205949258150   0.718606624982380   8.337826401873093 
  3.734033919248505   0.718465144247831   1.667929642816371 
  2.489039051221704   7.186437626762894   1.668868068000140 
  7.468503712911384   7.186437626762894   1.668868068000140 
  8.712842832710962   0.718561423459850   1.668023934243859 
  2.489039051221705   7.186437626762895   8.337089144844487 
 13.691650961074576   0.718606624982380   1.668130810971534 
 -1.244703604938575   9.342114954381833   8.338009108339971 
 -0.000061004367134   2.874459776781924   8.337835595257888 
  4.978771382066543   2.874094732492720   8.337089144844487 
  3.733973137844995   9.342433038913288   8.337352486933082 
  8.712964966071869   9.342226684727862   8.338027570028258 
  9.957603768500308   2.874459776781924   8.337835595257888 
 -3.734067777127891   9.342114954381833   1.667948104504657 
  1.244577798061204   9.342226684727862   1.667929642816371 
  2.489157541390020   2.874241571470384   1.668604725911546 
  6.223569626288199   9.342433038913288   1.668604725911546 
  7.468385222743170   2.874241571470384   1.668604725911546 
 12.446928455166356   2.874529246539884   1.668130810971534 
 -1.244743278426298   5.030403545475031   8.337933278600769 
 -2.489385691033231  11.497967566768613   8.338009108339971 
  2.489328172218027  11.498005017083459   8.337933278600769 
  3.733301061604944   5.029917370553244   8.341023089747296 
  7.468214591915259  11.498005017083459   8.337933278600769 
 -4.978768507048494  11.497978330786543   1.667918917936589 
  8.713183466964773   5.030295375634745   8.337352486933082 
 -0.000002875017984  11.497978330786543   1.667918917936589 
  1.244359297168418   5.030295375634744   1.668604725911546 
 -0.000159664756825   7.186278157042827   1.667929642816371 
  6.224241702528248   5.029917370553243   1.664934123097332 
  4.978771382066590  11.498050432454583   1.668121617586833 
 11.202286042559578   5.030403545475030   1.668023934243859 
 -2.489385691033241   7.186240813959209   8.338038294908038 
  3.734033919248505   0.718465144247832   8.338027570028258 
  7.468503712911385   7.186437626762895   8.337089144844487 
  8.712842832710962   0.718561423459851   8.337933278600769 
 13.691650961074576   0.718606624982380   8.337826401873093 
  0.002730950242368   1.439716800163807   5.002978606422314 
  3.750471785656524   7.855713836723027   5.002978606422314 
  4.978771382066437   1.436080048738895   5.002978606422314 
  8.713860960057183   7.905444968639897   5.002978606422314 
  9.954811813890805   1.439716800163807   5.002978606422314 
 -4.978846453435215  10.060697644415654  11.673616748318732 
  0.000075071368633  10.060697644415654  11.673616748318732 
  1.244858941438555   3.593214642612368  11.673616748318732 
  4.978771382066599  10.060540700793682  11.673616748318732 
  6.223375177548502   3.593208929683426  11.673616748318732 
 11.202156417953656   3.593183291107094  11.673616748318732 
 -2.489385691033300  10.060732491844131   5.002978606422314 
 -1.241188892714966   3.594249168709024   5.002978606422314 
  3.768444814875086   3.631889420698496   5.002978606422314 
  2.497523933909882  10.046557504888888   5.002978606422314 
  7.460018830223193  10.046557504888888   5.002978606422314 
  8.701072686481185   3.599918335230740   5.002978606422314 
 -6.223449419073828  12.216595190399564  11.673616748318732 
 -1.244685488590644  12.216686177523023  11.673616748318732 
  0.000141290787722   5.749002086540980  11.673616748318732 
  4.978771382066590   5.748989995339477  11.673616748318732 
  3.734062235637041  12.216502886065928  11.673616748318732 
  9.957401473345350   5.749002086540980  11.673616748318732 
 -2.489385691033294   5.747917118321106   5.002978606422314 
 -3.734815938407607  12.217784210359293   5.002978606422314 
  1.245621984269748  12.217140178605549   5.002978606422314 
  2.540145218465074   5.759366728596998   5.002978606422314 
  6.222691225023926  12.213004017145598   5.002978606422314 
  7.417397545667998   5.759366728596998   5.002978606422314 
 -1.244625131074000   7.904813653593710  11.673616748318732 
  0.000095492608909   1.437283808845502  11.673616748318732 
  3.734112111951824   7.904739032701561  11.673616748318732 
  4.978771382066543   1.437391308294805  11.673616748318732 
  8.712725375970862   7.904789338861852  11.673616748318732 
 -3.734732152857084   7.903632399718753   5.002978606422314 
  9.957447271524160   1.437283808845502  11.673616748318732 
  2.497592468396498   1.451382917385827   5.002978606422314 
  1.243681804075697   7.905444968639897   5.002978606422314 
  6.207070978476550   7.855713836723027   5.002978606422314 
  7.459950295736571   1.451382917385827   5.002978606422314 
  1.244817388162228   7.904789338861852  11.673616748318732 
 12.446928455166319   1.437247498834912   5.002978606422314 
 -2.489385691033299  10.060732491844133  11.673616748318732 
 -1.244613653820588   3.593183291107094  11.673616748318732 
  3.734167586584466   3.593208929683426  11.673616748318732 
  2.489445865139494  10.060604084831891  11.673616748318732 
  7.468096898993583  10.060604084831891  11.673616748318732 
  8.712683822694634   3.593214642612368  11.673616748318732 
 -4.980162400231452  10.060780865454246   5.002978606422314 
  0.001391018164972  10.060780865454246   5.002978606422314 
  1.256470077651885   3.599918335230740   5.002978606422314 
  4.978771382066485  10.047133315556950   5.002978606422314 
  6.189097949257983   3.631889420698496   5.002978606422314 
 11.198731656848139   3.594249168709024   5.002978606422314 
 -2.489385691033181   5.749007094733065  11.673616748318732 
 -3.734085893475922  12.216686177523023  11.673616748318732 
  1.244678037007469  12.216595190399564  11.673616748318732 
  2.489508316469865   5.749022023633524  11.673616748318732 
  6.223480528496036  12.216502886065928  11.673616748318732 
 -6.224393366336226  12.217140178605549   5.002978606422314 
  7.468034447663223   5.749022023633524  11.673616748318732 
 -1.243955443658871  12.217784210359293   5.002978606422314 
  0.016345020239843   5.749029563743806   5.002978606422314 
 -1.244039229209397   7.903632399718753   5.002978606422314 
  3.734851539109258  12.213004017145598   5.002978606422314 
  9.941197743893227   5.749029563743806   5.002978606422314 
 -3.734146250992571   7.904813653593710  11.673616748318732 
  2.489466807714765   1.437363814645653  11.673616748318732 
  6.223430652181146   7.904739032701561  11.673616748318732 
  7.468075956418306   1.437363814645653  11.673616748318732 
 12.446928455166319   1.437247498834912  11.673616748318732 
Generated by cif2cell 2.0.0.  :  Failed to get author information, No journal information. Species order: B N 
 1.0
 14.936314146199660   0.000000000000000   0.000000000000000
 -7.468157073099825  12.935227489513863   0.000000000000000
  0.000000000000001   0.000000000000001  13.341276283792837
 B N 
 144 143
Cartesian
  1.249453564925726   0.724479392584407   5.002978606422314 
  4.978771382066597   7.085359982252729   5.002978606422314 
  6.222301604213794   0.720572905413138   5.002978606422314 
  9.955273433840196   7.186269777549452   5.002978606422314 
 11.201344627140191   0.718109340425778   5.002978606422314 
 -3.734035490706595   9.342133594955870  11.673616748318732 
  1.244601871428947   9.342212847184786  11.673616748318732 
  2.489360918725509   2.874428278967831  11.673616748318732 
  6.223509621520079   9.342163555225479  11.673616748318732 
  7.468181845407667   2.874428278967831  11.673616748318732 
 12.446928455166312   2.874436700480504  11.673616748318732 
 -1.244245320784864   9.341850363902322   5.002978606422314 
  0.006679515312725   2.878351417633619   5.002978606422314 
  4.978771382066535   2.872244392707785   5.002978606422314 
  3.744813852016984   9.313582888625486   5.002978606422314 
  8.711743211692937   9.340127303055931   5.002978606422314 
  9.950863248820360   2.878351417633619   5.002978606422314 
 -4.978773984657215  11.497981493285414  11.673616748318732 
  0.000002602590737  11.497981493285414  11.673616748318732 
  1.244622679272019   5.030378151825123  11.673616748318732 
  6.223354286186063   5.030429720617288  11.673616748318732 
  4.978771382066590  11.498136984162942  11.673616748318732 
 11.202346192245979   5.030316307799427  11.673616748318732 
 -1.237241350073968   5.031561328287078   5.002978606422314 
 -2.489385691033231  11.498496747727632   5.002978606422314 
  2.492076467066903  11.490929265146933   5.002978606422314 
  3.821441024544645   5.080805001882845   5.002978606422314 
  7.465466297066293  11.490929265146933   5.002978606422314 
  8.682778146826536   5.035332116910523   5.002978606422314 
 -0.000135644409010   7.186264227666336  11.673616748318732 
  1.244594306535667   0.718552951141200  11.673616748318732 
  4.978771382066590   7.186110544783855  11.673616748318732 
  6.223508897904498   0.718492911167390  11.673616748318732 
  9.957678408542098   7.186264227666336  11.673616748318732 
 -2.489385691033233   7.185652327553970   5.002978606422314 
 11.202286096496564   0.718652898012123  11.673616748318732 
  3.735241159919274   0.720572905413138   5.002978606422314 
  2.487436609962307   7.187362796655369   5.002978606422314 
  7.470106154170765   7.187362796655369   5.002978606422314 
  8.708089199207446   0.724479392584407   5.002978606422314 
  2.489339367252860   7.186264239221464  11.673616748318732 
 13.692512283192444   0.718109340425778   5.002978606422314 
 -1.244735891359884   9.342133594955870  11.673616748318732 
 -0.000135960345312   2.874416500927746  11.673616748318732 
  4.978771382066483   2.874441507575684  11.673616748318732 
  3.734033142613101   9.342163555225479  11.673616748318732 
  8.712940892704129   9.342212847184786  11.673616748318732 
  9.957678724478484   2.874416500927746  11.673616748318732 
 -3.734526061281601   9.341850363902322   5.002978606422314 
  1.245799552440139   9.340127303055931   5.002978606422314 
  2.508722147356251   2.898054980482407   5.002978606422314 
  6.212728912116193   9.313582888625486   5.002978606422314 
  7.448820616776922   2.898054980482407   5.002978606422314 
 12.446928455166319   2.875523815653179   5.002978606422314 
 -1.244803428112908   5.030316307799427  11.673616748318732 
 -2.489385691033239  11.497930285620560  11.673616748318732 
  2.489373647417970  11.498100727077883  11.673616748318732 
  3.734188477947114   5.030429720617288  11.673616748318732 
  7.468169116715123  11.498100727077883  11.673616748318732 
 -4.979278151225201  11.498272573989155   5.002978606422314 
  8.712920084861155   5.030378151825123  11.673616748318732 
  0.000506769158738  11.498272573989155   5.002978606422314 
  1.274764617306655   5.035332116910523   5.002978606422314 
  0.002269330292878   7.186269777549452   5.002978606422314 
  6.136101739588547   5.080805001882845   5.002978606422314 
  4.978771382066598  11.490267150751178   5.002978606422314 
 11.194784114207142   5.031561328287078   5.002978606422314 
 -2.489385691033241   7.186234488961469  11.673616748318732 
  3.734033866228571   0.718492911167390  11.673616748318732 
  7.468203396880109   7.186264239221464  11.673616748318732 
  8.712948457597403   0.718552951141200  11.673616748318732 
 13.691570813836059   0.718652898012123  11.673616748318732 
 -0.000019297639468   1.437168814748286   1.667587541510382 
  3.734738565618575   7.904296273175097   1.668194493050398 
  4.978771382066542   1.437639088311578   1.667942972378374 
  8.712510792181785   7.904665448853464   1.667942972378374 
  9.957562061772549   1.437168814748286   1.667587541510382 
 -4.978711865991859  10.060750000310048   8.338330245705809 
 -0.000059516074710  10.060750000310048   8.338330245705809 
  1.244777984546762   3.593167902129168   8.338244982746597 
  4.978771382066538  10.060634181760186   8.338244982746597 
  6.223304963384247   3.593972834236267   8.337762719794243 
 11.202313400887327   3.593141376884488   8.338369671334339 
 -2.489385691033300  10.060732491844131   1.667664178686105 
 -1.244770636754243   3.593141376884487   1.667587541510382 
  3.734237800748824   3.593972834236266   1.668194493050398 
  2.489409879361685  10.060698080069976   1.667727508306473 
  7.468132884771285  10.060698080069976   1.667727508306473 
  8.712764779586308   3.593167902129167   1.667712230098031 
 -6.223382468792371  12.216556536636542   8.338364296286763 
 -1.244707440777725  12.216543443430847   8.338330245705809 
  0.000041895634800   5.748986253519694   8.338229704538156 
  4.978771382066590   5.748989995339477   8.327663456580334 
  3.734020042951770  12.216659794385734   8.338369671334339 
  9.957500868498167   5.748986253519694   8.338229704538156 
 -2.489385691033287   5.749084402259287   1.667592916557866 
 -3.734063941288843  12.216543443430847   1.667626967138818 
  1.244611086725803  12.216556536636542   1.667592916557866 
  2.490204984300864   5.748700878607155   1.668194493050398 
  6.223522721181322  12.216659794385734   1.667587541510382 
  7.467337779832208   5.748700878607155   1.668194493050398 
 -1.244737766330269   7.904904031791477   8.338330245705809 
 -0.000019297639468   1.437168814748287   8.338369671334339 
  3.734738565618576   7.904296273175098   8.337762719794243 
  4.978771382066543   1.437639088311579   8.338014240466254 
  8.712510792181785   7.904665448853465   8.338014240466254 
 -3.734033615736303   7.904904031791476   1.667626967138818 
  9.957562061772549   1.437168814748287   8.338369671334339 
  2.489403398339591   1.437285652428955   1.667727508306473 
  1.245031971951303   7.904665448853464   1.667942972378374 
  6.222804198514498   7.904296273175097   1.668194493050398 
  7.468139365793358   1.437285652428955   1.667727508306473 
  1.245031971951304   7.904665448853465   8.338014240466254 
 12.446928455166319   1.437247498834911   1.667592168737105 
 -2.489385691033300  10.060732491844131   8.338293034158511 
 -1.244770636754242   3.593141376884488   8.338369671334339 
  3.734237800748825   3.593972834236267   8.337762719794243 
  2.489409879361685  10.060698080069976   8.338229704538156 
  7.468132884771286  10.060698080069976   8.338229704538156 
  8.712764779586308   3.593167902129168   8.338244982746597 
 -4.978711865991860  10.060750000310048   1.667626967138818 
 -0.000059516074710  10.060750000310048   1.667626967138818 
  1.244777984546762   3.593167902129167   1.667712230098031 
  4.978771382066538  10.060634181760186   1.667712230098031 
  6.223304963384246   3.593972834236266   1.668194493050398 
 11.202313400887327   3.593141376884487   1.667587541510382 
 -2.489385691033286   5.749084402259288   8.338364296286763 
 -3.734063941288842  12.216543443430847   8.338330245705809 
  1.244611086725804  12.216556536636542   8.338364296286763 
  2.490204984300864   5.748700878607156   8.337762719794243 
  6.223522721181323  12.216659794385734   8.338369671334339 
 -6.223382468792372  12.216556536636542   1.667592916557866 
  7.467337779832209   5.748700878607156   8.337762719794243 
 -1.244707440777725  12.216543443430847   1.667626967138818 
  0.000041895634800   5.748986253519693   1.667727508306473 
 -1.244737766330270   7.904904031791476   1.667626967138818 
  4.978771382066589   5.748989995339476   1.678293756264293 
  3.734020042951769  12.216659794385734   1.667587541510382 
  9.957500868498167   5.748986253519693   1.667727508306473 
 -3.734033615736302   7.904904031791477   8.338330245705809 
  2.489403398339591   1.437285652428956   8.338229704538156 
  6.222804198514499   7.904296273175098   8.337762719794243 
  7.468139365793359   1.437285652428956   8.338229704538156 
 12.446928455166319   1.437247498834912   8.338365044107523 
  1.244699931422315   0.718561423459850   1.668023934243859 
  4.978771382066596   7.187135244911929   1.664934123097332 
  6.223508844884457   0.718465144247831   1.667929642816371 
  9.957702428889792   7.186278157042827   1.667929642816371 
 11.202205949258150   0.718606624982380   1.668130810971534 
 -3.734067777127891   9.342114954381833   8.338009108339971 
  1.244577798061205   9.342226684727862   8.338027570028258 
  2.489157541390020   2.874241571470385   8.337352486933082 
  6.223569626288200   9.342433038913288   8.337352486933082 
  7.468385222743171   2.874241571470385   8.337352486933082 
 12.446928455166356   2.874529246539885   8.337826401873093 
 -1.244703604938575   9.342114954381833   1.667948104504657 
 -0.000061004367134   2.874459776781923   1.668121617586833 
  4.978771382066542   2.874094732492719   1.668868068000140 
  3.733973137844995   9.342433038913288   1.668604725911546 
  8.712964966071869   9.342226684727862   1.667929642816371 
  9.957603768500308   2.874459776781923   1.668121617586833 
 -4.978768507048493  11.497978330786543   8.338038294908038 
 -0.000002875017984  11.497978330786543   8.338038294908038 
  1.244359297168419   5.030295375634745   8.337352486933082 
  6.224241702528249   5.029917370553244   8.341023089747296 
  4.978771382066591  11.498050432454583   8.337835595257888 
 11.202286042559578   5.030403545475031   8.337933278600769 
 -1.244743278426299   5.030403545475030   1.668023934243859 
 -2.489385691033232  11.497967566768613   1.667948104504657 
  2.489328172218027  11.498005017083459   1.668023934243859 
  3.733301061604943   5.029917370553243   1.664934123097332 
  7.468214591915258  11.498005017083459   1.668023934243859 
  8.713183466964773   5.030295375634744   1.668604725911546 
 -0.000159664756824   7.186278157042828   8.338027570028258 
  1.244699931422316   0.718561423459851   8.337933278600769 
  4.978771382066597   7.187135244911930   8.341023089747296 
  6.223508844884458   0.718465144247832   8.338027570028258 
  9.957702428889792   7.186278157042828   8.338027570028258 
 -2.489385691033242   7.186240813959208   1.667918917936589 
 11.202205949258150   0.718606624982380   8.337826401873093 
  3.734033919248505   0.718465144247831   1.667929642816371 
  2.489039051221704   7.186437626762894   1.668868068000140 
  7.468503712911384   7.186437626762894   1.668868068000140 
  8.712842832710962   0.718561423459850   1.668023934243859 
  2.489039051221705   7.186437626762895   8.337089144844487 
 13.691650961074576   0.718606624982380   1.668130810971534 
 -1.244703604938575   9.342114954381833   8.338009108339971 
 -0.000061004367134   2.874459776781924   8.337835595257888 
  4.978771382066543   2.874094732492720   8.337089144844487 
  3.733973137844995   9.342433038913288   8.337352486933082 
  8.712964966071869   9.342226684727862   8.338027570028258 
  9.957603768500308   2.874459776781924   8.337835595257888 
 -3.734067777127891   9.342114954381833   1.667948104504657 
  1.244577798061204   9.342226684727862   1.667929642816371 
  2.489157541390020   2.874241571470384   1.668604725911546 
  6.223569626288199   9.342433038913288   1.668604725911546 