B N O                                   
   1.0000000000000000     
     8.7639499999999995  -15.1796066749929999    0.0000000000000000
     8.7639499999999995   15.1796066749929999    0.0000000000000000
     0.0000000000000000    0.0000000000000000   15.0000000000000000
   B    N    O 
    48    47     2
Selective dynamics
Direct
  0.9058808892020613  0.9526487794928984  0.1110019084523661   T   T   T
  0.9047482625702649  0.0939027031927952  0.1110190231002520   T   T   T
  0.9044728756921585  0.2360533633883604  0.1110182653820695   T   T   T
  0.9043923922943605  0.3789478374638033  0.1109708633897719   T   T   T
  0.9047057082610086  0.5225727278774450  0.1110522860178088   T   T   T
  0.9055805871981587  0.6664422259447008  0.1111132995749589   T   T   T
  0.9058780028439153  0.8097525188017596  0.1110485120136896   T   T   T
  0.0489968825390720  0.9541634271803963  0.1109413319113275   T   T   T
  0.0502583092778285  0.0977793459842001  0.1109661325418951   T   T   T
  0.0486122225085951  0.2383920157728406  0.1110092085959814   T   T   T
  0.0468868330922552  0.3799819464620882  0.1109776392691146   T   T   T
  0.0455694822384238  0.5231722091684057  0.1109512861243898   T   T   T
  0.0463484463765116  0.6669756165090260  0.1110291836450754   T   T   T
  0.0479326159013041  0.8106309113217545  0.1109851894303586   T   T   T
  0.1910583279578427  0.9542163559286342  0.1109669101812986   T   T   T
  0.1928521446018783  0.0985832125754674  0.1110304894501379   T   T   T
  0.1959972697599696  0.2443280348686273  0.1110944463293615   T   T   T
  0.1911362055042675  0.3825598885496354  0.1110846990779534   T   T   T
  0.1863864847821873  0.5240632427519498  0.1110053976709476   T   T   T
  0.1866767779166329  0.6673338768211562  0.1110155524405357   T   T   T
  0.1894712718392381  0.8106756509341331  0.1110105680498275   T   T   T
  0.3329003554365754  0.9530512161735543  0.1110431472784491   T   T   T
  0.3342964426414928  0.0968347850204669  0.1110915161430825   T   T   T
  0.3369112065315181  0.2427114813179454  0.1111333118770971   T   T   T
  0.3450259082132621  0.3936523340490229  0.1111384993266006   T   T   T
  0.3266141022101978  0.5271384181204524  0.1111758171165198   T   T   T
  0.3260760281307428  0.6682286970408822  0.1110871549148077   T   T   T
  0.3311566981242956  0.8102152486048723  0.1110440347948937   T   T   T
  0.4748761444434678  0.9494430255896997  0.1110309739700594   T   T   T
  0.4761107509762322  0.0932060186768064  0.1110749473481734   T   T   T
  0.4773512485147442  0.2363601173819551  0.1110672399849058   T   T   T
  0.4813821870613853  0.3805739264736647  0.1107179884653272   T   T   T
  0.4610914935235849  0.6539316033121713  0.1111803400553768   T   T   T
  0.4725673347727958  0.8041297490945087  0.1111117517815046   T   T   T
  0.6168400116303782  0.9481928122875258  0.1110983584431055   T   T   T
  0.6182721104279443  0.0918040213012348  0.1110206620145852   T   T   T
  0.6193312240939191  0.2348437915237524  0.1110090510844836   T   T   T
  0.6208955875113477  0.3773445916087593  0.1109390803596061   T   T   T
  0.6193364975439615  0.5161310273802455  0.1106531787448545   T   T   T
  0.6367138564742481  0.6703414577498272  0.1110292523584034   T   T   T
  0.6136290764441779  0.8038781121313379  0.1111996873741233   T   T   T
  0.7601046562613689  0.9491760177724644  0.1111019396039072   T   T   T
  0.7608956303753874  0.0920582216595283  0.1110719444682364   T   T   T
  0.7616251238770880  0.2350503927823666  0.1110045719051819   T   T   T
  0.7625615665163772  0.3782161760923352  0.1110327357452661   T   T   T
  0.7635841115799370  0.5214414317424753  0.1110760826905292   T   T   T
  0.7645998649780564  0.6648516154173918  0.1110283606561535   T   T   T
  0.7635522614487448  0.8088020634114136  0.1110839507008876   T   T   T
  0.9529067450901205  0.9048886452910486  0.1109656776112601   T   T   T
  0.9537459154995985  0.0478405987127973  0.1109589080320898   T   T   T
  0.9527402074566382  0.1891367481828334  0.1109920571890334   T   T   T
  0.9518134075530250  0.3313681744380277  0.1109600114280556   T   T   T
  0.9510582039323096  0.4744954259897216  0.1109492346705978   T   T   T
  0.9514912356424946  0.6182318805122654  0.1110636014430212   T   T   T
  0.9523014108237192  0.7617974390959862  0.1110467769256427   T   T   T
  0.0956424116606400  0.9060306541266342  0.1109190465839157   T   T   T
  0.0972020491978050  0.0498236005858092  0.1109344375027706   T   T   T
  0.0991626947465590  0.1938572815716889  0.1109925594918498   T   T   T
  0.0957624052949122  0.3334013799231679  0.1110021767988824   T   T   T
  0.0923663434306166  0.4752372866799487  0.1109248637031556   T   T   T
  0.0923478860459049  0.6186728694711063  0.1109773408923641   T   T   T
  0.0942969373597144  0.7624326116910488  0.1109864404730709   T   T   T
  0.2377466003499918  0.9059134575231000  0.1109821948844088   T   T   T
  0.2391927347980341  0.0497936459018410  0.1110073286790137   T   T   T
  0.2417699090752936  0.1949865686210630  0.1111021977728634   T   T   T
  0.2462064852317187  0.3421084126092692  0.1111440358782584   T   T   T
  0.2337425781572828  0.4766175484790842  0.1110782898727763   T   T   T
  0.2325348152986192  0.6191849423304631  0.1109981002321558   T   T   T
  0.2360651532800315  0.7625449995208665  0.1110207256463052   T   T   T
  0.3799063516938285  0.9047091309846522  0.1110216805070757   T   T   T
  0.3810723511407823  0.0480981026056650  0.1110707781107651   T   T   T
  0.3825666075158536  0.1925659194823813  0.1111053492701343   T   T   T
  0.3871091861887089  0.3401439120930677  0.1110373872203817   T   T   T
  0.3860539645092066  0.4942184263832219  0.1111785066699895   T   T   T
  0.3705004947698974  0.6200200495574543  0.1111846799536341   T   T   T
  0.3779430580509865  0.7620002375134062  0.1110337567813754   T   T   T
  0.5217153909673600  0.8998108458799956  0.1110436897982480   T   T   T
  0.5231490923954947  0.0446457192690522  0.1110143271590190   T   T   T
  0.5242852029899768  0.1882964568603961  0.1110515839475404   T   T   T
  0.5262485290070363  0.3313105656934006  0.1109121677324214   T   T   T
  0.5186621171778826  0.7515095245612546  0.1112115485945621   T   T   T
  0.6635806779905081  0.8988965600212557  0.1111317000078723   T   T   T
  0.6653703274963448  0.0434263035711390  0.1110455350511709   T   T   T
  0.6664276144709810  0.1870396017091388  0.1109866004216235   T   T   T
  0.6676784060932597  0.3301412720381430  0.1109862174735719   T   T   T
  0.6689417298298413  0.4728970335939379  0.1109350849188903   T   T   T
  0.6659228281935999  0.6127568188266307  0.1108488892745010   T   T   T
  0.6640810226098739  0.7575087869681336  0.1111408440094766   T   T   T
  0.8090336208409102  0.9026395264777513  0.1110463474138066   T   T   T
  0.8084980519128153  0.0442807294897135  0.1110611345521113   T   T   T
  0.8089982202849793  0.1873410099285993  0.1110247680079362   T   T   T
  0.8094071026343099  0.3305097744809845  0.1109863915798621   T   T   T
  0.8099116879012485  0.4739333766974899  0.1110722612297896   T   T   T
  0.8100294904457955  0.6172041745892966  0.1110868802855319   T   T   T
  0.8091040312686157  0.7598632246509985  0.1110507681563218   T   T   T
  0.4771986441468991  0.5810784708495806  0.1109388545869344   T   T   T
  0.5306379625648797  0.4710416054437241  0.1101926433966909   T   T   T

  0.00000000E+00  0.00000000E+00  0.00000000E+00
  0.00000000E+00  0.00000000E+00  0.00000000E+00
  0.00000000E+00  0.00000000E+00  0.00000000E+00
  0.00000000E+00  0.00000000E+00  0.00000000E+00
  0.00000000E+00  0.00000000E+00  0.00000000E+00
  0.00000000E+00  0.00000000E+00  0.00000000E+00
  0.00000000E+00  0.00000000E+00  0.00000000E+00
  0.00000000E+00  0.00000000E+00  0.00000000E+00
  0.00000000E+00  0.00000000E+00  0.00000000E+00
  0.00000000E+00  0.00000000E+00  0.00000000E+00
  0.00000000E+00  0.00000000E+00  0.00000000E+00
  0.00000000E+00  0.00000000E+00  0.00000000E+00
  0.00000000E+00  0.00000000E+00  0.00000000E+00
  0.00000000E+00  0.00000000E+00  0.00000000E+00
  0.00000000E+00  0.00000000E+00  0.00000000E+00
  0.00000000E+00  0.00000000E+00  0.00000000E+00
  0.00000000E+00  0.00000000E+00  0.00000000E+00
  0.00000000E+00  0.00000000E+00  0.00000000E+00
  0.00000000E+00  0.00000000E+00  0.00000000E+00
  0.00000000E+00  0.00000000E+00  0.00000000E+00
  0.00000000E+00  0.00000000E+00  0.00000000E+00
  0.00000000E+00  0.00000000E+00  0.00000000E+00
  0.00000000E+00  0.00000000E+00  0.00000000E+00
  0.00000000E+00  0.00000000E+00  0.00000000E+00
  0.00000000E+00  0.00000000E+00  0.00000000E+00
  0.00000000E+00  0.00000000E+00  0.00000000E+00
  0.00000000E+00  0.00000000E+00  0.00000000E+00
  0.00000000E+00  0.00000000E+00  0.00000000E+00
  0.00000000E+00  0.00000000E+00  0.00000000E+00
  0.00000000E+00  0.00000000E+00  0.00000000E+00
  0.00000000E+00  0.00000000E+00  0.00000000E+00
  0.00000000E+00  0.00000000E+00  0.00000000E+00
  0.00000000E+00  0.00000000E+00  0.00000000E+00
  0.00000000E+00  0.00000000E+00  0.00000000E+00
  0.00000000E+00  0.00000000E+00  0.00000000E+00
  0.00000000E+00  0.00000000E+00  0.00000000E+00
  0.00000000E+00  0.00000000E+00  0.00000000E+00
  0.00000000E+00  0.00000000E+00  0.00000000E+00
  0.00000000E+00  0.00000000E+00  0.00000000E+00
  0.00000000E+00  0.00000000E+00  0.00000000E+00
  0.00000000E+00  0.00000000E+00  0.00000000E+00
  0.00000000E+00  0.00000000E+00  0.00000000E+00
  0.00000000E+00  0.00000000E+00  0.00000000E+00
  0.00000000E+00  0.00000000E+00  0.00000000E+00
  0.00000000E+00  0.00000000E+00  0.00000000E+00
  0.00000000E+00  0.00000000E+00  0.00000000E+00
  0.00000000E+00  0.00000000E+00  0.00000000E+00
  0.00000000E+00  0.00000000E+00  0.00000000E+00
  0.00000000E+00  0.00000000E+00  0.00000000E+00
  0.00000000E+00  0.00000000E+00  0.00000000E+00
  0.00000000E+00  0.00000000E+00  0.00000000E+00
  0.00000000E+00  0.00000000E+00  0.00000000E+00
  0.00000000E+00  0.00000000E+00  0.00000000E+00
  0.00000000E+00  0.00000000E+00  0.00000000E+00
  0.00000000E+00  0.00000000E+00  0.00000000E+00
  0.00000000E+00  0.00000000E+00  0.00000000E+00
  0.00000000E+00  0.00000000E+00  0.00000000E+00
  0.00000000E+00  0.00000000E+00  0.00000000E+00
  0.00000000E+00  0.00000000E+00  0.00000000E+00
  0.00000000E+00  0.00000000E+00  0.00000000E+00
  0.00000000E+00  0.00000000E+00  0.00000000E+00
  0.00000000E+00  0.00000000E+00  0.00000000E+00
  0.00000000E+00  0.00000000E+00  0.00000000E+00
  0.00000000E+00  0.00000000E+00  0.00000000E+00
  0.00000000E+00  0.00000000E+00  0.00000000E+00
  0.00000000E+00  0.00000000E+00  0.00000000E+00
  0.00000000E+00  0.00000000E+00  0.00000000E+00
  0.00000000E+00  0.00000000E+00  0.00000000E+00
  0.00000000E+00  0.00000000E+00  0.00000000E+00
  0.00000000E+00  0.00000000E+00  0.00000000E+00
  0.00000000E+00  0.00000000E+00  0.00000000E+00
  0.00000000E+00  0.00000000E+00  0.00000000E+00
  0.00000000E+00  0.00000000E+00  0.00000000E+00
  0.00000000E+00  0.00000000E+00  0.00000000E+00
  0.00000000E+00  0.00000000E+00  0.00000000E+00
  0.00000000E+00  0.00000000E+00  0.00000000E+00
  0.00000000E+00  0.00000000E+00  0.00000000E+00
  0.00000000E+00  0.00000000E+00  0.00000000E+00
  0.00000000E+00  0.00000000E+00  0.00000000E+00
  0.00000000E+00  0.00000000E+00  0.00000000E+00
  0.00000000E+00  0.00000000E+00  0.00000000E+00
  0.00000000E+00  0.00000000E+00  0.00000000E+00
  0.00000000E+00  0.00000000E+00  0.00000000E+00
  0.00000000E+00  0.00000000E+00  0.00000000E+00
  0.00000000E+00  0.00000000E+00  0.00000000E+00
  0.00000000E+00  0.00000000E+00  0.00000000E+00
  0.00000000E+00  0.00000000E+00  0.00000000E+00
  0.00000000E+00  0.00000000E+00  0.00000000E+00
  0.00000000E+00  0.00000000E+00  0.00000000E+00
  0.00000000E+00  0.00000000E+00  0.00000000E+00
  0.00000000E+00  0.00000000E+00  0.00000000E+00
  0.00000000E+00  0.00000000E+00  0.00000000E+00
  0.00000000E+00  0.00000000E+00  0.00000000E+00
  0.00000000E+00  0.00000000E+00  0.00000000E+00
  0.00000000E+00  0.00000000E+00  0.00000000E+00
  0.00000000E+00  0.00000000E+00  0.00000000E+00
  0.00000000E+00  0.00000000E+00  0.00000000E+00
