 C N B 
 1.0
 17.527899999999772   0.000000000000000   0.000000000000000
 -8.763949999999658  15.179606674993195   0.000000000000000
  0.000000000000001   0.000000000000002  15.000000000000000
 C N B 
   3  46  48
Cartesian
  3.752518368636545   7.948382343147999   1.666106623910355 
  4.981088291428081   7.276063940288785   1.666729355565165 
  3.783801145859705   9.348550887907736   1.664663153889270 
  8.756684917062604  13.717349722029580   1.665004143358095 
 16.277378098940751   0.720454133708985   1.665158733185850 
 15.024666788683506   2.891300906548929   1.665270789509805 
 13.772518725521923   5.059868891664398   1.665098479614090 
 12.518550291910422   7.230996344139888   1.664702749554630 
 11.249933112797388   9.398997407975129   1.665224798626395 
 10.005349653621050  11.559366727382537   1.665249662763255 
 -6.264233347200551  13.729068463994729   1.664867223741570 
  1.247551305293804   0.714591520549308   1.665227787295725 
  0.002012053928161   2.893442583000446   1.664756129832345 
 -1.246660906863416   5.059868891664398   1.664820579084765 
 -2.501242537045921   7.229125456682344   1.665171115263285 
 -3.765271499864019   9.397376322386130   1.665238335880245 
 -5.014331924551362  11.564427826428764   1.664945228835120 
 -3.757360568919010  13.733177339291039   1.664837408815845 
  3.753979936602824   0.719611300140101   1.665408162179100 
  2.499830230738647   2.883664164390537   1.665254940179895 
  1.262358432399660   5.069415294161866   1.664850514996110 
  0.013626396474098   7.232411554802318   1.665196019415210 
 -1.260687607241652   9.397192236897379   1.665611358372660 
 -2.507692092698555  11.565475544304540   1.665170349861150 
 -1.252761746725283  13.735512106743268   1.665130700594445 
  6.260925549578569   0.721349246021239   1.665236767345605 
  5.009749041913565   2.886440671958407   1.665559684492725 
  3.755712981543991   5.042266348110468   1.665058739217735 
  2.540858803503788   7.249089704407648   1.665600421657875 
  1.236836919559032   9.405152303288148   1.665334524908610 
 -0.003290858917925  11.569475907463689   1.665537917612805 
  1.251987785024697  13.738509509460044   1.665179266520670 
  8.765182707577514   0.723570220246920   1.664632828754475 
  7.515814425024974   2.889182819373965   1.665109375996605 
  6.268880910128621   5.051161613712473   1.664955959630430 
  2.501060471655965  11.577410932126833   1.665124060919535 
  3.759796532150262  13.727316946852367   1.664942683041030 
 11.268677804507780   0.721553075126260   1.665202747611360 
 10.014767913043716   2.893388715255272   1.665237227291430 
  8.759025892103761   5.068397696722570   1.664796500087190 
  7.517398423872645   7.256677976821867   1.665048738602955 
  5.035218007320243  11.555845734999325   1.664992871627550 
  6.263887070039629  13.732717940382747   1.664927351425605 
 13.772457174414974   0.720597759917974   1.665318185807760 
 12.519031311889515   2.891131576263552   1.665526556510295 
 11.267161586729092   5.059868891664398   1.665252278188800 
 10.016667334145104   7.232524731992004   1.665154025022990 
  8.719962676442433   9.397306851749539   1.665613346697180 
  7.490213200993574  11.527516196029643   1.665274231206780 
  7.514167173540717  14.456315254659103   1.665236053976430 
 15.024525883539344   1.444919214570592   1.665618505322610 
 13.771361652414853   3.614111761399969   1.665634162356870 
 12.519364382513510   5.783800144679585   1.665115144112085 
 11.268577611674726   7.953341072131038   1.665162629523705 
  9.994846820638578  10.119737783328796   1.665780779903715 
  8.753552238786403  12.269598054720426   1.665211352684175 
 -7.517070814249671  14.448185310800472   1.665287528326050 
  0.000983258904114   1.446381859585968   1.665274914098820 
 -1.250041337798920   3.615768584528058   1.665025049114745 
 -2.501832485895640   5.783584870879099   1.665270712448595 
 -3.754865166140790   7.951827257749422   1.665216879460365 
 -5.017794185253485  10.119737783328796   1.665517697395035 
 -6.263582559126826  12.286343599306043   1.665123156017805 
 -5.009083501039653  14.455278595039749   1.665124797678915 
  2.500205225391431   1.440053022396046   1.665706860135630 
  1.256134482854447   3.619464547971307   1.665068056098180 
  0.008057622659747   5.787225507981141   1.665058929558405 
 -1.245381700570463   7.952189971408123   1.665721036584855 
 -2.510721498681260  10.119737783328796   1.665743010148335 
 -3.757651386315595  12.288169068103400   1.665068692688955 
 -2.504207263618653  14.457151996599746   1.665303999711855 
  5.008793529438390   1.444252905719229   1.665793920724110 
  3.754160166969630   3.604781720550117   1.665591761217270 
  2.527350034941732   5.782290076237877   1.665404478492510 
  1.263808023219596   7.971162389249207   1.665527973152400 
 -0.008971760878862  10.122817485963630   1.665954447334350 
 -1.252951937837776  12.289914199106043   1.665711565374600 
  0.000503641826386  14.458525537512289   1.665127102378140 
  7.513850942065548   1.445205155178982   1.665087652573365 
  6.264592401069741   3.611070608373850   1.665650965703085 
  5.011360050913222   5.772923287005272   1.665659838959985 
  2.497567346626576  10.127222975087502   1.665205748077170 
  1.251667700550133  12.293959484629578   1.665697217817165 
  2.506162418446717  14.453587816423493   1.665387643612290 
 10.016006314127631   1.445878496896752   1.665109648633350 
  8.762323576489052   3.617826498080466   1.665194979610875 
  7.501903984129346   5.786599811830177   1.665042048685665 
  6.283924289619427   7.971336345070417   1.666076021429070 
  5.037190943057858  10.130069756769675   1.665254299352610 
  3.754450080857835  12.277536230768417   1.665092311413465 
  5.006763353528607  14.454831527948880   1.665174523267785 
 12.518884594397194   1.444545611483721   1.665754561931850 
 11.266169253963390   3.614342665690342   1.665807344287380 
 10.013605294800646   5.782702023791350   1.665228760538040 
  8.772451716378903   7.948567288060362   1.665604409846655 
  7.456789659085775  10.088101277820915   1.666094766653520 
  6.261839614126341  12.297221904732563   1.665206141539875 
