B Ge N                                  
   1.0000000000000000     
     8.7639499999999995  -15.1796066749929999    0.0000000000000000
     8.7639499999999995   15.1796066749929999    0.0000000000000000
     0.0000000000000000    0.0000000000000000   15.0000000000000000
   B    Ge   N 
    48     1    49
Selective dynamics
Direct
  0.9057232790455246  0.9531438912951518  0.1110225026056829   T   T   T
  0.9047206001444420  0.0952811465475570  0.1110605274619867   T   T   T
  0.9043991788508410  0.2379172188948912  0.1110572117033448   T   T   T
  0.9047136148237932  0.3808674441959659  0.1110031595122511   T   T   T
  0.9057178606901178  0.5239967197305460  0.1110170244087902   T   T   T
  0.9054298807998753  0.6670180593687176  0.1110529518467239   T   T   T
  0.9054327250667706  0.8098470083251341  0.1110373885399211   T   T   T
  0.0477521134837488  0.9522496098812466  0.1110036092648180   T   T   T
  0.0468578240468499  0.0942784414264809  0.1110225021326817   T   T   T
  0.0463076573788669  0.2371517762526859  0.1109907456327399   T   T   T
  0.0462914959523103  0.3805788467600887  0.1109893732589985   T   T   T
  0.0468544550531782  0.5240062707648907  0.1110013040363661   T   T   T
  0.0477576759041903  0.6669438092113630  0.1110289797924732   T   T   T
  0.0478630014624488  0.8096562106795540  0.1109916023077803   T   T   T
  0.1903455390134474  0.9521387616305621  0.1109916007817832   T   T   T
  0.1901546927108625  0.0945689876412349  0.1110373844159239   T   T   T
  0.1874531631000810  0.2350046385542427  0.1109368002406688   T   T   T
  0.1872742958130275  0.3793423400089654  0.1109092912089612   T   T   T
  0.1874480514532615  0.5238561205679841  0.1109687702690206   T   T   T
  0.1901502723098137  0.6670110528206699  0.1110534501964455   T   T   T
  0.1903587642341923  0.8096429303068089  0.1109997549483104   T   T   T
  0.3330579264936324  0.9522440479298139  0.1110289822064711   T   T   T
  0.3329836546082799  0.0945718591201266  0.1110529474697238   T   T   T
  0.3328877857419688  0.2371950504711442  0.1109983854475268   T   T   T
  0.3261710866053566  0.3749342094778235  0.1111418058973510   T   T   T
  0.3261784171652591  0.5226943379592419  0.1111298523265099   T   T   T
  0.3328712340457577  0.6671304687282404  0.1110228593844141   T   T   T
  0.3329906004993340  0.8098513565331802  0.1110534537294487   T   T   T
  0.4759954166541119  0.9531471258768183  0.1110013093473675   T   T   T
  0.4760050217754569  0.0942839619858813  0.1110170331017903   T   T   T
  0.4761325893880651  0.2350049694114394  0.1109247333621409   T   T   T
  0.4773135432160385  0.3749099198543078  0.1111708843829502   T   T   T
  0.4773074464737531  0.6738234401747470  0.1111298528405165   T   T   T
  0.4761455952220125  0.8125536356147375  0.1109687760060208   T   T   T
  0.6194228922119204  0.9537101884646888  0.1109893753659993   T   T   T
  0.6191342261520317  0.0952880724582071  0.1110031605982517   T   T   T
  0.6194354225391836  0.2371573340325266  0.1109847549024380   T   T   T
  0.6206419538973881  0.3793597803116125  0.1108920534259257   T   T   T
  0.6250916491156957  0.5226881239869654  0.1111708791249481   T   T   T
  0.6250674399771738  0.6738306371106384  0.1111418056103486   T   T   T
  0.6206594031510327  0.8127274735899711  0.1109092868609583   T   T   T
  0.7628499642753129  0.9536940621481351  0.1109907478587353   T   T   T
  0.7620844768661084  0.0956024976831545  0.1110572141063435   T   T   T
  0.7620871622310867  0.2379145429489100  0.1110622867850463   T   T   T
  0.7628444883514746  0.3805663328918174  0.1109847464954385   T   T   T
  0.7649967827645566  0.5238690934189465  0.1109247253981435   T   T   T
  0.7628066082998545  0.6671138948030304  0.1109983940755264   T   T   T
  0.7649970328697596  0.8125485535819208  0.1109368027146649   T   T   T
  0.4762233342042264  0.5237783213427701  0.1115487832284194   T   T   T
  0.9528269894226978  0.9050211138439780  0.1110108423553769   T   T   T
  0.9523052325760121  0.0476964847339852  0.1110306301028003   T   T   T
  0.9516163744072311  0.1901127349490498  0.1110317046831239   T   T   T
  0.9516072670091361  0.3329342884160075  0.1110002731798456   T   T   T
  0.9523037642143444  0.4760367649565726  0.1109773357271158   T   T   T
  0.9528260168891295  0.6192364622332110  0.1110327805759998   T   T   T
  0.9529287672303428  0.7621815190558325  0.1110364309080974   T   T   T
  0.0953149672335314  0.9046867852344727  0.1109478229893827   T   T   T
  0.0949805915940258  0.0471747293923011  0.1110108488523736   T   T   T
  0.0930833175264471  0.1886654243042934  0.1109594636968298   T   T   T
  0.0928217949669156  0.3321270619098356  0.1109340957399502   T   T   T
  0.0930760406701215  0.4758401089692811  0.1109689970518631   T   T   T
  0.0949765807337238  0.6192382620692797  0.1110146088903580   T   T   T
  0.0953196270882875  0.7620695497698238  0.1109757749513838   T   T   T
  0.2379321623911787  0.9046820836697114  0.1109757758433849   T   T   T
  0.2378202103211737  0.0470730017336547  0.1110364234851001   T   T   T
  0.2372844949704537  0.1893849299579417  0.1109627381945659   T   T   T
  0.2323511554637539  0.3287772178713770  0.1108473572763665   T   T   T
  0.2323486100376689  0.4749911638756864  0.1108605182186306   T   T   T
  0.2372698668734906  0.6193196893010096  0.1109916940135477   T   T   T
  0.2378228303389637  0.7621788038560301  0.1110450508214309   T   T   T
  0.3807634090337192  0.9050250450492774  0.1110146130403610   T   T   T
  0.3807652649537831  0.0471757340308687  0.1110327883239994   T   T   T
  0.3806789167464829  0.1893876480225553  0.1109654881062062   T   T   T
  0.3804687699544762  0.3323719247813970  0.1110433886250317   T   T   T
  0.3620103031588150  0.4667311942251819  0.1115094066363749   T   T   T
  0.3804606649792896  0.6195411329797105  0.1110347652330533   T   T   T
  0.3806820491879888  0.7627318400065067  0.1109916986345481   T   T   T
  0.5241616232587210  0.9069255548458778  0.1109690108298623   T   T   T
  0.5239648933924231  0.0476978975456600  0.1109773361721216   T   T   T
  0.5241668518114705  0.1886660994712381  0.1109555573566814   T   T   T
  0.5250011227621886  0.3287778740102372  0.1108424661349229   T   T   T
  0.5333066094787206  0.4666949871462879  0.1116295783242000   T   T   T
  0.5332704650578186  0.6379913789801863  0.1115094082143766   T   T   T
  0.5250106187373208  0.7676532462903345  0.1108605154026289   T   T   T
  0.6678747287021609  0.9071799525060846  0.1109340935269507   T   T   T
  0.6670673813149816  0.0483943872398684  0.1110002717118501   T   T   T
  0.6670718917354371  0.1901131509903763  0.1110125307039063   T   T   T
  0.6678706448565913  0.3321311656924094  0.1109293740887282   T   T   T
  0.6712237901217524  0.4750005932478098  0.1108424457359231   T   T   T
  0.6676297058626031  0.6195329245905209  0.1110433912600297   T   T   T
  0.6712244485826201  0.7676506020042441  0.1108473501453667   T   T   T
  0.8113362882117117  0.9069183975075548  0.1109594640728348   T   T   T
  0.8098889903279505  0.0483853346657665  0.1110317143701235   T   T   T
  0.8095232912889848  0.1904783634030139  0.1110640346139047   T   T   T
  0.8098885871176215  0.3329297934255683  0.1110125247639111   T   T   T
  0.8113357920837611  0.4758349026385373  0.1109555368456787   T   T   T
  0.8106140733444442  0.6193227873005154  0.1109655034592087   T   T   T
  0.8106167321360587  0.7627171968135571  0.1109627494905611   T   T   T

  0.00000000E+00  0.00000000E+00  0.00000000E+00
  0.00000000E+00  0.00000000E+00  0.00000000E+00
  0.00000000E+00  0.00000000E+00  0.00000000E+00
  0.00000000E+00  0.00000000E+00  0.00000000E+00
  0.00000000E+00  0.00000000E+00  0.00000000E+00
  0.00000000E+00  0.00000000E+00  0.00000000E+00
  0.00000000E+00  0.00000000E+00  0.00000000E+00
  0.00000000E+00  0.00000000E+00  0.00000000E+00
  0.00000000E+00  0.00000000E+00  0.00000000E+00
  0.00000000E+00  0.00000000E+00  0.00000000E+00
  0.00000000E+00  0.00000000E+00  0.00000000E+00
  0.00000000E+00  0.00000000E+00  0.00000000E+00
  0.00000000E+00  0.00000000E+00  0.00000000E+00
  0.00000000E+00  0.00000000E+00  0.00000000E+00
  0.00000000E+00  0.00000000E+00  0.00000000E+00
  0.00000000E+00  0.00000000E+00  0.00000000E+00
  0.00000000E+00  0.00000000E+00  0.00000000E+00
  0.00000000E+00  0.00000000E+00  0.00000000E+00
  0.00000000E+00  0.00000000E+00  0.00000000E+00
  0.00000000E+00  0.00000000E+00  0.00000000E+00
  0.00000000E+00  0.00000000E+00  0.00000000E+00
  0.00000000E+00  0.00000000E+00  0.00000000E+00
  0.00000000E+00  0.00000000E+00  0.00000000E+00
  0.00000000E+00  0.00000000E+00  0.00000000E+00
  0.00000000E+00  0.00000000E+00  0.00000000E+00
  0.00000000E+00  0.00000000E+00  0.00000000E+00
  0.00000000E+00  0.00000000E+00  0.00000000E+00
  0.00000000E+00  0.00000000E+00  0.00000000E+00
  0.00000000E+00  0.00000000E+00  0.00000000E+00
  0.00000000E+00  0.00000000E+00  0.00000000E+00
  0.00000000E+00  0.00000000E+00  0.00000000E+00
  0.00000000E+00  0.00000000E+00  0.00000000E+00
  0.00000000E+00  0.00000000E+00  0.00000000E+00
  0.00000000E+00  0.00000000E+00  0.00000000E+00
  0.00000000E+00  0.00000000E+00  0.00000000E+00
  0.00000000E+00  0.00000000E+00  0.00000000E+00
  0.00000000E+00  0.00000000E+00  0.00000000E+00
  0.00000000E+00  0.00000000E+00  0.00000000E+00
  0.00000000E+00  0.00000000E+00  0.00000000E+00
  0.00000000E+00  0.00000000E+00  0.00000000E+00
  0.00000000E+00  0.00000000E+00  0.00000000E+00
  0.00000000E+00  0.00000000E+00  0.00000000E+00
  0.00000000E+00  0.00000000E+00  0.00000000E+00
  0.00000000E+00  0.00000000E+00  0.00000000E+00
  0.00000000E+00  0.00000000E+00  0.00000000E+00
  0.00000000E+00  0.00000000E+00  0.00000000E+00
  0.00000000E+00  0.00000000E+00  0.00000000E+00
  0.00000000E+00  0.00000000E+00  0.00000000E+00
  0.00000000E+00  0.00000000E+00  0.00000000E+00
  0.00000000E+00  0.00000000E+00  0.00000000E+00
  0.00000000E+00  0.00000000E+00  0.00000000E+00
  0.00000000E+00  0.00000000E+00  0.00000000E+00
  0.00000000E+00  0.00000000E+00  0.00000000E+00
  0.00000000E+00  0.00000000E+00  0.00000000E+00
  0.00000000E+00  0.00000000E+00  0.00000000E+00
  0.00000000E+00  0.00000000E+00  0.00000000E+00
  0.00000000E+00  0.00000000E+00  0.00000000E+00
  0.00000000E+00  0.00000000E+00  0.00000000E+00
  0.00000000E+00  0.00000000E+00  0.00000000E+00
  0.00000000E+00  0.00000000E+00  0.00000000E+00
  0.00000000E+00  0.00000000E+00  0.00000000E+00
  0.00000000E+00  0.00000000E+00  0.00000000E+00
  0.00000000E+00  0.00000000E+00  0.00000000E+00
  0.00000000E+00  0.00000000E+00  0.00000000E+00
  0.00000000E+00  0.00000000E+00  0.00000000E+00
  0.00000000E+00  0.00000000E+00  0.00000000E+00
  0.00000000E+00  0.00000000E+00  0.00000000E+00
  0.00000000E+00  0.00000000E+00  0.00000000E+00
  0.00000000E+00  0.00000000E+00  0.00000000E+00
  0.00000000E+00  0.00000000E+00  0.00000000E+00
  0.00000000E+00  0.00000000E+00  0.00000000E+00
  0.00000000E+00  0.00000000E+00  0.00000000E+00
  0.00000000E+00  0.00000000E+00  0.00000000E+00
  0.00000000E+00  0.00000000E+00  0.00000000E+00
  0.00000000E+00  0.00000000E+00  0.00000000E+00
  0.00000000E+00  0.00000000E+00  0.00000000E+00
  0.00000000E+00  0.00000000E+00  0.00000000E+00
  0.00000000E+00  0.00000000E+00  0.00000000E+00
  0.00000000E+00  0.00000000E+00  0.00000000E+00
  0.00000000E+00  0.00000000E+00  0.00000000E+00
  0.00000000E+00  0.00000000E+00  0.00000000E+00
  0.00000000E+00  0.00000000E+00  0.00000000E+00
  0.00000000E+00  0.00000000E+00  0.00000000E+00
  0.00000000E+00  0.00000000E+00  0.00000000E+00
  0.00000000E+00  0.00000000E+00  0.00000000E+00
  0.00000000E+00  0.00000000E+00  0.00000000E+00
  0.00000000E+00  0.00000000E+00  0.00000000E+00
  0.00000000E+00  0.00000000E+00  0.00000000E+00
  0.00000000E+00  0.00000000E+00  0.00000000E+00
  0.00000000E+00  0.00000000E+00  0.00000000E+00
  0.00000000E+00  0.00000000E+00  0.00000000E+00
  0.00000000E+00  0.00000000E+00  0.00000000E+00
  0.00000000E+00  0.00000000E+00  0.00000000E+00
  0.00000000E+00  0.00000000E+00  0.00000000E+00
  0.00000000E+00  0.00000000E+00  0.00000000E+00
  0.00000000E+00  0.00000000E+00  0.00000000E+00
  0.00000000E+00  0.00000000E+00  0.00000000E+00
  0.00000000E+00  0.00000000E+00  0.00000000E+00
