 Ge N B 
 1.0
 17.527899999999772   0.000000000000000   0.000000000000000
 -8.763949999999658  15.179606674993195   0.000000000000000
  0.000000000000001   0.000000000000002  15.000000000000000
 Ge N B 
   1  49  48
Cartesian
  3.756827960266355   7.950748902871442   1.673231748426285 
  8.769496397229268  13.737864540715824   1.665162635330655 
 16.273901278684470   0.724013878041710   1.665459451542000 
 15.013698145515626   2.885836540433812   1.665475570246860 
 13.761857558445868   5.053811546773729   1.665004097697690 
 12.519922742531387   7.226050854876962   1.664660035906740 
 11.274081748242210   9.399765935514422   1.665491708640000 
 10.023119415207404  11.569615674216376   1.665546463621455 
 -6.257958537282764  13.732789563923342   1.664217344840745 
  1.251373341743266   0.716093837174370   1.665162732785610 
 -0.021899264059755   2.863866934109870   1.664391955452450 
 -1.283773824224008   5.041558165912424   1.664011436099250 
 -2.538811389739375   7.223065694339587   1.664534955777945 
 -3.762233157419236   9.399793256318029   1.665219133355370 
 -5.007986539064206  11.567916024495080   1.664636624270760 
 -3.758137398000563  13.732718196019498   1.664636637650775 
  3.755943430944802   0.714549651328156   1.665546352276500 
  2.499338842487726   2.874788746932695   1.664441072918490 
  1.191240719289339   4.990708850986046   1.662710359145505 
 -0.090215608768950   7.210179041730150   1.662907773279465 
 -1.268844291477566   9.401029289668323   1.664875410203220 
 -2.511162140155521  11.569574458551322   1.665675762321465 
 -1.257611286357266  13.737924214866023   1.665219195605415 
  6.260569713323507   0.716109087192683   1.665491824859985 
  5.012718106953386   2.874830006084438   1.664482321593090 
  3.755927622697162   5.045275087992030   1.665650829375480 
  2.254871543107686   7.084795951288118   1.672641099545625 
  1.239048977313091   9.404390717611653   1.665521478495795 
 -0.011986819262701  11.577969329792614   1.664875479518220 
  1.239202299925193  13.766773206060398   1.664535162447930 
  8.765982265697660   0.724035323967242   1.664660042581830 
  7.534083899405254   2.863877182878535   1.664333360350215 
  6.320774330731348   4.990718810915865   1.662636992023845 
  5.257653387681401   7.084246342071657   1.674443674863000 
  3.755786838673641   9.684458194955745   1.672641123215655 
  2.474658956339859  11.652674341468950   1.662907731039435 
  3.755961712453062  13.770634862481376   1.664011402904265 
 11.268164362899896   0.734607763578506   1.665004075677750 
 10.026227261527373   2.885842855777501   1.665187960558590 
  8.795588946411813   5.041620459717763   1.663940611330920 
  7.602262021680922   7.210322175890185   1.662636686038845 
  6.272591146924080   9.404266117492329   1.665650868900450 
  5.037503518876320  11.652634202246166   1.662710252180505 
  6.272833836309855  13.766664560479814   1.664391961092525 
 13.771606579825066   0.734470349064241   1.665475715551860 
 12.519900444438235   2.891386636554171   1.665960519208575 
 11.277866103046872   5.053743314586858   1.665187871458665 
 10.050819335085926   7.222986664286673   1.664333052685185 
  8.780648474411757   9.401076316082289   1.664482551888135 
  7.523993642193532  11.577747051883168   1.664441242358415 
  7.522121656666030  14.468349374532878   1.665337539085245 
 15.022813002986128   1.446330328134301   1.665907911929805 
 13.767123756445649   3.611489804032705   1.665858175550175 
 12.519826531708649   5.781417998204684   1.665047392683765 
 11.283051038507772   7.954064104496334   1.665255366131850 
 10.024571486267671  10.125071786334400   1.665794277700860 
  8.772875573086868  12.293159053295474   1.665560828098815 
 -7.508473698586636  14.454774534413042   1.665054138972270 
 -0.004932292628804   1.431109658785366   1.665337531990230 
 -1.266710321718614   3.599870685791765   1.664861184491100 
 -2.523981272160468   5.777037202640660   1.664840598884985 
 -3.771104553943200   7.954209085441032   1.665019560545490 
 -5.007970429256655  10.123944698150193   1.665434696887095 
 -6.256848644251152  12.290262820081054   1.664874034616700 
 -5.008138926718085  14.453091901567033   1.664874011726745 
  2.504214559128306   1.435520036046240   1.665560766238860 
  1.226091395444489   3.567277980052350   1.664052003610035 
 -0.042012171140308   5.758267516507623   1.663639368134415 
 -1.305478146784034   7.951929864509810   1.664531554035315 
 -2.512716558348338  10.124965429690880   1.665801752946675 
 -3.759080775441631  12.290061229246289   1.664996324224650 
 -2.507613194066513  14.454690106177944   1.665434733097065 
  5.007681154872591   1.435563623966396   1.665794212045860 
  3.756058257130080   3.600527571407125   1.664975781712905 
  2.431189523756914   5.691353828872875   1.667127088460265 
  1.136355635073149   7.934294461467259   1.666947784897650 
 -0.012164368180065  10.126778116198532   1.665342890766210 
 -1.260870849596486  12.293225057383353   1.665801805941735 
 -0.010133690256312  14.468398474210327   1.665019640210520 
  7.517068492531795   1.431193458705684   1.665255496526850 
  6.286032611861655   3.567283002334451   1.663871000432115 
  5.080612262029268   5.690985121941617   1.667563265744250 
  2.460842252527942  10.228374790243468   1.666947792607755 
  1.224652943646299  12.334244590967451   1.664531640090315 
  2.498914106206387  14.476945542827611   1.664840630489985 
 10.017022899949989   1.446435460733835   1.665047408973780 
  8.778967125130139   3.599955050703738   1.664771323536570 
  7.553859957056062   5.758532253442097   1.663380801388890 
  6.375731332319483   7.934200135812204   1.667563186874220 
  5.050701569070219  10.228484036899557   1.667127084155235 
  3.756153010322300  12.336883383056680   1.663639302914370 
  5.013030812858263  14.476700751685206   1.664861217881025 
 12.519884992491036   1.451208311977226   1.665858211595160 
 11.272716412193075   3.611449184225230   1.665934301775690 
 10.035797594228534   5.776847247042308   1.664771197431585 
  8.817624567349910   7.952126787284867   1.663870880972160 
  7.523845131260051  10.126526530532782   1.664975911132890 
  6.287656596273692  12.334167447708195   1.664052040719975 
Generated by cif2cell 2.0.0.  :  Failed to get author information, No journal information. Species order: Ge N B 
 1.0
 17.527899999999772   0.000000000000000   0.000000000000000
 -8.763949999999658  15.179606674993195   0.000000000000000
  0.000000000000001   0.000000000000002  15.000000000000000
 Ge N B 
   1  49  48
Cartesian
  3.756827960266355   7.950748902871442   1.673231748426285 
  8.769496397229268  13.737864540715824   1.665162635330655 
 16.273901278684470   0.724013878041710   1.665459451542000 
 15.013698145515626   2.885836540433812   1.665475570246860 
 13.761857558445868   5.053811546773729   1.665004097697690 
 12.519922742531387   7.226050854876962   1.664660035906740 
 11.274081748242210   9.399765935514422   1.665491708640000 
 10.023119415207404  11.569615674216376   1.665546463621455 
 -6.257958537282764  13.732789563923342   1.664217344840745 
  1.251373341743266   0.716093837174370   1.665162732785610 
 -0.021899264059755   2.863866934109870   1.664391955452450 
 -1.283773824224008   5.041558165912424   1.664011436099250 
 -2.538811389739375   7.223065694339587   1.664534955777945 
 -3.762233157419236   9.399793256318029   1.665219133355370 
 -5.007986539064206  11.567916024495080   1.664636624270760 
 -3.758137398000563  13.732718196019498   1.664636637650775 
  3.755943430944802   0.714549651328156   1.665546352276500 
  2.499338842487726   2.874788746932695   1.664441072918490 
  1.191240719289339   4.990708850986046   1.662710359145505 
 -0.090215608768950   7.210179041730150   1.662907773279465 
 -1.268844291477566   9.401029289668323   1.664875410203220 
 -2.511162140155521  11.569574458551322   1.665675762321465 
 -1.257611286357266  13.737924214866023   1.665219195605415 
  6.260569713323507   0.716109087192683   1.665491824859985 
  5.012718106953386   2.874830006084438   1.664482321593090 
  3.755927622697162   5.045275087992030   1.665650829375480 
  2.254871543107686   7.084795951288118   1.672641099545625 
  1.239048977313091   9.404390717611653   1.665521478495795 
 -0.011986819262701  11.577969329792614   1.664875479518220 
  1.239202299925193  13.766773206060398   1.664535162447930 
  8.765982265697660   0.724035323967242   1.664660042581830 
  7.534083899405254   2.863877182878535   1.664333360350215 
  6.320774330731348   4.990718810915865   1.662636992023845 
  5.257653387681401   7.084246342071657   1.674443674863000 
  3.755786838673641   9.684458194955745   1.672641123215655 
  2.474658956339859  11.652674341468950   1.662907731039435 
  3.755961712453062  13.770634862481376   1.664011402904265 
 11.268164362899896   0.734607763578506   1.665004075677750 
 10.026227261527373   2.885842855777501   1.665187960558590 
  8.795588946411813   5.041620459717763   1.663940611330920 
  7.602262021680922   7.210322175890185   1.662636686038845 
  6.272591146924080   9.404266117492329   1.665650868900450 
  5.037503518876320  11.652634202246166   1.662710252180505 
  6.272833836309855  13.766664560479814   1.664391961092525 
 13.771606579825066   0.734470349064241   1.665475715551860 
 12.519900444438235   2.891386636554171   1.665960519208575 
 11.277866103046872   5.053743314586858   1.665187871458665 
 10.050819335085926   7.222986664286673   1.664333052685185 
  8.780648474411757   9.401076316082289   1.664482551888135 
  7.523993642193532  11.577747051883168   1.664441242358415 
  7.522121656666030  14.468349374532878   1.665337539085245 
 15.022813002986128   1.446330328134301   1.665907911929805 
 13.767123756445649   3.611489804032705   1.665858175550175 
 12.519826531708649   5.781417998204684   1.665047392683765 
 11.283051038507772   7.954064104496334   1.665255366131850 
 10.024571486267671  10.125071786334400   1.665794277700860 
  8.772875573086868  12.293159053295474   1.665560828098815 
 -7.508473698586636  14.454774534413042   1.665054138972270 
 -0.004932292628804   1.431109658785366   1.665337531990230 
 -1.266710321718614   3.599870685791765   1.664861184491100 
 -2.523981272160468   5.777037202640660   1.664840598884985 
 -3.771104553943200   7.954209085441032   1.665019560545490 
 -5.007970429256655  10.123944698150193   1.665434696887095 
 -6.256848644251152  12.290262820081054   1.664874034616700 
 -5.008138926718085  14.453091901567033   1.664874011726745 
  2.504214559128306   1.435520036046240   1.665560766238860 
  1.226091395444489   3.567277980052350   1.664052003610035 
 -0.042012171140308   5.758267516507623   1.663639368134415 
 -1.305478146784034   7.951929864509810   1.664531554035315 
 -2.512716558348338  10.124965429690880   1.665801752946675 
 -3.759080775441631  12.290061229246289   1.664996324224650 
 -2.507613194066513  14.454690106177944   1.665434733097065 
  5.007681154872591   1.435563623966396   1.665794212045860 
  3.756058257130080   3.600527571407125   1.664975781712905 
  2.431189523756914   5.691353828872875   1.667127088460265 
  1.136355635073149   7.934294461467259   1.666947784897650 
 -0.012164368180065  10.126778116198532   1.665342890766210 
 -1.260870849596486  12.293225057383353   1.665801805941735 
 -0.010133690256312  14.468398474210327   1.665019640210520 
  7.517068492531795   1.431193458705684   1.665255496526850 
  6.286032611861655   3.567283002334451   1.663871000432115 
  5.080612262029268   5.690985121941617   1.667563265744250 
  2.460842252527942  10.228374790243468   1.666947792607755 
  1.224652943646299  12.334244590967451   1.664531640090315 
  2.498914106206387  14.476945542827611   1.664840630489985 
 10.017022899949989   1.446435460733835   1.665047408973780 
  8.778967125130139   3.599955050703738   1.664771323536570 
  7.553859957056062   5.758532253442097   1.663380801388890 
  6.375731332319483   7.934200135812204   1.667563186874220 
  5.050701569070219  10.228484036899557   1.667127084155235 
  3.756153010322300  12.336883383056680   1.663639302914370 
  5.013030812858263  14.476700751685206   1.664861217881025 
 12.519884992491036   1.451208311977226   1.665858211595160 
 11.272716412193075   3.611449184225230   1.665934301775690 
 10.035797594228534   5.776847247042308   1.664771197431585 
  8.817624567349910   7.952126787284867   1.663870880972160 
  7.523845131260051  10.126526530532782   1.664975911132890 
  6.287656596273692  12.334167447708195   1.664052040719975 
