Species order: X N B                    
   2.51242800000000     
     5.9449720136058266    0.0000000000000000    0.0000000000000000
    -2.9724860068029120    5.1484967885702053   -0.0000000000000001
     0.0000000000000000    0.0000000000000009    5.3101128803662583
   Ge   N    B 
     1   143   143
Direct
  0.4937565768389400  0.4135449550861349  0.3750000000000000
  0.1110731238200604  0.0555353319007607  0.1249604631228498
  0.6112079952269097  0.5557294056515797  0.1233092622075870
  0.4444754207147376  0.0555699746460407  0.1249266477920028
  0.9444314794998021  0.5555402904008504  0.1249029262929119
  0.7778036814610372  0.0555685073971863  0.1248588162785783
  0.1111086958429006  0.7222210145881154  0.6251110257211895
  0.4444754207147376  0.7222387794020320  0.6250733522079969
  0.2776683328548888  0.2221610622415374  0.6255708081780130
  0.7777916506127408  0.7222736833643500  0.6253220350039477
  0.6111481539989977  0.2221921562227387  0.6253847880674663
  0.9444325101242306  0.2222097372370993  0.6250959610775668
  0.2777964752783985  0.7222275242830485  0.1249123223606505
  0.1110418071979808  0.2221875702656545  0.1249048753676431
  0.4444592500735004  0.2222292460700256  0.1244705983798078
  0.6111481539989977  0.7222893311095883  0.1246152119325350
  0.9444314794998021  0.7222245224322869  0.1249029262929119
  0.7778037907375124  0.2222003470165288  0.1248714946721798
  0.1111076472661873  0.8888938288494520  0.6250981345283136
  0.4444782952910291  0.8889058143121784  0.6251052899627625
  0.2776683328548888  0.3888406039466801  0.6255708081780130
  0.6112079952269097  0.3888119229086602  0.6266907377924127
  0.7778037907375124  0.8889367770543128  0.6251285053278187
  0.9444390627812040  0.3888732677582654  0.6250578156587693
  0.1110731238200604  0.3888711252526279  0.1249604631228498
  0.2777964752783985  0.8889022843286787  0.1249123223606505
  0.6111470974987694  0.8889231966098305  0.1248912977974180
  0.4441284486779016  0.3887308910056150  0.1225404646266039
  0.9444390627812040  0.8888991283562674  0.1249421843412291
  0.7777916506127408  0.3888513005817193  0.1246779649960533
  0.2777837425830414  0.5555498476551478  0.6250815439065450
  0.1110731238200604  0.0555353319007607  0.6250395368771486
  0.6112079952269097  0.5557294056515797  0.6266907377924127
  0.4444754207147376  0.0555699746460407  0.6250733522079969
  0.9444314794998021  0.5555402904008504  0.6250970737070879
  0.1111076472661873  0.5555471517500634  0.1249018654716859
  0.7778036814610372  0.0555685073971863  0.6251411837214218
  0.2777837425830414  0.0555672282612287  0.1249184560934559
  0.4444592500735004  0.5555633373368107  0.1244705983798078
  0.7777771679024248  0.5555552506178801  0.1245884648746444
  0.6111470974987694  0.0555572342222665  0.1248912977974180
  0.4444592500735004  0.5555633373368107  0.6255294016201925
  0.9444325101242306  0.0555561062204672  0.1249040389224338
  0.2777964752783985  0.7222275242830485  0.6250876776393489
  0.1110418071979808  0.2221875702656545  0.6250951246323562
  0.4444592500735004  0.2222292460700256  0.6255294016201925
  0.6111481539989977  0.7222893311095883  0.6253847880674663
  0.9444314794998021  0.7222245224322869  0.6250970737070879
  0.7778037907375124  0.2222003470165288  0.6251285053278187
  0.1111086958429006  0.7222210145881154  0.1248889742788106
  0.4444754207147376  0.7222387794020320  0.1249266477920028
  0.2776683328548888  0.2221610622415374  0.1244291918219869
  0.7777916506127408  0.7222736833643500  0.1246779649960533
  0.6111481539989977  0.2221921562227387  0.1246152119325350
  0.9444325101242306  0.2222097372370993  0.1249040389224338
  0.1110731238200604  0.3888711252526279  0.6250395368771486
  0.2777964752783985  0.8889022843286787  0.6250876776393489
  0.6111470974987694  0.8889231966098305  0.6251087022025814
  0.4441284486779016  0.3887308910056150  0.6274595353733960
  0.9444390627812040  0.8888991283562674  0.6250578156587693
  0.1111076472661873  0.8888938288494520  0.1249018654716859
  0.7777916506127408  0.3888513005817193  0.6253220350039477
  0.4444782952910291  0.8889058143121784  0.1248947100372370
  0.2776683328548888  0.3888406039466801  0.1244291918219869
  0.2777837425830414  0.5555498476551478  0.1249184560934559
  0.6112079952269097  0.3888119229086602  0.1233092622075870
  0.7778037907375124  0.8889367770543128  0.1248714946721798
  0.9444390627812040  0.3888732677582654  0.1249421843412291
  0.1111076472661873  0.5555471517500634  0.6250981345283136
  0.2777837425830414  0.0555672282612287  0.6250815439065450
  0.7777771679024248  0.5555552506178801  0.6254115351253550
  0.6111470974987694  0.0555572342222665  0.6251087022025814
  0.9444325101242306  0.0555561062204672  0.6250959610775668
  0.0572666827118312  0.1121439304138928  0.3750000000000000
  0.5541135990766068  0.6177996396677459  0.3750000000000000
  0.3867895768780589  0.1050705291383816  0.3750000000000000
  0.8854445991245310  0.6093889662289365  0.3750000000000000
  0.7227723329794046  0.1107253200087806  0.3750000000000000
  0.0555755038474108  0.7777858601970599  0.8750000000000000
  0.3888930871645065  0.7777857002666616  0.8750000000000000
  0.2222377424004554  0.2777855378668954  0.8750000000000000
  0.7222314614926785  0.7777768680206167  0.8750000000000000
  0.5555556344888825  0.2777724624334197  0.8750000000000000
  0.8889018081758284  0.2777895095531980  0.8750000000000000
  0.2195627951889710  0.7764480642611550  0.3750000000000000
  0.0572666827118312  0.2784560856312741  0.3750000000000000
  0.3911620291303509  0.2717613416487323  0.3750000000000000
  0.5547784163131386  0.7806427214000220  0.3750000000000000
  0.8870722137202423  0.7770494310182410  0.3750000000000000
  0.7221905597091470  0.2761369822731831  0.3750000000000000
  0.0555676677412261  0.9444452569531618  0.8750000000000000
  0.3888930871645065  0.9444407202311804  0.8750000000000000
  0.2222304974117714  0.4444577081008803  0.8750000000000000
  0.5555683551052298  0.4444508442192792  0.8750000000000000
  0.7222279469372442  0.9444451674569477  0.8750000000000000
  0.8889101009309236  0.4444592381611020  0.8750000000000000
  0.0548362844347847  0.4442232873299357  0.3750000000000000
  0.2198702674586640  0.9420423798445380  0.3750000000000000
  0.5549230050282024  0.9441281691807640  0.3750000000000000
  0.3911620291303509  0.4527340208149548  0.3750000000000000
  0.8895574416893161  0.9453043253957100  0.3750000000000000
  0.7187583861851491  0.4421661877874369  0.3750000000000000
  0.2222270593048293  0.6111217369276674  0.8750000000000000
  0.0555681942030638  0.1111141124180958  0.8750000000000000
  0.5555556344888825  0.6111165053887989  0.8750000000000000
  0.3888895774796052  0.1110969901450048  0.8750000000000000
  0.8889239881111138  0.6111286607222282  0.8750000000000000
  0.0528296159932335  0.6099981492885611  0.3750000000000000
  0.7222279469372442  0.1111161128136316  0.8750000000000000
  0.2227477159514798  0.1104465304424114  0.3750000000000000
  0.3867895768780589  0.6150523810730202  0.3750000000000000
  0.7187583861851491  0.6099255317310482  0.3750000000000000
  0.5547784163131386  0.1074690282464523  0.3750000000000000
  0.3888895774796052  0.6111259206679437  0.8750000000000000
  0.8901929167023650  0.1117631250178541  0.3750000000000000
  0.2222321159670352  0.7777827246501857  0.8750000000000000
  0.0555681942030638  0.2777874151183037  0.8750000000000000
  0.3888974000973830  0.2777653931887715  0.8750000000000000
  0.5555577747255798  0.7777813743289512  0.8750000000000000
  0.8889101009309236  0.7777841961031574  0.8750000000000000
  0.7222314614926785  0.2777879268053977  0.8750000000000000
  0.0528296159932335  0.7761648000380086  0.3750000000000000
  0.3869199462075349  0.7783590651126616  0.3750000000000000
  0.2258128191621994  0.2795730762477672  0.3750000000000000
  0.7221905597091470  0.7793869107692998  0.3750000000000000
  0.5541135990766068  0.2696472927421973  0.3750000000000000
  0.8895574416893161  0.2775864496269398  0.3750000000000000
  0.0555676677412261  0.4444557441213915  0.8750000000000000
  0.2222270593048293  0.9444386557104987  0.8750000000000000
  0.5555583480657394  0.9444458406995339  0.8750000000000000
  0.3888974000973830  0.4444653402419473  0.8750000000000000
  0.8889018081758284  0.9444456319559663  0.8750000000000000
  0.0548362844347847  0.9439463304381785  0.3750000000000000
  0.7222492697181876  0.4444634770817779  0.8750000000000000
  0.3869199462075349  0.9418942144282092  0.3750000000000000
  0.2227477159514798  0.4456345188424040  0.3750000000000000
  0.2198702674586640  0.6111612209474622  0.3750000000000000
  0.7227723329794046  0.9453803463039592  0.3750000000000000
  0.8870722137202423  0.4433561160353384  0.3750000000000000
  0.0555755038474108  0.6111229769836868  0.8750000000000000
  0.2222304974117714  0.1111061226442272  0.8750000000000000
  0.7222492697181876  0.6111191259697429  0.8750000000000000
  0.5555577747255798  0.1111097337299638  0.8750000000000000
  0.8889000006239559  0.1111166669786493  0.8750000000000000
  0.1119762728891453  0.0556630390954516  0.3750000000000000
  0.6073036587939259  0.5604451794206574  0.3750000000000000
  0.4434124518186901  0.0520690276613294  0.3750000000000000
  0.9415329177524798  0.5543824335021267  0.3750000000000000
  0.7789268383634892  0.0561300858484122  0.3750000000000000
  0.1111179726782956  0.7222256530058125  0.8750000000000000
  0.4444475610601437  0.7221877255954909  0.8750000000000000
  0.2778710014133024  0.2222812339065225  0.8750000000000000
  0.7777408323654041  0.7221479303921827  0.8750000000000000
  0.6110827071383078  0.2222782379936591  0.8750000000000000
  0.9444729859026577  0.2222468731757183  0.8750000000000000
  0.2757294296547984  0.7218933667874273  0.3750000000000000
  0.1146148694903102  0.2239741014118195  0.3750000000000000
  0.4428949785690865  0.2151557217717877  0.3750000000000000
  0.6109072086502000  0.7263473134388004  0.3750000000000000
  0.9415329177524798  0.7204838175836912  0.3750000000000000
  0.7783922809930954  0.2217918862182325  0.3750000000000000
  0.1111284816874295  0.8888973028073740  0.8750000000000000
  0.4444432971354155  0.8888883152343726  0.8750000000000000
  0.2778710014133024  0.3889231008401081  0.8750000000000000
  0.6110695788885284  0.3889331350589328  0.8750000000000000
  0.7777643581396646  0.8888413259561643  0.8750000000000000
  0.9444506692811635  0.3889150811695643  0.8750000000000000
  0.1119762728891453  0.3896465671270221  0.3750000000000000
  0.2757294296547984  0.8871693962006997  0.3750000000000000
  0.6113672862547235  0.8903641280917256  0.3750000000000000
  0.9437180478315085  0.8884689977260426  0.3750000000000000
  0.7755705413552464  0.3875273690308119  0.3750000000000000
  0.2778173276060363  0.5555534249032866  0.8750000000000000
  0.1111636076583681  0.0555832735781062  0.8750000000000000
  0.6110695788885284  0.5554697771629241  0.8750000000000000
  0.4444475610601437  0.0555931687979885  0.8750000000000000
  0.9444329426545108  0.5555637673365756  0.8750000000000000
  0.1090753723154995  0.5551525439616296  0.3750000000000000
  0.7777766292192706  0.0555549812763036  0.8750000000000000
  0.2763543868327763  0.0530654050858548  0.3750000000000000
  0.4428949785690865  0.5610725901306342  0.3750000000000000
  0.7732815527473683  0.5533074430403515  0.3750000000000000
  0.6113672862547235  0.0543364914963253  0.3750000000000000
  0.4444710313404051  0.5555189155758645  0.8750000000000000
  0.9461178500599486  0.0565786015271393  0.3750000000000000
  0.2777924876230263  0.7222192150846288  0.8750000000000000
  0.1111891022940360  0.2222612178136824  0.8750000000000000
  0.4444710313404051  0.2222854490978774  0.8750000000000000
  0.6110827071383078  0.7221378024779789  0.8750000000000000
  0.9444329426545108  0.7222025086512724  0.8750000000000000
  0.7777643581396646  0.2222563655168279  0.8750000000000000
  0.1084557456872370  0.7208945395102838  0.3750000000000000
  0.4434124518186904  0.7246767574906962  0.3750000000000000
  0.2819418997055435  0.2232803300515890  0.3750000000000000
  0.7755705413552464  0.7213765056577636  0.3750000000000000
  0.6109072086502000  0.2178932285447294  0.3750000000000000
  0.9461178500599486  0.2228725818661448  0.3750000000000000
  0.1111636076583681  0.3889136674135906  0.8750000000000000
  0.2777924876230271  0.8889066058717271  0.8750000000000000
  0.6110972384937142  0.8888569549042549  0.8750000000000000
  0.4445221824562345  0.3889277578947817  0.8750000000000000
  0.9444506692811635  0.8888689214449271  0.8750000000000000
  0.1090753723154995  0.8872561616871979  0.3750000000000000
  0.7777408323654041  0.3889262353065501  0.8750000000000000
  0.4434665551394469  0.8883999442363871  0.3750000000000000
  0.2819418997055435  0.3919949029872834  0.3750000000000000
  0.2763543868327763  0.5566223150802573  0.3750000000000000
  0.6073036587939259  0.3801918127065945  0.3750000000000000
  0.7783922809930954  0.8899337281081895  0.3750000000000000
  0.9437180478315085  0.3885823834387941  0.3750000000000000
  0.1111284816874295  0.5555645122133837  0.8750000000000000
  0.2778173276060363  0.0555972360360855  0.8750000000000000
  0.7777351236045682  0.5555342284689535  0.8750000000000000
  0.6110972384937142  0.0555736169227907  0.8750000000000000
  0.9444729859026577  0.0555594460602751  0.8750000000000000
  0.0555936664286075  0.1111536218796705  0.1251191939506824
  0.5556136115808227  0.6109299728871099  0.1246593391227450
  0.3890075405398828  0.1113584181625175  0.1251323113289330
  0.8886607139551630  0.6109970236442536  0.1250544853590562
  0.7222379998897185  0.1111332971521909  0.1250186221086687
  0.0554921449954334  0.7777652872236062  0.6249608603428632
  0.3889594398865774  0.7777512592104122  0.6249261333014953
  0.2223063184945613  0.2778198259139484  0.6250319622891519
  0.7221645812575372  0.7777028852618786  0.6250523400567288
  0.5556136115808227  0.2780169720270473  0.6253406608772550
  0.8888739822242571  0.2777662456693291  0.6249460544591947
  0.2222461158196566  0.7777897245764956  0.1250248731200546
  0.0555936664286075  0.2777733778822732  0.1251191939506824
  0.3889592324597013  0.2779831464307125  0.1245016758974950
  0.5556014296559950  0.7777113605892065  0.1250406950306576
  0.8887713367879604  0.7777163444032674  0.1250352829245956
  0.7221645812575372  0.2777950293289950  0.1249476599432713
  0.0555545913980289  0.9444840245188375  0.6248931067557253
  0.3889594398865774  0.9445415140095014  0.6249261333014953
  0.2222984732757003  0.4443795145814861  0.6248921093921526
  0.5554144194995528  0.4443738764164407  0.6229975285169467
  0.7222379998897185  0.9444380360708635  0.6249813778913302
  0.8887713367879604  0.4443883257180271  0.6249647170754047
  0.0555545913980289  0.4444039002125183  0.1251068932442748
  0.2222790636079718  0.9445601800532569  0.1250891718727107
  0.5556039114759447  0.9444686224046369  0.1250470884656282
  0.3889592324597013  0.4443094193623244  0.1245016758974950
  0.8888739822242571  0.9444410698882634  0.1250539455408045
  0.7219167496347949  0.4443180307598668  0.1246011488082208
  0.2222790636079718  0.6110522168880502  0.6249108281272899
  0.0555936664286074  0.1111536218796705  0.6248808060493175
  0.5556136115808227  0.6109299728871099  0.6253406608772550
  0.3890075405398828  0.1113584181625175  0.6248676886710668
  0.8886607139551630  0.6109970236442536  0.6249455146409432
  0.0554921449954334  0.6110601911051641  0.1250391396571375
  0.7222379998897185  0.1111332971521909  0.6249813778913302
  0.2222984732757003  0.1112522920275493  0.1251078906078484
  0.3890075405398828  0.6109824557107084  0.1251323113289330
  0.7219167496347949  0.6109320522082634  0.1246011488082208
  0.5556014296559950  0.1112234024001235  0.1250406950306576
  0.3890075405398828  0.6109824557107084  0.6248676886710668
  0.8889064807615268  0.1111199070474347  0.1250236777594469
  0.2222461158196566  0.7777897245764956  0.6249751268799438
  0.0555936664286075  0.2777733778822732  0.6248808060493175
  0.3889592324597013  0.2779831464307125  0.6254983241025057
  0.5556014296559950  0.7777113605892065  0.6249593049693424
  0.8887713367879604  0.7777163444032674  0.6249647170754047
  0.7221645812575372  0.2777950293289950  0.6250523400567288
  0.0554921449954334  0.7777652872236062  0.1250391396571375
  0.3889594398865774  0.7777512592104122  0.1250738666985055
  0.2223063184945613  0.2778198259139484  0.1249680377108475
  0.7221645812575372  0.7777028852618786  0.1249476599432713
  0.5556136115808227  0.2780169720270473  0.1246593391227450
  0.8888739822242571  0.2777662456693291  0.1250539455408045
  0.0555545913980289  0.4444039002125183  0.6248931067557253
  0.2222790636079718  0.9445601800532569  0.6249108281272899
  0.5556039114759447  0.9444686224046369  0.6249529115343720
  0.3889592324597013  0.4443094193623244  0.6254983241025057
  0.8888739822242571  0.9444410698882634  0.6249460544591947
  0.0555545913980289  0.9444840245188375  0.1251068932442748
  0.7219167496347949  0.4443180307598668  0.6253988511917785
  0.3889594398865774  0.9445415140095014  0.1250738666985055
  0.2222984732757003  0.4443795145814861  0.1251078906078484
  0.2222790636079718  0.6110522168880502  0.1250891718727107
  0.5554144194995528  0.4443738764164407  0.1270024714830542
  0.7222379998897185  0.9444380360708635  0.1250186221086687
  0.8887713367879604  0.4443883257180271  0.1250352829245956
  0.0554921449954334  0.6110601911051641  0.6249608603428632
  0.2222984732757003  0.1112522920275493  0.6248921093921526
  0.7219167496347949  0.6109320522082634  0.6253988511917785
  0.5556014296559950  0.1112234024001235  0.6249593049693424
  0.8889064807615268  0.1111199070474347  0.6249763222405521
 
  0.00000000E+00  0.00000000E+00  0.00000000E+00
  0.00000000E+00  0.00000000E+00  0.00000000E+00
  0.00000000E+00  0.00000000E+00  0.00000000E+00
  0.00000000E+00  0.00000000E+00  0.00000000E+00
  0.00000000E+00  0.00000000E+00  0.00000000E+00
  0.00000000E+00  0.00000000E+00  0.00000000E+00
  0.00000000E+00  0.00000000E+00  0.00000000E+00
  0.00000000E+00  0.00000000E+00  0.00000000E+00
  0.00000000E+00  0.00000000E+00  0.00000000E+00
  0.00000000E+00  0.00000000E+00  0.00000000E+00
  0.00000000E+00  0.00000000E+00  0.00000000E+00
  0.00000000E+00  0.00000000E+00  0.00000000E+00
  0.00000000E+00  0.00000000E+00  0.00000000E+00
  0.00000000E+00  0.00000000E+00  0.00000000E+00
  0.00000000E+00  0.00000000E+00  0.00000000E+00
  0.00000000E+00  0.00000000E+00  0.00000000E+00
  0.00000000E+00  0.00000000E+00  0.00000000E+00
  0.00000000E+00  0.00000000E+00  0.00000000E+00
  0.00000000E+00  0.00000000E+00  0.00000000E+00
  0.00000000E+00  0.00000000E+00  0.00000000E+00
  0.00000000E+00  0.00000000E+00  0.00000000E+00
  0.00000000E+00  0.00000000E+00  0.00000000E+00
  0.00000000E+00  0.00000000E+00  0.00000000E+00
  0.00000000E+00  0.00000000E+00  0.00000000E+00
  0.00000000E+00  0.00000000E+00  0.00000000E+00
  0.00000000E+00  0.00000000E+00  0.00000000E+00
  0.00000000E+00  0.00000000E+00  0.00000000E+00
  0.00000000E+00  0.00000000E+00  0.00000000E+00
  0.00000000E+00  0.00000000E+00  0.00000000E+00
  0.00000000E+00  0.00000000E+00  0.00000000E+00
  0.00000000E+00  0.00000000E+00  0.00000000E+00
  0.00000000E+00  0.00000000E+00  0.00000000E+00
  0.00000000E+00  0.00000000E+00  0.00000000E+00
  0.00000000E+00  0.00000000E+00  0.00000000E+00
  0.00000000E+00  0.00000000E+00  0.00000000E+00
  0.00000000E+00  0.00000000E+00  0.00000000E+00
  0.00000000E+00  0.00000000E+00  0.00000000E+00
  0.00000000E+00  0.00000000E+00  0.00000000E+00
  0.00000000E+00  0.00000000E+00  0.00000000E+00
  0.00000000E+00  0.00000000E+00  0.00000000E+00
  0.00000000E+00  0.00000000E+00  0.00000000E+00
  0.00000000E+00  0.00000000E+00  0.00000000E+00
  0.00000000E+00  0.00000000E+00  0.00000000E+00
  0.00000000E+00  0.00000000E+00  0.00000000E+00
  0.00000000E+00  0.00000000E+00  0.00000000E+00
  0.00000000E+00  0.00000000E+00  0.00000000E+00
  0.00000000E+00  0.00000000E+00  0.00000000E+00
  0.00000000E+00  0.00000000E+00  0.00000000E+00
  0.00000000E+00  0.00000000E+00  0.00000000E+00
  0.00000000E+00  0.00000000E+00  0.00000000E+00
  0.00000000E+00  0.00000000E+00  0.00000000E+00
  0.00000000E+00  0.00000000E+00  0.00000000E+00
  0.00000000E+00  0.00000000E+00  0.00000000E+00
  0.00000000E+00  0.00000000E+00  0.00000000E+00
  0.00000000E+00  0.00000000E+00  0.00000000E+00
  0.00000000E+00  0.00000000E+00  0.00000000E+00
  0.00000000E+00  0.00000000E+00  0.00000000E+00
  0.00000000E+00  0.00000000E+00  0.00000000E+00
  0.00000000E+00  0.00000000E+00  0.00000000E+00
  0.00000000E+00  0.00000000E+00  0.00000000E+00
  0.00000000E+00  0.00000000E+00  0.00000000E+00
  0.00000000E+00  0.00000000E+00  0.00000000E+00
  0.00000000E+00  0.00000000E+00  0.00000000E+00
  0.00000000E+00  0.00000000E+00  0.00000000E+00
  0.00000000E+00  0.00000000E+00  0.00000000E+00
  0.00000000E+00  0.00000000E+00  0.00000000E+00
  0.00000000E+00  0.00000000E+00  0.00000000E+00
  0.00000000E+00  0.00000000E+00  0.00000000E+00
  0.00000000E+00  0.00000000E+00  0.00000000E+00
  0.00000000E+00  0.00000000E+00  0.00000000E+00
  0.00000000E+00  0.00000000E+00  0.00000000E+00
  0.00000000E+00  0.00000000E+00  0.00000000E+00
  0.00000000E+00  0.00000000E+00  0.00000000E+00
  0.00000000E+00  0.00000000E+00  0.00000000E+00
  0.00000000E+00  0.00000000E+00  0.00000000E+00
  0.00000000E+00  0.00000000E+00  0.00000000E+00
  0.00000000E+00  0.00000000E+00  0.00000000E+00
  0.00000000E+00  0.00000000E+00  0.00000000E+00
  0.00000000E+00  0.00000000E+00  0.00000000E+00
  0.00000000E+00  0.00000000E+00  0.00000000E+00
  0.00000000E+00  0.00000000E+00  0.00000000E+00
  0.00000000E+00  0.00000000E+00  0.00000000E+00
  0.00000000E+00  0.00000000E+00  0.00000000E+00
  0.00000000E+00  0.00000000E+00  0.00000000E+00
  0.00000000E+00  0.00000000E+00  0.00000000E+00
  0.00000000E+00  0.00000000E+00  0.00000000E+00
  0.00000000E+00  0.00000000E+00  0.00000000E+00
  0.00000000E+00  0.00000000E+00  0.00000000E+00
  0.00000000E+00  0.00000000E+00  0.00000000E+00
  0.00000000E+00  0.00000000E+00  0.00000000E+00
  0.00000000E+00  0.00000000E+00  0.00000000E+00
  0.00000000E+00  0.00000000E+00  0.00000000E+00
  0.00000000E+00  0.00000000E+00  0.00000000E+00
  0.00000000E+00  0.00000000E+00  0.00000000E+00
  0.00000000E+00  0.00000000E+00  0.00000000E+00
  0.00000000E+00  0.00000000E+00  0.00000000E+00
  0.00000000E+00  0.00000000E+00  0.00000000E+00
  0.00000000E+00  0.00000000E+00  0.00000000E+00
  0.00000000E+00  0.00000000E+00  0.00000000E+00
  0.00000000E+00  0.00000000E+00  0.00000000E+00
  0.00000000E+00  0.00000000E+00  0.00000000E+00
  0.00000000E+00  0.00000000E+00  0.00000000E+00
  0.00000000E+00  0.00000000E+00  0.00000000E+00
  0.00000000E+00  0.00000000E+00  0.00000000E+00
  0.00000000E+00  0.00000000E+00  0.00000000E+00
  0.00000000E+00  0.00000000E+00  0.00000000E+00
  0.00000000E+00  0.00000000E+00  0.00000000E+00
  0.00000000E+00  0.00000000E+00  0.00000000E+00
  0.00000000E+00  0.00000000E+00  0.00000000E+00
  0.00000000E+00  0.00000000E+00  0.00000000E+00
  0.00000000E+00  0.00000000E+00  0.00000000E+00
  0.00000000E+00  0.00000000E+00  0.00000000E+00
  0.00000000E+00  0.00000000E+00  0.00000000E+00
  0.00000000E+00  0.00000000E+00  0.00000000E+00
  0.00000000E+00  0.00000000E+00  0.00000000E+00
  0.00000000E+00  0.00000000E+00  0.00000000E+00
  0.00000000E+00  0.00000000E+00  0.00000000E+00
  0.00000000E+00  0.00000000E+00  0.00000000E+00
  0.00000000E+00  0.00000000E+00  0.00000000E+00
  0.00000000E+00  0.00000000E+00  0.00000000E+00
  0.00000000E+00  0.00000000E+00  0.00000000E+00
  0.00000000E+00  0.00000000E+00  0.00000000E+00
  0.00000000E+00  0.00000000E+00  0.00000000E+00
  0.00000000E+00  0.00000000E+00  0.00000000E+00
  0.00000000E+00  0.00000000E+00  0.00000000E+00
  0.00000000E+00  0.00000000E+00  0.00000000E+00
  0.00000000E+00  0.00000000E+00  0.00000000E+00
  0.00000000E+00  0.00000000E+00  0.00000000E+00
  0.00000000E+00  0.00000000E+00  0.00000000E+00
  0.00000000E+00  0.00000000E+00  0.00000000E+00
  0.00000000E+00  0.00000000E+00  0.00000000E+00
  0.00000000E+00  0.00000000E+00  0.00000000E+00
  0.00000000E+00  0.00000000E+00  0.00000000E+00
  0.00000000E+00  0.00000000E+00  0.00000000E+00
  0.00000000E+00  0.00000000E+00  0.00000000E+00
  0.00000000E+00  0.00000000E+00  0.00000000E+00
  0.00000000E+00  0.00000000E+00  0.00000000E+00
  0.00000000E+00  0.00000000E+00  0.00000000E+00
  0.00000000E+00  0.00000000E+00  0.00000000E+00
  0.00000000E+00  0.00000000E+00  0.00000000E+00
  0.00000000E+00  0.00000000E+00  0.00000000E+00
  0.00000000E+00  0.00000000E+00  0.00000000E+00
  0.00000000E+00  0.00000000E+00  0.00000000E+00
  0.00000000E+00  0.00000000E+00  0.00000000E+00
  0.00000000E+00  0.00000000E+00  0.00000000E+00
  0.00000000E+00  0.00000000E+00  0.00000000E+00
  0.00000000E+00  0.00000000E+00  0.00000000E+00
  0.00000000E+00  0.00000000E+00  0.00000000E+00
  0.00000000E+00  0.00000000E+00  0.00000000E+00
  0.00000000E+00  0.00000000E+00  0.00000000E+00
  0.00000000E+00  0.00000000E+00  0.00000000E+00
  0.00000000E+00  0.00000000E+00  0.00000000E+00
  0.00000000E+00  0.00000000E+00  0.00000000E+00
  0.00000000E+00  0.00000000E+00  0.00000000E+00
  0.00000000E+00  0.00000000E+00  0.00000000E+00
  0.00000000E+00  0.00000000E+00  0.00000000E+00
  0.00000000E+00  0.00000000E+00  0.00000000E+00
  0.00000000E+00  0.00000000E+00  0.00000000E+00
  0.00000000E+00  0.00000000E+00  0.00000000E+00
  0.00000000E+00  0.00000000E+00  0.00000000E+00
  0.00000000E+00  0.00000000E+00  0.00000000E+00
  0.00000000E+00  0.00000000E+00  0.00000000E+00
  0.00000000E+00  0.00000000E+00  0.00000000E+00
  0.00000000E+00  0.00000000E+00  0.00000000E+00
  0.00000000E+00  0.00000000E+00  0.00000000E+00
  0.00000000E+00  0.00000000E+00  0.00000000E+00
  0.00000000E+00  0.00000000E+00  0.00000000E+00
  0.00000000E+00  0.00000000E+00  0.00000000E+00
  0.00000000E+00  0.00000000E+00  0.00000000E+00
  0.00000000E+00  0.00000000E+00  0.00000000E+00
  0.00000000E+00  0.00000000E+00  0.00000000E+00
  0.00000000E+00  0.00000000E+00  0.00000000E+00
  0.00000000E+00  0.00000000E+00  0.00000000E+00
  0.00000000E+00  0.00000000E+00  0.00000000E+00
  0.00000000E+00  0.00000000E+00  0.00000000E+00
  0.00000000E+00  0.00000000E+00  0.00000000E+00
  0.00000000E+00  0.00000000E+00  0.00000000E+00
  0.00000000E+00  0.00000000E+00  0.00000000E+00
  0.00000000E+00  0.00000000E+00  0.00000000E+00
  0.00000000E+00  0.00000000E+00  0.00000000E+00
  0.00000000E+00  0.00000000E+00  0.00000000E+00
  0.00000000E+00  0.00000000E+00  0.00000000E+00
  0.00000000E+00  0.00000000E+00  0.00000000E+00
  0.00000000E+00  0.00000000E+00  0.00000000E+00
  0.00000000E+00  0.00000000E+00  0.00000000E+00
  0.00000000E+00  0.00000000E+00  0.00000000E+00
  0.00000000E+00  0.00000000E+00  0.00000000E+00
  0.00000000E+00  0.00000000E+00  0.00000000E+00
  0.00000000E+00  0.00000000E+00  0.00000000E+00
  0.00000000E+00  0.00000000E+00  0.00000000E+00
  0.00000000E+00  0.00000000E+00  0.00000000E+00
  0.00000000E+00  0.00000000E+00  0.00000000E+00
  0.00000000E+00  0.00000000E+00  0.00000000E+00
  0.00000000E+00  0.00000000E+00  0.00000000E+00
  0.00000000E+00  0.00000000E+00  0.00000000E+00
  0.00000000E+00  0.00000000E+00  0.00000000E+00
  0.00000000E+00  0.00000000E+00  0.00000000E+00
  0.00000000E+00  0.00000000E+00  0.00000000E+00
  0.00000000E+00  0.00000000E+00  0.00000000E+00
  0.00000000E+00  0.00000000E+00  0.00000000E+00
  0.00000000E+00  0.00000000E+00  0.00000000E+00
  0.00000000E+00  0.00000000E+00  0.00000000E+00
  0.00000000E+00  0.00000000E+00  0.00000000E+00
  0.00000000E+00  0.00000000E+00  0.00000000E+00
  0.00000000E+00  0.00000000E+00  0.00000000E+00
  0.00000000E+00  0.00000000E+00  0.00000000E+00
  0.00000000E+00  0.00000000E+00  0.00000000E+00
  0.00000000E+00  0.00000000E+00  0.00000000E+00
  0.00000000E+00  0.00000000E+00  0.00000000E+00
  0.00000000E+00  0.00000000E+00  0.00000000E+00
  0.00000000E+00  0.00000000E+00  0.00000000E+00
  0.00000000E+00  0.00000000E+00  0.00000000E+00
  0.00000000E+00  0.00000000E+00  0.00000000E+00
  0.00000000E+00  0.00000000E+00  0.00000000E+00
  0.00000000E+00  0.00000000E+00  0.00000000E+00
  0.00000000E+00  0.00000000E+00  0.00000000E+00
  0.00000000E+00  0.00000000E+00  0.00000000E+00
  0.00000000E+00  0.00000000E+00  0.00000000E+00
  0.00000000E+00  0.00000000E+00  0.00000000E+00
  0.00000000E+00  0.00000000E+00  0.00000000E+00
  0.00000000E+00  0.00000000E+00  0.00000000E+00
  0.00000000E+00  0.00000000E+00  0.00000000E+00
  0.00000000E+00  0.00000000E+00  0.00000000E+00
  0.00000000E+00  0.00000000E+00  0.00000000E+00
  0.00000000E+00  0.00000000E+00  0.00000000E+00
  0.00000000E+00  0.00000000E+00  0.00000000E+00
  0.00000000E+00  0.00000000E+00  0.00000000E+00
  0.00000000E+00  0.00000000E+00  0.00000000E+00
  0.00000000E+00  0.00000000E+00  0.00000000E+00
  0.00000000E+00  0.00000000E+00  0.00000000E+00
  0.00000000E+00  0.00000000E+00  0.00000000E+00
  0.00000000E+00  0.00000000E+00  0.00000000E+00
  0.00000000E+00  0.00000000E+00  0.00000000E+00
  0.00000000E+00  0.00000000E+00  0.00000000E+00
  0.00000000E+00  0.00000000E+00  0.00000000E+00
  0.00000000E+00  0.00000000E+00  0.00000000E+00
  0.00000000E+00  0.00000000E+00  0.00000000E+00
  0.00000000E+00  0.00000000E+00  0.00000000E+00
  0.00000000E+00  0.00000000E+00  0.00000000E+00
  0.00000000E+00  0.00000000E+00  0.00000000E+00
  0.00000000E+00  0.00000000E+00  0.00000000E+00
  0.00000000E+00  0.00000000E+00  0.00000000E+00
  0.00000000E+00  0.00000000E+00  0.00000000E+00
  0.00000000E+00  0.00000000E+00  0.00000000E+00
  0.00000000E+00  0.00000000E+00  0.00000000E+00
  0.00000000E+00  0.00000000E+00  0.00000000E+00
  0.00000000E+00  0.00000000E+00  0.00000000E+00
  0.00000000E+00  0.00000000E+00  0.00000000E+00