B Sn N                                  
   1.0000000000000000     
     8.7639499999999995  -15.1796066749929999    0.0000000000000000
     8.7639499999999995   15.1796066749929999    0.0000000000000000
     0.0000000000000000    0.0000000000000000   15.0000000000000000
   B    Sn   N 
    48     1    49
Selective dynamics
Direct
  0.9055083260388485  0.9528957794132147  0.1052085550551452   T   T   T
  0.9047558464903380  0.0952459002016570  0.1063469810646589   T   T   T
  0.9045311396957768  0.2379653160360596  0.1073176359834656   T   T   T
  0.9047725025367536  0.3809263279917268  0.1069699446598727   T   T   T
  0.9055762878910644  0.5240357855739802  0.1059768238450148   T   T   T
  0.9054968997808958  0.6670824139331687  0.1068462302703306   T   T   T
  0.9054545425445154  0.8098113707874360  0.1065676394426043   T   T   T
  0.0477494316618741  0.9522522917031276  0.1070406334682281   T   T   T
  0.0471059359287638  0.0944933944331371  0.1052085545821441   T   T   T
  0.0466984521606678  0.2373736812840314  0.1043645338508964   T   T   T
  0.0466824546567860  0.3807811308911135  0.1048349020012777   T   T   T
  0.0471286480808248  0.5240673821621531  0.1061408178744035   T   T   T
  0.0478022954304871  0.6669739696782595  0.1075963201727561   T   T   T
  0.0478930929770695  0.8096864777231788  0.1083368791319315   T   T   T
  0.1903152719698469  0.9521086701159431  0.1083368776059344   T   T   T
  0.1901903302485653  0.0945471701634728  0.1065676353186093   T   T   T
  0.1883388961587364  0.2356755127118624  0.1044965346467781   T   T   T
  0.1881349540002824  0.3798312524950906  0.1064645370833436   T   T   T
  0.1883585519688565  0.5241691042052333  0.1060086391424857   T   T   T
  0.1902266787271683  0.6671038109739819  0.1079243398584109   T   T   T
  0.1903337917499468  0.8096679027910164  0.1087486930609468   T   T   T
  0.3330277660267099  0.9521994284035440  0.1075963225867540   T   T   T
  0.3329193000438234  0.0945048401391556  0.1068462258933305   T   T   T
  0.3327726113046703  0.2370062154727114  0.1120248314162076   T   T   T
  0.3259864048102813  0.3745056013299394  0.1287284912029844   T   T   T
  0.3259866240352266  0.5228634262843186  0.1303720966568220   T   T   T
  0.3328306590825151  0.6671710436914914  0.1142839251041191   T   T   T
  0.3328978423460416  0.8097749501158529  0.1079243433914141   T   T   T
  0.4759343052568484  0.9528729328491533  0.1061408231854049   T   T   T
  0.4759659559320614  0.0944255347849527  0.1059768325380149   T   T   T
  0.4758990339073589  0.2355670967324756  0.1048983086621255   T   T   T
  0.4769212039028669  0.3746040712828093  0.1268435612419444   T   T   T
  0.4771383581486549  0.6740152333047594  0.1303720971708281   T   T   T
  0.4758326115847978  0.8116431350991630  0.1060086448794859   T   T   T
  0.6192206080809034  0.9533192297602250  0.1048349041082785   T   T   T
  0.6190753423562970  0.0952291847452574  0.1069699457458733   T   T   T
  0.6192787201882987  0.2373161016379678  0.1051284255760317   T   T   T
  0.6202339175793163  0.3797678166296715  0.1058414553196445   T   T   T
  0.6253974976871501  0.5230804633001807  0.1268435559839388   T   T   T
  0.6254960481250527  0.6740153189057231  0.1287284909159819   T   T   T
  0.6201704906649104  0.8118668154027241  0.1064645327353407   T   T   T
  0.7626280592439316  0.9533032673663606  0.1043645360768918   T   T   T
  0.7620363797249355  0.0954705368382317  0.1073176383864644   T   T   T
  0.7620570711454472  0.2379446340345464  0.1076708639531013   T   T   T
  0.7626857207460332  0.3807230352427158  0.1051284171690322   T   T   T
  0.7644346554435193  0.5241026488996612  0.1048983006981280   T   T   T
  0.7629954432982805  0.6672290692403319  0.1120248400442073   T   T   T
  0.7643261587121213  0.8116628205232898  0.1044965371207742   T   T   T
  0.4765031293648499  0.5234985261821693  0.2003920418209843   T   T   T
  0.9526205323282695  0.9048253953924645  0.1062412422276393   T   T   T
  0.9523871755058699  0.0476145418041646  0.1060507360377296   T   T   T
  0.9520277198213689  0.1902790649008580  0.1064682495931740   T   T   T
  0.9520174664009015  0.3331669308917981  0.1067882155827892   T   T   T
  0.9524020340539916  0.4761771165365951  0.1067771702463121   T   T   T
  0.9526539365313070  0.6192237078629557  0.1067592703116362   T   T   T
  0.9527036436240506  0.7620706775638448  0.1076159736240713   T   T   T
  0.0952804986145613  0.9047212538534404  0.1084317320420234   T   T   T
  0.0951763100455190  0.0473811864867081  0.1062412487246360   T   T   T
  0.0940572160902149  0.1893950326472664  0.1034811172882405   T   T   T
  0.0939953354188408  0.3327435868347078  0.1038357463948217   T   T   T
  0.0940691739088173  0.4761219985485253  0.1044948650027107   T   T   T
  0.0952031512374991  0.6192486046267488  0.1071769125924368   T   T   T
  0.0952884461104976  0.7620327302991954  0.1086965173652725   T   T   T
  0.2379689818617963  0.9047132646475374  0.1086965182572737   T   T   T
  0.2379310518131633  0.0472981253399256  0.1076159662010740   T   T   T
  0.2378461090520607  0.1900058689929944  0.1069527841805394   T   T   T
  0.2348242877813235  0.3305476820464363  0.1073668880599247   T   T   T
  0.2348639455805404  0.4758012486267119  0.1086525913420234   T   T   T
  0.2378945326826359  0.6193025066613839  0.1088975575608149   T   T   T
  0.2379249953253160  0.7620766388697106  0.1086381842966143   T   T   T
  0.3807530664762789  0.9047984745455065  0.1071769167424398   T   T   T
  0.3807780193240605  0.0473478143886992  0.1067592780596359   T   T   T
  0.3807233454166397  0.1899856213290724  0.1072113611204556   T   T   T
  0.3806504834159988  0.3328605485064512  0.1255686357057391   T   T   T
  0.3600272239965844  0.4655092045323618  0.1539285255306998   T   T   T
  0.3807642304809986  0.6192375674779748  0.1284645208093313   T   T   T
  0.3806992318275559  0.7621071741973743  0.1088975621818156   T   T   T
  0.5238797336795198  0.9059324216071810  0.1044948787807099   T   T   T
  0.5238245418123916  0.0475996277060112  0.1067771706913179   T   T   T
  0.5239316494786997  0.1893334929061957  0.1043892064879765   T   T   T
  0.5242263674415583  0.3304420359424514  0.1069531574340103   T   T   T
  0.5335809034028435  0.4664206932221798  0.1485712876221914   T   T   T
  0.5344924547506265  0.6399744581423821  0.1539285271087004   T   T   T
  0.5242005339862694  0.7651379107474870  0.1086525885260217   T   T   T
  0.6672582037772663  0.9060064120541339  0.1038357441818222   T   T   T
  0.6668347388391733  0.0479841878480892  0.1067882141147937   T   T   T
  0.6668591596860118  0.1902627929100010  0.1071311296002236   T   T   T
  0.6673101012661448  0.3326917092828946  0.1042873032988656   T   T   T
  0.6695596281895447  0.4757753485684210  0.1069531370350105   T   T   T
  0.6671410821375224  0.6193512111289760  0.1255686383407350   T   T   T
  0.6694539844075603  0.7651774696866740  0.1073668809289196   T   T   T
  0.8106066798687722  0.9059444989437849  0.1034811176642455   T   T   T
  0.8097226603761526  0.0479739892516328  0.1064682592801739   T   T   T
  0.8095438120384719  0.1904578426534950  0.1083172925318817   T   T   T
  0.8097389451979990  0.3331425254749970  0.1071311236602289   T   T   T
  0.8106683986488330  0.4760701049712897  0.1043891859769738   T   T   T
  0.8100161000378916  0.6192783586303887  0.1072113764734575   T   T   T
  0.8099957931009892  0.7621555827319852  0.1069527954765346   T   T   T

  0.00000000E+00  0.00000000E+00  0.00000000E+00
  0.00000000E+00  0.00000000E+00  0.00000000E+00
  0.00000000E+00  0.00000000E+00  0.00000000E+00
  0.00000000E+00  0.00000000E+00  0.00000000E+00
  0.00000000E+00  0.00000000E+00  0.00000000E+00
  0.00000000E+00  0.00000000E+00  0.00000000E+00
  0.00000000E+00  0.00000000E+00  0.00000000E+00
  0.00000000E+00  0.00000000E+00  0.00000000E+00
  0.00000000E+00  0.00000000E+00  0.00000000E+00
  0.00000000E+00  0.00000000E+00  0.00000000E+00
  0.00000000E+00  0.00000000E+00  0.00000000E+00
  0.00000000E+00  0.00000000E+00  0.00000000E+00
  0.00000000E+00  0.00000000E+00  0.00000000E+00
  0.00000000E+00  0.00000000E+00  0.00000000E+00
  0.00000000E+00  0.00000000E+00  0.00000000E+00
  0.00000000E+00  0.00000000E+00  0.00000000E+00
  0.00000000E+00  0.00000000E+00  0.00000000E+00
  0.00000000E+00  0.00000000E+00  0.00000000E+00
  0.00000000E+00  0.00000000E+00  0.00000000E+00
  0.00000000E+00  0.00000000E+00  0.00000000E+00
  0.00000000E+00  0.00000000E+00  0.00000000E+00
  0.00000000E+00  0.00000000E+00  0.00000000E+00
  0.00000000E+00  0.00000000E+00  0.00000000E+00
  0.00000000E+00  0.00000000E+00  0.00000000E+00
  0.00000000E+00  0.00000000E+00  0.00000000E+00
  0.00000000E+00  0.00000000E+00  0.00000000E+00
  0.00000000E+00  0.00000000E+00  0.00000000E+00
  0.00000000E+00  0.00000000E+00  0.00000000E+00
  0.00000000E+00  0.00000000E+00  0.00000000E+00
  0.00000000E+00  0.00000000E+00  0.00000000E+00
  0.00000000E+00  0.00000000E+00  0.00000000E+00
  0.00000000E+00  0.00000000E+00  0.00000000E+00
  0.00000000E+00  0.00000000E+00  0.00000000E+00
  0.00000000E+00  0.00000000E+00  0.00000000E+00
  0.00000000E+00  0.00000000E+00  0.00000000E+00
  0.00000000E+00  0.00000000E+00  0.00000000E+00
  0.00000000E+00  0.00000000E+00  0.00000000E+00
  0.00000000E+00  0.00000000E+00  0.00000000E+00
  0.00000000E+00  0.00000000E+00  0.00000000E+00
  0.00000000E+00  0.00000000E+00  0.00000000E+00
  0.00000000E+00  0.00000000E+00  0.00000000E+00
  0.00000000E+00  0.00000000E+00  0.00000000E+00
  0.00000000E+00  0.00000000E+00  0.00000000E+00
  0.00000000E+00  0.00000000E+00  0.00000000E+00
  0.00000000E+00  0.00000000E+00  0.00000000E+00
  0.00000000E+00  0.00000000E+00  0.00000000E+00
  0.00000000E+00  0.00000000E+00  0.00000000E+00
  0.00000000E+00  0.00000000E+00  0.00000000E+00
  0.00000000E+00  0.00000000E+00  0.00000000E+00
  0.00000000E+00  0.00000000E+00  0.00000000E+00
  0.00000000E+00  0.00000000E+00  0.00000000E+00
  0.00000000E+00  0.00000000E+00  0.00000000E+00
  0.00000000E+00  0.00000000E+00  0.00000000E+00
  0.00000000E+00  0.00000000E+00  0.00000000E+00
  0.00000000E+00  0.00000000E+00  0.00000000E+00
  0.00000000E+00  0.00000000E+00  0.00000000E+00
  0.00000000E+00  0.00000000E+00  0.00000000E+00
  0.00000000E+00  0.00000000E+00  0.00000000E+00
  0.00000000E+00  0.00000000E+00  0.00000000E+00
  0.00000000E+00  0.00000000E+00  0.00000000E+00
  0.00000000E+00  0.00000000E+00  0.00000000E+00
  0.00000000E+00  0.00000000E+00  0.00000000E+00
  0.00000000E+00  0.00000000E+00  0.00000000E+00
  0.00000000E+00  0.00000000E+00  0.00000000E+00
  0.00000000E+00  0.00000000E+00  0.00000000E+00
  0.00000000E+00  0.00000000E+00  0.00000000E+00
  0.00000000E+00  0.00000000E+00  0.00000000E+00
  0.00000000E+00  0.00000000E+00  0.00000000E+00
  0.00000000E+00  0.00000000E+00  0.00000000E+00
  0.00000000E+00  0.00000000E+00  0.00000000E+00
  0.00000000E+00  0.00000000E+00  0.00000000E+00
  0.00000000E+00  0.00000000E+00  0.00000000E+00
  0.00000000E+00  0.00000000E+00  0.00000000E+00
  0.00000000E+00  0.00000000E+00  0.00000000E+00
  0.00000000E+00  0.00000000E+00  0.00000000E+00
  0.00000000E+00  0.00000000E+00  0.00000000E+00
  0.00000000E+00  0.00000000E+00  0.00000000E+00
  0.00000000E+00  0.00000000E+00  0.00000000E+00
  0.00000000E+00  0.00000000E+00  0.00000000E+00
  0.00000000E+00  0.00000000E+00  0.00000000E+00
  0.00000000E+00  0.00000000E+00  0.00000000E+00
  0.00000000E+00  0.00000000E+00  0.00000000E+00
  0.00000000E+00  0.00000000E+00  0.00000000E+00
  0.00000000E+00  0.00000000E+00  0.00000000E+00
  0.00000000E+00  0.00000000E+00  0.00000000E+00
  0.00000000E+00  0.00000000E+00  0.00000000E+00
  0.00000000E+00  0.00000000E+00  0.00000000E+00
  0.00000000E+00  0.00000000E+00  0.00000000E+00
  0.00000000E+00  0.00000000E+00  0.00000000E+00
  0.00000000E+00  0.00000000E+00  0.00000000E+00
  0.00000000E+00  0.00000000E+00  0.00000000E+00
  0.00000000E+00  0.00000000E+00  0.00000000E+00
  0.00000000E+00  0.00000000E+00  0.00000000E+00
  0.00000000E+00  0.00000000E+00  0.00000000E+00
  0.00000000E+00  0.00000000E+00  0.00000000E+00
  0.00000000E+00  0.00000000E+00  0.00000000E+00
  0.00000000E+00  0.00000000E+00  0.00000000E+00
  0.00000000E+00  0.00000000E+00  0.00000000E+00
