 B P N 
 1.0
 17.527899999999772   0.000000000000000   0.000000000000000
 -8.763949999999658  15.179606674993195   0.000000000000000
  0.000000000000001   0.000000000000002  15.000000000000000
 B P N 
  48   1  48
Cartesian
  7.559054338529629  14.493524745779222   1.660148027647350 
 15.064468222054247   1.484383646560218   1.661372238211095 
 13.805372252059801   3.648455656049225   1.661500186619610 
 12.534683884570178   5.804041981510151   1.660492952776965 
 11.245569682595320   7.954787857899005   1.660937509129110 
 10.027951608854682  10.116690342410674   1.662881722127520 
  8.803982694140107  12.307751139256206   1.661364993006825 
 -7.476276151992815  14.432104622367415   1.659966770225880 
  0.039338396721862   1.435787514201856   1.660926204752010 
 -1.204588038818544   3.631407324532133   1.662517326789210 
 -2.459327620058038   5.801896585606229   1.660777740500130 
 -3.736858206168080   7.954950934985366   1.660051024380975 
 -4.987876211582405  10.106047804600841   1.661386824513945 
 -6.230959819880794  12.264315702570800   1.661182722379035 
 -4.971825715145776  14.401703737342373   1.660173759110670 
  2.535884673742206   1.362121510788588   1.659954222551235 
  1.294134195809478   3.547741617755270   1.661493726986280 
  0.075745553515541   5.790357830870114   1.661486019315375 
 -1.205122894239767   7.966072381772007   1.660267710016200 
 -2.472044802910554  10.115852502582436   1.660887289098420 
 -3.722978518412617  12.259915567154321   1.660499131839615 
 -2.460141352445010  14.412785837961186   1.661914171436220 
  5.061958813888996   1.340988751177607   1.661438558116200 
  3.815010528982714   3.406318882164180   1.661642136678030 
  2.633416268678569   5.516619866361422   1.663139386282050 
  1.264448722118201   8.087456637435434   1.660638503977260 
  0.025199650032430  10.175913574435079   1.661792629751265 
 -1.217505519616564  12.291408771331870   1.661736259016355 
  0.044420220727499  14.455281591382565   1.662070647900645 
  7.559650765549221   1.405413783408935   1.662233499578250 
  6.307125262747791   3.513143071527336   1.660979863874055 
  5.033286576656368   5.539042940062830   1.663842309416775 
  2.579200603742770  10.176273160704612   1.660938437082105 
  1.302144655596550  12.318323183093593   1.662750781437750 
  2.538913010532530  14.507614266493221   1.661229633217590 
 10.047151407477580   1.471507917402217   1.660624608341160 
  8.780078725336107   3.625673656419134   1.660939612391790 
  7.474263641154163   5.791083210919785   1.660366734103935 
  6.091160368307007   8.110375276093075   1.660412886483735 
  5.095103648289884  10.306167155738832   1.659652933326630 
  3.798641549935174  12.379231916507754   1.661287979889540 
  5.049445604591021  14.520306725530350   1.660309803549960 
 12.552663229577742   1.492108466091701   1.660543875127035 
 11.287607495327492   3.647416112455700   1.660764837703530 
 10.002525600483910   5.804876791827053   1.660289724005385 
  8.675792415432285   7.967566852401439   1.661130886059675 
  7.551639673443717  10.182580358724975   1.661221574567430 
  6.321169110588461  12.379202135475575   1.660325155689225 
  2.937831961634561   7.290939856661182   1.665781589227560 
  8.796106650766930  13.742658166234104   1.660156330279755 
 16.312114218186743   0.749248173850164   1.660589958893415 
 15.064990185200696   2.928817226155197   1.661972026044735 
 13.805192657896079   5.092019010733068   1.660604063226435 
 12.519923084834449   7.243939576349963   1.659909715235100 
 11.273590824254519   9.392968584768084   1.661956836210540 
 10.037030654264571  11.557317067356092   1.662145862433600 
 -6.229803709600576  13.701635612266442   1.659758685629625 
  1.278609586150407   0.687735300274148   1.659606980721585 
  0.036881038424806   2.879582425830501   1.661678209411785 
 -1.185720228800164   5.085488343132716   1.661600625346860 
 -2.460400893690212   7.244964011151546   1.659660714496050 
 -3.727396866147527   9.393500176528118   1.660474931581875 
 -4.979716980999622  11.543880152228899   1.660845209738865 
 -3.715368672123437  13.695768606772450   1.660320328657845 
  3.794719120673305   0.655956455184347   1.660017040543020 
  2.532278580763903   2.793662054167810   1.660575220260975 
  1.315724461416969   5.005290968619797   1.661999902819380 
  0.085575430439539   7.254703011119018   1.660270661466990 
 -1.201731561949375   9.409610177224545   1.660764986075400 
 -2.463234209888710  11.553576121321331   1.660656095518560 
 -1.203656434436090  13.721939843893484   1.661773819368435 
  6.317348233472192   0.664772018998364   1.662135286400235 
  5.075483943322277   2.766483218402604   1.661122356603690 
  3.836552099591765   4.815967962341800   1.663343105472075 
  1.301131301672204   9.491044896658508   1.660869797363460 
  0.044925192167192  11.597861564267776   1.662357780800715 
  1.302774232537919  13.754599601977873   1.662028859791305 
  8.813187812705387   0.716140683019947   1.661442533059815 
  7.559883622754692   2.849554163662444   1.661426267557890 
  6.291314940184190   4.966173994413570   1.660355912345025 
  4.326524304847942   8.180094721418749   1.657924072781655 
  3.908088979176225   9.535738860624734   1.658166688752420 
  2.572643825576332  11.610418837498671   1.662002091206400 
  3.794158685274997  13.804937387687332   1.660638389968605 
 11.302216599866446   0.766328127967127   1.659972110900880 
 10.036843724054471   2.920264466430698   1.660477153379580 
  8.741133110819208   5.088301636898730   1.660139623522395 
  7.327676723268929   7.262347491944493   1.660385020738800 
  6.278860141122695   9.506695301515185   1.660303824789915 
  5.062001950846922  11.699999591416075   1.660273752221685 
  6.304489413236610  13.802150419174108   1.659778349088285 
 13.808603230706074   0.776577543192912   1.660462565367615 
 12.547806400583760   2.934537042141865   1.660595836195755 
 11.269172521396850   5.092871680040883   1.660235275150740 
  9.954599157400752   7.248217898850413   1.660452978236040 
  8.753555847091727   9.407745171130502   1.662059504259900 
  7.546369904273498  11.614083256197766   1.660667492995635 
