Species order:X N B                     
   2.51242800000000     
     5.9449720136058266    0.0000000000000000    0.0000000000000000
    -2.9724860068029120    5.1484967885702053   -0.0000000000000001
     0.0000000000000000    0.0000000000000009    5.3101128803662583
   C    N    B 
     1   144   142
Direct
  0.4446447895535682  0.3894321538323891  0.3750000000000000
  0.5460751263423498  0.4428715122815473  0.3750000000000000
  0.1110992051634768  0.0555392851943378  0.1251445521167015
  0.6111142936102089  0.5555378556214523  0.1255244988583975
  0.4444435879056852  0.0555596940569380  0.1251240001639042
  0.9444286461832436  0.5555502596990951  0.1253878236098760
  0.7777698646393938  0.0555395837938727  0.1251150294830431
  0.1111064194723992  0.7222181016598511  0.6248392169533167
  0.4444376509795211  0.7222174630286261  0.6248554435221584
  0.2777756477757041  0.2222203047318519  0.6246901598357960
  0.7777682318102105  0.7222089202796362  0.6247638387759915
  0.6111266161847564  0.2222286388813708  0.6247583712208220
  0.9444380494031760  0.2222226784894432  0.6248567077080102
  0.2777750603562298  0.7222264065707482  0.1251211406091489
  0.1111058895185619  0.2222167662921508  0.1251684031930161
  0.4444224342857451  0.2222256030872550  0.1252327358550189
  0.6111020134753348  0.7222006206487758  0.1252005559504523
  0.9444384723865730  0.7222120337720106  0.1251904366560285
  0.7777697490638042  0.2222136478555491  0.1251944770032691
  0.1111067904292444  0.8888811675262827  0.6248855570619576
  0.4444396034538413  0.8888904607922749  0.6248898353124248
  0.2777897030733458  0.3888910050914887  0.6246898311284830
  0.6111061979942751  0.3888871346337571  0.6252727899780591
  0.7777696078874574  0.8888753557876470  0.6248773841139328
  0.9444395964322085  0.3888968432384939  0.6248081527714100
  0.1111133665521523  0.3888988473219322  0.1251548086471834
  0.2777796654238753  0.8888901939522640  0.1251105603173289
  0.6110976205325281  0.8888761996047113  0.1251385621387159
  0.4444355907733966  0.3888825066589870  0.1253068206478046
  0.9444348803991285  0.8888707996883011  0.1251354009660086
  0.7777644010987484  0.3888948667663905  0.1257436543530936
  0.2777804142774617  0.5555620968073008  0.6248307621578558
  0.1110992051634768  0.0555392851943378  0.6248554478832984
  0.6111142936102089  0.5555378556214523  0.6244755011416022
  0.4444435879056852  0.0555596940569380  0.6248759998360959
  0.9444286461832436  0.5555502596990951  0.6246121763901238
  0.1111056404162948  0.5555631191679142  0.1251693475368499
  0.7777698646393938  0.0555395837938727  0.6248849705169568
  0.2777711838996080  0.0555511168707030  0.1251440838262527
  0.4444464907963552  0.5555420292338316  0.1253092675875565
  0.7777627350302195  0.5555371474008035  0.1257691169923154
  0.6111040283141762  0.0555517378653693  0.1251401143457655
  0.4444464907963552  0.5555420292338316  0.6246907324124436
  0.9444353783362999  0.0555404801719877  0.1251307054605822
  0.2777750603562298  0.7222264065707482  0.6248788593908513
  0.1111058895185619  0.2222167662921508  0.6248315968069844
  0.4444224342857451  0.2222256030872550  0.6247672641449818
  0.6111020134753348  0.7222006206487758  0.6247994440495475
  0.9444384723865730  0.7222120337720106  0.6248095633439712
  0.7777697490638042  0.2222136478555491  0.6248055229967309
  0.1111064194723992  0.7222181016598511  0.1251607830466832
  0.4444376509795211  0.7222174630286261  0.1251445564778416
  0.2777756477757041  0.2222203047318519  0.1253098401642045
  0.7777682318102105  0.7222089202796362  0.1252361612240085
  0.6111266161847564  0.2222286388813708  0.1252416287791781
  0.9444380494031760  0.2222226784894432  0.1251432922919903
  0.1111133665521523  0.3888988473219322  0.6248451913528167
  0.2777796654238753  0.8888901939522640  0.6248894396826710
  0.6110976205325281  0.8888761996047113  0.6248614378612847
  0.4444355907733966  0.3888825066589870  0.6246931793521953
  0.9444348803991285  0.8888707996883011  0.6248645990339921
  0.1111067904292444  0.8888811675262827  0.1251144429380422
  0.7777644010987484  0.3888948667663905  0.6242563456469066
  0.4444396034538413  0.8888904607922749  0.1251101646875750
  0.2777897030733458  0.3888910050914887  0.1253101688715170
  0.2777804142774617  0.5555620968073008  0.1251692378421443
  0.6111061979942751  0.3888871346337571  0.1247272100219407
  0.7777696078874574  0.8888753557876470  0.1251226158860671
  0.9444395964322085  0.3888968432384939  0.1251918472285899
  0.1111056404162948  0.5555631191679142  0.6248306524631501
  0.2777711838996080  0.0555511168707030  0.6248559161737477
  0.7777627350302195  0.5555371474008035  0.6242308830076845
  0.6111040283141762  0.0555517378653693  0.6248598856542340
  0.9444353783362999  0.0555404801719877  0.6248692945394180
  0.0556405685266646  0.1111667824240786  0.3750000000000000
  0.5552004219379076  0.6107056424949759  0.3750000000000000
  0.3892949371755922  0.1131748917722074  0.3750000000000000
  0.8883264224116759  0.6112003050559351  0.3750000000000000
  0.7223740873801324  0.1106317914157369  0.3750000000000000
  0.0555538148900074  0.7777803502781485  0.8750000000000000
  0.3888913757537935  0.7777804751820004  0.8750000000000000
  0.2222204052578212  0.2777799336700381  0.8750000000000000
  0.7222235328451406  0.7777804277634547  0.8750000000000000
  0.5555538439171147  0.2777780847594703  0.8750000000000000
  0.8888922478793900  0.2777824878444208  0.8750000000000000
  0.2222348941662216  0.7779210643893859  0.3750000000000000
  0.0557372986800885  0.2777485018466012  0.3750000000000000
  0.3908684620295728  0.2837110617030310  0.3750000000000000
  0.5553582599620583  0.7774117783174237  0.3750000000000000
  0.8883555235750289  0.7775087412667517  0.3750000000000000
  0.7232707650263042  0.2772529965471472  0.3750000000000000
  0.0555546520712710  0.9444502276419259  0.8750000000000000
  0.3888924572733652  0.9444481655298386  0.8750000000000000
  0.2222205307190928  0.4444437401345330  0.8750000000000000
  0.5555500166728154  0.4444472446469403  0.8750000000000000
  0.7222241632436623  0.9444480634614862  0.8750000000000000
  0.8888923578909156  0.4444467162482412  0.8750000000000000
  0.0561103577510437  0.4443418492770244  0.3750000000000000
  0.2226986854556254  0.9453864305561928  0.3750000000000000
  0.5554373631511376  0.9442707287355964  0.3750000000000000
  0.3904182630343665  0.4419544127938864  0.3750000000000000
  0.8888748482069462  0.9443481681060800  0.3750000000000000
  0.7240075506593132  0.4452379532415141  0.3750000000000000
  0.2222193502022738  0.6111086434780517  0.8750000000000000
  0.0555536918208961  0.1111123890185616  0.8750000000000000
  0.5555542527469217  0.6111079108685615  0.8750000000000000
  0.3888902609847040  0.1111129494716618  0.8750000000000000
  0.8888888163923727  0.6111109475456663  0.8750000000000000
  0.0551883687318079  0.6109249266320552  0.3750000000000000
  0.7222224331160697  0.1111146907571268  0.8750000000000000
  0.2235595554753717  0.1130871236894050  0.3750000000000000
  0.3889850995937109  0.6098933824017171  0.3750000000000000
  0.7202944312581701  0.6098825280535105  0.3750000000000000
  0.5556983307966216  0.1110431586336069  0.3750000000000000
  0.3888905437204610  0.6111091978573688  0.8750000000000000
  0.8890206492812528  0.1109417438002703  0.3750000000000000
  0.2222201624243661  0.7777780375933853  0.8750000000000000
  0.0555548917197832  0.2777786928841275  0.8750000000000000
  0.3888878188454294  0.2777818883196032  0.8750000000000000
  0.5555581328578604  0.7777784793094786  0.8750000000000000
  0.8888895269100376  0.7777830986244002  0.8750000000000000
  0.7222257830403475  0.2777827736796383  0.8750000000000000
  0.0556532595122772  0.7781501336436298  0.3750000000000000
  0.3888635068699181  0.7774968006112484  0.3750000000000000
  0.2218290622899621  0.2777901827828537  0.3750000000000000
  0.7219540588121550  0.7776041710694478  0.3750000000000000
  0.5527858797747273  0.2713786572521845  0.3750000000000000
  0.8893171821634442  0.2775979581672081  0.3750000000000000
  0.0555551347237487  0.4444451034950596  0.8750000000000000
  0.2222223952727513  0.9444480333378512  0.8750000000000000
  0.5555576993252037  0.9444495236542175  0.8750000000000000
  0.3888875497149953  0.4444455913570170  0.8750000000000000
  0.8888921683084055  0.9444496491401598  0.8750000000000000
  0.0559454086851262  0.9450441260829445  0.3750000000000000
  0.7222258523652975  0.4444477853233652  0.8750000000000000
  0.3890018573214267  0.9450756109718538  0.3750000000000000
  0.2233256333881680  0.4442083633409770  0.3750000000000000
  0.2223490110721556  0.6108619674694595  0.3750000000000000
  0.7221375425222567  0.9441469243662194  0.3750000000000000
  0.8889498038137660  0.4440880827109516  0.3750000000000000
  0.0555512157189337  0.6111074590520026  0.8750000000000000
  0.2222205789714027  0.1111151482710262  0.8750000000000000
  0.7222195043045915  0.6111105489216634  0.8750000000000000
  0.5555566619655057  0.1111142022806828  0.8750000000000000
  0.8888905567811995  0.1111136686646237  0.8750000000000000
  0.1116903973086780  0.0563069163412917  0.3750000000000000
  0.6088235987749023  0.5539358645691174  0.3750000000000000
  0.4445649843447074  0.0565108401969349  0.3750000000000000
  0.9446732398812044  0.5556632613914492  0.3750000000000000
  0.7778808287433640  0.0551508352105067  0.3750000000000000
  0.1111260876778019  0.7222379675772644  0.8750000000000000
  0.4444477433001042  0.7222425608619656  0.8750000000000000
  0.2777700573556419  0.2222087898570477  0.8750000000000000
  0.7777862890223372  0.7222456486196596  0.8750000000000000
  0.6110958874445391  0.2222056903649893  0.8750000000000000
  0.9444366330655063  0.2222102001221986  0.8750000000000000
  0.2778259843305670  0.7222604809654164  0.3750000000000000
  0.1103013597931922  0.2217298493343129  0.3750000000000000
  0.4458701025755671  0.2252835584033067  0.3750000000000000
  0.6112170566834567  0.7227177462411379  0.3750000000000000
  0.9448686159417348  0.7232139487733568  0.3750000000000000
  0.7785241274596109  0.2210938396983052  0.3750000000000000
  0.1111237467785600  0.8889051383700087  0.8750000000000000
  0.4444491272916240  0.8889021454873983  0.8750000000000000
  0.2777623841597864  0.3888824132431690  0.8750000000000000
  0.6110839104463178  0.3888592811822554  0.8750000000000000
  0.7777846318786878  0.8889113420668224  0.8750000000000000
  0.9444506822805694  0.3888783991589465  0.8750000000000000
  0.1115984354571253  0.3886401047690518  0.3750000000000000
  0.2779815004853218  0.8893698735471259  0.3750000000000000
  0.6110512921677301  0.8888466476038871  0.3750000000000000
  0.9446723700683755  0.8893195433300829  0.3750000000000000
  0.7787040181559071  0.3858995854605501  0.3750000000000000
  0.2777743211213795  0.5555650474090603  0.8750000000000000
  0.1111085893706937  0.0555558354841031  0.8750000000000000
  0.6111017616770846  0.5555502948866672  0.8750000000000000
  0.4444451451212739  0.0555496282875501  0.8750000000000000
  0.9444585727146919  0.5555595966755228  0.8750000000000000
  0.1113333984973380  0.5554571683529671  0.3750000000000000
  0.7777744845308080  0.0555581176534760  0.8750000000000000
  0.2783444491124179  0.0565893146761054  0.3750000000000000
  0.4451274940155923  0.5554603921314292  0.3750000000000000
  0.7780397095581958  0.5584077899159627  0.3750000000000000
  0.6111316969634781  0.0552467487922817  0.3750000000000000
  0.4444401330486777  0.5555650730148006  0.8750000000000000
  0.9444274088113730  0.0553931654576747  0.3750000000000000
  0.2777854522840860  0.7222378729196828  0.8750000000000000
  0.1110952584562020  0.2222102568795620  0.8750000000000000
  0.4444456964477188  0.2222048417227380  0.8750000000000000
  0.6111153730526238  0.7222440035858110  0.8750000000000000
  0.9444623937537708  0.7222472407438307  0.8750000000000000
  0.7777727467771113  0.2222076600687241  0.8750000000000000
  0.1112948323105068  0.7225914388881891  0.3750000000000000
  0.4443574462649432  0.7218479806296073  0.3750000000000000
  0.2775242238247508  0.2237105791019534  0.3750000000000000
  0.7772694732669223  0.7224733258351367  0.3750000000000000
  0.6120831896698249  0.2223762035444772  0.3750000000000000
  0.9446780018127231  0.2217934253359121  0.3750000000000000
  0.1111012586532315  0.3888807101156477  0.8750000000000000
  0.2777892289008997  0.8888988919095404  0.8750000000000000
  0.6111143685835203  0.8889070064449750  0.8750000000000000
  0.4444389293430206  0.3888774678543807  0.8750000000000000
  0.9444546888993222  0.8889114085990868  0.8750000000000000
  0.1115667689355717  0.8895894272814797  0.3750000000000000
  0.7777793370544807  0.3888692949516905  0.8750000000000000
  0.4443233424707970  0.8890165165914052  0.3750000000000000
  0.2770954356753645  0.3875028000327764  0.3750000000000000
  0.2778995488356578  0.5553697200327288  0.3750000000000000
  0.7778415792677216  0.8890252861559929  0.3750000000000000
  0.9452362915029631  0.3883598332145429  0.3750000000000000
  0.1111186420870169  0.5555601047326544  0.8750000000000000
  0.2777830966267040  0.0555518550736718  0.8750000000000000
  0.7777840032554738  0.5555639200312049  0.8750000000000000
  0.6111057880929847  0.0555539842342830  0.8750000000000000
  0.9444397847946124  0.0555586698789425  0.8750000000000000
  0.0555182898127103  0.1110585133482553  0.1248702811024175
  0.5555758658559095  0.6111638695370745  0.1248592066088491
  0.3888928405488339  0.1110780025218377  0.1249299328627313
  0.8889585654015654  0.6111780204679047  0.1249614412463770
  0.7221789154813174  0.1110447778413500  0.1248891908402171
  0.0556147321522993  0.7778212323048086  0.6251239573034819
  0.3888893976346103  0.7778263856141588  0.6251011750183540
  0.2221615942249595  0.2777199477777355  0.6251966827293519
  0.7222322827126607  0.7778364226249753  0.6251471883840392
  0.5555608607217063  0.2777766016527901  0.6247944808586328
  0.8888714637654866  0.2777351361908605  0.6251541777090807
  0.2222657757469843  0.7778232080556982  0.1249088546700321
  0.0555262121722845  0.2777631291080804  0.1248565574668884
  0.3889077106401607  0.2777143228329348  0.1246768842508998
  0.5555403654987052  0.7778243813680513  0.1248783516634162
  0.8889276940191243  0.7778302907516861  0.1248386245057542
  0.7221325269799866  0.2776523240048464  0.1249691564572443
  0.0555624568643120  0.9444247339161255  0.6251176162636677
  0.3888932414331294  0.9444501642319612  0.6250838247396158
  0.2221941755086425  0.4444808795772141  0.6251583339094690
  0.5555934823795132  0.4443517176287366  0.6250497476234751
  0.7222015096687494  0.9444428884360310  0.6250996999325312
  0.8889240905788067  0.4444329629270203  0.6250268194928443
  0.0555742798815368  0.4444706989305910  0.1248593670880781
  0.2222359255642782  0.9444255991475853  0.1248954205136503
  0.5555279709728157  0.9444375834964159  0.1249187907733683
  0.3888945808604609  0.4444341975337276  0.1246285698084942
  0.8888799260358488  0.9444441007902219  0.1248856977681638
  0.7220483580084973  0.4443310304298277  0.1248196171488601
  0.2222439373379999  0.6111775456555480  0.6251164442297439
  0.0555182898127103  0.1110585133482553  0.6251297188975826
  0.5555758658559095  0.6111638695370745  0.6251407933911510
  0.3888928405488339  0.1110780025218377  0.6250700671372690
  0.8889585654015654  0.6111780204679047  0.6250385587536234
  0.0556403466117925  0.6111762896830325  0.1248993962362387
  0.7221789154813174  0.1110447778413500  0.6251108091597831
  0.2221847435192560  0.1110198850588733  0.1248691200006863
  0.3888753814659955  0.6111784578336289  0.1248474879773610
  0.7222177300671929  0.6111658100163608  0.1249825031495150
  0.5555269041718256  0.1110738430165309  0.1249496774890522
  0.3888753814659955  0.6111784578336289  0.6251525120226390
  0.8888555401336864  0.1110709741603504  0.1248908520452149
  0.2222657757469843  0.7778232080556982  0.6250911453299679
  0.0555262121722845  0.2777631291080804  0.6251434425331112
  0.3889077106401607  0.2777143228329348  0.6253231157491000
  0.5555403654987052  0.7778243813680513  0.6251216483365836
  0.8889276940191243  0.7778302907516861  0.6251613754942462
  0.7221325269799866  0.2776523240048464  0.6250308435427554
  0.0556147321522993  0.7778212323048086  0.1248760426965183
  0.3888893976346103  0.7778263856141588  0.1248988249816465
  0.2221615942249595  0.2777199477777355  0.1248033172706479
  0.7222322827126607  0.7778364226249753  0.1248528116159605
  0.5555608607217063  0.2777766016527901  0.1252055191413671
  0.8888714637654866  0.2777351361908605  0.1248458222909195
  0.0555742798815368  0.4444706989305910  0.6251406329119220
  0.2222359255642782  0.9444255991475853  0.6251045794863490
  0.5555279709728157  0.9444375834964159  0.6250812092266317
  0.3888945808604609  0.4444341975337276  0.6253714301915058
  0.8888799260358488  0.9444441007902219  0.6251143022318363
  0.0555624568643120  0.9444247339161255  0.1248823837363316
  0.7220483580084973  0.4443310304298277  0.6251803828511396
  0.3888932414331294  0.9444501642319612  0.1249161752603844
  0.2221941755086425  0.4444808795772141  0.1248416660905305
  0.2222439373379999  0.6111775456555480  0.1248835557702565
  0.5555934823795132  0.4443517176287366  0.1249502523765250
  0.7222015096687494  0.9444428884360310  0.1249003000674688
  0.8889240905788067  0.4444329629270203  0.1249731805071561
  0.0556403466117925  0.6111762896830325  0.6251006037637611
  0.2221847435192560  0.1110198850588733  0.6251308799993134
  0.7222177300671929  0.6111658100163608  0.6250174968504855
  0.5555269041718256  0.1110738430165309  0.6250503225109474
  0.8888555401336864  0.1110709741603504  0.6251091479547850
 
  0.00000000E+00  0.00000000E+00  0.00000000E+00
  0.00000000E+00  0.00000000E+00  0.00000000E+00
  0.00000000E+00  0.00000000E+00  0.00000000E+00
  0.00000000E+00  0.00000000E+00  0.00000000E+00
  0.00000000E+00  0.00000000E+00  0.00000000E+00
  0.00000000E+00  0.00000000E+00  0.00000000E+00
  0.00000000E+00  0.00000000E+00  0.00000000E+00
  0.00000000E+00  0.00000000E+00  0.00000000E+00
  0.00000000E+00  0.00000000E+00  0.00000000E+00
  0.00000000E+00  0.00000000E+00  0.00000000E+00
  0.00000000E+00  0.00000000E+00  0.00000000E+00
  0.00000000E+00  0.00000000E+00  0.00000000E+00
  0.00000000E+00  0.00000000E+00  0.00000000E+00
  0.00000000E+00  0.00000000E+00  0.00000000E+00
  0.00000000E+00  0.00000000E+00  0.00000000E+00
  0.00000000E+00  0.00000000E+00  0.00000000E+00
  0.00000000E+00  0.00000000E+00  0.00000000E+00
  0.00000000E+00  0.00000000E+00  0.00000000E+00
  0.00000000E+00  0.00000000E+00  0.00000000E+00
  0.00000000E+00  0.00000000E+00  0.00000000E+00
  0.00000000E+00  0.00000000E+00  0.00000000E+00
  0.00000000E+00  0.00000000E+00  0.00000000E+00
  0.00000000E+00  0.00000000E+00  0.00000000E+00
  0.00000000E+00  0.00000000E+00  0.00000000E+00
  0.00000000E+00  0.00000000E+00  0.00000000E+00
  0.00000000E+00  0.00000000E+00  0.00000000E+00
  0.00000000E+00  0.00000000E+00  0.00000000E+00
  0.00000000E+00  0.00000000E+00  0.00000000E+00
  0.00000000E+00  0.00000000E+00  0.00000000E+00
  0.00000000E+00  0.00000000E+00  0.00000000E+00
  0.00000000E+00  0.00000000E+00  0.00000000E+00
  0.00000000E+00  0.00000000E+00  0.00000000E+00
  0.00000000E+00  0.00000000E+00  0.00000000E+00
  0.00000000E+00  0.00000000E+00  0.00000000E+00
  0.00000000E+00  0.00000000E+00  0.00000000E+00
  0.00000000E+00  0.00000000E+00  0.00000000E+00
  0.00000000E+00  0.00000000E+00  0.00000000E+00
  0.00000000E+00  0.00000000E+00  0.00000000E+00
  0.00000000E+00  0.00000000E+00  0.00000000E+00
  0.00000000E+00  0.00000000E+00  0.00000000E+00
  0.00000000E+00  0.00000000E+00  0.00000000E+00
  0.00000000E+00  0.00000000E+00  0.00000000E+00
  0.00000000E+00  0.00000000E+00  0.00000000E+00
  0.00000000E+00  0.00000000E+00  0.00000000E+00
  0.00000000E+00  0.00000000E+00  0.00000000E+00
  0.00000000E+00  0.00000000E+00  0.00000000E+00
  0.00000000E+00  0.00000000E+00  0.00000000E+00
  0.00000000E+00  0.00000000E+00  0.00000000E+00
  0.00000000E+00  0.00000000E+00  0.00000000E+00
  0.00000000E+00  0.00000000E+00  0.00000000E+00
  0.00000000E+00  0.00000000E+00  0.00000000E+00
  0.00000000E+00  0.00000000E+00  0.00000000E+00
  0.00000000E+00  0.00000000E+00  0.00000000E+00
  0.00000000E+00  0.00000000E+00  0.00000000E+00
  0.00000000E+00  0.00000000E+00  0.00000000E+00
  0.00000000E+00  0.00000000E+00  0.00000000E+00
  0.00000000E+00  0.00000000E+00  0.00000000E+00
  0.00000000E+00  0.00000000E+00  0.00000000E+00
  0.00000000E+00  0.00000000E+00  0.00000000E+00
  0.00000000E+00  0.00000000E+00  0.00000000E+00
  0.00000000E+00  0.00000000E+00  0.00000000E+00
  0.00000000E+00  0.00000000E+00  0.00000000E+00
  0.00000000E+00  0.00000000E+00  0.00000000E+00
  0.00000000E+00  0.00000000E+00  0.00000000E+00
  0.00000000E+00  0.00000000E+00  0.00000000E+00
  0.00000000E+00  0.00000000E+00  0.00000000E+00
  0.00000000E+00  0.00000000E+00  0.00000000E+00
  0.00000000E+00  0.00000000E+00  0.00000000E+00
  0.00000000E+00  0.00000000E+00  0.00000000E+00
  0.00000000E+00  0.00000000E+00  0.00000000E+00
  0.00000000E+00  0.00000000E+00  0.00000000E+00
  0.00000000E+00  0.00000000E+00  0.00000000E+00
  0.00000000E+00  0.00000000E+00  0.00000000E+00
  0.00000000E+00  0.00000000E+00  0.00000000E+00
  0.00000000E+00  0.00000000E+00  0.00000000E+00
  0.00000000E+00  0.00000000E+00  0.00000000E+00
  0.00000000E+00  0.00000000E+00  0.00000000E+00
  0.00000000E+00  0.00000000E+00  0.00000000E+00
  0.00000000E+00  0.00000000E+00  0.00000000E+00
  0.00000000E+00  0.00000000E+00  0.00000000E+00
  0.00000000E+00  0.00000000E+00  0.00000000E+00
  0.00000000E+00  0.00000000E+00  0.00000000E+00
  0.00000000E+00  0.00000000E+00  0.00000000E+00
  0.00000000E+00  0.00000000E+00  0.00000000E+00
  0.00000000E+00  0.00000000E+00  0.00000000E+00
  0.00000000E+00  0.00000000E+00  0.00000000E+00
  0.00000000E+00  0.00000000E+00  0.00000000E+00
  0.00000000E+00  0.00000000E+00  0.00000000E+00
  0.00000000E+00  0.00000000E+00  0.00000000E+00
  0.00000000E+00  0.00000000E+00  0.00000000E+00
  0.00000000E+00  0.00000000E+00  0.00000000E+00
  0.00000000E+00  0.00000000E+00  0.00000000E+00
  0.00000000E+00  0.00000000E+00  0.00000000E+00
  0.00000000E+00  0.00000000E+00  0.00000000E+00
  0.00000000E+00  0.00000000E+00  0.00000000E+00
  0.00000000E+00  0.00000000E+00  0.00000000E+00
  0.00000000E+00  0.00000000E+00  0.00000000E+00
  0.00000000E+00  0.00000000E+00  0.00000000E+00
  0.00000000E+00  0.00000000E+00  0.00000000E+00
  0.00000000E+00  0.00000000E+00  0.00000000E+00
  0.00000000E+00  0.00000000E+00  0.00000000E+00
  0.00000000E+00  0.00000000E+00  0.00000000E+00
  0.00000000E+00  0.00000000E+00  0.00000000E+00
  0.00000000E+00  0.00000000E+00  0.00000000E+00
  0.00000000E+00  0.00000000E+00  0.00000000E+00
  0.00000000E+00  0.00000000E+00  0.00000000E+00
  0.00000000E+00  0.00000000E+00  0.00000000E+00
  0.00000000E+00  0.00000000E+00  0.00000000E+00
  0.00000000E+00  0.00000000E+00  0.00000000E+00
  0.00000000E+00  0.00000000E+00  0.00000000E+00
  0.00000000E+00  0.00000000E+00  0.00000000E+00
  0.00000000E+00  0.00000000E+00  0.00000000E+00
  0.00000000E+00  0.00000000E+00  0.00000000E+00
  0.00000000E+00  0.00000000E+00  0.00000000E+00
  0.00000000E+00  0.00000000E+00  0.00000000E+00
  0.00000000E+00  0.00000000E+00  0.00000000E+00
  0.00000000E+00  0.00000000E+00  0.00000000E+00
  0.00000000E+00  0.00000000E+00  0.00000000E+00
  0.00000000E+00  0.00000000E+00  0.00000000E+00
  0.00000000E+00  0.00000000E+00  0.00000000E+00
  0.00000000E+00  0.00000000E+00  0.00000000E+00
  0.00000000E+00  0.00000000E+00  0.00000000E+00
  0.00000000E+00  0.00000000E+00  0.00000000E+00
  0.00000000E+00  0.00000000E+00  0.00000000E+00
  0.00000000E+00  0.00000000E+00  0.00000000E+00
  0.00000000E+00  0.00000000E+00  0.00000000E+00
  0.00000000E+00  0.00000000E+00  0.00000000E+00
  0.00000000E+00  0.00000000E+00  0.00000000E+00
  0.00000000E+00  0.00000000E+00  0.00000000E+00
  0.00000000E+00  0.00000000E+00  0.00000000E+00
  0.00000000E+00  0.00000000E+00  0.00000000E+00
  0.00000000E+00  0.00000000E+00  0.00000000E+00
  0.00000000E+00  0.00000000E+00  0.00000000E+00
  0.00000000E+00  0.00000000E+00  0.00000000E+00
  0.00000000E+00  0.00000000E+00  0.00000000E+00
  0.00000000E+00  0.00000000E+00  0.00000000E+00
  0.00000000E+00  0.00000000E+00  0.00000000E+00
  0.00000000E+00  0.00000000E+00  0.00000000E+00
  0.00000000E+00  0.00000000E+00  0.00000000E+00
  0.00000000E+00  0.00000000E+00  0.00000000E+00
  0.00000000E+00  0.00000000E+00  0.00000000E+00
  0.00000000E+00  0.00000000E+00  0.00000000E+00
  0.00000000E+00  0.00000000E+00  0.00000000E+00
  0.00000000E+00  0.00000000E+00  0.00000000E+00
  0.00000000E+00  0.00000000E+00  0.00000000E+00
  0.00000000E+00  0.00000000E+00  0.00000000E+00
  0.00000000E+00  0.00000000E+00  0.00000000E+00
  0.00000000E+00  0.00000000E+00  0.00000000E+00
  0.00000000E+00  0.00000000E+00  0.00000000E+00
  0.00000000E+00  0.00000000E+00  0.00000000E+00
  0.00000000E+00  0.00000000E+00  0.00000000E+00
  0.00000000E+00  0.00000000E+00  0.00000000E+00
  0.00000000E+00  0.00000000E+00  0.00000000E+00
  0.00000000E+00  0.00000000E+00  0.00000000E+00
  0.00000000E+00  0.00000000E+00  0.00000000E+00
  0.00000000E+00  0.00000000E+00  0.00000000E+00
  0.00000000E+00  0.00000000E+00  0.00000000E+00
  0.00000000E+00  0.00000000E+00  0.00000000E+00
  0.00000000E+00  0.00000000E+00  0.00000000E+00
  0.00000000E+00  0.00000000E+00  0.00000000E+00
  0.00000000E+00  0.00000000E+00  0.00000000E+00
  0.00000000E+00  0.00000000E+00  0.00000000E+00
  0.00000000E+00  0.00000000E+00  0.00000000E+00
  0.00000000E+00  0.00000000E+00  0.00000000E+00
  0.00000000E+00  0.00000000E+00  0.00000000E+00
  0.00000000E+00  0.00000000E+00  0.00000000E+00
  0.00000000E+00  0.00000000E+00  0.00000000E+00
  0.00000000E+00  0.00000000E+00  0.00000000E+00
  0.00000000E+00  0.00000000E+00  0.00000000E+00
  0.00000000E+00  0.00000000E+00  0.00000000E+00
  0.00000000E+00  0.00000000E+00  0.00000000E+00
  0.00000000E+00  0.00000000E+00  0.00000000E+00
  0.00000000E+00  0.00000000E+00  0.00000000E+00
  0.00000000E+00  0.00000000E+00  0.00000000E+00
  0.00000000E+00  0.00000000E+00  0.00000000E+00
  0.00000000E+00  0.00000000E+00  0.00000000E+00
  0.00000000E+00  0.00000000E+00  0.00000000E+00
  0.00000000E+00  0.00000000E+00  0.00000000E+00
  0.00000000E+00  0.00000000E+00  0.00000000E+00
  0.00000000E+00  0.00000000E+00  0.00000000E+00
  0.00000000E+00  0.00000000E+00  0.00000000E+00
  0.00000000E+00  0.00000000E+00  0.00000000E+00
  0.00000000E+00  0.00000000E+00  0.00000000E+00
  0.00000000E+00  0.00000000E+00  0.00000000E+00
  0.00000000E+00  0.00000000E+00  0.00000000E+00
  0.00000000E+00  0.00000000E+00  0.00000000E+00
  0.00000000E+00  0.00000000E+00  0.00000000E+00
  0.00000000E+00  0.00000000E+00  0.00000000E+00
  0.00000000E+00  0.00000000E+00  0.00000000E+00
  0.00000000E+00  0.00000000E+00  0.00000000E+00
  0.00000000E+00  0.00000000E+00  0.00000000E+00
  0.00000000E+00  0.00000000E+00  0.00000000E+00
  0.00000000E+00  0.00000000E+00  0.00000000E+00
  0.00000000E+00  0.00000000E+00  0.00000000E+00
  0.00000000E+00  0.00000000E+00  0.00000000E+00
  0.00000000E+00  0.00000000E+00  0.00000000E+00
  0.00000000E+00  0.00000000E+00  0.00000000E+00
  0.00000000E+00  0.00000000E+00  0.00000000E+00
  0.00000000E+00  0.00000000E+00  0.00000000E+00
  0.00000000E+00  0.00000000E+00  0.00000000E+00
  0.00000000E+00  0.00000000E+00  0.00000000E+00
  0.00000000E+00  0.00000000E+00  0.00000000E+00
  0.00000000E+00  0.00000000E+00  0.00000000E+00
  0.00000000E+00  0.00000000E+00  0.00000000E+00
  0.00000000E+00  0.00000000E+00  0.00000000E+00
  0.00000000E+00  0.00000000E+00  0.00000000E+00
  0.00000000E+00  0.00000000E+00  0.00000000E+00
  0.00000000E+00  0.00000000E+00  0.00000000E+00
  0.00000000E+00  0.00000000E+00  0.00000000E+00
  0.00000000E+00  0.00000000E+00  0.00000000E+00
  0.00000000E+00  0.00000000E+00  0.00000000E+00
  0.00000000E+00  0.00000000E+00  0.00000000E+00
  0.00000000E+00  0.00000000E+00  0.00000000E+00
  0.00000000E+00  0.00000000E+00  0.00000000E+00
  0.00000000E+00  0.00000000E+00  0.00000000E+00
  0.00000000E+00  0.00000000E+00  0.00000000E+00
  0.00000000E+00  0.00000000E+00  0.00000000E+00
  0.00000000E+00  0.00000000E+00  0.00000000E+00
  0.00000000E+00  0.00000000E+00  0.00000000E+00
  0.00000000E+00  0.00000000E+00  0.00000000E+00
  0.00000000E+00  0.00000000E+00  0.00000000E+00
  0.00000000E+00  0.00000000E+00  0.00000000E+00
  0.00000000E+00  0.00000000E+00  0.00000000E+00
  0.00000000E+00  0.00000000E+00  0.00000000E+00
  0.00000000E+00  0.00000000E+00  0.00000000E+00
  0.00000000E+00  0.00000000E+00  0.00000000E+00
  0.00000000E+00  0.00000000E+00  0.00000000E+00
  0.00000000E+00  0.00000000E+00  0.00000000E+00
  0.00000000E+00  0.00000000E+00  0.00000000E+00
  0.00000000E+00  0.00000000E+00  0.00000000E+00
  0.00000000E+00  0.00000000E+00  0.00000000E+00
  0.00000000E+00  0.00000000E+00  0.00000000E+00
  0.00000000E+00  0.00000000E+00  0.00000000E+00
  0.00000000E+00  0.00000000E+00  0.00000000E+00
  0.00000000E+00  0.00000000E+00  0.00000000E+00
  0.00000000E+00  0.00000000E+00  0.00000000E+00
  0.00000000E+00  0.00000000E+00  0.00000000E+00
  0.00000000E+00  0.00000000E+00  0.00000000E+00
  0.00000000E+00  0.00000000E+00  0.00000000E+00
  0.00000000E+00  0.00000000E+00  0.00000000E+00
  0.00000000E+00  0.00000000E+00  0.00000000E+00
  0.00000000E+00  0.00000000E+00  0.00000000E+00
  0.00000000E+00  0.00000000E+00  0.00000000E+00
  0.00000000E+00  0.00000000E+00  0.00000000E+00
  0.00000000E+00  0.00000000E+00  0.00000000E+00
  0.00000000E+00  0.00000000E+00  0.00000000E+00
  0.00000000E+00  0.00000000E+00  0.00000000E+00
  0.00000000E+00  0.00000000E+00  0.00000000E+00