Species order: X N B                    
   2.51242800000000     
     5.9449720136058266    0.0000000000000000    0.0000000000000000
    -2.9724860068029120    5.1484967885702053   -0.0000000000000001
     0.0000000000000000    0.0000000000000009    5.3101128803662583
   Si   N    B 
     1   144   143
Direct
  0.4444444444444429  0.3888888888888857  0.3750000000000000
  0.1111002081593183  0.0555516734439221  0.1251420884987069
  0.6111075206487478  0.5555647144178073  0.1250563872531529
  0.4444514652845999  0.0555516734439221  0.1251420884987069
  0.9444425108475152  0.5555553534368656  0.1250168004786729
  0.7777777777777786  0.0555555555555571  0.1249247942846630
  0.1111111111111143  0.7222222222222214  0.6250219185287919
  0.4444514652845999  0.7222331251740205  0.6248579115012900
  0.2777686189155305  0.2222258126845958  0.6249436127468428
  0.7777816598894134  0.7222331251740205  0.6248579115012900
  0.6111219995169902  0.2222113338163451  0.6248483168421554
  0.9444303803984699  0.2222178804610752  0.6250323222262261
  0.2777779798964745  0.7222204907439833  0.1250168004786729
  0.1110893342993627  0.2222113338163451  0.1251516831578344
  0.4444571937690596  0.2222258126845958  0.1250563872531529
  0.6111219995169902  0.7222439990339693  0.1251516831578344
  0.9444425108475152  0.7222204907439833  0.1250168004786729
  0.7777875000626009  0.2222178804610752  0.1249676777737729
  0.1111128425893555  0.8888908224858134  0.6249831995213220
  0.4444498110090344  0.8888915721711828  0.6250080409750985
  0.2777686189155305  0.3888761395642690  0.6249436127468428
  0.6111075206487478  0.3888761395642690  0.6249436127468428
  0.7777875000626009  0.8889029529348587  0.6250323222262261
  0.9444417611621458  0.3888835223242942  0.6250080409750985
  0.1111002081593183  0.3888818680487287  0.1251420884987069
  0.2777779798964745  0.8888908224858134  0.1250168004786729
  0.6111154528722617  0.8889029529348587  0.1249676777737729
  0.4444444444444429  0.3888888888888857  0.1229308681121525
  0.9444417611621458  0.8888915721711828  0.1249919590248968
  0.7777816598894134  0.3888818680487287  0.1251420884987069
  0.2777797115779223  0.5555536217554193  0.6248131264623283
  0.1111002081593182  0.0555516734439221  0.6248579115012900
  0.6111075206487478  0.5555647144178073  0.6249436127468428
  0.4444514652845999  0.0555516734439221  0.6248579115012900
  0.9444425108475152  0.5555553534368656  0.6249831995213220
  0.1111128425893555  0.5555553534368656  0.1250168004786729
  0.7777777777777786  0.0555555555555571  0.6250752057153456
  0.2777797115779223  0.0555594231558444  0.1251868735376775
  0.4444571937690596  0.5555647144178073  0.1250563872531529
  0.7777739101774912  0.5555536217554193  0.1251868735376775
  0.6111154528722617  0.0555458332707360  0.1249676777737729
  0.4444571937690596  0.5555647144178073  0.6249436127468428
  0.9444303803984699  0.0555458332707360  0.1249676777737729
  0.2777779798964745  0.7222204907439833  0.6249831995213220
  0.1110893342993627  0.2222113338163451  0.6248483168421554
  0.4444571937690596  0.2222258126845958  0.6249436127468428
  0.6111219995169902  0.7222439990339693  0.6248483168421554
  0.9444425108475152  0.7222204907439833  0.6249831995213220
  0.7777875000626009  0.2222178804610752  0.6250323222262261
  0.1111111111111143  0.7222222222222214  0.1249780814712245
  0.4444514652845999  0.7222331251740205  0.1251420884987069
  0.2777686189155305  0.2222258126845958  0.1250563872531529
  0.7777816598894134  0.7222331251740205  0.1251420884987069
  0.6111219995169902  0.2222113338163451  0.1251516831578344
  0.9444303803984699  0.2222178804610752  0.1249676777737729
  0.1111002081593183  0.3888818680487287  0.6248579115012900
  0.2777779798964745  0.8888908224858134  0.6249831995213220
  0.6111154528722617  0.8889029529348587  0.6250323222262261
  0.4444444444444429  0.3888888888888857  0.6270691318878421
  0.9444417611621458  0.8888915721711828  0.6250080409750985
  0.1111128425893555  0.8888908224858134  0.1250168004786729
  0.7777816598894134  0.3888818680487287  0.6248579115012900
  0.4444498110090344  0.8888915721711828  0.1249919590248968
  0.2777686189155305  0.3888761395642690  0.1250563872531529
  0.2777797115779223  0.5555536217554193  0.1251868735376775
  0.6111075206487478  0.3888761395642690  0.1250563872531529
  0.7777875000626009  0.8889029529348587  0.1249676777737729
  0.9444417611621458  0.3888835223242942  0.1249919590248968
  0.1111128425893555  0.5555553534368656  0.6249831995213220
  0.2777797115779223  0.0555594231558444  0.6248131264623283
  0.7777739101774912  0.5555536217554193  0.6248131264623283
  0.6111154528722617  0.0555458332707361  0.6250323222262261
  0.9444303803984699  0.0555458332707361  0.6250323222262261
  0.0548142568394476  0.1105960760621380  0.3750000000000000
  0.5559505202088754  0.6119010404177695  0.3750000000000000
  0.3878866009694125  0.1065118807672246  0.3750000000000000
  0.8905769420790182  0.6119551377061925  0.3750000000000000
  0.7223532037487672  0.1109801295845589  0.3750000000000000
  0.0555561098818115  0.7777772234515206  0.8750000000000000
  0.3888896379424054  0.7777766242051499  0.8750000000000000
  0.2222317603634962  0.2777825468484167  0.8750000000000000
  0.7222216237909810  0.7777718707911753  0.8750000000000000
  0.5555507864849137  0.2777825468484167  0.8750000000000000
  0.8888904608646754  0.2777809217293425  0.8750000000000000
  0.2218898691032931  0.7776116012183192  0.3750000000000000
  0.0548142568394476  0.2775515141106487  0.3750000000000000
  0.3812666324244741  0.2625332648489493  0.3750000000000000
  0.5557818192226941  0.7785190764938954  0.3750000000000000
  0.8901543350208696  0.7787766178642275  0.3750000000000000
  0.7227372572711976  0.2775515141106487  0.3750000000000000
  0.0555567091281978  0.9444463470706003  0.8750000000000000
  0.3888896379424054  0.9444463470706003  0.8750000000000000
  0.2222246690916531  0.4444437286690455  0.8750000000000000
  0.5555595439640825  0.4444464386487055  0.8750000000000000
  0.7222220387669677  0.9444440775339407  0.8750000000000000
  0.8888869862627283  0.4444436953909232  0.8750000000000000
  0.0545567154691076  0.4447110504899896  0.3750000000000000
  0.2213781956271532  0.9427563912543104  0.3750000000000000
  0.5557544054955541  0.9445438694144344  0.3750000000000000
  0.3812666324244741  0.4520667009088545  0.3750000000000000
  0.8887894639188942  0.9445438694144344  0.3750000000000000
  0.7268214525661065  0.4454467323639161  0.3750000000000000
  0.2222221565699173  0.6111111767634262  0.8750000000000000
  0.0555614625421452  0.1111117095423508  0.8750000000000000
  0.5555507864849137  0.6111015729698379  0.8750000000000000
  0.3888896046642831  0.1111142737559350  0.8750000000000000
  0.8888890201935004  0.6111111767634262  0.8750000000000000
  0.0557217321150234  0.6114434642300450  0.3750000000000000
  0.7222220387669677  0.1111112945663635  0.8750000000000000
  0.2186252797978099  0.1065118807672246  0.3750000000000000
  0.3878866009694125  0.6147080535355396  0.3750000000000000
  0.7268214525661069  0.6147080535355396  0.3750000000000000
  0.5557818192226941  0.1105960760621380  0.3750000000000000
  0.3888896046642831  0.6111086642416720  0.8750000000000000
  0.8886269258357727  0.1109801295845589  0.3750000000000000
  0.2222211135697128  0.7777772234515206  0.8750000000000000
  0.0555614625421452  0.2777830863331264  0.8750000000000000
  0.3888868946846231  0.2777737893692571  0.8750000000000000
  0.5555502470002127  0.7777718707911753  0.8750000000000000
  0.8888869862627283  0.7777766242051499  0.8750000000000000
  0.7222216237909810  0.2777830863331264  0.8750000000000000
  0.0557217321150234  0.7776116012183192  0.3750000000000000
  0.3886222828433390  0.7787766178642275  0.3750000000000000
  0.2214322929155748  0.2773828131244510  0.3750000000000000
  0.7227372572711976  0.7785190764938954  0.3750000000000000
  0.5559505202088754  0.2773828131244510  0.3750000000000000
  0.8887894639188942  0.2775789278377854  0.3750000000000000
  0.0555567091281978  0.4444436953909232  0.8750000000000000
  0.2222221565699173  0.9444443131398282  0.8750000000000000
  0.5555524116039879  0.9444428724686532  0.8750000000000000
  0.3888868946846231  0.4444464386487055  0.8750000000000000
  0.8888904608646754  0.9444428724686532  0.8750000000000000
  0.0545567154691076  0.9431789983124590  0.3750000000000000
  0.7222190595773995  0.4444437286690455  0.8750000000000000
  0.3886222828433390  0.9431789983124590  0.3750000000000000
  0.2186252797978099  0.4454467323639161  0.3750000000000000
  0.2213781956271532  0.6119551377061925  0.3750000000000000
  0.5708000684843801  0.4520667009088545  0.3750000000000000
  0.7223532037487672  0.9447064074975559  0.3750000000000000
  0.8901543350208696  0.4447110504899896  0.3750000000000000
  0.0555561098818115  0.6111122197636206  0.8750000000000000
  0.2222246690916531  0.1111142737559350  0.8750000000000000
  0.7222190595773995  0.6111086642416720  0.8750000000000000
  0.5555502470002127  0.1111117095423508  0.8750000000000000
  0.8888892557993879  0.1111112945663635  0.8750000000000000
  0.1087118014107951  0.0532664553792578  0.3750000000000000
  0.6173764547042311  0.5609217390305495  0.3750000000000000
  0.4445546539684609  0.0532664553792578  0.3750000000000000
  0.9452042224103303  0.5558072602833515  0.3750000000000000
  0.7777777777777786  0.0555555555555571  0.3750000000000000
  0.1111111111111143  0.7222222222222214  0.8750000000000000
  0.4444434141065053  0.7222208198304991  0.8750000000000000
  0.2777654484681541  0.2222336778069537  0.8750000000000000
  0.7777774057240000  0.7222208198304991  0.8750000000000000
  0.6110961118919783  0.2222372214413504  0.8750000000000000
  0.9444356136601662  0.2222382404963916  0.8750000000000000
  0.2775260730499921  0.7227302954603271  0.3750000000000000
  0.1102938865594462  0.2218136099463861  0.3750000000000000
  0.4435452843263261  0.2159568786291080  0.3750000000000000
  0.6115197233869509  0.7230394467738893  0.3750000000000000
  0.9452042224103303  0.7227302954603271  0.3750000000000000
  0.7779003764429568  0.2219085922795162  0.3750000000000000
  0.1111369604399089  0.8889020067568160  0.8750000000000000
  0.4444671270397306  0.8889002301865215  0.8750000000000000
  0.2777654484681541  0.3888651039945227  0.8750000000000000
  0.6110996555263954  0.3888651039945227  0.8750000000000000
  0.7778026268362355  0.8888977196731624  0.8750000000000000
  0.9444331031468071  0.3888662062935980  0.8750000000000000
  0.1087118014107951  0.3887786793648677  0.3750000000000000
  0.2775260730499921  0.8881291109229983  0.3750000000000000
  0.6114247410538272  0.8893251174967794  0.3750000000000000
  0.9443092890116691  0.8890240443216595  0.3750000000000000
  0.7800668779540704  0.3887786793648677  0.3750000000000000
  0.2777655075295146  0.5555678258038242  0.8750000000000000
  0.1111125135028477  0.0555559276093510  0.8750000000000000
  0.6110996555263954  0.5555678848651826  0.8750000000000000
  0.4444434141065053  0.0555559276093510  0.8750000000000000
  0.9444313265765126  0.5555682870164228  0.8750000000000000
  0.1106030378730117  0.5558072602833515  0.3750000000000000
  0.7777777777777786  0.0555555555555571  0.8750000000000000
  0.2764574449019683  0.0529148898039294  0.3750000000000000
  0.4435452843263261  0.5609217390305495  0.3750000000000000
  0.7804184435293992  0.5568758884313725  0.3750000000000000
  0.6114247410538272  0.0554329568903763  0.3750000000000000
  0.4444682293388059  0.5555678848651826  0.8750000000000000
  0.9440082158365491  0.0554329568903763  0.3750000000000000
  0.2777650463169120  0.7221963728934199  0.8750000000000000
  0.1111411095493681  0.2222372214413504  0.8750000000000000
  0.4444682293388059  0.2222336778069537  0.8750000000000000
  0.6110961118919783  0.7221922237839701  0.8750000000000000
  0.9444313265765126  0.7221963728934199  0.8750000000000000
  0.7778026268362355  0.2222382404963916  0.8750000000000000
  0.1111111111111143  0.7222222222222214  0.3750000000000000
  0.4445546539684609  0.7246215319225402  0.3750000000000000
  0.2724115943027789  0.2159568786291080  0.3750000000000000
  0.7800668779540704  0.7246215319225402  0.3750000000000000
  0.6115197233869509  0.2218136099463861  0.3750000000000000
  0.9440082158365491  0.2219085922795162  0.3750000000000000
  0.1111125135028477  0.3888899192268233  0.8750000000000000
  0.2777650463169120  0.8889020067568160  0.8750000000000000
  0.6110950928369296  0.8888977196731624  0.8750000000000000
  0.4444444444444429  0.3888888888888857  0.8750000000000000
  0.9444331031468071  0.8889002301865215  0.8750000000000000
  0.1106030378730117  0.8881291109229983  0.3750000000000000
  0.7777774057240000  0.3888899192268233  0.8750000000000000
  0.4447147553100012  0.8890240443216595  0.3750000000000000
  0.2724115943027789  0.3897880490070025  0.3750000000000000
  0.2764574449019683  0.5568758884313727  0.3750000000000000
  0.6173764547042311  0.3897880490070025  0.3750000000000000
  0.7779003764429568  0.8893251174967794  0.3750000000000000
  0.9443092890116691  0.3886185780233274  0.3750000000000000
  0.1111369604399089  0.5555682870164228  0.8750000000000000
  0.2777655075295146  0.0555310150590206  0.8750000000000000
  0.7778023182743066  0.5555678258038242  0.8750000000000000
  0.6110950928369296  0.0555307064971006  0.8750000000000000
  0.9444356136601662  0.0555307064971006  0.8750000000000000
  0.0555552648809316  0.1110986712960189  0.1251030926289903
  0.5555627983732618  0.6111255967465102  0.1251667386276958
  0.3889098208460736  0.1111037092213416  0.1252115116767080
  0.8888745751209481  0.6111039542271369  0.1250814187828436
  0.7222385553271535  0.1110947780061910  0.1249895062196717
  0.0555670996505618  0.7777662336827620  0.6249872800711020
  0.3889109872807658  0.7777650179765980  0.6249389541150059
  0.2222077365868268  0.2777705349600806  0.6248332613723079
  0.7222346620373149  0.7777780684523998  0.6248969073710059
  0.5555627983732618  0.2777705349600806  0.6248332613723079
  0.8888843451954997  0.2777686903910169  0.6249962355817263
  0.2221991340322119  0.7777662336827620  0.1250127199288930
  0.0555552648809316  0.2777899269182455  0.1251030926289903
  0.3888905071194608  0.2777810142389353  0.1243623228907258
  0.5555434064150832  0.7777780684523998  0.1251030926289903
  0.8888540306958205  0.7777650179765980  0.1250610458849960
  0.7222346620373149  0.2777899269182455  0.1251030926289903
  0.0555683153567426  0.9444793026375081  0.6249389541150059
  0.3889109872807658  0.9444793026375081  0.6249389541150059
  0.2221938883752614  0.4444235124872550  0.6247884883232998
  0.5555523190944071  0.4444428262138678  0.6256376771092739
  0.7222385553271535  0.9444771106542917  0.6250104937803248
  0.8888540306958205  0.4444223460525628  0.6249389541150059
  0.0555683153567426  0.4444223460525628  0.1250610458849960
  0.2222293791061939  0.9444587582123805  0.1250814187828436
  0.5555646429423324  0.9444489881378288  0.1250037644182850
  0.3888905071194608  0.4444428262138678  0.1243623228907258
  0.8888843451954997  0.9444489881378288  0.1250037644182850
  0.7222296241119868  0.4444235124872550  0.1252115116767080
  0.2222293791061939  0.6111039542271369  0.6249185812171588
  0.0555552648809316  0.1110986712960189  0.6248969073710059
  0.5555627983732618  0.6111255967465102  0.6248332613723079
  0.3889098208460736  0.1111037092213416  0.6247884883232998
  0.8888745751209481  0.6111039542271369  0.6249185812171588
  0.0555670996505618  0.6111341993011313  0.1250127199288930
  0.7222385553271535  0.1110947780061910  0.6250104937803248
  0.2221938883752614  0.1111037092213416  0.1252115116767080
  0.3889098208460736  0.6111394449580816  0.1252115116767080
  0.7222296241119868  0.6111394449580816  0.1252115116767080
  0.5555434064150832  0.1110986712960189  0.1251030926289903
  0.3889098208460736  0.6111394449580816  0.6247884883232998
  0.8888562226790369  0.1110947780061910  0.1249895062196717
  0.2221991340322119  0.7777662336827620  0.6249872800711020
  0.0555552648809316  0.2777899269182455  0.6248969073710059
  0.3888905071194608  0.2777810142389353  0.6256376771092739
  0.5555434064150832  0.7777780684523998  0.6248969073710059
  0.8888540306958205  0.7777650179765980  0.6249389541150059
  0.7222346620373149  0.2777899269182455  0.6248969073710059
  0.0555670996505618  0.7777662336827620  0.1250127199288930
  0.3889109872807658  0.7777650179765980  0.1250610458849960
  0.2222077365868268  0.2777705349600806  0.1251667386276958
  0.7222346620373149  0.7777780684523998  0.1251030926289903
  0.5555627983732618  0.2777705349600806  0.1251667386276958
  0.8888843451954997  0.2777686903910169  0.1250037644182850
  0.0555683153567426  0.4444223460525628  0.6249389541150059
  0.2222293791061939  0.9444587582123805  0.6249185812171588
  0.5555646429423324  0.9444489881378288  0.6249962355817263
  0.3888905071194608  0.4444428262138678  0.6256376771092739
  0.8888843451954997  0.9444489881378288  0.6249962355817263
  0.0555683153567426  0.9444793026375081  0.1250610458849960
  0.7222296241119868  0.4444235124872550  0.6247884883232998
  0.3889109872807658  0.9444793026375081  0.1250610458849960
  0.2221938883752614  0.4444235124872550  0.1252115116767080
  0.2222293791061939  0.6111039542271369  0.1250814187828436
  0.5555523190944071  0.4444428262138678  0.1243623228907258
  0.7222385553271535  0.9444771106542917  0.1249895062196717
  0.8888540306958205  0.4444223460525628  0.1250610458849960
  0.0555670996505618  0.6111341993011313  0.6249872800711020
  0.2221938883752614  0.1111037092213416  0.6247884883232998
  0.7222296241119868  0.6111394449580816  0.6247884883232998
  0.5555434064150832  0.1110986712960189  0.6248969073710059
  0.8888562226790369  0.1110947780061910  0.6250104937803248
 
  0.00000000E+00  0.00000000E+00  0.00000000E+00
  0.00000000E+00  0.00000000E+00  0.00000000E+00
  0.00000000E+00  0.00000000E+00  0.00000000E+00
  0.00000000E+00  0.00000000E+00  0.00000000E+00
  0.00000000E+00  0.00000000E+00  0.00000000E+00
  0.00000000E+00  0.00000000E+00  0.00000000E+00
  0.00000000E+00  0.00000000E+00  0.00000000E+00
  0.00000000E+00  0.00000000E+00  0.00000000E+00
  0.00000000E+00  0.00000000E+00  0.00000000E+00
  0.00000000E+00  0.00000000E+00  0.00000000E+00
  0.00000000E+00  0.00000000E+00  0.00000000E+00
  0.00000000E+00  0.00000000E+00  0.00000000E+00
  0.00000000E+00  0.00000000E+00  0.00000000E+00
  0.00000000E+00  0.00000000E+00  0.00000000E+00
  0.00000000E+00  0.00000000E+00  0.00000000E+00
  0.00000000E+00  0.00000000E+00  0.00000000E+00
  0.00000000E+00  0.00000000E+00  0.00000000E+00
  0.00000000E+00  0.00000000E+00  0.00000000E+00
  0.00000000E+00  0.00000000E+00  0.00000000E+00
  0.00000000E+00  0.00000000E+00  0.00000000E+00
  0.00000000E+00  0.00000000E+00  0.00000000E+00
  0.00000000E+00  0.00000000E+00  0.00000000E+00
  0.00000000E+00  0.00000000E+00  0.00000000E+00
  0.00000000E+00  0.00000000E+00  0.00000000E+00
  0.00000000E+00  0.00000000E+00  0.00000000E+00
  0.00000000E+00  0.00000000E+00  0.00000000E+00
  0.00000000E+00  0.00000000E+00  0.00000000E+00
  0.00000000E+00  0.00000000E+00  0.00000000E+00
  0.00000000E+00  0.00000000E+00  0.00000000E+00
  0.00000000E+00  0.00000000E+00  0.00000000E+00
  0.00000000E+00  0.00000000E+00  0.00000000E+00
  0.00000000E+00  0.00000000E+00  0.00000000E+00
  0.00000000E+00  0.00000000E+00  0.00000000E+00
  0.00000000E+00  0.00000000E+00  0.00000000E+00
  0.00000000E+00  0.00000000E+00  0.00000000E+00
  0.00000000E+00  0.00000000E+00  0.00000000E+00
  0.00000000E+00  0.00000000E+00  0.00000000E+00
  0.00000000E+00  0.00000000E+00  0.00000000E+00
  0.00000000E+00  0.00000000E+00  0.00000000E+00
  0.00000000E+00  0.00000000E+00  0.00000000E+00
  0.00000000E+00  0.00000000E+00  0.00000000E+00
  0.00000000E+00  0.00000000E+00  0.00000000E+00
  0.00000000E+00  0.00000000E+00  0.00000000E+00
  0.00000000E+00  0.00000000E+00  0.00000000E+00
  0.00000000E+00  0.00000000E+00  0.00000000E+00
  0.00000000E+00  0.00000000E+00  0.00000000E+00
  0.00000000E+00  0.00000000E+00  0.00000000E+00
  0.00000000E+00  0.00000000E+00  0.00000000E+00
  0.00000000E+00  0.00000000E+00  0.00000000E+00
  0.00000000E+00  0.00000000E+00  0.00000000E+00
  0.00000000E+00  0.00000000E+00  0.00000000E+00
  0.00000000E+00  0.00000000E+00  0.00000000E+00
  0.00000000E+00  0.00000000E+00  0.00000000E+00
  0.00000000E+00  0.00000000E+00  0.00000000E+00
  0.00000000E+00  0.00000000E+00  0.00000000E+00
  0.00000000E+00  0.00000000E+00  0.00000000E+00
  0.00000000E+00  0.00000000E+00  0.00000000E+00
  0.00000000E+00  0.00000000E+00  0.00000000E+00
  0.00000000E+00  0.00000000E+00  0.00000000E+00
  0.00000000E+00  0.00000000E+00  0.00000000E+00
  0.00000000E+00  0.00000000E+00  0.00000000E+00
  0.00000000E+00  0.00000000E+00  0.00000000E+00
  0.00000000E+00  0.00000000E+00  0.00000000E+00
  0.00000000E+00  0.00000000E+00  0.00000000E+00
  0.00000000E+00  0.00000000E+00  0.00000000E+00
  0.00000000E+00  0.00000000E+00  0.00000000E+00
  0.00000000E+00  0.00000000E+00  0.00000000E+00
  0.00000000E+00  0.00000000E+00  0.00000000E+00
  0.00000000E+00  0.00000000E+00  0.00000000E+00
  0.00000000E+00  0.00000000E+00  0.00000000E+00
  0.00000000E+00  0.00000000E+00  0.00000000E+00
  0.00000000E+00  0.00000000E+00  0.00000000E+00
  0.00000000E+00  0.00000000E+00  0.00000000E+00
  0.00000000E+00  0.00000000E+00  0.00000000E+00
  0.00000000E+00  0.00000000E+00  0.00000000E+00
  0.00000000E+00  0.00000000E+00  0.00000000E+00
  0.00000000E+00  0.00000000E+00  0.00000000E+00
  0.00000000E+00  0.00000000E+00  0.00000000E+00
  0.00000000E+00  0.00000000E+00  0.00000000E+00
  0.00000000E+00  0.00000000E+00  0.00000000E+00
  0.00000000E+00  0.00000000E+00  0.00000000E+00
  0.00000000E+00  0.00000000E+00  0.00000000E+00
  0.00000000E+00  0.00000000E+00  0.00000000E+00
  0.00000000E+00  0.00000000E+00  0.00000000E+00
  0.00000000E+00  0.00000000E+00  0.00000000E+00
  0.00000000E+00  0.00000000E+00  0.00000000E+00
  0.00000000E+00  0.00000000E+00  0.00000000E+00
  0.00000000E+00  0.00000000E+00  0.00000000E+00
  0.00000000E+00  0.00000000E+00  0.00000000E+00
  0.00000000E+00  0.00000000E+00  0.00000000E+00
  0.00000000E+00  0.00000000E+00  0.00000000E+00
  0.00000000E+00  0.00000000E+00  0.00000000E+00
  0.00000000E+00  0.00000000E+00  0.00000000E+00
  0.00000000E+00  0.00000000E+00  0.00000000E+00
  0.00000000E+00  0.00000000E+00  0.00000000E+00
  0.00000000E+00  0.00000000E+00  0.00000000E+00
  0.00000000E+00  0.00000000E+00  0.00000000E+00
  0.00000000E+00  0.00000000E+00  0.00000000E+00
  0.00000000E+00  0.00000000E+00  0.00000000E+00
  0.00000000E+00  0.00000000E+00  0.00000000E+00
  0.00000000E+00  0.00000000E+00  0.00000000E+00
  0.00000000E+00  0.00000000E+00  0.00000000E+00
  0.00000000E+00  0.00000000E+00  0.00000000E+00
  0.00000000E+00  0.00000000E+00  0.00000000E+00
  0.00000000E+00  0.00000000E+00  0.00000000E+00
  0.00000000E+00  0.00000000E+00  0.00000000E+00
  0.00000000E+00  0.00000000E+00  0.00000000E+00
  0.00000000E+00  0.00000000E+00  0.00000000E+00
  0.00000000E+00  0.00000000E+00  0.00000000E+00
  0.00000000E+00  0.00000000E+00  0.00000000E+00
  0.00000000E+00  0.00000000E+00  0.00000000E+00
  0.00000000E+00  0.00000000E+00  0.00000000E+00
  0.00000000E+00  0.00000000E+00  0.00000000E+00
  0.00000000E+00  0.00000000E+00  0.00000000E+00
  0.00000000E+00  0.00000000E+00  0.00000000E+00
  0.00000000E+00  0.00000000E+00  0.00000000E+00
  0.00000000E+00  0.00000000E+00  0.00000000E+00
  0.00000000E+00  0.00000000E+00  0.00000000E+00
  0.00000000E+00  0.00000000E+00  0.00000000E+00
  0.00000000E+00  0.00000000E+00  0.00000000E+00
  0.00000000E+00  0.00000000E+00  0.00000000E+00
  0.00000000E+00  0.00000000E+00  0.00000000E+00
  0.00000000E+00  0.00000000E+00  0.00000000E+00
  0.00000000E+00  0.00000000E+00  0.00000000E+00
  0.00000000E+00  0.00000000E+00  0.00000000E+00
  0.00000000E+00  0.00000000E+00  0.00000000E+00
  0.00000000E+00  0.00000000E+00  0.00000000E+00
  0.00000000E+00  0.00000000E+00  0.00000000E+00
  0.00000000E+00  0.00000000E+00  0.00000000E+00
  0.00000000E+00  0.00000000E+00  0.00000000E+00
  0.00000000E+00  0.00000000E+00  0.00000000E+00
  0.00000000E+00  0.00000000E+00  0.00000000E+00
  0.00000000E+00  0.00000000E+00  0.00000000E+00
  0.00000000E+00  0.00000000E+00  0.00000000E+00
  0.00000000E+00  0.00000000E+00  0.00000000E+00
  0.00000000E+00  0.00000000E+00  0.00000000E+00
  0.00000000E+00  0.00000000E+00  0.00000000E+00
  0.00000000E+00  0.00000000E+00  0.00000000E+00
  0.00000000E+00  0.00000000E+00  0.00000000E+00
  0.00000000E+00  0.00000000E+00  0.00000000E+00
  0.00000000E+00  0.00000000E+00  0.00000000E+00
  0.00000000E+00  0.00000000E+00  0.00000000E+00
  0.00000000E+00  0.00000000E+00  0.00000000E+00
  0.00000000E+00  0.00000000E+00  0.00000000E+00
  0.00000000E+00  0.00000000E+00  0.00000000E+00
  0.00000000E+00  0.00000000E+00  0.00000000E+00
  0.00000000E+00  0.00000000E+00  0.00000000E+00
  0.00000000E+00  0.00000000E+00  0.00000000E+00
  0.00000000E+00  0.00000000E+00  0.00000000E+00
  0.00000000E+00  0.00000000E+00  0.00000000E+00
  0.00000000E+00  0.00000000E+00  0.00000000E+00
  0.00000000E+00  0.00000000E+00  0.00000000E+00
  0.00000000E+00  0.00000000E+00  0.00000000E+00
  0.00000000E+00  0.00000000E+00  0.00000000E+00
  0.00000000E+00  0.00000000E+00  0.00000000E+00
  0.00000000E+00  0.00000000E+00  0.00000000E+00
  0.00000000E+00  0.00000000E+00  0.00000000E+00
  0.00000000E+00  0.00000000E+00  0.00000000E+00
  0.00000000E+00  0.00000000E+00  0.00000000E+00
  0.00000000E+00  0.00000000E+00  0.00000000E+00
  0.00000000E+00  0.00000000E+00  0.00000000E+00
  0.00000000E+00  0.00000000E+00  0.00000000E+00
  0.00000000E+00  0.00000000E+00  0.00000000E+00
  0.00000000E+00  0.00000000E+00  0.00000000E+00
  0.00000000E+00  0.00000000E+00  0.00000000E+00
  0.00000000E+00  0.00000000E+00  0.00000000E+00
  0.00000000E+00  0.00000000E+00  0.00000000E+00
  0.00000000E+00  0.00000000E+00  0.00000000E+00
  0.00000000E+00  0.00000000E+00  0.00000000E+00
  0.00000000E+00  0.00000000E+00  0.00000000E+00
  0.00000000E+00  0.00000000E+00  0.00000000E+00
  0.00000000E+00  0.00000000E+00  0.00000000E+00
  0.00000000E+00  0.00000000E+00  0.00000000E+00
  0.00000000E+00  0.00000000E+00  0.00000000E+00
  0.00000000E+00  0.00000000E+00  0.00000000E+00
  0.00000000E+00  0.00000000E+00  0.00000000E+00
  0.00000000E+00  0.00000000E+00  0.00000000E+00
  0.00000000E+00  0.00000000E+00  0.00000000E+00
  0.00000000E+00  0.00000000E+00  0.00000000E+00
  0.00000000E+00  0.00000000E+00  0.00000000E+00
  0.00000000E+00  0.00000000E+00  0.00000000E+00
  0.00000000E+00  0.00000000E+00  0.00000000E+00
  0.00000000E+00  0.00000000E+00  0.00000000E+00
  0.00000000E+00  0.00000000E+00  0.00000000E+00
  0.00000000E+00  0.00000000E+00  0.00000000E+00
  0.00000000E+00  0.00000000E+00  0.00000000E+00
  0.00000000E+00  0.00000000E+00  0.00000000E+00
  0.00000000E+00  0.00000000E+00  0.00000000E+00
  0.00000000E+00  0.00000000E+00  0.00000000E+00
  0.00000000E+00  0.00000000E+00  0.00000000E+00
  0.00000000E+00  0.00000000E+00  0.00000000E+00
  0.00000000E+00  0.00000000E+00  0.00000000E+00
  0.00000000E+00  0.00000000E+00  0.00000000E+00
  0.00000000E+00  0.00000000E+00  0.00000000E+00
  0.00000000E+00  0.00000000E+00  0.00000000E+00
  0.00000000E+00  0.00000000E+00  0.00000000E+00
  0.00000000E+00  0.00000000E+00  0.00000000E+00
  0.00000000E+00  0.00000000E+00  0.00000000E+00
  0.00000000E+00  0.00000000E+00  0.00000000E+00
  0.00000000E+00  0.00000000E+00  0.00000000E+00
  0.00000000E+00  0.00000000E+00  0.00000000E+00
  0.00000000E+00  0.00000000E+00  0.00000000E+00
  0.00000000E+00  0.00000000E+00  0.00000000E+00
  0.00000000E+00  0.00000000E+00  0.00000000E+00
  0.00000000E+00  0.00000000E+00  0.00000000E+00
  0.00000000E+00  0.00000000E+00  0.00000000E+00
  0.00000000E+00  0.00000000E+00  0.00000000E+00
  0.00000000E+00  0.00000000E+00  0.00000000E+00
  0.00000000E+00  0.00000000E+00  0.00000000E+00
  0.00000000E+00  0.00000000E+00  0.00000000E+00
  0.00000000E+00  0.00000000E+00  0.00000000E+00
  0.00000000E+00  0.00000000E+00  0.00000000E+00
  0.00000000E+00  0.00000000E+00  0.00000000E+00
  0.00000000E+00  0.00000000E+00  0.00000000E+00
  0.00000000E+00  0.00000000E+00  0.00000000E+00
  0.00000000E+00  0.00000000E+00  0.00000000E+00
  0.00000000E+00  0.00000000E+00  0.00000000E+00
  0.00000000E+00  0.00000000E+00  0.00000000E+00
  0.00000000E+00  0.00000000E+00  0.00000000E+00
  0.00000000E+00  0.00000000E+00  0.00000000E+00
  0.00000000E+00  0.00000000E+00  0.00000000E+00
  0.00000000E+00  0.00000000E+00  0.00000000E+00
  0.00000000E+00  0.00000000E+00  0.00000000E+00
  0.00000000E+00  0.00000000E+00  0.00000000E+00
  0.00000000E+00  0.00000000E+00  0.00000000E+00
  0.00000000E+00  0.00000000E+00  0.00000000E+00
  0.00000000E+00  0.00000000E+00  0.00000000E+00
  0.00000000E+00  0.00000000E+00  0.00000000E+00
  0.00000000E+00  0.00000000E+00  0.00000000E+00
  0.00000000E+00  0.00000000E+00  0.00000000E+00
  0.00000000E+00  0.00000000E+00  0.00000000E+00
  0.00000000E+00  0.00000000E+00  0.00000000E+00
  0.00000000E+00  0.00000000E+00  0.00000000E+00
  0.00000000E+00  0.00000000E+00  0.00000000E+00
  0.00000000E+00  0.00000000E+00  0.00000000E+00
  0.00000000E+00  0.00000000E+00  0.00000000E+00
  0.00000000E+00  0.00000000E+00  0.00000000E+00
  0.00000000E+00  0.00000000E+00  0.00000000E+00
  0.00000000E+00  0.00000000E+00  0.00000000E+00
  0.00000000E+00  0.00000000E+00  0.00000000E+00
  0.00000000E+00  0.00000000E+00  0.00000000E+00
  0.00000000E+00  0.00000000E+00  0.00000000E+00
  0.00000000E+00  0.00000000E+00  0.00000000E+00
  0.00000000E+00  0.00000000E+00  0.00000000E+00
  0.00000000E+00  0.00000000E+00  0.00000000E+00
  0.00000000E+00  0.00000000E+00  0.00000000E+00
  0.00000000E+00  0.00000000E+00  0.00000000E+00