 N C B 
 1.0
 14.936314146199660   0.000000000000000   0.000000000000000
 -7.468157073099825  12.935227489513863   0.000000000000000
  0.000000000000001   0.000000000000001  13.341276283792837
 N C B 
 142   2 142
Cartesian
  1.243672078786001   0.718763767592763   1.668624944998969 
  4.978688206007366   7.185802275735930   1.660500290567307 
  6.222218136221488   0.719336958636858   1.669154969733119 
  9.957298236039064   7.186663735002685   1.664492929584832 
 11.200955038851580   0.718755993314544   1.670362643093703 
 -3.734643939278122   9.342419688562837   8.338069706473757 
  1.244046975173631   9.341635748169745   8.337156995002006 
  2.488626407140721   2.874501070205334   8.336225448136371 
  6.223275017238807   9.342437018651966   8.339155930048632 
  7.466909577186378   2.875569001528663   8.341108557306974 
 12.446444255995100   2.874509840440965   8.336969578594267 
 -1.245371422947827   9.342123468534989   1.668112186506256 
 -0.000649394232852   2.874279084089990   1.668929257822678 
  4.978072924449773   2.875465115858991   1.670458318106985 
  3.733672888624008   9.341379472455293   1.668535872268920 
  8.712581548233629   9.343040610010105   1.666450364551122 
  9.957021661069133   2.875070113522282   1.667437606035246 
 -4.979523143274836  11.498570871010390   8.337386869085094 
 -0.001089668909505  11.498204109304373   8.337438673170489 
  1.244636411593631   5.030030310085295   8.335781599287973 
  6.224165598865565   5.031594482572213   8.342218157550152 
  4.977792313890946  11.497746226242144   8.335846961375378 
 11.202415256602764   5.030559584683773   8.339468084379206 
 -1.244885484268992   5.030239421883129   1.669102265828788 
 -2.490306576867511  11.498396654505852   1.668226478829489 
  2.488211740493712  11.497801725736990   1.669321164349939 
  3.734143028441314   5.030166552669889   1.666346429390745 
  7.467413662544874  11.498423921700162   1.668756852749146 
  8.714100800531240   5.029994515502399   1.647857750068872 
 -0.000363626766078   7.185873054161270   8.337056278357199 
  1.243672078786001   0.718763767592764   8.337332267845659 
  4.978688206007367   7.185802275735931   8.345456922277320 
  6.222218136221489   0.719336958636858   8.336802243111508 
  9.957298236039064   7.186663735002686   8.341464283259796 
 -2.489800958781828   7.186329896167880   1.668088086705986 
 11.200955038851580   0.718755993314545   8.335594569750926 
  3.733133848972265   0.719186156625986   1.669418556950014 
  2.489258556125259   7.185394972212900   1.668569474800919 
  7.467887963960279   7.188498461871492   1.647712811605416 
  8.711413119310576   0.719337469144949   1.669291990016581 
  2.489258556125260   7.185394972212901   8.337387738043722 
 13.690578154719407   0.718546035555328   1.668907926598579 
 -1.245371422947827   9.342123468534989   8.337845026338373 
 -0.000649394232852   2.874279084089991   8.337027955021950 
  4.978072924449774   2.875465115858992   8.335498894737642 
  3.733672888624009   9.341379472455293   8.337421340575707 
  8.712581548233629   9.343040610010105   8.339506848293519 
  9.957021661069133   2.875070113522283   8.338519606809381 
 -3.734643939278122   9.342419688562837   1.667887506370858 
  1.244046975173631   9.341635748169745   1.668800217842635 
  2.488626407140721   2.874501070205333   1.669731764708269 
  6.223275017238806   9.342437018651966   1.666801282795995 
  7.466909577186377   2.875569001528662   1.664848655537640 
 12.446444255995100   2.874509840440965   1.668987634250267 
 -1.244885484268991   5.030239421883130   8.336854947015841 
 -2.490306576867511  11.498396654505852   8.337730734015151 
  2.488211740493713  11.497801725736990   8.336636048494675 
  3.734143028441315   5.030166552669890   8.339610783453882 
  7.467413662544875  11.498423921700162   8.337200360095467 
 -4.979523143274837  11.498570871010390   1.668570343759521 
  8.714100800531240   5.029994515502400   8.358099462775757 
 -0.001089668909505  11.498204109304373   1.668518539674138 
  1.244636411593630   5.030030310085294   1.670175613556655 
 -0.000363626766078   7.185873054161269   1.668900934487429 
  6.224165598865564   5.031594482572213   1.663739055294476 
  4.977792313890945  11.497746226242144   1.670110251469250 
 11.202415256602764   5.030559584683772   1.666489128465423 
 -2.489800958781827   7.186329896167881   8.337869126138548 
  3.733133848972265   0.719186156625987   8.336538655894627 
  7.467887963960280   7.188498461871493   8.358244401239212 
  8.711413119310576   0.719337469144949   8.336665222828048 
 13.690578154719407   0.718546035555329   8.337049286246037 
 -0.065429328590966   1.401338978838679   5.002978606422314 
  3.878624321016594   7.737477463171708   5.002978606422314 
  4.926450721208103   1.493134640984213   5.002978606422314 
  8.818358294415702   7.903653458778056   5.002978606422314 
  9.878761371483597   1.547786242067307   5.002978606422314 
 -4.978642131227613  10.060941864837210  11.673616748318732 
  0.000123147053660  10.060947630103712  11.673616748318732 
  1.244794206119733   3.593320516425405  11.673616748318732 
  4.978712610375005  10.060963963778672  11.673616748318732 
  6.223601457984081   3.593221678125338  11.673616748318732 
 11.202296892273859   3.593262205083278  11.673616748318732 
 -2.418063301521931  10.110718762120934   5.002978606422314 
 -1.304626320363099   3.591178556474421   5.002978606422314 
  3.568536005493396   3.530958351991949   5.002978606422314 
  2.555493917554355  10.022880520151643   5.002978606422314 
  7.488551717015733   9.991893062549135   5.002978606422314 
  8.558068192051660   3.850634463375521   5.002978606422314 
 -6.223421857670114  12.216808253982208  11.673616748318732 
 -1.244515152726295  12.216755319413741  11.673616748318732 
  0.000134008906508   5.749191346988125  11.673616748318732 
  4.978816856352257   5.749227215584115  11.673616748318732 
  3.734085168142104  12.216748239268803  11.673616748318732 
  9.957722282907913   5.749183786730566  11.673616748318732 
 -2.456060757606839   5.779796933697340   5.002978606422314 
 -3.728901779880212  12.234624683193584   5.002978606422314 
  1.240601214805181  12.293683114357286   5.002978606422314 
  2.570968477521766   5.629022510730529   5.002978606422314 
  6.197377978927848  12.171891133398736   5.002978606422314 
 -1.244527084439749   7.905054050790666  11.673616748318732 
  0.000036786089412   1.437388362753850  11.673616748318732 
  3.734015591955858   7.905151410538013  11.673616748318732 
  4.978974881889620   1.437394593151277  11.673616748318732 
  8.713019096210633   7.905056759557366  11.673616748318732 
 -3.621732192397363   7.964215767698030   5.002978606422314 
  9.957586501195692   1.437269000903469  11.673616748318732 
  2.419265413488554   1.391857530566934   5.002978606422314 
  1.349593015258564   7.856323261111601   5.002978606422314 
  6.376053170399241   7.679245246123314   5.002978606422314 
  7.372565794626253   1.648399597391019   5.002978606422314 
  1.244801656004984   7.905095595725151  11.673616748318732 
 12.385899264688755   1.443697146433196   5.002978606422314 
 -2.489194821279219  10.060950470307366  11.673616748318732 
 -1.244633548844998   3.593283929824958  11.673616748318732 
  3.734231027416464   3.593335107744986  11.673616748318732 
  2.489373309538050  10.060965163923552  11.673616748318732 
  7.468189040512699  10.060947815287818  11.673616748318732 
  8.712936937525974   3.593044142236701  11.673616748318732 
 -4.932192906516658  10.068965846714850   5.002978606422314 
  0.070022045950407  10.085815450623718   5.002978606422314 
  1.156901881851429   3.550095884697072   5.002978606422314 
  5.035993008106205   9.956026041472192   5.002978606422314 
  5.876279981183714   3.952191370675682   5.002978606422314 
 11.134080163951273   3.648459764760720   5.002978606422314 
 -2.489283761500949   5.749193550265344  11.673616748318732 
 -3.733933615494040  12.216819298277970  11.673616748318732 
  1.244745069427070  12.216705912107699  11.673616748318732 
  2.489515076136020   5.749261387970907  11.673616748318732 
  6.223486583143108  12.216774796606662  11.673616748318732 
 -6.249926821674197  12.174471376274251   5.002978606422314 
  7.468219392403838   5.749138974226168  11.673616748318732 
 -1.223247547413539  12.294706493095358   5.002978606422314 
  0.037439385560959   5.734583080637115   5.002978606422314 
 -1.152488318429829   7.926219895903412   5.002978606422314 
  3.722538516135781  12.216708986479095   5.002978606422314 
 10.002280457105273   5.842010833772385   5.002978606422314 
 -3.733886102598210   7.905057928602945  11.673616748318732 
  2.489478506051879   1.437431237530332  11.673616748318732 
  6.223333470059234   7.905141489304432  11.673616748318732 
  7.468297979414710   1.437205617246618  11.673616748318732 
 12.446972448182851   1.437360365188954  11.673616748318732 
  3.694738587476642   4.855214125369525   5.002978606422314 
  5.108991927491465   5.234682525309500   5.002978606422314 
  1.177014635978130   0.666212955997366   5.002978606422314 
  5.175856566840623   6.946304820639083   5.002978606422314 
  6.203175977585854   0.814706933145932   5.002978606422314 
 10.075567273057075   7.254171614455935   5.002978606422314 
 11.130593427470799   0.753840459573371   5.002978606422314 
 -3.734263058955765   9.341826216808986  11.673616748318732 
  1.244736373092872   9.342616992409219  11.673616748318732 
  2.489578048992684   2.874554454056953  11.673616748318732 
  6.223796349904809   9.341898916778446  11.673616748318732 
  7.468961280631394   2.874957883729038  11.673616748318732 
 12.446239973987481   2.874832106458594  11.673616748318732 
 -1.175370850677433   9.372524280170513   5.002978606422314 
 -0.094844102249417   2.837488444095523   5.002978606422314 
  4.862173206139806   2.911546656069838   5.002978606422314 
  3.809936219227015   9.234528902895800   5.002978606422314 
  8.766072341296550   9.311309089686940   5.002978606422314 
  9.825958392597489   3.027912572738114   5.002978606422314 
 -4.978774577318764  11.497489671756984  11.673616748318732 
  0.000205100332594  11.498183111953647  11.673616748318732 
  1.244561023782213   5.030844725950684  11.673616748318732 
  6.224802202305823   5.031077353910590  11.673616748318732 
  4.978765497802633  11.497981709241365  11.673616748318732 
 11.201499791046286   5.030852699213888  11.673616748318732 
 -1.242887750936922   5.034072754459448   5.002978606422314 
 -2.455286335711359  11.546978698844560   5.002978606422314 
  2.488920927150038  11.503939398231633   5.002978606422314 
  7.447292229291937  11.433070580499553   5.002978606422314 
  8.594071561480344   5.391015297552049   5.002978606422314 
 -0.000283319189259   7.186747460916145  11.673616748318732 
  1.244526112586480   0.718300885667454  11.673616748318732 
  4.979616608465678   7.186840736242618  11.673616748318732 
  6.224139485351244   0.718696372954780  11.673616748318732 
  9.957240367742184   7.186135724415999  11.673616748318732 
 -2.409043727771606   7.218827776162855   5.002978606422314 
 11.202012782673901   0.718866338759924  11.673616748318732 
  3.696508344269405   0.724835741944518   5.002978606422314 
  2.600984895008846   7.112929639849006   5.002978606422314 
  7.720435084616303   6.920138319664168   5.002978606422314 
  8.637523393392135   0.847752217154053   5.002978606422314 
  2.489694937409837   7.187017401826902  11.673616748318732 
 13.624550465636087   0.685192180540744   5.002978606422314 
 -1.244806109851032   9.342270073350553  11.673616748318732 
 -0.000518263559907   2.874556123610866  11.673616748318732 
  4.979828343065750   2.874802754594745  11.673616748318732 
  3.734336767156888   9.342529072508674  11.673616748318732 
  8.712897933754844   9.341495796636847  11.673616748318732 
  9.957310884480622   2.875024832108775  11.673616748318732 
 -3.662198580295783   9.386941960930843   5.002978606422314 
  1.312393029489451   9.322887766811146   5.002978606422314 
  2.346293989821099   2.799135188758310   5.002978606422314 
  6.296848380799019   9.180330733793431   5.002978606422314 
  7.315123095826669   3.180114392399812   5.002978606422314 
 12.363431170993751   2.893094420635137   5.002978606422314 
 -1.245421774382733   5.030763003380248  11.673616748318732 
 -2.489186012998790  11.497830686088227  11.673616748318732 
  2.489436242059140  11.498303841371783  11.673616748318732 
  3.734928473669682   5.031034104501333  11.673616748318732 
  7.468117301845252  11.497514048923978  11.673616748318732 
 -4.972565663911011  11.492783930480696   5.002978606422314 
  8.712922907360420   5.030893748184005  11.673616748318732 
  0.023896811756917  11.546354623413501   5.002978606422314 
  1.237775595331201   4.971164166038446   5.002978606422314 
  0.073688773466186   7.179867995920788   5.002978606422314 
  4.971035417144338  11.434808131719723   5.002978606422314 
 11.195172931123357   5.092728065178762   5.002978606422314 
 -2.489949252293631   7.186445676064358  11.673616748318732 
  3.734453589078828   0.718424385521595  11.673616748318732 
  7.468652732150636   7.186140938900295  11.673616748318732 
  8.713076420119886   0.718912362510836  11.673616748318732 
 13.691263099252255   0.718523895183718  11.673616748318732 
 -0.001687872234071   1.436305224843052   1.666951288506907 
  3.736164097933337   7.904531395412477   1.664176852429273 
  4.978530739627991   1.437151645484420   1.666382274219506 
  8.712174860634407   7.903944013539548   1.667941646678163 
  9.956319588741101   1.439362225581402   1.669396619611229 
 -4.980118177883871  10.059469962974942   8.336577850847860 
 -0.001403444656793  10.060776100455485   8.337979721645167 
  1.242739560400313   3.592395537511578   8.341544916355154 
  4.979896789493758  10.059921258983998   8.337495989217285 
  6.225514633541836   3.596962811983777   8.341621281658094 
 11.200575273659069   3.594946357078517   8.337054522149117 
 -2.491348740804674  10.059959981224599   1.668246103652720 
 -1.246949276840581   3.593362864064175   1.667742523897614 
  3.734268211533105   3.593044586725537   1.660344410157756 
  2.489234906632190  10.060602289353602   1.668238352093021 
  7.468735588749030  10.059564501415942   1.668723210685612 
  8.713026158426839   3.597543598592818   1.663595653292112 
 -6.224491876539695  12.215266341426405   8.337920226128322 
 -1.245810624313866  12.216647103275660   8.337984699956154 
 -0.002340370022205   5.749270583433619   8.338983217034031 
  4.983138994711450   5.749723284750429   8.346225796713142 
  3.733224067835833  12.216777962416895   8.336484496049890 
  9.955599988934189   5.749715464159336   8.337968027920313 
 -2.492017257669175   5.749353287227623   1.669288867031914 
 -3.735289242569270  12.215435096625821   1.667759500920367 
  1.243606837741534  12.217569409100602   1.668878961147663 
  2.489432288209294   5.749276921385988   1.660270142279034 
  6.222851796091637  12.215809396355166   1.668559688224678 
  7.472263835128741   5.751914680460838   1.676137646849603 
 -1.247203091603977   7.904749922737929   8.337841825685103 
 -0.001687872234070   1.436305224843053   8.339005924337721 
  3.736164097933338   7.904531395412477   8.341780360415354 
  4.978530739627992   1.437151645484420   8.339574938625109 
  8.712174860634407   7.903944013539549   8.338015566166465 
 -3.736897406010147   7.903991610513470   1.669833939743181 
  9.956319588741101   1.439362225581403   8.336560593233411 
  2.488050890055700   1.435717203300281   1.665964599308356 
  1.243562883256244   7.905059963335585   1.666938074542981 
  6.227335082084094   7.904090293799491   1.661438453365514 
  7.467605837003770   1.439703497547037   1.667777050555221 
  1.243562883256229   7.905059963335586   8.339019138301646 
 12.445342469500508   1.437707914175051   1.668679297279783 
 -2.491348740804674  10.059959981224599   8.337711109191906 
 -1.246949276840580   3.593362864064176   8.338214688947014 
  3.734268211533105   3.593044586725537   8.345612802686858 
  2.489234906632191  10.060602289353602   8.337718860751714 
  7.468735588749031  10.059564501415942   8.337234002159029 
  8.713026158426839   3.597543598592819   8.342361559552502 
 -4.980118177883872  10.059469962974942   1.669379361996768 
 -0.001403444656794  10.060776100455485   1.667977491199461 
  1.242739560400313   3.592395537511577   1.664412296489486 
  4.979896789493757  10.059921258983998   1.668461223627344 
  6.225514633541835   3.596962811983776   1.664335931186534 
 11.200575273659069   3.594946357078516   1.668902690695510 
 -2.492017257669175   5.749353287227624   8.336668345812727 
 -3.735289242569269  12.215435096625821   8.338197711924261 
  1.243606837741534  12.217569409100602   8.337078251696965 
  2.489432288209294   5.749276921385989   8.345687070565592 
  6.222851796091637  12.215809396355166   8.337397524619950 
 -6.224491876539696  12.215266341426405   1.668036986716319 
  7.472263835128742   5.751914680460839   8.329819565995011 
 -1.245810624313867  12.216647103275660   1.667972512888474 
 -0.002340370022206   5.749270583433618   1.666973995810611 
 -1.247203091603978   7.904749922737928   1.668115387159525 
  4.983138994711449   5.749723284750428   1.659731416131500 
  3.733224067835833  12.216777962416895   1.669472716794724 
  9.955599988934189   5.749715464159335   1.667989184924328 
 -3.736897406010147   7.903991610513470   8.336123273101448 
  2.488050890055700   1.435717203300282   8.339992613536259 
  6.227335082084095   7.904090293799491   8.344518759479115 
  7.467605837003771   1.439703497547038   8.338180162289408 
 12.445342469500508   1.437707914175052   8.337277915564846 
Generated by cif2cell 2.0.0.  :  Failed to get author information, No journal information. Species order: N C B 
 1.0
 14.936314146199660   0.000000000000000   0.000000000000000
 -7.468157073099825  12.935227489513863   0.000000000000000
  0.000000000000001   0.000000000000001  13.341276283792837
 N C B 
 142   2 142
Cartesian
  1.243672078786001   0.718763767592763   1.668624944998969 
  4.978688206007366   7.185802275735930   1.660500290567307 
  6.222218136221488   0.719336958636858   1.669154969733119 
  9.957298236039064   7.186663735002685   1.664492929584832 
 11.200955038851580   0.718755993314544   1.670362643093703 
 -3.734643939278122   9.342419688562837   8.338069706473757 
  1.244046975173631   9.341635748169745   8.337156995002006 
  2.488626407140721   2.874501070205334   8.336225448136371 
  6.223275017238807   9.342437018651966   8.339155930048632 
  7.466909577186378   2.875569001528663   8.341108557306974 
 12.446444255995100   2.874509840440965   8.336969578594267 
 -1.245371422947827   9.342123468534989   1.668112186506256 
 -0.000649394232852   2.874279084089990   1.668929257822678 
  4.978072924449773   2.875465115858991   1.670458318106985 
  3.733672888624008   9.341379472455293   1.668535872268920 
  8.712581548233629   9.343040610010105   1.666450364551122 
  9.957021661069133   2.875070113522282   1.667437606035246 
 -4.979523143274836  11.498570871010390   8.337386869085094 
 -0.001089668909505  11.498204109304373   8.337438673170489 
  1.244636411593631   5.030030310085295   8.335781599287973 
  6.224165598865565   5.031594482572213   8.342218157550152 
  4.977792313890946  11.497746226242144   8.335846961375378 
 11.202415256602764   5.030559584683773   8.339468084379206 
 -1.244885484268992   5.030239421883129   1.669102265828788 
 -2.490306576867511  11.498396654505852   1.668226478829489 
  2.488211740493712  11.497801725736990   1.669321164349939 
  3.734143028441314   5.030166552669889   1.666346429390745 
  7.467413662544874  11.498423921700162   1.668756852749146 
  8.714100800531240   5.029994515502399   1.647857750068872 
 -0.000363626766078   7.185873054161270   8.337056278357199 
  1.243672078786001   0.718763767592764   8.337332267845659 
  4.978688206007367   7.185802275735931   8.345456922277320 
  6.222218136221489   0.719336958636858   8.336802243111508 
  9.957298236039064   7.186663735002686   8.341464283259796 
 -2.489800958781828   7.186329896167880   1.668088086705986 
 11.200955038851580   0.718755993314545   8.335594569750926 
  3.733133848972265   0.719186156625986   1.669418556950014 
  2.489258556125259   7.185394972212900   1.668569474800919 
  7.467887963960279   7.188498461871492   1.647712811605416 
  8.711413119310576   0.719337469144949   1.669291990016581 
  2.489258556125260   7.185394972212901   8.337387738043722 
 13.690578154719407   0.718546035555328   1.668907926598579 
 -1.245371422947827   9.342123468534989   8.337845026338373 
 -0.000649394232852   2.874279084089991   8.337027955021950 
  4.978072924449774   2.875465115858992   8.335498894737642 
  3.733672888624009   9.341379472455293   8.337421340575707 
  8.712581548233629   9.343040610010105   8.339506848293519 
  9.957021661069133   2.875070113522283   8.338519606809381 
 -3.734643939278122   9.342419688562837   1.667887506370858 
  1.244046975173631   9.341635748169745   1.668800217842635 
  2.488626407140721   2.874501070205333   1.669731764708269 
  6.223275017238806   9.342437018651966   1.666801282795995 
  7.466909577186377   2.875569001528662   1.664848655537640 
 12.446444255995100   2.874509840440965   1.668987634250267 
 -1.244885484268991   5.030239421883130   8.336854947015841 
 -2.490306576867511  11.498396654505852   8.337730734015151 
  2.488211740493713  11.497801725736990   8.336636048494675 
  3.734143028441315   5.030166552669890   8.339610783453882 
  7.467413662544875  11.498423921700162   8.337200360095467 
 -4.979523143274837  11.498570871010390   1.668570343759521 
  8.714100800531240   5.029994515502400   8.358099462775757 
 -0.001089668909505  11.498204109304373   1.668518539674138 
  1.244636411593630   5.030030310085294   1.670175613556655 
 -0.000363626766078   7.185873054161269   1.668900934487429 
  6.224165598865564   5.031594482572213   1.663739055294476 
  4.977792313890945  11.497746226242144   1.670110251469250 
 11.202415256602764   5.030559584683772   1.666489128465423 
 -2.489800958781827   7.186329896167881   8.337869126138548 
  3.733133848972265   0.719186156625987   8.336538655894627 
  7.467887963960280   7.188498461871493   8.358244401239212 
  8.711413119310576   0.719337469144949   8.336665222828048 
 13.690578154719407   0.718546035555329   8.337049286246037 
 -0.065429328590966   1.401338978838679   5.002978606422314 
  3.878624321016594   7.737477463171708   5.002978606422314 
  4.926450721208103   1.493134640984213   5.002978606422314 
  8.818358294415702   7.903653458778056   5.002978606422314 
  9.878761371483597   1.547786242067307   5.002978606422314 
 -4.978642131227613  10.060941864837210  11.673616748318732 
  0.000123147053660  10.060947630103712  11.673616748318732 
  1.244794206119733   3.593320516425405  11.673616748318732 
  4.978712610375005  10.060963963778672  11.673616748318732 
  6.223601457984081   3.593221678125338  11.673616748318732 
 11.202296892273859   3.593262205083278  11.673616748318732 
 -2.418063301521931  10.110718762120934   5.002978606422314 
 -1.304626320363099   3.591178556474421   5.002978606422314 
  3.568536005493396   3.530958351991949   5.002978606422314 
  2.555493917554355  10.022880520151643   5.002978606422314 
  7.488551717015733   9.991893062549135   5.002978606422314 
  8.558068192051660   3.850634463375521   5.002978606422314 
 -6.223421857670114  12.216808253982208  11.673616748318732 
 -1.244515152726295  12.216755319413741  11.673616748318732 
  0.000134008906508   5.749191346988125  11.673616748318732 
  4.978816856352257   5.749227215584115  11.673616748318732 
  3.734085168142104  12.216748239268803  11.673616748318732 
  9.957722282907913   5.749183786730566  11.673616748318732 
 -2.456060757606839   5.779796933697340   5.002978606422314 
 -3.728901779880212  12.234624683193584   5.002978606422314 
  1.240601214805181  12.293683114357286   5.002978606422314 
  2.570968477521766   5.629022510730529   5.002978606422314 
  6.197377978927848  12.171891133398736   5.002978606422314 
 -1.244527084439749   7.905054050790666  11.673616748318732 
  0.000036786089412   1.437388362753850  11.673616748318732 
  3.734015591955858   7.905151410538013  11.673616748318732 
  4.978974881889620   1.437394593151277  11.673616748318732 
  8.713019096210633   7.905056759557366  11.673616748318732 
 -3.621732192397363   7.964215767698030   5.002978606422314 
  9.957586501195692   1.437269000903469  11.673616748318732 
  2.419265413488554   1.391857530566934   5.002978606422314 
  1.349593015258564   7.856323261111601   5.002978606422314 
  6.376053170399241   7.679245246123314   5.002978606422314 
  7.372565794626253   1.648399597391019   5.002978606422314 
  1.244801656004984   7.905095595725151  11.673616748318732 
 12.385899264688755   1.443697146433196   5.002978606422314 
 -2.489194821279219  10.060950470307366  11.673616748318732 
 -1.244633548844998   3.593283929824958  11.673616748318732 
  3.734231027416464   3.593335107744986  11.673616748318732 
  2.489373309538050  10.060965163923552  11.673616748318732 
  7.468189040512699  10.060947815287818  11.673616748318732 
  8.712936937525974   3.593044142236701  11.673616748318732 
 -4.932192906516658  10.068965846714850   5.002978606422314 
  0.070022045950407  10.085815450623718   5.002978606422314 
  1.156901881851429   3.550095884697072   5.002978606422314 
  5.035993008106205   9.956026041472192   5.002978606422314 
  5.876279981183714   3.952191370675682   5.002978606422314 
 11.134080163951273   3.648459764760720   5.002978606422314 
 -2.489283761500949   5.749193550265344  11.673616748318732 
 -3.733933615494040  12.216819298277970  11.673616748318732 
  1.244745069427070  12.216705912107699  11.673616748318732 
  2.489515076136020   5.749261387970907  11.673616748318732 
  6.223486583143108  12.216774796606662  11.673616748318732 
 -6.249926821674197  12.174471376274251   5.002978606422314 
  7.468219392403838   5.749138974226168  11.673616748318732 
 -1.223247547413539  12.294706493095358   5.002978606422314 
  0.037439385560959   5.734583080637115   5.002978606422314 
 -1.152488318429829   7.926219895903412   5.002978606422314 
  3.722538516135781  12.216708986479095   5.002978606422314 
 10.002280457105273   5.842010833772385   5.002978606422314 
 -3.733886102598210   7.905057928602945  11.673616748318732 
  2.489478506051879   1.437431237530332  11.673616748318732 
  6.223333470059234   7.905141489304432  11.673616748318732 
  7.468297979414710   1.437205617246618  11.673616748318732 
 12.446972448182851   1.437360365188954  11.673616748318732 
  3.694738587476642   4.855214125369525   5.002978606422314 
  5.108991927491465   5.234682525309500   5.002978606422314 
  1.177014635978130   0.666212955997366   5.002978606422314 
  5.175856566840623   6.946304820639083   5.002978606422314 
  6.203175977585854   0.814706933145932   5.002978606422314 
 10.075567273057075   7.254171614455935   5.002978606422314 
 11.130593427470799   0.753840459573371   5.002978606422314 
 -3.734263058955765   9.341826216808986  11.673616748318732 
  1.244736373092872   9.342616992409219  11.673616748318732 
  2.489578048992684   2.874554454056953  11.673616748318732 
  6.223796349904809   9.341898916778446  11.673616748318732 
  7.468961280631394   2.874957883729038  11.673616748318732 
 12.446239973987481   2.874832106458594  11.673616748318732 
 -1.175370850677433   9.372524280170513   5.002978606422314 
 -0.094844102249417   2.837488444095523   5.002978606422314 
  4.862173206139806   2.911546656069838   5.002978606422314 
  3.809936219227015   9.234528902895800   5.002978606422314 
  8.766072341296550   9.311309089686940   5.002978606422314 
  9.825958392597489   3.027912572738114   5.002978606422314 
 -4.978774577318764  11.497489671756984  11.673616748318732 
  0.000205100332594  11.498183111953647  11.673616748318732 
  1.244561023782213   5.030844725950684  11.673616748318732 
  6.224802202305823   5.031077353910590  11.673616748318732 
  4.978765497802633  11.497981709241365  11.673616748318732 
 11.201499791046286   5.030852699213888  11.673616748318732 
 -1.242887750936922   5.034072754459448   5.002978606422314 
 -2.455286335711359  11.546978698844560   5.002978606422314 
  2.488920927150038  11.503939398231633   5.002978606422314 
  7.447292229291937  11.433070580499553   5.002978606422314 
  8.594071561480344   5.391015297552049   5.002978606422314 
 -0.000283319189259   7.186747460916145  11.673616748318732 
  1.244526112586480   0.718300885667454  11.673616748318732 
  4.979616608465678   7.186840736242618  11.673616748318732 
  6.224139485351244   0.718696372954780  11.673616748318732 
  9.957240367742184   7.186135724415999  11.673616748318732 
 -2.409043727771606   7.218827776162855   5.002978606422314 
 11.202012782673901   0.718866338759924  11.673616748318732 
  3.696508344269405   0.724835741944518   5.002978606422314 
  2.600984895008846   7.112929639849006   5.002978606422314 
  7.720435084616303   6.920138319664168   5.002978606422314 
  8.637523393392135   0.847752217154053   5.002978606422314 
  2.489694937409837   7.187017401826902  11.673616748318732 
 13.624550465636087   0.685192180540744   5.002978606422314 
 -1.244806109851032   9.342270073350553  11.673616748318732 
 -0.000518263559907   2.874556123610866  11.673616748318732 
  4.979828343065750   2.874802754594745  11.673616748318732 
  3.734336767156888   9.342529072508674  11.673616748318732 
  8.712897933754844   9.341495796636847  11.673616748318732 
  9.957310884480622   2.875024832108775  11.673616748318732 
 -3.662198580295783   9.386941960930843   5.002978606422314 
  1.312393029489451   9.322887766811146   5.002978606422314 
  2.346293989821099   2.799135188758310   5.002978606422314 
  6.296848380799019   9.180330733793431   5.002978606422314 
  7.315123095826669   3.180114392399812   5.002978606422314 