Species order:X N B                     
   2.51242800000000     
     5.9449720136058266    0.0000000000000000    0.0000000000000000
    -2.9724860068029120    5.1484967885702053   -0.0000000000000001
     0.0000000000000000    0.0000000000000009    5.3101128803662583
   C    N    B 
     2   142   142
Direct
  0.4350402452793406  0.3753481822647094  0.3750000000000000
  0.5443938319059788  0.4046842260449669  0.3750000000000000
  0.1110481821187092  0.0555663801178171  0.1250723626064199
  0.6110887194060023  0.5555219095730020  0.1244633763101437
  0.4443885859629796  0.0556106925231885  0.1251120907945540
  0.9444445490326921  0.5555885074946434  0.1247626459551613
  0.7776971541555919  0.0555657791018534  0.1252026123709682
  0.1110852762304964  0.7222462609286471  0.6249829123622124
  0.4443829196468551  0.7221856558566657  0.6249144997566757
  0.2777271777498794  0.2222226916794147  0.6248446753376459
  0.7777777992035894  0.7222476006877774  0.6250643306277339
  0.6110691047974880  0.2223052515976073  0.6252106904824295
  0.9444126005980532  0.2222233696911194  0.6249004518947062
  0.2777329156182086  0.7222233606721116  0.1250339286154132
  0.1110592876164613  0.2222055303178909  0.1250951724798705
  0.4444351811404114  0.2222972203766829  0.1252097837248358
  0.6110557633103006  0.7221658436257133  0.1250656861289857
  0.9444624973331729  0.7222942632886958  0.1249093661732758
  0.7777651200517923  0.2222666834311956  0.1249833652017893
  0.1110836199720066  0.8889345688223791  0.6249317300484565
  0.4443801532176118  0.8889062151110653  0.6249356130416789
  0.2777610141661969  0.3888629182720572  0.6248114064929748
  0.6112055449874453  0.3889838417338355  0.6252938609542471
  0.7777031922993756  0.8888708169657598  0.6248163057309496
  0.9444639453156956  0.3889038355731950  0.6250877282640567
  0.1110933114958405  0.3888790843424257  0.1251081403550897
  0.2777322294011849  0.8889211004466062  0.1250424954362175
  0.6110256233636435  0.8888751075354382  0.1251245479698109
  0.4444410432665505  0.3888734509499479  0.1249015756772117
  0.9444118321911391  0.8889232084261005  0.1250822497976735
  0.7778471565580287  0.3888601510549420  0.1235157502937492
  0.2777393455179762  0.5555273813302937  0.6249069505055647
  0.1110481821187092  0.0555663801178171  0.6249276373935800
  0.6110887194060023  0.5555219095730020  0.6255366236898560
  0.4443885859629796  0.0556106925231885  0.6248879092054462
  0.9444445490326921  0.5555885074946434  0.6252373540448392
  0.1110868802714819  0.5555626989933953  0.1250321222065091
  0.7776971541555919  0.0555657791018534  0.6247973876290325
  0.2777362694365406  0.0555990342813070  0.1251318480659941
  0.4444033656894545  0.5554904216441384  0.1250682048184487
  0.7778471564182423  0.5557303470463865  0.1235048863808542
  0.6110425042902413  0.0556107319896837  0.1251223611975157
  0.4444033656894545  0.5554904216441384  0.6249317951815515
  0.9443716008986963  0.0555495476316772  0.1250935735905564
  0.2777329156182086  0.7222233606721116  0.6249660713845872
  0.1110592876164613  0.2222055303178909  0.6249048275201293
  0.4444351811404114  0.2222972203766829  0.6247902162751638
  0.6110557633103006  0.7221658436257133  0.6249343138710141
  0.9444624973331729  0.7222942632886958  0.6250906338267246
  0.7777651200517923  0.2222666834311956  0.6250166347982106
  0.1110852762304964  0.7222462609286471  0.1250170876377873
  0.4443829196468551  0.7221856558566657  0.1250855002433248
  0.2777271777498794  0.2222226916794147  0.1251553246623548
  0.7777777992035894  0.7222476006877774  0.1249356693722658
  0.6110691047974880  0.2223052515976073  0.1247893095175703
  0.9444126005980532  0.2222233696911194  0.1250995481052873
  0.1110933114958405  0.3888790843424257  0.6248918596449102
  0.2777322294011849  0.8889211004466062  0.6249575045637830
  0.6110256233636435  0.8888751075354382  0.6248754520301885
  0.4444410432665505  0.3888734509499479  0.6250984243227883
  0.9444118321911391  0.8889232084261005  0.6249177502023258
  0.1110836199720066  0.8889345688223791  0.1250682699515432
  0.7778471565580287  0.3888601510549420  0.6264842497062509
  0.4443801532176118  0.8889062151110653  0.1250643869583213
  0.2777610141661969  0.3888629182720572  0.1251885935070253
  0.2777393455179762  0.5555273813302937  0.1250930494944354
  0.6112055449874453  0.3889838417338355  0.1247061390457526
  0.7777031922993756  0.8888708169657598  0.1251836942690504
  0.9444639453156956  0.3889038355731950  0.1249122717359433
  0.1110868802714819  0.5555626989933953  0.6249678777934840
  0.2777362694365406  0.0555990342813070  0.6248681519340067
  0.7778471564182423  0.5557303470463865  0.6264951136191464
  0.6110425042902413  0.0556107319896837  0.6248776388024841
  0.9443716008986963  0.0555495476316772  0.6249064264094434
  0.0497869889979962  0.1083350857164819  0.3750000000000000
  0.5587629542025203  0.5981709613877461  0.3750000000000000
  0.3875462414259336  0.1154316491298386  0.3750000000000000
  0.8959060860290918  0.6110177393621620  0.3750000000000000
  0.7212205146160534  0.1196566696118831  0.3750000000000000
  0.0555723021498231  0.7777939640406989  0.8750000000000000
  0.3889054496804822  0.7777944097434519  0.8750000000000000
  0.2222368076268069  0.2777933762153295  0.8750000000000000
  0.7222272347501748  0.7777956724715309  0.8750000000000000
  0.5555687219673988  0.2777857351977949  0.8750000000000000
  0.8888985370614807  0.2777888682666160  0.8750000000000000
  0.2289294978680640  0.7816421296275882  0.3750000000000000
  0.0514679577840157  0.2776277850069248  0.3750000000000000
  0.3754029076805369  0.2729722654552748  0.3750000000000000
  0.5585184271209160  0.7748515075035861  0.3750000000000000
  0.8875934006627427  0.7724559209066260  0.3750000000000000
  0.7218134896269226  0.2976858711218722  0.3750000000000000
  0.0555662975671733  0.9444602550582080  0.8750000000000000
  0.3889066447520416  0.9444561627785387  0.8750000000000000
  0.2222389773153857  0.4444600105911394  0.8750000000000000
  0.5555677696437172  0.4444627835300776  0.8750000000000000
  0.7222282517036168  0.9444556154248152  0.8750000000000000
  0.8889083986744858  0.4444594261207413  0.8750000000000000
  0.0589775060501664  0.4468260754117248  0.3750000000000000
  0.2232653947790781  0.9458376122964803  0.3750000000000000
  0.5582610534696637  0.9504033171680472  0.3750000000000000
  0.3897136925743844  0.4351699663027793  0.3750000000000000
  0.8854140634627222  0.9409877903783340  0.3750000000000000
  0.2222407728741664  0.6111260167012152  0.8750000000000000
  0.0555634633907682  0.1111220010563471  0.8750000000000000
  0.5555625575086093  0.6111335434144043  0.8750000000000000
  0.3889081991928508  0.1111224827175651  0.8750000000000000
  0.8889077729848409  0.6111262261112702  0.8750000000000000
  0.0653715445062296  0.6156997064144673  0.3750000000000000
  0.7222259816026915  0.1111127733987371  0.8750000000000000
  0.2157730951484431  0.1076020913969436  0.3750000000000000
  0.3940358583311870  0.6073587238786825  0.3750000000000000
  0.7237172018889299  0.5936691296962974  0.3750000000000000
  0.5573175325875167  0.1274349135898322  0.3750000000000000
  0.3889052325298449  0.6111292284680365  0.8750000000000000
  0.8850522338654579  0.1116097221794941  0.3750000000000000
  0.2222434268966414  0.7777946293146697  0.8750000000000000
  0.0555659105178475  0.2777905477687116  0.8750000000000000
  0.3889074615265457  0.2777945042449373  0.8750000000000000
  0.5555637203404729  0.7777957652526503  0.8750000000000000
  0.8888993522776146  0.7777944240597141  0.8750000000000000
  0.7222251644326340  0.2777720102061946  0.8750000000000000
  0.0589922806202797  0.7784142841614040  0.3750000000000000
  0.3945464894271974  0.7797168978125775  0.3750000000000000
  0.2146815248490278  0.2744517549130860  0.3750000000000000
  0.7220059258028476  0.7696831037214610  0.3750000000000000
  0.5461908910778988  0.3055370594664519  0.3750000000000000
  0.8864649780168324  0.2820560958605794  0.3750000000000000
  0.0555702480708179  0.4444601809226785  0.8750000000000000
  0.2222402570350529  0.9444611088735562  0.8750000000000000
  0.5555630013649804  0.9444523431854100  0.8750000000000000
  0.3889080417875718  0.4444654253380259  0.8750000000000000
  0.8888969976552785  0.9444576685265392  0.8750000000000000
  0.0521552705060972  0.9411872644793967  0.3750000000000000
  0.7222321532067263  0.4444559617437566  0.8750000000000000
  0.3933436655439721  0.9504824328031535  0.3750000000000000
  0.2241719368033631  0.4433306708587796  0.3750000000000000
  0.2292210004833929  0.6127623114729850  0.3750000000000000
  0.7214536754258434  0.9444525808597296  0.3750000000000000
  0.8954797585049170  0.4516357241114082  0.3750000000000000
  0.0555760418745251  0.6111263164881563  0.8750000000000000
  0.2222355385331902  0.1111253156309473  0.8750000000000000
  0.7222243005404313  0.6111327764210455  0.8750000000000000
  0.5555633704667496  0.1111078733181698  0.8750000000000000
  0.8888961970129218  0.1111198366131694  0.8750000000000000
  0.1045540988342265  0.0515037680270753  0.3750000000000000
  0.6150317564957676  0.5370067767474681  0.3750000000000000
  0.4468001395408723  0.0629835798254331  0.3750000000000000
  0.9549722286097030  0.5608074245572132  0.3750000000000000
  0.7743425390309084  0.0582780983314348  0.3750000000000000
  0.1110878363832306  0.7222003806567823  0.8750000000000000
  0.4444670046180699  0.7222615141467708  0.8750000000000000
  0.2777929545555520  0.2222268186923847  0.8750000000000000
  0.7777919030448994  0.7222060009653168  0.8750000000000000
  0.6111828460058119  0.2222580071405524  0.8750000000000000
  0.9444113806427537  0.2222482835179445  0.8750000000000000
  0.2835946354638658  0.7245735946869496  0.3750000000000000
  0.1033307548076895  0.2193613097563047  0.3750000000000000
  0.4380702888098185  0.2250866216639894  0.3750000000000000
  0.6120314474959794  0.7139054114341556  0.3750000000000000
  0.9468172008375515  0.7198411544934403  0.3750000000000000
  0.7748983061189404  0.2340826688353753  0.3750000000000000
  0.1110919443333491  0.8888509831835270  0.8750000000000000
  0.4444660275774739  0.8889045918423022  0.8750000000000000
  0.2777874474216730  0.3889258793499394  0.8750000000000000
  0.6112281770146613  0.3889438634140069  0.8750000000000000
  0.7777774502504224  0.8888890217479649  0.8750000000000000
  0.9444139841407828  0.3889264957490874  0.8750000000000000
  0.1113752357300041  0.3891754326346709  0.3750000000000000
  0.2819547636164909  0.8926768940248865  0.3750000000000000
  0.6113103504711275  0.8893496003497023  0.3750000000000000
  0.9405385069636921  0.8838708549786188  0.3750000000000000
  0.7837660335837250  0.4167700414950067  0.3750000000000000
  0.2777785216190142  0.5555949801997833  0.8750000000000000
  0.1110874681695083  0.0555305955190777  0.8750000000000000
  0.6111910175966021  0.5556021911534785  0.8750000000000000
  0.4444924607743015  0.0555611699552561  0.8750000000000000
  0.9444202649055846  0.5555476879120644  0.8750000000000000
  0.1177498286936492  0.5580750537255654  0.3750000000000000
  0.7777722363869873  0.0555743097168321  0.8750000000000000
  0.2755025379568851  0.0560357939226131  0.3750000000000000
  0.4490824624901967  0.5498882524961548  0.3750000000000000
  0.7843821903869604  0.5349838899450422  0.3750000000000000
  0.6110592797416727  0.0655382534123420  0.3750000000000000
  0.4444952954283118  0.5556158488633591  0.8750000000000000
  0.9386617219138464  0.0529710189555002  0.3750000000000000
  0.2777764307331265  0.7222346944361046  0.8750000000000000
  0.1110787756582934  0.2222269477627022  0.8750000000000000
  0.4445271050346407  0.2222460143762644  0.8750000000000000
  0.6111446473830492  0.7222547172117642  0.8750000000000000
  0.9444239662143138  0.7221748364464148  0.8750000000000000
  0.7777827335120232  0.2222631828036617  0.8750000000000000
  0.1176565296172570  0.7256882005778797  0.3750000000000000
  0.4482340640234816  0.7207362819377460  0.3750000000000000
  0.2652846884287725  0.2163962861130560  0.3750000000000000
  0.7764375258641126  0.7097154449920272  0.3750000000000000
  0.6126787979121934  0.2458491275068664  0.3750000000000000
  0.9395731688670417  0.2236601113494501  0.3750000000000000
  0.1110776449670599  0.3889195615197727  0.8750000000000000
  0.2777853751667788  0.8888773464099577  0.8750000000000000
  0.6111270137165457  0.8889139252242029  0.8750000000000000
  0.4445271640122166  0.3889405198771974  0.8750000000000000
  0.9444237711478575  0.8888528677400231  0.8750000000000000
  0.1113257404614278  0.8884871904879518  0.3750000000000000
  0.7778030545839015  0.3889296691737643  0.8750000000000000
  0.4479142374925052  0.8926286478358211  0.3750000000000000
  0.2750262564492519  0.3843120787839557  0.3750000000000000
  0.2824651016549798  0.5550631406939887  0.3750000000000000
  0.7748179943757386  0.8840051820495253  0.3750000000000000
  0.9463821336444260  0.3937099729639276  0.3750000000000000
  0.1110814272556567  0.5555716497363615  0.8750000000000000
  0.2777951816518150  0.0555401430785812  0.8750000000000000
  0.7778072303477369  0.5555480910348003  0.8750000000000000
  0.6111374316843622  0.0555778677331828  0.8750000000000000
  0.9444166027496717  0.0555478359979517  0.8750000000000000
  0.0554061281697188  0.1110382655432554  0.1249469131024554
  0.5556824358172952  0.6110856111205157  0.1247389542821280
  0.3888690725276802  0.1111037008548529  0.1249042624388084
  0.8888082384025744  0.6110402016467822  0.1250211457433347
  0.7222220724305395  0.1112745969677179  0.1251302037451417
  0.0554165843756862  0.7776801738608619  0.6248710898053472
  0.3887966126285077  0.7777811490838803  0.6249761675181149
  0.2220634929442837  0.2777218676999538  0.6252433979265219
  0.7222662117842124  0.7777150627725122  0.6249399091858845
  0.5558414211191535  0.2780749557670871  0.6252491219143411
  0.8888483725430029  0.2779190671360682  0.6249068188683784
  0.2220609335025322  0.7777180563217660  0.1250439664216628
  0.0554139215285221  0.2777966500378277  0.1250062204261229
  0.3888987211993895  0.2777720445688557  0.1244516922398770
  0.5555404275365663  0.7777677120490835  0.1250433854008120
  0.8888824733878500  0.7776874824637513  0.1250797281451096
  0.7224050604372958  0.2781198553724095  0.1246953902988327
  0.0554350575249815  0.9443410524730925  0.6249717080109752
  0.3888157287341589  0.9444477967766144  0.6249765406691452
  0.2220763781813694  0.4444661362232978  0.6250513848637059
  0.5558763159142894  0.4445011337768526  0.6255942549403796
  0.7221717491668833  0.9444579132698366  0.6248640923640243
  0.8887868606665585  0.4445005291805209  0.6249752910109045
  0.0553934124764268  0.4444725299101562  0.1251221271131150
  0.2220959914384261  0.9443540986448403  0.1250074929447629
  0.5555201734317984  0.9445190986401247  0.1250914024751170
  0.3889030994902545  0.4444666261994016  0.1244461254652192
  0.8888171813676142  0.9443830351076615  0.1250674712622257
  0.7226102248923780  0.4446705467780694  0.1256354797843292
  0.2220498559217351  0.6111025050889932  0.6249658314785089
  0.0554061281697188  0.1110382655432554  0.6250530868975446
  0.5556824358172952  0.6110856111205157  0.6252610457178720
  0.3888690725276802  0.1111037008548529  0.6250957375611914
  0.8888082384025744  0.6110402016467822  0.6249788542566650
  0.0553332147344126  0.6110438812862751  0.1251629832276030
  0.7222220724305395  0.1112745969677179  0.6248697962548586
  0.2220737038197099  0.1109928066177555  0.1248729554706991
  0.3888209182133326  0.6111264737898074  0.1249459226451972
  0.7224515791035279  0.6110515103199425  0.1245336966286991
  0.5556135842909619  0.1113009801114168  0.1250088083837421
  0.3888209182133325  0.6111264737898074  0.6250540773548032
  0.8888005026422982  0.1111467050224320  0.1250764366005155
  0.2220609335025322  0.7777180563217660  0.6249560335783366
  0.0554139215285221  0.2777966500378277  0.6249937795738775
  0.3888987211993895  0.2777720445688557  0.6255483077601223
  0.5555404275365663  0.7777677120490835  0.6249566145991956
  0.8888824733878500  0.7776874824637513  0.6249202718548909
  0.7224050604372958  0.2781198553724095  0.6253046097011664
  0.0554165843756862  0.7776801738608619  0.1251289101946528
  0.3887966126285077  0.7777811490838803  0.1250238324818851
  0.2220634929442837  0.2777218676999538  0.1247566020734786
  0.7222662117842124  0.7777150627725122  0.1250600908141156
  0.5558414211191535  0.2780749557670871  0.1247508780856594
  0.8888483725430029  0.2779190671360682  0.1250931811316222
  0.0553934124764268  0.4444725299101562  0.6248778728868858
  0.2220959914384261  0.9443540986448403  0.6249925070552372
  0.5555201734317984  0.9445190986401247  0.6249085975248830
  0.3889030994902545  0.4444666261994016  0.6255538745347806
  0.8888171813676142  0.9443830351076615  0.6249325287377737
  0.0554350575249815  0.9443410524730925  0.1250282919890256
  0.7226102248923780  0.4446705467780694  0.6243645202156703
  0.3888157287341589  0.9444477967766144  0.1250234593308547
  0.2220763781813694  0.4444661362232978  0.1249486151362947
  0.2220498559217351  0.6111025050889932  0.1250341685214913
  0.5558763159142894  0.4445011337768526  0.1244057450596211
  0.7221717491668833  0.9444579132698366  0.1251359076359748
  0.8887868606665585  0.4445005291805209  0.1250247089890956
  0.0553332147344126  0.6110438812862751  0.6248370167723974
  0.2220737038197099  0.1109928066177555  0.6251270445293002
  0.7224515791035279  0.6110515103199425  0.6254663033713014
  0.5556135842909619  0.1113009801114168  0.6249911916162580
  0.8888005026422982  0.1111467050224320  0.6249235633994844
 
  0.00000000E+00  0.00000000E+00  0.00000000E+00
  0.00000000E+00  0.00000000E+00  0.00000000E+00
  0.00000000E+00  0.00000000E+00  0.00000000E+00
  0.00000000E+00  0.00000000E+00  0.00000000E+00
  0.00000000E+00  0.00000000E+00  0.00000000E+00
  0.00000000E+00  0.00000000E+00  0.00000000E+00
  0.00000000E+00  0.00000000E+00  0.00000000E+00
  0.00000000E+00  0.00000000E+00  0.00000000E+00
  0.00000000E+00  0.00000000E+00  0.00000000E+00
  0.00000000E+00  0.00000000E+00  0.00000000E+00
  0.00000000E+00  0.00000000E+00  0.00000000E+00
  0.00000000E+00  0.00000000E+00  0.00000000E+00
  0.00000000E+00  0.00000000E+00  0.00000000E+00
  0.00000000E+00  0.00000000E+00  0.00000000E+00
  0.00000000E+00  0.00000000E+00  0.00000000E+00
  0.00000000E+00  0.00000000E+00  0.00000000E+00
  0.00000000E+00  0.00000000E+00  0.00000000E+00
  0.00000000E+00  0.00000000E+00  0.00000000E+00
  0.00000000E+00  0.00000000E+00  0.00000000E+00
  0.00000000E+00  0.00000000E+00  0.00000000E+00
  0.00000000E+00  0.00000000E+00  0.00000000E+00
  0.00000000E+00  0.00000000E+00  0.00000000E+00
  0.00000000E+00  0.00000000E+00  0.00000000E+00
  0.00000000E+00  0.00000000E+00  0.00000000E+00
  0.00000000E+00  0.00000000E+00  0.00000000E+00
  0.00000000E+00  0.00000000E+00  0.00000000E+00
  0.00000000E+00  0.00000000E+00  0.00000000E+00
  0.00000000E+00  0.00000000E+00  0.00000000E+00
  0.00000000E+00  0.00000000E+00  0.00000000E+00
  0.00000000E+00  0.00000000E+00  0.00000000E+00
  0.00000000E+00  0.00000000E+00  0.00000000E+00
  0.00000000E+00  0.00000000E+00  0.00000000E+00
  0.00000000E+00  0.00000000E+00  0.00000000E+00
  0.00000000E+00  0.00000000E+00  0.00000000E+00
  0.00000000E+00  0.00000000E+00  0.00000000E+00
  0.00000000E+00  0.00000000E+00  0.00000000E+00
  0.00000000E+00  0.00000000E+00  0.00000000E+00
  0.00000000E+00  0.00000000E+00  0.00000000E+00
  0.00000000E+00  0.00000000E+00  0.00000000E+00
  0.00000000E+00  0.00000000E+00  0.00000000E+00
  0.00000000E+00  0.00000000E+00  0.00000000E+00
  0.00000000E+00  0.00000000E+00  0.00000000E+00
  0.00000000E+00  0.00000000E+00  0.00000000E+00
  0.00000000E+00  0.00000000E+00  0.00000000E+00
  0.00000000E+00  0.00000000E+00  0.00000000E+00
  0.00000000E+00  0.00000000E+00  0.00000000E+00
  0.00000000E+00  0.00000000E+00  0.00000000E+00
  0.00000000E+00  0.00000000E+00  0.00000000E+00
  0.00000000E+00  0.00000000E+00  0.00000000E+00
  0.00000000E+00  0.00000000E+00  0.00000000E+00
  0.00000000E+00  0.00000000E+00  0.00000000E+00
  0.00000000E+00  0.00000000E+00  0.00000000E+00
  0.00000000E+00  0.00000000E+00  0.00000000E+00
  0.00000000E+00  0.00000000E+00  0.00000000E+00
  0.00000000E+00  0.00000000E+00  0.00000000E+00
  0.00000000E+00  0.00000000E+00  0.00000000E+00
  0.00000000E+00  0.00000000E+00  0.00000000E+00
  0.00000000E+00  0.00000000E+00  0.00000000E+00
  0.00000000E+00  0.00000000E+00  0.00000000E+00
  0.00000000E+00  0.00000000E+00  0.00000000E+00
  0.00000000E+00  0.00000000E+00  0.00000000E+00
  0.00000000E+00  0.00000000E+00  0.00000000E+00
  0.00000000E+00  0.00000000E+00  0.00000000E+00
  0.00000000E+00  0.00000000E+00  0.00000000E+00
  0.00000000E+00  0.00000000E+00  0.00000000E+00
  0.00000000E+00  0.00000000E+00  0.00000000E+00
  0.00000000E+00  0.00000000E+00  0.00000000E+00
  0.00000000E+00  0.00000000E+00  0.00000000E+00
  0.00000000E+00  0.00000000E+00  0.00000000E+00
  0.00000000E+00  0.00000000E+00  0.00000000E+00
  0.00000000E+00  0.00000000E+00  0.00000000E+00
  0.00000000E+00  0.00000000E+00  0.00000000E+00
  0.00000000E+00  0.00000000E+00  0.00000000E+00
  0.00000000E+00  0.00000000E+00  0.00000000E+00
  0.00000000E+00  0.00000000E+00  0.00000000E+00
  0.00000000E+00  0.00000000E+00  0.00000000E+00
  0.00000000E+00  0.00000000E+00  0.00000000E+00
  0.00000000E+00  0.00000000E+00  0.00000000E+00
  0.00000000E+00  0.00000000E+00  0.00000000E+00
  0.00000000E+00  0.00000000E+00  0.00000000E+00
  0.00000000E+00  0.00000000E+00  0.00000000E+00
  0.00000000E+00  0.00000000E+00  0.00000000E+00
  0.00000000E+00  0.00000000E+00  0.00000000E+00
  0.00000000E+00  0.00000000E+00  0.00000000E+00
  0.00000000E+00  0.00000000E+00  0.00000000E+00
  0.00000000E+00  0.00000000E+00  0.00000000E+00
  0.00000000E+00  0.00000000E+00  0.00000000E+00
  0.00000000E+00  0.00000000E+00  0.00000000E+00
  0.00000000E+00  0.00000000E+00  0.00000000E+00
  0.00000000E+00  0.00000000E+00  0.00000000E+00
  0.00000000E+00  0.00000000E+00  0.00000000E+00
  0.00000000E+00  0.00000000E+00  0.00000000E+00
  0.00000000E+00  0.00000000E+00  0.00000000E+00
  0.00000000E+00  0.00000000E+00  0.00000000E+00
  0.00000000E+00  0.00000000E+00  0.00000000E+00
  0.00000000E+00  0.00000000E+00  0.00000000E+00
  0.00000000E+00  0.00000000E+00  0.00000000E+00
  0.00000000E+00  0.00000000E+00  0.00000000E+00
  0.00000000E+00  0.00000000E+00  0.00000000E+00
  0.00000000E+00  0.00000000E+00  0.00000000E+00
  0.00000000E+00  0.00000000E+00  0.00000000E+00
  0.00000000E+00  0.00000000E+00  0.00000000E+00
  0.00000000E+00  0.00000000E+00  0.00000000E+00
  0.00000000E+00  0.00000000E+00  0.00000000E+00
  0.00000000E+00  0.00000000E+00  0.00000000E+00
  0.00000000E+00  0.00000000E+00  0.00000000E+00
  0.00000000E+00  0.00000000E+00  0.00000000E+00
  0.00000000E+00  0.00000000E+00  0.00000000E+00
  0.00000000E+00  0.00000000E+00  0.00000000E+00
  0.00000000E+00  0.00000000E+00  0.00000000E+00
  0.00000000E+00  0.00000000E+00  0.00000000E+00
  0.00000000E+00  0.00000000E+00  0.00000000E+00
  0.00000000E+00  0.00000000E+00  0.00000000E+00
  0.00000000E+00  0.00000000E+00  0.00000000E+00
  0.00000000E+00  0.00000000E+00  0.00000000E+00
  0.00000000E+00  0.00000000E+00  0.00000000E+00
  0.00000000E+00  0.00000000E+00  0.00000000E+00
  0.00000000E+00  0.00000000E+00  0.00000000E+00
  0.00000000E+00  0.00000000E+00  0.00000000E+00
  0.00000000E+00  0.00000000E+00  0.00000000E+00
  0.00000000E+00  0.00000000E+00  0.00000000E+00
  0.00000000E+00  0.00000000E+00  0.00000000E+00
  0.00000000E+00  0.00000000E+00  0.00000000E+00
  0.00000000E+00  0.00000000E+00  0.00000000E+00
  0.00000000E+00  0.00000000E+00  0.00000000E+00
  0.00000000E+00  0.00000000E+00  0.00000000E+00
  0.00000000E+00  0.00000000E+00  0.00000000E+00
  0.00000000E+00  0.00000000E+00  0.00000000E+00
  0.00000000E+00  0.00000000E+00  0.00000000E+00
  0.00000000E+00  0.00000000E+00  0.00000000E+00
  0.00000000E+00  0.00000000E+00  0.00000000E+00
  0.00000000E+00  0.00000000E+00  0.00000000E+00
  0.00000000E+00  0.00000000E+00  0.00000000E+00
  0.00000000E+00  0.00000000E+00  0.00000000E+00
  0.00000000E+00  0.00000000E+00  0.00000000E+00
  0.00000000E+00  0.00000000E+00  0.00000000E+00
  0.00000000E+00  0.00000000E+00  0.00000000E+00
  0.00000000E+00  0.00000000E+00  0.00000000E+00
  0.00000000E+00  0.00000000E+00  0.00000000E+00
  0.00000000E+00  0.00000000E+00  0.00000000E+00
  0.00000000E+00  0.00000000E+00  0.00000000E+00
  0.00000000E+00  0.00000000E+00  0.00000000E+00
  0.00000000E+00  0.00000000E+00  0.00000000E+00
  0.00000000E+00  0.00000000E+00  0.00000000E+00
  0.00000000E+00  0.00000000E+00  0.00000000E+00
  0.00000000E+00  0.00000000E+00  0.00000000E+00
  0.00000000E+00  0.00000000E+00  0.00000000E+00
  0.00000000E+00  0.00000000E+00  0.00000000E+00
  0.00000000E+00  0.00000000E+00  0.00000000E+00
  0.00000000E+00  0.00000000E+00  0.00000000E+00
  0.00000000E+00  0.00000000E+00  0.00000000E+00
  0.00000000E+00  0.00000000E+00  0.00000000E+00
  0.00000000E+00  0.00000000E+00  0.00000000E+00
  0.00000000E+00  0.00000000E+00  0.00000000E+00
  0.00000000E+00  0.00000000E+00  0.00000000E+00
  0.00000000E+00  0.00000000E+00  0.00000000E+00
  0.00000000E+00  0.00000000E+00  0.00000000E+00
  0.00000000E+00  0.00000000E+00  0.00000000E+00
  0.00000000E+00  0.00000000E+00  0.00000000E+00
  0.00000000E+00  0.00000000E+00  0.00000000E+00
  0.00000000E+00  0.00000000E+00  0.00000000E+00
  0.00000000E+00  0.00000000E+00  0.00000000E+00
  0.00000000E+00  0.00000000E+00  0.00000000E+00
  0.00000000E+00  0.00000000E+00  0.00000000E+00
  0.00000000E+00  0.00000000E+00  0.00000000E+00
  0.00000000E+00  0.00000000E+00  0.00000000E+00
  0.00000000E+00  0.00000000E+00  0.00000000E+00
  0.00000000E+00  0.00000000E+00  0.00000000E+00
  0.00000000E+00  0.00000000E+00  0.00000000E+00
  0.00000000E+00  0.00000000E+00  0.00000000E+00
  0.00000000E+00  0.00000000E+00  0.00000000E+00
  0.00000000E+00  0.00000000E+00  0.00000000E+00
  0.00000000E+00  0.00000000E+00  0.00000000E+00
  0.00000000E+00  0.00000000E+00  0.00000000E+00
  0.00000000E+00  0.00000000E+00  0.00000000E+00
  0.00000000E+00  0.00000000E+00  0.00000000E+00
  0.00000000E+00  0.00000000E+00  0.00000000E+00
  0.00000000E+00  0.00000000E+00  0.00000000E+00
  0.00000000E+00  0.00000000E+00  0.00000000E+00
  0.00000000E+00  0.00000000E+00  0.00000000E+00
  0.00000000E+00  0.00000000E+00  0.00000000E+00
  0.00000000E+00  0.00000000E+00  0.00000000E+00
  0.00000000E+00  0.00000000E+00  0.00000000E+00
  0.00000000E+00  0.00000000E+00  0.00000000E+00
  0.00000000E+00  0.00000000E+00  0.00000000E+00
  0.00000000E+00  0.00000000E+00  0.00000000E+00
  0.00000000E+00  0.00000000E+00  0.00000000E+00
  0.00000000E+00  0.00000000E+00  0.00000000E+00
  0.00000000E+00  0.00000000E+00  0.00000000E+00
  0.00000000E+00  0.00000000E+00  0.00000000E+00
  0.00000000E+00  0.00000000E+00  0.00000000E+00
  0.00000000E+00  0.00000000E+00  0.00000000E+00
  0.00000000E+00  0.00000000E+00  0.00000000E+00
  0.00000000E+00  0.00000000E+00  0.00000000E+00
  0.00000000E+00  0.00000000E+00  0.00000000E+00
  0.00000000E+00  0.00000000E+00  0.00000000E+00
  0.00000000E+00  0.00000000E+00  0.00000000E+00
  0.00000000E+00  0.00000000E+00  0.00000000E+00
  0.00000000E+00  0.00000000E+00  0.00000000E+00
  0.00000000E+00  0.00000000E+00  0.00000000E+00
  0.00000000E+00  0.00000000E+00  0.00000000E+00
  0.00000000E+00  0.00000000E+00  0.00000000E+00
  0.00000000E+00  0.00000000E+00  0.00000000E+00
  0.00000000E+00  0.00000000E+00  0.00000000E+00
  0.00000000E+00  0.00000000E+00  0.00000000E+00
  0.00000000E+00  0.00000000E+00  0.00000000E+00
  0.00000000E+00  0.00000000E+00  0.00000000E+00
  0.00000000E+00  0.00000000E+00  0.00000000E+00
  0.00000000E+00  0.00000000E+00  0.00000000E+00
  0.00000000E+00  0.00000000E+00  0.00000000E+00
  0.00000000E+00  0.00000000E+00  0.00000000E+00
  0.00000000E+00  0.00000000E+00  0.00000000E+00
  0.00000000E+00  0.00000000E+00  0.00000000E+00
  0.00000000E+00  0.00000000E+00  0.00000000E+00
  0.00000000E+00  0.00000000E+00  0.00000000E+00
  0.00000000E+00  0.00000000E+00  0.00000000E+00
  0.00000000E+00  0.00000000E+00  0.00000000E+00
  0.00000000E+00  0.00000000E+00  0.00000000E+00
  0.00000000E+00  0.00000000E+00  0.00000000E+00
  0.00000000E+00  0.00000000E+00  0.00000000E+00
  0.00000000E+00  0.00000000E+00  0.00000000E+00
  0.00000000E+00  0.00000000E+00  0.00000000E+00
  0.00000000E+00  0.00000000E+00  0.00000000E+00
  0.00000000E+00  0.00000000E+00  0.00000000E+00
  0.00000000E+00  0.00000000E+00  0.00000000E+00
  0.00000000E+00  0.00000000E+00  0.00000000E+00
  0.00000000E+00  0.00000000E+00  0.00000000E+00
  0.00000000E+00  0.00000000E+00  0.00000000E+00
  0.00000000E+00  0.00000000E+00  0.00000000E+00
  0.00000000E+00  0.00000000E+00  0.00000000E+00
  0.00000000E+00  0.00000000E+00  0.00000000E+00
  0.00000000E+00  0.00000000E+00  0.00000000E+00
  0.00000000E+00  0.00000000E+00  0.00000000E+00
  0.00000000E+00  0.00000000E+00  0.00000000E+00
  0.00000000E+00  0.00000000E+00  0.00000000E+00
  0.00000000E+00  0.00000000E+00  0.00000000E+00
  0.00000000E+00  0.00000000E+00  0.00000000E+00
  0.00000000E+00  0.00000000E+00  0.00000000E+00
  0.00000000E+00  0.00000000E+00  0.00000000E+00
  0.00000000E+00  0.00000000E+00  0.00000000E+00
  0.00000000E+00  0.00000000E+00  0.00000000E+00
  0.00000000E+00  0.00000000E+00  0.00000000E+00
  0.00000000E+00  0.00000000E+00  0.00000000E+00
  0.00000000E+00  0.00000000E+00  0.00000000E+00
  0.00000000E+00  0.00000000E+00  0.00000000E+00
  0.00000000E+00  0.00000000E+00  0.00000000E+00
  0.00000000E+00  0.00000000E+00  0.00000000E+00
  0.00000000E+00  0.00000000E+00  0.00000000E+00
  0.00000000E+00  0.00000000E+00  0.00000000E+00