 N O B 
 1.0
 17.527899999999772   0.000000000000000   0.000000000000000
 -8.763949999999658  15.179606674993195   0.000000000000000
  0.000000000000001   0.000000000000002  15.000000000000000
 N O B 
  47   2  48
Cartesian
  8.748385629452294  13.722221232234586   1.664648708845710 
 16.281287007350642   0.730350911265457   1.664213209865595 
 15.035842813972948   2.905295971382345   1.665128201453235 
 13.780417300313561   5.070619688096307   1.665286612482090 
 12.518669961112037   7.236137170597611   1.664478530885475 
 11.243155053800450   9.398827522174134   1.665034612122225 
  9.987637517062520  11.555632103681994   1.665145523340375 
 -6.270233619558532  13.724889244787997   1.663556726167920 
  1.252961159508112   0.720741561059345   1.664247042460035 
  0.012690771926476   2.903264264689174   1.664652239534910 
 -1.245352359586925   5.069432066229534   1.665461495528790 
 -2.512148664268560   7.238623178705468   1.665922467704310 
 -3.756434376129285   9.403418884312392   1.665075062154105 
 -5.019331918188626  11.562008175020727   1.663848950456265 
 -3.757463626050513  13.725518874423821   1.663498052605635 
  3.756569683013171   0.714128214953885   1.664741184575355 
  2.516076159883645   2.897599128437765   1.663994014520565 
  1.267803255873696   5.081293384046478   1.662746246189370 
 -0.030504246952503   7.237507704724663   1.664480154808140 
 -1.224831236440250   9.407459703334876   1.666233686741130 
 -2.498890608781373  11.564673757641723   1.664378731148475 
 -1.242643018400746  13.726496699419554   1.664041399674480 
  6.268012106427936   0.708488131847790   1.665242314217415 
  5.020703903307178   2.875728126605225   1.664338853404695 
  3.791752357208488   5.072671514927314   1.665959429701815 
  2.407098650618062   7.246300502287149   1.663937972967660 
  1.335392885100943   9.416695896273533   1.664975032854210 
  0.020936365132220  11.568621864291146   1.665125043290190 
  1.268550889560103  13.735310450230820   1.664213082535890 
  8.781037331070351   0.710198523422851   1.664340451630890 
  7.541464303216994   2.858690876763121   1.664131454589390 
  6.318794955181948   4.991700912746318   1.661608061767260 
  2.539038021589826  11.581177559447093   1.666158857801985 
  3.758597682146346  13.781670385640414   1.664919155195940 
 11.277395525014153   0.741512352667968   1.664112421184760 
 10.033266959575453   2.890921504884367   1.664643614715990 
  8.790471557722007   5.046810431751875   1.664169762944670 
  7.537910392836721   7.211914216141410   1.663345395939990 
  6.096611283370347   9.351753629878944   1.665997231725075 
  4.966357892896912  11.595863738497840   1.664634804855675 
  6.250965678863990  13.743006080722077   1.664696682533430 
 13.782375004740695   0.746590262385407   1.664169775220745 
 12.532839746587786   2.904866081433324   1.664797310396295 
 11.281583619396448   5.064437225218645   1.664546557870890 
 10.021396255198926   7.227950421604468   1.664419826679900 
  8.700451788512797   9.388888876842337   1.665289127063625 
  7.464123130450379  11.541253483838613   1.664708827786020 
  3.444353807831362   8.146224852332388   1.683557502212235 
  5.212624639049274   7.050867252813718   1.692056416449855 
  7.500588665351010  14.455865909328450   1.664688930206295 
 15.033259676470893   1.459292306485601   1.664825108957190 
 13.784064871468185   3.626219455680022   1.665538141381230 
 12.528829362413934   5.791684754098804   1.665028524692715 
 11.263727093392387   7.955076508982381   1.664748715828860 
  9.965260905352521  10.110124878065092   1.665544772062665 
  8.719564077534068  12.263810748586003   1.665192818795505 
 -7.526079368592020  14.447124375691120   1.664318769980685 
  0.005189957437596   1.453459546266330   1.664527044351390 
 -1.239944741977287   3.627238917060791   1.665438733035015 
 -2.495745532627722   5.795005025474173   1.665940956685410 
 -3.758831030608665   7.959808945850927   1.665379159371315 
 -5.022302516353679  10.119737783328796   1.664962970067330 
 -6.281198559510678  12.276470329613916   1.664179756915545 
 -5.013018095078149  14.445925920976688   1.664058590113170 
  2.506932349089375   1.447957189400019   1.664672785265430 
  1.266249021058006   3.636585372333298   1.664114873213880 
  0.008478542224428   5.798815201395142   1.664359534622445 
 -1.260758296204214   7.965486610060982   1.665881060473470 
 -2.484424931557826  10.119737783328796   1.665644568411660 
 -3.756412371622775  12.278984962783294   1.663826306278575 
 -2.495476082965455  14.442029148098344   1.664622703253730 
  5.015689906490819   1.432308030276268   1.665423910735515 
  3.772268064534228   3.624637585601254   1.664600609722095 
  2.532667050924887   5.826417734792354   1.662948077645115 
  1.201653325521522   7.987741237316337   1.664986408850700 
  0.073264320202278  10.119737783328796   1.665875674987065 
 -1.231300343088881  12.277536528061015   1.664715647797560 
  0.018695025795710  14.441864687705586   1.664258040741090 
  7.530564751753226   1.419698915257548   1.665133580883465 
  6.292194775947863   3.566701418388511   1.662770200329765 
  5.088894709684975   5.719310440908600   1.672673992235385 
  2.738271055601587  10.102521983893498   1.664537541910605 
  1.289690932805720  12.275509073562919   1.665441155030955 
  2.509943921181859  14.474987338946242   1.664638608791430 
 10.027680734883795   1.446026630570236   1.664412108940770 
  8.783475275753345   3.602729848129455   1.664508430523775 
  7.541488057751029   5.765001031513179   1.663496720569680 
  6.260325148803386   7.915323691984598   1.673208502081155 
  4.735579164326863  10.142874774646545   1.663158984925620 
  3.751223808185469  12.339403992891956   1.665827687677860 
  5.010133633615528  14.478527375166280   1.664570104854180 
 12.530166637139088   1.459313492287656   1.664826537270720 
 11.281517796716411   3.619823510680921   1.664903628150810 
 10.030276609130333   5.783687048479264   1.664521027931940 
  8.762526214850020   7.947828471468111   1.664270340563310 
  7.383340535106916  10.081340707314268   1.665044026825725 
  6.215036856699135  12.281679272116548   1.665008110429635 
