B N O                                   
   1.0000000000000000     
     8.7639499999999995  -15.1796066749929999    0.0000000000000000
     8.7639499999999995   15.1796066749929999    0.0000000000000000
     0.0000000000000000    0.0000000000000000   15.0000000000000000
   B    N    O 
    48    47     2
Selective dynamics
Direct
  0.9040835889907435  0.9523215073248876  0.1109792620137529   T   T   T
  0.9057435564127411  0.0961350539398118  0.1109883405971460   T   T   T
  0.9058508806158094  0.2388875768206717  0.1110358760920818   T   T   T
  0.9055654193745065  0.3815437961011198  0.1110019016461812   T   T   T
  0.9046487404239805  0.5240634147713152  0.1109832477219238   T   T   T
  0.9015537642982985  0.6660333890416581  0.1110363181375114   T   T   T
  0.9014245011964228  0.8079136048228009  0.1110128545863666   T   T   T
  0.0464956885153937  0.9517456337976947  0.1109545846653786   T   T   T
  0.0481714990233100  0.0957508041799759  0.1109684696234262   T   T   T
  0.0487361648116885  0.2389547367545622  0.1110292488690006   T   T   T
  0.0484942394003231  0.3817625284732065  0.1110627304456942   T   T   T
  0.0477391362899265  0.5243751775837433  0.1110252772914206   T   T   T
  0.0468014318303641  0.6665114313177168  0.1109975313378216   T   T   T
  0.0460194826528068  0.8087475909265889  0.1109453171277030   T   T   T
  0.1898311334552849  0.9516666821660688  0.1109372393408781   T   T   T
  0.1907194143145813  0.0953883206858964  0.1109781856843623   T   T   T
  0.1920271432804647  0.2395704612244129  0.1109409915475922   T   T   T
  0.1914904842982182  0.3820135347082531  0.1109573023081629   T   T   T
  0.1904459485928573  0.5247492099504318  0.1110587373648983   T   T   T
  0.1915921702985144  0.6666914475991209  0.1110429712274440   T   T   T
  0.1901461613778791  0.8089132495779106  0.1109217537519049   T   T   T
  0.3332942210131681  0.9514099711088081  0.1109748468835823   T   T   T
  0.3332141283303653  0.0943573875755192  0.1110282607157008   T   T   T
  0.3346067441219969  0.2387833666054378  0.1109733739814733   T   T   T
  0.3364094328766379  0.3838319305328752  0.1108632051763408   T   T   T
  0.3316642540808135  0.5262152971641417  0.1109990939233799   T   T   T
  0.3375132020113905  0.6667880102047401  0.1110583783324714   T   T   T
  0.3341608907155126  0.8088178297983808  0.1109810431865041   T   T   T
  0.4767661551493620  0.9513991368101155  0.1109505360494059   T   T   T
  0.4763963910477275  0.0935267260644085  0.1110089053922313   T   T   T
  0.4764649958051747  0.2349666559057999  0.1108513466886507   T   T   T
  0.4787190782879057  0.3767759312453444  0.1115115994823594   T   T   T
  0.4889898300707167  0.6655325266455248  0.1109691694607074   T   T   T
  0.4779214509933781  0.8086842654352523  0.1110294103353972   T   T   T
  0.6199876629738158  0.9535811861839778  0.1109759072527622   T   T   T
  0.6197288094580071  0.0952611396020173  0.1109608072627183   T   T   T
  0.6197840199560964  0.2373401317482466  0.1109672287015849   T   T   T
  0.6201491881613689  0.3797859295663053  0.1108997813713122   T   T   T
  0.6178857372014726  0.5214445842674085  0.1115472334720766   T   T   T
  0.6042692305310757  0.6681908821363510  0.1108772656617083   T   T   T
  0.6204612089937227  0.8128935259712511  0.1110551791785238   T   T   T
  0.7627448417173209  0.9538143961936856  0.1109713403236125   T   T   T
  0.7629380401955492  0.0961364496151089  0.1109884358180476   T   T   T
  0.7628651392937593  0.2384662256528824  0.1109935752100541   T   T   T
  0.7627548014011064  0.3810169243717809  0.1109680685287965   T   T   T
  0.7617117351379866  0.5235859295722937  0.1109513560375537   T   T   T
  0.7533021814516917  0.6641371494771483  0.1110029351217150   T   T   T
  0.7591250344055023  0.8090907449103618  0.1110005406953090   T   T   T
  0.9511073061668806  0.9039905661614083  0.1109765805897138   T   T   T
  0.9529353375231971  0.0481139549200993  0.1109475473243733   T   T   T
  0.9535207426517862  0.1913946806124106  0.1110085467635485   T   T   T
  0.9532197777368816  0.3340415727931623  0.1110191074988064   T   T   T
  0.9525645231002967  0.4767012298492809  0.1109652353923651   T   T   T
  0.9510306798757736  0.6191746415707671  0.1110023074748145   T   T   T
  0.9504438536721218  0.7612603113569919  0.1110097015560250   T   T   T
  0.0943544224075539  0.9041663291182843  0.1109037817445282   T   T   T
  0.0952242706657319  0.0474809114946755  0.1109498028306690   T   T   T
  0.0963544507141963  0.1912608361237713  0.1109768159689941   T   T   T
  0.0959319489778657  0.3339633348063548  0.1110307663685859   T   T   T
  0.0951096467072033  0.4768650027428144  0.1110614978469540   T   T   T
  0.0954268365309663  0.6194771106818949  0.1110050041436065   T   T   T
  0.0944777534121046  0.7616803532905706  0.1109232633637512   T   T   T
  0.2377334644118886  0.9042078077711436  0.1108998701737091   T   T   T
  0.2378420575284404  0.0470452384072861  0.1109827456383565   T   T   T
  0.2389907402878156  0.1908876290721846  0.1109329343013706   T   T   T
  0.2397029512368477  0.3347447330382656  0.1108497497459583   T   T   T
  0.2366554336019821  0.4767915177043224  0.1109653436538756   T   T   T
  0.2399927062380871  0.6197433111908415  0.1110822457827423   T   T   T
  0.2383615206774971  0.7618559561686998  0.1109585820765647   T   T   T
  0.3812409670319582  0.9042722247890994  0.1109360933116319   T   T   T
  0.3809388415079951  0.0466736818032936  0.1110161542811612   T   T   T
  0.3811641047312516  0.1894468142802856  0.1109559235603134   T   T   T
  0.3834150481154222  0.3341767427534209  0.1110639619801208   T   T   T
  0.3760149359730720  0.4773707683891883  0.1109291981978442   T   T   T
  0.3863625874001574  0.6203517718141243  0.1109983355236142   T   T   T
  0.3822524839047211  0.7621160489849341  0.1110083362193458   T   T   T
  0.5247996665546809  0.9048528558291500  0.1109475388357259   T   T   T
  0.5243680440752575  0.0467863587396389  0.1109560301087264   T   T   T
  0.5244170864990200  0.1883244367242077  0.1109420969726261   T   T   T
  0.5249205450093944  0.3288425727769099  0.1107738707844838   T   T   T
  0.5263285392471064  0.7629431913098164  0.1110772571867994   T   T   T
  0.6683886141054212  0.9079069491533185  0.1109946103463964   T   T   T
  0.6678214664297816  0.0488492467917186  0.1109408280789835   T   T   T
  0.6676408051521636  0.1904477215240931  0.1109762409810665   T   T   T
  0.6677496402331717  0.3324730699423167  0.1109446508629776   T   T   T
  0.6676048475230043  0.4751054734522394  0.1108896930626660   T   T   T
  0.6558600151173830  0.6160735142950028  0.1110664821150053   T   T   T
  0.6652954971105944  0.7639106853539762  0.1109756536570454   T   T   T
  0.8093093832714391  0.9053598274955459  0.1109797788355623   T   T   T
  0.8109025664057551  0.0491837686160435  0.1109446516813831   T   T   T
  0.8107055015525680  0.1913663603826303  0.1109864873597532   T   T   T
  0.8104529244615996  0.3336342853706335  0.1109697705247264   T   T   T
  0.8098206503232893  0.4761619043470836  0.1109613217786599   T   T   T
  0.8056372588244575  0.6185199048872291  0.1110192751375750   T   T   T
  0.8059989466011479  0.7603130786551683  0.1109805885190681   T   T   T
  0.4648348586655919  0.5366558585310668  0.1122371668141494   T   T   T
  0.5296381623287202  0.4644960441846815  0.1128037610966571   T   T   T

  0.00000000E+00  0.00000000E+00  0.00000000E+00
  0.00000000E+00  0.00000000E+00  0.00000000E+00
  0.00000000E+00  0.00000000E+00  0.00000000E+00
  0.00000000E+00  0.00000000E+00  0.00000000E+00
  0.00000000E+00  0.00000000E+00  0.00000000E+00
  0.00000000E+00  0.00000000E+00  0.00000000E+00
  0.00000000E+00  0.00000000E+00  0.00000000E+00
  0.00000000E+00  0.00000000E+00  0.00000000E+00
  0.00000000E+00  0.00000000E+00  0.00000000E+00
  0.00000000E+00  0.00000000E+00  0.00000000E+00
  0.00000000E+00  0.00000000E+00  0.00000000E+00
  0.00000000E+00  0.00000000E+00  0.00000000E+00
  0.00000000E+00  0.00000000E+00  0.00000000E+00
  0.00000000E+00  0.00000000E+00  0.00000000E+00
  0.00000000E+00  0.00000000E+00  0.00000000E+00
  0.00000000E+00  0.00000000E+00  0.00000000E+00
  0.00000000E+00  0.00000000E+00  0.00000000E+00
  0.00000000E+00  0.00000000E+00  0.00000000E+00
  0.00000000E+00  0.00000000E+00  0.00000000E+00
  0.00000000E+00  0.00000000E+00  0.00000000E+00
  0.00000000E+00  0.00000000E+00  0.00000000E+00
  0.00000000E+00  0.00000000E+00  0.00000000E+00
  0.00000000E+00  0.00000000E+00  0.00000000E+00
  0.00000000E+00  0.00000000E+00  0.00000000E+00
  0.00000000E+00  0.00000000E+00  0.00000000E+00
  0.00000000E+00  0.00000000E+00  0.00000000E+00
  0.00000000E+00  0.00000000E+00  0.00000000E+00
  0.00000000E+00  0.00000000E+00  0.00000000E+00
  0.00000000E+00  0.00000000E+00  0.00000000E+00
  0.00000000E+00  0.00000000E+00  0.00000000E+00
  0.00000000E+00  0.00000000E+00  0.00000000E+00
  0.00000000E+00  0.00000000E+00  0.00000000E+00
  0.00000000E+00  0.00000000E+00  0.00000000E+00
  0.00000000E+00  0.00000000E+00  0.00000000E+00
  0.00000000E+00  0.00000000E+00  0.00000000E+00
  0.00000000E+00  0.00000000E+00  0.00000000E+00
  0.00000000E+00  0.00000000E+00  0.00000000E+00
  0.00000000E+00  0.00000000E+00  0.00000000E+00
  0.00000000E+00  0.00000000E+00  0.00000000E+00
  0.00000000E+00  0.00000000E+00  0.00000000E+00
  0.00000000E+00  0.00000000E+00  0.00000000E+00
  0.00000000E+00  0.00000000E+00  0.00000000E+00
  0.00000000E+00  0.00000000E+00  0.00000000E+00
  0.00000000E+00  0.00000000E+00  0.00000000E+00
  0.00000000E+00  0.00000000E+00  0.00000000E+00
  0.00000000E+00  0.00000000E+00  0.00000000E+00
  0.00000000E+00  0.00000000E+00  0.00000000E+00
  0.00000000E+00  0.00000000E+00  0.00000000E+00
  0.00000000E+00  0.00000000E+00  0.00000000E+00
  0.00000000E+00  0.00000000E+00  0.00000000E+00
  0.00000000E+00  0.00000000E+00  0.00000000E+00
  0.00000000E+00  0.00000000E+00  0.00000000E+00
  0.00000000E+00  0.00000000E+00  0.00000000E+00
  0.00000000E+00  0.00000000E+00  0.00000000E+00
  0.00000000E+00  0.00000000E+00  0.00000000E+00
  0.00000000E+00  0.00000000E+00  0.00000000E+00
  0.00000000E+00  0.00000000E+00  0.00000000E+00
  0.00000000E+00  0.00000000E+00  0.00000000E+00
  0.00000000E+00  0.00000000E+00  0.00000000E+00
  0.00000000E+00  0.00000000E+00  0.00000000E+00
  0.00000000E+00  0.00000000E+00  0.00000000E+00
  0.00000000E+00  0.00000000E+00  0.00000000E+00
  0.00000000E+00  0.00000000E+00  0.00000000E+00
  0.00000000E+00  0.00000000E+00  0.00000000E+00
  0.00000000E+00  0.00000000E+00  0.00000000E+00
  0.00000000E+00  0.00000000E+00  0.00000000E+00
  0.00000000E+00  0.00000000E+00  0.00000000E+00
  0.00000000E+00  0.00000000E+00  0.00000000E+00
  0.00000000E+00  0.00000000E+00  0.00000000E+00
  0.00000000E+00  0.00000000E+00  0.00000000E+00
  0.00000000E+00  0.00000000E+00  0.00000000E+00
  0.00000000E+00  0.00000000E+00  0.00000000E+00
  0.00000000E+00  0.00000000E+00  0.00000000E+00
  0.00000000E+00  0.00000000E+00  0.00000000E+00
  0.00000000E+00  0.00000000E+00  0.00000000E+00
  0.00000000E+00  0.00000000E+00  0.00000000E+00
  0.00000000E+00  0.00000000E+00  0.00000000E+00
  0.00000000E+00  0.00000000E+00  0.00000000E+00
  0.00000000E+00  0.00000000E+00  0.00000000E+00
  0.00000000E+00  0.00000000E+00  0.00000000E+00
  0.00000000E+00  0.00000000E+00  0.00000000E+00
  0.00000000E+00  0.00000000E+00  0.00000000E+00
  0.00000000E+00  0.00000000E+00  0.00000000E+00
  0.00000000E+00  0.00000000E+00  0.00000000E+00
  0.00000000E+00  0.00000000E+00  0.00000000E+00
  0.00000000E+00  0.00000000E+00  0.00000000E+00
  0.00000000E+00  0.00000000E+00  0.00000000E+00
  0.00000000E+00  0.00000000E+00  0.00000000E+00
  0.00000000E+00  0.00000000E+00  0.00000000E+00
  0.00000000E+00  0.00000000E+00  0.00000000E+00
  0.00000000E+00  0.00000000E+00  0.00000000E+00
  0.00000000E+00  0.00000000E+00  0.00000000E+00
  0.00000000E+00  0.00000000E+00  0.00000000E+00
  0.00000000E+00  0.00000000E+00  0.00000000E+00
  0.00000000E+00  0.00000000E+00  0.00000000E+00
  0.00000000E+00  0.00000000E+00  0.00000000E+00
  0.00000000E+00  0.00000000E+00  0.00000000E+00
