 N C B 
 1.0
 17.527899999999772   0.000000000000000   0.000000000000000
 -8.763949999999658  15.179606674993195   0.000000000000000
  0.000000000000001   0.000000000000002  15.000000000000000
 N C B 
  48   1  47
Cartesian
  8.755689695553077  13.732132701929514   1.664345350353930 
 16.281658467817888   0.740313036382332   1.664889153980535 
 15.035613139949064   2.913394320076211   1.666265445733965 
 13.776582210517528   5.075574477808930   1.665123869401620 
 12.497266891961296   7.229962756871953   1.664225443046655 
 11.238699658404737   9.383242256011149   1.665086298660270 
  9.994731654952520  11.548512285701868   1.664940005703930 
 -6.270566925661767  13.709781485064317   1.664494747298565 
  1.251855570838034   0.714069937663472   1.665045024810375 
  0.027581783525474   2.913210641045729   1.665225257316930 
 -1.208740784095463   5.080797424562643   1.665642721208550 
 -2.477231608026783   7.232092027783053   1.664633026541160 
 -3.760266458585609   9.382983350136628   1.664926517146485 
 -5.019190600049713  11.541762516848395   1.664503305882285 
 -3.759373525608235  13.701769470559210   1.665091134768510 
  3.751793990087934   0.684002769420570   1.667994059369250 
  2.517640084303348   2.868383822222610   1.667149593991050 
  1.335118001336047   5.098967266952865   1.665421736693310 
  0.088709085328844   7.243039343003858   1.665079666135485 
 -1.233812301334921   9.387155274579221   1.665472296871170 
 -2.502315858388794  11.542746512861301   1.665268749657525 
 -1.248480879383372  13.709276889636314   1.664958427647690 
  6.262713542461549   0.681395641056196   1.667207467428075 
  5.019392412837313   2.822566917209866   1.670049838242885 
  3.748458513163052   4.969488122316574   1.656215752801080 
  2.727802019786306   7.311664724767868   1.664893624338945 
  1.280935043829116   9.401217150291817   1.665243998913960 
  0.009222057675587  11.554014365563159   1.665502825909380 
  1.255209985778302  13.729060615168892   1.665062916523260 
  8.763974960929133   0.705840842673882   1.664718956045715 
  7.502090761302506   2.856492204320603   1.664544706863750 
  6.184840336308097   5.002787377166066   1.654089597922185 
  3.766140696410836   9.383602633879548   1.665303382740960 
  2.512495927374305  11.567174959305719   1.664869552225440 
  3.752541124912558  13.751764016048240   1.664629277749875 
 11.260595364729161   0.735552271471946   1.665053078262015 
  9.993675093973010   2.901891462553394   1.664376597783525 
  8.701011504410868   5.073148579616324   1.662590369631705 
  7.329945464796150   7.222937891317411   1.669491272699445 
  6.208468754647612   9.412615580284422   1.667188887195570 
  4.994051193780528  11.589525163429940   1.664864246707620 
  6.256760675787135  13.751776307978789   1.664603345013675 
 13.771323482890075   0.743604438178779   1.665733050630240 
 12.512090039764443   2.910569851313446   1.666226737527015 
 11.237762342857600   5.073797262488776   1.664248676302140 
  9.936309003648468   7.229819385439259   1.665928557572505 
  8.712288485874097   9.384480605123333   1.667758985206785 
  7.492591336740475  11.568689870142173   1.665726258448695 
  3.896026235243792   8.040399980818494   1.665165926075610 
  7.514409544512992  14.474858439049163   1.664846814837870 
 15.030093625628714   1.466925623783186   1.666001920866885 
 13.775384523059071   3.629844992935737   1.666546186275795 
 12.508269039509688   5.787195308442574   1.664613709523325 
 11.227147943413058   7.942951538410309   1.665182104940730 
  9.989364946717195  10.106300720413733   1.666121416413840 
  8.755058692514972  12.290105985316750   1.665238242596715 
 -7.515283548686936  14.447792383787075   1.664741157207600 
  0.012435272537697   1.460577533210590   1.665093887861220 
 -1.227838787672924   3.631163960000007   1.666084855497375 
 -2.481115980185322   5.788345667329838   1.665209427495555 
 -3.755241543967660   7.941602267432330   1.664742461564820 
 -5.021169739778609  10.100447196832725   1.664897361988620 
 -6.271460484684723  12.267235308110278   1.664635659817320 
 -5.014480723994678  14.422272021758332   1.666030054156080 
  2.506938839214520   1.421720132768172   1.667457504757095 
  1.293051548693168   3.631587779033315   1.665917997070815 
  0.062588952774482   5.791916573050858   1.665754067407125 
 -1.209321426510477   7.945848675349533   1.665213573970050 
 -2.503585563921608  10.101803546232325   1.665561844668375 
 -3.761599457094777  12.260210886233008   1.665004516599300 
 -2.505330640723750  14.418516554394976   1.665892755924930 
  5.006973706271996   1.384558003163796   1.669774420957140 
  3.784612722283703   3.564596261361899   1.664971856669715 
  2.639736537016025   5.800258970159890   1.662837955522740 
  1.339860066561483   7.974969387675495   1.665373797751050 
  0.000000000000152  10.119737783328796   1.665838953273105 
 -1.253015919989808  12.269382489543155   1.665544347389310 
 -0.001669265593470  14.441615947585575   1.665275874231990 
  7.508974926484902   1.408264927188784   1.665649234489470 
  6.244145245470669   3.542399498028413   1.666099669941240 
  2.494023076283275  10.137882129345968   1.665192955011930 
  1.250971182345499  12.290142831215695   1.665557130407625 
  2.497607917930004  14.471603203672544   1.665041181377685 
 10.004866679569085   1.448241711197988   1.664901719384145 
  8.736610033898199   3.608394539818622   1.663557090111195 
  7.429686770410560   5.767531769957616   1.663948702848060 
  6.102605807935231   8.010471514143388   1.668138954967545 
  5.002944492998432  10.176272819578214   1.665903449438085 
  3.747452956553587  12.319123112147171   1.664864440564215 
  5.006678019741852  14.481376257122012   1.665104141363745 
 12.515481078936753   1.463978455196316   1.666189798396725 
 11.252970247510767   3.626234090881352   1.665361761345105 
  9.973584110149403   5.786014739885890   1.664383259265825 
  8.667228499608715   7.945727674256010   1.668634047806115 
  7.490446788107671  10.132784113663071   1.667587421322915 
  6.258237421802817  12.315999993224040   1.665247212315630 
