Species order:X N B                     
   2.51242800000000     
     5.9449720136058266    0.0000000000000000    0.0000000000000000
    -2.9724860068029120    5.1484967885702053   -0.0000000000000001
     0.0000000000000000    0.0000000000000009    5.3101128803662583
   O    N    B 
     2   143   143
Direct
  0.4222066387132259  0.3777699860232775  0.3750000000000000
  0.5825881497973825  0.4579607415653550  0.3750000000000000
  0.1111238403430584  0.0555797799698675  0.1248868768161526
  0.6111366481675775  0.5555529802500908  0.1255346894459167
  0.4444993795660433  0.0555818275112763  0.1248714685346638
  0.9444771736001665  0.5555640904500981  0.1248808304474685
  0.7777896345179882  0.0555614839256519  0.1248638242238703
  0.1111532495700955  0.7222432914517025  0.6250965462390743
  0.4444993795660433  0.7222508853880945  0.6251285314653091
  0.2777829003734212  0.2222400366196887  0.6248720556651239
  0.7778015579875033  0.7222454779249752  0.6251240631397150
  0.6111488853693177  0.2222271528400737  0.6250537592704586
  0.9444407214158451  0.2222151126560276  0.6251480771772470
  0.2778292111182297  0.7222391567270903  0.1248906206781559
  0.1110948617042698  0.2222140975187968  0.1248994636099952
  0.4445137865073435  0.2222507217086046  0.1250660213710169
  0.6111488853693177  0.7222550658625806  0.1249462407295484
  0.9444771736001665  0.7222464164834187  0.1248808304474685
  0.7777973713061103  0.2222204756984266  0.1248613250028078
  0.1111505950677255  0.8889262716717058  0.6251056827411199
  0.4444946054969632  0.8889139694151429  0.6251340264427850
  0.2777829003734212  0.3888761970870644  0.6248720556651239
  0.6111366481675775  0.3889170012508444  0.6244653105540956
  0.7777973713061103  0.8889102289410225  0.6251386749971958
  0.9444656947958209  0.3888856349334747  0.6251427951165560
  0.1111238403430584  0.3888773937065170  0.1248868768161526
  0.2778292111182297  0.8889233877245004  0.1248906206781559
  0.6111456040780457  0.8889155988243026  0.1248505191217037
  0.4444759162238701  0.3889046247786017  0.1243184453327200
  0.9444656947958209  0.8889133931956847  0.1248572048834500
  0.7778015579875033  0.3888894133958598  0.1248759368602904
  0.2778238054826077  0.5555586155028485  0.6250545190739966
  0.1111238403430584  0.0555797799698675  0.6251131231838506
  0.6111366481675775  0.5555529802500908  0.6244653105540956
  0.4444993795660433  0.0555818275112763  0.6251285314653091
  0.9444771736001665  0.5555640904500981  0.6251191695525348
  0.1111505950677255  0.5555576567293453  0.1248943172588690
  0.7777896345179882  0.0555614839256519  0.6251361757761273
  0.2778238054826077  0.0555985233131083  0.1249454809259960
  0.4445137865073435  0.5555963981320743  0.1250660213710169
  0.7778065089607312  0.5555699211470254  0.1249780631907480
  0.6111456040780457  0.0555633385870636  0.1248505191217037
  0.4445137865073435  0.5555963981320743  0.6249339786289886
  0.9444407214158451  0.0555589420931525  0.1248519228227516
  0.2778292111182297  0.7222391567270903  0.6251093793218446
  0.1110948617042698  0.2222140975187968  0.6251005363900056
  0.4445137865073435  0.2222507217086046  0.6249339786289886
  0.6111488853693177  0.7222550658625806  0.6250537592704586
  0.9444771736001665  0.7222464164834187  0.6251191695525348
  0.7777973713061103  0.2222204756984266  0.6251386749971958
  0.1111532495700955  0.7222432914517025  0.1249034537609419
  0.4444993795660433  0.7222508853880945  0.1248714685346638
  0.2777829003734212  0.2222400366196887  0.1251279443348908
  0.7778015579875033  0.7222454779249752  0.1248759368602904
  0.6111488853693177  0.2222271528400737  0.1249462407295484
  0.9444407214158451  0.2222151126560276  0.1248519228227516
  0.1111238403430584  0.3888773937065170  0.6251131231838506
  0.2778292111182297  0.8889233877245004  0.6251093793218446
  0.6111456040780457  0.8889155988243026  0.6251494808782865
  0.4444759162238701  0.3889046247786017  0.6256815546672879
  0.9444656947958209  0.8889133931956847  0.6251427951165560
  0.1111505950677255  0.8889262716717058  0.1248943172588690
  0.7778015579875033  0.3888894133958598  0.6251240631397150
  0.4444946054969632  0.8889139694151429  0.1248659735572007
  0.2777829003734212  0.3888761970870643  0.1251279443348908
  0.2778238054826077  0.5555586155028485  0.1249454809259960
  0.6111366481675775  0.3889170012508444  0.1255346894459167
  0.7777973713061103  0.8889102289410225  0.1248613250028078
  0.9444656947958209  0.3888856349334747  0.1248572048834500
  0.1111505950677255  0.5555576567293453  0.6251056827411199
  0.2778238054826077  0.0555985233131083  0.6250545190739966
  0.7778065089607312  0.5555699211470254  0.6250219368092591
  0.6111456040780457  0.0555633385870636  0.6251494808782865
  0.9444407214158451  0.0555589420931525  0.6251480771772470
  0.0540289606662185  0.1100700263252835  0.3750000000000000
  0.5566774818824823  0.6096660265352293  0.3750000000000000
  0.3883594802100718  0.1075563180099623  0.3750000000000000
  0.8918532379371252  0.6125932856352411  0.3750000000000000
  0.7221022678384115  0.1110268449669598  0.3750000000000000
  0.0555405138863124  0.7777692305862076  0.8750000000000000
  0.3888721808534779  0.7777700020147242  0.8750000000000000
  0.2222081503939148  0.2777707418636229  0.8750000000000000
  0.7222093203390156  0.7777676390640007  0.8750000000000000
  0.5555431653818076  0.2777771324721948  0.8750000000000000
  0.8888800012574573  0.2777781734245153  0.8750000000000000
  0.2225246118934516  0.7779289726134004  0.3750000000000000
  0.0540289606662185  0.2772922676742799  0.3750000000000000
  0.3778105242540480  0.2589972969329253  0.3750000000000000
  0.5559926913337812  0.7775994199213372  0.3750000000000000
  0.8910034895765543  0.7792120313362579  0.3750000000000000
  0.7228730515307206  0.2780218868565420  0.3750000000000000
  0.0555425485873542  0.9444334276586368  0.8750000000000000
  0.3888721808534779  0.9444355121720825  0.8750000000000000
  0.2222070791422244  0.4444404427307352  0.8750000000000000
  0.5555490598290906  0.4444411965812096  0.8750000000000000
  0.7222074217715940  0.9444353168557097  0.8750000000000000
  0.8888793165238210  0.4444426085758819  0.8750000000000000
  0.0544469566094684  0.4448882715013689  0.3750000000000000
  0.2218356533955599  0.9430471400553516  0.3750000000000000
  0.5558527315799208  0.9445930324566274  0.3750000000000000
  0.3778105242540480  0.4521465606544654  0.3750000000000000
  0.8885082077124691  0.9442535147666472  0.3750000000000000
  0.7288201342485193  0.4461144746120763  0.3750000000000000
  0.2222051905935435  0.6111059510384952  0.8750000000000000
  0.0555438583142503  0.1111020433598825  0.8750000000000000
  0.5555431653818076  0.6110993662429529  0.8750000000000000
  0.3888732402216326  0.1111037317095812  0.8750000000000000
  0.8888787024760613  0.6111060179046942  0.8750000000000000
  0.0564936767652014  0.6118276333018692  0.3750000000000000
  0.7222074217715940  0.1111054382492231  0.8750000000000000
  0.2173849363253640  0.1054351571496424  0.3750000000000000
  0.3883594802100718  0.6141364955334372  0.3750000000000000
  0.7288201342485193  0.6160389929697716  0.3750000000000000
  0.5559926913337812  0.1117266047457699  0.3750000000000000
  0.3888732402216326  0.6111028418454059  0.8750000000000000
  0.8880914335437301  0.1107123834385283  0.3750000000000000
  0.2222038695449909  0.7777686014391644  0.8750000000000000
  0.0555438583142503  0.2777751482876989  0.8750000000000000
  0.3888739960653713  0.2777687880752229  0.8750000000000000
  0.5555384470742819  0.7777670663803747  0.8750000000000000
  0.8888793165238210  0.7777700412813057  0.8750000000000000
  0.7222093203390156  0.2777750146083395  0.8750000000000000
  0.0564936767652014  0.7779993767966655  0.3750000000000000
  0.3890503660055901  0.7787163410119412  0.3750000000000000
  0.2199879226391571  0.2766606279862394  0.3750000000000000
  0.7228730515307206  0.7781844980075052  0.3750000000000000
  0.5566774818824823  0.2803447886805656  0.3750000000000000
  0.8885082077124691  0.2775880262791468  0.3750000000000000
  0.0555425485873542  0.4444424542620459  0.8750000000000000
  0.2222051905935435  0.9444325728883853  0.8750000000000000
  0.5555370291218524  0.9444351812275820  0.8750000000000000
  0.3888739960653713  0.4444385413234850  0.8750000000000000
  0.8888800012574573  0.9444351611662559  0.8750000000000000
  0.0544469566094684  0.9428920184414309  0.3750000000000000
  0.7222103008776414  0.4444407541487456  0.8750000000000000
  0.3890503660055901  0.9436673583269988  0.3750000000000000
  0.2173849363253640  0.4452831125090527  0.3750000000000000
  0.2218356533955599  0.6121218466735191  0.3750000000000000
  0.7221022678384115  0.9444087562047907  0.3750000000000000
  0.8910034895765543  0.4451247915736358  0.3750000000000000
  0.0555405138863124  0.6111046166334630  0.8750000000000000
  0.2222070791422244  0.1110999697448224  0.8750000000000000
  0.7222103008776414  0.6111028800621978  0.8750000000000000
  0.5555384470742819  0.1111047140272373  0.8750000000000000
  0.8888786988224597  0.1111060160779073  0.8750000000000000
  0.1084758540114070  0.0531088944417462  0.3750000000000000
  0.6184539510959538  0.5592368053884809  0.3750000000000000
  0.4444894273190995  0.0544350987380381  0.3750000000000000
  0.9461079995591536  0.5561791239928984  0.3750000000000000
  0.7773564913558336  0.0553449123445845  0.3750000000000000
  0.1111024000712228  0.7222178667022867  0.8750000000000000
  0.4444111757729244  0.7221668828378900  0.8750000000000000
  0.2778089660585961  0.2222593496873692  0.8750000000000000
  0.7777402630230633  0.7221870734259747  0.8750000000000000
  0.6110604157694479  0.2222379899497854  0.8750000000000000
  0.9444690392458416  0.2222355317915889  0.8750000000000000
  0.2780453171909405  0.7227425562168203  0.3750000000000000
  0.1102502421651317  0.2217917877492294  0.3750000000000000
  0.4429992055136289  0.2196816625285940  0.3750000000000000
  0.6111481340187529  0.7207869501243349  0.3750000000000000
  0.9461079995591536  0.7232622088995887  0.3750000000000000
  0.7775773797262303  0.2220412413636459  0.3750000000000000
  0.1111166020014251  0.8889039341076918  0.8750000000000000
  0.4444152807662055  0.8888743070497640  0.8750000000000000
  0.2778089660585961  0.3888829497045461  0.8750000000000000
  0.6110430257370996  0.3888812950557220  0.8750000000000000
  0.7777613723306894  0.8888649976567331  0.8750000000000000
  0.9444484763636596  0.3888927773171797  0.8750000000000000
  0.1084758540114070  0.3887002929029945  0.3750000000000000
  0.2780453171909405  0.8886360943074562  0.3750000000000000
  0.6110967568035419  0.8885166926863410  0.3750000000000000
  0.9445902475285018  0.8891807664938767  0.3750000000000000
  0.7809734081716491  0.3891277497166816  0.3750000000000000
  0.2777815740360091  0.5555219234572546  0.8750000000000000
  0.1111447450808368  0.0555870770470138  0.8750000000000000
  0.6110430257370996  0.5554950640147269  0.8750000000000000
  0.4444111757729244  0.0555776262683528  0.8750000000000000
  0.9444268956437454  0.5555472463744455  0.8750000000000000
  0.1112472564633451  0.5559554674309093  0.3750000000000000
  0.7777703979544063  0.0555518656438699  0.8750000000000000
  0.2770219679953393  0.0539654693268354  0.3750000000000000
  0.4429992055136289  0.5566508763183627  0.3750000000000000
  0.7816290798813051  0.5574812066073325  0.3750000000000000
  0.6110967568035419  0.0559133974505130  0.3750000000000000
  0.4444035557490797  0.5554821558003359  0.8750000000000000
  0.9437403815953297  0.0552736695442011  0.3750000000000000
  0.2777659110186216  0.7222018061970946  0.8750000000000000
  0.1111642669873627  0.2222488001603488  0.8750000000000000
  0.4444035557490797  0.2222547332820879  0.8750000000000000
  0.6110604157694479  0.7221557591530063  0.8750000000000000
  0.9444268956437454  0.7222129826026269  0.8750000000000000
  0.7777613723306894  0.2222297080072765  0.8750000000000000
  0.1118839064990898  0.7226086199162035  0.3750000000000000
  0.4444894273190995  0.7233876619143753  0.3750000000000000
  0.2724649486441965  0.2161264900950377  0.3750000000000000
  0.7809734081716491  0.7251789917883023  0.3750000000000000
  0.6111481340187529  0.2236945172277663  0.3750000000000000
  0.9437403815953297  0.2218000453844713  0.3750000000000000
  0.1111447450808368  0.3888910013671475  0.8750000000000000
  0.2777659110186216  0.8888974381548511  0.8750000000000000
  0.6110766161661684  0.8888548336956529  0.8750000000000000
  0.4444042796793452  0.3888688065063389  0.8750000000000000
  0.9444484763636596  0.8888890323798292  0.8750000000000000
  0.1112472564633451  0.8886251223657774  0.3750000000000000
  0.7777402630230633  0.3888865229304003  0.8750000000000000
  0.4447528433873030  0.8890430883603008  0.3750000000000000
  0.2724649486441965  0.3896717918824858  0.3750000000000000
  0.2770219679953393  0.5563898320018499  0.3750000000000000
  0.6184539510959538  0.3925504790408095  0.3750000000000000
  0.7775773797262303  0.8888694716959022  0.3750000000000000
  0.9445902475285018  0.3887428143679711  0.3750000000000000
  0.1111166020014251  0.5555460012270765  0.8750000000000000
  0.2777815740360091  0.0555929839120978  0.8750000000000000
  0.7777306385130484  0.5555319859231962  0.8750000000000000
  0.6110766161661684  0.0555551158038427  0.8750000000000000
  0.9444690392458416  0.0555668407875895  0.8750000000000000
  0.0556644973574553  0.1112172123389316  0.1251510979873767
  0.5554336731905875  0.6109707851559103  0.1256404436106372
  0.3889864973907357  0.1113332246648050  0.1254211541419858
  0.8888554052556915  0.6110943692945199  0.1250373399997782
  0.7222253781412982  0.1111164596015308  0.1250342501506345
  0.0556173913259027  0.7778487401809741  0.6249562719943045
  0.3889762221224822  0.7777620401536484  0.6249142172865589
  0.2224204364047506  0.2778768848690449  0.6243068728827371
  0.7221657680335352  0.7777406213756249  0.6248987739394032
  0.5554336731905875  0.2777962213680111  0.6243595563893580
  0.8889146991978502  0.2777603967805060  0.6249679180307194
  0.2223237514589983  0.7778285423961731  0.1250654185371156
  0.0556644973574553  0.2777806183518538  0.1251510979873767
  0.3889997111759965  0.2780263889475893  0.1263245203692834
  0.5555618298598769  0.7777258199078172  0.1251264460644723
  0.8888727368189716  0.7777972930898681  0.1250153519470531
  0.7221657680335350  0.2777584799912620  0.1251012260605838
  0.0556464769468096  0.9445785241781948  0.6249268129636509
  0.3889762221224822  0.9445475153021743  0.6249142172865589
  0.2223971863754168  0.4443668220937901  0.6245601842559806
  0.5551912214809812  0.4442622774071549  0.6240775668458263
  0.7222253781412982  0.9444422518731229  0.6249657498493678
  0.8888727368189716  0.4444087770624190  0.6249846480529456
  0.0556464769468096  0.4444012861019380  0.1250731870363476
  0.2223484683590151  0.9446260009585902  0.1251309911717317
  0.5555903092812917  0.9444618213073099  0.1250438058511609
  0.3889997111759965  0.4443066555617384  0.1263245203692834
  0.8889146991978502  0.9444876357506663  0.1250320819692715
  0.7220806847451769  0.4443834003705089  0.1253444430320245
  0.2223484683590151  0.6110558007337642  0.6248690088282804
  0.0556644973574553  0.1112172123389316  0.6248489020126117
  0.5554336731905875  0.6109707851559103  0.6243595563893580
  0.3889864973907357  0.1113332246648050  0.6245788458580286
  0.8888554052556915  0.6110943692945199  0.6249626600002219
  0.0556173913259027  0.6111019844782495  0.1250437280056999
  0.7222253781412982  0.1111164596015308  0.6249657498493678
  0.2223971863754168  0.1113636976149595  0.1254398157440164
  0.3889864973907357  0.6109866060592836  0.1254211541419858
  0.7220806847451769  0.6110306177080039  0.1253444430320245
  0.5555618298598769  0.1111693432853951  0.1251264460644723
  0.3889864973907357  0.6109866060592836  0.6245788458580286
  0.8889319465496389  0.1111326399414951  0.1250436638882579
  0.2223237514589983  0.7778285423961731  0.6249345814629019
  0.0556644973574553  0.2777806183518538  0.6248489020126117
  0.3889997111759965  0.2780263889475893  0.6236754796307106
  0.5555618298598769  0.7777258199078172  0.6248735539355389
  0.8888727368189716  0.7777972930898681  0.6249846480529456
  0.7221657680335352  0.2777584799912620  0.6248987739394032
  0.0556173913259027  0.7778487401809741  0.1250437280056999
  0.3889762221224822  0.7777620401536484  0.1250857827134368
  0.2224204364047506  0.2778768848690449  0.1256931271172616
  0.7221657680335352  0.7777406213756249  0.1251012260605838
  0.5554336731905875  0.2777962213680111  0.1256404436106372
  0.8889146991978502  0.2777603967805060  0.1250320819692715
  0.0556464769468096  0.4444012861019380  0.6249268129636509
  0.2223484683590151  0.9446260009585902  0.6248690088282804
  0.5555903092812917  0.9444618213073099  0.6249561941488426
  0.3889997111759965  0.4443066555617384  0.6236754796307106
  0.8889146991978502  0.9444876357506663  0.6249679180307194
  0.0556464769468096  0.9445785241781948  0.1250731870363476
  0.7220806847451769  0.4443834003705089  0.6246555569679719
  0.3889762221224822  0.9445475153021743  0.1250857827134368
  0.2223971863754168  0.4443668220937901  0.1254398157440164
  0.2223484683590151  0.6110558007337642  0.1251309911717317
  0.5551912214809812  0.4442622774071549  0.1259224331541712
  0.7222253781412982  0.9444422518731229  0.1250342501506345
  0.8888727368189716  0.4444087770624190  0.1250153519470531
  0.0556173913259027  0.6111019844782495  0.6249562719943045
  0.2223971863754168  0.1113636976149595  0.6245601842559806
  0.7220806847451769  0.6110306177080039  0.6246555569679719
  0.5555618298598769  0.1111693432853951  0.6248735539355389
  0.8889319465496389  0.1111326399414951  0.6249563361117315
 
  0.00000000E+00  0.00000000E+00  0.00000000E+00
  0.00000000E+00  0.00000000E+00  0.00000000E+00
  0.00000000E+00  0.00000000E+00  0.00000000E+00
  0.00000000E+00  0.00000000E+00  0.00000000E+00
  0.00000000E+00  0.00000000E+00  0.00000000E+00
  0.00000000E+00  0.00000000E+00  0.00000000E+00
  0.00000000E+00  0.00000000E+00  0.00000000E+00
  0.00000000E+00  0.00000000E+00  0.00000000E+00
  0.00000000E+00  0.00000000E+00  0.00000000E+00
  0.00000000E+00  0.00000000E+00  0.00000000E+00
  0.00000000E+00  0.00000000E+00  0.00000000E+00
  0.00000000E+00  0.00000000E+00  0.00000000E+00
  0.00000000E+00  0.00000000E+00  0.00000000E+00
  0.00000000E+00  0.00000000E+00  0.00000000E+00
  0.00000000E+00  0.00000000E+00  0.00000000E+00
  0.00000000E+00  0.00000000E+00  0.00000000E+00
  0.00000000E+00  0.00000000E+00  0.00000000E+00
  0.00000000E+00  0.00000000E+00  0.00000000E+00
  0.00000000E+00  0.00000000E+00  0.00000000E+00
  0.00000000E+00  0.00000000E+00  0.00000000E+00
  0.00000000E+00  0.00000000E+00  0.00000000E+00
  0.00000000E+00  0.00000000E+00  0.00000000E+00
  0.00000000E+00  0.00000000E+00  0.00000000E+00
  0.00000000E+00  0.00000000E+00  0.00000000E+00
  0.00000000E+00  0.00000000E+00  0.00000000E+00
  0.00000000E+00  0.00000000E+00  0.00000000E+00
  0.00000000E+00  0.00000000E+00  0.00000000E+00
  0.00000000E+00  0.00000000E+00  0.00000000E+00
  0.00000000E+00  0.00000000E+00  0.00000000E+00
  0.00000000E+00  0.00000000E+00  0.00000000E+00
  0.00000000E+00  0.00000000E+00  0.00000000E+00
  0.00000000E+00  0.00000000E+00  0.00000000E+00
  0.00000000E+00  0.00000000E+00  0.00000000E+00
  0.00000000E+00  0.00000000E+00  0.00000000E+00
  0.00000000E+00  0.00000000E+00  0.00000000E+00
  0.00000000E+00  0.00000000E+00  0.00000000E+00
  0.00000000E+00  0.00000000E+00  0.00000000E+00
  0.00000000E+00  0.00000000E+00  0.00000000E+00
  0.00000000E+00  0.00000000E+00  0.00000000E+00
  0.00000000E+00  0.00000000E+00  0.00000000E+00
  0.00000000E+00  0.00000000E+00  0.00000000E+00
  0.00000000E+00  0.00000000E+00  0.00000000E+00
  0.00000000E+00  0.00000000E+00  0.00000000E+00
  0.00000000E+00  0.00000000E+00  0.00000000E+00
  0.00000000E+00  0.00000000E+00  0.00000000E+00
  0.00000000E+00  0.00000000E+00  0.00000000E+00
  0.00000000E+00  0.00000000E+00  0.00000000E+00
  0.00000000E+00  0.00000000E+00  0.00000000E+00
  0.00000000E+00  0.00000000E+00  0.00000000E+00
  0.00000000E+00  0.00000000E+00  0.00000000E+00
  0.00000000E+00  0.00000000E+00  0.00000000E+00
  0.00000000E+00  0.00000000E+00  0.00000000E+00
  0.00000000E+00  0.00000000E+00  0.00000000E+00
  0.00000000E+00  0.00000000E+00  0.00000000E+00
  0.00000000E+00  0.00000000E+00  0.00000000E+00
  0.00000000E+00  0.00000000E+00  0.00000000E+00
  0.00000000E+00  0.00000000E+00  0.00000000E+00
  0.00000000E+00  0.00000000E+00  0.00000000E+00
  0.00000000E+00  0.00000000E+00  0.00000000E+00
  0.00000000E+00  0.00000000E+00  0.00000000E+00
  0.00000000E+00  0.00000000E+00  0.00000000E+00
  0.00000000E+00  0.00000000E+00  0.00000000E+00
  0.00000000E+00  0.00000000E+00  0.00000000E+00
  0.00000000E+00  0.00000000E+00  0.00000000E+00
  0.00000000E+00  0.00000000E+00  0.00000000E+00
  0.00000000E+00  0.00000000E+00  0.00000000E+00
  0.00000000E+00  0.00000000E+00  0.00000000E+00
  0.00000000E+00  0.00000000E+00  0.00000000E+00
  0.00000000E+00  0.00000000E+00  0.00000000E+00
  0.00000000E+00  0.00000000E+00  0.00000000E+00
  0.00000000E+00  0.00000000E+00  0.00000000E+00
  0.00000000E+00  0.00000000E+00  0.00000000E+00
  0.00000000E+00  0.00000000E+00  0.00000000E+00
  0.00000000E+00  0.00000000E+00  0.00000000E+00
  0.00000000E+00  0.00000000E+00  0.00000000E+00
  0.00000000E+00  0.00000000E+00  0.00000000E+00
  0.00000000E+00  0.00000000E+00  0.00000000E+00
  0.00000000E+00  0.00000000E+00  0.00000000E+00
  0.00000000E+00  0.00000000E+00  0.00000000E+00
  0.00000000E+00  0.00000000E+00  0.00000000E+00
  0.00000000E+00  0.00000000E+00  0.00000000E+00
  0.00000000E+00  0.00000000E+00  0.00000000E+00
  0.00000000E+00  0.00000000E+00  0.00000000E+00
  0.00000000E+00  0.00000000E+00  0.00000000E+00
  0.00000000E+00  0.00000000E+00  0.00000000E+00
  0.00000000E+00  0.00000000E+00  0.00000000E+00
  0.00000000E+00  0.00000000E+00  0.00000000E+00
  0.00000000E+00  0.00000000E+00  0.00000000E+00
  0.00000000E+00  0.00000000E+00  0.00000000E+00
  0.00000000E+00  0.00000000E+00  0.00000000E+00
  0.00000000E+00  0.00000000E+00  0.00000000E+00
  0.00000000E+00  0.00000000E+00  0.00000000E+00
  0.00000000E+00  0.00000000E+00  0.00000000E+00
  0.00000000E+00  0.00000000E+00  0.00000000E+00
  0.00000000E+00  0.00000000E+00  0.00000000E+00
  0.00000000E+00  0.00000000E+00  0.00000000E+00
  0.00000000E+00  0.00000000E+00  0.00000000E+00
  0.00000000E+00  0.00000000E+00  0.00000000E+00
  0.00000000E+00  0.00000000E+00  0.00000000E+00
  0.00000000E+00  0.00000000E+00  0.00000000E+00
  0.00000000E+00  0.00000000E+00  0.00000000E+00
  0.00000000E+00  0.00000000E+00  0.00000000E+00
  0.00000000E+00  0.00000000E+00  0.00000000E+00
  0.00000000E+00  0.00000000E+00  0.00000000E+00
  0.00000000E+00  0.00000000E+00  0.00000000E+00
  0.00000000E+00  0.00000000E+00  0.00000000E+00
  0.00000000E+00  0.00000000E+00  0.00000000E+00
  0.00000000E+00  0.00000000E+00  0.00000000E+00
  0.00000000E+00  0.00000000E+00  0.00000000E+00
  0.00000000E+00  0.00000000E+00  0.00000000E+00
  0.00000000E+00  0.00000000E+00  0.00000000E+00
  0.00000000E+00  0.00000000E+00  0.00000000E+00
  0.00000000E+00  0.00000000E+00  0.00000000E+00
  0.00000000E+00  0.00000000E+00  0.00000000E+00
  0.00000000E+00  0.00000000E+00  0.00000000E+00
  0.00000000E+00  0.00000000E+00  0.00000000E+00
  0.00000000E+00  0.00000000E+00  0.00000000E+00
  0.00000000E+00  0.00000000E+00  0.00000000E+00
  0.00000000E+00  0.00000000E+00  0.00000000E+00
  0.00000000E+00  0.00000000E+00  0.00000000E+00
  0.00000000E+00  0.00000000E+00  0.00000000E+00
  0.00000000E+00  0.00000000E+00  0.00000000E+00
  0.00000000E+00  0.00000000E+00  0.00000000E+00
  0.00000000E+00  0.00000000E+00  0.00000000E+00
  0.00000000E+00  0.00000000E+00  0.00000000E+00
  0.00000000E+00  0.00000000E+00  0.00000000E+00
  0.00000000E+00  0.00000000E+00  0.00000000E+00
  0.00000000E+00  0.00000000E+00  0.00000000E+00
  0.00000000E+00  0.00000000E+00  0.00000000E+00
  0.00000000E+00  0.00000000E+00  0.00000000E+00
  0.00000000E+00  0.00000000E+00  0.00000000E+00
  0.00000000E+00  0.00000000E+00  0.00000000E+00
  0.00000000E+00  0.00000000E+00  0.00000000E+00
  0.00000000E+00  0.00000000E+00  0.00000000E+00
  0.00000000E+00  0.00000000E+00  0.00000000E+00
  0.00000000E+00  0.00000000E+00  0.00000000E+00
  0.00000000E+00  0.00000000E+00  0.00000000E+00
  0.00000000E+00  0.00000000E+00  0.00000000E+00
  0.00000000E+00  0.00000000E+00  0.00000000E+00
  0.00000000E+00  0.00000000E+00  0.00000000E+00
  0.00000000E+00  0.00000000E+00  0.00000000E+00
  0.00000000E+00  0.00000000E+00  0.00000000E+00
  0.00000000E+00  0.00000000E+00  0.00000000E+00
  0.00000000E+00  0.00000000E+00  0.00000000E+00
  0.00000000E+00  0.00000000E+00  0.00000000E+00
  0.00000000E+00  0.00000000E+00  0.00000000E+00
  0.00000000E+00  0.00000000E+00  0.00000000E+00
  0.00000000E+00  0.00000000E+00  0.00000000E+00
  0.00000000E+00  0.00000000E+00  0.00000000E+00
  0.00000000E+00  0.00000000E+00  0.00000000E+00
  0.00000000E+00  0.00000000E+00  0.00000000E+00
  0.00000000E+00  0.00000000E+00  0.00000000E+00
  0.00000000E+00  0.00000000E+00  0.00000000E+00
  0.00000000E+00  0.00000000E+00  0.00000000E+00
  0.00000000E+00  0.00000000E+00  0.00000000E+00
  0.00000000E+00  0.00000000E+00  0.00000000E+00
  0.00000000E+00  0.00000000E+00  0.00000000E+00
  0.00000000E+00  0.00000000E+00  0.00000000E+00
  0.00000000E+00  0.00000000E+00  0.00000000E+00
  0.00000000E+00  0.00000000E+00  0.00000000E+00
  0.00000000E+00  0.00000000E+00  0.00000000E+00
  0.00000000E+00  0.00000000E+00  0.00000000E+00
  0.00000000E+00  0.00000000E+00  0.00000000E+00
  0.00000000E+00  0.00000000E+00  0.00000000E+00
  0.00000000E+00  0.00000000E+00  0.00000000E+00
  0.00000000E+00  0.00000000E+00  0.00000000E+00
  0.00000000E+00  0.00000000E+00  0.00000000E+00
  0.00000000E+00  0.00000000E+00  0.00000000E+00
  0.00000000E+00  0.00000000E+00  0.00000000E+00
  0.00000000E+00  0.00000000E+00  0.00000000E+00
  0.00000000E+00  0.00000000E+00  0.00000000E+00
  0.00000000E+00  0.00000000E+00  0.00000000E+00
  0.00000000E+00  0.00000000E+00  0.00000000E+00
  0.00000000E+00  0.00000000E+00  0.00000000E+00
  0.00000000E+00  0.00000000E+00  0.00000000E+00
  0.00000000E+00  0.00000000E+00  0.00000000E+00
  0.00000000E+00  0.00000000E+00  0.00000000E+00
  0.00000000E+00  0.00000000E+00  0.00000000E+00
  0.00000000E+00  0.00000000E+00  0.00000000E+00
  0.00000000E+00  0.00000000E+00  0.00000000E+00
  0.00000000E+00  0.00000000E+00  0.00000000E+00
  0.00000000E+00  0.00000000E+00  0.00000000E+00
  0.00000000E+00  0.00000000E+00  0.00000000E+00
  0.00000000E+00  0.00000000E+00  0.00000000E+00
  0.00000000E+00  0.00000000E+00  0.00000000E+00
  0.00000000E+00  0.00000000E+00  0.00000000E+00
  0.00000000E+00  0.00000000E+00  0.00000000E+00
  0.00000000E+00  0.00000000E+00  0.00000000E+00
  0.00000000E+00  0.00000000E+00  0.00000000E+00
  0.00000000E+00  0.00000000E+00  0.00000000E+00
  0.00000000E+00  0.00000000E+00  0.00000000E+00
  0.00000000E+00  0.00000000E+00  0.00000000E+00
  0.00000000E+00  0.00000000E+00  0.00000000E+00
  0.00000000E+00  0.00000000E+00  0.00000000E+00
  0.00000000E+00  0.00000000E+00  0.00000000E+00
  0.00000000E+00  0.00000000E+00  0.00000000E+00
  0.00000000E+00  0.00000000E+00  0.00000000E+00
  0.00000000E+00  0.00000000E+00  0.00000000E+00
  0.00000000E+00  0.00000000E+00  0.00000000E+00
  0.00000000E+00  0.00000000E+00  0.00000000E+00
  0.00000000E+00  0.00000000E+00  0.00000000E+00
  0.00000000E+00  0.00000000E+00  0.00000000E+00
  0.00000000E+00  0.00000000E+00  0.00000000E+00
  0.00000000E+00  0.00000000E+00  0.00000000E+00
  0.00000000E+00  0.00000000E+00  0.00000000E+00
  0.00000000E+00  0.00000000E+00  0.00000000E+00
  0.00000000E+00  0.00000000E+00  0.00000000E+00
  0.00000000E+00  0.00000000E+00  0.00000000E+00
  0.00000000E+00  0.00000000E+00  0.00000000E+00
  0.00000000E+00  0.00000000E+00  0.00000000E+00
  0.00000000E+00  0.00000000E+00  0.00000000E+00
  0.00000000E+00  0.00000000E+00  0.00000000E+00
  0.00000000E+00  0.00000000E+00  0.00000000E+00
  0.00000000E+00  0.00000000E+00  0.00000000E+00
  0.00000000E+00  0.00000000E+00  0.00000000E+00
  0.00000000E+00  0.00000000E+00  0.00000000E+00
  0.00000000E+00  0.00000000E+00  0.00000000E+00
  0.00000000E+00  0.00000000E+00  0.00000000E+00
  0.00000000E+00  0.00000000E+00  0.00000000E+00
  0.00000000E+00  0.00000000E+00  0.00000000E+00
  0.00000000E+00  0.00000000E+00  0.00000000E+00
  0.00000000E+00  0.00000000E+00  0.00000000E+00
  0.00000000E+00  0.00000000E+00  0.00000000E+00
  0.00000000E+00  0.00000000E+00  0.00000000E+00
  0.00000000E+00  0.00000000E+00  0.00000000E+00
  0.00000000E+00  0.00000000E+00  0.00000000E+00
  0.00000000E+00  0.00000000E+00  0.00000000E+00
  0.00000000E+00  0.00000000E+00  0.00000000E+00
  0.00000000E+00  0.00000000E+00  0.00000000E+00
  0.00000000E+00  0.00000000E+00  0.00000000E+00
  0.00000000E+00  0.00000000E+00  0.00000000E+00
  0.00000000E+00  0.00000000E+00  0.00000000E+00
  0.00000000E+00  0.00000000E+00  0.00000000E+00
  0.00000000E+00  0.00000000E+00  0.00000000E+00
  0.00000000E+00  0.00000000E+00  0.00000000E+00
  0.00000000E+00  0.00000000E+00  0.00000000E+00
  0.00000000E+00  0.00000000E+00  0.00000000E+00
  0.00000000E+00  0.00000000E+00  0.00000000E+00
  0.00000000E+00  0.00000000E+00  0.00000000E+00
  0.00000000E+00  0.00000000E+00  0.00000000E+00
  0.00000000E+00  0.00000000E+00  0.00000000E+00
  0.00000000E+00  0.00000000E+00  0.00000000E+00
  0.00000000E+00  0.00000000E+00  0.00000000E+00
  0.00000000E+00  0.00000000E+00  0.00000000E+00
  0.00000000E+00  0.00000000E+00  0.00000000E+00
  0.00000000E+00  0.00000000E+00  0.00000000E+00
  0.00000000E+00  0.00000000E+00  0.00000000E+00