 B O N S 
 1.0
 17.527899999999772   0.000000000000000   0.000000000000000
 -8.763949999999658  15.179606674993195   0.000000000000000
  0.000000000000001   0.000000000000002  15.000000000000000
 B O N S 
  49   1  47   1
Cartesian
  7.513183410720027  14.468296134066005   1.666236753217170 
 15.026589961542465   1.446236727760748   1.665367646243055 
 13.782577906849063   3.608439206280207   1.664513345085150 
 12.546269272355582   5.776491071028446   1.664446716205725 
 11.334902159739318   7.954493096313765   1.667108305880505 
 10.054286674775504  10.178298048330930   1.666530366036870 
  8.772110037339434  12.313406562090023   1.667096106467745 
 -7.509586944833967  14.464313084737771   1.664900657282850 
 -0.003001637776349   1.445043878811975   1.664774582413365 
 -1.253490939148162   3.610834278046229   1.664607309537645 
 -2.496881397227920   5.781331247792536   1.664710980746895 
 -3.729408526687900   7.955377335734679   1.663640587861350 
 -4.990416203895204  10.130714798832701   1.664332754615340 
 -6.242370573402297  12.311559648264021   1.664767252670115 
 -5.005418714090798  14.456839408228999   1.663729891635540 
  2.496072805652205   1.437796035883930   1.665583270679580 
  1.236870895047748   3.604385618335952   1.665540083516535 
 -0.012465128977130   5.779002645730933   1.666201734566355 
 -1.253245977649414   7.955030878197376   1.667869398178410 
 -2.499254469795685  10.125705204872865   1.666370332763940 
 -3.749554441258888  12.293063537640467   1.663928430671190 
 -2.501094069753444  14.451759786651392   1.664345223012075 
  4.997528398264382   1.422558143042369   1.667365039392780 
  3.729008580685222   3.591348301079566   1.666950698649300 
  2.469608773734071   5.763417429565731   1.662142882962870 
  1.220255491594280   7.957515482198311   1.666739655490470 
 -0.008393800508999  10.126577546635998   1.669379210925855 
 -1.253385533562550  12.290665208931298   1.666317350388180 
 -0.000792053260309  14.451576714555882   1.664349501360225 
  7.512072330448397   1.429659845784734   1.667310560343660 
  6.229576364015994   3.555407867949071   1.671952052936985 
  4.965105077418981   5.704009783967342   1.662945530168085 
  3.655850368034664   7.974564497977296   1.652054643422010 
  2.484357352016367  10.130735834190371   1.665399082781745 
  1.245554513314405  12.291793454510755   1.667257857869775 
  2.502635338503923  14.455362714715443   1.664881249675485 
 10.029902066918746   1.419534328789989   1.664962112393205 
  8.805910840508099   3.553329440289169   1.672317722604180 
  7.521962806105144   5.530371815240034   1.667815305355305 
  6.067114925933113   8.071529262754330   1.654247646672240 
  4.985386283449933  10.187705667622891   1.659573088874190 
  3.741576352936174  12.312784100257065   1.666506641086155 
  5.007224741399234  14.465358148154516   1.665990282525855 
 12.527429191746091   1.439238682100218   1.664652414660420 
 11.289971424957768   3.594967652350043   1.665646553063505 
 10.057699204244914   5.755786543369424   1.672503703735710 
  8.967927530466847   8.071940218280144   1.676961049665345 
  7.511938657668211  10.165825007790742   1.664086853143755 
  6.256188853853066  12.316843098867578   1.667001868304325 
  4.869489307558153   7.220849935628590   1.635748243129125 
  8.765619022635674  13.751842557088624   1.666075802772135 
 16.276234344161104   0.728074335971231   1.665125092601535 
 15.029788764908524   2.887990134678798   1.664587161673515 
 13.790181332329899   5.052294666594398   1.663764663453870 
 12.568628142283750   7.223739141806725   1.662992382401220 
 11.296562542719215   9.414205300271943   1.665543829488360 
 10.036228978747728  11.611097766383452   1.665671079827715 
 -6.254605318440915  13.748760828880659   1.663907123289345 
  1.247382074934653   0.724956972845118   1.664402834239455 
 -0.007188610520506   2.887217533648154   1.664470640412120 
 -1.252042163849062   5.055517907247220   1.664899115136555 
 -2.488828119705648   7.226799076652094   1.664825319885915 
 -3.740100509820257   9.402328656851232   1.663799443333140 
 -4.995915049631279  11.577627671878329   1.663693799538480 
 -3.753593667143770  13.735665300675830   1.663158830999985 
  3.747558362260437   0.715669056498011   1.664694914138865 
  2.484494007031752   2.880628783330725   1.666453006308000 
  1.231276931134257   5.050573451075810   1.665040408262460 
 -0.010328826672453   7.226582129071778   1.668199055424225 
 -1.250087320410679   9.399775514048669   1.668540975102195 
 -2.499205197221640  11.569249579082127   1.665443322070470 
 -1.251833604862765  13.731631516500510   1.664177794117920 
  6.256121679247264   0.712966711853611   1.665652053270855 
  4.978869259683873   2.860773336026539   1.669991770145715 
  3.709442293944643   5.042108627545558   1.662395071217115 
  2.464485804693948   7.222301439951046   1.660866140365740 
  1.241045356659973   9.399950941334925   1.668230009652180 
 -0.002564313545473  11.567719191496892   1.667994450461715 
  1.250863676511487  13.731900490379960   1.664783021554995 
  8.767016308127484   0.710725711181253   1.664337839179710 
  7.509893976089358   2.868404711317197   1.671492073982445 
  6.192962221398968   4.996715037605913   1.670132065828185 
  3.737933384162251   9.401651582652780   1.657875346068795 
  2.496058233822254  11.571049567173286   1.667163278565735 
  3.749044654856426  13.745939744602040   1.665811694861355 
 11.278951486830069   0.710187788575690   1.663773261115785 
 10.050866827223485   2.848492424254452   1.666803200329995 
  8.840278382428506   4.966898840955471   1.675500751180245 
  6.212687028414703   9.497983715554685   1.655808778611480 
  4.989658432534541  11.613134802111905   1.665754557571530 
  6.259687769321912  13.753104309328689   1.666753801807290 
 13.777292631447606   0.724244609786086   1.665136621748130 
 12.538212430873632   2.879795499093576   1.664169427213410 
 11.304330137361950   5.040278009712512   1.666331305104615 
 10.119872083430575   7.218150951387286   1.673358841580895 
  8.807513723590322   9.495416387461857   1.668184056209325 
  7.511110808003514  11.602281325186121   1.667061868034475 
  7.517997725930947   7.217921534157989   1.664911588993500 
