B N O S                                 
   1.0000000000000000     
     8.7639499999999995  -15.1796066749929999    0.0000000000000000
     8.7639499999999995   15.1796066749929999    0.0000000000000000
     0.0000000000000000    0.0000000000000000   15.0000000000000000
   B    N    O    S 
    49    47     1     1
Selective dynamics
Direct
  0.9052115814466183  0.9531403839271412  0.1110824502144780   T   T   T
  0.9049329997105889  0.0952749803552730  0.1110245097495366   T   T   T
  0.9051803840705094  0.2377162520439171  0.1109675563390098   T   T   T
  0.9060599357130866  0.3805428687783198  0.1109631144137155   T   T   T
  0.9086901962107915  0.5240249807933399  0.1111405537253668   T   T   T
  0.9088784048786003  0.6705244915929611  0.1111020244024582   T   T   T
  0.9060559810703720  0.8111808708703278  0.1111397404311827   T   T   T
  0.0480027903104271  0.9528779891620117  0.1109933771521904   T   T   T
  0.0474269498711509  0.0951963980194915  0.1109849721608908   T   T   T
  0.0474229772694334  0.2378740342458743  0.1109738206358434   T   T   T
  0.0479790365622457  0.3808617292644792  0.1109807320497927   T   T   T
  0.0492717735497934  0.5240832325939203  0.1109093725240905   T   T   T
  0.0489821776877999  0.6673898089547994  0.1109555169743562   T   T   T
  0.0493904976447173  0.8110592001402793  0.1109844835113413   T   T   T
  0.1906241711717414  0.9523856393489509  0.1109153261090357   T   T   T
  0.1897651592038744  0.0947189256393941  0.1110388847119720   T   T   T
  0.1892904399304647  0.2374492103457327  0.1110360055677689   T   T   T
  0.1896430036788836  0.3807083259443894  0.1110801156377572   T   T   T
  0.1905301400218802  0.5240604087128589  0.1111912932118936   T   T   T
  0.1909426774440919  0.6670597876263745  0.1110913555175957   T   T   T
  0.1910011525261331  0.8098407159582067  0.1109285620447458   T   T   T
  0.3332042866170323  0.9520510047509434  0.1109563482008051   T   T   T
  0.3319760339280707  0.0937150858714864  0.1111576692928519   T   T   T
  0.3310421949615885  0.2365903397876528  0.1111300465766198   T   T   T
  0.3307366757082125  0.3796816052592691  0.1108095255308579   T   T   T
  0.3317299389728381  0.5242240891068332  0.1111159770326981   T   T   T
  0.3330797455491414  0.6671172556347242  0.1112919473950570   T   T   T
  0.3333568458903298  0.8096827191958058  0.1110878233592122   T   T   T
  0.4759742840330488  0.9520389443531063  0.1109566334240149   T   T   T
  0.4756694656668449  0.0941829308489226  0.1111540373562437   T   T   T
  0.4725204989562548  0.2342226609735702  0.1114634701957995   T   T   T
  0.4711526572865419  0.3757679567128774  0.1108630353445394   T   T   T
  0.4712468309159593  0.5253472417776507  0.1101369762281337   T   T   T
  0.4754329048531236  0.6673911947191421  0.1110266055187831   T   T   T
  0.4759397744795059  0.8097570455998827  0.1111505238579853   T   T   T
  0.6189242803232795  0.9522883579407322  0.1109920833116990   T   T   T
  0.6189829126004636  0.0935158834601765  0.1109974741595473   T   T   T
  0.6194368149851688  0.2340857386076351  0.1114878481736117   T   T   T
  0.6113068001502016  0.3643290589571564  0.1111876870236874   T   T   T
  0.6120079712091153  0.5317350729549092  0.1102831764448158   T   T   T
  0.6199978829795143  0.6711442454175087  0.1106382059249461   T   T   T
  0.6190339725633551  0.8111398644169799  0.1111004427390768   T   T   T
  0.7621451036439318  0.9529468357032378  0.1110660188350573   T   T   T
  0.7621206209691356  0.0948139640845382  0.1109768276440277   T   T   T
  0.7625287094729065  0.2368287749031318  0.1110431035375671   T   T   T
  0.7634002997767753  0.3791788988084572  0.1115002469157135   T   T   T
  0.7775183786063059  0.5317621458254126  0.1117974033110226   T   T   T
  0.7634217711449059  0.6697027943772655  0.1109391235429174   T   T   T
  0.7626310928605582  0.8114072625582771  0.1111334578869548   T   T   T
  0.9530661987359631  0.9059419556465413  0.1110717201848089   T   T   T
  0.9525720855335975  0.0479639790120948  0.1110083395067694   T   T   T
  0.9526053119074432  0.1902546091287370  0.1109724774449006   T   T   T
  0.9531732277177298  0.3328343595962552  0.1109176442302575   T   T   T
  0.9550063544612628  0.4758844742470879  0.1108661588267477   T   T   T
  0.9545842061534842  0.6201876966799709  0.1110362552992243   T   T   T
  0.9550430684654901  0.7649142705068585  0.1110447386551814   T   T   T
  0.0960323511166125  0.9057389379877866  0.1109271415526232   T   T   T
  0.0950448244431836  0.0477586138012003  0.1109601889492969   T   T   T
  0.0946917320238150  0.1902037118263773  0.1109647093608082   T   T   T
  0.0950919654261495  0.3330466997920080  0.1109932743424375   T   T   T
  0.0960506548176710  0.4760860562057574  0.1109883546590608   T   T   T
  0.0963228037141912  0.6194052888300842  0.1109199628888759   T   T   T
  0.0963282197698936  0.7627093323143377  0.1109129199692318   T   T   T
  0.2382884653438120  0.9048762326170083  0.1108772553999995   T   T   T
  0.2373786982285547  0.0471467457504678  0.1109796609425912   T   T   T
  0.2366299334502777  0.1897696590568616  0.1110968670872000   T   T   T
  0.2366071732880038  0.3327209696016763  0.1110026938841638   T   T   T
  0.2374466028941281  0.4760717641634822  0.1112132703616148   T   T   T
  0.2382986896860000  0.6192370932465473  0.1112360650068125   T   T   T
  0.2384942954708330  0.7621574014919145  0.1110295548046982   T   T   T
  0.3808857619909605  0.9046104955487366  0.1109451862745285   T   T   T
  0.3804079896769870  0.0469687210689158  0.1110434702180571   T   T   T
  0.3782847640236037  0.1884616246835540  0.1113327846763813   T   T   T
  0.3777123938031022  0.3321633251441157  0.1108263380811413   T   T   T
  0.3784984787235348  0.4757897615258392  0.1107244093577160   T   T   T
  0.3804283207348778  0.6192486500207116  0.1112153339768116   T   T   T
  0.3808819924563189  0.7620565828331699  0.1111996300307812   T   T   T
  0.5236782570140954  0.9046282149722511  0.1109855347703333   T   T   T
  0.5235854830754444  0.0468210887408632  0.1109558559453144   T   T   T
  0.5229359026645057  0.1889643633548546  0.1114328049321635   T   T   T
  0.5179067083577957  0.3291728925913135  0.1113421377218793   T   T   T
  0.5229365443797512  0.6193606846309798  0.1105250230712527   T   T   T
  0.5235428554610727  0.7622759808549829  0.1111442185710493   T   T   T
  0.6668440533185913  0.9055530909932616  0.1110541129907568   T   T   T
  0.6668784393874663  0.0467856515508826  0.1109182174077194   T   T   T
  0.6672473425311365  0.1876525844999029  0.1111202133553332   T   T   T
  0.6679590119347920  0.3272086653693016  0.1117000500786830   T   T   T
  0.6672990194688946  0.6257068393742781  0.1103872519074320   T   T   T
  0.6671937275240720  0.7650484660609370  0.1110503038381020   T   T   T
  0.8101396199490947  0.9060250771836852  0.1111169201204860   T   T   T
  0.8098765654680203  0.0477116848474871  0.1110091081165419   T   T   T
  0.8101862252458374  0.1897147640747325  0.1109446284808937   T   T   T
  0.8109548778267848  0.3320427279592060  0.1110887536736410   T   T   T
  0.8151160993767317  0.4755163362222315  0.1115572561053932   T   T   T
  0.8152542478539355  0.6255377092941775  0.1112122704139551   T   T   T
  0.8106898746748579  0.7643334622299306  0.1111374578689647   T   T   T
  0.5156606873425328  0.4756941395276187  0.1090498828752745   T   T   T
  0.6665405803027918  0.4755012227061686  0.1109941059328995   T   T   T

  0.00000000E+00  0.00000000E+00  0.00000000E+00
  0.00000000E+00  0.00000000E+00  0.00000000E+00
  0.00000000E+00  0.00000000E+00  0.00000000E+00
  0.00000000E+00  0.00000000E+00  0.00000000E+00
  0.00000000E+00  0.00000000E+00  0.00000000E+00
  0.00000000E+00  0.00000000E+00  0.00000000E+00
  0.00000000E+00  0.00000000E+00  0.00000000E+00
  0.00000000E+00  0.00000000E+00  0.00000000E+00
  0.00000000E+00  0.00000000E+00  0.00000000E+00
  0.00000000E+00  0.00000000E+00  0.00000000E+00
  0.00000000E+00  0.00000000E+00  0.00000000E+00
  0.00000000E+00  0.00000000E+00  0.00000000E+00
  0.00000000E+00  0.00000000E+00  0.00000000E+00
  0.00000000E+00  0.00000000E+00  0.00000000E+00
  0.00000000E+00  0.00000000E+00  0.00000000E+00
  0.00000000E+00  0.00000000E+00  0.00000000E+00
  0.00000000E+00  0.00000000E+00  0.00000000E+00
  0.00000000E+00  0.00000000E+00  0.00000000E+00
  0.00000000E+00  0.00000000E+00  0.00000000E+00
  0.00000000E+00  0.00000000E+00  0.00000000E+00
  0.00000000E+00  0.00000000E+00  0.00000000E+00
  0.00000000E+00  0.00000000E+00  0.00000000E+00
  0.00000000E+00  0.00000000E+00  0.00000000E+00
  0.00000000E+00  0.00000000E+00  0.00000000E+00
  0.00000000E+00  0.00000000E+00  0.00000000E+00
  0.00000000E+00  0.00000000E+00  0.00000000E+00
  0.00000000E+00  0.00000000E+00  0.00000000E+00
  0.00000000E+00  0.00000000E+00  0.00000000E+00
  0.00000000E+00  0.00000000E+00  0.00000000E+00
  0.00000000E+00  0.00000000E+00  0.00000000E+00
  0.00000000E+00  0.00000000E+00  0.00000000E+00
  0.00000000E+00  0.00000000E+00  0.00000000E+00
  0.00000000E+00  0.00000000E+00  0.00000000E+00
  0.00000000E+00  0.00000000E+00  0.00000000E+00
  0.00000000E+00  0.00000000E+00  0.00000000E+00
  0.00000000E+00  0.00000000E+00  0.00000000E+00
  0.00000000E+00  0.00000000E+00  0.00000000E+00
  0.00000000E+00  0.00000000E+00  0.00000000E+00
  0.00000000E+00  0.00000000E+00  0.00000000E+00
  0.00000000E+00  0.00000000E+00  0.00000000E+00
  0.00000000E+00  0.00000000E+00  0.00000000E+00
  0.00000000E+00  0.00000000E+00  0.00000000E+00
  0.00000000E+00  0.00000000E+00  0.00000000E+00
  0.00000000E+00  0.00000000E+00  0.00000000E+00
  0.00000000E+00  0.00000000E+00  0.00000000E+00
  0.00000000E+00  0.00000000E+00  0.00000000E+00
  0.00000000E+00  0.00000000E+00  0.00000000E+00
  0.00000000E+00  0.00000000E+00  0.00000000E+00
  0.00000000E+00  0.00000000E+00  0.00000000E+00
  0.00000000E+00  0.00000000E+00  0.00000000E+00
  0.00000000E+00  0.00000000E+00  0.00000000E+00
  0.00000000E+00  0.00000000E+00  0.00000000E+00
  0.00000000E+00  0.00000000E+00  0.00000000E+00
  0.00000000E+00  0.00000000E+00  0.00000000E+00
  0.00000000E+00  0.00000000E+00  0.00000000E+00
  0.00000000E+00  0.00000000E+00  0.00000000E+00
  0.00000000E+00  0.00000000E+00  0.00000000E+00
  0.00000000E+00  0.00000000E+00  0.00000000E+00
  0.00000000E+00  0.00000000E+00  0.00000000E+00
  0.00000000E+00  0.00000000E+00  0.00000000E+00
  0.00000000E+00  0.00000000E+00  0.00000000E+00
  0.00000000E+00  0.00000000E+00  0.00000000E+00
  0.00000000E+00  0.00000000E+00  0.00000000E+00
  0.00000000E+00  0.00000000E+00  0.00000000E+00
  0.00000000E+00  0.00000000E+00  0.00000000E+00
  0.00000000E+00  0.00000000E+00  0.00000000E+00
  0.00000000E+00  0.00000000E+00  0.00000000E+00
  0.00000000E+00  0.00000000E+00  0.00000000E+00
  0.00000000E+00  0.00000000E+00  0.00000000E+00
  0.00000000E+00  0.00000000E+00  0.00000000E+00
  0.00000000E+00  0.00000000E+00  0.00000000E+00
  0.00000000E+00  0.00000000E+00  0.00000000E+00
  0.00000000E+00  0.00000000E+00  0.00000000E+00
  0.00000000E+00  0.00000000E+00  0.00000000E+00
  0.00000000E+00  0.00000000E+00  0.00000000E+00
  0.00000000E+00  0.00000000E+00  0.00000000E+00
  0.00000000E+00  0.00000000E+00  0.00000000E+00
  0.00000000E+00  0.00000000E+00  0.00000000E+00
  0.00000000E+00  0.00000000E+00  0.00000000E+00
  0.00000000E+00  0.00000000E+00  0.00000000E+00
  0.00000000E+00  0.00000000E+00  0.00000000E+00
  0.00000000E+00  0.00000000E+00  0.00000000E+00
  0.00000000E+00  0.00000000E+00  0.00000000E+00
  0.00000000E+00  0.00000000E+00  0.00000000E+00
  0.00000000E+00  0.00000000E+00  0.00000000E+00
  0.00000000E+00  0.00000000E+00  0.00000000E+00
  0.00000000E+00  0.00000000E+00  0.00000000E+00
  0.00000000E+00  0.00000000E+00  0.00000000E+00
  0.00000000E+00  0.00000000E+00  0.00000000E+00
  0.00000000E+00  0.00000000E+00  0.00000000E+00
  0.00000000E+00  0.00000000E+00  0.00000000E+00
  0.00000000E+00  0.00000000E+00  0.00000000E+00
  0.00000000E+00  0.00000000E+00  0.00000000E+00
  0.00000000E+00  0.00000000E+00  0.00000000E+00
  0.00000000E+00  0.00000000E+00  0.00000000E+00
  0.00000000E+00  0.00000000E+00  0.00000000E+00
  0.00000000E+00  0.00000000E+00  0.00000000E+00
  0.00000000E+00  0.00000000E+00  0.00000000E+00
