Species order: X N B                    
   2.51242800000000     
     5.9449720136058266    0.0000000000000000    0.0000000000000000
    -2.9724860068029120    5.1484967885702053   -0.0000000000000001
     0.0000000000000000    0.0000000000000009    5.3101128803662583
   Si   N    B 
     1   143   144
Direct
  0.5555555555555571  0.4444444444444429  0.3750000000000000
  0.1110795154620557  0.0555505837443071  0.1249898672510818
  0.6112281494001094  0.5557896321335535  0.1238225725192983
  0.4444633275264896  0.0555724414321200  0.1250820906543923
  0.9444275585678824  0.5555366724735059  0.1250820906543923
  0.7777985866971175  0.0555659600152293  0.1249573740428800
  0.1111016180608529  0.7222174756970861  0.6251284503729501
  0.4444633275264896  0.7222242194277003  0.6249179093456181
  0.2776942016470398  0.2221879540058345  0.6248991000009907
  0.7778120459941630  0.7223057983529743  0.6248991000009907
  0.6111604190254701  0.2221879540058345  0.6248991000009907
  0.9444340399847677  0.2222014133028753  0.6250426259571235
  0.2777825243029114  0.7222174756970861  0.1248715496270530
  0.1110427809181667  0.2221880571257476  0.1250670160399174
  0.4444545224097485  0.2222423781528363  0.1254232020382052
  0.6111604190254701  0.7223057983529743  0.1251008999990012
  0.9444275585678824  0.7222242194277003  0.1250820906543923
  0.7778119428742575  0.2221880571257476  0.1250670160399174
  0.1111031161549769  0.8888968838450272  0.6251635606374689
  0.4444604343567165  0.8888968838450272  0.6251635606374689
  0.2776942016470398  0.3888395809745257  0.6248991000009907
  0.6112281494001094  0.3887718505998876  0.6261774274806996
  0.7778119428742575  0.8889572190818408  0.6249329839600813
  0.9444494162556982  0.3888622650510821  0.6250101327489276
  0.1110795154620557  0.3888622650510821  0.1249898672510818
  0.2777825243029114  0.8888983819391514  0.1248715496270530
  0.6111377349489232  0.8889204845379491  0.1249898672510818
  0.4442103678664444  0.3887718505998876  0.1238225725192983
  0.9444494162556982  0.8889204845379491  0.1249898672510818
  0.7778120459941630  0.3888395809745257  0.1251008999990012
  0.2777757805722917  0.5555366724735059  0.6249179093456181
  0.1110795154620557  0.0555505837443071  0.6250101327489276
  0.6112281494001094  0.5557896321335535  0.6261774274806994
  0.4444633275264896  0.0555724414321200  0.6249179093456181
  0.9444275585678824  0.5555366724735059  0.6249179093456181
  0.1111031161549769  0.5555395656432861  0.1248364393625408
  0.7777985866971175  0.0555659600152293  0.6250426259571235
  0.2777757805722917  0.0555724414321200  0.1250820906543923
  0.4444545224097485  0.5555454775902552  0.1254232020382052
  0.7777576218471672  0.5555454775902552  0.1254232020382052
  0.6111377349489232  0.0555505837443071  0.1249898672510818
  0.4444545224097485  0.5555454775902552  0.6245767979617980
  0.9444340399847677  0.0555659600152293  0.1249573740428800
  0.2777825243029114  0.7222174756970861  0.6251284503729501
  0.1110427809181667  0.2221880571257476  0.6249329839600813
  0.4444545224097485  0.2222423781528363  0.6245767979617980
  0.6111604190254701  0.7223057983529743  0.6248991000009907
  0.9444275585678824  0.7222242194277003  0.6249179093456181
  0.7778119428742575  0.2221880571257476  0.6249329839600813
  0.1111016180608529  0.7222174756970861  0.1248715496270530
  0.4444633275264896  0.7222242194277003  0.1250820906543923
  0.2776942016470398  0.2221879540058345  0.1251008999990012
  0.7778120459941630  0.7223057983529743  0.1251008999990011
  0.6111604190254701  0.2221879540058345  0.1251008999990011
  0.9444340399847677  0.2222014133028753  0.1249573740428800
  0.1110795154620557  0.3888622650510821  0.6250101327489276
  0.2777825243029114  0.8888983819391514  0.6251284503729501
  0.6111377349489232  0.8889204845379491  0.6250101327489276
  0.4442103678664444  0.3887718505998876  0.6261774274806996
  0.9444494162556982  0.8889204845379491  0.6250101327489276
  0.1111031161549769  0.8888968838450272  0.1248364393625408
  0.7778120459941630  0.3888395809745257  0.6248991000009907
  0.4444604343567165  0.8888968838450272  0.1248364393625408
  0.2776942016470398  0.3888395809745257  0.1251008999990011
  0.2777757805722917  0.5555366724735059  0.1250820906543923
  0.6112281494001094  0.3887718505998876  0.1238225725192983
  0.7778119428742575  0.8889572190818408  0.1250670160399174
  0.9444494162556982  0.3888622650510821  0.1249898672510818
  0.1111031161549769  0.5555395656432861  0.6251635606374689
  0.2777757805722917  0.0555724414321200  0.6249179093456181
  0.7777576218471672  0.5555454775902552  0.6245767979617980
  0.6111377349489232  0.0555505837443071  0.6250101327489276
  0.9444340399847677  0.0555659600152293  0.6250426259571235
  0.0544431995944666  0.1103525675565108  0.3750000000000000
  0.5556001233909624  0.6208355657733228  0.3750000000000000
  0.3875708846543147  0.1084751026419701  0.3750000000000000
  0.8915248973580279  0.6124291153456859  0.3750000000000000
  0.7225760346287128  0.1103525675565108  0.3750000000000000
  0.0555624567622551  0.7777799916626711  0.8750000000000000
  0.3888842015670830  0.7777799916626711  0.8750000000000000
  0.2222329850989163  0.2777831592161267  0.8750000000000000
  0.7222168407838705  0.7777670149010822  0.8750000000000000
  0.5555413079271565  0.2777657372733190  0.8750000000000000
  0.8888894367634572  0.2777840317420190  0.8750000000000000
  0.2222222222222214  0.7777777777777786  0.3750000000000000
  0.0544431995944666  0.2774239653712868  0.3750000000000000
  0.3791644342266717  0.2680978909509816  0.3750000000000000
  0.5550884373255548  0.7816279602370881  0.3750000000000000
  0.8932061895781935  0.7816279602370881  0.3750000000000000
  0.7240214009946335  0.2759785990053700  0.3750000000000000
  0.0555590040683399  0.9444409959316497  0.8750000000000000
  0.3888842015670830  0.9444375432377389  0.8750000000000000
  0.2222254224341823  0.4444528123999227  0.8750000000000000
  0.5555555555555571  0.4444444444444429  0.8750000000000000
  0.7222159682579862  0.9444387383547611  0.8750000000000000
  0.8888940566324065  0.4444528123999227  0.8750000000000000
  0.0557776678210673  0.4448886689754587  0.3750000000000000
  0.2218172063638462  0.9433442162045328  0.3750000000000000
  0.5551113310245405  0.9442223321789266  0.3750000000000000
  0.3791644342266717  0.4443998766090289  0.3750000000000000
  0.8896474324434877  0.9455568004055336  0.3750000000000000
  0.7319021090490228  0.4443998766090289  0.3750000000000000
  0.2222200083373260  0.6111157984329109  0.8750000000000000
  0.0555612616452347  0.1111105632365515  0.8750000000000000
  0.5555413079271565  0.6111089039871767  0.8750000000000000
  0.3888813069846625  0.1110959473026723  0.8750000000000000
  0.8889040526973322  0.6111186930153331  0.8750000000000000
  0.0566557837954707  0.6118063234926566  0.3750000000000000
  0.7222159682579862  0.1111105632365515  0.8750000000000000
  0.2183720397629171  0.1067938104218109  0.3750000000000000
  0.3875708846543147  0.6124291153456859  0.3750000000000000
  0.7319021090490226  0.6208355657733228  0.3750000000000000
  0.5550884373255548  0.1067938104218110  0.3750000000000000
  0.3888813069846625  0.6111186930153331  0.8750000000000000
  0.8888888888888857  0.1111111111111143  0.3750000000000000
  0.2222222222222214  0.7777777777777786  0.8750000000000000
  0.0555612616452347  0.2777840317420190  0.8750000000000000
  0.3888910960128256  0.2777657372733190  0.8750000000000000
  0.5555471876000670  0.7777745775658275  0.8750000000000000
  0.8888940566324065  0.7777745775658275  0.8750000000000000
  0.7222168407838705  0.2777831592161267  0.8750000000000000
  0.0566557837954708  0.7781827936361564  0.3750000000000000
  0.3881936765073494  0.7781827936361564  0.3750000000000000
  0.2186238646774018  0.2759785990053700  0.3750000000000000
  0.7240214009946335  0.7813761353225958  0.3750000000000000
  0.5556001233909622  0.2680978909509816  0.3750000000000000
  0.8896474324434877  0.2774239653712868  0.3750000000000000
  0.0555590040683399  0.4444513414700118  0.8750000000000000
  0.2222200083373260  0.9444375432377389  0.8750000000000000
  0.5555486585299896  0.9444409959316497  0.8750000000000000
  0.3888910960128256  0.4444586920728432  0.8750000000000000
  0.8888894367634572  0.9444387383547611  0.8750000000000000
  0.0557776678210673  0.9442223321789266  0.3750000000000000
  0.7222342627266781  0.4444586920728432  0.8750000000000000
  0.3881936765073494  0.9433442162045328  0.3750000000000000
  0.2183720397629171  0.4449115626744430  0.3750000000000000
  0.2218172063638462  0.6118063234926566  0.3750000000000000
  0.7225760346287128  0.9455568004055336  0.3750000000000000
  0.8932061895781935  0.4449115626744430  0.3750000000000000
  0.0555624567622551  0.6111157984329109  0.8750000000000000
  0.2222254224341823  0.1111059433675931  0.8750000000000000
  0.7222342627266781  0.6111089039871767  0.8750000000000000
  0.5555471876000670  0.1111059433675931  0.8750000000000000
  0.8888888888888857  0.1111111111111143  0.8750000000000000
  0.1091226129227995  0.0539288881303428  0.3750000000000000
  0.6224774046934777  0.5782881427202839  0.3750000000000000
  0.4439318224728963  0.0539191058755491  0.3750000000000000
  0.9460808941244543  0.5560681775270983  0.3750000000000000
  0.7781968776088078  0.0557651054710672  0.3750000000000000
  0.1110987203094079  0.7222160268213739  0.8750000000000000
  0.4444462735048474  0.7221837708783091  0.8750000000000000
  0.2778794888964223  0.2222861290710138  0.8750000000000000
  0.7777138709289921  0.7221205111035800  0.8750000000000000
  0.6110733068412597  0.2222861290710138  0.8750000000000000
  0.9444538414344293  0.2222410162021855  0.8750000000000000
  0.2775058276480810  0.7224941723519284  0.3750000000000000
  0.1091068291657322  0.2212200812495308  0.3750000000000000
  0.4431944477526720  0.2197222288386769  0.3750000000000000
  0.6118552661222734  0.7287916985283202  0.3750000000000000
  0.9460808941244542  0.7233460499306794  0.3750000000000000
  0.7787799187504580  0.2212200812495308  0.3750000000000000
  0.1111141897358824  0.8888858102641226  0.8750000000000000
  0.4444382871949030  0.8888858102641226  0.8750000000000000
  0.2778794888964223  0.3889266931587370  0.8750000000000000
  0.6110607243171500  0.3889392756828619  0.8750000000000000
  0.7777437880381453  0.8888209094096234  0.8750000000000000
  0.9444264269893736  0.3889115794898203  0.8750000000000000
  0.1091226129227995  0.3885270581257861  0.3750000000000000
  0.2775058276480810  0.8883449886294906  0.3750000000000000
  0.6114729418742156  0.8908773870772034  0.3750000000000000
  0.4217118572797127  0.3775225953065223  0.3750000000000000
  0.9460711118696511  0.8908773870772034  0.3750000000000000
  0.7836030990727115  0.3881447338777244  0.3750000000000000
  0.2778162291216861  0.5555537264951597  0.8750000000000000
  0.1111518191671279  0.0555735730106382  0.8750000000000000
  0.6110607243171500  0.5554547819676049  0.8750000000000000
  0.4444462735048474  0.0555958359598734  0.8750000000000000
  0.9444041640401355  0.5555537264951597  0.8750000000000000
  0.1112822218903149  0.5558977771139508  0.3750000000000000
  0.7777589837978163  0.0555461585655759  0.8750000000000000
  0.2766539500693180  0.0539191058755491  0.3750000000000000
  0.4431944477526720  0.5568055522473245  0.3750000000000000
  0.7802777711613204  0.5568055522473245  0.3750000000000000
  0.6114729418742156  0.0539288881303428  0.3750000000000000
  0.4444813863692296  0.5555186136307716  0.8750000000000000
  0.9442348945289243  0.0557651054710672  0.3750000000000000
  0.2777839731786320  0.7222160268213739  0.8750000000000000
  0.1111790905903796  0.2222562119618528  0.8750000000000000
  0.4444813863692296  0.2222961060717929  0.8750000000000000
  0.6110733068412597  0.7221205111035800  0.8750000000000000
  0.9444041640401355  0.7221837708783091  0.8750000000000000
  0.7777437880381453  0.2222562119618528  0.8750000000000000
  0.1116550113705161  0.7224941723519284  0.3750000000000000
  0.4439318224728963  0.7233460499306794  0.3750000000000000
  0.2712083014716855  0.2163969009272897  0.3750000000000000
  0.7836030990727115  0.7287916985283202  0.3750000000000000
  0.6118552661222734  0.2163969009272897  0.3750000000000000
  0.9442348945289243  0.2218031223912016  0.3750000000000000
  0.1111518191671279  0.3889115794898203  0.8750000000000000
  0.2777839731786320  0.8889012796905925  0.8750000000000000
  0.6110884205101830  0.8888481808328672  0.8750000000000000
  0.4445452180323856  0.3889392756828619  0.8750000000000000
  0.9444264269893736  0.8888481808328672  0.8750000000000000
  0.1112822218903149  0.8887177781096937  0.3750000000000000
  0.7777138709289921  0.3889266931587370  0.8750000000000000
  0.4441022228860451  0.8887177781096937  0.3750000000000000
  0.2712083014716854  0.3881447338777244  0.3750000000000000
  0.2766539500693180  0.5560681775270983  0.3750000000000000
  0.6224774046934777  0.3775225953065223  0.3750000000000000
  0.7787799187504580  0.8908931708342697  0.3750000000000000
  0.9460711118696511  0.3885270581257861  0.3750000000000000
  0.1111141897358824  0.5555617128050891  0.8750000000000000
  0.2778162291216861  0.0555958359598734  0.8750000000000000
  0.7777038939282050  0.5555186136307716  0.8750000000000000
  0.6110884205101830  0.0555735730106382  0.8750000000000000
  0.9444538414344293  0.0555461585655759  0.8750000000000000
  0.0555642964983369  0.1111404125262624  0.1251657288051409
  0.5556948375135887  0.6109337966272227  0.1253609770333439
  0.3890255390749141  0.1113844114831590  0.1254947940818141
  0.8886155885168290  0.6109744609250971  0.1254947940818141
  0.7222427826945806  0.1111404125262624  0.1251657288051409
  0.0554565549571465  0.7777414787785480  0.6249655092834836
  0.3889515904880568  0.7777414787785480  0.6249655092834836
  0.2222951397215096  0.2778142365274199  0.6246383951251840
  0.7221857634725777  0.7777048602784959  0.6246383951251840
  0.5556948375135887  0.2780943742197056  0.6246390229666540
  0.8888595874737341  0.2777572173054080  0.6248342711948598
  0.2222222222222214  0.7777777777777786  0.1249689752794806
  0.0555642964983368  0.2777572173054080  0.1251657288051409
  0.3890662033727768  0.2780943742197056  0.1253609770333439
  0.5556259017307180  0.7777044189822986  0.1252803968179237
  0.8887451839182373  0.7777044189822986  0.1252803968179237
  0.7221857634725777  0.2778142365274199  0.1253616048748172
  0.0555303747857589  0.9444696252142348  0.6249465001112221
  0.3889515904880568  0.9445434450428511  0.6249655092834836
  0.2222955810177009  0.4443740982692770  0.6247196031820782
  0.5555555555555571  0.4444444444444429  0.6216223489829824
  0.7222427826945806  0.9444357035016505  0.6248342711948598
  0.8887451839182373  0.4443740982692770  0.6247196031820782
  0.0555303747857589  0.4443940829048440  0.1250534998887882
  0.2222585212214582  0.9445434450428511  0.1250344907165223
  0.5556059170951483  0.9444696252142348  0.1250534998887882
  0.3890662033727768  0.4443051624864064  0.1253609770333439
  0.8888595874737341  0.9444357035016505  0.1251657288051409
  0.7219056257803007  0.4443051624864064  0.1253609770333439
  0.2222585212214582  0.6110484095119403  0.6249655092834836
  0.0555642964983368  0.1111404125262624  0.6248342711948598
  0.5556948375135887  0.6109337966272227  0.6246390229666540
  0.3890255390749141  0.1113844114831590  0.6245052059181896
  0.8886155885168290  0.6109744609250971  0.6245052059181896
  0.0554565549571465  0.6110484095119403  0.1250344907165223
  0.7222427826945806  0.1111404125262624  0.6248342711948598
  0.2222955810177009  0.1112548160817570  0.1252803968179237
  0.3890255390749141  0.6109744609250971  0.1254947940818141
  0.7219056257803007  0.6109337966272227  0.1253609770333439
  0.5556259017307180  0.1112548160817570  0.1252803968179237
  0.3890255390749141  0.6109744609250971  0.6245052059181896
  0.8888888888888857  0.1111111111111143  0.1251065550739986
  0.2222222222222214  0.7777777777777786  0.6250310247205262
  0.0555642964983368  0.2777572173054080  0.6248342711948598
  0.3890662033727768  0.2780943742197056  0.6246390229666540
  0.5556259017307180  0.7777044189822986  0.6247196031820782
  0.8887451839182373  0.7777044189822986  0.6247196031820782
  0.7221857634725777  0.2778142365274199  0.6246383951251840
  0.0554565549571465  0.7777414787785480  0.1250344907165223
  0.3889515904880568  0.7777414787785480  0.1250344907165223
  0.2222951397215096  0.2778142365274199  0.1253616048748172
  0.7221857634725777  0.7777048602784959  0.1253616048748172
  0.5556948375135887  0.2780943742197056  0.1253609770333439
  0.8888595874737341  0.2777572173054080  0.1251657288051409
  0.0555303747857589  0.4443940829048440  0.6249465001112221
  0.2222585212214582  0.9445434450428511  0.6249655092834836
  0.5556059170951483  0.9444696252142348  0.6249465001112221
  0.3890662033727768  0.4443051624864064  0.6246390229666540
  0.8888595874737341  0.9444357035016505  0.6248342711948598
  0.0555303747857588  0.9444696252142348  0.1250534998887882
  0.7219056257803007  0.4443051624864064  0.6246390229666540
  0.3889515904880568  0.9445434450428511  0.1250344907165223
  0.2222955810177009  0.4443740982692770  0.1252803968179237
  0.2222585212214582  0.6110484095119403  0.1250344907165223
  0.5555555555555571  0.4444444444444429  0.1283776510170113
  0.7222427826945806  0.9444357035016505  0.1251657288051409
  0.8887451839182374  0.4443740982692770  0.1252803968179237
  0.0554565549571465  0.6110484095119403  0.6249655092834836
  0.2222955810177009  0.1112548160817569  0.6247196031820782
  0.7219056257803007  0.6109337966272227  0.6246390229666540
  0.5556259017307180  0.1112548160817569  0.6247196031820782
  0.8888888888888857  0.1111111111111143  0.6248934449260000
 
  0.00000000E+00  0.00000000E+00  0.00000000E+00
  0.00000000E+00  0.00000000E+00  0.00000000E+00
  0.00000000E+00  0.00000000E+00  0.00000000E+00
  0.00000000E+00  0.00000000E+00  0.00000000E+00
  0.00000000E+00  0.00000000E+00  0.00000000E+00
  0.00000000E+00  0.00000000E+00  0.00000000E+00
  0.00000000E+00  0.00000000E+00  0.00000000E+00
  0.00000000E+00  0.00000000E+00  0.00000000E+00
  0.00000000E+00  0.00000000E+00  0.00000000E+00
  0.00000000E+00  0.00000000E+00  0.00000000E+00
  0.00000000E+00  0.00000000E+00  0.00000000E+00
  0.00000000E+00  0.00000000E+00  0.00000000E+00
  0.00000000E+00  0.00000000E+00  0.00000000E+00
  0.00000000E+00  0.00000000E+00  0.00000000E+00
  0.00000000E+00  0.00000000E+00  0.00000000E+00
  0.00000000E+00  0.00000000E+00  0.00000000E+00
  0.00000000E+00  0.00000000E+00  0.00000000E+00
  0.00000000E+00  0.00000000E+00  0.00000000E+00
  0.00000000E+00  0.00000000E+00  0.00000000E+00
  0.00000000E+00  0.00000000E+00  0.00000000E+00
  0.00000000E+00  0.00000000E+00  0.00000000E+00
  0.00000000E+00  0.00000000E+00  0.00000000E+00
  0.00000000E+00  0.00000000E+00  0.00000000E+00
  0.00000000E+00  0.00000000E+00  0.00000000E+00
  0.00000000E+00  0.00000000E+00  0.00000000E+00
  0.00000000E+00  0.00000000E+00  0.00000000E+00
  0.00000000E+00  0.00000000E+00  0.00000000E+00
  0.00000000E+00  0.00000000E+00  0.00000000E+00
  0.00000000E+00  0.00000000E+00  0.00000000E+00
  0.00000000E+00  0.00000000E+00  0.00000000E+00
  0.00000000E+00  0.00000000E+00  0.00000000E+00
  0.00000000E+00  0.00000000E+00  0.00000000E+00
  0.00000000E+00  0.00000000E+00  0.00000000E+00
  0.00000000E+00  0.00000000E+00  0.00000000E+00
  0.00000000E+00  0.00000000E+00  0.00000000E+00
  0.00000000E+00  0.00000000E+00  0.00000000E+00
  0.00000000E+00  0.00000000E+00  0.00000000E+00
  0.00000000E+00  0.00000000E+00  0.00000000E+00
  0.00000000E+00  0.00000000E+00  0.00000000E+00
  0.00000000E+00  0.00000000E+00  0.00000000E+00
  0.00000000E+00  0.00000000E+00  0.00000000E+00
  0.00000000E+00  0.00000000E+00  0.00000000E+00
  0.00000000E+00  0.00000000E+00  0.00000000E+00
  0.00000000E+00  0.00000000E+00  0.00000000E+00
  0.00000000E+00  0.00000000E+00  0.00000000E+00
  0.00000000E+00  0.00000000E+00  0.00000000E+00
  0.00000000E+00  0.00000000E+00  0.00000000E+00
  0.00000000E+00  0.00000000E+00  0.00000000E+00
  0.00000000E+00  0.00000000E+00  0.00000000E+00
  0.00000000E+00  0.00000000E+00  0.00000000E+00
  0.00000000E+00  0.00000000E+00  0.00000000E+00
  0.00000000E+00  0.00000000E+00  0.00000000E+00
  0.00000000E+00  0.00000000E+00  0.00000000E+00
  0.00000000E+00  0.00000000E+00  0.00000000E+00
  0.00000000E+00  0.00000000E+00  0.00000000E+00
  0.00000000E+00  0.00000000E+00  0.00000000E+00
  0.00000000E+00  0.00000000E+00  0.00000000E+00
  0.00000000E+00  0.00000000E+00  0.00000000E+00
  0.00000000E+00  0.00000000E+00  0.00000000E+00
  0.00000000E+00  0.00000000E+00  0.00000000E+00
  0.00000000E+00  0.00000000E+00  0.00000000E+00
  0.00000000E+00  0.00000000E+00  0.00000000E+00
  0.00000000E+00  0.00000000E+00  0.00000000E+00
  0.00000000E+00  0.00000000E+00  0.00000000E+00
  0.00000000E+00  0.00000000E+00  0.00000000E+00
  0.00000000E+00  0.00000000E+00  0.00000000E+00
  0.00000000E+00  0.00000000E+00  0.00000000E+00
  0.00000000E+00  0.00000000E+00  0.00000000E+00
  0.00000000E+00  0.00000000E+00  0.00000000E+00
  0.00000000E+00  0.00000000E+00  0.00000000E+00
  0.00000000E+00  0.00000000E+00  0.00000000E+00
  0.00000000E+00  0.00000000E+00  0.00000000E+00
  0.00000000E+00  0.00000000E+00  0.00000000E+00
  0.00000000E+00  0.00000000E+00  0.00000000E+00
  0.00000000E+00  0.00000000E+00  0.00000000E+00
  0.00000000E+00  0.00000000E+00  0.00000000E+00
  0.00000000E+00  0.00000000E+00  0.00000000E+00
  0.00000000E+00  0.00000000E+00  0.00000000E+00
  0.00000000E+00  0.00000000E+00  0.00000000E+00
  0.00000000E+00  0.00000000E+00  0.00000000E+00
  0.00000000E+00  0.00000000E+00  0.00000000E+00
  0.00000000E+00  0.00000000E+00  0.00000000E+00
  0.00000000E+00  0.00000000E+00  0.00000000E+00
  0.00000000E+00  0.00000000E+00  0.00000000E+00
  0.00000000E+00  0.00000000E+00  0.00000000E+00
  0.00000000E+00  0.00000000E+00  0.00000000E+00
  0.00000000E+00  0.00000000E+00  0.00000000E+00
  0.00000000E+00  0.00000000E+00  0.00000000E+00
  0.00000000E+00  0.00000000E+00  0.00000000E+00
  0.00000000E+00  0.00000000E+00  0.00000000E+00
  0.00000000E+00  0.00000000E+00  0.00000000E+00
  0.00000000E+00  0.00000000E+00  0.00000000E+00
  0.00000000E+00  0.00000000E+00  0.00000000E+00
  0.00000000E+00  0.00000000E+00  0.00000000E+00
  0.00000000E+00  0.00000000E+00  0.00000000E+00
  0.00000000E+00  0.00000000E+00  0.00000000E+00
  0.00000000E+00  0.00000000E+00  0.00000000E+00
  0.00000000E+00  0.00000000E+00  0.00000000E+00
  0.00000000E+00  0.00000000E+00  0.00000000E+00
  0.00000000E+00  0.00000000E+00  0.00000000E+00
  0.00000000E+00  0.00000000E+00  0.00000000E+00
  0.00000000E+00  0.00000000E+00  0.00000000E+00
  0.00000000E+00  0.00000000E+00  0.00000000E+00
  0.00000000E+00  0.00000000E+00  0.00000000E+00
  0.00000000E+00  0.00000000E+00  0.00000000E+00
  0.00000000E+00  0.00000000E+00  0.00000000E+00
  0.00000000E+00  0.00000000E+00  0.00000000E+00
  0.00000000E+00  0.00000000E+00  0.00000000E+00
  0.00000000E+00  0.00000000E+00  0.00000000E+00
  0.00000000E+00  0.00000000E+00  0.00000000E+00
  0.00000000E+00  0.00000000E+00  0.00000000E+00
  0.00000000E+00  0.00000000E+00  0.00000000E+00
  0.00000000E+00  0.00000000E+00  0.00000000E+00
  0.00000000E+00  0.00000000E+00  0.00000000E+00
  0.00000000E+00  0.00000000E+00  0.00000000E+00
  0.00000000E+00  0.00000000E+00  0.00000000E+00
  0.00000000E+00  0.00000000E+00  0.00000000E+00
  0.00000000E+00  0.00000000E+00  0.00000000E+00
  0.00000000E+00  0.00000000E+00  0.00000000E+00
  0.00000000E+00  0.00000000E+00  0.00000000E+00
  0.00000000E+00  0.00000000E+00  0.00000000E+00
  0.00000000E+00  0.00000000E+00  0.00000000E+00
  0.00000000E+00  0.00000000E+00  0.00000000E+00
  0.00000000E+00  0.00000000E+00  0.00000000E+00
  0.00000000E+00  0.00000000E+00  0.00000000E+00
  0.00000000E+00  0.00000000E+00  0.00000000E+00
  0.00000000E+00  0.00000000E+00  0.00000000E+00
  0.00000000E+00  0.00000000E+00  0.00000000E+00
  0.00000000E+00  0.00000000E+00  0.00000000E+00
  0.00000000E+00  0.00000000E+00  0.00000000E+00
  0.00000000E+00  0.00000000E+00  0.00000000E+00
  0.00000000E+00  0.00000000E+00  0.00000000E+00
  0.00000000E+00  0.00000000E+00  0.00000000E+00
  0.00000000E+00  0.00000000E+00  0.00000000E+00
  0.00000000E+00  0.00000000E+00  0.00000000E+00
  0.00000000E+00  0.00000000E+00  0.00000000E+00
  0.00000000E+00  0.00000000E+00  0.00000000E+00
  0.00000000E+00  0.00000000E+00  0.00000000E+00
  0.00000000E+00  0.00000000E+00  0.00000000E+00
  0.00000000E+00  0.00000000E+00  0.00000000E+00
  0.00000000E+00  0.00000000E+00  0.00000000E+00
  0.00000000E+00  0.00000000E+00  0.00000000E+00
  0.00000000E+00  0.00000000E+00  0.00000000E+00
  0.00000000E+00  0.00000000E+00  0.00000000E+00
  0.00000000E+00  0.00000000E+00  0.00000000E+00
  0.00000000E+00  0.00000000E+00  0.00000000E+00
  0.00000000E+00  0.00000000E+00  0.00000000E+00
  0.00000000E+00  0.00000000E+00  0.00000000E+00
  0.00000000E+00  0.00000000E+00  0.00000000E+00
  0.00000000E+00  0.00000000E+00  0.00000000E+00
  0.00000000E+00  0.00000000E+00  0.00000000E+00
  0.00000000E+00  0.00000000E+00  0.00000000E+00
  0.00000000E+00  0.00000000E+00  0.00000000E+00
  0.00000000E+00  0.00000000E+00  0.00000000E+00
  0.00000000E+00  0.00000000E+00  0.00000000E+00
  0.00000000E+00  0.00000000E+00  0.00000000E+00
  0.00000000E+00  0.00000000E+00  0.00000000E+00
  0.00000000E+00  0.00000000E+00  0.00000000E+00
  0.00000000E+00  0.00000000E+00  0.00000000E+00
  0.00000000E+00  0.00000000E+00  0.00000000E+00
  0.00000000E+00  0.00000000E+00  0.00000000E+00
  0.00000000E+00  0.00000000E+00  0.00000000E+00
  0.00000000E+00  0.00000000E+00  0.00000000E+00
  0.00000000E+00  0.00000000E+00  0.00000000E+00
  0.00000000E+00  0.00000000E+00  0.00000000E+00
  0.00000000E+00  0.00000000E+00  0.00000000E+00
  0.00000000E+00  0.00000000E+00  0.00000000E+00
  0.00000000E+00  0.00000000E+00  0.00000000E+00
  0.00000000E+00  0.00000000E+00  0.00000000E+00
  0.00000000E+00  0.00000000E+00  0.00000000E+00
  0.00000000E+00  0.00000000E+00  0.00000000E+00
  0.00000000E+00  0.00000000E+00  0.00000000E+00
  0.00000000E+00  0.00000000E+00  0.00000000E+00
  0.00000000E+00  0.00000000E+00  0.00000000E+00
  0.00000000E+00  0.00000000E+00  0.00000000E+00
  0.00000000E+00  0.00000000E+00  0.00000000E+00
  0.00000000E+00  0.00000000E+00  0.00000000E+00
  0.00000000E+00  0.00000000E+00  0.00000000E+00
  0.00000000E+00  0.00000000E+00  0.00000000E+00
  0.00000000E+00  0.00000000E+00  0.00000000E+00
  0.00000000E+00  0.00000000E+00  0.00000000E+00
  0.00000000E+00  0.00000000E+00  0.00000000E+00
  0.00000000E+00  0.00000000E+00  0.00000000E+00
  0.00000000E+00  0.00000000E+00  0.00000000E+00
  0.00000000E+00  0.00000000E+00  0.00000000E+00
  0.00000000E+00  0.00000000E+00  0.00000000E+00
  0.00000000E+00  0.00000000E+00  0.00000000E+00
  0.00000000E+00  0.00000000E+00  0.00000000E+00
  0.00000000E+00  0.00000000E+00  0.00000000E+00
  0.00000000E+00  0.00000000E+00  0.00000000E+00
  0.00000000E+00  0.00000000E+00  0.00000000E+00
  0.00000000E+00  0.00000000E+00  0.00000000E+00
  0.00000000E+00  0.00000000E+00  0.00000000E+00
  0.00000000E+00  0.00000000E+00  0.00000000E+00
  0.00000000E+00  0.00000000E+00  0.00000000E+00
  0.00000000E+00  0.00000000E+00  0.00000000E+00
  0.00000000E+00  0.00000000E+00  0.00000000E+00
  0.00000000E+00  0.00000000E+00  0.00000000E+00
  0.00000000E+00  0.00000000E+00  0.00000000E+00
  0.00000000E+00  0.00000000E+00  0.00000000E+00
  0.00000000E+00  0.00000000E+00  0.00000000E+00
  0.00000000E+00  0.00000000E+00  0.00000000E+00
  0.00000000E+00  0.00000000E+00  0.00000000E+00
  0.00000000E+00  0.00000000E+00  0.00000000E+00
  0.00000000E+00  0.00000000E+00  0.00000000E+00
  0.00000000E+00  0.00000000E+00  0.00000000E+00
  0.00000000E+00  0.00000000E+00  0.00000000E+00
  0.00000000E+00  0.00000000E+00  0.00000000E+00
  0.00000000E+00  0.00000000E+00  0.00000000E+00
  0.00000000E+00  0.00000000E+00  0.00000000E+00
  0.00000000E+00  0.00000000E+00  0.00000000E+00
  0.00000000E+00  0.00000000E+00  0.00000000E+00
  0.00000000E+00  0.00000000E+00  0.00000000E+00
  0.00000000E+00  0.00000000E+00  0.00000000E+00
  0.00000000E+00  0.00000000E+00  0.00000000E+00
  0.00000000E+00  0.00000000E+00  0.00000000E+00
  0.00000000E+00  0.00000000E+00  0.00000000E+00
  0.00000000E+00  0.00000000E+00  0.00000000E+00
  0.00000000E+00  0.00000000E+00  0.00000000E+00
  0.00000000E+00  0.00000000E+00  0.00000000E+00
  0.00000000E+00  0.00000000E+00  0.00000000E+00
  0.00000000E+00  0.00000000E+00  0.00000000E+00
  0.00000000E+00  0.00000000E+00  0.00000000E+00
  0.00000000E+00  0.00000000E+00  0.00000000E+00
  0.00000000E+00  0.00000000E+00  0.00000000E+00
  0.00000000E+00  0.00000000E+00  0.00000000E+00
  0.00000000E+00  0.00000000E+00  0.00000000E+00
  0.00000000E+00  0.00000000E+00  0.00000000E+00
  0.00000000E+00  0.00000000E+00  0.00000000E+00
  0.00000000E+00  0.00000000E+00  0.00000000E+00
  0.00000000E+00  0.00000000E+00  0.00000000E+00
  0.00000000E+00  0.00000000E+00  0.00000000E+00
  0.00000000E+00  0.00000000E+00  0.00000000E+00
  0.00000000E+00  0.00000000E+00  0.00000000E+00
  0.00000000E+00  0.00000000E+00  0.00000000E+00
  0.00000000E+00  0.00000000E+00  0.00000000E+00
  0.00000000E+00  0.00000000E+00  0.00000000E+00
  0.00000000E+00  0.00000000E+00  0.00000000E+00
  0.00000000E+00  0.00000000E+00  0.00000000E+00
  0.00000000E+00  0.00000000E+00  0.00000000E+00
  0.00000000E+00  0.00000000E+00  0.00000000E+00
  0.00000000E+00  0.00000000E+00  0.00000000E+00
  0.00000000E+00  0.00000000E+00  0.00000000E+00
  0.00000000E+00  0.00000000E+00  0.00000000E+00
  0.00000000E+00  0.00000000E+00  0.00000000E+00
  0.00000000E+00  0.00000000E+00  0.00000000E+00
  0.00000000E+00  0.00000000E+00  0.00000000E+00