 B N Si 
 1.0
 14.936314146199660   0.000000000000000   0.000000000000000
 -7.468157073099825  12.935227489513863   0.000000000000000
  0.000000000000001   0.000000000000001  13.341276283792837
 B N Si 
 144 143   1
Cartesian
  1.227140219734042   0.697582436222531   5.002978606422314 
  4.978771382066597   7.480288680575335   5.002978606422314 
  6.228028808030413   0.697455900531410   5.002978606422314 
  9.978156949235579   7.192868375992394   5.002978606422314 
 11.206930464700937   0.721334325244986   5.002978606422314 
 -3.734217341230006   9.342028603507320  11.673616748318732 
  1.245007325613424   9.341611365545885  11.673616748318732 
  2.490427613868686   2.875321647297008  11.673616748318732 
  6.223269289423738   9.340793085968832  11.673616748318732 
  7.467115150264445   2.875321647297008  11.673616748318732 
 12.446928455166423   2.874738102076014  11.673616748318732 
 -1.250785744370578   9.345626479220227   5.002978606422314 
 -0.022452438580290   2.861532076211424   5.002978606422314 
  4.978771382066558   2.842157014531311   5.002978606422314 
  3.696131588628157   9.427086412933026   5.002978606422314 
  8.728899523271686   9.356645709494586   5.002978606422314 
  9.979995202713287   2.861532076211424   5.002978606422314 
 -4.978702407106511  11.497940167967291  11.673616748318732 
 -0.000068974960102  11.497940167967291  11.673616748318732 
  1.245929706511613   5.030855252752620  11.673616748318732 
  6.222335338107970   5.031018010564568  11.673616748318732 
  4.978771382066562  11.497100660650068  11.673616748318732 
 11.201797038308861   5.030659754006977  11.673616748318732 
 -1.271691470163683   5.025685882688618   5.002978606422314 
 -2.489385691033239  11.490944517092071   5.002978606422314 
  2.479939692168871  11.523701667107320   5.002978606422314 
  3.479422739113705   4.883340652721541   5.002978606422314 
  7.477603071964205  11.523701667107320   5.002978606422314 
  8.805416213990268   5.020740431565180   5.002978606422314 
  0.000587981062290   7.186213834862061  11.673616748318732 
  1.245166316644976   0.718856809297712  11.673616748318732 
  4.978771382066769   7.184933964889295  11.673616748318732 
  6.223190726617547   0.719144785610654  11.673616748318732 
  9.956954783070739   7.186213834862061  11.673616748318732 
 -2.489385691033181   7.190664207884031   5.002978606422314 
 11.202025075058161   0.718502197214336  11.673616748318732 
  3.729513956102669   0.697455900531410   5.002978606422314 
  2.461380176128268   7.202406485743547   5.002978606422314 
  7.496162588004851   7.202406485743547   5.002978606422314 
  8.730402544399144   0.697582436222531   5.002978606422314 
  2.490213355323909   7.185759641973394  11.673616748318732 
 13.686926445631803   0.721334325244986   5.002978606422314 
 -1.244554040836548   9.342028603507320  11.673616748318732 
  0.000761522143421   2.874934662684182  11.673616748318732 
  4.978771382066558   2.875450702071748  11.673616748318732 
  3.734273474709457   9.340793085968832  11.673616748318732 
  8.712535438519787   9.341611365545885  11.673616748318732 
  9.956781241989770   2.874934662684182  11.673616748318732 
 -3.727985637695933   9.345626479220227   5.002978606422314 
  1.228643240861494   9.356645709494586   5.002978606422314 
  2.434766343581304   2.799143141520290   5.002978606422314 
  6.261411175504933   9.427086412933026   5.002978606422314 
  7.522776420551843   2.799143141520290   5.002978606422314 
 12.446928455166230   2.869073846014685   5.002978606422314 
 -1.244254274175523   5.030659754006977  11.673616748318732 
 -2.489385691033238  11.498140268517812  11.673616748318732 
  2.489350791246166  11.497453422713692  11.673616748318732 
  3.735207426025251   5.031018010564568  11.673616748318732 
  7.468191972887300  11.497453422713692  11.673616748318732 
 -4.974937735538630  11.495766633824196   5.002978606422314 
  8.711613057621651   5.030855252752620  11.673616748318732 
 -0.003833646527923  11.495766633824196   5.002978606422314 
  1.152126550142937   5.020740431565180   5.002978606422314 
 -0.020614185102357   7.192868375992394   5.002978606422314 
  6.478120025019442   4.883340652721541   5.002978606422314 
  4.978771382066405  11.523905833595620   5.002978606422314 
 11.229234234296753   5.025685882688618   5.002978606422314 
 -2.489385691033211   7.186317139597795  11.673616748318732 
  3.734352037515462   0.719144785610654  11.673616748318732 
  7.467329408809151   7.185759641973394  11.673616748318732 
  8.712376447488227   0.718856809297712  11.673616748318732 
 13.691831835274641   0.718502197214336  11.673616748318732 
 -0.000088270103493   1.437626519305615   1.669870569251674 
  3.737483108047014   7.902567640405527   1.672475429808051 
  4.978771382066571   1.440782701320282   1.674260720023171 
  8.709788343456331   7.903093642349228   1.674260720023171 
  9.957631034236440   1.437626519305615   1.669870569251674 
 -4.979978999477211  10.060262956031437   8.337837527192258 
  0.001207617410492  10.060262956031437   8.337837527192258 
  1.245509684523741   3.593590349307791   8.333473406830038 
  4.978771382066509  10.059789287402939   8.333473406830038 
  6.223180194706173   3.597213994085898   8.333481783036550 
 11.201951503345219   3.592852792699790   8.336086643592967 
 -2.489385691033300  10.060732491844131   1.667245626106033 
 -1.244408739212164   3.592852792699789   1.669870569251674 
  3.734362569426835   3.597213994085897   1.672475429808051 
  2.490984258611819  10.059783579136242   1.671400386891125 
  7.466558505521135  10.059783579136242   1.671400386891125 
  8.712033079609389   3.593590349307790   1.672483806014605 
 -6.224028389415328  12.216929459082030   8.337583920573184 
 -1.244495666753221  12.217884335358415   8.337837527192258 
  0.001621066300303   5.748080051560687   8.334556825953529 
  4.978771382066590   5.748989995339477   8.293235501962252 
  3.734450912957813  12.216490674012920   8.336086643592967 
  9.955921697832725   5.748080051560687   8.334556825953529 
 -2.489385691033219   5.748338557368041   1.668373292271577 
 -3.734275715313363  12.217884335358415   1.668119685652451 
  1.245257007348863  12.216929459082030   1.668373292271577 
  2.493074295407383   5.747188351527083   1.672475429808051 
  6.223091851175263  12.216490674012920   1.669870569251674 
  7.464468468725808   5.747188351527083   1.672475429808051 
 -1.243682406869512   7.904050184142571   8.337837527192258 
 -0.000088270103492   1.437626519305616   8.336086643592967 
  3.737483108047015   7.902567640405528   8.333481783036550 
  4.978771382066572   1.440782701320283   8.331696492821511 
  8.709788343456331   7.903093642349229   8.331696492821511 
 -3.735088975197074   7.904050184142570   1.668119685652451 
  9.957631034236440   1.437626519305616   8.336086643592967 
  2.489408189754966   1.439106355321552   1.671400386891125 
  1.247754420676471   7.903093642349228   1.674260720023171 
  6.220059656086104   7.902567640405527   1.672475429808051 
  7.468134574378071   1.439106355321552   1.671400386891125 
  1.247754420676471   7.903093642349229   8.331696492821511 
 12.446928455166319   1.437247498834911   1.669081116155765 
 -2.489385691033300  10.060732491844131   8.338711586738688 
 -1.244408739212164   3.592852792699790   8.336086643592967 
  3.734362569426836   3.597213994085898   8.333481783036550 
  2.490984258611820  10.059783579136242   8.334556825953529 
  7.466558505521136  10.059783579136242   8.334556825953529 
  8.712033079609389   3.593590349307791   8.333473406830038 
 -4.979978999477212  10.060262956031437   1.668119685652451 
  0.001207617410492  10.060262956031437   1.668119685652451 
  1.245509684523741   3.593590349307790   1.672483806014605 
  4.978771382066508  10.059789287402939   1.672483806014605 
  6.223180194706172   3.597213994085897   1.672475429808051 
 11.201951503345219   3.592852792699789   1.669870569251674 
 -2.489385691033219   5.748338557368042   8.337583920573184 
 -3.734275715313363  12.217884335358415   8.337837527192258 
  1.245257007348864  12.216929459082030   8.337583920573184 
  2.493074295407383   5.747188351527083   8.333481783036550 
  6.223091851175264  12.216490674012920   8.336086643592967 
 -6.224028389415329  12.216929459082030   1.668373292271577 
  7.464468468725809   5.747188351527083   8.333481783036550 
 -1.244495666753221  12.217884335358415   1.668119685652451 
  0.001621066300303   5.748080051560686   1.671400386891125 
 -1.243682406869512   7.904050184142570   1.668119685652451 
  4.978771382066589   5.748989995339476   1.712721710882282 
  3.734450912957812  12.216490674012920   1.669870569251674 
  9.955921697832725   5.748080051560686   1.671400386891125 
 -3.735088975197073   7.904050184142571   8.337837527192258 
  2.489408189754967   1.439106355321553   8.334556825953529 
  6.220059656086105   7.902567640405528   8.333481783036550 
  7.468134574378072   1.439106355321553   8.334556825953529 
 12.446928455166319   1.437247498834912   8.336876096688849 
  1.244258053244040   0.718559437907902   1.667524351671275 
  4.978771382066544   7.189265327960733   1.651951150149929 
  6.223620164850172   0.718842172072158   1.668754729574666 
  9.957431573198910   7.185993237212355   1.668754729574666 
 11.202468716066951   0.718758333470219   1.667090850803306 
 -3.734184879935503   9.342047345044259   8.340011369284804 
  1.244959973717908   9.342134576733878   8.337202483270095 
  2.488393292112058   2.874051730495107   8.336951542606711 
  6.223351908756340   9.343189818690647   8.336951542606711 
  7.469149472021193   2.874051730495107   8.336951542606711 
 12.446928455166343   2.874225829564181   8.338866362041362 
 -1.244586502130873   9.342047345044259   1.665945843559862 
 -0.000765450920595   2.874053064374652   1.668553614978083 
  4.978771382066505   2.874755719217500   1.673305590789662 
  3.734190855376660   9.343189818690647   1.669005670237812 
  8.712582790415286   9.342134576733878   1.668754729574666 
  9.958308215053844   2.874053064374652   1.668553614978083 
 -4.978950504831183  11.498083407255404   8.340479785024151 
  0.000179122764647  11.498083407255404   8.340479785024151 
  1.243812765422227   5.029728436832741   8.336951542606711 
  6.226086408560627   5.028852329028849   8.354006062694673 
  4.978771382066606  11.498863857269228   8.337403597866517 
 11.202508701187135   5.030021860523383   8.338432861173485 
 -1.244965937053946   5.030021860523382   1.667524351671275 
 -2.489385691033239  11.498102785443701   1.665945843559862 
  2.489547391768610  11.498388687587262   1.667524351671275 
  3.731456355572460   5.028852329028848   1.651951150149929 
  7.467995372364586  11.498388687587262   1.667524351671275 
  8.713729998711040   5.029728436832740   1.669005670237812 
  0.000111190934224   7.185993237212355   8.337202483270095 
  1.244258053244041   0.718559437907903   8.338432861173485 
  4.978771382066545   7.189265327960734   8.354006062694658 
  6.223620164850173   0.718842172072159   8.337202483270095 
  9.957431573198910   7.185993237212355   8.337202483270095 
 -2.489385691033264   7.186030661021625   1.665477427820611 
 11.202468716066951   0.718758333470219   8.338866362041362 
  3.733922599282865   0.718842172072158   1.668754729574666 
  2.489611482516850   7.186107133400574   1.673305590789662 
  7.467931281616164   7.186107133400574   1.673305590789662 
  8.713284710889146   0.718559437907902   1.667524351671275 
  2.489611482516850   7.186107133400575   8.332651622055005 
 13.691388194265672   0.718758333470219   1.667090850803306 
 -1.244586502130872   9.342047345044259   8.340011369284804 
 -0.000765450920595   2.874053064374653   8.337403597866517 
  4.978771382066506   2.874755719217501   8.332651622055005 
  3.734190855376661   9.343189818690647   8.336951542606711 
  8.712582790415286   9.342134576733878   8.337202483270095 
  9.958308215053844   2.874053064374653   8.337403597866517 
 -3.734184879935503   9.342047345044259   1.665945843559862 
  1.244959973717908   9.342134576733878   1.668754729574666 
  2.488393292112057   2.874051730495106   1.669005670237812 
  6.223351908756339   9.343189818690647   1.669005670237812 
  7.469149472021192   2.874051730495106   1.669005670237812 
 12.446928455166343   2.874225829564180   1.667090850803306 
 -1.244965937053945   5.030021860523383   8.338432861173485 
 -2.489385691033239  11.498102785443701   8.340011369284804 
  2.489547391768611  11.498388687587262   8.338432861173485 
  3.731456355572461   5.028852329028849   8.354006062694673 
  7.467995372364586  11.498388687587262   8.338432861173485 
 -4.978950504831184  11.498083407255404   1.665477427820611 
  8.713729998711040   5.029728436832741   8.336951542606711 
  0.000179122764647  11.498083407255404   1.665477427820611 
  1.243812765422227   5.029728436832740   1.669005670237812 
  0.000111190934224   7.185993237212355   1.668754729574666 
  6.226086408560626   5.028852329028848   1.651951150149929 
  4.978771382066605  11.498863857269228   1.668553614978083 
 11.202508701187135   5.030021860523382   1.667524351671275 
 -2.489385691033263   7.186030661021626   8.340479785024151 
  3.733922599282866   0.718842172072159   8.337202483270095 
  7.467931281616165   7.186107133400575   8.332651622055005 
  8.713284710889146   0.718559437907903   8.338432861173485 
 13.691388194265672   0.718758333470219   8.338866362041362 
 -0.010949575664674   1.427435565395417   5.002978606422314 
  3.662120460872730   8.030649276858981   5.002978606422314 
  4.978771382066504   1.403150129622249   5.002978606422314 
  8.742379106556760   7.921909928198176   5.002978606422314 
  9.968492339797816   1.427435565395417   5.002978606422314 
 -4.978684837115422  10.060761128948847  11.673616748318732 
 -0.000086544951117  10.060761128948847  11.673616748318732 
  1.244813413797184   3.593188357216454  11.673616748318732 
  4.978771382066495  10.060593271585617  11.673616748318732 
  6.223341340908131   3.592963000422923  11.673616748318732 
 11.202197087289125   3.593199643537357  11.673616748318732 
 -2.489385691033300  10.060732491844131   5.002978606422314 
 -1.258665016967768   3.588542103120614   5.002978606422314 
  3.661121942086911   3.467907208909833   5.002978606422314 
  2.453654899040353  10.110535477831430   5.002978606422314 
  7.503887865092676  10.110535477831430   5.002978606422314 
  8.753159567641314   3.569845960371786   5.002978606422314 
 -6.223386965477682  12.216559132798931  11.673616748318732 
 -1.244711317531960  12.216514471417740  11.673616748318732 
 -0.000014693834726   5.749098236747233  11.673616748318732 
  4.978771382066590   5.748989995339477  11.673616748318732 
  3.734027739349459  12.216529930528297  11.673616748318732 
  9.957557457967827   5.749098236747233  11.673616748318732 
 -2.489385691033211   5.754736140704591   5.002978606422314 
 -3.731911303332891  12.202372037522785   5.002978606422314 
  1.239716537656694  12.213730667413747   5.002978606422314 
  2.344471020893223   5.748413500249682   5.002978606422314 
  6.226486823369648  12.230992317502437   5.002978606422314 
  7.613071743239878   5.748413500249682   5.002978606422314 
 -1.244760918452382   7.904921875165604  11.673616748318732 
  0.000089319561271   1.437240411952804  11.673616748318732 
  3.733882212644538   7.904832693941620  11.673616748318732 
  4.978771382066459   1.437051351523108  11.673616748318732 
  8.713019787171387   7.904959317247719  11.673616748318732 
 -3.722837137190562   7.913853973900628   5.002978606422314 
  9.957453444571888   1.437240411952804  11.673616748318732 
  2.464120435980403   1.381402232278142   5.002978606422314 
  1.215163657576208   7.921909928198176   5.002978606422314 
  6.295422303260314   8.030649276858981   5.002978606422314 
  7.493422328152620   1.381402232278142   5.002978606422314 
  1.244522976961655   7.904959317247719  11.673616748318732 
 12.446928455166319   1.437247498834912   5.002978606422314 
 -2.489385691033299  10.060732491844133  11.673616748318732 
 -1.244654323155921   3.593199643537357  11.673616748318732 
  3.734201423224940   3.592963000422923  11.673616748318732 
  2.489284604306860  10.060691096374519  11.673616748318732 
  7.468258159825963  10.060691096374519  11.673616748318732 
  8.712729350335813   3.593188357216454  11.673616748318732 
 -4.965362749490117  10.065971464109099   5.002978606422314 
 -0.013408632576468  10.065971464109099   5.002978606422314 
  1.204383196491786   3.569845960371786   5.002978606422314 
  4.978771382066596  10.107278065274947   5.002978606422314 
  6.296420822045981   3.467907208909833   5.002978606422314 
 11.216207781100898   3.588542103120614   5.002978606422314 
 -2.489385691033263   5.749079209934213  11.673616748318732 
 -3.734060064534532  12.216514471417740  11.673616748318732 
  1.244615583411340  12.216559132798931  11.673616748318732 
  2.489312253802965   5.749174291654017  11.673616748318732 
  6.223515024783890  12.216529930528297  11.673616748318732 
 -6.218487919723037  12.213730667413747   5.002978606422314 
  7.468230510330064   5.749174291654017  11.673616748318732 
 -1.246860078733722  12.202372037522785   5.002978606422314 
 -0.060996047045705   5.755032275909026   5.002978606422314 
 -1.255934244876084   7.913853973900628   5.002978606422314 
  3.731055940763473  12.230992317502437   5.002978606422314 
 10.018538811178836   5.755032275909026   5.002978606422314 
 -3.734010463614114   7.904921875165604  11.673616748318732 
  2.489472083924751   1.437180652896861  11.673616748318732 
  6.223660551488445   7.904832693941620  11.673616748318732 
  7.468070680208201   1.437180652896861  11.673616748318732 
 12.446928455166319   1.437247498834912  11.673616748318732 
  4.978771382066589   5.748989995339477   5.002978606422314 
Generated by cif2cell 2.0.0.  :  Failed to get author information, No journal information. Species order: B N Si 
 1.0
 14.936314146199660   0.000000000000000   0.000000000000000
 -7.468157073099825  12.935227489513863   0.000000000000000
  0.000000000000001   0.000000000000001  13.341276283792837
 B N Si 
 144 143   1
Cartesian
  1.227140219734042   0.697582436222531   5.002978606422314 
  4.978771382066597   7.480288680575335   5.002978606422314 
  6.228028808030413   0.697455900531410   5.002978606422314 
  9.978156949235579   7.192868375992394   5.002978606422314 
 11.206930464700937   0.721334325244986   5.002978606422314 
 -3.734217341230006   9.342028603507320  11.673616748318732 
  1.245007325613424   9.341611365545885  11.673616748318732 
  2.490427613868686   2.875321647297008  11.673616748318732 
  6.223269289423738   9.340793085968832  11.673616748318732 
  7.467115150264445   2.875321647297008  11.673616748318732 
 12.446928455166423   2.874738102076014  11.673616748318732 
 -1.250785744370578   9.345626479220227   5.002978606422314 
 -0.022452438580290   2.861532076211424   5.002978606422314 
  4.978771382066558   2.842157014531311   5.002978606422314 
  3.696131588628157   9.427086412933026   5.002978606422314 
  8.728899523271686   9.356645709494586   5.002978606422314 
  9.979995202713287   2.861532076211424   5.002978606422314 
 -4.978702407106511  11.497940167967291  11.673616748318732 
 -0.000068974960102  11.497940167967291  11.673616748318732 
  1.245929706511613   5.030855252752620  11.673616748318732 
  6.222335338107970   5.031018010564568  11.673616748318732 
  4.978771382066562  11.497100660650068  11.673616748318732 
 11.201797038308861   5.030659754006977  11.673616748318732 
 -1.271691470163683   5.025685882688618   5.002978606422314 
 -2.489385691033239  11.490944517092071   5.002978606422314 
  2.479939692168871  11.523701667107320   5.002978606422314 
  3.479422739113705   4.883340652721541   5.002978606422314 
  7.477603071964205  11.523701667107320   5.002978606422314 
  8.805416213990268   5.020740431565180   5.002978606422314 
  0.000587981062290   7.186213834862061  11.673616748318732 
  1.245166316644976   0.718856809297712  11.673616748318732 
  4.978771382066769   7.184933964889295  11.673616748318732 
  6.223190726617547   0.719144785610654  11.673616748318732 
  9.956954783070739   7.186213834862061  11.673616748318732 
 -2.489385691033181   7.190664207884031   5.002978606422314 
 11.202025075058161   0.718502197214336  11.673616748318732 
  3.729513956102669   0.697455900531410   5.002978606422314 
  2.461380176128268   7.202406485743547   5.002978606422314 
  7.496162588004851   7.202406485743547   5.002978606422314 
  8.730402544399144   0.697582436222531   5.002978606422314 
  2.490213355323909   7.185759641973394  11.673616748318732 
 13.686926445631803   0.721334325244986   5.002978606422314 
 -1.244554040836548   9.342028603507320  11.673616748318732 
  0.000761522143421   2.874934662684182  11.673616748318732 
  4.978771382066558   2.875450702071748  11.673616748318732 
  3.734273474709457   9.340793085968832  11.673616748318732 
  8.712535438519787   9.341611365545885  11.673616748318732 
  9.956781241989770   2.874934662684182  11.673616748318732 
 -3.727985637695933   9.345626479220227   5.002978606422314 
  1.228643240861494   9.356645709494586   5.002978606422314 
  2.434766343581304   2.799143141520290   5.002978606422314 
  6.261411175504933   9.427086412933026   5.002978606422314 
  7.522776420551843   2.799143141520290   5.002978606422314 
 12.446928455166230   2.869073846014685   5.002978606422314 
 -1.244254274175523   5.030659754006977  11.673616748318732 
 -2.489385691033238  11.498140268517812  11.673616748318732 
  2.489350791246166  11.497453422713692  11.673616748318732 
  3.735207426025251   5.031018010564568  11.673616748318732 
  7.468191972887300  11.497453422713692  11.673616748318732 
 -4.974937735538630  11.495766633824196   5.002978606422314 
  8.711613057621651   5.030855252752620  11.673616748318732 
 -0.003833646527923  11.495766633824196   5.002978606422314 
  1.152126550142937   5.020740431565180   5.002978606422314 
 -0.020614185102357   7.192868375992394   5.002978606422314 
  6.478120025019442   4.883340652721541   5.002978606422314 
  4.978771382066405  11.523905833595620   5.002978606422314 
 11.229234234296753   5.025685882688618   5.002978606422314 
 -2.489385691033211   7.186317139597795  11.673616748318732 
  3.734352037515462   0.719144785610654  11.673616748318732 
  7.467329408809151   7.185759641973394  11.673616748318732 
  8.712376447488227   0.718856809297712  11.673616748318732 
 13.691831835274641   0.718502197214336  11.673616748318732 
 -0.000088270103493   1.437626519305615   1.669870569251674 
  3.737483108047014   7.902567640405527   1.672475429808051 
  4.978771382066571   1.440782701320282   1.674260720023171 
  8.709788343456331   7.903093642349228   1.674260720023171 
  9.957631034236440   1.437626519305615   1.669870569251674 
 -4.979978999477211  10.060262956031437   8.337837527192258 
  0.001207617410492  10.060262956031437   8.337837527192258 
  1.245509684523741   3.593590349307791   8.333473406830038 
  4.978771382066509  10.059789287402939   8.333473406830038 
  6.223180194706173   3.597213994085898   8.333481783036550 
 11.201951503345219   3.592852792699790   8.336086643592967 
 -2.489385691033300  10.060732491844131   1.667245626106033 
 -1.244408739212164   3.592852792699789   1.669870569251674 
  3.734362569426835   3.597213994085897   1.672475429808051 
  2.490984258611819  10.059783579136242   1.671400386891125 
  7.466558505521135  10.059783579136242   1.671400386891125 
  8.712033079609389   3.593590349307790   1.672483806014605 
 -6.224028389415328  12.216929459082030   8.337583920573184 
 -1.244495666753221  12.217884335358415   8.337837527192258 
  0.001621066300303   5.748080051560687   8.334556825953529 
  4.978771382066590   5.748989995339477   8.293235501962252 
  3.734450912957813  12.216490674012920   8.336086643592967 
  9.955921697832725   5.748080051560687   8.334556825953529 
 -2.489385691033219   5.748338557368041   1.668373292271577 
 -3.734275715313363  12.217884335358415   1.668119685652451 
  1.245257007348863  12.216929459082030   1.668373292271577 
  2.493074295407383   5.747188351527083   1.672475429808051 
  6.223091851175263  12.216490674012920   1.669870569251674 
  7.464468468725808   5.747188351527083   1.672475429808051 
 -1.243682406869512   7.904050184142571   8.337837527192258 
 -0.000088270103492   1.437626519305616   8.336086643592967 
  3.737483108047015   7.902567640405528   8.333481783036550 
  4.978771382066572   1.440782701320283   8.331696492821511 
  8.709788343456331   7.903093642349229   8.331696492821511 
 -3.735088975197074   7.904050184142570   1.668119685652451 
  9.957631034236440   1.437626519305616   8.336086643592967 
  2.489408189754966   1.439106355321552   1.671400386891125 
  1.247754420676471   7.903093642349228   1.674260720023171 
  6.220059656086104   7.902567640405527   1.672475429808051 
  7.468134574378071   1.439106355321552   1.671400386891125 
  1.247754420676471   7.903093642349229   8.331696492821511 
 12.446928455166319   1.437247498834911   1.669081116155765 
 -2.489385691033300  10.060732491844131   8.338711586738688 
 -1.244408739212164   3.592852792699790   8.336086643592967 
  3.734362569426836   3.597213994085898   8.333481783036550 
  2.490984258611820  10.059783579136242   8.334556825953529 
  7.466558505521136  10.059783579136242   8.334556825953529 
  8.712033079609389   3.593590349307791   8.333473406830038 
 -4.979978999477212  10.060262956031437   1.668119685652451 
  0.001207617410492  10.060262956031437   1.668119685652451 
  1.245509684523741   3.593590349307790   1.672483806014605 
  4.978771382066508  10.059789287402939   1.672483806014605 
  6.223180194706172   3.597213994085897   1.672475429808051 
 11.201951503345219   3.592852792699789   1.669870569251674 
 -2.489385691033219   5.748338557368042   8.337583920573184 
 -3.734275715313363  12.217884335358415   8.337837527192258 
  1.245257007348864  12.216929459082030   8.337583920573184 
  2.493074295407383   5.747188351527083   8.333481783036550 
  6.223091851175264  12.216490674012920   8.336086643592967 
 -6.224028389415329  12.216929459082030   1.668373292271577 
  7.464468468725809   5.747188351527083   8.333481783036550 
 -1.244495666753221  12.217884335358415   1.668119685652451 
  0.001621066300303   5.748080051560686   1.671400386891125 
 -1.243682406869512   7.904050184142570   1.668119685652451 
  4.978771382066589   5.748989995339476   1.712721710882282 
  3.734450912957812  12.216490674012920   1.669870569251674 
  9.955921697832725   5.748080051560686   1.671400386891125 
 -3.735088975197073   7.904050184142571   8.337837527192258 
  2.489408189754967   1.439106355321553   8.334556825953529 
  6.220059656086105   7.902567640405528   8.333481783036550 
  7.468134574378072   1.439106355321553   8.334556825953529 
 12.446928455166319   1.437247498834912   8.336876096688849 
  1.244258053244040   0.718559437907902   1.667524351671275 
  4.978771382066544   7.189265327960733   1.651951150149929 
  6.223620164850172   0.718842172072158   1.668754729574666 
  9.957431573198910   7.185993237212355   1.668754729574666 
 11.202468716066951   0.718758333470219   1.667090850803306 
 -3.734184879935503   9.342047345044259   8.340011369284804 
  1.244959973717908   9.342134576733878   8.337202483270095 
  2.488393292112058   2.874051730495107   8.336951542606711 
  6.223351908756340   9.343189818690647   8.336951542606711 
  7.469149472021193   2.874051730495107   8.336951542606711 
 12.446928455166343   2.874225829564181   8.338866362041362 
 -1.244586502130873   9.342047345044259   1.665945843559862 
 -0.000765450920595   2.874053064374652   1.668553614978083 
  4.978771382066505   2.874755719217500   1.673305590789662 
  3.734190855376660   9.343189818690647   1.669005670237812 
  8.712582790415286   9.342134576733878   1.668754729574666 
  9.958308215053844   2.874053064374652   1.668553614978083 
 -4.978950504831183  11.498083407255404   8.340479785024151 
  0.000179122764647  11.498083407255404   8.340479785024151 
  1.243812765422227   5.029728436832741   8.336951542606711 
  6.226086408560627   5.028852329028849   8.354006062694673 
  4.978771382066606  11.498863857269228   8.337403597866517 
 11.202508701187135   5.030021860523383   8.338432861173485 
 -1.244965937053946   5.030021860523382   1.667524351671275 
 -2.489385691033239  11.498102785443701   1.665945843559862 
  2.489547391768610  11.498388687587262   1.667524351671275 
  3.731456355572460   5.028852329028848   1.651951150149929 
  7.467995372364586  11.498388687587262   1.667524351671275 
  8.713729998711040   5.029728436832740   1.669005670237812 
  0.000111190934224   7.185993237212355   8.337202483270095 
  1.244258053244041   0.718559437907903   8.338432861173485 
  4.978771382066545   7.189265327960734   8.354006062694658 
  6.223620164850173   0.718842172072159   8.337202483270095 
  9.957431573198910   7.185993237212355   8.337202483270095 
 -2.489385691033264   7.186030661021625   1.665477427820611 
 11.202468716066951   0.718758333470219   8.338866362041362 
  3.733922599282865   0.718842172072158   1.668754729574666 
  2.489611482516850   7.186107133400574   1.673305590789662 
  7.467931281616164   7.186107133400574   1.673305590789662 
  8.713284710889146   0.718559437907902   1.667524351671275 
  2.489611482516850   7.186107133400575   8.332651622055005 
 13.691388194265672   0.718758333470219   1.667090850803306 
 -1.244586502130872   9.342047345044259   8.340011369284804 
 -0.000765450920595   2.874053064374653   8.337403597866517 
  4.978771382066506   2.874755719217501   8.332651622055005 
  3.734190855376661   9.343189818690647   8.336951542606711 
  8.712582790415286   9.342134576733878   8.337202483270095 
  9.958308215053844   2.874053064374653   8.337403597866517 
 -3.734184879935503   9.342047345044259   1.665945843559862 
  1.244959973717908   9.342134576733878   1.668754729574666 