 N Se B 
 1.0
 17.527899999999772   0.000000000000000   0.000000000000000
 -8.763949999999658  15.179606674993195   0.000000000000000
  0.000000000000001   0.000000000000002  15.000000000000000
 N Se B 
  47   1  49
Cartesian
  8.803946182411197  13.773757641353193   1.664183186213670 
 16.280968918314372   0.728357595519253   1.664534851735500 
 15.001201561798698   2.862480165024478   1.664794960313055 
 13.743265626649515   5.025958725376940   1.663649111234460 
 12.517623732188998   7.206828453250449   1.663510084998930 
 11.312533055614180   9.400839050111081   1.664281322532150 
 10.073607212448501  11.596723021114064   1.664437400205180 
 -6.231137105169287  13.756970383911220   1.664083332920685 
  1.259525158480974   0.737062656614137   1.663390543226985 
 -0.017700721918418   2.889299785914137   1.663748492991420 
 -1.304018965241003   5.024701722308264   1.662749612934165 
 -2.563705059349891   7.198406637942576   1.662466170141030 
 -3.768391451968486   9.388554754942376   1.665124183440570 
 -4.981874782335616  11.578007536159497   1.665458454857880 
 -3.738900920348653  13.743275019134272   1.664203694447325 
  3.765773474307205   0.734194560204409   1.664269715893800 
  2.478936998594679   2.882842364084022   1.664807623001715 
  1.204185965713947   5.059868891664398   1.665606054156525 
 -0.132163283627790   7.184196713549787   1.663090803305400 
 -1.322765613705987   9.378266630655949   1.663822497415335 
 -2.503845591333206  11.565346456525889   1.665178236565995 
 -1.241916631690696  13.723191129983581   1.663738725802665 
  6.270231460083249   0.720399028547307   1.664555134927185 
  5.003724213404839   2.893091810409831   1.665257410496715 
  3.685366630244721   5.023055424252837   1.668189459127680 
  2.327481640487597   7.270479366891482   1.673142988320795 
  1.101929666970740   9.360972095721806   1.664149430914380 
 -0.012501307018193  11.546485000327817   1.663935715939455 
  1.272195644536873  13.669218344873951   1.663150298571855 
  8.776905033655439   0.687747715041974   1.663494395297535 
  7.522197310342340   2.871472311133222   1.664335403669520 
  6.272316481652451   5.043748770538900   1.665292227585615 
  2.535843841885157  11.435893746552484   1.668231770557995 
  3.764676496412298  13.676338140010557   1.665781404448290 
 11.269410359976074   0.678504228564491   1.664219586652995 
 10.014963968161362   2.862943558803276   1.663710815268750 
  8.769653212471390   5.049990637897525   1.662969888615420 
  7.631041796847946   7.246890622310899   1.664731097610990 
  6.470768594067826   9.532433373390036   1.672761006641385 
  5.081279230009077  11.584832828845894   1.670360110813695 
  6.290632220540866  13.750551775836435   1.665943641442590 
 13.766186014589069   0.690721502811054   1.665420498218625 
 12.506800687796272   2.855691918196923   1.665374788414710 
 11.263122585478460   5.032453794333515   1.663279292982855 
 10.070841091807409   7.219131381011412   1.662640856361855 
  8.873772630499158   9.427224246234163   1.662667383234570 
  7.604263782364615  11.641958451532597   1.665690739079550 
  4.852626709673704   7.480672767378327   1.670782358053455 
  7.537645140288513  14.473773335297320   1.665091256267400 
 15.013566337355147   1.422187719231157   1.665380431135200 
 13.751584122619988   3.582361941754171   1.665117040601580 
 12.508402886079063   5.759737218945199   1.663649842415010 
 11.303614095129610   7.952363941387670   1.663876246250415 
 10.098932124990592  10.152019648643309   1.663699879058670 
  8.839973037472451  12.345635565920402   1.664719532256510 
 -7.480150864842381  14.482993411810662   1.663860797912085 
  0.000775289799774   1.450726808273940   1.663967036590740 
 -1.282774165739518   3.589146162668591   1.663765185021945 
 -2.545804018789097   5.754826566023690   1.662860757502110 
 -3.780514788377156   7.940918434630024   1.663768266721050 
 -4.984991447959222  10.131682171623803   1.665412894805880 
 -6.215616191727831  12.315261659301065   1.665188070578310 
 -4.984175709677557  14.471229303243391   1.664369003700960 
  2.504981083664859   1.447153493570001   1.664375336163240 
  1.226222921680830   3.618465744187379   1.664987268363885 
 -0.069913389850181   5.754822865481097   1.663950304865730 
 -1.340563563021778   7.934055323720458   1.662923588884425 
 -2.534474114278887  10.119737783328796   1.665340744871505 
 -3.737115382455698  12.298584241956682   1.665056024486070 
 -2.486670078354157  14.453917028579466   1.664366113246665 
  5.017529578576286   1.445834202628725   1.665148172517030 
  3.720437815323141   3.586128841201182   1.666311386660775 
  2.430579545041751   5.827854997477845   1.669682182165200 
  1.066277742118623   7.926578413873934   1.666752285376560 
 -0.083952914420123  10.107544162278735   1.663812105737535 
 -1.247001118482349  12.279607077635781   1.664565741674595 
  0.023687331474605  14.412796961133122   1.663329450212445 
  7.529216581858710   1.420406730047556   1.664625570592725 
  6.272536743972090   3.587978868657284   1.665344273229405 
  4.961354973227468   5.616720087515475   1.668032709300975 
  3.230983324999135   8.466761444431734   1.678292608314795 
  2.441416946751785   9.932082568946040   1.670531400133605 
  1.282818548236366  12.202411496346190   1.665064148273205 
  2.513368988734282  14.403034318203185   1.664490546727725 
 10.022964604901532   1.409979169774333   1.664024841586005 
  8.771969966555950   3.595016792308961   1.663653791934105 
  7.536377229990600   5.787855572930970   1.664538146303820 
  6.548162983800445   8.136199434596534   1.670064058290930 
  5.207402139038321  10.188479300509050   1.673247556469820 
  3.765652046978897  12.214800906187330   1.668685820409165 
  5.009558061660758  14.424264802611736   1.666058937044175 
 12.513539551011066   1.408241160099047   1.665697756670415 
 11.263640397811828   3.584333853512604   1.664533878491580 
 10.031372926253216   5.769238576779244   1.662933842640915 
  8.871685721845523   7.975497583931718   1.663226303042460 
  7.686878527835092  10.226945348561676   1.666828427423925 
  6.324857811594695  12.323491744395270   1.667763980662485 
