B N Se                                  
   1.0000000000000000     
     8.7639499999999995  -15.1796066749929999    0.0000000000000000
     8.7639499999999995   15.1796066749929999    0.0000000000000000
     0.0000000000000000    0.0000000000000000   15.0000000000000000
   B    N    Se
    48    49     1
Selective dynamics
Direct
  0.9058307021388726  0.9531915922788565  0.1110303519516988   T   T   T
  0.9047452039035672  0.0952568172924295  0.1110135220351776   T   T   T
  0.9043317505673423  0.2378802221291699  0.1110404058488511   T   T   T
  0.9047452039035672  0.3809170803021277  0.1110135220351776   T   T   T
  0.9058307021388726  0.5240695151080181  0.1110303519516988   T   T   T
  0.9059628949204162  0.6672133758052334  0.1110688539905823   T   T   T
  0.9059628949204162  0.8101799243631913  0.1110688539905823   T   T   T
  0.0478258280251689  0.9521761931708352  0.1110314107825510   T   T   T
  0.0468104289171471  0.0941713190571238  0.1110303519516988   T   T   T
  0.0460663015418907  0.2369222140394183  0.1110063782966074   T   T   T
  0.0460663015418907  0.3805744927494721  0.1110063782966074   T   T   T
  0.0468104289171471  0.5240695151080181  0.1110303519516988   T   T   T
  0.0478258280251689  0.6670817516583388  0.1110314107825510   T   T   T
  0.0480167222223750  0.8097244195131895  0.1110103872741394   T   T   T
  0.1902776016828137  0.9519852989736285  0.1110103872741394   T   T   T
  0.1898220968328121  0.0940391262755806  0.1110688539905823   T   T   T
  0.1872311398840561  0.2348777735049238  0.1110364597961380   T   T   T
  0.1867339194437089  0.3790821623453545  0.1110143900582646   T   T   T
  0.1872311398840561  0.5237837716271267  0.1110364597961380   T   T   T
  0.1898220968328121  0.6672133758052334  0.1110688539905823   T   T   T
  0.1902776016828137  0.8097244195131895  0.1110103872741394   T   T   T
  0.3329202695386596  0.9521761931708352  0.1110314107825510   T   T   T
  0.3327886453917650  0.0940391262755806  0.1110688539905823   T   T   T
  0.3319713712984656  0.2353711266469323  0.1110424082348471   T   T   T
  0.3260087509774860  0.3720996521118356  0.1110139503553824   T   T   T
  0.3260087509774860  0.5253395041126503  0.1110139503553824   T   T   T
  0.3319713712984656  0.6680306498985326  0.1110424082348471   T   T   T
  0.3327886453917650  0.8101799243631913  0.1110688539905823   T   T   T
  0.4759325060889804  0.9531915922788565  0.1110303519516988   T   T   T
  0.4759325060889804  0.0941713190571238  0.1110303519516988   T   T   T
  0.4762182495698642  0.2348777735049238  0.1110364597961380   T   T   T
  0.4746625170843474  0.3720996521118356  0.1110139503553824   T   T   T
  0.4746625170843474  0.6739932702195124  0.1110139503553824   T   T   T
  0.4762182495698642  0.8127708813119476  0.1110364597961380   T   T   T
  0.6194275284465315  0.9539357196541199  0.1110063782966074   T   T   T
  0.6190849408938761  0.0952568172924295  0.1110135220351776   T   T   T
  0.6194275284465315  0.2369222140394183  0.1110063782966074   T   T   T
  0.6209198588506486  0.3790821623453545  0.1110143900582646   T   T   T
  0.6279023690841690  0.5253395041126503  0.1110139503553824   T   T   T
  0.6279023690841690  0.6739932702195124  0.1110139503553824   T   T   T
  0.6209198588506486  0.8132681017522944  0.1110143900582646   T   T   T
  0.7630798071565851  0.9539357196541199  0.1110063782966074   T   T   T
  0.7621217990668336  0.0956702706286538  0.1110404058488511   T   T   T
  0.7621217990668336  0.2378802221291699  0.1110404058488511   T   T   T
  0.7630798071565851  0.3805744927494721  0.1110063782966074   T   T   T
  0.7651242476910796  0.5237837716271267  0.1110364597961380   T   T   T
  0.7646308945490706  0.6680306498985326  0.1110424082348471   T   T   T
  0.7651242476910796  0.8127708813119476  0.1110364597961380   T   T   T
  0.9528484306107642  0.9050083814803618  0.1110313064322459   T   T   T
  0.9523356993425267  0.0476657025754788  0.1109991987427161   T   T   T
  0.9516717716138343  0.1901273990855065  0.1110033001216722   T   T   T
  0.9516717716138343  0.3329713546463260  0.1110033001216722   T   T   T
  0.9523356993425267  0.4760969788850534  0.1109991987427161   T   T   T
  0.9528484306107642  0.6192687428053977  0.1110313064322459   T   T   T
  0.9529036001910220  0.7621661469330124  0.1110450305338927   T   T   T
  0.0953252526884987  0.9046761492294999  0.1109870725477940   T   T   T
  0.0949930204376367  0.0471529713072415  0.1110313064322459   T   T   T
  0.0932754178334457  0.1888602682531010  0.1110069511990543   T   T   T
  0.0930583778866201  0.3322435357803070  0.1109894295123040   T   T   T
  0.0932754178334457  0.4758438432543455  0.1110069511990543   T   T   T
  0.0949930204376367  0.6192687428053977  0.1110313064322459   T   T   T
  0.0953252526884987  0.7620795086900113  0.1109870725477940   T   T   T
  0.2379218932279942  0.9046761492294999  0.1109870725477940   T   T   T
  0.2378352549849935  0.0470978017269841  0.1110450305338927   T   T   T
  0.2372589102560425  0.1894313110308056  0.1110405576670432   T   T   T
  0.2329924097826521  0.3295258324419344  0.1110084813158669   T   T   T
  0.2329924097826521  0.4748952710147112  0.1110084813158669   T   T   T
  0.2372589102560425  0.6192562929002324  0.1110405576670432   T   T   T
  0.2378352549849935  0.7621661469330124  0.1110450305338927   T   T   T
  0.3807326591126002  0.9050083814803618  0.1110313064322459   T   T   T
  0.3807326591126002  0.0471529713072415  0.1110313064322459   T   T   T
  0.3807451090177656  0.1894313110308056  0.1110405576670432   T   T   T
  0.3803363457887216  0.3320999833344404  0.1110044997950394   T   T   T
  0.3642413888591487  0.4678350412665676  0.1109780871308637   T   T   T
  0.3803363457887216  0.6196650561292771  0.1110044997950394   T   T   T
  0.3807451090177656  0.7627424916619630  0.1110405576670432   T   T   T
  0.5241575586626511  0.9067259840845533  0.1110069511990543   T   T   T
  0.5239044230319434  0.0476657025754788  0.1109991987427161   T   T   T
  0.5241575586626511  0.1888602682531010  0.1110069511990543   T   T   T
  0.5251061309022851  0.3295258324419344  0.1110084813158669   T   T   T
  0.5321663606504291  0.4678350412665676  0.1109780871308637   T   T   T
  0.5321663606504291  0.6357600130588502  0.1109780871308637   T   T   T
  0.5251061309022851  0.7670089921353532  0.1110084813158669   T   T   T
  0.6677578661366895  0.9069430240313785  0.1109894295123040   T   T   T
  0.6670300472706714  0.0483296303041716  0.1110033001216722   T   T   T
  0.6670300472706714  0.1901273990855065  0.1110033001216722   T   T   T
  0.6677578661366895  0.3322435357803070  0.1109894295123040   T   T   T
  0.6704755694750625  0.4748952710147112  0.1110084813158669   T   T   T
  0.6679014185825564  0.6196650561292771  0.1110044997950394   T   T   T
  0.6704755694750625  0.7670089921353532  0.1110084813158669   T   T   T
  0.8111411336648975  0.9067259840845533  0.1110069511990543   T   T   T
  0.8098740028324922  0.0483296303041716  0.1110033001216722   T   T   T
  0.8095252739059973  0.1904761280120013  0.1110404256066202   T   T   T
  0.8098740028324922  0.3329713546463260  0.1110033001216722   T   T   T
  0.8111411336648975  0.4758438432543455  0.1110069511990543   T   T   T
  0.8105700908871925  0.6192562929002324  0.1110405576670432   T   T   T
  0.8105700908871925  0.7627424916619630  0.1110405576670432   T   T   T
  0.4761912123819982  0.5238108088150000  0.1109725001463149   T   T   T

  0.00000000E+00  0.00000000E+00  0.00000000E+00
  0.00000000E+00  0.00000000E+00  0.00000000E+00
  0.00000000E+00  0.00000000E+00  0.00000000E+00
  0.00000000E+00  0.00000000E+00  0.00000000E+00
  0.00000000E+00  0.00000000E+00  0.00000000E+00
  0.00000000E+00  0.00000000E+00  0.00000000E+00
  0.00000000E+00  0.00000000E+00  0.00000000E+00
  0.00000000E+00  0.00000000E+00  0.00000000E+00
  0.00000000E+00  0.00000000E+00  0.00000000E+00
  0.00000000E+00  0.00000000E+00  0.00000000E+00
  0.00000000E+00  0.00000000E+00  0.00000000E+00
  0.00000000E+00  0.00000000E+00  0.00000000E+00
  0.00000000E+00  0.00000000E+00  0.00000000E+00
  0.00000000E+00  0.00000000E+00  0.00000000E+00
  0.00000000E+00  0.00000000E+00  0.00000000E+00
  0.00000000E+00  0.00000000E+00  0.00000000E+00
  0.00000000E+00  0.00000000E+00  0.00000000E+00
  0.00000000E+00  0.00000000E+00  0.00000000E+00
  0.00000000E+00  0.00000000E+00  0.00000000E+00
  0.00000000E+00  0.00000000E+00  0.00000000E+00
  0.00000000E+00  0.00000000E+00  0.00000000E+00
  0.00000000E+00  0.00000000E+00  0.00000000E+00
  0.00000000E+00  0.00000000E+00  0.00000000E+00
  0.00000000E+00  0.00000000E+00  0.00000000E+00
  0.00000000E+00  0.00000000E+00  0.00000000E+00
  0.00000000E+00  0.00000000E+00  0.00000000E+00
  0.00000000E+00  0.00000000E+00  0.00000000E+00
  0.00000000E+00  0.00000000E+00  0.00000000E+00
  0.00000000E+00  0.00000000E+00  0.00000000E+00
  0.00000000E+00  0.00000000E+00  0.00000000E+00
  0.00000000E+00  0.00000000E+00  0.00000000E+00
  0.00000000E+00  0.00000000E+00  0.00000000E+00
  0.00000000E+00  0.00000000E+00  0.00000000E+00
  0.00000000E+00  0.00000000E+00  0.00000000E+00
  0.00000000E+00  0.00000000E+00  0.00000000E+00
  0.00000000E+00  0.00000000E+00  0.00000000E+00
  0.00000000E+00  0.00000000E+00  0.00000000E+00
  0.00000000E+00  0.00000000E+00  0.00000000E+00
  0.00000000E+00  0.00000000E+00  0.00000000E+00
  0.00000000E+00  0.00000000E+00  0.00000000E+00
  0.00000000E+00  0.00000000E+00  0.00000000E+00
  0.00000000E+00  0.00000000E+00  0.00000000E+00
  0.00000000E+00  0.00000000E+00  0.00000000E+00
  0.00000000E+00  0.00000000E+00  0.00000000E+00
  0.00000000E+00  0.00000000E+00  0.00000000E+00
  0.00000000E+00  0.00000000E+00  0.00000000E+00
  0.00000000E+00  0.00000000E+00  0.00000000E+00
  0.00000000E+00  0.00000000E+00  0.00000000E+00
  0.00000000E+00  0.00000000E+00  0.00000000E+00
  0.00000000E+00  0.00000000E+00  0.00000000E+00
  0.00000000E+00  0.00000000E+00  0.00000000E+00
  0.00000000E+00  0.00000000E+00  0.00000000E+00
  0.00000000E+00  0.00000000E+00  0.00000000E+00
  0.00000000E+00  0.00000000E+00  0.00000000E+00
  0.00000000E+00  0.00000000E+00  0.00000000E+00
  0.00000000E+00  0.00000000E+00  0.00000000E+00
  0.00000000E+00  0.00000000E+00  0.00000000E+00
  0.00000000E+00  0.00000000E+00  0.00000000E+00
  0.00000000E+00  0.00000000E+00  0.00000000E+00
  0.00000000E+00  0.00000000E+00  0.00000000E+00
  0.00000000E+00  0.00000000E+00  0.00000000E+00
  0.00000000E+00  0.00000000E+00  0.00000000E+00
  0.00000000E+00  0.00000000E+00  0.00000000E+00
  0.00000000E+00  0.00000000E+00  0.00000000E+00
  0.00000000E+00  0.00000000E+00  0.00000000E+00
  0.00000000E+00  0.00000000E+00  0.00000000E+00
  0.00000000E+00  0.00000000E+00  0.00000000E+00
  0.00000000E+00  0.00000000E+00  0.00000000E+00
  0.00000000E+00  0.00000000E+00  0.00000000E+00
  0.00000000E+00  0.00000000E+00  0.00000000E+00
  0.00000000E+00  0.00000000E+00  0.00000000E+00
  0.00000000E+00  0.00000000E+00  0.00000000E+00
  0.00000000E+00  0.00000000E+00  0.00000000E+00
  0.00000000E+00  0.00000000E+00  0.00000000E+00
  0.00000000E+00  0.00000000E+00  0.00000000E+00
  0.00000000E+00  0.00000000E+00  0.00000000E+00
  0.00000000E+00  0.00000000E+00  0.00000000E+00
  0.00000000E+00  0.00000000E+00  0.00000000E+00
  0.00000000E+00  0.00000000E+00  0.00000000E+00
  0.00000000E+00  0.00000000E+00  0.00000000E+00
  0.00000000E+00  0.00000000E+00  0.00000000E+00
  0.00000000E+00  0.00000000E+00  0.00000000E+00
  0.00000000E+00  0.00000000E+00  0.00000000E+00
  0.00000000E+00  0.00000000E+00  0.00000000E+00
  0.00000000E+00  0.00000000E+00  0.00000000E+00
  0.00000000E+00  0.00000000E+00  0.00000000E+00
  0.00000000E+00  0.00000000E+00  0.00000000E+00
  0.00000000E+00  0.00000000E+00  0.00000000E+00
  0.00000000E+00  0.00000000E+00  0.00000000E+00
  0.00000000E+00  0.00000000E+00  0.00000000E+00
  0.00000000E+00  0.00000000E+00  0.00000000E+00
  0.00000000E+00  0.00000000E+00  0.00000000E+00
  0.00000000E+00  0.00000000E+00  0.00000000E+00
  0.00000000E+00  0.00000000E+00  0.00000000E+00
  0.00000000E+00  0.00000000E+00  0.00000000E+00
  0.00000000E+00  0.00000000E+00  0.00000000E+00
  0.00000000E+00  0.00000000E+00  0.00000000E+00
  0.00000000E+00  0.00000000E+00  0.00000000E+00
