B C N                                   
   1.0000000000000000     
     8.7639499999999995  -15.1796066749929999    0.0000000000000000
     8.7639499999999995   15.1796066749929999    0.0000000000000000
     0.0000000000000000    0.0000000000000000   15.0000000000000000
   B    C    N 
    46     3    47
Selective dynamics
Direct
  0.9060469094022258  0.9532182353052214  0.1109917560497607   T   T   T
  0.9044000249856404  0.0949281358911964  0.1110324083824406   T   T   T
  0.9040375593854078  0.2376574027647460  0.1110373112613604   T   T   T
  0.9041410969220209  0.3807094111350595  0.1109736757739800   T   T   T
  0.9057508171280012  0.5240729535227471  0.1110076585218751   T   T   T
  0.9068613377325514  0.6676196183468462  0.1110650504809869   T   T   T
  0.9063425780640602  0.8101070341732477  0.1110263890765845   T   T   T
  0.0483810445776700  0.9528089686616098  0.1109792243706744   T   T   T
  0.0479127773036956  0.0953925378057562  0.1109905586439104   T   T   T
  0.0468392200227137  0.2374033564052911  0.1109824431099198   T   T   T
  0.0466422329092934  0.3803162972938252  0.1110032991962426   T   T   T
  0.0472993058239487  0.5236935419189070  0.1109885188898948   T   T   T
  0.0483306972310612  0.6669677854633705  0.1110110675755549   T   T   T
  0.0486819451144203  0.8100690497495164  0.1109788006310662   T   T   T
  0.1908224186175543  0.9524990002981363  0.1109785479771956   T   T   T
  0.1908087211514370  0.0954675142227117  0.1110321060171059   T   T   T
  0.1901320389865744  0.2379683894188687  0.1109684879666232   T   T   T
  0.1887976053841514  0.3795904315176850  0.1109647605001943   T   T   T
  0.1886408805858686  0.5232137786193015  0.1110511370821736   T   T   T
  0.1901903672068872  0.6666620076489371  0.1110631545511653   T   T   T
  0.1908985673306910  0.8097101013080962  0.1109772776122305   T   T   T
  0.3335353550728159  0.9523752241342757  0.1110014700343126   T   T   T
  0.3331549955726331  0.0949888290438154  0.1110620247656511   T   T   T
  0.3333119317573755  0.2378266791651348  0.1110788062115010   T   T   T
  0.3325650217119539  0.3812748002556280  0.1110816171303805   T   T   T
  0.3285548413061284  0.5220365543285841  0.1110401740755942   T   T   T
  0.3318459482701941  0.6660195523768899  0.1110900851638232   T   T   T
  0.3334110299571352  0.8092917852993842  0.1110602973457764   T   T   T
  0.4761025592245449  0.9515472921706677  0.1109841833757465   T   T   T
  0.4760653769133989  0.0961147876983533  0.1109790576935614   T   T   T
  0.4749648260066414  0.2401021438798645  0.1110654029418730   T   T   T
  0.4707954266551140  0.6592200523262077  0.1111384148642904   T   T   T
  0.4756712065220032  0.8062655181943925  0.1110246047252715   T   T   T
  0.6185206694976273  0.9513246176939166  0.1109964630757871   T   T   T
  0.6185484733727508  0.0951595958976018  0.1109643043686046   T   T   T
  0.6185301614580455  0.2389917449823030  0.1109956411181905   T   T   T
  0.6179637056634456  0.3836117251574531  0.1109994583063764   T   T   T
  0.6449014467419908  0.6753522961803811  0.1110591266193509   T   T   T
  0.6189158984704083  0.8078103731182164  0.1109967872308339   T   T   T
  0.7617698187960041  0.9519848666509604  0.1109751929767452   T   T   T
  0.7612598317653382  0.0948316116063728  0.1110564563101473   T   T   T
  0.7612498867320038  0.2380665499620707  0.1110341483922221   T   T   T
  0.7613028840475461  0.3813251873340815  0.1109939609487203   T   T   T
  0.7653480082062435  0.5261964707897855  0.1109777692906725   T   T   T
  0.7629922145707525  0.6653830480710511  0.1110448031509012   T   T   T
  0.7659918978848970  0.8116428107940399  0.1109876563732442   T   T   T
  0.4742944044709165  0.3844977274435626  0.1112910183187800   T   T   T
  0.4687396916927948  0.5260189651941642  0.1114399334284924   T   T   T
  0.5111066430289297  0.4781845475643780  0.1114411000654271   T   T   T
  0.9533064613325355  0.9054281415502505  0.1109719270716926   T   T   T
  0.9528722713701668  0.0481104600524557  0.1109896743729674   T   T   T
  0.9518590891835761  0.1900603919569419  0.1110122980275969   T   T   T
  0.9517343546372007  0.3328635700006577  0.1109836850547333   T   T   T
  0.9525512846456359  0.4759201091883378  0.1109482651556326   T   T   T
  0.9536218868744935  0.6193419171646329  0.1110158688207219   T   T   T
  0.9539388156865337  0.7627671592764412  0.1110085897992852   T   T   T
  0.0960442732921311  0.9053445221061959  0.1109437297237925   T   T   T
  0.0959703957822974  0.0482570708442273  0.1109853370707723   T   T   T
  0.0954961426123424  0.1906745350866207  0.1109493926276004   T   T   T
  0.0944721041647945  0.3325719855064693  0.1109613776561983   T   T   T
  0.0944686996965020  0.4756276122551867  0.1110000938013986   T   T   T
  0.0955403958139342  0.6189679619455927  0.1109986504088341   T   T   T
  0.0960914854118043  0.7622658045013325  0.1109556448846018   T   T   T
  0.2386247759578951  0.9050570521106667  0.1109515328316754   T   T   T
  0.2385140368313627  0.0481301052471468  0.1110277171712015   T   T   T
  0.2390251237198241  0.1916319143601114  0.1110046986292349   T   T   T
  0.2383094792576076  0.3334295566280555  0.1109511890416465   T   T   T
  0.2357420994126299  0.4747645813298532  0.1109832696502621   T   T   T
  0.2375279957285397  0.6184017828271015  0.1110752943347336   T   T   T
  0.2385478498591893  0.7618378151725266  0.1110278202050772   T   T   T
  0.3811189552981469  0.9043929168431776  0.1110022507364076   T   T   T
  0.3810501372594312  0.0480379070580667  0.1110048507909074   T   T   T
  0.3807301326152183  0.1913270667050019  0.1110641648977593   T   T   T
  0.3833785890249691  0.3358670022462714  0.1111396764687829   T   T   T
  0.3786195170964930  0.4767347014411610  0.1111119155783531   T   T   T
  0.3788216812275034  0.6163592814050902  0.1110582299055458   T   T   T
  0.3809604268716204  0.7605262674416000  0.1110547186943206   T   T   T
  0.5231988511923273  0.9020325581143859  0.1109765592116036   T   T   T
  0.5232885373858932  0.0474728378388108  0.1109319825119185   T   T   T
  0.5229368421984683  0.1926789806444847  0.1109725251368226   T   T   T
  0.5199433723196565  0.3387364157730111  0.1111298818997180   T   T   T
  0.5228903428173245  0.7542714536198867  0.1110289888726638   T   T   T
  0.6656106545740608  0.9027110006620946  0.1109665255785337   T   T   T
  0.6657319655649042  0.0466759989793137  0.1109800806171306   T   T   T
  0.6656921471829607  0.1906336395419162  0.1109805358946889   T   T   T
  0.6649361532881776  0.3339773696656196  0.1109826444091663   T   T   T
  0.6730157348183325  0.4741057302271885  0.1107842243529205   T   T   T
  0.6681168307038351  0.6159653778503564  0.1110378411253180   T   T   T
  0.6686973931008859  0.7631940058392577  0.1109721593271195   T   T   T
  0.8106543777041619  0.9057361548394421  0.1109468735333429   T   T   T
  0.8088672321391317  0.0470302273430884  0.1110144033799510   T   T   T
  0.8087146466610551  0.1900536734413276  0.1110453088946733   T   T   T
  0.8086917072813691  0.3331696874843563  0.1109809905923262   T   T   T
  0.8108210361587204  0.4762724506954750  0.1109847899826031   T   T   T
  0.8125248925085040  0.6204349951499377  0.1110377786599223   T   T   T
  0.8111424752573329  0.7623726140192432  0.1110092860366572   T   T   T

  0.00000000E+00  0.00000000E+00  0.00000000E+00
  0.00000000E+00  0.00000000E+00  0.00000000E+00
  0.00000000E+00  0.00000000E+00  0.00000000E+00
  0.00000000E+00  0.00000000E+00  0.00000000E+00
  0.00000000E+00  0.00000000E+00  0.00000000E+00
  0.00000000E+00  0.00000000E+00  0.00000000E+00
  0.00000000E+00  0.00000000E+00  0.00000000E+00
  0.00000000E+00  0.00000000E+00  0.00000000E+00
  0.00000000E+00  0.00000000E+00  0.00000000E+00
  0.00000000E+00  0.00000000E+00  0.00000000E+00
  0.00000000E+00  0.00000000E+00  0.00000000E+00
  0.00000000E+00  0.00000000E+00  0.00000000E+00
  0.00000000E+00  0.00000000E+00  0.00000000E+00
  0.00000000E+00  0.00000000E+00  0.00000000E+00
  0.00000000E+00  0.00000000E+00  0.00000000E+00
  0.00000000E+00  0.00000000E+00  0.00000000E+00
  0.00000000E+00  0.00000000E+00  0.00000000E+00
  0.00000000E+00  0.00000000E+00  0.00000000E+00
  0.00000000E+00  0.00000000E+00  0.00000000E+00
  0.00000000E+00  0.00000000E+00  0.00000000E+00
  0.00000000E+00  0.00000000E+00  0.00000000E+00
  0.00000000E+00  0.00000000E+00  0.00000000E+00
  0.00000000E+00  0.00000000E+00  0.00000000E+00
  0.00000000E+00  0.00000000E+00  0.00000000E+00
  0.00000000E+00  0.00000000E+00  0.00000000E+00
  0.00000000E+00  0.00000000E+00  0.00000000E+00
  0.00000000E+00  0.00000000E+00  0.00000000E+00
  0.00000000E+00  0.00000000E+00  0.00000000E+00
  0.00000000E+00  0.00000000E+00  0.00000000E+00
  0.00000000E+00  0.00000000E+00  0.00000000E+00
  0.00000000E+00  0.00000000E+00  0.00000000E+00
  0.00000000E+00  0.00000000E+00  0.00000000E+00
  0.00000000E+00  0.00000000E+00  0.00000000E+00
  0.00000000E+00  0.00000000E+00  0.00000000E+00
  0.00000000E+00  0.00000000E+00  0.00000000E+00
  0.00000000E+00  0.00000000E+00  0.00000000E+00
  0.00000000E+00  0.00000000E+00  0.00000000E+00
  0.00000000E+00  0.00000000E+00  0.00000000E+00
  0.00000000E+00  0.00000000E+00  0.00000000E+00
  0.00000000E+00  0.00000000E+00  0.00000000E+00
  0.00000000E+00  0.00000000E+00  0.00000000E+00
  0.00000000E+00  0.00000000E+00  0.00000000E+00
  0.00000000E+00  0.00000000E+00  0.00000000E+00
  0.00000000E+00  0.00000000E+00  0.00000000E+00
  0.00000000E+00  0.00000000E+00  0.00000000E+00
  0.00000000E+00  0.00000000E+00  0.00000000E+00
  0.00000000E+00  0.00000000E+00  0.00000000E+00
  0.00000000E+00  0.00000000E+00  0.00000000E+00
  0.00000000E+00  0.00000000E+00  0.00000000E+00
  0.00000000E+00  0.00000000E+00  0.00000000E+00
  0.00000000E+00  0.00000000E+00  0.00000000E+00
  0.00000000E+00  0.00000000E+00  0.00000000E+00
  0.00000000E+00  0.00000000E+00  0.00000000E+00
  0.00000000E+00  0.00000000E+00  0.00000000E+00
  0.00000000E+00  0.00000000E+00  0.00000000E+00
  0.00000000E+00  0.00000000E+00  0.00000000E+00
  0.00000000E+00  0.00000000E+00  0.00000000E+00
  0.00000000E+00  0.00000000E+00  0.00000000E+00
  0.00000000E+00  0.00000000E+00  0.00000000E+00
  0.00000000E+00  0.00000000E+00  0.00000000E+00
  0.00000000E+00  0.00000000E+00  0.00000000E+00
  0.00000000E+00  0.00000000E+00  0.00000000E+00
  0.00000000E+00  0.00000000E+00  0.00000000E+00
  0.00000000E+00  0.00000000E+00  0.00000000E+00
  0.00000000E+00  0.00000000E+00  0.00000000E+00
  0.00000000E+00  0.00000000E+00  0.00000000E+00
  0.00000000E+00  0.00000000E+00  0.00000000E+00
  0.00000000E+00  0.00000000E+00  0.00000000E+00
  0.00000000E+00  0.00000000E+00  0.00000000E+00
  0.00000000E+00  0.00000000E+00  0.00000000E+00
  0.00000000E+00  0.00000000E+00  0.00000000E+00
  0.00000000E+00  0.00000000E+00  0.00000000E+00
  0.00000000E+00  0.00000000E+00  0.00000000E+00
  0.00000000E+00  0.00000000E+00  0.00000000E+00
  0.00000000E+00  0.00000000E+00  0.00000000E+00
  0.00000000E+00  0.00000000E+00  0.00000000E+00
  0.00000000E+00  0.00000000E+00  0.00000000E+00
  0.00000000E+00  0.00000000E+00  0.00000000E+00
  0.00000000E+00  0.00000000E+00  0.00000000E+00
  0.00000000E+00  0.00000000E+00  0.00000000E+00
  0.00000000E+00  0.00000000E+00  0.00000000E+00
  0.00000000E+00  0.00000000E+00  0.00000000E+00
  0.00000000E+00  0.00000000E+00  0.00000000E+00
  0.00000000E+00  0.00000000E+00  0.00000000E+00
  0.00000000E+00  0.00000000E+00  0.00000000E+00
  0.00000000E+00  0.00000000E+00  0.00000000E+00
  0.00000000E+00  0.00000000E+00  0.00000000E+00
  0.00000000E+00  0.00000000E+00  0.00000000E+00
  0.00000000E+00  0.00000000E+00  0.00000000E+00
  0.00000000E+00  0.00000000E+00  0.00000000E+00
  0.00000000E+00  0.00000000E+00  0.00000000E+00
  0.00000000E+00  0.00000000E+00  0.00000000E+00
  0.00000000E+00  0.00000000E+00  0.00000000E+00
  0.00000000E+00  0.00000000E+00  0.00000000E+00
  0.00000000E+00  0.00000000E+00  0.00000000E+00
  0.00000000E+00  0.00000000E+00  0.00000000E+00
