 N C B 
 1.0
 17.527899999999772   0.000000000000000   0.000000000000000
 -8.763949999999658  15.179606674993195   0.000000000000000
  0.000000000000001   0.000000000000002  15.000000000000000
 N C B 
  47   4  47
Cartesian
  8.762909853314497  13.737640128387493   1.664717247427170 
 16.279085396509391   0.727047848823512   1.664968433928840 
 15.028408175824708   2.893311895758401   1.665135500679405 
 13.774262323262295   5.059868891664398   1.664964407844345 
 12.522356010742092   7.223586298434882   1.664243055547995 
 11.300433406657252   9.397815861528903   1.665338502760860 
 10.033534048210665  11.592494729376424   1.665376987447485 
 -6.253890534244932  13.749367708516816   1.664623405638270 
  1.257885962647209   0.734067326365735   1.664748754831350 
  0.010323674127433   2.898605558319014   1.664655053985180 
 -1.240259279084127   5.059868891664398   1.664670231409890 
 -2.501400575078266   7.224899434991433   1.665072534046725 
 -3.741831360247780   9.394561000791278   1.665136598768265 
 -4.998704686989093  11.571573819149231   1.664887679305680 
 -3.752943073706538  13.739513230033955   1.664645407776450 
  3.758471700351797   0.730363848276569   1.665175657263210 
  2.520947509397718   2.911970838129394   1.665000451316400 
  1.278680878907680   5.066097149777985   1.664571622188855 
 -0.001132128503683   7.226752983742196   1.664993686411860 
 -1.249513572785396   9.395404984136947   1.665673416334785 
 -2.499815553982278  11.567375490600297   1.665332375598300 
 -1.251102799044072  13.737239694570798   1.665173523243255 
  6.260150696362005   0.726097159048717   1.665080250998385 
  5.007462721097230   2.889007162661585   1.665197187830760 
  3.819021642751240   5.090970939304336   1.666185140723220 
  2.493265621170253   7.231867049739835   1.665093598231260 
  1.243753917820391   9.397292622015463   1.665464735522235 
 -0.000717820222984  11.567492784124786   1.665733763033415 
  1.250141451702961  13.737007035399266   1.665141060625140 
  8.759296740132939   0.729176319355802   1.664382065411535 
  7.498588782627477   2.903224967978689   1.664398642690650 
  6.207335240854968   5.067740626128128   1.665796201433085 
  3.732146775106303   9.391797677946604   1.665157241039055 
  2.499038772790046  11.565279666083288   1.665118304096070 
  3.756712692851563  13.725673974016956   1.664678257418625 
 11.267395819779605   0.723773537809989   1.664889895278405 
 10.005152221691841   2.897857560075006   1.664946824822925 
  8.729348182480633   5.070934891213521   1.664627720588520 
  7.457681472949089   7.238453372705623   1.666022898478275 
  6.237837788919967   9.305694650548467   1.666126076771745 
  5.008069642905645  11.534006671388294   1.664576136817275 
  6.254319541177159  13.736157021727346   1.664551243517850 
 13.771375564039916   0.723949343368310   1.665189602755425 
 12.519073278587255   2.890524835866937   1.665405482293020 
 11.264288709460477   5.051728293990833   1.664879087511975 
 10.018785974422730   7.199946536312679   1.664474495875905 
  7.487443391447545  11.570748960412711   1.665104173155405 
  5.027674640644182   5.786898793915596   1.667800346608740 
  5.049419774674738   7.186671009935017   1.668913472680215 
  6.273829710650796   7.928228065720647   1.667474582347620 
  8.766809595073246   9.396191612421559   1.667860566180225 
  7.513076188058804  14.455139740832857   1.664943715745730 
 15.026327419740285   1.446080705487015   1.665496453547910 
 13.773442562217435   3.614870435065772   1.665514981831065 
 12.518728901178132   5.783350882534787   1.664766468326055 
 11.263882015840540   7.954000192508388   1.664765416304085 
 10.045118966656787  10.136347003036509   1.666805241959250 
  8.761443962664355  12.277651281142347   1.665225668359890 
 -7.512641426141518  14.459085077964819   1.664892016188345 
  0.003012084294112   1.449050690147193   1.665008589738465 
 -1.247155241200316   3.615914420235222   1.664884459043235 
 -2.500383082444318   5.781745516670374   1.665182159207295 
 -3.757077930352987   7.949414525451123   1.664975444375010 
 -4.995475189145712  10.119737783328796   1.665454934159265 
 -6.254751563669569  12.300038587882595   1.665130920086910 
 -5.006857702567695  14.459494422946568   1.664903165656485 
  2.508561419993895   1.453469781188188   1.665187178319690 
  1.259425414887987   3.620966863680432   1.664908230452070 
  0.009936938856318   5.783826458100071   1.664764249423035 
 -1.256530566316139   7.950366124140583   1.665648252970335 
 -2.501455085255713  10.119737783328796   1.665784903795725 
 -3.755362824781761  12.288786244518631   1.664991573699975 
 -2.502956592938686  14.454985771438505   1.665205955994390 
  5.007771245826796   1.436293265411579   1.665677864763060 
  3.774485119318088   3.619527546687554   1.665697144959180 
  2.520906110420763   5.803297032407959   1.665370860602175 
  1.237729405291934   7.955671603304068   1.665380586030975 
 -0.004701756228642  10.119737783328796   1.665971155794570 
 -1.252759486202079  12.289580863095017   1.665840249112380 
 -0.001371815895753  14.459682677794950   1.665047433847380 
  7.508774259545069   1.447951987117762   1.664697998102475 
  6.244758276097272   3.600461007477850   1.665049819008045 
  3.731164520248795   7.957059428352787   1.666508056990725 
  2.487641824398262  10.125317533541184   1.665452769129000 
  1.248820351849944  12.291796922863821   1.665708094774500 
  2.505920416439137  14.454279879066020   1.665170973167820 
 10.013460169158332   1.449648130027365   1.664772658163895 
  8.754681662559342   3.624685914675814   1.664910751828320 
  7.477079269311399   5.790954382916147   1.665450522897990 
  4.987206094425525  10.082679218452062   1.665437503403670 
  3.760267678115184  12.274822815332669   1.664832692728095 
  5.008152407538384  14.455843129671399   1.664891472629190 
 12.520240584438598   1.445840917205420   1.665507769910445 
 11.266992282400649   3.613888924423346   1.665567103663350 
 10.014341671301391   5.780950165039923   1.664790944761875 
  8.771506820476539   7.948591354465894   1.666289086799595 
  7.502914690603556  10.108621724737695   1.666751774072100 
  6.258396710037922  12.286417369063537   1.664811145182930 
