B N As                                  
   1.0000000000000000     
     8.7639499999999995  -15.1796066749929999    0.0000000000000000
     8.7639499999999995   15.1796066749929999    0.0000000000000000
     0.0000000000000000    0.0000000000000000   15.0000000000000000
   B    N    As
    48    48     1
Selective dynamics
Direct
  0.9054841454402149  0.9535663851988170  0.1110166317584177   T   T   T
  0.9042731824057202  0.0957288387902747  0.1110306065053465   T   T   T
  0.9038719949666822  0.2384274587322342  0.1110393102367761   T   T   T
  0.9039545113404845  0.3812436593276035  0.1109872799802589   T   T   T
  0.9047341792282688  0.5241417630397205  0.1109978191747187   T   T   T
  0.9055889059359048  0.6672687734656642  0.1110520144509710   T   T   T
  0.9062288700667573  0.8109384962763150  0.1110304769588193   T   T   T
  0.0476852157952910  0.9523168054007121  0.1109887893074945   T   T   T
  0.0464356359971863  0.0945178757557813  0.1110166317584177   T   T   T
  0.0460513772468927  0.2376427224451345  0.1110094076049570   T   T   T
  0.0463596921651495  0.3808094114340285  0.1109978374176629   T   T   T
  0.0472543142247075  0.5237729776385790  0.1110040172158564   T   T   T
  0.0480341355376422  0.6666552717816885  0.1110240804517035   T   T   T
  0.0481021545991733  0.8095903545714574  0.1109890909115704   T   T   T
  0.1904116666245459  0.9518998665968285  0.1109890909115704   T   T   T
  0.1890635249196885  0.0937731511292400  0.1110304769588193   T   T   T
  0.1869870094002891  0.2353417038800772  0.1110309694430594   T   T   T
  0.1880705245196368  0.3797597345741648  0.1110239936440737   T   T   T
  0.1897222585555439  0.5232303924735080  0.1110719679755686   T   T   T
  0.1909726965364023  0.6662799503198827  0.1110644349511879   T   T   T
  0.1907991981378017  0.8092028230582021  0.1109860263436805   T   T   T
  0.3333467494153090  0.9519678856583602  0.1110240804517035   T   T   T
  0.3327332477313361  0.0944131152600933  0.1110520144509710   T   T   T
  0.3300245107160257  0.2349137664799397  0.1110211190803405   T   T   T
  0.3265611106692521  0.3759125720772938  0.1110218278765517   T   T   T
  0.3323471503750426  0.5214756742032729  0.1110648909883687   T   T   T
  0.3343718146099482  0.6656302065870523  0.1111033668537464   T   T   T
  0.3337220708771146  0.8090293246596025  0.1110644349511879   T   T   T
  0.4762290435584197  0.9527477069712980  0.1110040172158564   T   T   T
  0.4758602581572798  0.0952678419677262  0.1109978191747187   T   T   T
  0.4751971128198719  0.2375064345526160  0.1110387565420221   T   T   T
  0.4703353492160117  0.3749654886974870  0.1110643951544981   T   T   T
  0.4785263469937248  0.6676548708219555  0.1110648909883687   T   T   T
  0.4767716287234894  0.8102797626404574  0.1110719679755686   T   T   T
  0.6191926097619778  0.9536423290308517  0.1109978374176629   T   T   T
  0.6187583618683985  0.0960475098555126  0.1109872799802589   T   T   T
  0.6184644753905204  0.2388416240727268  0.1110176761439676   T   T   T
  0.6180415635124585  0.3819604576835440  0.1110382976805130   T   T   T
  0.6250365324985173  0.5296666719809872  0.1110643951544981   T   T   T
  0.6240894491187067  0.6734409105277466  0.1110218278765517   T   T   T
  0.6202422866218374  0.8119314966763639  0.1110239936440737   T   T   T
  0.7623592987508717  0.9539506439491107  0.1110094076049570   T   T   T
  0.7615745624637702  0.0961300262293163  0.1110393102367761   T   T   T
  0.7612566964450888  0.2387453247509136  0.1110445016136445   T   T   T
  0.7611603971232785  0.3815375458054839  0.1110176761439676   T   T   T
  0.7624955866433869  0.5248049083771263  0.1110387565420221   T   T   T
  0.7650882547160639  0.6699775104809732  0.1110211190803405   T   T   T
  0.7646603173159277  0.8130150117957134  0.1110309694430594   T   T   T
  0.9531443461922940  0.9057988412457457  0.1109943055760309   T   T   T
  0.9518997515635956  0.0481016503544111  0.1110057693063632   T   T   T
  0.9511006813461391  0.1905800461030965  0.1110179861910183   T   T   T
  0.9511634202031329  0.3334332974048189  0.1109924213339540   T   T   T
  0.9519995735213375  0.4763685749256140  0.1109593982131175   T   T   T
  0.9529398977553161  0.6193587460406367  0.1110146645348856   T   T   T
  0.9533285205294632  0.7625820616441416  0.1110230021755110   T   T   T
  0.0953776679792742  0.9046237339387270  0.1109505221770654   T   T   T
  0.0942025606722539  0.0468570557257088  0.1109943055760309   T   T   T
  0.0923864673162676  0.1887756341131288  0.1110063743593569   T   T   T
  0.0928007125677427  0.3324995164088820  0.1109813568116705   T   T   T
  0.0941464406855839  0.4759406659539879  0.1110074245364375   T   T   T
  0.0954288016212464  0.6190027216750296  0.1110125404856420   T   T   T
  0.0956318563964527  0.7618716386354001  0.1109697320523082   T   T   T
  0.2381297632826057  0.9043695455215470  0.1109697320523082   T   T   T
  0.2374193402738652  0.0466728813885428  0.1110230021755110   T   T   T
  0.2349730414883180  0.1877680218428619  0.1110126617192643   T   T   T
  0.2319291188561368  0.3288461807898749  0.1110099335985612   T   T   T
  0.2356569602404184  0.4750047708473329  0.1110351156364929   T   T   T
  0.2382643706279359  0.6187249133965873  0.1110818150607404   T   T   T
  0.2383328150369159  0.7616685868810910  0.1110260270011310   T   T   T
  0.3809986802429710  0.9045726002967550  0.1110125404856420   T   T   T
  0.3806426558773633  0.0470615041626901  0.1110146645348856   T   T   T
  0.3796595215607548  0.1889157427068871  0.1110309003490043   T   T   T
  0.3750104156874333  0.3280303980683216  0.1109973598790572   T   T   T
  0.3700505448042801  0.4674635681998011  0.1110110508859272   T   T   T
  0.3817182810826678  0.6182831208353293  0.1110696697419520   T   T   T
  0.3812764885214107  0.7617370312900711  0.1110818150607404   T   T   T
  0.5240607359630085  0.9058549612324155  0.1110074245364375   T   T   T
  0.5236328269913841  0.0480018283966697  0.1109593982131175   T   T   T
  0.5232659389644867  0.1902794564571700  0.1110045654185675   T   T   T
  0.5226503428463416  0.3324168874255364  0.1110340027683916   T   T   T
  0.5325378337171955  0.6299508571137171  0.1110110508859272   T   T   T
  0.5249966310696632  0.7643444416775862  0.1110351156364929   T   T   T
  0.6675018855081140  0.9072006893502558  0.1109813568116705   T   T   T
  0.6665681045121772  0.0488379817148750  0.1109924213339540   T   T   T
  0.6661867217762351  0.1912131110349519  0.1109990618572121   T   T   T
  0.6659974139582282  0.3340039879587684  0.1110039758105100   T   T   T
  0.6675845144914609  0.4773510590706572  0.1110340027683916   T   T   T
  0.6719710038486749  0.6249909862305686  0.1109973598790572   T   T   T
  0.6711552211271204  0.7680722830618677  0.1110099335985612   T   T   T
  0.8112257678048720  0.9076149346017308  0.1110063743593569   T   T   T
  0.8094213558149025  0.0489007205718673  0.1110179861910183   T   T   T
  0.8088357654455751  0.1911656364724239  0.1110424466353751   T   T   T
  0.8087882908830454  0.3338146801407627  0.1109990618572121   T   T   T
  0.8097219454608300  0.4767354629525113  0.1110045654185675   T   T   T
  0.8110856592111115  0.6203418803572428  0.1110309003490043   T   T   T
  0.8122333800751381  0.7650283604296884  0.1110126617192643   T   T   T
  0.4987073519776895  0.5012946692193053  0.1111268118921655   T   T   T

  0.00000000E+00  0.00000000E+00  0.00000000E+00
  0.00000000E+00  0.00000000E+00  0.00000000E+00
  0.00000000E+00  0.00000000E+00  0.00000000E+00
  0.00000000E+00  0.00000000E+00  0.00000000E+00
  0.00000000E+00  0.00000000E+00  0.00000000E+00
  0.00000000E+00  0.00000000E+00  0.00000000E+00
  0.00000000E+00  0.00000000E+00  0.00000000E+00
  0.00000000E+00  0.00000000E+00  0.00000000E+00
  0.00000000E+00  0.00000000E+00  0.00000000E+00
  0.00000000E+00  0.00000000E+00  0.00000000E+00
  0.00000000E+00  0.00000000E+00  0.00000000E+00
  0.00000000E+00  0.00000000E+00  0.00000000E+00
  0.00000000E+00  0.00000000E+00  0.00000000E+00
  0.00000000E+00  0.00000000E+00  0.00000000E+00
  0.00000000E+00  0.00000000E+00  0.00000000E+00
  0.00000000E+00  0.00000000E+00  0.00000000E+00
  0.00000000E+00  0.00000000E+00  0.00000000E+00
  0.00000000E+00  0.00000000E+00  0.00000000E+00
  0.00000000E+00  0.00000000E+00  0.00000000E+00
  0.00000000E+00  0.00000000E+00  0.00000000E+00
  0.00000000E+00  0.00000000E+00  0.00000000E+00
  0.00000000E+00  0.00000000E+00  0.00000000E+00
  0.00000000E+00  0.00000000E+00  0.00000000E+00
  0.00000000E+00  0.00000000E+00  0.00000000E+00
  0.00000000E+00  0.00000000E+00  0.00000000E+00
  0.00000000E+00  0.00000000E+00  0.00000000E+00
  0.00000000E+00  0.00000000E+00  0.00000000E+00
  0.00000000E+00  0.00000000E+00  0.00000000E+00
  0.00000000E+00  0.00000000E+00  0.00000000E+00
  0.00000000E+00  0.00000000E+00  0.00000000E+00
  0.00000000E+00  0.00000000E+00  0.00000000E+00
  0.00000000E+00  0.00000000E+00  0.00000000E+00
  0.00000000E+00  0.00000000E+00  0.00000000E+00
  0.00000000E+00  0.00000000E+00  0.00000000E+00
  0.00000000E+00  0.00000000E+00  0.00000000E+00
  0.00000000E+00  0.00000000E+00  0.00000000E+00
  0.00000000E+00  0.00000000E+00  0.00000000E+00
  0.00000000E+00  0.00000000E+00  0.00000000E+00
  0.00000000E+00  0.00000000E+00  0.00000000E+00
  0.00000000E+00  0.00000000E+00  0.00000000E+00
  0.00000000E+00  0.00000000E+00  0.00000000E+00
  0.00000000E+00  0.00000000E+00  0.00000000E+00
  0.00000000E+00  0.00000000E+00  0.00000000E+00
  0.00000000E+00  0.00000000E+00  0.00000000E+00
  0.00000000E+00  0.00000000E+00  0.00000000E+00
  0.00000000E+00  0.00000000E+00  0.00000000E+00
  0.00000000E+00  0.00000000E+00  0.00000000E+00
  0.00000000E+00  0.00000000E+00  0.00000000E+00
  0.00000000E+00  0.00000000E+00  0.00000000E+00
  0.00000000E+00  0.00000000E+00  0.00000000E+00
  0.00000000E+00  0.00000000E+00  0.00000000E+00
  0.00000000E+00  0.00000000E+00  0.00000000E+00
  0.00000000E+00  0.00000000E+00  0.00000000E+00
  0.00000000E+00  0.00000000E+00  0.00000000E+00
  0.00000000E+00  0.00000000E+00  0.00000000E+00
  0.00000000E+00  0.00000000E+00  0.00000000E+00
  0.00000000E+00  0.00000000E+00  0.00000000E+00
  0.00000000E+00  0.00000000E+00  0.00000000E+00
  0.00000000E+00  0.00000000E+00  0.00000000E+00
  0.00000000E+00  0.00000000E+00  0.00000000E+00
  0.00000000E+00  0.00000000E+00  0.00000000E+00
  0.00000000E+00  0.00000000E+00  0.00000000E+00
  0.00000000E+00  0.00000000E+00  0.00000000E+00
  0.00000000E+00  0.00000000E+00  0.00000000E+00
  0.00000000E+00  0.00000000E+00  0.00000000E+00
  0.00000000E+00  0.00000000E+00  0.00000000E+00
  0.00000000E+00  0.00000000E+00  0.00000000E+00
  0.00000000E+00  0.00000000E+00  0.00000000E+00
  0.00000000E+00  0.00000000E+00  0.00000000E+00
  0.00000000E+00  0.00000000E+00  0.00000000E+00
  0.00000000E+00  0.00000000E+00  0.00000000E+00
  0.00000000E+00  0.00000000E+00  0.00000000E+00
  0.00000000E+00  0.00000000E+00  0.00000000E+00
  0.00000000E+00  0.00000000E+00  0.00000000E+00
  0.00000000E+00  0.00000000E+00  0.00000000E+00
  0.00000000E+00  0.00000000E+00  0.00000000E+00
  0.00000000E+00  0.00000000E+00  0.00000000E+00
  0.00000000E+00  0.00000000E+00  0.00000000E+00
  0.00000000E+00  0.00000000E+00  0.00000000E+00
  0.00000000E+00  0.00000000E+00  0.00000000E+00
  0.00000000E+00  0.00000000E+00  0.00000000E+00
  0.00000000E+00  0.00000000E+00  0.00000000E+00
  0.00000000E+00  0.00000000E+00  0.00000000E+00
  0.00000000E+00  0.00000000E+00  0.00000000E+00
  0.00000000E+00  0.00000000E+00  0.00000000E+00
  0.00000000E+00  0.00000000E+00  0.00000000E+00
  0.00000000E+00  0.00000000E+00  0.00000000E+00
  0.00000000E+00  0.00000000E+00  0.00000000E+00
  0.00000000E+00  0.00000000E+00  0.00000000E+00
  0.00000000E+00  0.00000000E+00  0.00000000E+00
  0.00000000E+00  0.00000000E+00  0.00000000E+00
  0.00000000E+00  0.00000000E+00  0.00000000E+00
  0.00000000E+00  0.00000000E+00  0.00000000E+00
  0.00000000E+00  0.00000000E+00  0.00000000E+00
  0.00000000E+00  0.00000000E+00  0.00000000E+00
  0.00000000E+00  0.00000000E+00  0.00000000E+00
  0.00000000E+00  0.00000000E+00  0.00000000E+00
