 Sn B N 
 1.0
 14.936314146199660   0.000000000000000   0.000000000000000
 -7.468157073099825  12.935227489513863   0.000000000000000
  0.000000000000001   0.000000000000001  13.341276283792837
 Sn B N 
   1 144 143
Cartesian
  4.978771382066589   5.748989995339477   5.002978606422314 
  1.217967313006314   0.687886512051781   5.002978606422314 
  4.978771382066851   7.618251128630458   5.002978606422314 
  6.230581390532770   0.686560837872493   5.002978606422314 
  9.988868641525263   7.196105306030202   5.002978606422314 
 11.209168394400798   0.722626394559103   5.002978606422314 
 -3.735206368338276   9.341457588440454  11.673616748318732 
  1.244138492965517   9.341134561323715  11.673616748318732 
  2.490482558501008   2.876383742027413  11.673616748318732 
  6.222376960722399   9.340214455156314  11.673616748318732 
  7.467060205631928   2.876383742027413  11.673616748318732 
 12.446928455165663   2.875829902345542  11.673616748318732 
 -1.253012345844293   9.346912008180498   5.002978606422314 
 -0.034634759566368   2.854498609910689   5.002978606422314 
  4.978771382066797   2.821850855702026   5.002978606422314 
  3.680331742672255   9.466557509801566   5.002978606422314 
  8.737058633059512   9.364303842115500   5.002978606422314 
  9.992177523699810   2.854498609910689   5.002978606422314 
 -4.978760433064712  11.497973669270145  11.673616748318732 
 -0.000010949002047  11.497973669270145  11.673616748318732 
  1.246876979845500   5.030371788834861  11.673616748318732 
  6.223008774693794   5.030629201770443  11.673616748318732 
  4.978771382066657  11.497090011241696  11.673616748318732 
 11.202731323704011   5.030110727239301  11.673616748318732 
 -1.284674840172666   5.022589874521377   5.002978606422314 
 -2.489385691033239  11.488373459171660   5.002978606422314 
  2.476129228888199  11.536493599444949   5.002978606422314 
  3.359943754330118   4.814359428694071   5.002978606422314 
  7.481413535246699  11.536493599444949   5.002978606422314 
  8.847499109571894   5.014687951104703   5.002978606422314 
  0.000566489308183   7.187204668117444  11.673616748318732 
  1.244223702818736   0.718322207794100  11.673616748318732 
  4.978771382066738   7.185711582477543  11.673616748318732 
  6.222343385724434   0.718630756577210  11.673616748318732 
  9.956976274825696   7.187204668117444  11.673616748318732 
 -2.489385691033361   7.192261769967133   5.002978606422314 
 11.201079548289471   0.717956297079623  11.673616748318732 
  3.726961373600573   0.686560837872480   5.002978606422314 
  2.443794526728774   7.212559565158694   5.002978606422314 
  7.513748237403540   7.212559565158694   5.002978606422314 
  8.739575451127083   0.687886512051781   5.002978606422314 
  2.490214248613215   7.185759126232693  11.673616748318732 
 13.684688515933049   0.722626394559103   5.002978606422314 
 -1.243565013728429   9.341457588440402  11.673616748318732 
  0.000770744801573   2.874939987388297  11.673616748318732 
  4.978771382067102   2.875451733552568  11.673616748318732 
  3.735165803410751   9.340214455156314  11.673616748318732 
  8.713404271167482   9.341134561323715  11.673616748318732 
  9.956772019331728   2.874939987388284  11.673616748318732 
 -3.725759036221672   9.346912008180485   5.002978606422314 
  1.220484131074697   9.364303842115500   5.002978606422314 
  2.408483293956063   2.765724525111824   5.002978606422314 
  6.277211021461214   9.466557509801554   5.002978606422314 
  7.549059470177454   2.765724525111876   5.002978606422314 
 12.446928455166432   2.866489707386439   5.002978606422314 
 -1.245188559571664   5.030110727239288  11.673616748318732 
 -2.489385691033239  11.499282298652220  11.673616748318732 
  2.489359119675346  11.498537050985576  11.673616748318732 
  3.734533989439711   5.030629201770443  11.673616748318732 
  7.468183644455866  11.498537050985576  11.673616748318732 
 -4.973554206190579  11.494967852782400   5.002978606422314 
  8.710665784287999   5.030371788834874  11.673616748318732 
 -0.005217175875303  11.494967852782400   5.002978606422314 
  1.110043654561490   5.014687951104651   5.002978606422314 
 -0.031325877392078   7.196105306030216   5.002978606422314 
  6.597599009803745   4.814359428694071   5.002978606422314 
  4.978771382067127  11.537972766196406   5.002978606422314 
 11.242217604306603   5.022589874521377   5.002978606422314 
 -2.489385691033255   7.186250136992963  11.673616748318732 
  3.735199378408903   0.718630756577210  11.673616748318732 
  7.467328515519619   7.185759126232693  11.673616748318732 
  8.713319061313905   0.718322207794087  11.673616748318732 
 13.692777362043120   0.717956297079623  11.673616748318732 
 -0.000120279455996   1.436852306896587   1.669274167954014 
  3.738557757342397   7.902973225878807   1.678254290477708 
  4.978771382066512   1.440302920161780   1.689450893910132 
  8.710203846128348   7.903333532927729   1.689450893910132 
  9.957663043588825   1.436852306896587   1.669274167954014 
 -4.979983112762535  10.059398739792865   8.332235894893401 
  0.001211730695579  10.059398739792865   8.332235894893401 
  1.246128086261636   3.593947383717330   8.322850429965920 
  4.978771382066427  10.059075218583873   8.322850429965920 
  6.224068766677125   3.597941874939230   8.327702922367161 
 11.202637995636012   3.593212177991606   8.336683044891053 
 -2.489385691033300  10.060732491844131   1.666373106324674 
 -1.245095231502403   3.593212177991605   1.669274167954014 
  3.733473997455834   3.597941874939268   1.678254290477735 
  2.490974834818484  10.059841560620923   1.683310376636861 
  7.466567929314383  10.059841560620923   1.683310376636874 
  8.711414677871911   3.593947383717329   1.683106782878815 
 -6.224722484766167  12.217330195219523   8.332874453458329 
 -1.245242043327868  12.218320005687465   8.332235894893401 
  0.001566140964989   5.748059222062299   8.322646836208021 
  4.978771382066590   5.748989995339477   8.291673472432542 
  3.733796430019615  12.216905501130185   8.336683044891053 
  9.955976623168320   5.748059222062299   8.322646836208021 
 -2.489385691033279   5.747537085092689   1.673082759386671 
 -3.733529338739058  12.218320005687465   1.673721317951667 
  1.245951102700377  12.217330195219523   1.673082759386671 
  2.493260372731165   5.746054885201596   1.678254290477735 
  6.223746334113201  12.216905501130197   1.669274167954014 
  7.464282391400891   5.746054885201570   1.678254290477735 
 -1.242931917010533   7.904478730053554   8.332235894893401 
 -0.000120279455996   1.436852306896587   8.336683044891053 
  3.738557757342323   7.902973225878808   8.327702922367161 
  4.978771382066550   1.440302920161768   8.316506318935096 
  8.710203846128348   7.903333532927730   8.316506318934989 
 -3.735839465057443   7.904478730053553   1.673721317951667 
  9.957663043588825   1.436852306896587   8.336683044891053 
  2.489362688212497   1.439069203335158   1.683310376636861 
  1.247338918005354   7.903333532927729   1.689450893910132 
  6.218985006790856   7.902973225878807   1.678254290477735 
  7.468180075919878   1.439069203335145   1.683310376636874 
  1.247338918005355   7.903333532927730   8.316506318934989 
 12.446928455166319   1.437247498834911   1.659271876585877 
 -2.489385691033300  10.060732491844131   8.339584106519085 
 -1.245095231502403   3.593212177991606   8.336683044891053 
  3.733473997455759   3.597941874939242   8.327702922367161 
  2.490974834818485  10.059841560620923   8.322646836208021 
  7.466567929314443  10.059841560620923   8.322646836208021 
  8.711414677871943   3.593947383717330   8.322850429965920 
 -4.979983112762536  10.059398739792865   1.673721317951667 
  0.001211730695563  10.059398739792865   1.673721317951667 
  1.246128086261666   3.593947383717329   1.683106782878815 
  4.978771382066427  10.059075218583873   1.683106782878829 
  6.224068766677116   3.597941874939242   1.678254290477722 
 11.202637995636012   3.593212177991605   1.669274167954014 
 -2.489385691033279   5.747537085092690   8.332874453458329 
 -3.733529338739058  12.218320005687465   8.332235894893401 
  1.245951102700377  12.217330195219523   8.332874453458329 
  2.493260372731158   5.746054885201609   8.327702922367161 
  6.223746334113202  12.216905501130197   8.336683044891053 
 -6.224722484766168  12.217330195219523   1.673082759386671 
  7.464282391400892   5.746054885201571   8.327702922366919 
 -1.245242043327869  12.218320005687465   1.673721317951667 
  0.001566140964989   5.748059222062298   1.683310376636861 
 -1.242931917010518   7.904478730053553   1.673721317951667 
  4.978771382066589   5.748989995339476   1.714283740412365 
  3.733796430019607  12.216905501130197   1.669274167954014 
  9.955976623168262   5.748059222062298   1.683310376636861 
 -3.735839465057442   7.904478730053554   8.332235894893401 
  2.489362688212505   1.439069203335146   8.322646836208021 
  6.218985006790857   7.902973225878808   8.327702922367161 
  7.468180075919894   1.439069203335120   8.322646836208021 
 12.446928455166319   1.437247498834912   8.346685336258071 
  1.244148333500028   0.718520299148306   1.673853807616176 
  4.978771382066379   7.190373434659814   1.643462024100382 
  6.223552297032193   0.718894513481904   1.682853978264802 
  9.957352310300545   7.186025841761563   1.682853978264802 
 11.202390353761619   0.718713090971967   1.659621576221431 
 -3.734328595764113   9.341964370671164   8.338132441270639 
  1.244971368798929   9.342049630775376   8.323103234579586 
  2.488191476336376   2.874024700333536   8.323009678096433 
  6.223274409676154   9.343378111358854   8.323009678096433 
  7.469351287797203   2.874024700333536   8.323009678096433 
 12.446928455166148   2.874316314560633   8.346335636622943 
 -1.244442786301949   9.341964370671164   1.667824771573655 
 -0.000955423398216   2.873943383713663   1.672552513969187 
  4.978771382066101   2.874961642653628   1.687159111356558 
  3.734268354458914   9.343378111358842   1.682947534747021 
  8.712571395334191   9.342049630775376   1.682853978264802 
  9.958498187531630   2.873943383713663   1.672552513969187 
 -4.978991825747627  11.498107263897293   8.336094166219342 
  0.000220443681868  11.498107263897293   8.336094166219342 
  1.243688448727604   5.029567174325264   8.323009678096433 
  6.227046057111910   5.028298275679282   8.362495188744246 
  4.978771382066740  11.499083218591544   8.333404698875054 
 11.202597456219143   5.029946409817815   8.332103405228038 
 -1.245054692086162   5.029946409817814   1.673853807616203 
 -2.489385691033231  11.498268734188139   1.667824771573668 
  2.489568356480369  11.498503277053189   1.673853807616203 
  3.730496707021520   5.028298275679306   1.643462024100342 
  7.467974407652424  11.498503277053189   1.673853807616176 
  8.713854315405632   5.029567174325263   1.682947534747061 
  0.000190453834455   7.186025841761564   8.323103234579586 
  1.244148333500043   0.718520299148306   8.332103405228038 
  4.978771382066366   7.190373434659815   8.362495188744219 
  6.223552297032187   0.718894513481892   8.323103234579612 
  9.957352310300545   7.186025841761564   8.323103234579586 
 -2.489385691032981   7.185982947736298   1.669863046624993 
 11.202390353761619   0.718713090971968   8.346335636622943 
  3.733990467101352   0.718894513481904   1.682853978264802 
  2.489789817444063   7.186004171681308   1.687159111356545 
  7.467752946690786   7.186004171681308   1.687159111356545 
  8.713394430633301   0.718520299148293   1.673853807616176 
  2.489789817444063   7.186004171681309   8.318798101487483 
 13.691466556571081   0.718713090971967   1.659621576221431 
 -1.244442786301949   9.341964370671164   8.338132441270639 
 -0.000955423398201   2.873943383713664   8.333404698875054 
  4.978771382066101   2.874961642653629   8.318798101487257 
  3.734268354458914   9.343378111358842   8.323009678096433 
  8.712571395334191   9.342049630775376   8.323103234579666 
  9.958498187531614   2.873943383713664   8.333404698875054 
 -3.734328595764128   9.341964370671164   1.667824771573655 
  1.244971368798929   9.342049630775376   1.682853978264802 
  2.488191476336465   2.874024700333535   1.682947534747021 
  6.223274409676147   9.343378111358842   1.682947534747141 
  7.469351287797179   2.874024700333522   1.682947534747035 
 12.446928455166148   2.874316314560632   1.659621576221431 
 -1.245054692086162   5.029946409817815   8.332103405228038 
 -2.489385691033231  11.498268734188139   8.338132441270639 
  2.489568356480369  11.498503277053189   8.332103405228038 
  3.730496707021549   5.028298275679307   8.362495188744205 
  7.467974407652425  11.498503277053189   8.332103405228038 
 -4.978991825747628  11.498107263897293   1.669863046624993 
  8.713854315405618   5.029567174325264   8.323009678096419 
  0.000220443681868  11.498107263897293   1.669863046625113 
  1.243688448727603   5.029567174325263   1.682947534747141 
  0.000190453834454   7.186025841761563   1.682853978264802 
  6.227046057111956   5.028298275679306   1.643462024100435 
  4.978771382066859  11.499083218591336   1.672552513969187 
 11.202597456219143   5.029946409817814   1.673853807616176 
 -2.489385691032980   7.185982947736299   8.336094166219342 
  3.733990467101359   0.718894513481892   8.323103234579586 
  7.467752946690773   7.186004171681309   8.318798101487483 
  8.713394430633301   0.718520299148294   8.332103405228038 
 13.691466556571081   0.718713090971968   8.346335636622943 
 -0.015905173784384   1.423443336039375   5.002978606422314 
  3.634018744928692   8.080383946921280   5.002978606422314 
  4.978771382066236   1.388721417843935   5.002978606422314 
  8.754874737501082   7.929124284087124   5.002978606422314 
  9.973447937917049   1.423443336039375   5.002978606422314 
 -4.978749353163275  10.060556684402762  11.673616748318732 
 -0.000022028902278  10.060556684402762  11.673616748318732 
  1.245050082364316   3.593324997877111  11.673616748318732 
  4.978771382065867  10.060319990264301  11.673616748318732 
  6.223372817651808   3.592912747532342  11.673616748318732 
 11.202299771385928   3.593268303905460  11.673616748318732 
 -2.489385691033300  10.060732491844131   5.002978606422314 
 -1.264600188067757   3.586246543936137   5.002978606422314 
  3.632101312336581   3.418703073981846   5.002978606422314 
  2.438681213246130  10.131424440311857   5.002978606422314 
  7.518861550885632  10.131424440311857   5.002978606422314 
  8.770497798329476   3.559835728216687   5.002978606422314 
 -6.223526823373412  12.216639879793101  11.673616748318732 
 -1.244856113678002  12.216672566227835  11.673616748318732 
 -0.000032930661429   5.749098914753029  11.673616748318732 
  4.978771382066590   5.748989995339477  11.673616748318732 
  3.733916935677472  12.216584527379904  11.673616748318732 
  9.957575694793716   5.749098914753016  11.673616748318732 
 -2.489385691033167   5.757024173036398   5.002978606422314 
 -3.731090215590211  12.196559861194972   5.002978606422314 
  1.237735043532459  12.212586651247715   5.002978606422314 
  2.287348675199094   5.747882965115990   5.002978606422314 
  6.227466396349474  12.237280106042606   5.002978606422314 
  7.670194088934657   5.747882965115976   5.002978606422314 
 -1.244551606258164   7.904968224901815  11.673616748318732 
  0.000097439136022   1.437117154732396  11.673616748318732 
  3.733854430735595   7.904885080048166  11.673616748318732 
  4.978771382066109   1.436964311618091  11.673616748318732 
  8.713095165940494   7.905002837201089  11.673616748318732 
 -3.718214188711019   7.917471144908133   5.002978606422314 
  9.957445324996256   1.437117154732396  11.673616748318732 
  2.453516906711624   1.357990158753047   5.002978606422314 
  1.202668026632171   7.929124284087124   5.002978606422314 
  6.323524019204642   8.080383946920930   5.002978606422314 
  7.504025857421504   1.357990158753047   5.002978606422314 
  1.244447598191920   7.905002837201089  11.673616748318732 
 12.446928455166319   1.437247498834912   5.002978606422314 
 -2.489385691033299  10.060732491844133  11.673616748318732 
 -1.244757007252574   3.593268303905460  11.673616748318732 
  3.734169946480383   3.592912747532342  11.673616748318732 
  2.489274898723645  10.060706550926483  11.673616748318732 
  7.468267865408938  10.060706550926483  11.673616748318732 
  8.712492681768545   3.593324997877111  11.673616748318732 
 -4.959918713268171  10.068166469429290   5.002978606422314 
 -0.018852668799288  10.068166469429277   5.002978606422314 
  1.187044965802571   3.559835728216648   5.002978606422314 
  4.978771382066522  10.127298529585223   5.002978606422314 
  6.325441451796378   3.418703073981859   5.002978606422314 
 11.222142952200096   3.586246543936137   5.002978606422314 
 -2.489385691033248   5.748917715947115  11.673616748318732 
 -3.733915268388802  12.216672566227835  11.673616748318732 
  1.244755441306142  12.216639879793101  11.673616748318732 
  2.489252995150995   5.749172158438609  11.673616748318732 
  6.223625828455599  12.216584527379943  11.673616748318732 
 -6.216506425598908  12.212586651247715   5.002978606422314 
  7.468289768982840   5.749172158438609  11.673616748318732 
 -1.247681166476617  12.196559861194959   5.002978606422314 
 -0.086573262108022   5.757555386954911   5.002978606422314 
 -1.260557193355717   7.917471144908133   5.002978606422314 
  3.730076367783053  12.237280106042606   5.002978606422314 
 10.044116026241444   5.757555386954872   5.002978606422314 
 -3.734219775808451   7.904968224901969  11.673616748318732 
  2.489463552681433   1.437164520339116  11.673616748318732 
  6.223688333396015   7.904885080048166  11.673616748318732 
  7.468079211451262   1.437164520339116  11.673616748318732 
 12.446928455166319   1.437247498834912  11.673616748318732 
Generated by cif2cell 2.0.0.  :  Failed to get author information, No journal information. Species order: Sn B N 
 1.0
 14.936314146199660   0.000000000000000   0.000000000000000
 -7.468157073099825  12.935227489513863   0.000000000000000
  0.000000000000001   0.000000000000001  13.341276283792837
 Sn B N 
   1 144 143
Cartesian
  4.978771382066589   5.748989995339477   5.002978606422314 
  1.217967313006314   0.687886512051781   5.002978606422314 
  4.978771382066851   7.618251128630458   5.002978606422314 
  6.230581390532770   0.686560837872493   5.002978606422314 
  9.988868641525263   7.196105306030202   5.002978606422314 
 11.209168394400798   0.722626394559103   5.002978606422314 
 -3.735206368338276   9.341457588440454  11.673616748318732 
  1.244138492965517   9.341134561323715  11.673616748318732 
  2.490482558501008   2.876383742027413  11.673616748318732 
  6.222376960722399   9.340214455156314  11.673616748318732 
  7.467060205631928   2.876383742027413  11.673616748318732 
 12.446928455165663   2.875829902345542  11.673616748318732 
 -1.253012345844293   9.346912008180498   5.002978606422314 
 -0.034634759566368   2.854498609910689   5.002978606422314 
  4.978771382066797   2.821850855702026   5.002978606422314 
  3.680331742672255   9.466557509801566   5.002978606422314 
  8.737058633059512   9.364303842115500   5.002978606422314 
  9.992177523699810   2.854498609910689   5.002978606422314 
 -4.978760433064712  11.497973669270145  11.673616748318732 
 -0.000010949002047  11.497973669270145  11.673616748318732 
  1.246876979845500   5.030371788834861  11.673616748318732 
  6.223008774693794   5.030629201770443  11.673616748318732 
  4.978771382066657  11.497090011241696  11.673616748318732 
 11.202731323704011   5.030110727239301  11.673616748318732 
 -1.284674840172666   5.022589874521377   5.002978606422314 
 -2.489385691033239  11.488373459171660   5.002978606422314 
  2.476129228888199  11.536493599444949   5.002978606422314 
  3.359943754330118   4.814359428694071   5.002978606422314 
  7.481413535246699  11.536493599444949   5.002978606422314 
  8.847499109571894   5.014687951104703   5.002978606422314 
  0.000566489308183   7.187204668117444  11.673616748318732 
  1.244223702818736   0.718322207794100  11.673616748318732 
  4.978771382066738   7.185711582477543  11.673616748318732 
  6.222343385724434   0.718630756577210  11.673616748318732 
  9.956976274825696   7.187204668117444  11.673616748318732 
 -2.489385691033361   7.192261769967133   5.002978606422314 
 11.201079548289471   0.717956297079623  11.673616748318732 
  3.726961373600573   0.686560837872480   5.002978606422314 
  2.443794526728774   7.212559565158694   5.002978606422314 
  7.513748237403540   7.212559565158694   5.002978606422314 
  8.739575451127083   0.687886512051781   5.002978606422314 
  2.490214248613215   7.185759126232693  11.673616748318732 
 13.684688515933049   0.722626394559103   5.002978606422314 
 -1.243565013728429   9.341457588440402  11.673616748318732 
  0.000770744801573   2.874939987388297  11.673616748318732 
  4.978771382067102   2.875451733552568  11.673616748318732 
  3.735165803410751   9.340214455156314  11.673616748318732 
  8.713404271167482   9.341134561323715  11.673616748318732 
  9.956772019331728   2.874939987388284  11.673616748318732 
 -3.725759036221672   9.346912008180485   5.002978606422314 
  1.220484131074697   9.364303842115500   5.002978606422314 
  2.408483293956063   2.765724525111824   5.002978606422314 
  6.277211021461214   9.466557509801554   5.002978606422314 
  7.549059470177454   2.765724525111876   5.002978606422314 
 12.446928455166432   2.866489707386439   5.002978606422314 
 -1.245188559571664   5.030110727239288  11.673616748318732 
 -2.489385691033239  11.499282298652220  11.673616748318732 
  2.489359119675346  11.498537050985576  11.673616748318732 
  3.734533989439711   5.030629201770443  11.673616748318732 
  7.468183644455866  11.498537050985576  11.673616748318732 
 -4.973554206190579  11.494967852782400   5.002978606422314 
  8.710665784287999   5.030371788834874  11.673616748318732 
 -0.005217175875303  11.494967852782400   5.002978606422314 
  1.110043654561490   5.014687951104651   5.002978606422314 
 -0.031325877392078   7.196105306030216   5.002978606422314 
  6.597599009803745   4.814359428694071   5.002978606422314 
  4.978771382067127  11.537972766196406   5.002978606422314 
 11.242217604306603   5.022589874521377   5.002978606422314 
 -2.489385691033255   7.186250136992963  11.673616748318732 
  3.735199378408903   0.718630756577210  11.673616748318732 
  7.467328515519619   7.185759126232693  11.673616748318732 
  8.713319061313905   0.718322207794087  11.673616748318732 
 13.692777362043120   0.717956297079623  11.673616748318732 
 -0.000120279455996   1.436852306896587   1.669274167954014 
  3.738557757342397   7.902973225878807   1.678254290477708 
  4.978771382066512   1.440302920161780   1.689450893910132 
  8.710203846128348   7.903333532927729   1.689450893910132 
  9.957663043588825   1.436852306896587   1.669274167954014 
 -4.979983112762535  10.059398739792865   8.332235894893401 
  0.001211730695579  10.059398739792865   8.332235894893401 
  1.246128086261636   3.593947383717330   8.322850429965920 
  4.978771382066427  10.059075218583873   8.322850429965920 
  6.224068766677125   3.597941874939230   8.327702922367161 
 11.202637995636012   3.593212177991606   8.336683044891053 
 -2.489385691033300  10.060732491844131   1.666373106324674 
 -1.245095231502403   3.593212177991605   1.669274167954014 
  3.733473997455834   3.597941874939268   1.678254290477735 
  2.490974834818484  10.059841560620923   1.683310376636861 
  7.466567929314383  10.059841560620923   1.683310376636874 
  8.711414677871911   3.593947383717329   1.683106782878815 
 -6.224722484766167  12.217330195219523   8.332874453458329 
 -1.245242043327868  12.218320005687465   8.332235894893401 
  0.001566140964989   5.748059222062299   8.322646836208021 
  4.978771382066590   5.748989995339477   8.291673472432542 
  3.733796430019615  12.216905501130185   8.336683044891053 
  9.955976623168320   5.748059222062299   8.322646836208021 
 -2.489385691033279   5.747537085092689   1.673082759386671 
 -3.733529338739058  12.218320005687465   1.673721317951667 
  1.245951102700377  12.217330195219523   1.673082759386671 
  2.493260372731165   5.746054885201596   1.678254290477735 
  6.223746334113201  12.216905501130197   1.669274167954014 
  7.464282391400891   5.746054885201570   1.678254290477735 
 -1.242931917010533   7.904478730053554   8.332235894893401 
 -0.000120279455996   1.436852306896587   8.336683044891053 
  3.738557757342323   7.902973225878808   8.327702922367161 
  4.978771382066550   1.440302920161768   8.316506318935096 
  8.710203846128348   7.903333532927730   8.316506318934989 
 -3.735839465057443   7.904478730053553   1.673721317951667 
  9.957663043588825   1.436852306896587   8.336683044891053 
  2.489362688212497   1.439069203335158   1.683310376636861 
  1.247338918005354   7.903333532927729   1.689450893910132 
  6.218985006790856   7.902973225878807   1.678254290477735 
  7.468180075919878   1.439069203335145   1.683310376636874 
  1.247338918005355   7.903333532927730   8.316506318934989 
 12.446928455166319   1.437247498834911   1.659271876585877 
 -2.489385691033300  10.060732491844131   8.339584106519085 
 -1.245095231502403   3.593212177991606   8.336683044891053 
  3.733473997455759   3.597941874939242   8.327702922367161 
  2.490974834818485  10.059841560620923   8.322646836208021 
  7.466567929314443  10.059841560620923   8.322646836208021 
  8.711414677871943   3.593947383717330   8.322850429965920 
 -4.979983112762536  10.059398739792865   1.673721317951667 
  0.001211730695563  10.059398739792865   1.673721317951667 
  1.246128086261666   3.593947383717329   1.683106782878815 
  4.978771382066427  10.059075218583873   1.683106782878829 
  6.224068766677116   3.597941874939242   1.678254290477722 
 11.202637995636012   3.593212177991605   1.669274167954014 
 -2.489385691033279   5.747537085092690   8.332874453458329 
 -3.733529338739058  12.218320005687465   8.332235894893401 
  1.245951102700377  12.217330195219523   8.332874453458329 
  2.493260372731158   5.746054885201609   8.327702922367161 
  6.223746334113202  12.216905501130197   8.336683044891053 
 -6.224722484766168  12.217330195219523   1.673082759386671 
  7.464282391400892   5.746054885201571   8.327702922366919 
 -1.245242043327869  12.218320005687465   1.673721317951667 
  0.001566140964989   5.748059222062298   1.683310376636861 
 -1.242931917010518   7.904478730053553   1.673721317951667 
  4.978771382066589   5.748989995339476   1.714283740412365 
  3.733796430019607  12.216905501130197   1.669274167954014 
  9.955976623168262   5.748059222062298   1.683310376636861 
 -3.735839465057442   7.904478730053554   8.332235894893401 
  2.489362688212505   1.439069203335146   8.322646836208021 
  6.218985006790857   7.902973225878808   8.327702922367161 
  7.468180075919894   1.439069203335120   8.322646836208021 
 12.446928455166319   1.437247498834912   8.346685336258071 
  1.244148333500028   0.718520299148306   1.673853807616176 
  4.978771382066379   7.190373434659814   1.643462024100382 
  6.223552297032193   0.718894513481904   1.682853978264802 
  9.957352310300545   7.186025841761563   1.682853978264802 
 11.202390353761619   0.718713090971967   1.659621576221431 
 -3.734328595764113   9.341964370671164   8.338132441270639 
  1.244971368798929   9.342049630775376   8.323103234579586 
  2.488191476336376   2.874024700333536   8.323009678096433 
  6.223274409676154   9.343378111358854   8.323009678096433 
  7.469351287797203   2.874024700333536   8.323009678096433 
 12.446928455166148   2.874316314560633   8.346335636622943 
 -1.244442786301949   9.341964370671164   1.667824771573655 
 -0.000955423398216   2.873943383713663   1.672552513969187 
  4.978771382066101   2.874961642653628   1.687159111356558 
  3.734268354458914   9.343378111358842   1.682947534747021 
  8.712571395334191   9.342049630775376   1.682853978264802 
  9.958498187531630   2.873943383713663   1.672552513969187 
 -4.978991825747627  11.498107263897293   8.336094166219342 
  0.000220443681868  11.498107263897293   8.336094166219342 
  1.243688448727604   5.029567174325264   8.323009678096433 
  6.227046057111910   5.028298275679282   8.362495188744246 
  4.978771382066740  11.499083218591544   8.333404698875054 
 11.202597456219143   5.029946409817815   8.332103405228038 
 -1.245054692086162   5.029946409817814   1.673853807616203 
 -2.489385691033231  11.498268734188139   1.667824771573668 
  2.489568356480369  11.498503277053189   1.673853807616203 
  3.730496707021520   5.028298275679306   1.643462024100342 
  7.467974407652424  11.498503277053189   1.673853807616176 
  8.713854315405632   5.029567174325263   1.682947534747061 
  0.000190453834455   7.186025841761564   8.323103234579586 
  1.244148333500043   0.718520299148306   8.332103405228038 
  4.978771382066366   7.190373434659815   8.362495188744219 
  6.223552297032187   0.718894513481892   8.323103234579612 
  9.957352310300545   7.186025841761564   8.323103234579586 
 -2.489385691032981   7.185982947736298   1.669863046624993 
 11.202390353761619   0.718713090971968   8.346335636622943 
  3.733990467101352   0.718894513481904   1.682853978264802 
  2.489789817444063   7.186004171681308   1.687159111356545 
  7.467752946690786   7.186004171681308   1.687159111356545 
  8.713394430633301   0.718520299148293   1.673853807616176 
  2.489789817444063   7.186004171681309   8.318798101487483 
 13.691466556571081   0.718713090971967   1.659621576221431 
 -1.244442786301949   9.341964370671164   8.338132441270639 
 -0.000955423398201   2.873943383713664   8.333404698875054 
  4.978771382066101   2.874961642653629   8.318798101487257 
  3.734268354458914   9.343378111358842   8.323009678096433 
  8.712571395334191   9.342049630775376   8.323103234579666 
  9.958498187531614   2.873943383713664   8.333404698875054 
 -3.734328595764128   9.341964370671164   1.667824771573655 