Species order: X N B                    
   2.51242800000000     
     5.9449720136058266    0.0000000000000000    0.0000000000000000
    -2.9724860068029120    5.1484967885702053   -0.0000000000000001
     0.0000000000000000    0.0000000000000009    5.3101128803662583
   Sn   N    B 
     1   143   144
Direct
  0.5555555555555571  0.4444444444444429  0.3750000000000000
  0.1110706567492499  0.0555475579946916  0.1254642938209438
  0.6112709823035002  0.5558752979403571  0.1231862671262475
  0.4444608069253156  0.0555764878557171  0.1261389047395075
  0.9444235121443465  0.5555391930746503  0.1261389047395075
  0.7777915914590122  0.0555624623961663  0.1243975119709924
  0.1110887888512246  0.7222110610922284  0.6249876146707132
  0.4444608069253154  0.7222176524029944  0.6238610952604735
  0.2776796450673774  0.2221858643509294  0.6238540827017679
  0.7778141356490926  0.7223203549325440  0.6238540827017679
  0.6111728859502499  0.2221858643509295  0.6238540827017679
  0.9444375376038158  0.2222084085409971  0.6256024880289885
  0.2777889389077018  0.7222110610922284  0.1250123853292624
  0.1110258224748535  0.2221795779040972  0.1253667549034295
  0.4444624822015494  0.2222582977364921  0.1264615974864519
  0.6111728859502482  0.7223203549325430  0.1261459172981443
  0.9444235121443465  0.7222176524029944  0.1261389047395075
  0.7778204220959312  0.2221795779040972  0.1253667549034291
  0.1111012718393339  0.8888987281606300  0.6248348350559338
  0.4444641229880153  0.8888987281606300  0.6248348350559338
  0.2776796450673777  0.3888271140497965  0.6238540827017679
  0.6112709823034947  0.3887290176964837  0.6268137328737519
  0.7778204220959296  0.8889741775251692  0.6246332450965417
  0.9444524420053174  0.3888564320879100  0.6245357061790252
  0.1110706567492513  0.3888564320879100  0.1254642938209459
  0.2777889389077018  0.8889112111487322  0.1250123853292625
  0.6111435679121230  0.8889293432507945  0.1254642938209460
  0.4441247020596777  0.3887290176964858  0.1231862671262454
  0.9444524420053174  0.8889293432507945  0.1254642938209438
  0.7778141356490926  0.3888271140497965  0.1261459172981470
  0.2777823475970966  0.5555391930746503  0.6238610952604735
  0.1110706567492513  0.0555475579946921  0.6245357061790252
  0.6112709823034989  0.5558752979403574  0.6268137328737496
  0.4444608069253154  0.0555764878557159  0.6238610952604762
  0.9444235121443465  0.5555391930746503  0.6238610952604735
  0.1111012718393334  0.5555358770119604  0.1251651649440441
  0.7777915914590122  0.0555624623961663  0.6256024880289885
  0.2777823475970965  0.0555764878557170  0.1261389047395075
  0.4444624822015494  0.5555375177983336  0.1264615974864513
  0.7777417022635675  0.5555375177983336  0.1264615974864515
  0.6111435679121230  0.0555475579946907  0.1254642938209438
  0.4444624822015493  0.5555375177983339  0.6235384025135041
  0.9444375376038158  0.0555624623961663  0.1243975119709925
  0.2777889389077018  0.7222110610922284  0.6249876146707134
  0.1110258224748537  0.2221795779040972  0.6246332450965417
  0.4444624822015489  0.2222582977364918  0.6235384025134874
  0.6111728859502482  0.7223203549325430  0.6238540827017679
  0.9444235121443465  0.7222176524029944  0.6238610952604797
  0.7778204220959303  0.2221795779040972  0.6246332450965417
  0.1110887888512243  0.7222110610922284  0.1250123853292624
  0.4444608069253154  0.7222176524029944  0.1261389047395075
  0.2776796450673834  0.2221858643509294  0.1261459172981441
  0.7778141356490915  0.7223203549325430  0.1261459172981529
  0.6111728859502484  0.2221858643509285  0.1261459172981452
  0.9444375376038158  0.2222084085409971  0.1243975119709924
  0.1110706567492514  0.3888564320879100  0.6245357061790252
  0.2777889389077018  0.8889112111487322  0.6249876146707134
  0.6111435679121230  0.8889293432507945  0.6245357061790252
  0.4441247020596799  0.3887290176964858  0.6268137328737493
  0.9444524420053174  0.8889293432507945  0.6245357061790252
  0.1111012718393339  0.8888987281606300  0.1251651649440444
  0.7778141356490921  0.3888271140497965  0.6238540827017673
  0.4444641229880153  0.8888987281606300  0.1251651649440530
  0.2776796450673777  0.3888271140497965  0.1261459172981528
  0.2777823475970966  0.5555391930746502  0.1261389047395081
  0.6112709823034992  0.3887290176964858  0.1231862671262516
  0.7778204220959296  0.8889741775251526  0.1253667549034295
  0.9444524420053174  0.3888564320879100  0.1254642938209438
  0.1111012718393334  0.5555358770119604  0.6248348350559338
  0.2777823475970966  0.0555764878557162  0.6238610952604735
  0.7777417022635669  0.5555375177983336  0.6235384025135041
  0.6111435679121230  0.0555475579946909  0.6245357061790252
  0.9444375376038158  0.0555624623961663  0.6256024880289885
  0.0539571015690760  0.1100439352298447  0.3750000000000000
  0.5556411381418896  0.6246804668469701  0.3750000000000000
  0.3870131553143987  0.1073596439621743  0.3750000000000000
  0.8926403560378441  0.6129868446855682  0.3750000000000000
  0.7227535003274059  0.1100439352298447  0.3750000000000000
  0.0555502347267662  0.7777641864094386  0.8750000000000000
  0.3888806183494057  0.7777641864094386  0.8750000000000000
  0.2222541120038715  0.2777937226685879  0.8750000000000000
  0.7222062773313666  0.7777458879961598  0.8750000000000000
  0.5555414728422594  0.2777618523095159  0.8750000000000000
  0.8888989655653700  0.2777893397559799  0.8750000000000000
  0.2222222222222214  0.7777777777777786  0.3750000000000000
  0.0539571015690759  0.2772464996725714  0.3750000000000000
  0.3753195331530788  0.2642940046283123  0.3750000000000000
  0.5548933799871417  0.7832428496928290  0.3750000000000000
  0.8950161363722626  0.7832428496928293  0.3750000000000000
  0.7247952746789726  0.2752047253210290  0.3750000000000000
  0.0555527616583323  0.9444472383417072  0.8750000000000000
  0.3888806183494057  0.9444497652732793  0.8750000000000000
  0.2222242276695499  0.4444528648153750  0.8750000000000000
  0.5555555555555571  0.4444444444444429  0.8750000000000000
  0.7222106602439580  0.9444429591426564  0.8750000000000000
  0.8888953038124356  0.4444528648153742  0.8750000000000000
  0.0558661097264657  0.4450655527862512  0.3750000000000000
  0.2216475143099731  0.9428948869343267  0.3750000000000000
  0.5549344472137290  0.9441338902735213  0.3750000000000000
  0.3753195331530699  0.4443588618581004  0.3750000000000000
  0.8899560647701104  0.9460428984308893  0.3750000000000000
  0.7357059953717389  0.4443588618580994  0.3750000000000000
  0.2222358135905224  0.6111193816506202  0.8750000000000000
  0.0555570408572940  0.1111010344346410  0.8750000000000000
  0.5555414728422594  0.6111129538662056  0.8750000000000000
  0.3888779425326003  0.1110892183985932  0.8750000000000000
  0.8889107816014592  0.6111220574674390  0.8750000000000000
  0.0571051130656474  0.6120859607089667  0.3750000000000000
  0.7222106602439580  0.1111010344346410  0.8750000000000000
  0.2167571503072805  0.1049838636277500  0.3750000000000000
  0.3870131553143997  0.6129868446855682  0.3750000000000000
  0.7357059953717480  0.6246804668469431  0.3750000000000000
  0.5548933799871384  0.1049838636277503  0.3750000000000000
  0.3888779425326004  0.6111220574674390  0.8750000000000000
  0.8888888888888857  0.1111111111111143  0.3750000000000000
  0.2222222222222214  0.7777777777777786  0.8750000000000000
  0.0555570408572930  0.2777893397559801  0.8750000000000000
  0.3888870461338625  0.2777618523095164  0.8750000000000000
  0.5555471351846266  0.7777757723304317  0.8750000000000000
  0.8888953038124356  0.7777757723304317  0.8750000000000000
  0.7222062773313666  0.2777937226685877  0.8750000000000000
  0.0571051130656466  0.7783524856900426  0.3750000000000000
  0.3879140392910015  0.7783524856900419  0.3750000000000000
  0.2170761173086504  0.2752047253210260  0.3750000000000000
  0.7247952746789733  0.7829238826912835  0.3750000000000000
  0.5556411381418904  0.2642940046283134  0.3750000000000000
  0.8899560647701104  0.2772464996725715  0.3750000000000000
  0.0555527616583323  0.4444388566499939  0.8750000000000000
  0.2222358135905224  0.9444497652732791  0.8750000000000000
  0.5555611433499934  0.9444472383417072  0.8750000000000000
  0.3888870461338625  0.4444585271576600  0.8750000000000000
  0.8888989655653626  0.9444429591426590  0.8750000000000000
  0.0558661097264649  0.9441338902735213  0.3750000000000000
  0.7222381476905134  0.4444585271576599  0.8750000000000000
  0.3879140392910015  0.9428948869343264  0.3750000000000000
  0.2167571503072800  0.4451066200128566  0.3750000000000000
  0.2216475143099735  0.6120859607089667  0.3750000000000000
  0.7227535003274059  0.9460428984308892  0.3750000000000000
  0.8950161363722625  0.4451066200128544  0.3750000000000000
  0.0555502347267661  0.6111193816506317  0.8750000000000000
  0.2222242276695500  0.1111046961875366  0.8750000000000000
  0.7222381476905134  0.6111129538662065  0.8750000000000000
  0.5555471351846262  0.1111046961875367  0.8750000000000000
  0.8888888888888857  0.1111111111111143  0.8750000000000000
  0.1081336908223948  0.0531793130510792  0.3750000000000000
  0.6278102234694682  0.5889537802722301  0.3750000000000000
  0.4436815810264439  0.0530768274797692  0.3750000000000000
  0.9469231725202631  0.5563184189736002  0.3750000000000000
  0.7783966528838170  0.0558649931085412  0.3750000000000000
  0.1110104319406761  0.7221718826370266  0.8750000000000000
  0.4443696739045217  0.7221469099709487  0.8750000000000000
  0.2779242218408609  0.2223682377723308  0.8750000000000000
  0.7776317622276948  0.7220757781591474  0.8750000000000000
  0.6111106825981246  0.2223682377723308  0.8750000000000000
  0.9444960440268881  0.2223254213872056  0.8750000000000000
  0.2774064456340234  0.7225935543659908  0.3750000000000000
  0.1080193390065696  0.2206763361699460  0.3750000000000000
  0.4424095307944919  0.2181523949222855  0.3750000000000000
  0.6123231728881564  0.7318431405613680  0.3750000000000000
  0.9469231725202389  0.7239380868799417  0.3750000000000000
  0.7793236638300653  0.2206763361699459  0.3750000000000000
  0.1111115998082997  0.8888884001917364  0.8750000000000000
  0.4444434670500876  0.8888884001917364  0.8750000000000000
  0.2779242218408609  0.3888893174018634  0.8750000000000000
  0.6110907824506014  0.3889092175494087  0.8750000000000000
  0.7777433763945069  0.8888200861223337  0.8750000000000000
  0.9444677561042414  0.3888691351827430  0.8750000000000000
  0.1081336908223945  0.3882877111046575  0.3750000000000000
  0.2774064456340233  0.8881462246013753  0.3750000000000000
  0.6117122888953704  0.8918663091775684  0.3750000000000000
  0.4110462197278003  0.3721897765305563  0.3750000000000000
  0.9468206869489839  0.8918663091775683  0.3750000000000000
  0.7861866343399002  0.3876768271118487  0.3750000000000000
  0.2778530900290842  0.5556303260954517  0.8750000000000000
  0.1110680457451173  0.0555322438957037  0.8750000000000000
  0.6110907824506014  0.5555148982345112  0.8750000000000000
  0.4443696739045209  0.0555560972669228  0.8750000000000000
  0.9444439027330861  0.5556303260954517  0.8750000000000000
  0.1113439742670745  0.5560212818674932  0.3750000000000000
  0.7776745786128370  0.0555039559730700  0.8750000000000000
  0.2760619131200070  0.0530768274797676  0.3750000000000000
  0.4424095307944917  0.5575904692055601  0.3750000000000000
  0.7818476050776810  0.5575904692055601  0.3750000000000000
  0.6117122888953704  0.0531793130510788  0.3750000000000000
  0.4444814262402630  0.5555185737597532  0.8750000000000000
  0.9441350068914626  0.0558649931085412  0.3750000000000000
  0.2778281173630051  0.7221718826370233  0.8750000000000000
  0.1111799138776642  0.2222566236054924  0.8750000000000000
  0.4444814262402630  0.2222961858137865  0.8750000000000000
  0.6111106825981213  0.7220757781591474  0.8750000000000000
  0.9444439027330861  0.7221469099709487  0.8750000000000000
  0.7777433763945069  0.2222566236054914  0.8750000000000000
  0.1118537753986735  0.7225935543659899  0.3750000000000000
  0.4436815810264426  0.7239380868799417  0.3750000000000000
  0.2681568594386320  0.2138133656600865  0.3750000000000000
  0.7861866343399024  0.7318431405613670  0.3750000000000000
  0.6123231728881501  0.2138133656600897  0.3750000000000000
  0.9441350068914626  0.2216033471162532  0.3750000000000000
  0.1110680457451173  0.3888691351827424  0.8750000000000000
  0.2778281173630051  0.8889895680593388  0.8750000000000000
  0.6111308648172216  0.8889319542549243  0.8750000000000000
  0.4444851017655007  0.3889092175494087  0.8750000000000000
  0.9444677561042414  0.8889319542549243  0.8750000000000000
  0.1113439742670740  0.8886560257329041  0.3750000000000000
  0.7776317622276948  0.3888893174018638  0.8750000000000000
  0.4439787181325412  0.8886560257329041  0.3750000000000000
  0.2681568594386319  0.3876768271118450  0.3750000000000000
  0.2760619131200086  0.5563184189736012  0.3750000000000000
  0.6278102234694735  0.3721897765305556  0.3750000000000000
  0.7793236638300652  0.8919806609933874  0.3750000000000000
  0.9468206869489839  0.3882877111046575  0.3750000000000000
  0.1111115998082998  0.5555565329499310  0.8750000000000000
  0.2778530900290842  0.0555560972669228  0.8750000000000000
  0.7777038141861380  0.5555185737597532  0.8750000000000000
  0.6111308648172216  0.0555322438957035  0.8750000000000000
  0.9444960440268880  0.0555039559730697  0.8750000000000000
  0.0555322269334782  0.1110805595078551  0.1251210253386229
  0.5557824638292078  0.6109651517366412  0.1257941335430159
  0.3890069935503380  0.1113473204340145  0.1266333788441585
  0.8886526795659768  0.6109930064496111  0.1266333788441585
  0.7222149992410249  0.1110805595078545  0.1251210253386229
  0.0554228740397271  0.7776746677201981  0.6245456369879333
  0.3889184603471098  0.7776746677201981  0.6245456369879333
  0.2223503431433370  0.2778418382383157  0.6238421462028060
  0.7221581617616769  0.7776496568567045  0.6238421462028060
  0.5557824638292078  0.2781506454259082  0.6242058664570025
  0.8889194404921569  0.2777850007589351  0.6248789746614102
  0.2222222222222214  0.7777777777777786  0.1249035752560646
  0.0555322269334781  0.2777850007589351  0.1251210253386229
  0.3890348482633585  0.2781506454259113  0.1257941335430176
  0.5556275120230709  0.7777089014303062  0.1261731142380862
  0.8887480560738845  0.7777089014303062  0.1261731142380866
  0.7221581617616755  0.2778418382383156  0.1261578537972019
  0.0554993945700609  0.9445006054299154  0.6245935003670692
  0.3889184603471098  0.9445771259602836  0.6245456369879333
  0.2222910985696785  0.4443724879768875  0.6238268857619330
  0.5555555555555571  0.4444444444444429  0.6215052665167706
  0.7222149992410249  0.9444677730665346  0.6248789746614101
  0.8887480560738885  0.4443724879768875  0.6238268857619330
  0.0554993945700613  0.4443321224734558  0.1254064996329588
  0.2223253322798150  0.9445771259602836  0.1254543630121002
  0.5556678775265710  0.9445006054299154  0.1254064996329588
  0.3890348482633590  0.4442175361708734  0.1257941335430179
  0.8889194404921569  0.9444677730665360  0.1251210253386229
  0.7218493545741093  0.4442175361708708  0.1257941335430176
  0.2223253322798145  0.6110815396529699  0.6245456369879333
  0.0555322269334781  0.1110805595078551  0.6248789746614102
  0.5557824638292030  0.6109651517366411  0.6242058664570025
  0.3890069935503402  0.1113473204340144  0.6233666211558858
  0.8886526795659769  0.6109930064496111  0.6233666211558779
  0.0554228740397268  0.6110815396529699  0.1254543630121002
  0.7222149992410249  0.1110805595078551  0.6248789746614101
  0.2222910985696784  0.1112519439261319  0.1261731142380862
  0.3890069935503402  0.6109930064496111  0.1266333788441585
  0.7218493545741093  0.6109651517366412  0.1257941335430179
  0.5556275120230709  0.1112519439261306  0.1261731142380868
  0.3890069935503402  0.6109930064496111  0.6233666211558779
  0.8888888888888857  0.1111111111111143  0.1243713001132873
  0.2222222222222214  0.7777777777777786  0.6250964247438696
  0.0555322269334781  0.2777850007589351  0.6248789746614101
  0.3890348482633522  0.2781506454259092  0.6242058664570025
  0.5556275120230710  0.7777089014303062  0.6238268857619330
  0.8887480560738886  0.7777089014303062  0.6238268857619330
  0.7221581617616772  0.2778418382383156  0.6238421462028060
  0.0554228740397271  0.7776746677201981  0.1254543630121002
  0.3889184603471091  0.7776746677201981  0.1254543630121002
  0.2223503431433388  0.2778418382383157  0.1261578537972019
  0.7221581617616769  0.7776496568567045  0.1261578537972027
  0.5557824638292078  0.2781506454259086  0.1257941335430174
  0.8889194404921569  0.2777850007589351  0.1251210253386229
  0.0554993945700610  0.4443321224734558  0.6245935003670692
  0.2223253322798150  0.9445771259602836  0.6245456369879333
  0.5556678775265710  0.9445006054299154  0.6245935003670692
  0.3890348482633592  0.4442175361708743  0.6242058664570025
  0.8889194404921569  0.9444677730665358  0.6248789746614102
  0.0554993945700608  0.9445006054299154  0.1254064996329588
  0.7218493545741093  0.4442175361708713  0.6242058664569836
  0.3889184603471098  0.9445771259602838  0.1254543630121003
  0.2222910985696785  0.4443724879768875  0.1261731142380865
  0.2223253322798147  0.6110815396529699  0.1254543630121002
  0.5555555555555571  0.4444444444444429  0.1284947334832503
  0.7222149992410249  0.9444677730665358  0.1251210253386229
  0.8887480560738845  0.4443724879768875  0.1261731142380862
  0.0554228740397269  0.6110815396529699  0.6245456369879333
  0.2222910985696785  0.1112519439261306  0.6238268857619330
  0.7218493545741093  0.6109651517366412  0.6242058664570025
  0.5556275120230710  0.1112519439261294  0.6238268857619330
  0.8888888888888857  0.1111111111111143  0.6256286998866624
 
  0.00000000E+00  0.00000000E+00  0.00000000E+00
  0.00000000E+00  0.00000000E+00  0.00000000E+00
  0.00000000E+00  0.00000000E+00  0.00000000E+00
  0.00000000E+00  0.00000000E+00  0.00000000E+00
  0.00000000E+00  0.00000000E+00  0.00000000E+00
  0.00000000E+00  0.00000000E+00  0.00000000E+00
  0.00000000E+00  0.00000000E+00  0.00000000E+00
  0.00000000E+00  0.00000000E+00  0.00000000E+00
  0.00000000E+00  0.00000000E+00  0.00000000E+00
  0.00000000E+00  0.00000000E+00  0.00000000E+00
  0.00000000E+00  0.00000000E+00  0.00000000E+00
  0.00000000E+00  0.00000000E+00  0.00000000E+00
  0.00000000E+00  0.00000000E+00  0.00000000E+00
  0.00000000E+00  0.00000000E+00  0.00000000E+00
  0.00000000E+00  0.00000000E+00  0.00000000E+00
  0.00000000E+00  0.00000000E+00  0.00000000E+00
  0.00000000E+00  0.00000000E+00  0.00000000E+00
  0.00000000E+00  0.00000000E+00  0.00000000E+00
  0.00000000E+00  0.00000000E+00  0.00000000E+00
  0.00000000E+00  0.00000000E+00  0.00000000E+00
  0.00000000E+00  0.00000000E+00  0.00000000E+00
  0.00000000E+00  0.00000000E+00  0.00000000E+00
  0.00000000E+00  0.00000000E+00  0.00000000E+00
  0.00000000E+00  0.00000000E+00  0.00000000E+00
  0.00000000E+00  0.00000000E+00  0.00000000E+00
  0.00000000E+00  0.00000000E+00  0.00000000E+00
  0.00000000E+00  0.00000000E+00  0.00000000E+00
  0.00000000E+00  0.00000000E+00  0.00000000E+00
  0.00000000E+00  0.00000000E+00  0.00000000E+00
  0.00000000E+00  0.00000000E+00  0.00000000E+00
  0.00000000E+00  0.00000000E+00  0.00000000E+00
  0.00000000E+00  0.00000000E+00  0.00000000E+00
  0.00000000E+00  0.00000000E+00  0.00000000E+00
  0.00000000E+00  0.00000000E+00  0.00000000E+00
  0.00000000E+00  0.00000000E+00  0.00000000E+00
  0.00000000E+00  0.00000000E+00  0.00000000E+00
  0.00000000E+00  0.00000000E+00  0.00000000E+00
  0.00000000E+00  0.00000000E+00  0.00000000E+00
  0.00000000E+00  0.00000000E+00  0.00000000E+00
  0.00000000E+00  0.00000000E+00  0.00000000E+00
  0.00000000E+00  0.00000000E+00  0.00000000E+00
  0.00000000E+00  0.00000000E+00  0.00000000E+00
  0.00000000E+00  0.00000000E+00  0.00000000E+00
  0.00000000E+00  0.00000000E+00  0.00000000E+00
  0.00000000E+00  0.00000000E+00  0.00000000E+00
  0.00000000E+00  0.00000000E+00  0.00000000E+00
  0.00000000E+00  0.00000000E+00  0.00000000E+00
  0.00000000E+00  0.00000000E+00  0.00000000E+00
  0.00000000E+00  0.00000000E+00  0.00000000E+00
  0.00000000E+00  0.00000000E+00  0.00000000E+00
  0.00000000E+00  0.00000000E+00  0.00000000E+00
  0.00000000E+00  0.00000000E+00  0.00000000E+00
  0.00000000E+00  0.00000000E+00  0.00000000E+00
  0.00000000E+00  0.00000000E+00  0.00000000E+00
  0.00000000E+00  0.00000000E+00  0.00000000E+00
  0.00000000E+00  0.00000000E+00  0.00000000E+00
  0.00000000E+00  0.00000000E+00  0.00000000E+00
  0.00000000E+00  0.00000000E+00  0.00000000E+00
  0.00000000E+00  0.00000000E+00  0.00000000E+00
  0.00000000E+00  0.00000000E+00  0.00000000E+00
  0.00000000E+00  0.00000000E+00  0.00000000E+00
  0.00000000E+00  0.00000000E+00  0.00000000E+00
  0.00000000E+00  0.00000000E+00  0.00000000E+00
  0.00000000E+00  0.00000000E+00  0.00000000E+00
  0.00000000E+00  0.00000000E+00  0.00000000E+00
  0.00000000E+00  0.00000000E+00  0.00000000E+00
  0.00000000E+00  0.00000000E+00  0.00000000E+00
  0.00000000E+00  0.00000000E+00  0.00000000E+00
  0.00000000E+00  0.00000000E+00  0.00000000E+00
  0.00000000E+00  0.00000000E+00  0.00000000E+00
  0.00000000E+00  0.00000000E+00  0.00000000E+00
  0.00000000E+00  0.00000000E+00  0.00000000E+00
  0.00000000E+00  0.00000000E+00  0.00000000E+00
  0.00000000E+00  0.00000000E+00  0.00000000E+00
  0.00000000E+00  0.00000000E+00  0.00000000E+00
  0.00000000E+00  0.00000000E+00  0.00000000E+00
  0.00000000E+00  0.00000000E+00  0.00000000E+00
  0.00000000E+00  0.00000000E+00  0.00000000E+00
  0.00000000E+00  0.00000000E+00  0.00000000E+00
  0.00000000E+00  0.00000000E+00  0.00000000E+00
  0.00000000E+00  0.00000000E+00  0.00000000E+00
  0.00000000E+00  0.00000000E+00  0.00000000E+00
  0.00000000E+00  0.00000000E+00  0.00000000E+00
  0.00000000E+00  0.00000000E+00  0.00000000E+00
  0.00000000E+00  0.00000000E+00  0.00000000E+00
  0.00000000E+00  0.00000000E+00  0.00000000E+00
  0.00000000E+00  0.00000000E+00  0.00000000E+00
  0.00000000E+00  0.00000000E+00  0.00000000E+00
  0.00000000E+00  0.00000000E+00  0.00000000E+00
  0.00000000E+00  0.00000000E+00  0.00000000E+00
  0.00000000E+00  0.00000000E+00  0.00000000E+00
  0.00000000E+00  0.00000000E+00  0.00000000E+00
  0.00000000E+00  0.00000000E+00  0.00000000E+00
  0.00000000E+00  0.00000000E+00  0.00000000E+00
  0.00000000E+00  0.00000000E+00  0.00000000E+00
  0.00000000E+00  0.00000000E+00  0.00000000E+00
  0.00000000E+00  0.00000000E+00  0.00000000E+00
  0.00000000E+00  0.00000000E+00  0.00000000E+00
  0.00000000E+00  0.00000000E+00  0.00000000E+00
  0.00000000E+00  0.00000000E+00  0.00000000E+00
  0.00000000E+00  0.00000000E+00  0.00000000E+00
  0.00000000E+00  0.00000000E+00  0.00000000E+00
  0.00000000E+00  0.00000000E+00  0.00000000E+00
  0.00000000E+00  0.00000000E+00  0.00000000E+00
  0.00000000E+00  0.00000000E+00  0.00000000E+00
  0.00000000E+00  0.00000000E+00  0.00000000E+00
  0.00000000E+00  0.00000000E+00  0.00000000E+00
  0.00000000E+00  0.00000000E+00  0.00000000E+00
  0.00000000E+00  0.00000000E+00  0.00000000E+00
  0.00000000E+00  0.00000000E+00  0.00000000E+00
  0.00000000E+00  0.00000000E+00  0.00000000E+00
  0.00000000E+00  0.00000000E+00  0.00000000E+00
  0.00000000E+00  0.00000000E+00  0.00000000E+00
  0.00000000E+00  0.00000000E+00  0.00000000E+00
  0.00000000E+00  0.00000000E+00  0.00000000E+00
  0.00000000E+00  0.00000000E+00  0.00000000E+00
  0.00000000E+00  0.00000000E+00  0.00000000E+00
  0.00000000E+00  0.00000000E+00  0.00000000E+00
  0.00000000E+00  0.00000000E+00  0.00000000E+00
  0.00000000E+00  0.00000000E+00  0.00000000E+00
  0.00000000E+00  0.00000000E+00  0.00000000E+00
  0.00000000E+00  0.00000000E+00  0.00000000E+00
  0.00000000E+00  0.00000000E+00  0.00000000E+00
  0.00000000E+00  0.00000000E+00  0.00000000E+00
  0.00000000E+00  0.00000000E+00  0.00000000E+00
  0.00000000E+00  0.00000000E+00  0.00000000E+00
  0.00000000E+00  0.00000000E+00  0.00000000E+00
  0.00000000E+00  0.00000000E+00  0.00000000E+00
  0.00000000E+00  0.00000000E+00  0.00000000E+00
  0.00000000E+00  0.00000000E+00  0.00000000E+00
  0.00000000E+00  0.00000000E+00  0.00000000E+00
  0.00000000E+00  0.00000000E+00  0.00000000E+00
  0.00000000E+00  0.00000000E+00  0.00000000E+00
  0.00000000E+00  0.00000000E+00  0.00000000E+00
  0.00000000E+00  0.00000000E+00  0.00000000E+00
  0.00000000E+00  0.00000000E+00  0.00000000E+00
  0.00000000E+00  0.00000000E+00  0.00000000E+00
  0.00000000E+00  0.00000000E+00  0.00000000E+00
  0.00000000E+00  0.00000000E+00  0.00000000E+00
  0.00000000E+00  0.00000000E+00  0.00000000E+00
  0.00000000E+00  0.00000000E+00  0.00000000E+00
  0.00000000E+00  0.00000000E+00  0.00000000E+00
  0.00000000E+00  0.00000000E+00  0.00000000E+00
  0.00000000E+00  0.00000000E+00  0.00000000E+00
  0.00000000E+00  0.00000000E+00  0.00000000E+00
  0.00000000E+00  0.00000000E+00  0.00000000E+00
  0.00000000E+00  0.00000000E+00  0.00000000E+00
  0.00000000E+00  0.00000000E+00  0.00000000E+00
  0.00000000E+00  0.00000000E+00  0.00000000E+00
  0.00000000E+00  0.00000000E+00  0.00000000E+00
  0.00000000E+00  0.00000000E+00  0.00000000E+00
  0.00000000E+00  0.00000000E+00  0.00000000E+00
  0.00000000E+00  0.00000000E+00  0.00000000E+00
  0.00000000E+00  0.00000000E+00  0.00000000E+00
  0.00000000E+00  0.00000000E+00  0.00000000E+00
  0.00000000E+00  0.00000000E+00  0.00000000E+00
  0.00000000E+00  0.00000000E+00  0.00000000E+00
  0.00000000E+00  0.00000000E+00  0.00000000E+00
  0.00000000E+00  0.00000000E+00  0.00000000E+00
  0.00000000E+00  0.00000000E+00  0.00000000E+00
  0.00000000E+00  0.00000000E+00  0.00000000E+00
  0.00000000E+00  0.00000000E+00  0.00000000E+00
  0.00000000E+00  0.00000000E+00  0.00000000E+00
  0.00000000E+00  0.00000000E+00  0.00000000E+00
  0.00000000E+00  0.00000000E+00  0.00000000E+00
  0.00000000E+00  0.00000000E+00  0.00000000E+00
  0.00000000E+00  0.00000000E+00  0.00000000E+00
  0.00000000E+00  0.00000000E+00  0.00000000E+00
  0.00000000E+00  0.00000000E+00  0.00000000E+00
  0.00000000E+00  0.00000000E+00  0.00000000E+00
  0.00000000E+00  0.00000000E+00  0.00000000E+00
  0.00000000E+00  0.00000000E+00  0.00000000E+00
  0.00000000E+00  0.00000000E+00  0.00000000E+00
  0.00000000E+00  0.00000000E+00  0.00000000E+00
  0.00000000E+00  0.00000000E+00  0.00000000E+00
  0.00000000E+00  0.00000000E+00  0.00000000E+00
  0.00000000E+00  0.00000000E+00  0.00000000E+00
  0.00000000E+00  0.00000000E+00  0.00000000E+00
  0.00000000E+00  0.00000000E+00  0.00000000E+00
  0.00000000E+00  0.00000000E+00  0.00000000E+00
  0.00000000E+00  0.00000000E+00  0.00000000E+00
  0.00000000E+00  0.00000000E+00  0.00000000E+00
  0.00000000E+00  0.00000000E+00  0.00000000E+00
  0.00000000E+00  0.00000000E+00  0.00000000E+00
  0.00000000E+00  0.00000000E+00  0.00000000E+00
  0.00000000E+00  0.00000000E+00  0.00000000E+00
  0.00000000E+00  0.00000000E+00  0.00000000E+00
  0.00000000E+00  0.00000000E+00  0.00000000E+00
  0.00000000E+00  0.00000000E+00  0.00000000E+00
  0.00000000E+00  0.00000000E+00  0.00000000E+00
  0.00000000E+00  0.00000000E+00  0.00000000E+00
  0.00000000E+00  0.00000000E+00  0.00000000E+00
  0.00000000E+00  0.00000000E+00  0.00000000E+00
  0.00000000E+00  0.00000000E+00  0.00000000E+00
  0.00000000E+00  0.00000000E+00  0.00000000E+00
  0.00000000E+00  0.00000000E+00  0.00000000E+00
  0.00000000E+00  0.00000000E+00  0.00000000E+00
  0.00000000E+00  0.00000000E+00  0.00000000E+00
  0.00000000E+00  0.00000000E+00  0.00000000E+00
  0.00000000E+00  0.00000000E+00  0.00000000E+00
  0.00000000E+00  0.00000000E+00  0.00000000E+00
  0.00000000E+00  0.00000000E+00  0.00000000E+00
  0.00000000E+00  0.00000000E+00  0.00000000E+00
  0.00000000E+00  0.00000000E+00  0.00000000E+00
  0.00000000E+00  0.00000000E+00  0.00000000E+00
  0.00000000E+00  0.00000000E+00  0.00000000E+00
  0.00000000E+00  0.00000000E+00  0.00000000E+00
  0.00000000E+00  0.00000000E+00  0.00000000E+00
  0.00000000E+00  0.00000000E+00  0.00000000E+00
  0.00000000E+00  0.00000000E+00  0.00000000E+00
  0.00000000E+00  0.00000000E+00  0.00000000E+00
  0.00000000E+00  0.00000000E+00  0.00000000E+00
  0.00000000E+00  0.00000000E+00  0.00000000E+00
  0.00000000E+00  0.00000000E+00  0.00000000E+00
  0.00000000E+00  0.00000000E+00  0.00000000E+00
  0.00000000E+00  0.00000000E+00  0.00000000E+00
  0.00000000E+00  0.00000000E+00  0.00000000E+00
  0.00000000E+00  0.00000000E+00  0.00000000E+00
  0.00000000E+00  0.00000000E+00  0.00000000E+00
  0.00000000E+00  0.00000000E+00  0.00000000E+00
  0.00000000E+00  0.00000000E+00  0.00000000E+00
  0.00000000E+00  0.00000000E+00  0.00000000E+00
  0.00000000E+00  0.00000000E+00  0.00000000E+00
  0.00000000E+00  0.00000000E+00  0.00000000E+00
  0.00000000E+00  0.00000000E+00  0.00000000E+00
  0.00000000E+00  0.00000000E+00  0.00000000E+00
  0.00000000E+00  0.00000000E+00  0.00000000E+00
  0.00000000E+00  0.00000000E+00  0.00000000E+00
  0.00000000E+00  0.00000000E+00  0.00000000E+00
  0.00000000E+00  0.00000000E+00  0.00000000E+00
  0.00000000E+00  0.00000000E+00  0.00000000E+00
  0.00000000E+00  0.00000000E+00  0.00000000E+00
  0.00000000E+00  0.00000000E+00  0.00000000E+00
  0.00000000E+00  0.00000000E+00  0.00000000E+00
  0.00000000E+00  0.00000000E+00  0.00000000E+00
  0.00000000E+00  0.00000000E+00  0.00000000E+00
  0.00000000E+00  0.00000000E+00  0.00000000E+00
  0.00000000E+00  0.00000000E+00  0.00000000E+00
  0.00000000E+00  0.00000000E+00  0.00000000E+00
  0.00000000E+00  0.00000000E+00  0.00000000E+00
  0.00000000E+00  0.00000000E+00  0.00000000E+00
  0.00000000E+00  0.00000000E+00  0.00000000E+00
  0.00000000E+00  0.00000000E+00  0.00000000E+00
  0.00000000E+00  0.00000000E+00  0.00000000E+00
  0.00000000E+00  0.00000000E+00  0.00000000E+00
  0.00000000E+00  0.00000000E+00  0.00000000E+00
  0.00000000E+00  0.00000000E+00  0.00000000E+00