 N S B 
 1.0
 17.527899999999772   0.000000000000000   0.000000000000000
 -8.763949999999658  15.179606674993195   0.000000000000000
  0.000000000000001   0.000000000000002  15.000000000000000
 N S B 
  49   1  47
Cartesian
  8.761920341254703  13.732419503604493   1.739995574760315 
 16.276750429002526   0.721284769477080   1.738019554611645 
 15.027558346839410   2.891163040946088   1.720086430365810 
 13.772814299843102   5.059868891664398   1.720263908892525 
 12.519193433271910   7.225833698790023   1.732676513619990 
 11.266287248391485   9.394820229689191   1.735250272540215 
 10.013253183489057  11.564157504345784   1.731795492475290 
 -6.264123064685553  13.735057444792432   1.717183347094650 
  1.251362276261201   0.724247705753679   1.726242910874385 
  0.004069759676258   2.895014881188762   1.712770866686490 
 -1.247627026530163   5.059868891664398   1.696707560995125 
 -2.509419516915148   7.226291762090810   1.720493669978205 
 -3.767016392165544   9.395751519340497   1.713250512603735 
 -5.015021479043232  11.566147267845743   1.706792213239470 
 -3.763053410889079  13.737140457181573   1.698523139368485 
  3.753092949102482   0.724942871654260   1.699123424806680 
  2.504675699402940   2.894432887933532   1.656399948530880 
  1.258680637548263   5.069543160699949   1.619002904461635 
 -0.006344837462616   7.229786681659244   1.668679499655195 
 -1.277271332925130   9.397765677793819   1.759905548777520 
 -2.518142736655120  11.568477361382699   1.716558327504660 
 -1.262462178789765  13.740393459188871   1.718156744183775 
  6.256518429251425   0.726013501176745   1.708754990174415 
  5.007694393940435   2.891966327985168   1.657925083597800 
  3.758678303076487   5.055156065248484   1.442808633948990 
  2.477983743548667   7.242526672420091   1.354672219931670 
  1.174652536227523   9.380802443645644   1.859593127488230 
 -0.027127907933315  11.571810656130941   1.798957221331365 
  1.237576569903925  13.749151636489380   1.746718698528495 
  8.761019413025934   0.728413983133143   1.719025169689995 
  7.514740498391425   2.889318922212299   1.721350501507380 
  6.270313417219048   5.047425356261328   1.626626449498230 
  5.077491899474734   7.171853634294287   1.251181111434090 
  3.861821644257325   9.429469956483624   0.862935569704890 
  2.478068037014603  11.669293523372350   1.789053618646980 
  3.756817225398853  13.732477257517141   1.698247642829310 
 11.267411631997561   0.723746150245106   1.714848251996745 
 10.016239064158226   2.890840606779328   1.725331114772715 
  8.766024394748378   5.056275934565187   1.725718307507955 
  7.522701632735039   7.220280624858217   1.643135335416420 
  6.285205428084005   9.389898893728217   1.469102017306200 
  5.006984466629574  11.550089432559952   1.550279982945855 
  6.257661967022994  13.726929481234047   1.724255262250740 
 13.773017611743088   0.720617882506010   1.717318159974105 
 12.522984438794152   2.890238649772703   1.715247768045885 
 11.270050481479364   5.059868891664398   1.733482968263445 
 10.019998825958387   7.224449371448164   1.745989384662315 
  8.769892968065896   9.391903875241441   1.719057291726375 
  7.510916238043366  11.560135382978979   1.687719076019355 
  3.771825553747040   7.954982156210463   0.584011070711205 
  7.507182963786878  14.452153005861470   1.738715419492965 
 15.023714051690705   1.442996539612656   1.725986948164305 
 13.774224168630912   3.612634788806811   1.717811589986790 
 12.523125260966832   5.781022512479657   1.729921003347450 
 11.271570383970140   7.950042862897106   1.740820216635690 
 10.019235076169178  10.119737783328796   1.734483140081520 
  8.761474104684499  12.287353281032598   1.726574885360385 
 -7.515144636280773  14.456135153038161   1.730824146880185 
 -0.000893854495263   1.445526696385449   1.728516162656580 
 -1.250595435393156   3.616062364914467   1.710765283299075 
 -2.504346297585130   5.783753214482240   1.712905657088520 
 -3.758884165637287   7.951439530143825   1.723726401735735 
 -5.011875670238787  10.119737783328796   1.717206267538335 
 -6.263285248794562  12.288954028524797   1.719442827723840 
 -5.011813488673888  14.456520765298716   1.705196724955035 
  2.502105394744411   1.444400840851519   1.698643409081715 
  1.252876295057246   3.616964494336226   1.668230464853850 
 -0.003536078183839   5.794168896893285   1.657381716093510 
 -1.260416820979346   7.955949218092710   1.724319195094590 
 -2.516389135990473  10.119737783328796   1.727803905484470 
 -3.763399016799216  12.290586231821893   1.703374249970595 
 -2.508521421382647  14.457609036964721   1.706529508351125 
  5.009598486697817   1.442858678847980   1.692778756086315 
  3.755804255580979   3.605938217326960   1.589651413999965 
  2.500264462646790   5.771159193344687   1.458050611907790 
  1.224644313994188   8.020784945657988   1.634134825006275 
 -0.008327611525018  10.119737783328796   1.817561621192145 
 -1.262695309869621  12.291435444800738   1.742216442374280 
 -0.007544856475929  14.461534917177888   1.728396311473095 
  7.512348811653407   1.442900926580442   1.717704252501345 
  6.266540879556192   3.600846937815511   1.677265381083645 
  5.029714426932735   5.733667605424685   1.440624405566520 
  1.233521008215218  12.287092085045488   1.780282340527530 
  2.499486731014768  14.451879018991509   1.721663601669330 
 10.017871683009014   1.442905631544948   1.720118187928665 
  8.769816294407057   3.609014949221319   1.726491008094870 
  7.524347039301646   5.774453835915056   1.666937601391815 
  6.303810768266477   7.953715412533953   1.453500114684270 
  5.043482783337535  10.132347070564290   1.304071320418845 
  3.735206725007228  12.263560035732036   1.664829166612650 
  5.002392594124823  14.450157480455019   1.711030439874315 
 12.520175395089222   1.442149069226318   1.713876244534725 
 11.272285772099039   3.611242715621239   1.724090408966985 
 10.023154258269004   5.779171495828032   1.737470370730320 
  8.775487119681999   7.948948698159449   1.712097134089545 
  7.524753978522306  10.119737783328796   1.644402378706500 
  6.250658789656998  12.280139696764316   1.664389835593935 
