Species order: X N B                    
   2.51242800000000     
     5.9449720136058266    0.0000000000000000    0.0000000000000000
    -2.9724860068029120    5.1484967885702053   -0.0000000000000001
     0.0000000000000000    0.0000000000000009    5.3101128803662583
   Sn   N    B 
     1   143   143
Direct
  0.4903320825139731  0.4118327079236568  0.3750000000000000
  0.1110967124117788  0.0555368029557278  0.1247994758483257
  0.6111144042369101  0.5556035453963023  0.1253585182130046
  0.4443810052959397  0.0554895483035552  0.1248401866918685
  0.9443949485416528  0.5555311735226917  0.1252743540886978
  0.7777458787396703  0.0555396060365068  0.1252392974907329
  0.1110416645191566  0.7221874989262430  0.6247799519728543
  0.4443810052959397  0.7222247903257252  0.6251598133081360
  0.2778075727457395  0.2222202688235507  0.6250466949331651
  0.7777527479220746  0.7222246846691139  0.6249422128736754
  0.6110619092800292  0.2221566250536502  0.6252668549467775
  0.9444382320183585  0.2222192642001650  0.6248147145618624
  0.2777022353131425  0.7221977759444230  0.1251697599190378
  0.1111424060220420  0.2222378696776873  0.1247304785018822
  0.4444283000465766  0.2221772455047227  0.1251492236184380
  0.6110619092800292  0.7222386175596903  0.1247331450532454
  0.9443949485416528  0.7221971083522869  0.1252743540886978
  0.7777405069338578  0.2221956116354644  0.1251552572262076
  0.1110531578471770  0.8888489045820763  0.6248252017055284
  0.4443713367507935  0.8888523350420541  0.6247463728041186
  0.2778075727457395  0.3889206372555135  0.6250466949331651
  0.6111144042369101  0.3888441921739440  0.6246414817869755
  0.7777405069338578  0.8888782286317592  0.6248447427737864
  0.9444152339400637  0.3888705808529848  0.6247252932842542
  0.1110967124117789  0.3888932427893839  0.1247994758483257
  0.2777022353131425  0.8888377927020690  0.1251697599190378
  0.6110539065553683  0.8888773887028165  0.1251235131666553
  0.4446229376156844  0.3889781354745104  0.1307414936762039
  0.9444152339400637  0.8888779864204192  0.1252747067157364
  0.7777527479220746  0.3888613965862865  0.1250577871263302
  0.2777335804391278  0.5555627890706897  0.6252526725753720
  0.1110967124117789  0.0555368029557278  0.6252005241516999
  0.6111144042369101  0.5556035453963023  0.6246414817869753
  0.4443810052959397  0.0554895483035552  0.6251598133081360
  0.9443949485416528  0.5555311735226917  0.6247256459112988
  0.1110531578471770  0.5555375865984393  0.1251747982944795
  0.7777458787396703  0.0555396060365068  0.6247607025092624
  0.2777335804391278  0.0555041247017693  0.1247473274246315
  0.4444283000465766  0.5555843878751867  0.1251492236184380
  0.7777342988963261  0.5555338161148413  0.1251941020921076
  0.6110539065553683  0.0555098511858804  0.1251235131666553
  0.4444283000465766  0.5555843878751867  0.6248507763815685
  0.9444382320183585  0.0555523011515201  0.1251852854381186
  0.2777022353131425  0.7221977759444230  0.6248302400809745
  0.1111424060220420  0.2222378696776873  0.6252695214981233
  0.4444283000465766  0.2221772455047227  0.6248507763815685
  0.6110619092800292  0.7222386175596903  0.6252668549467775
  0.9443949485416528  0.7221971083522869  0.6247256459112988
  0.7777405069338578  0.2221956116354644  0.6248447427737864
  0.1110416645191566  0.7221874989262430  0.1252200480271516
  0.4443810052959397  0.7222247903257252  0.1248401866918685
  0.2778075727457395  0.2222202688235507  0.1249533050668094
  0.7777527479220746  0.7222246846691139  0.1250577871263302
  0.6110619092800292  0.2221566250536502  0.1247331450532454
  0.9444382320183585  0.2222192642001650  0.1251852854381186
  0.1110967124117791  0.3888932427893839  0.6252005241516999
  0.2777022353131426  0.8888377927020690  0.6248302400809745
  0.6110539065553683  0.8888773887028165  0.6248764868333483
  0.4446229376156844  0.3889781354745105  0.6192585063238102
  0.9444152339400637  0.8888779864204192  0.6247252932842542
  0.1110531578471770  0.8888489045820763  0.1251747982944795
  0.7777527479220746  0.3888613965862865  0.6249422128736754
  0.4443713367507935  0.8888523350420541  0.1252536271959002
  0.2778075727457395  0.3889206372555135  0.1249533050668094
  0.2777335804391288  0.5555627890706897  0.1247473274246315
  0.6111144042369101  0.3888441921739440  0.1253585182130046
  0.7777405069338578  0.8888782286317592  0.1251552572262077
  0.9444152339400637  0.3888705808529848  0.1252747067157364
  0.1110531578471770  0.5555375865984393  0.6248252017055284
  0.2777335804391278  0.0555041247017694  0.6252526725753720
  0.7777342988963261  0.5555338161148413  0.6248058979078973
  0.6110539065553683  0.0555098511858804  0.6248764868333483
  0.9444382320183585  0.0555523011515201  0.6248147145618624
  0.0585845287541582  0.1127771103299139  0.3750000000000000
  0.5563373790119912  0.6213326208250889  0.3750000000000000
  0.3880467617201555  0.1039706913044535  0.3750000000000000
  0.8867822228353394  0.6100577780843549  0.3750000000000000
  0.7247993309324200  0.1113715145381428  0.3750000000000000
  0.0555399558974270  0.7777736020595535  0.8750000000000000
  0.3888884842591010  0.7777745948789005  0.8750000000000000
  0.2222139451057524  0.2777736392195392  0.8750000000000000
  0.7222172872834414  0.7777785461113976  0.8750000000000000
  0.5555481330120255  0.2777764289116545  0.8750000000000000
  0.8888866528243700  0.2777746168612603  0.8750000000000000
  0.2209280127470299  0.7771306730401895  0.3750000000000000
  0.0585845287541586  0.2791407517575757  0.3750000000000000
  0.3882208694640025  0.2655403065898781  0.3750000000000000
  0.5566691621348910  0.7828453929176592  0.3750000000000000
  0.8897767854900464  0.7790530341009421  0.3750000000000000
  0.7245090694959847  0.2762461173609499  0.3750000000000000
  0.0555467295726839  0.9444442709884837  0.8750000000000000
  0.3888884842591010  0.9444472227135514  0.8750000000000000
  0.2222151394565425  0.4444324842455177  0.8750000000000000
  0.5555288170622766  0.4444310751978026  0.8750000000000000
  0.7222207386576881  0.9444451030452717  0.8750000000000000
  0.8888786805221374  0.4444340509201815  0.8750000000000000
  0.0562128392713043  0.4451176175151077  0.3750000000000000
  0.2211042636101147  0.9422080072753263  0.3750000000000000
  0.5567208297000700  0.9450270815166952  0.3750000000000000
  0.3882208694640013  0.4560138962074607  0.3750000000000000
  0.8915071417100633  0.9466149420015286  0.3750000000000000
  0.7228274770583120  0.4423358185205979  0.3750000000000000
  0.2222164987528489  0.6111000158492925  0.8750000000000000
  0.0555484498113455  0.1111086070382537  0.8750000000000000
  0.5555481330120255  0.6111050374337186  0.8750000000000000
  0.3888902459542262  0.1111227953779663  0.8750000000000000
  0.8888679653273418  0.6111006493303504  0.8750000000000000
  0.0542127113853868  0.6108102860786274  0.3750000000000000
  0.7222207386576881  0.1111089689457170  0.8750000000000000
  0.2225283574093275  0.1092511094137450  0.3750000000000000
  0.3880467617201555  0.6174094037490547  0.3750000000000000
  0.7228274770582997  0.6138249918710446  0.3750000000000000
  0.5566691621348910  0.1071571025505977  0.3750000000000000
  0.3888902459542262  0.6111007839095952  0.8750000000000000
  0.8919840697904914  0.1126587015619088  0.3750000000000000
  0.2222150130800414  0.7777741732066885  0.8750000000000000
  0.0555484498113455  0.2777731761064254  0.8750000000000000
  0.3888892433229536  0.2777940887754490  0.8750000000000000
  0.5555540026605130  0.7777777884379029  0.8750000000000000
  0.8888786805221374  0.7777779629352866  0.8750000000000000
  0.7222172872834414  0.2777720745053725  0.8750000000000000
  0.0542127113853869  0.7767357586400836  0.3750000000000000
  0.3884077279711154  0.7795932350947119  0.3750000000000000
  0.2266014687991661  0.2799674010662533  0.3750000000000000
  0.7245090694959847  0.7815962854683601  0.3750000000000000
  0.5563373790119915  0.2683380915202306  0.3750000000000000
  0.8915071417100633  0.2782255330418685  0.3750000000000000
  0.0555467295726839  0.4444357919175366  0.8750000000000000
  0.2222164987528489  0.9444498162369160  0.8750000000000000
  0.5555537285130231  0.9444435309231884  0.8750000000000000
  0.3888892433229536  0.4444284878808392  0.8750000000000000
  0.8888866528243700  0.9444453692964428  0.8750000000000000
  0.0562128392713048  0.9444285550895229  0.3750000000000000
  0.7222046700152113  0.4444333314927397  0.8750000000000000
  0.3884077279711154  0.9421478262097345  0.3750000000000000
  0.2225283574093274  0.4466105813289205  0.3750000000000000
  0.2211042636101147  0.6122295896681273  0.3750000000000000
  0.7247993309324245  0.9467611497276130  0.3750000000000000
  0.8897767854900552  0.4440570847224327  0.3750000000000000
  0.0555399558974270  0.6110996871712248  0.8750000000000000
  0.2222151394565425  0.1111159885443650  0.8750000000000000
  0.7222046700152113  0.6111046718558266  0.8750000000000000
  0.5555540026605130  0.1111095475559542  0.8750000000000000
  0.8888881601071622  0.1111107467202456  0.8750000000000000
  0.1120538170499352  0.0553076828845899  0.3750000000000000
  0.6162902414595187  0.5743232261601414  0.3750000000000000
  0.4452054886930701  0.0513161163935162  0.3750000000000000
  0.9436340268751500  0.5550805475871113  0.3750000000000000
  0.7811513429036588  0.0572423381184984  0.3750000000000000
  0.1111098629585698  0.7222215981459345  0.8750000000000000
  0.4444389717615070  0.7222522386234451  0.8750000000000000
  0.2776856421391195  0.2221670982606381  0.8750000000000000
  0.7778173808525020  0.7222915183018331  0.8750000000000000
  0.6111328634701623  0.2221691027833633  0.8750000000000000
  0.9444352096902568  0.2222068415988352  0.8750000000000000
  0.2771237647683741  0.7229463792506582  0.3750000000000000
  0.1147995605942223  0.2240664469637727  0.3750000000000000
  0.4432310415192413  0.2118374798557575  0.3750000000000000
  0.6140406132626259  0.7313058322888736  0.3750000000000000
  0.9436340268751500  0.7218868126213647  0.3750000000000000
  0.7809802963965725  0.2218342253188900  0.3750000000000000
  0.1110996859251915  0.8888900795581963  0.8750000000000000
  0.4444451979685003  0.8888892656509111  0.8750000000000000
  0.2776856421391195  0.3888518772118237  0.8750000000000000
  0.6111397312294008  0.3888455898424819  0.8750000000000000
  0.7778019181380166  0.8889405066448759  0.8750000000000000
  0.9444543856930967  0.3888669584137627  0.8750000000000000
  0.1120538170499352  0.3900794674986724  0.3750000000000000
  0.2771237647683741  0.8875107188510483  0.3750000000000000
  0.6137432854754954  0.8924996426814350  0.3750000000000000
  0.9458900485775208  0.8902661427112510  0.3750000000000000
  0.7800558809136771  0.3871452742454679  0.3750000000000000
  0.2777384633692379  0.5555490803129066  0.8750000000000000
  0.1110692922893817  0.0555384098783232  0.8750000000000000
  0.6111397312294008  0.5556274747202542  0.8750000000000000
  0.4444389717615070  0.0555200664713988  0.8750000000000000
  0.9444651373570164  0.5555494302650951  0.8750000000000000
  0.1103414550400154  0.5559534118635554  0.3750000000000000
  0.7777923356489695  0.0555628344911478  0.8750000000000000
  0.2768540414921153  0.0523365047252219  0.3750000000000000
  0.4432310415192409  0.5647268949968199  0.3750000000000000
  0.7764365686887321  0.5548849510110445  0.3750000000000000
  0.6137432854754954  0.0545769761273984  0.3750000000000000
  0.4444145688071455  0.5555871338452790  0.8750000000000000
  0.9476813893902963  0.0576421543889000  0.3750000000000000
  0.2777656446308203  0.7222211118452705  0.8750000000000000
  0.1110472381438878  0.2221902857386040  0.8750000000000000
  0.4444145688071455  0.2221607682951838  0.8750000000000000
  0.6111328634701623  0.7222970940201286  0.8750000000000000
  0.9444651373570164  0.7222490404252344  0.8750000000000000
  0.7778019181380166  0.2221947448264663  0.8750000000000000
  0.1100049059355864  0.7216691196344771  0.3750000000000000
  0.4452054886930701  0.7272227056328741  0.3750000000000000
  0.2787481377192935  0.2201447656563420  0.3750000000000000
  0.7800558809136771  0.7262439400015175  0.3750000000000000
  0.6140406132626259  0.2160681143070833  0.3750000000000000
  0.9476813893902963  0.2233725683347494  0.3750000000000000
  0.1110692922893817  0.3888642157443890  0.8750000000000000
  0.2777656446308203  0.8888778661188778  0.8750000000000000
  0.6111277478088442  0.8889223273144344  0.8750000000000000
  0.4443688363910021  0.3888510848621753  0.8750000000000000
  0.9444543856930967  0.8889207606126512  0.8750000000000000
  0.1103414550400154  0.8877213765097901  0.3750000000000000
  0.7778173808524902  0.3888591958839717  0.8750000000000000
  0.4453298582837980  0.8893315958085634  0.3750000000000000
  0.2787481377192935  0.3919367053962871  0.3750000000000000
  0.2768540414921153  0.5578508701002335  0.3750000000000000
  0.6162902414595193  0.3753003486327027  0.3750000000000000
  0.7809802963965717  0.8924794044110044  0.3750000000000000
  0.9458900485775208  0.3889572391996074  0.3750000000000000
  0.1110996859251915  0.5555429397003184  0.8750000000000000
  0.2777384633692379  0.0555227163896612  0.8750000000000000
  0.7778195477444245  0.5555764405388667  0.8750000000000000
  0.6111277478088442  0.0555387538277620  0.8750000000000000
  0.9444352096902568  0.0555617014247684  0.8750000000000000
  0.0555136924291606  0.1110771733943267  0.1247850233072228
  0.5554940021014928  0.6113723622919773  0.1244788100836769
  0.3887040532607731  0.1107946615349114  0.1245310298510722
  0.8890627255293269  0.6111980294313359  0.1249476976767776
  0.7221852260963578  0.1110406549417259  0.1250071501799997
  0.0555781635366789  0.7777837111101515  0.6249447850564711
  0.3887566279248827  0.7777870093522938  0.6250685941770162
  0.2220830495452654  0.2777081914393056  0.6252791323470699
  0.7222562906804575  0.7779234356081953  0.6253242627775092
  0.5554940021014928  0.2774549731428365  0.6255211899163289
  0.8889025722275352  0.2777446708238586  0.6249474931991400
  0.2221404834594490  0.7777369083964062  0.1250464905997372
  0.0555136924291606  0.2777698523681701  0.1247850233072228
  0.3885512138193452  0.2772321383436343  0.1264199198264542
  0.5554588764010082  0.7778837610429959  0.1246553128462188
  0.8889971244884535  0.7778836523579112  0.1249751973006806
  0.7222562906804575  0.2776661884055880  0.1246757372224975
  0.0555366723697535  0.9444221980993031  0.6250416687585367
  0.3887566279248827  0.9443029519059142  0.6250685941770162
  0.2220900330833037  0.4444902622923951  0.6254660550909453
  0.5559454050859203  0.4446393692096244  0.6246272850127015
  0.7221852260963578  0.9444779044879584  0.6249928498200024
  0.8889971244884535  0.4444468054638600  0.6250248026993173
  0.0555366723697535  0.4444478076037710  0.1249583312414734
  0.2221180794736247  0.9443142818375808  0.1248731794356973
  0.5554597630345057  0.9443965481839164  0.1250204404354245
  0.3885512138193452  0.4446524088090398  0.1264199198264541
  0.8889025722275352  0.9444912347369957  0.1250525068008432
  0.7225055636521910  0.4444958292513407  0.1245746467160796
  0.2221180794736247  0.6111371309694021  0.6251268205643061
  0.0555136924291606  0.1110771733943267  0.6252149766927906
  0.5554940021014928  0.6113723622919773  0.6255211899163289
  0.3887040532607731  0.1107946615349114  0.6254689701489349
  0.8890627255293269  0.6111980294313359  0.6250523023232260
  0.0555781635366789  0.6111277857598640  0.1250552149435211
  0.7221852260963578  0.1110406549417259  0.6249928498200024
  0.2220900330833037  0.1109331041242456  0.1245339449090510
  0.3887040532607731  0.6112427250592034  0.1245310298510722
  0.7225055636521980  0.6113430677342108  0.1245746467160796
  0.5554588764010082  0.1109084486913352  0.1246553128462188
  0.3887040532607731  0.6112427250592081  0.6254689701489349
  0.8888722637959977  0.1111027985646723  0.1250719012001038
  0.2221404834594490  0.7777369083964062  0.6249535094002708
  0.0555136924291606  0.2777698523681701  0.6252149766927906
  0.3885512138193452  0.2772321383436343  0.6235800801735554
  0.5554588764010082  0.7778837610429959  0.6253446871537920
  0.8889971244884535  0.7778836523579112  0.6250248026993173
  0.7222562906804575  0.2776661884055880  0.6253242627775092
  0.0555781635366789  0.7777837111101515  0.1250552149435211
  0.3887566279248827  0.7777870093522938  0.1249314058229735
  0.2220830495452654  0.2777081914393056  0.1247208676529401
  0.7222562906804575  0.7779234356081953  0.1246757372224975
  0.5554940021014928  0.2774549731428365  0.1244788100836771
  0.8889025722275352  0.2777446708238586  0.1250525068008432
  0.0555366723697535  0.4444478076037710  0.6250416687585367
  0.2221180794736247  0.9443142818375808  0.6251268205643061
  0.5554597630345057  0.9443965481839164  0.6249795595645841
  0.3885512138193452  0.4446524088090398  0.6235800801735554
  0.8889025722275352  0.9444912347369957  0.6249474931991400
  0.0555366723697535  0.9444221980993031  0.1249583312414734
  0.7225055636521980  0.4444958292513407  0.6254253532839280
  0.3887566279248815  0.9443029519059142  0.1249314058229735
  0.2220900330833037  0.4444902622923951  0.1245339449090510
  0.2221180794736247  0.6111371309694021  0.1248731794356973
  0.5559454050859203  0.4446393692096244  0.1253727149872915
  0.7221852260963578  0.9444779044879584  0.1250071501799997
  0.8889971244884535  0.4444468054638600  0.1249751973006806
  0.0555781635366789  0.6111277857598640  0.6249447850564711
  0.2220900330833037  0.1109331041242456  0.6254660550909453
  0.7225055636521980  0.6113430677342108  0.6254253532839280
  0.5554588764010082  0.1109084486913352  0.6253446871537920
  0.8888722637959977  0.1111027985646699  0.6249280987999101
 
  0.00000000E+00  0.00000000E+00  0.00000000E+00
  0.00000000E+00  0.00000000E+00  0.00000000E+00
  0.00000000E+00  0.00000000E+00  0.00000000E+00
  0.00000000E+00  0.00000000E+00  0.00000000E+00
  0.00000000E+00  0.00000000E+00  0.00000000E+00
  0.00000000E+00  0.00000000E+00  0.00000000E+00
  0.00000000E+00  0.00000000E+00  0.00000000E+00
  0.00000000E+00  0.00000000E+00  0.00000000E+00
  0.00000000E+00  0.00000000E+00  0.00000000E+00
  0.00000000E+00  0.00000000E+00  0.00000000E+00
  0.00000000E+00  0.00000000E+00  0.00000000E+00
  0.00000000E+00  0.00000000E+00  0.00000000E+00
  0.00000000E+00  0.00000000E+00  0.00000000E+00
  0.00000000E+00  0.00000000E+00  0.00000000E+00
  0.00000000E+00  0.00000000E+00  0.00000000E+00
  0.00000000E+00  0.00000000E+00  0.00000000E+00
  0.00000000E+00  0.00000000E+00  0.00000000E+00
  0.00000000E+00  0.00000000E+00  0.00000000E+00
  0.00000000E+00  0.00000000E+00  0.00000000E+00
  0.00000000E+00  0.00000000E+00  0.00000000E+00
  0.00000000E+00  0.00000000E+00  0.00000000E+00
  0.00000000E+00  0.00000000E+00  0.00000000E+00
  0.00000000E+00  0.00000000E+00  0.00000000E+00
  0.00000000E+00  0.00000000E+00  0.00000000E+00
  0.00000000E+00  0.00000000E+00  0.00000000E+00
  0.00000000E+00  0.00000000E+00  0.00000000E+00
  0.00000000E+00  0.00000000E+00  0.00000000E+00
  0.00000000E+00  0.00000000E+00  0.00000000E+00
  0.00000000E+00  0.00000000E+00  0.00000000E+00
  0.00000000E+00  0.00000000E+00  0.00000000E+00
  0.00000000E+00  0.00000000E+00  0.00000000E+00
  0.00000000E+00  0.00000000E+00  0.00000000E+00
  0.00000000E+00  0.00000000E+00  0.00000000E+00
  0.00000000E+00  0.00000000E+00  0.00000000E+00
  0.00000000E+00  0.00000000E+00  0.00000000E+00
  0.00000000E+00  0.00000000E+00  0.00000000E+00
  0.00000000E+00  0.00000000E+00  0.00000000E+00
  0.00000000E+00  0.00000000E+00  0.00000000E+00
  0.00000000E+00  0.00000000E+00  0.00000000E+00
  0.00000000E+00  0.00000000E+00  0.00000000E+00
  0.00000000E+00  0.00000000E+00  0.00000000E+00
  0.00000000E+00  0.00000000E+00  0.00000000E+00
  0.00000000E+00  0.00000000E+00  0.00000000E+00
  0.00000000E+00  0.00000000E+00  0.00000000E+00
  0.00000000E+00  0.00000000E+00  0.00000000E+00
  0.00000000E+00  0.00000000E+00  0.00000000E+00
  0.00000000E+00  0.00000000E+00  0.00000000E+00
  0.00000000E+00  0.00000000E+00  0.00000000E+00
  0.00000000E+00  0.00000000E+00  0.00000000E+00
  0.00000000E+00  0.00000000E+00  0.00000000E+00
  0.00000000E+00  0.00000000E+00  0.00000000E+00
  0.00000000E+00  0.00000000E+00  0.00000000E+00
  0.00000000E+00  0.00000000E+00  0.00000000E+00
  0.00000000E+00  0.00000000E+00  0.00000000E+00
  0.00000000E+00  0.00000000E+00  0.00000000E+00
  0.00000000E+00  0.00000000E+00  0.00000000E+00
  0.00000000E+00  0.00000000E+00  0.00000000E+00
  0.00000000E+00  0.00000000E+00  0.00000000E+00
  0.00000000E+00  0.00000000E+00  0.00000000E+00
  0.00000000E+00  0.00000000E+00  0.00000000E+00
  0.00000000E+00  0.00000000E+00  0.00000000E+00
  0.00000000E+00  0.00000000E+00  0.00000000E+00
  0.00000000E+00  0.00000000E+00  0.00000000E+00
  0.00000000E+00  0.00000000E+00  0.00000000E+00
  0.00000000E+00  0.00000000E+00  0.00000000E+00
  0.00000000E+00  0.00000000E+00  0.00000000E+00
  0.00000000E+00  0.00000000E+00  0.00000000E+00
  0.00000000E+00  0.00000000E+00  0.00000000E+00
  0.00000000E+00  0.00000000E+00  0.00000000E+00
  0.00000000E+00  0.00000000E+00  0.00000000E+00
  0.00000000E+00  0.00000000E+00  0.00000000E+00
  0.00000000E+00  0.00000000E+00  0.00000000E+00
  0.00000000E+00  0.00000000E+00  0.00000000E+00
  0.00000000E+00  0.00000000E+00  0.00000000E+00
  0.00000000E+00  0.00000000E+00  0.00000000E+00
  0.00000000E+00  0.00000000E+00  0.00000000E+00
  0.00000000E+00  0.00000000E+00  0.00000000E+00
  0.00000000E+00  0.00000000E+00  0.00000000E+00
  0.00000000E+00  0.00000000E+00  0.00000000E+00
  0.00000000E+00  0.00000000E+00  0.00000000E+00
  0.00000000E+00  0.00000000E+00  0.00000000E+00
  0.00000000E+00  0.00000000E+00  0.00000000E+00
  0.00000000E+00  0.00000000E+00  0.00000000E+00
  0.00000000E+00  0.00000000E+00  0.00000000E+00
  0.00000000E+00  0.00000000E+00  0.00000000E+00
  0.00000000E+00  0.00000000E+00  0.00000000E+00
  0.00000000E+00  0.00000000E+00  0.00000000E+00
  0.00000000E+00  0.00000000E+00  0.00000000E+00
  0.00000000E+00  0.00000000E+00  0.00000000E+00
  0.00000000E+00  0.00000000E+00  0.00000000E+00
  0.00000000E+00  0.00000000E+00  0.00000000E+00
  0.00000000E+00  0.00000000E+00  0.00000000E+00
  0.00000000E+00  0.00000000E+00  0.00000000E+00
  0.00000000E+00  0.00000000E+00  0.00000000E+00
  0.00000000E+00  0.00000000E+00  0.00000000E+00
  0.00000000E+00  0.00000000E+00  0.00000000E+00
  0.00000000E+00  0.00000000E+00  0.00000000E+00
  0.00000000E+00  0.00000000E+00  0.00000000E+00
  0.00000000E+00  0.00000000E+00  0.00000000E+00
  0.00000000E+00  0.00000000E+00  0.00000000E+00
  0.00000000E+00  0.00000000E+00  0.00000000E+00
  0.00000000E+00  0.00000000E+00  0.00000000E+00
  0.00000000E+00  0.00000000E+00  0.00000000E+00
  0.00000000E+00  0.00000000E+00  0.00000000E+00
  0.00000000E+00  0.00000000E+00  0.00000000E+00
  0.00000000E+00  0.00000000E+00  0.00000000E+00
  0.00000000E+00  0.00000000E+00  0.00000000E+00
  0.00000000E+00  0.00000000E+00  0.00000000E+00
  0.00000000E+00  0.00000000E+00  0.00000000E+00
  0.00000000E+00  0.00000000E+00  0.00000000E+00
  0.00000000E+00  0.00000000E+00  0.00000000E+00
  0.00000000E+00  0.00000000E+00  0.00000000E+00
  0.00000000E+00  0.00000000E+00  0.00000000E+00
  0.00000000E+00  0.00000000E+00  0.00000000E+00
  0.00000000E+00  0.00000000E+00  0.00000000E+00
  0.00000000E+00  0.00000000E+00  0.00000000E+00
  0.00000000E+00  0.00000000E+00  0.00000000E+00
  0.00000000E+00  0.00000000E+00  0.00000000E+00
  0.00000000E+00  0.00000000E+00  0.00000000E+00
  0.00000000E+00  0.00000000E+00  0.00000000E+00
  0.00000000E+00  0.00000000E+00  0.00000000E+00
  0.00000000E+00  0.00000000E+00  0.00000000E+00
  0.00000000E+00  0.00000000E+00  0.00000000E+00
  0.00000000E+00  0.00000000E+00  0.00000000E+00
  0.00000000E+00  0.00000000E+00  0.00000000E+00
  0.00000000E+00  0.00000000E+00  0.00000000E+00
  0.00000000E+00  0.00000000E+00  0.00000000E+00
  0.00000000E+00  0.00000000E+00  0.00000000E+00
  0.00000000E+00  0.00000000E+00  0.00000000E+00
  0.00000000E+00  0.00000000E+00  0.00000000E+00
  0.00000000E+00  0.00000000E+00  0.00000000E+00
  0.00000000E+00  0.00000000E+00  0.00000000E+00
  0.00000000E+00  0.00000000E+00  0.00000000E+00
  0.00000000E+00  0.00000000E+00  0.00000000E+00
  0.00000000E+00  0.00000000E+00  0.00000000E+00
  0.00000000E+00  0.00000000E+00  0.00000000E+00
  0.00000000E+00  0.00000000E+00  0.00000000E+00
  0.00000000E+00  0.00000000E+00  0.00000000E+00
  0.00000000E+00  0.00000000E+00  0.00000000E+00
  0.00000000E+00  0.00000000E+00  0.00000000E+00
  0.00000000E+00  0.00000000E+00  0.00000000E+00
  0.00000000E+00  0.00000000E+00  0.00000000E+00
  0.00000000E+00  0.00000000E+00  0.00000000E+00
  0.00000000E+00  0.00000000E+00  0.00000000E+00
  0.00000000E+00  0.00000000E+00  0.00000000E+00
  0.00000000E+00  0.00000000E+00  0.00000000E+00
  0.00000000E+00  0.00000000E+00  0.00000000E+00
  0.00000000E+00  0.00000000E+00  0.00000000E+00
  0.00000000E+00  0.00000000E+00  0.00000000E+00
  0.00000000E+00  0.00000000E+00  0.00000000E+00
  0.00000000E+00  0.00000000E+00  0.00000000E+00
  0.00000000E+00  0.00000000E+00  0.00000000E+00
  0.00000000E+00  0.00000000E+00  0.00000000E+00
  0.00000000E+00  0.00000000E+00  0.00000000E+00
  0.00000000E+00  0.00000000E+00  0.00000000E+00
  0.00000000E+00  0.00000000E+00  0.00000000E+00
  0.00000000E+00  0.00000000E+00  0.00000000E+00
  0.00000000E+00  0.00000000E+00  0.00000000E+00
  0.00000000E+00  0.00000000E+00  0.00000000E+00
  0.00000000E+00  0.00000000E+00  0.00000000E+00
  0.00000000E+00  0.00000000E+00  0.00000000E+00
  0.00000000E+00  0.00000000E+00  0.00000000E+00
  0.00000000E+00  0.00000000E+00  0.00000000E+00
  0.00000000E+00  0.00000000E+00  0.00000000E+00
  0.00000000E+00  0.00000000E+00  0.00000000E+00
  0.00000000E+00  0.00000000E+00  0.00000000E+00
  0.00000000E+00  0.00000000E+00  0.00000000E+00
  0.00000000E+00  0.00000000E+00  0.00000000E+00
  0.00000000E+00  0.00000000E+00  0.00000000E+00
  0.00000000E+00  0.00000000E+00  0.00000000E+00
  0.00000000E+00  0.00000000E+00  0.00000000E+00
  0.00000000E+00  0.00000000E+00  0.00000000E+00
  0.00000000E+00  0.00000000E+00  0.00000000E+00
  0.00000000E+00  0.00000000E+00  0.00000000E+00
  0.00000000E+00  0.00000000E+00  0.00000000E+00
  0.00000000E+00  0.00000000E+00  0.00000000E+00
  0.00000000E+00  0.00000000E+00  0.00000000E+00
  0.00000000E+00  0.00000000E+00  0.00000000E+00
  0.00000000E+00  0.00000000E+00  0.00000000E+00
  0.00000000E+00  0.00000000E+00  0.00000000E+00
  0.00000000E+00  0.00000000E+00  0.00000000E+00
  0.00000000E+00  0.00000000E+00  0.00000000E+00
  0.00000000E+00  0.00000000E+00  0.00000000E+00
  0.00000000E+00  0.00000000E+00  0.00000000E+00
  0.00000000E+00  0.00000000E+00  0.00000000E+00
  0.00000000E+00  0.00000000E+00  0.00000000E+00
  0.00000000E+00  0.00000000E+00  0.00000000E+00
  0.00000000E+00  0.00000000E+00  0.00000000E+00
  0.00000000E+00  0.00000000E+00  0.00000000E+00
  0.00000000E+00  0.00000000E+00  0.00000000E+00
  0.00000000E+00  0.00000000E+00  0.00000000E+00
  0.00000000E+00  0.00000000E+00  0.00000000E+00
  0.00000000E+00  0.00000000E+00  0.00000000E+00
  0.00000000E+00  0.00000000E+00  0.00000000E+00
  0.00000000E+00  0.00000000E+00  0.00000000E+00
  0.00000000E+00  0.00000000E+00  0.00000000E+00
  0.00000000E+00  0.00000000E+00  0.00000000E+00
  0.00000000E+00  0.00000000E+00  0.00000000E+00
  0.00000000E+00  0.00000000E+00  0.00000000E+00
  0.00000000E+00  0.00000000E+00  0.00000000E+00
  0.00000000E+00  0.00000000E+00  0.00000000E+00
  0.00000000E+00  0.00000000E+00  0.00000000E+00
  0.00000000E+00  0.00000000E+00  0.00000000E+00
  0.00000000E+00  0.00000000E+00  0.00000000E+00
  0.00000000E+00  0.00000000E+00  0.00000000E+00
  0.00000000E+00  0.00000000E+00  0.00000000E+00
  0.00000000E+00  0.00000000E+00  0.00000000E+00
  0.00000000E+00  0.00000000E+00  0.00000000E+00
  0.00000000E+00  0.00000000E+00  0.00000000E+00
  0.00000000E+00  0.00000000E+00  0.00000000E+00
  0.00000000E+00  0.00000000E+00  0.00000000E+00
  0.00000000E+00  0.00000000E+00  0.00000000E+00
  0.00000000E+00  0.00000000E+00  0.00000000E+00
  0.00000000E+00  0.00000000E+00  0.00000000E+00
  0.00000000E+00  0.00000000E+00  0.00000000E+00
  0.00000000E+00  0.00000000E+00  0.00000000E+00
  0.00000000E+00  0.00000000E+00  0.00000000E+00
  0.00000000E+00  0.00000000E+00  0.00000000E+00
  0.00000000E+00  0.00000000E+00  0.00000000E+00
  0.00000000E+00  0.00000000E+00  0.00000000E+00
  0.00000000E+00  0.00000000E+00  0.00000000E+00
  0.00000000E+00  0.00000000E+00  0.00000000E+00
  0.00000000E+00  0.00000000E+00  0.00000000E+00
  0.00000000E+00  0.00000000E+00  0.00000000E+00
  0.00000000E+00  0.00000000E+00  0.00000000E+00
  0.00000000E+00  0.00000000E+00  0.00000000E+00
  0.00000000E+00  0.00000000E+00  0.00000000E+00
  0.00000000E+00  0.00000000E+00  0.00000000E+00
  0.00000000E+00  0.00000000E+00  0.00000000E+00
  0.00000000E+00  0.00000000E+00  0.00000000E+00
  0.00000000E+00  0.00000000E+00  0.00000000E+00
  0.00000000E+00  0.00000000E+00  0.00000000E+00
  0.00000000E+00  0.00000000E+00  0.00000000E+00
  0.00000000E+00  0.00000000E+00  0.00000000E+00
  0.00000000E+00  0.00000000E+00  0.00000000E+00
  0.00000000E+00  0.00000000E+00  0.00000000E+00
  0.00000000E+00  0.00000000E+00  0.00000000E+00
  0.00000000E+00  0.00000000E+00  0.00000000E+00
  0.00000000E+00  0.00000000E+00  0.00000000E+00
  0.00000000E+00  0.00000000E+00  0.00000000E+00
  0.00000000E+00  0.00000000E+00  0.00000000E+00
  0.00000000E+00  0.00000000E+00  0.00000000E+00
  0.00000000E+00  0.00000000E+00  0.00000000E+00
  0.00000000E+00  0.00000000E+00  0.00000000E+00
  0.00000000E+00  0.00000000E+00  0.00000000E+00
  0.00000000E+00  0.00000000E+00  0.00000000E+00
  0.00000000E+00  0.00000000E+00  0.00000000E+00
  0.00000000E+00  0.00000000E+00  0.00000000E+00