 S O N B 
 1.0
 17.527899999999772   0.000000000000000   0.000000000000000
 -8.763949999999658  15.179606674993195   0.000000000000000
  0.000000000000001   0.000000000000002  15.000000000000000
 S O N B 
   1   1  48  48
Cartesian
  3.705012487075606   7.980655593736378   1.650863919981285 
  5.504466792119660   6.941743175115397   1.660927984268655 
  8.756651187237985  13.730247973926449   1.665545106696735 
 16.278877991907301   0.721135020859798   1.666353563998035 
 15.029562578310815   2.884985938034979   1.666334202670335 
 13.777826661906103   5.050802575971642   1.665742202502795 
 12.531167625727484   7.223778079408639   1.666103158881570 
 11.264014574025712   9.400810374453320   1.666973881601280 
 10.004650323229789  11.568209736534596   1.666550058541425 
 -6.272759166779304  13.741340649416735   1.665493576023855 
  1.251547175988301   0.731032407813617   1.665545019006675 
 -0.001804920626178   2.890726775070095   1.666194328886715 
 -1.270038216765079   5.054642928291613   1.665856531244850 
 -2.543579906024706   7.229746924619005   1.665708392120835 
 -3.782314625296984   9.407652527872724   1.665734379430065 
 -5.028331707016363  11.576625245255228   1.666012455658305 
 -3.775850350661148  13.745990541641461   1.666012482913305 
  3.747929834906096   0.731258713343055   1.666549927216395 
  2.512408910448243   2.914161355055767   1.666955404093740 
  1.222146550386428   5.059868891664398   1.666042728449415 
 -0.106080802331132   7.235026480285751   1.667611283894730 
 -1.306648093727272   9.418472642229014   1.668063618412035 
 -2.537482453701594  11.584769307579792   1.666164698861655 
 -1.274462688902796  13.751388057889704   1.665734159110080 
  6.254636259508195   0.724315791519173   1.666974024536220 
  5.017026882365859   2.888290420701796   1.666242679750920 
  3.789654857984670   5.114093148805649   1.664124275912460 
  2.251252927039605   7.218760363899504   1.651453209025065 
  1.167446457896410   9.445735408898772   1.666988112989355 
 -0.046002071192920  11.601987998161828   1.668063522547065 
  1.231028305989918  13.767566243754867   1.665708466010850 
  8.773581359221588   0.715422879299329   1.666103011431510 
  7.561222626148514   2.839166280363076   1.664700305718465 
  6.378489430475009   4.935693793230842   1.660280871530565 
  3.637966405889501   9.620601321048182   1.651453016920065 
  2.445197916951423  11.654003436421622   1.667611352849805 
  3.751497009663828  13.752187825200203   1.665856739489910 
 11.278756268944610   0.722279869276120   1.665742307412795 
 10.049830554588606   2.869245462033458   1.666947543586395 
  8.837023094822785   5.017696092092655   1.662786051227520 
  7.678791652720365   7.187852667894199   1.660280983175550 
  6.229861951366225   9.340643270071894   1.664124444887475 
  4.993040879436391  11.591275079205602   1.666042726559400 
  6.259620037206454  13.735819998490976   1.666194453566715 
 13.780272775469252   0.721145569018942   1.666334249920320 
 12.538676759701728   2.880542931323584   1.667079752007240 
 11.304039038450327   5.041597274325126   1.666947523471380 
 10.085800111526297   7.211839601259951   1.664700350928495 
  8.771154393247343   9.390620613131961   1.666242601480935 
  7.496436713296204  11.546740994868308   1.666955551183755 
  7.510539227181409  14.456753160944141   1.666186463725305 
 15.029756256365433   1.442315660701712   1.666754967566145 
 13.782781278516646   3.607212116484332   1.666688384355975 
 12.538560262537841   5.777503633116318   1.666498425977385 
 11.301786332536725   7.954060709022169   1.666556320881990 
 10.012442954611524  10.124613414796201   1.667129271662970 
  8.749789742681291  12.280765706528625   1.666559514376185 
 -7.520826058472223  14.461910488139040   1.665549576109440 
 -0.000687702385778   1.446934452212632   1.666186396825335 
 -1.254060796386367   3.611345464176989   1.666232753286210 
 -2.515124843665633   5.783278679757372   1.665901701362835 
 -3.772999213339335   7.961318695501875   1.665904777635495 
 -5.025177170173505  10.132262181389338   1.666430343027015 
 -6.275763257509326  12.296899092471614   1.666174129467420 
 -5.023339528176489  14.466163645171857   1.666174118202405 
  2.503404086589899   1.461717323866625   1.666559403886230 
  1.244725721197241   3.617030582982407   1.666894077781710 
 -0.036242794865136   5.788278967426792   1.666536563530125 
 -1.324465311407260   7.970436743443740   1.667694038875065 
 -2.543930116630852  10.141071274396813   1.666945922575830 
 -3.782260329831000  12.303447455455562   1.666140357475245 
 -2.523419575233097  14.465439719055622   1.666430340222015 
  5.002018217176142   1.446306072004527   1.667129378342970 
  3.770028898209816   3.643685641066903   1.666578198033615 
  2.457777081487359   5.795798698364614   1.661080913060700 
  1.092780650931091   7.992533126539504   1.662733622011560 
 -0.067435741233896  10.158690962894426   1.668784630433700 
 -1.290431436460384  12.312204367700293   1.666945779325845 
 -0.017241959464542  14.466480934749052   1.665904659180480 
  7.526448510947930   1.414973119916390   1.666556329566990 
  6.316571433174526   3.528744509325308   1.663782771492930 
  5.162074990987946   5.658541425879495   1.662024477823905 
  2.388624663621695  10.236998079328373   1.662733568371485 
  1.199119023631575  12.341441731698060   1.667694035725050 
  2.497936705493945  14.466151378849565   1.665901838462880 
 10.029783917056232   1.432163611419808   1.666498420892430 
  8.806754585471943   3.576967061164017   1.665033612057285 
  7.606594506736648   5.728089857700204   1.660751811927915 
  6.444570196360520   7.879860081130048   1.662024592408830 
  4.973548547193041  10.153221614818674   1.661080848755655 
  3.733043959459518  12.316876182334882   1.666536653980110 
  5.009418638806549  14.459997280197051   1.666232881776270 
 12.531419224919938   1.439781699963750   1.666688427646035 
 11.294690310970440   3.598760191561078   1.667274600104115 
 10.069599489584357   5.764277205469730   1.665033642792285 
  8.866283706071277   7.944954779595366   1.663782796497885 
  7.493461751875332  10.092845684060821   1.666578305733570 
  6.253891025242289  12.293142375940644   1.666894162186725 
