B S N                                   
   1.0000000000000000     
     8.7639499999999995  -15.1796066749929999    0.0000000000000000
     8.7639499999999995   15.1796066749929999    0.0000000000000000
     0.0000000000000000    0.0000000000000000   15.0000000000000000
   B    S    N 
    47     1    49
Selective dynamics
Direct
  0.9082380501803158  0.9542334404909596  0.1091606773264857   T   T   T
  0.9096922012578332  0.0969578085040581  0.0987406057325941   T   T   T
  0.9094330521757712  0.2389260539637661  0.0988447022198145   T   T   T
  0.9088932547346644  0.3811326455622108  0.1025422387453006   T   T   T
  0.9069921819540099  0.5234577558997913  0.1069149433817600   T   T   T
  0.9038396537389346  0.6654368707805958  0.1143832085515726   T   T   T
  0.9000867455855186  0.8067907380386785  0.1225325965305970   T   T   T
  0.0486899858287231  0.9524697037395029  0.1147060333691599   T   T   T
  0.0524322059387217  0.0973261791828008  0.1075173913825509   T   T   T
  0.0528811164528591  0.2398615911058926  0.1046163132661491   T   T   T
  0.0518151786083507  0.3821605532729109  0.1055399987083234   T   T   T
  0.0498089705397931  0.5247261330090609  0.1072977783278759   T   T   T
  0.0479837332781798  0.6670551749054354  0.1100211130652582   T   T   T
  0.0466181178222485  0.8092458151659017  0.1142420466313752   T   T   T
  0.1917794400990616  0.9529204169457444  0.1113876392820572   T   T   T
  0.1952011205175381  0.0979734528324627  0.1112074208099045   T   T   T
  0.1967590282062019  0.2410933404555209  0.1099905136734591   T   T   T
  0.1953712249775350  0.3830622586295505  0.1101079156345364   T   T   T
  0.1921824028144101  0.5257123119475509  0.1110061650956524   T   T   T
  0.1912890196763115  0.6680830935336104  0.1103307457796916   T   T   T
  0.1910499714089937  0.8101550600102172  0.1100314991198914   T   T   T
  0.3349115040121191  0.9526941905871311  0.1076114854807457   T   T   T
  0.3361548204924532  0.0960057956707985  0.1085293377655319   T   T   T
  0.3426501505612194  0.2443819208573927  0.1107972939000774   T   T   T
  0.3408323984413784  0.3846119186916042  0.1122198797636500   T   T   T
  0.3337666629531384  0.5280956339495901  0.1147117452151889   T   T   T
  0.3338883522314688  0.6696323649088498  0.1161117439755444   T   T   T
  0.3352306329767529  0.8108222449418747  0.1110918009933073   T   T   T
  0.4784304772789838  0.9518947460857490  0.1051951381018057   T   T   T
  0.4786109831203760  0.0935701951966692  0.1027596231051859   T   T   T
  0.4798138321800138  0.2355796907250038  0.1058774974275849   T   T   T
  0.4956123261377101  0.3891878698718827  0.1119889795628666   T   T   T
  0.4756398105656885  0.6702693009705385  0.1237953071499689   T   T   T
  0.4801751517619763  0.8108073825908306  0.1196332132789379   T   T   T
  0.6222482198426320  0.9537524860774553  0.1000830680206022   T   T   T
  0.6220606646952760  0.0941364614081337  0.0963114947643504   T   T   T
  0.6224239341015263  0.2344216376689658  0.1004193247930587   T   T   T
  0.6237981611186285  0.3735453214169482  0.1039655627387646   T   T   T
  0.6058318189264256  0.4949318851618401  0.1127382790206326   T   T   T
  0.6297438889384210  0.8223801452381920  0.1470022488023588   T   T   T
  0.7663233991011325  0.9554593189728919  0.1029012699087062   T   T   T
  0.7659328853840464  0.0960492151570946  0.0932861636130795   T   T   T
  0.7660245264004431  0.2374296903917283  0.0972276293843706   T   T   T
  0.7662764184919268  0.3791424700090218  0.1021480779684509   T   T   T
  0.7632913406025850  0.5203985296157754  0.1076092230530961   T   T   T
  0.7567942304553270  0.6596205536839150  0.1226265698995661   T   T   T
  0.7638061212085105  0.8196883074003054  0.1481659610760602   T   T   T
  0.6125430249126040  0.6526934624878180  0.1468025107783149   T   T   T
  0.9524946726684931  0.9035925742810349  0.1176869403081113   T   T   T
  0.9573976184972466  0.0496732620688860  0.1034367406712562   T   T   T
  0.9577331705036514  0.1921939065356000  0.0999811073971557   T   T   T
  0.9568733243613750  0.3341271951871931  0.1022019307892634   T   T   T
  0.9550286339571485  0.4764066231049355  0.1054393440177961   T   T   T
  0.9525881765048112  0.6187467196892058  0.1102379166283356   T   T   T
  0.9500308521088101  0.7606285759766394  0.1175191117110330   T   T   T
  0.0960254555901301  0.9047464375728325  0.1142149438066937   T   T   T
  0.0990651907021771  0.0490031007638976  0.1116193266782162   T   T   T
  0.1011978767242070  0.1929627688708280  0.1073165730789611   T   T   T
  0.1002958436503718  0.3351683106481644  0.1067102325411469   T   T   T
  0.0976788645033864  0.4774030586896743  0.1077339820057475   T   T   T
  0.0961823212453510  0.6199444189360506  0.1087719461907355   T   T   T
  0.0951731421155841  0.7622427510372063  0.1111848227059298   T   T   T
  0.2393339960403154  0.9053169600535043  0.1095253830806442   T   T   T
  0.2409048061818311  0.0486351831257892  0.1107469030839354   T   T   T
  0.2456496952270939  0.1948528195941890  0.1109086739359313   T   T   T
  0.2450365374416847  0.3367394447654561  0.1110580495629918   T   T   T
  0.2400173803892045  0.4783444805234680  0.1125198851936062   T   T   T
  0.2390426634070622  0.6208750131782494  0.1123350112787662   T   T   T
  0.2393864877623599  0.7631051078602411  0.1100360252916488   T   T   T
  0.3828939443860619  0.9054900882671078  0.1079746952043621   T   T   T
  0.3832316437145309  0.0477596572368668  0.1061631526283975   T   T   T
  0.3852387388287326  0.1916927823527104  0.1087033303929914   T   T   T
  0.3954277322398809  0.3431680217122803  0.1123469334554983   T   T   T
  0.3810952014408926  0.4804450495857537  0.1123721217191189   T   T   T
  0.3811917939492204  0.6226548244741039  0.1180738393273302   T   T   T
  0.3837372208166130  0.7641112542275295  0.1159809201680062   T   T   T
  0.5267331390249979  0.9052698882343080  0.1084699556571351   T   T   T
  0.5265249623266257  0.0466464413863648  0.1001902864342057   T   T   T
  0.5271726315028431  0.1881203554255677  0.1024971573919018   T   T   T
  0.5292885526995406  0.3295715558101620  0.1066956982379708   T   T   T
  0.4689057829393377  0.5213357795352422  0.1054176060872791   T   T   T
  0.5107595054760594  0.6108207625054263  0.1136579948598921   T   T   T
  0.5294724592075966  0.7646693131879942  0.1344175105836598   T   T   T
  0.6707575636266014  0.9089233382944073  0.1051428130170891   T   T   T
  0.6703729443288182  0.0482916157986182  0.0928612875935713   T   T   T
  0.6706352537153322  0.1887087364568245  0.0971432365224132   T   T   T
  0.6715695400468107  0.3287019165240821  0.1017740385646917   T   T   T
  0.6689344896823499  0.4674991033562534  0.1048919032924118   T   T   T
  0.6549205423084103  0.5936127449675723  0.1182767215102842   T   T   T
  0.6870970396484495  0.8032555979157863  0.1912292536346669   T   T   T
  0.8144114600108097  0.9086257212022986  0.1106689175428457   T   T   T
  0.8145417610214238  0.0499039409659403  0.0943997868857309   T   T   T
  0.8142131761504317  0.1910738293802936  0.0951564880982332   T   T   T
  0.8140374194296385  0.3325906449616056  0.1003730710470094   T   T   T
  0.8122073837228996  0.4745269098858529  0.1051340824860674   T   T   T
  0.8076803889925159  0.6159037987512122  0.1142854035108911   T   T   T
  0.8016096084023800  0.7573364765282520  0.1329330982207750   T   T   T

  0.00000000E+00  0.00000000E+00  0.00000000E+00
  0.00000000E+00  0.00000000E+00  0.00000000E+00
  0.00000000E+00  0.00000000E+00  0.00000000E+00
  0.00000000E+00  0.00000000E+00  0.00000000E+00
  0.00000000E+00  0.00000000E+00  0.00000000E+00
  0.00000000E+00  0.00000000E+00  0.00000000E+00
  0.00000000E+00  0.00000000E+00  0.00000000E+00
  0.00000000E+00  0.00000000E+00  0.00000000E+00
  0.00000000E+00  0.00000000E+00  0.00000000E+00
  0.00000000E+00  0.00000000E+00  0.00000000E+00
  0.00000000E+00  0.00000000E+00  0.00000000E+00
  0.00000000E+00  0.00000000E+00  0.00000000E+00
  0.00000000E+00  0.00000000E+00  0.00000000E+00
  0.00000000E+00  0.00000000E+00  0.00000000E+00
  0.00000000E+00  0.00000000E+00  0.00000000E+00
  0.00000000E+00  0.00000000E+00  0.00000000E+00
  0.00000000E+00  0.00000000E+00  0.00000000E+00
  0.00000000E+00  0.00000000E+00  0.00000000E+00
  0.00000000E+00  0.00000000E+00  0.00000000E+00
  0.00000000E+00  0.00000000E+00  0.00000000E+00
  0.00000000E+00  0.00000000E+00  0.00000000E+00
  0.00000000E+00  0.00000000E+00  0.00000000E+00
  0.00000000E+00  0.00000000E+00  0.00000000E+00
  0.00000000E+00  0.00000000E+00  0.00000000E+00
  0.00000000E+00  0.00000000E+00  0.00000000E+00
  0.00000000E+00  0.00000000E+00  0.00000000E+00
  0.00000000E+00  0.00000000E+00  0.00000000E+00
  0.00000000E+00  0.00000000E+00  0.00000000E+00
  0.00000000E+00  0.00000000E+00  0.00000000E+00
  0.00000000E+00  0.00000000E+00  0.00000000E+00
  0.00000000E+00  0.00000000E+00  0.00000000E+00
  0.00000000E+00  0.00000000E+00  0.00000000E+00
  0.00000000E+00  0.00000000E+00  0.00000000E+00
  0.00000000E+00  0.00000000E+00  0.00000000E+00
  0.00000000E+00  0.00000000E+00  0.00000000E+00
  0.00000000E+00  0.00000000E+00  0.00000000E+00
  0.00000000E+00  0.00000000E+00  0.00000000E+00
  0.00000000E+00  0.00000000E+00  0.00000000E+00
  0.00000000E+00  0.00000000E+00  0.00000000E+00
  0.00000000E+00  0.00000000E+00  0.00000000E+00
  0.00000000E+00  0.00000000E+00  0.00000000E+00
  0.00000000E+00  0.00000000E+00  0.00000000E+00
  0.00000000E+00  0.00000000E+00  0.00000000E+00
  0.00000000E+00  0.00000000E+00  0.00000000E+00
  0.00000000E+00  0.00000000E+00  0.00000000E+00
  0.00000000E+00  0.00000000E+00  0.00000000E+00
  0.00000000E+00  0.00000000E+00  0.00000000E+00
  0.00000000E+00  0.00000000E+00  0.00000000E+00
  0.00000000E+00  0.00000000E+00  0.00000000E+00
  0.00000000E+00  0.00000000E+00  0.00000000E+00
  0.00000000E+00  0.00000000E+00  0.00000000E+00
  0.00000000E+00  0.00000000E+00  0.00000000E+00
  0.00000000E+00  0.00000000E+00  0.00000000E+00
  0.00000000E+00  0.00000000E+00  0.00000000E+00
  0.00000000E+00  0.00000000E+00  0.00000000E+00
  0.00000000E+00  0.00000000E+00  0.00000000E+00
  0.00000000E+00  0.00000000E+00  0.00000000E+00
  0.00000000E+00  0.00000000E+00  0.00000000E+00
  0.00000000E+00  0.00000000E+00  0.00000000E+00
  0.00000000E+00  0.00000000E+00  0.00000000E+00
  0.00000000E+00  0.00000000E+00  0.00000000E+00
  0.00000000E+00  0.00000000E+00  0.00000000E+00
  0.00000000E+00  0.00000000E+00  0.00000000E+00
  0.00000000E+00  0.00000000E+00  0.00000000E+00
  0.00000000E+00  0.00000000E+00  0.00000000E+00
  0.00000000E+00  0.00000000E+00  0.00000000E+00
  0.00000000E+00  0.00000000E+00  0.00000000E+00
  0.00000000E+00  0.00000000E+00  0.00000000E+00
  0.00000000E+00  0.00000000E+00  0.00000000E+00
  0.00000000E+00  0.00000000E+00  0.00000000E+00
  0.00000000E+00  0.00000000E+00  0.00000000E+00
  0.00000000E+00  0.00000000E+00  0.00000000E+00
  0.00000000E+00  0.00000000E+00  0.00000000E+00
  0.00000000E+00  0.00000000E+00  0.00000000E+00
  0.00000000E+00  0.00000000E+00  0.00000000E+00
  0.00000000E+00  0.00000000E+00  0.00000000E+00
  0.00000000E+00  0.00000000E+00  0.00000000E+00
  0.00000000E+00  0.00000000E+00  0.00000000E+00
  0.00000000E+00  0.00000000E+00  0.00000000E+00
  0.00000000E+00  0.00000000E+00  0.00000000E+00
  0.00000000E+00  0.00000000E+00  0.00000000E+00
  0.00000000E+00  0.00000000E+00  0.00000000E+00
  0.00000000E+00  0.00000000E+00  0.00000000E+00
  0.00000000E+00  0.00000000E+00  0.00000000E+00
  0.00000000E+00  0.00000000E+00  0.00000000E+00
  0.00000000E+00  0.00000000E+00  0.00000000E+00
  0.00000000E+00  0.00000000E+00  0.00000000E+00
  0.00000000E+00  0.00000000E+00  0.00000000E+00
  0.00000000E+00  0.00000000E+00  0.00000000E+00
  0.00000000E+00  0.00000000E+00  0.00000000E+00
  0.00000000E+00  0.00000000E+00  0.00000000E+00
  0.00000000E+00  0.00000000E+00  0.00000000E+00
  0.00000000E+00  0.00000000E+00  0.00000000E+00
  0.00000000E+00  0.00000000E+00  0.00000000E+00
  0.00000000E+00  0.00000000E+00  0.00000000E+00
  0.00000000E+00  0.00000000E+00  0.00000000E+00
  0.00000000E+00  0.00000000E+00  0.00000000E+00
