 B N As 
 1.0
 17.527899999999772   0.000000000000000   0.000000000000000
 -8.763949999999658  15.179606674993195   0.000000000000000
  0.000000000000001   0.000000000000002  15.000000000000000
 B N As 
  48  48   1
Cartesian
  7.519144388904246  14.472871182879278   1.782372794276610 
 15.012664795291576   1.453685784247703   1.779862443426375 
 13.754280988029020   3.622017629505106   1.759354617350625 
 12.505808122640136   5.790900234222502   1.736855391713955 
 11.272905605824871   7.961149231847185   1.720599523038555 
 10.046138590583034  10.136688039104971   1.729333090027155 
  8.795597532738453  12.317188367264002   1.760471281278420 
 -7.500805049939013  14.451827781896945   1.787677709942730 
 -0.009037411622868   1.433588019989275   1.782210576840150 
 -1.270136487122957   3.608536792741771   1.742091634030230 
 -2.516287327887175   5.782472079522116   1.706850833920365 
 -3.747026385768146   7.950767558564889   1.710525672419190 
 -4.984751652376937  10.119737783328796   1.737383476991025 
 -6.236075764971266  12.288063613578988   1.767531327693720 
 -4.994577071674391  14.438451997355548   1.767332273770380 
  2.496194119072796   1.406359531210233   1.760181641039205 
  1.224686551198627   3.570687640731667   1.702380157152090 
 -0.021226588832933   5.764874124065148   1.616386647370290 
 -1.237230248263949   7.941390554825572   1.607791111819560 
 -2.479772176182588  10.110473995398912   1.666479173623410 
 -3.733747178702807  12.276882810681276   1.733035154959740 
 -2.493668015732625  14.438897483787583   1.737172430020020 
  5.009809903782291   1.413250805717634   1.729077308868930 
  3.723815539107606   3.525149133244118   1.652099106942660 
  2.444389389805310   5.697880712130341   1.499710340546580 
  1.275324056607731   7.926512707420072   1.433224513361475 
  0.029552406701389  10.103969148544767   1.537608190066380 
 -1.230650582623002  12.274065298075138   1.666580808801795 
  0.005986118443842  14.451460671415791   1.710498590608995 
  7.507156581277917   1.438658405765444   1.720449913763745 
  6.238758905839002   3.592742165892650   1.623347149791585 
  4.914742207524566   5.618289446030239   1.446326262385965 
  2.538271189852467  10.114179214834842   1.433517969100275 
  1.269033480388734  12.282579505767352   1.608310370837745 
  2.499299981448653  14.469795400172963   1.707133448773275 
 10.003013173789538   1.456157429457034   1.736803298756055 
  8.740871187345606   3.626789782822121   1.677575546177835 
  7.477973015233244   5.803840798531956   1.543410885014190 
  6.356772395028247   8.116672327272932   1.446575083281795 
  5.052974262274074  10.216486514376246   1.500095353897905 
  3.761980974612165  12.317842589172457   1.616919130041450 
  5.005070427910317  14.477579201984307   1.742534444509935 
 12.505677243262344   1.459443134972542   1.759386744618060 
 11.247658241372516   3.627549846524992   1.738044513066990 
  9.994826639628190   5.798581062705933   1.677696468445020 
  8.773105315324798   7.982516484794734   1.623498844918605 
  7.574267774832032  10.194564994146718   1.652397202387245 
  6.285360353828116  12.335958403701619   1.702750768860480 
  8.773932929163688  13.748633435224772   1.786217080471650 
 16.267214818676930   0.729382837195151   1.790625168325455 
 15.006497804853316   2.896731983950168   1.769368692130095 
 13.756020440884623   5.066950156352644   1.744365519906765 
 12.518430092614970   7.234686335211459   1.733247473257125 
 11.283962197701321   9.402556573125437   1.738157858554170 
 10.036059306705379  11.575542919392475   1.761522440257275 
 -6.247536877851355  13.728275702365753   1.778618461546515 
  1.245562669474082   0.709068508695287   1.786012025738955 
 -0.021028890884020   2.874433084439963   1.754906389748910 
 -1.266996186504297   5.054375706427626   1.693405303064385 
 -2.494340647054310   7.226371495995293   1.678976321906880 
 -3.735572413660806   9.393252152788682   1.710181082768670 
 -4.987250845131319  11.560770301347576   1.750498563836505 
 -3.740400785756610  13.720481762650595   1.750301378269755 
  3.758523397301357   0.702591023788617   1.761235632331275 
  2.477686486400860   2.844794543446456   1.717147029994995 
  1.215008148378511   5.012564269417266   1.615383065894985 
  0.020701428180365   7.211573662617478   1.549204025123955 
 -1.222794540682970   9.384946038820146   1.596465497856675 
 -2.480611893649892  11.553344599083774   1.687592249904000 
 -1.237342839952206  13.720237409746424   1.710015833855625 
  6.264356797735622   0.708289819815913   1.737857227938360 
  4.997585853274964   2.863671518924621   1.671571383479985 
  3.694608869578269   4.966219518806001   1.542635853704190 
  2.501603525961676   7.124913956832805   1.351240915043280 
  1.297393024863585   9.372065513168952   1.427630352295230 
  0.026158685407918  11.548137513977654   1.596763326524250 
  1.259816766586182  13.728820723455780   1.679295930982725 
  8.759097912241739   0.723245844906670   1.733123125938585 
  7.492469353128051   2.896700417329909   1.677300443319495 
  6.213214423647434   5.071812156327764   1.513843399216725 
  3.845719410374704   9.453512467466370   1.351660054982265 
  2.530027151080116  11.558265644501112   1.549743553711500 
  3.754377580207866  13.751963421737170   1.693926103714275 
 11.255083690932890   0.735384123926829   1.744453931381250 
  9.990782674569438   2.908461109189415   1.725905470224345 
  8.721272375789082   5.086075541420170   1.631887577623320 
  7.479342450007728   7.265218819602773   1.514019654893325 
  6.311613671629544   9.499296823079737   1.542990574884630 
  5.031769088879361  11.623659954616141   1.615813699849095 
  6.265309003170668  13.762946770589670   1.755375134205345 
 13.759780217341945   0.737489056602118   1.769541102692205 
 12.498942979057345   2.904964630854100   1.760900716042935 
 11.241847421090029   5.075387170572283   1.726008892839345 
 10.002752872973353   7.244918042059133   1.677435009331380 
  8.784025442723815   9.421914689512878   1.671811615167720 
  7.540328838138109  11.613597818101335   1.717427528136960 
  4.221405307634617   7.684977282705966   0.955621882514220 
