 N B C 
 1.0
 17.527899999999772   0.000000000000000   0.000000000000000
 -8.763949999999658  15.179606674993195   0.000000000000000
  0.000000000000001   0.000000000000002  15.000000000000000
 N B C 
  47  47   4
Cartesian
  8.763648318429453  13.730381396161018   1.664975354266365 
 16.275964395823284   0.722062249905248   1.665041787736830 
 15.024831129723829   2.892656684122438   1.665398486795355 
 13.772016483813410   5.059868891664398   1.665010308165270 
 12.509650478507844   7.227398335335875   1.664485276185810 
 11.266676728621078   9.394058884441245   1.665430260061110 
 10.017315991554113  11.564240934201500   1.665479069675415 
 -6.261149276567456  13.732504299738187   1.664383865826240 
  1.251641782444961   0.718727627261833   1.664982175437225 
 -0.000540201321440   2.885501468395014   1.664520369156900 
 -1.245518517995237   5.063808052137332   1.664638517582085 
 -2.511659490816406   7.229300068574366   1.665136186835505 
 -3.766865484937041   9.396320258462760   1.665228893133750 
 -5.012085446369234  11.565052964288000   1.664606809916400 
 -3.758547060339696  13.735016213127587   1.664612789236755 
  3.757060119328575   0.718973914080045   1.665669063249075 
  2.508538806952546   2.883456043121639   1.665463715553390 
  1.258455980553159   5.043801857625803   1.664986260180060 
 -0.001949543303027   7.239639238795427   1.665442436164395 
 -1.275803660218369   9.402610629314088   1.665875586732270 
 -2.513522878642784  11.570164856869102   1.665515680423815 
 -1.256582996254391  13.742117921171277   1.665096337095345 
  6.262185812935932   0.722548302844302   1.665511277548665 
  5.016749319886888   2.880143844119611   1.666277370881505 
  3.777903346923708   5.035347304234083   1.665608829077040 
  1.197662854262988   9.429143147151992   1.666130398788330 
 -0.016610234215736  11.583448716788608   1.665789099741150 
  1.249204825429381  13.739772521696782   1.665066378245430 
  8.763737372840488   0.727828815562465   1.664344691565690 
  7.512662763034504   2.895529489580579   1.665113324390550 
  6.261337693168095   5.059868891664398   1.665453792420240 
  5.030001363394696   7.246589042497023   1.664699159571195 
  2.493716789765095  11.565690965420165   1.665423201350730 
  3.761497156927315  13.724371378333901   1.664673489790815 
 11.267678421758099   0.723284056824916   1.665077547378390 
 10.012319199421995   2.897630011661277   1.665069972005415 
  8.755937059605188   5.073747711546168   1.664686470159480 
  7.471682896811227   7.247631073378138   1.664802370914180 
  6.297812679495038   9.368653271658919   1.664988479020155 
  5.031921237151868  11.561258209247969   1.664797734073395 
  6.264586374083623  13.736243719660754   1.664545792521285 
 13.771547270822190   0.721415181548603   1.665380206071975 
 12.518819936654696   2.892694623299355   1.665752840403210 
 11.264874748255133   5.059868891664398   1.665095229817140 
  9.997832612896932   7.227113838574693   1.664903996975760 
  8.778013764257235   9.394909260971035   1.666111472707935 
  7.515113761495704  11.557739282136009   1.665208860559515 
  7.514232257131582  14.457157679872887   1.665027905797125 
 15.024154692365190   1.445351122150080   1.665689612904825 
 13.771728827216496   3.615217955865151   1.665803081220135 
 12.516796946558845   5.782926705758738   1.664921963531265 
 11.256353574230186   7.949786488636462   1.665158124261900 
 10.020879854344649  10.119737783328796   1.666250254666560 
  8.764936107516787  12.283887214907816   1.665526971523785 
 -7.512979201286337  14.453085333226905   1.664994665858220 
 -0.000411280055863   1.441597064784275   1.664939974636635 
 -1.249310900484123   3.615078284257677   1.664867054420340 
 -2.503385392436862   5.784249487190063   1.665124767059205 
 -3.765318885596156   7.951047464381889   1.665111961764735 
 -5.013891832436279  10.119737783328796   1.665409543621305 
 -6.261578706033038  12.287809965141143   1.664850899316000 
 -5.009645786591207  14.454217085084201   1.664928194716065 
  2.504645173846888   1.438382795207442   1.665694610004330 
  1.251954093473428   3.602375575706183   1.665124639466580 
  0.009856307938069   5.787089946940311   1.665023407199625 
 -1.262065932554205   7.956230339311261   1.665838967956350 
 -2.520877473440297  10.123972391630009   1.665899803372875 
 -3.762364055694801  12.290151485499013   1.664978326676790 
 -2.505174283527872  14.458826924214444   1.665311143501215 
  5.012423615095210   1.437965412925789   1.666507192319925 
  3.768456771070557   3.592579189707671   1.666298435098725 
  2.527468578495908   5.729661368422045   1.665529372123950 
  1.231087597807602   7.998078540065011   1.665669222784845 
 -0.038168960141236  10.142354309817614   1.666334610011640 
 -1.263928949817624  12.299488503053354   1.665843668353620 
 -0.002294285152590  14.462030655265687   1.665000808414860 
  7.512571834058948   1.448706460668808   1.665072258994380 
  6.261643151793263   3.614969041912185   1.666102368493755 
  5.014201663633402   5.785407968708691   1.665163673029590 
  2.457868881099412  10.119737783328796   1.665670214318010 
  1.244347016325832  12.295045046684168   1.665808009514475 
  2.505087035915505  14.454600322192944   1.665159561619200 
 10.015472574153119   1.449368174691118   1.664902281802725 
  8.760411390609242   3.623356466610684   1.665031172162925 
  7.500891567017741   5.796041928718943   1.664832502740225 
  5.068256318177025  10.119737783328796   1.665146485852500 
  3.760230815113053  12.273845628049306   1.665039313906185 
  5.009213638851865  14.453404236626440   1.664911243956375 
 12.519767272986538   1.445992283235446   1.665804664362495 
 11.266245092717201   3.616654951435362   1.665781989146475 
 10.011136103283542   5.784561573556040   1.665036312110370 
  8.747221179424868   7.954547087814430   1.665443112829650 
  7.531192863000304  10.108881943657938   1.665674548092075 
  6.271545823749098  12.292752680144893   1.665006207544560 
  2.581149152448796   7.247599511357679   1.664624297944230 
  3.808315635480167   7.945975325194949   1.664566727277495 
  3.775157139070052   9.337217094945558   1.664088247467975 
  6.257143999910582   7.960005824120075   1.670384408861805 
