B C N                                   
   1.0000000000000000     
     8.7639499999999995  -15.1796066749929999    0.0000000000000000
     8.7639499999999995   15.1796066749929999    0.0000000000000000
     0.0000000000000000    0.0000000000000000   15.0000000000000000
   B    C    N 
    47     4    47
Selective dynamics
Direct
  0.9049045313655930  0.9524066064036781  0.1110018603864755   T   T   T
  0.9047648920756187  0.0952166385530365  0.1110459741936549   T   T   T
  0.9047847082202974  0.2381628215585347  0.1110535387480092   T   T   T
  0.9045904664467856  0.3809668346206559  0.1109947975687512   T   T   T
  0.9040538195359712  0.5237149195527510  0.1110105416174600   T   T   T
  0.9050435698331211  0.6666157135832486  0.1110833503111041   T   T   T
  0.9046743590355254  0.8092361994559605  0.1110351314349193   T   T   T
  0.0474394255143272  0.9521383289223722  0.1109996443905484   T   T   T
  0.0474612003354820  0.0949693292882978  0.1109959983091094   T   T   T
  0.0478012494408095  0.2381536202919629  0.1109911369613562   T   T   T
  0.0477040949601591  0.3810539766303044  0.1110083178039466   T   T   T
  0.0470803980114030  0.5237979899360895  0.1110074641176491   T   T   T
  0.0472812773291060  0.6666416039122369  0.1110273029080868   T   T   T
  0.0475123480332456  0.8094946218457704  0.1109900599543997   T   T   T
  0.1902966321354643  0.9522128863125293  0.1109952129810710   T   T   T
  0.1902735563220720  0.0947575800878313  0.1110463073336223   T   T   T
  0.1900847564071852  0.2373167930392236  0.1110083092977723   T   T   T
  0.1911828711156825  0.3812411000394315  0.1110015604799754   T   T   T
  0.1900664538011797  0.5241394266439271  0.1110559311970904   T   T   T
  0.1896519669860888  0.6669456335985425  0.1110599868915251   T   T   T
  0.1901744198015240  0.8096488761955702  0.1109985551117858   T   T   T
  0.3332420479622054  0.9525165726483444  0.1110207429000813   T   T   T
  0.3332696569476664  0.0947300838364073  0.1111004794879946   T   T   T
  0.3333353339683912  0.2366714280960963  0.1110865623399151   T   T   T
  0.3329257989787562  0.3774578281966334  0.1110352914749296   T   T   T
  0.3336840349336671  0.5268962965450881  0.1110446148523229   T   T   T
  0.3319006858122423  0.6681565950273320  0.1110889740007764   T   T   T
  0.3330224412687638  0.8102639789287471  0.1110562445569084   T   T   T
  0.4762329204692803  0.9527276275932995  0.1110000538943237   T   T   T
  0.4763253384092173  0.0954376810734759  0.1110048172662922   T   T   T
  0.4763118514627231  0.2381464236400453  0.1110734912329168   T   T   T
  0.4766348799193953  0.3811302949133416  0.1110109115353060   T   T   T
  0.4735594232299720  0.6665975310884015  0.1110446809545335   T   T   T
  0.4759779884485525  0.8099712535331340  0.1110538673009653   T   T   T
  0.6190390419252685  0.9522381331530401  0.1110106374412804   T   T   T
  0.6191423775789465  0.0954812733770499  0.1109934854535149   T   T   T
  0.6191476002246110  0.2386989692282195  0.1110020781441946   T   T   T
  0.6188555351638251  0.3818308374397682  0.1109888335160146   T   T   T
  0.6224869865477479  0.6666502671415101  0.1110097657235004   T   T   T
  0.6188156534701325  0.8085746812049598  0.1110026209270792   T   T   T
  0.7618648249690211  0.9521593375958085  0.1109940829304251   T   T   T
  0.7619059503396748  0.0952588768731117  0.1110536442908333   T   T   T
  0.7618894335598957  0.2382574877512089  0.1110521326097649   T   T   T
  0.7616916050936020  0.3810745362121605  0.1110024208073579   T   T   T
  0.7610598578184552  0.5240285376378502  0.1110295408553101   T   T   T
  0.7626446165471809  0.6659515071830722  0.1110449698728054   T   T   T
  0.7627137245598257  0.8098202373317031  0.1110004138363043   T   T   T
  0.3859876357869283  0.4774563443265845  0.1109749531962822   T   T   T
  0.4790035673671996  0.5234638482619650  0.1109711151518331   T   T   T
  0.5229378272536227  0.6151158784850229  0.1109392164978648   T   T   T
  0.6191760282302655  0.5243881475027513  0.1113589605907875   T   T   T
  0.9522468586413204  0.9045281402963081  0.1109983569510905   T   T   T
  0.9523586527865826  0.0475679156492747  0.1110027858491219   T   T   T
  0.9524761805450309  0.1905620314186260  0.1110265657863566   T   T   T
  0.9523863754631289  0.3334109289913880  0.1110006872110184   T   T   T
  0.9517620965976950  0.4761255340852969  0.1109656850790544   T   T   T
  0.9522155622941970  0.6188604939228737  0.1110286840040738   T   T   T
  0.9524206326992413  0.7618274426867971  0.1110319379783612   T   T   T
  0.0951235331975775  0.9046679926404836  0.1109589243884160   T   T   T
  0.0950826608731574  0.0473482378463636  0.1109988116958147   T   T   T
  0.0950145110482974  0.1900906611202633  0.1109680246104595   T   T   T
  0.0957372203190777  0.3335928367946069  0.1109759011721394   T   T   T
  0.0948304617111841  0.4762508162009153  0.1110090791223667   T   T   T
  0.0945979008140282  0.6190094684035657  0.1110152595422503   T   T   T
  0.0949914704987197  0.7618809374909703  0.1109737873277601   T   T   T
  0.2379844846007321  0.9048334721185222  0.1109741859491166   T   T   T
  0.2380296499958951  0.0473644626948389  0.1110446042166048   T   T   T
  0.2380948618856377  0.1899559128809199  0.1110309143702265   T   T   T
  0.2379347406587498  0.3322748715179124  0.1109990840120038   T   T   T
  0.2383547441536751  0.4769319386069454  0.1110294957442932   T   T   T
  0.2369249092989594  0.6194238645724532  0.1110583724488177   T   T   T
  0.2377075928113898  0.7622176980336215  0.1110343786949206   T   T   T
  0.3809602111359172  0.9053013174451995  0.1110064224730226   T   T   T
  0.3810695673803293  0.0475999357766376  0.1110340851699110   T   T   T
  0.3810839372425796  0.1897377122995123  0.1110851580587672   T   T   T
  0.3813955162048223  0.3317179036350983  0.1110405886051361   T   T   T
  0.3789148265621441  0.6211717700621001  0.1110753599192218   T   T   T
  0.3805987597239972  0.7630928102946910  0.1110526066494105   T   T   T
  0.5238429126954789  0.9051468075474979  0.1110044252163623   T   T   T
  0.5239617715430568  0.0479478046530336  0.1109563127710457   T   T   T
  0.5239873283901899  0.1907512856937627  0.1110075549593705   T   T   T
  0.5238878793143941  0.3335165476513558  0.1110302528280162   T   T   T
  0.5256660237556645  0.4773897768006738  0.1109799439714126   T   T   T
  0.5232327650211570  0.7619229676400922  0.1110282134233821   T   T   T
  0.6664853153247396  0.9041322131846378  0.1109782326527209   T   T   T
  0.6666821565128336  0.0476484056742033  0.1110051698252258   T   T   T
  0.6666866540579175  0.1908896635928529  0.1110046648003610   T   T   T
  0.6666131600324670  0.3342476402833696  0.1109790980106324   T   T   T
  0.6650029180913400  0.4774584235649433  0.1109868247276123   T   T   T
  0.6678955931875211  0.6171868265264601  0.1109992319346772   T   T   T
  0.6678961413764269  0.7616309471505562  0.1109865156048929   T   T   T
  0.8098637248777080  0.9049143376217891  0.1109697195014187   T   T   T
  0.8094555833891637  0.0475252881708096  0.1110253470714647   T   T   T
  0.8095047299505412  0.1905645307704034  0.1110501893602143   T   T   T
  0.8093491755955861  0.3334568612623521  0.1110063486544762   T   T   T
  0.8084487436066006  0.4761067920475568  0.1109935997983842   T   T   T
  0.8102606219279532  0.6189165149086605  0.1110740981805287   T   T   T
  0.8094510835445434  0.7613991277637098  0.1110139240373012   T   T   T

  0.00000000E+00  0.00000000E+00  0.00000000E+00
  0.00000000E+00  0.00000000E+00  0.00000000E+00
  0.00000000E+00  0.00000000E+00  0.00000000E+00
  0.00000000E+00  0.00000000E+00  0.00000000E+00
  0.00000000E+00  0.00000000E+00  0.00000000E+00
  0.00000000E+00  0.00000000E+00  0.00000000E+00
  0.00000000E+00  0.00000000E+00  0.00000000E+00
  0.00000000E+00  0.00000000E+00  0.00000000E+00
  0.00000000E+00  0.00000000E+00  0.00000000E+00
  0.00000000E+00  0.00000000E+00  0.00000000E+00
  0.00000000E+00  0.00000000E+00  0.00000000E+00
  0.00000000E+00  0.00000000E+00  0.00000000E+00
  0.00000000E+00  0.00000000E+00  0.00000000E+00
  0.00000000E+00  0.00000000E+00  0.00000000E+00
  0.00000000E+00  0.00000000E+00  0.00000000E+00
  0.00000000E+00  0.00000000E+00  0.00000000E+00
  0.00000000E+00  0.00000000E+00  0.00000000E+00
  0.00000000E+00  0.00000000E+00  0.00000000E+00
  0.00000000E+00  0.00000000E+00  0.00000000E+00
  0.00000000E+00  0.00000000E+00  0.00000000E+00
  0.00000000E+00  0.00000000E+00  0.00000000E+00
  0.00000000E+00  0.00000000E+00  0.00000000E+00
  0.00000000E+00  0.00000000E+00  0.00000000E+00
  0.00000000E+00  0.00000000E+00  0.00000000E+00
  0.00000000E+00  0.00000000E+00  0.00000000E+00
  0.00000000E+00  0.00000000E+00  0.00000000E+00
  0.00000000E+00  0.00000000E+00  0.00000000E+00
  0.00000000E+00  0.00000000E+00  0.00000000E+00
  0.00000000E+00  0.00000000E+00  0.00000000E+00
  0.00000000E+00  0.00000000E+00  0.00000000E+00
  0.00000000E+00  0.00000000E+00  0.00000000E+00
  0.00000000E+00  0.00000000E+00  0.00000000E+00
  0.00000000E+00  0.00000000E+00  0.00000000E+00
  0.00000000E+00  0.00000000E+00  0.00000000E+00
  0.00000000E+00  0.00000000E+00  0.00000000E+00
  0.00000000E+00  0.00000000E+00  0.00000000E+00
  0.00000000E+00  0.00000000E+00  0.00000000E+00
  0.00000000E+00  0.00000000E+00  0.00000000E+00
  0.00000000E+00  0.00000000E+00  0.00000000E+00
  0.00000000E+00  0.00000000E+00  0.00000000E+00
  0.00000000E+00  0.00000000E+00  0.00000000E+00
  0.00000000E+00  0.00000000E+00  0.00000000E+00
  0.00000000E+00  0.00000000E+00  0.00000000E+00
  0.00000000E+00  0.00000000E+00  0.00000000E+00
  0.00000000E+00  0.00000000E+00  0.00000000E+00
  0.00000000E+00  0.00000000E+00  0.00000000E+00
  0.00000000E+00  0.00000000E+00  0.00000000E+00
  0.00000000E+00  0.00000000E+00  0.00000000E+00
  0.00000000E+00  0.00000000E+00  0.00000000E+00
  0.00000000E+00  0.00000000E+00  0.00000000E+00
  0.00000000E+00  0.00000000E+00  0.00000000E+00
  0.00000000E+00  0.00000000E+00  0.00000000E+00
  0.00000000E+00  0.00000000E+00  0.00000000E+00
  0.00000000E+00  0.00000000E+00  0.00000000E+00
  0.00000000E+00  0.00000000E+00  0.00000000E+00
  0.00000000E+00  0.00000000E+00  0.00000000E+00
  0.00000000E+00  0.00000000E+00  0.00000000E+00
  0.00000000E+00  0.00000000E+00  0.00000000E+00
  0.00000000E+00  0.00000000E+00  0.00000000E+00
  0.00000000E+00  0.00000000E+00  0.00000000E+00
  0.00000000E+00  0.00000000E+00  0.00000000E+00
  0.00000000E+00  0.00000000E+00  0.00000000E+00
  0.00000000E+00  0.00000000E+00  0.00000000E+00
  0.00000000E+00  0.00000000E+00  0.00000000E+00
  0.00000000E+00  0.00000000E+00  0.00000000E+00
  0.00000000E+00  0.00000000E+00  0.00000000E+00
  0.00000000E+00  0.00000000E+00  0.00000000E+00
  0.00000000E+00  0.00000000E+00  0.00000000E+00
  0.00000000E+00  0.00000000E+00  0.00000000E+00
  0.00000000E+00  0.00000000E+00  0.00000000E+00
  0.00000000E+00  0.00000000E+00  0.00000000E+00
  0.00000000E+00  0.00000000E+00  0.00000000E+00
  0.00000000E+00  0.00000000E+00  0.00000000E+00
  0.00000000E+00  0.00000000E+00  0.00000000E+00
  0.00000000E+00  0.00000000E+00  0.00000000E+00
  0.00000000E+00  0.00000000E+00  0.00000000E+00
  0.00000000E+00  0.00000000E+00  0.00000000E+00
  0.00000000E+00  0.00000000E+00  0.00000000E+00
  0.00000000E+00  0.00000000E+00  0.00000000E+00
  0.00000000E+00  0.00000000E+00  0.00000000E+00
  0.00000000E+00  0.00000000E+00  0.00000000E+00
  0.00000000E+00  0.00000000E+00  0.00000000E+00
  0.00000000E+00  0.00000000E+00  0.00000000E+00
  0.00000000E+00  0.00000000E+00  0.00000000E+00
  0.00000000E+00  0.00000000E+00  0.00000000E+00
  0.00000000E+00  0.00000000E+00  0.00000000E+00
  0.00000000E+00  0.00000000E+00  0.00000000E+00
  0.00000000E+00  0.00000000E+00  0.00000000E+00
  0.00000000E+00  0.00000000E+00  0.00000000E+00
  0.00000000E+00  0.00000000E+00  0.00000000E+00
  0.00000000E+00  0.00000000E+00  0.00000000E+00
  0.00000000E+00  0.00000000E+00  0.00000000E+00
  0.00000000E+00  0.00000000E+00  0.00000000E+00
  0.00000000E+00  0.00000000E+00  0.00000000E+00
  0.00000000E+00  0.00000000E+00  0.00000000E+00
  0.00000000E+00  0.00000000E+00  0.00000000E+00
  0.00000000E+00  0.00000000E+00  0.00000000E+00
  0.00000000E+00  0.00000000E+00  0.00000000E+00
