 C B N 
 1.0
 17.527899999999772   0.000000000000000   0.000000000000000
 -8.763949999999658  15.179606674993195   0.000000000000000
  0.000000000000001   0.000000000000002  15.000000000000000
 C B N 
   3  48  47
Cartesian
  3.729894210087690   7.935997047016186   1.664515143222720 
  4.948645754884028   7.247446243273194   1.662583001360010 
  3.742671301517504   9.336082026945830   1.661235593272080 
  7.515480602076234  14.462042255973689   1.665381878443380 
 15.023176717282526   1.446219035313332   1.665881852084745 
 13.771000899372080   3.613954404426759   1.665979280121690 
 12.519826553243041   5.782041992063612   1.665238665738645 
 11.274211044436555   7.951640463702290   1.665234824350860 
 10.033324913148395  10.125326022326563   1.666216534058835 
  8.777435768753755  12.300638295881580   1.665914221832490 
 -7.509111494990412  14.459279149432446   1.665400602352635 
 -0.000260006250278   1.447157981125334   1.665435910381995 
 -1.253308060435696   3.614248454271436   1.665266216925795 
 -2.504708568077398   5.781493533647575   1.665491314232355 
 -3.754695794406435   7.950263098405382   1.665373105787715 
 -5.003302470160496  10.119737783328796   1.665626198383980 
 -6.254260559314617  12.291658992957995   1.665335567981565 
 -5.007124509582050  14.455142567252000   1.665280023289530 
  2.500602960084637   1.437143999701885   1.666134491235210 
  1.250092512155214   3.612954607931285   1.665326832380310 
 -0.001455726580373   5.781501469241033   1.665439505516730 
 -1.253807057846898   7.949912469402249   1.666249881832440 
 -2.512044885628544  10.119737783328796   1.666152275727585 
 -3.756584837094432  12.289603795492337   1.665234690397950 
 -2.503521529866051  14.455964270899774   1.665544772758065 
  5.008134788038558   1.437636641792430   1.666274228969235 
  3.747153855715132   3.586783802296432   1.666074122552775 
  2.508522520601182   5.774849325716915   1.666050958712325 
  1.248092305751346   7.957978497231863   1.666308492750795 
 -0.027948669731152  10.125528607604718   1.666297107279030 
 -1.258528889632986  12.292238427043610   1.665992791471170 
 -0.002460375846919  14.459471547669379   1.665354760005645 
  7.513136178002969   1.442116880152869   1.665316640073900 
  6.262121376666951   3.601326402251576   1.665877397283855 
  4.989707724569326   5.729366937306162   1.664696060929560 
  2.448772933467449  10.130727709450531   1.664046658990935 
  1.242119869733255  12.296620050382613   1.665893975997615 
  2.503532142083328  14.455586053630869   1.665526607811930 
 10.015899723212801   1.445905867252743   1.665251389281720 
  8.762500604243286   3.614714482960499   1.665431998063410 
  7.505037058320518   5.786284401029698   1.665247409927700 
  6.289730040217540   7.997080887581252   1.664179471553700 
  5.064248530194994  10.119737783328796   1.664080285767075 
  3.755784216789585  12.280721968096186   1.665171179687880 
  5.008556040111438  14.455977283037660   1.665378938354790 
 12.519499180233931   1.445478775256518   1.665984121534620 
 11.267177601718892   3.614455574757276   1.666059987256650 
 10.015317501110063   5.783672295536086   1.665431889026580 
  8.776691662188924   7.956585580250922   1.665838675253250 
  7.553899801760124  10.144140913826368   1.665737286858195 
  6.270914305653552  12.296927977462998   1.665609025756395 
  8.769190220905312  13.742314409107131   1.665081961296480 
 16.276242298256488   0.726610701361365   1.665097067804100 
 15.022957732027656   2.891742336974000   1.665381515577585 
 13.771141906800764   5.059868891664398   1.665139730206455 
 12.523341053398299   7.226962747163167   1.664430175577220 
 11.277872233916046   9.397373551011109   1.665263601740175 
 10.025729129530664  11.571149469392958   1.665574241520420 
 -6.257731327764848  13.735823060413020   1.664643961608765 
  1.249993737860322   0.721956287535832   1.665263168778780 
 -0.001180737718594   2.892959813262269   1.664681628882750 
 -1.252529285584716   5.059868891664398   1.664793765445410 
 -2.503106679379951   7.226498756982815   1.665248161824705 
 -3.757551802345575   9.395671731245606   1.665314920319115 
 -5.005117270814013  11.566565345128968   1.664864311396560 
 -3.755864425911291  13.733820803208836   1.664755790490375 
  3.754999108956563   0.718982018708971   1.665590544004590 
  2.495592122791648   2.878748084310507   1.665502727938275 
  1.252876656016864   5.059868891664398   1.665079833074835 
  0.002004357374358   7.226558677394109   1.665658910365380 
 -1.266872446159653   9.395698639809318   1.665943046214735 
 -2.507454466502022  11.566355647249514   1.665347025337590 
 -1.254077941562528  13.735859951936943   1.665209839138125 
  6.260701436596441   0.719735398917562   1.665349642840290 
  5.006558515230645   2.880192391668360   1.665821974740495 
  3.741288756797315   5.025627658792946   1.665407184976245 
  2.510332807220837   7.231756323641648   1.665851622712995 
  1.215237730427527   9.401032700904643   1.665396271005300 
 -0.010048992554002  11.569595561500654   1.665730819131240 
  1.247780480199953  13.739151799346882   1.665264060751995 
  8.764385683640089   0.723083135522996   1.664493962284545 
  7.514298946265599   2.885094144308758   1.665155665080465 
  6.257905752422305   5.041979098820992   1.664963016677205 
  2.487630888783653  11.572729364761431   1.664802794690490 
  3.758993451743241  13.728707922919890   1.664995689780465 
 11.268329860413052   0.722155731976522   1.665167202396630 
 10.015454810474615   2.892198974005364   1.665279257963910 
  8.763949999999962   5.059868891664398   1.664967820506120 
  7.520471165343316   7.239266937054825   1.664943863387265 
  6.318540870313929   9.430884546506038   1.664773633067820 
  5.021669921568853  11.567591111564672   1.664969816960850 
  6.264216327654514  13.740384979692742   1.665011604561435 
 13.771253656387435   0.722411422607185   1.665364250879550 
 12.519164246431842   2.891273010849687   1.665667745322885 
 11.267014900701293   5.059868891664398   1.665280084259745 
 10.023441354315063   7.229006364776025   1.665151517963355 
  8.789603773526576   9.403557336574410   1.665715579143525 
  7.530453114721039  11.584584117247738   1.665425145431880 
