B C N                                   
   1.0000000000000000     
     8.7639499999999995  -15.1796066749929999    0.0000000000000000
     8.7639499999999995   15.1796066749929999    0.0000000000000000
     0.0000000000000000    0.0000000000000000   15.0000000000000000
   B    C    N 
    48     3    47
Selective dynamics
Direct
  0.9051366445264009  0.9527283918231149  0.1110254585628923   T   T   T
  0.9047376848697226  0.0952738148147034  0.1110587901389835   T   T   T
  0.9047015585213884  0.2380795814940555  0.1110652853414464   T   T   T
  0.9047341697423406  0.3809085515759065  0.1110159110492432   T   T   T
  0.9051336900971734  0.5238370554621667  0.1110156549567236   T   T   T
  0.9059376546974462  0.6670348078917598  0.1110811022705889   T   T   T
  0.9059392511416178  0.8103397248194568  0.1110609481221658   T   T   T
  0.0478641031853257  0.9525463642778433  0.1110267068235089   T   T   T
  0.0476530014270011  0.0953356705552437  0.1110290606921325   T   T   T
  0.0475458701587783  0.2380989528684907  0.1110177477950529   T   T   T
  0.0475378271151712  0.3808724203092808  0.1110327542821565   T   T   T
  0.0476606293729489  0.5237463175842763  0.1110248737191810   T   T   T
  0.0478854205679298  0.6667620847618707  0.1110417465589322   T   T   T
  0.0480566450662394  0.8097481875605652  0.1110223711987715   T   T   T
  0.1904709601717869  0.9522738550970047  0.1110186682193017   T   T   T
  0.1900021357479673  0.0946759708912239  0.1110756327490137   T   T   T
  0.1903270116565139  0.2380137170407224  0.1110217888253544   T   T   T
  0.1903534195771357  0.3808729430891944  0.1110293003677825   T   T   T
  0.1903295344220552  0.5237232188959737  0.1110833254554962   T   T   T
  0.1900163994377309  0.6667504346680602  0.1110768183818394   T   T   T
  0.1904860948811162  0.8096127955501089  0.1110156460265301   T   T   T
  0.3332588363742062  0.9523279871746908  0.1110363181838707   T   T   T
  0.3330778182311818  0.0947084250977852  0.1110849485979486   T   T   T
  0.3319270676747337  0.2362896403768673  0.1110716081701852   T   T   T
  0.3332950448665528  0.3804347141108977  0.1110700639141555   T   T   T
  0.3333027678880143  0.5242545915462884  0.1110872328500534   T   T   T
  0.3319295521743371  0.6670481537763067  0.1110864738186024   T   T   T
  0.3330917152176553  0.8097863594380073  0.1110661860980784   T   T   T
  0.4761391504138857  0.9525590390619172  0.1110236506670432   T   T   T
  0.4761404815729335  0.0950035736122601  0.1110211093382603   T   T   T
  0.4758897611491761  0.2372476757374997  0.1110584931522567   T   T   T
  0.4733915225502869  0.3774384317048671  0.1109797373953043   T   T   T
  0.4734024785402369  0.6673906594786700  0.1109364439327294   T   T   T
  0.4759028044400111  0.8100750114059281  0.1110595983998408   T   T   T
  0.6189828012163900  0.9523030710304852  0.1110351071874618   T   T   T
  0.6190527025424686  0.0952531839731208  0.1110167592854481   T   T   T
  0.6189821361386265  0.2381296538411206  0.1110287998708941   T   T   T
  0.6187706407991129  0.3811880323988888  0.1110164939951801   T   T   T
  0.6222563366629075  0.5268305733346565  0.1109452981035801   T   T   T
  0.6222583346281212  0.6668661569195251  0.1109386857178052   T   T   T
  0.6187884658694287  0.8090276797703453  0.1110114119791916   T   T   T
  0.7619120611067061  0.9523288443864857  0.1110252625569856   T   T   T
  0.7618737407354175  0.0952250480664816  0.1110656081023080   T   T   T
  0.7618701898561184  0.2381125975228144  0.1110706658171097   T   T   T
  0.7619008699183851  0.3810159524794585  0.1110287926017719   T   T   T
  0.7628083506168508  0.5241628291567366  0.1110559116835503   T   T   T
  0.7651014832955028  0.6682742926756973  0.1110491524572126   T   T   T
  0.7628152250781426  0.8100952969829507  0.1110406017170931   T   T   T
  0.4742008022336108  0.5228065006512921  0.1109676762148482   T   T   T
  0.5210527669815050  0.4774462473532068  0.1108388667573337   T   T   T
  0.5210470605692095  0.6150411026344997  0.1107490395514716   T   T   T
  0.9529560953846001  0.9053142616498846  0.1110054640864320   T   T   T
  0.9525243287720571  0.0478675578965024  0.1110064711869398   T   T   T
  0.9523391820301796  0.1905017961853943  0.1110254343718395   T   T   T
  0.9523364791827618  0.3332851269032702  0.1110093153470970   T   T   T
  0.9525288221005610  0.4760968384687345  0.1109620117051477   T   T   T
  0.9529634687137545  0.6190788570623695  0.1110175734493453   T   T   T
  0.9531281779630234  0.7622825621994025  0.1110382827680283   T   T   T
  0.0954278500964421  0.9048866254908532  0.1109762641072507   T   T   T
  0.0950949854125298  0.0475609350751611  0.1110175445852519   T   T   T
  0.0952236371284130  0.1905820009175940  0.1109787752588502   T   T   T
  0.0952074909762075  0.3333160733983718  0.1109862510296935   T   T   T
  0.0952261436488371  0.4760662717886959  0.1110165441216466   T   T   T
  0.0951079023103887  0.6189667448184935  0.1110209946879408   T   T   T
  0.0954388343609551  0.7619805699039404  0.1109909540931042   T   T   T
  0.2380981584686808  0.9047547210715194  0.1109837193660255   T   T   T
  0.2379123323958225  0.0473649966104475  0.1110393696003058   T   T   T
  0.2372011538288916  0.1896457626305263  0.1110335151958850   T   T   T
  0.2381456605003152  0.3334780069744951  0.1110053222049885   T   T   T
  0.2381494620052820  0.4760702192171493  0.1110439273576915   T   T   T
  0.2372067784936434  0.6189685174970805  0.1110628697476486   T   T   T
  0.2379283359661031  0.7619667554564415  0.1110231350225064   T   T   T
  0.3808969984561230  0.9048890558254925  0.1110139892758752   T   T   T
  0.3808922268444519  0.0474146276861873  0.1110233095226860   T   T   T
  0.3805041315775597  0.1897409105081209  0.1110547983160330   T   T   T
  0.3789864295465080  0.3310775941956479  0.1110271456650835   T   T   T
  0.3814255710831915  0.4764126290278128  0.1110567748475333   T   T   T
  0.3789915786235198  0.6193199140259580  0.1110264180670200   T   T   T
  0.3805167829171410  0.7621801940731672  0.1110487212754165   T   T   T
  0.5237412051637591  0.9051059156875709  0.1110176040501329   T   T   T
  0.5238424412839464  0.0476351694088493  0.1109662641523030   T   T   T
  0.5237369466461885  0.1900638274812252  0.1110103776720308   T   T   T
  0.5231028099415838  0.3321547920689625  0.1109975344451470   T   T   T
  0.5231173901486912  0.7623866423249481  0.1109868529793658   T   T   T
  0.6665046727287205  0.9044178954607887  0.1109997126520312   T   T   T
  0.6666522616138764  0.0475740740480575  0.1110111468264421   T   T   T
  0.6666510289922840  0.1905318784557153  0.1110186171975940   T   T   T
  0.6664958932163714  0.3335276209061746  0.1109978547004076   T   T   T
  0.6675108758144148  0.4769074121650831  0.1109962575591510   T   T   T
  0.6711280074587052  0.6212864897245609  0.1109849088711883   T   T   T
  0.6675198833691525  0.7620481452013550  0.1109979877973899   T   T   T
  0.8099790216996396  0.9051871549694752  0.1110007736374286   T   T   T
  0.8094716472421410  0.0475909183995711  0.1110242833919699   T   T   T
  0.8094775470847466  0.1904708779847866  0.1110445163548590   T   T   T
  0.8094712753591722  0.3333334314276186  0.1110186722839828   T   T   T
  0.8099721087518787  0.4762314676232720  0.1110101011975573   T   T   T
  0.8112067123350712  0.6194862316205985  0.1110477052762349   T   T   T
  0.8112104629341701  0.7631676080469276  0.1110283430287922   T   T   T

  0.00000000E+00  0.00000000E+00  0.00000000E+00
  0.00000000E+00  0.00000000E+00  0.00000000E+00
  0.00000000E+00  0.00000000E+00  0.00000000E+00
  0.00000000E+00  0.00000000E+00  0.00000000E+00
  0.00000000E+00  0.00000000E+00  0.00000000E+00
  0.00000000E+00  0.00000000E+00  0.00000000E+00
  0.00000000E+00  0.00000000E+00  0.00000000E+00
  0.00000000E+00  0.00000000E+00  0.00000000E+00
  0.00000000E+00  0.00000000E+00  0.00000000E+00
  0.00000000E+00  0.00000000E+00  0.00000000E+00
  0.00000000E+00  0.00000000E+00  0.00000000E+00
  0.00000000E+00  0.00000000E+00  0.00000000E+00
  0.00000000E+00  0.00000000E+00  0.00000000E+00
  0.00000000E+00  0.00000000E+00  0.00000000E+00
  0.00000000E+00  0.00000000E+00  0.00000000E+00
  0.00000000E+00  0.00000000E+00  0.00000000E+00
  0.00000000E+00  0.00000000E+00  0.00000000E+00
  0.00000000E+00  0.00000000E+00  0.00000000E+00
  0.00000000E+00  0.00000000E+00  0.00000000E+00
  0.00000000E+00  0.00000000E+00  0.00000000E+00
  0.00000000E+00  0.00000000E+00  0.00000000E+00
  0.00000000E+00  0.00000000E+00  0.00000000E+00
  0.00000000E+00  0.00000000E+00  0.00000000E+00
  0.00000000E+00  0.00000000E+00  0.00000000E+00
  0.00000000E+00  0.00000000E+00  0.00000000E+00
  0.00000000E+00  0.00000000E+00  0.00000000E+00
  0.00000000E+00  0.00000000E+00  0.00000000E+00
  0.00000000E+00  0.00000000E+00  0.00000000E+00
  0.00000000E+00  0.00000000E+00  0.00000000E+00
  0.00000000E+00  0.00000000E+00  0.00000000E+00
  0.00000000E+00  0.00000000E+00  0.00000000E+00
  0.00000000E+00  0.00000000E+00  0.00000000E+00
  0.00000000E+00  0.00000000E+00  0.00000000E+00
  0.00000000E+00  0.00000000E+00  0.00000000E+00
  0.00000000E+00  0.00000000E+00  0.00000000E+00
  0.00000000E+00  0.00000000E+00  0.00000000E+00
  0.00000000E+00  0.00000000E+00  0.00000000E+00
  0.00000000E+00  0.00000000E+00  0.00000000E+00
  0.00000000E+00  0.00000000E+00  0.00000000E+00
  0.00000000E+00  0.00000000E+00  0.00000000E+00
  0.00000000E+00  0.00000000E+00  0.00000000E+00
  0.00000000E+00  0.00000000E+00  0.00000000E+00
  0.00000000E+00  0.00000000E+00  0.00000000E+00
  0.00000000E+00  0.00000000E+00  0.00000000E+00
  0.00000000E+00  0.00000000E+00  0.00000000E+00
  0.00000000E+00  0.00000000E+00  0.00000000E+00
  0.00000000E+00  0.00000000E+00  0.00000000E+00
  0.00000000E+00  0.00000000E+00  0.00000000E+00
  0.00000000E+00  0.00000000E+00  0.00000000E+00
  0.00000000E+00  0.00000000E+00  0.00000000E+00
  0.00000000E+00  0.00000000E+00  0.00000000E+00
  0.00000000E+00  0.00000000E+00  0.00000000E+00
  0.00000000E+00  0.00000000E+00  0.00000000E+00
  0.00000000E+00  0.00000000E+00  0.00000000E+00
  0.00000000E+00  0.00000000E+00  0.00000000E+00
  0.00000000E+00  0.00000000E+00  0.00000000E+00
  0.00000000E+00  0.00000000E+00  0.00000000E+00
  0.00000000E+00  0.00000000E+00  0.00000000E+00
  0.00000000E+00  0.00000000E+00  0.00000000E+00
  0.00000000E+00  0.00000000E+00  0.00000000E+00
  0.00000000E+00  0.00000000E+00  0.00000000E+00
  0.00000000E+00  0.00000000E+00  0.00000000E+00
  0.00000000E+00  0.00000000E+00  0.00000000E+00
  0.00000000E+00  0.00000000E+00  0.00000000E+00
  0.00000000E+00  0.00000000E+00  0.00000000E+00
  0.00000000E+00  0.00000000E+00  0.00000000E+00
  0.00000000E+00  0.00000000E+00  0.00000000E+00
  0.00000000E+00  0.00000000E+00  0.00000000E+00
  0.00000000E+00  0.00000000E+00  0.00000000E+00
  0.00000000E+00  0.00000000E+00  0.00000000E+00
  0.00000000E+00  0.00000000E+00  0.00000000E+00
  0.00000000E+00  0.00000000E+00  0.00000000E+00
  0.00000000E+00  0.00000000E+00  0.00000000E+00
  0.00000000E+00  0.00000000E+00  0.00000000E+00
  0.00000000E+00  0.00000000E+00  0.00000000E+00
  0.00000000E+00  0.00000000E+00  0.00000000E+00
  0.00000000E+00  0.00000000E+00  0.00000000E+00
  0.00000000E+00  0.00000000E+00  0.00000000E+00
  0.00000000E+00  0.00000000E+00  0.00000000E+00
  0.00000000E+00  0.00000000E+00  0.00000000E+00
  0.00000000E+00  0.00000000E+00  0.00000000E+00
  0.00000000E+00  0.00000000E+00  0.00000000E+00
  0.00000000E+00  0.00000000E+00  0.00000000E+00
  0.00000000E+00  0.00000000E+00  0.00000000E+00
  0.00000000E+00  0.00000000E+00  0.00000000E+00
  0.00000000E+00  0.00000000E+00  0.00000000E+00
  0.00000000E+00  0.00000000E+00  0.00000000E+00
  0.00000000E+00  0.00000000E+00  0.00000000E+00
  0.00000000E+00  0.00000000E+00  0.00000000E+00
  0.00000000E+00  0.00000000E+00  0.00000000E+00
  0.00000000E+00  0.00000000E+00  0.00000000E+00
  0.00000000E+00  0.00000000E+00  0.00000000E+00
  0.00000000E+00  0.00000000E+00  0.00000000E+00
  0.00000000E+00  0.00000000E+00  0.00000000E+00
  0.00000000E+00  0.00000000E+00  0.00000000E+00
  0.00000000E+00  0.00000000E+00  0.00000000E+00
  0.00000000E+00  0.00000000E+00  0.00000000E+00
  0.00000000E+00  0.00000000E+00  0.00000000E+00
