Species order:X N B                     
   2.51242800000000     
     5.9449720136058266    0.0000000000000000    0.0000000000000000
    -2.9724860068029120    5.1484967885702053   -0.0000000000000001
     0.0000000000000000    0.0000000000000009    5.3101128803662583
   C    N    B 
     3   143   141
Direct
  0.6094823408199067  0.3883761026231873  0.3750000000000000
  0.4455604284699520  0.3883761026231873  0.3750000000000000
  0.5523459210191661  0.4380251753716613  0.3750000000000000
  0.1111144954578727  0.0555615827738074  0.1250838257451163
  0.6110983396114744  0.5555300125562779  0.1239613020101452
  0.4444492980133529  0.0555647131515419  0.1251216623388223
  0.9444387451236173  0.5555412069006587  0.1250250550706174
  0.7777873546920325  0.0555762860222200  0.1250214183068381
  0.1111001330959956  0.7222059356654539  0.6250013852617071
  0.4444430948983950  0.7222018647824234  0.6250105565837819
  0.2777886371168845  0.2222451196075527  0.6247545491628681
  0.7777649930372632  0.7222182213544021  0.6249690224484877
  0.6111231491573395  0.2222451196075527  0.6247545491628681
  0.9444533147209520  0.2222399627752407  0.6249428733144500
  0.2777724692361299  0.7222059356654539  0.1249986147382928
  0.1111131219038782  0.2222344133949518  0.1251043313528215
  0.4444603149721615  0.2222539632776593  0.1252494325727946
  0.6111198949838113  0.7222182213544021  0.1250309775515111
  0.9444254365506923  0.7222018647824234  0.1249894434162183
  0.7777879581577458  0.2222344133949518  0.1251043313528215
  0.1111009237745503  0.8888800940745109  0.6249854270949645
  0.4444458369666323  0.8888800940745109  0.6249854270949645
  0.2777713327622810  0.3888910644020716  0.6248210432538087
  0.6111310079802353  0.3888874267614816  0.6252444030014257
  0.7777872359535042  0.8889078052403382  0.6250413838885441
  0.9444540114975626  0.3888951768978524  0.6249278406451322
  0.1111078320669617  0.3888951768978524  0.1250721593548669
  0.2777742834517188  0.8888819002367663  0.1250280620392178
  0.6111179963043289  0.8888862043115558  0.1249878019779566
  0.4444230854479180  0.3888874267614816  0.1247555969985744
  0.9444348746738982  0.8888862043115558  0.1249878019779566
  0.7777863983064623  0.3888910644020716  0.1251789567461911
  0.2777691284437050  0.5555412069006587  0.6249749449293819
  0.1111144954578727  0.0555615827738074  0.6249161742548833
  0.6110983396114744  0.5555300125562779  0.6260386979898550
  0.4444492980133529  0.0555647131515419  0.6248783376611784
  0.9444387451236173  0.5555412069006587  0.6249749449293819
  0.1111069376465855  0.5555472086265006  0.1250167375579897
  0.7777873546920325  0.0555762860222200  0.6249785816931616
  0.2777820818048537  0.0555647131515419  0.1251216623388223
  0.4444236357883350  0.5555222854570336  0.1250438897491476
  0.7777653163353614  0.5555222854570336  0.1250438897491476
  0.6111137539826065  0.0555615827738074  0.1250838257451163
  0.4444236357883350  0.5555222854570336  0.6249561102508528
  0.9444555979968520  0.0555762860222200  0.1250214183068381
  0.2777724692361299  0.7222059356654539  0.6250013852617071
  0.1111131219038782  0.2222344133949518  0.6248956686471796
  0.4444603149721615  0.2222539632776593  0.6247505674272050
  0.6111198949838113  0.7222182213544021  0.6249690224484877
  0.9444254365506923  0.7222018647824234  0.6250105565837819
  0.7777879581577458  0.2222344133949518  0.6248956686471796
  0.1111001330959956  0.7222059356654539  0.1249986147382928
  0.4444430948983950  0.7222018647824234  0.1249894434162183
  0.2777886371168845  0.2222451196075527  0.1252454508371318
  0.7777649930372632  0.7222182213544021  0.1250309775515111
  0.6111231491573395  0.2222451196075527  0.1252454508371318
  0.9444533147209520  0.2222399627752407  0.1250571266855503
  0.1111078320669617  0.3888951768978524  0.6249278406451322
  0.2777742834517188  0.8888819002367663  0.6249719379607825
  0.6111179963043289  0.8888862043115558  0.6250121980220446
  0.4444230854479180  0.3888874267614816  0.6252444030014257
  0.9444348746738982  0.8888862043115558  0.6250121980220446
  0.1111009237745503  0.8888800940745109  0.1250145729050358
  0.7777863983064623  0.3888910644020716  0.6248210432538087
  0.4444458369666323  0.8888800940745109  0.1250145729050358
  0.2777713327622810  0.3888910644020716  0.1251789567461911
  0.2777691284437050  0.5555412069006587  0.1250250550706174
  0.6111310079802353  0.3888874267614816  0.1247555969985744
  0.7777872359535042  0.8889078052403382  0.1249586161114555
  0.9444540114975626  0.3888951768978524  0.1250721593548669
  0.1111069376465855  0.5555472086265006  0.6249832624420107
  0.2777820818048537  0.0555647131515419  0.6248783376611784
  0.7777653163353614  0.5555222854570336  0.6249561102508528
  0.6111137539826065  0.0555615827738074  0.6249161742548833
  0.9444555979968520  0.0555762860222200  0.6249785816931616
  0.0559113642640135  0.1113488497838380  0.3750000000000000
  0.5559956815187422  0.6131336687806970  0.3750000000000000
  0.3901245604761255  0.1135824542855936  0.3750000000000000
  0.8863007659855624  0.6095357564776724  0.3750000000000000
  0.7221041521864882  0.1113488497838380  0.3750000000000000
  0.0555646804990599  0.7777884097750186  0.8750000000000000
  0.3888903959426236  0.7777884097750186  0.8750000000000000
  0.2222255976259325  0.2777776461440859  0.8750000000000000
  0.7222256721760423  0.7777846776854239  0.8750000000000000
  0.5555519082790853  0.2777745890836394  0.8750000000000000
  0.8888875728880968  0.2777784009478138  0.8750000000000000
  0.2221872439296869  0.7777078211927091  0.3750000000000000
  0.0557914742332613  0.2779543810983866  0.3750000000000000
  0.3902952150982227  0.2812584609345612  0.3750000000000000
  0.5557929538728191  0.7779657785136596  0.3750000000000000
  0.8888394913075039  0.7779657785136596  0.3750000000000000
  0.7220037616326648  0.2775564851362322  0.3750000000000000
  0.0555615786932588  0.9444514932870500  0.8750000000000000
  0.3888922547297115  0.9444524604632459  0.8750000000000000
  0.2222241648254900  0.4444475361059158  0.8750000000000000
  0.5555537733417735  0.4444408800168748  0.8750000000000000
  0.7222220843446061  0.9444482717372160  0.8750000000000000
  0.8888900379470893  0.4444475361059158  0.8750000000000000
  0.0554822897917462  0.4442979129168206  0.3750000000000000
  0.2227061668671145  0.9451233652861877  0.3750000000000000
  0.5554962280883849  0.9448642629986097  0.3750000000000000
  0.3915530174363127  0.4407182893826271  0.3750000000000000
  0.8893742284202422  0.9450315477965092  0.3750000000000000
  0.7158319386129791  0.4407182893826271  0.3750000000000000
  0.2222229357062348  0.6111159373498048  0.8750000000000000
  0.0555577787192574  0.1111099930533520  0.8750000000000000
  0.5555555492210464  0.6111170586494572  0.8750000000000000
  0.3888888922320252  0.1111111177973934  0.8750000000000000
  0.8888944760939027  0.6111170499038846  0.8750000000000000
  0.0547603852057915  0.6106651747542208  0.3750000000000000
  0.7222188810007586  0.1111099930533520  0.8750000000000000
  0.2233488136794913  0.1122474255630407  0.3750000000000000
  0.3899016571587682  0.6095357564776724  0.3750000000000000
  0.7238046539286187  0.6131336687806970  0.3750000000000000
  0.5555652785502139  0.1122474255630407  0.3750000000000000
  0.3888892404766398  0.6111170499038846  0.8750000000000000
  0.8890585779299194  0.1114504891931818  0.3750000000000000
  0.2222267823555790  0.7777868980444941  0.8750000000000000
  0.0555574947263812  0.2777784009478138  0.8750000000000000
  0.3888893474712182  0.2777745890836394  0.8750000000000000
  0.5555558343187833  0.7777860541995684  0.8750000000000000
  0.8888968865474499  0.7777860541995684  0.8750000000000000
  0.7222187151848173  0.2777776461440859  0.8750000000000000
  0.0550269198059047  0.7774128692838597  0.3750000000000000
  0.3890526161446195  0.7774128692838597  0.3750000000000000
  0.2222193901702312  0.2775564851362322  0.3750000000000000
  0.7230409167676645  0.7794151668686669  0.3750000000000000
  0.5576299125030032  0.2812584609345612  0.3750000000000000
  0.8888295735317894  0.2779543810983866  0.3750000000000000
  0.0555570404935833  0.4444474143204956  0.8750000000000000
  0.2222268724001994  0.9444524604632459  0.8750000000000000
  0.5555565812604629  0.9444514932870500  0.8750000000000000
  0.3888912519116313  0.4444467838117626  0.8750000000000000
  0.8888928540592745  0.9444482717372160  0.8750000000000000
  0.0560347015768983  0.9448642629986097  0.3750000000000000
  0.7222221985667967  0.4444467838117626  0.8750000000000000
  0.3890838650857379  0.9451233652861877  0.3750000000000000
  0.2237283213167984  0.4439799816703102  0.3750000000000000
  0.2225714562150936  0.6106651747542208  0.3750000000000000
  0.7223239860429304  0.9450315477965092  0.3750000000000000
  0.8869183270201764  0.4439799816703102  0.3750000000000000
  0.0555596683102337  0.6111159373498048  0.8750000000000000
  0.2222240114366093  0.1111116594951623  0.8750000000000000
  0.7222281760950738  0.6111170586494572  0.8750000000000000
  0.5555543147252175  0.1111116594951623  0.8750000000000000
  0.8888885221996925  0.1111103777327273  0.8750000000000000
  0.1113587869585725  0.0557486157713213  0.3750000000000000
  0.4445122980286745  0.0562348400966527  0.3750000000000000
  0.9430026148292787  0.5555060518185387  0.3750000000000000
  0.7777646355001873  0.0555689192853005  0.3750000000000000
  0.1111047376058588  0.7222305250608847  0.8750000000000000
  0.4444731458285519  0.7222265491064814  0.8750000000000000
  0.2777857939614308  0.2222301591066451  0.8750000000000000
  0.7777524136145910  0.7222052948450850  0.8750000000000000
  0.6111110318118862  0.2222301591066451  0.8750000000000000
  0.9444369982739677  0.2222073298812704  0.8750000000000000
  0.2779982001753726  0.7220238404479112  0.3750000000000000
  0.1106460443515937  0.2219958183599969  0.3750000000000000
  0.4456136618040468  0.2245606569414288  0.3750000000000000
  0.6121202628194422  0.7214635271816107  0.3750000000000000
  0.9429327718149147  0.7213481747385516  0.3750000000000000
  0.7780164406750740  0.2219958183599969  0.3750000000000000
  0.1110880697394920  0.8888739087304206  0.8750000000000000
  0.4444525056576005  0.8888739087304206  0.8750000000000000
  0.2778183169705594  0.3889269762129452  0.8750000000000000
  0.6111193685098617  0.3889497661834772  0.8750000000000000
  0.7777537703150886  0.8888408739635060  0.8750000000000000
  0.9444466050680357  0.3889053152367367  0.8750000000000000
  0.1118220772518869  0.3890513527892810  0.3750000000000000
  0.2778006116774094  0.8889345566881475  0.3750000000000000
  0.6110830456416885  0.8887399583410955  0.3750000000000000
  0.9443235793660775  0.8887399583410955  0.3750000000000000
  0.7757933240156535  0.3878960514071987  0.3750000000000000
  0.2778174202404456  0.5555879260308513  0.8750000000000000
  0.1110869528560324  0.0555296050755169  0.8750000000000000
  0.6111334588823281  0.5556002510979862  0.8750000000000000
  0.4444421003759557  0.0555409396519524  0.8750000000000000
  0.9444371724570700  0.5555879260308513  0.8750000000000000
  0.1111189903048353  0.5555713139429995  0.3750000000000000
  0.7777638901329296  0.0555157315684002  0.8750000000000000
  0.2783892087346422  0.0562348400966527  0.3750000000000000
  0.4492304511857143  0.5554075509903071  0.3750000000000000
  0.7728437664712576  0.5554075509903071  0.3750000000000000
  0.6110564954794196  0.0557486157713213  0.3750000000000000
  0.4445083871437572  0.5556050428038734  0.8750000000000000
  0.9444709504517769  0.0555689192853005  0.3750000000000000
  0.2777924541216974  0.7222305250608847  0.8750000000000000
  0.1111066571541099  0.2222132718515365  0.8750000000000000
  0.4444520988661262  0.2222375310655879  0.8750000000000000
  0.6111195478971648  0.7222052948450850  0.8750000000000000
  0.9444200699445939  0.7222265491064814  0.8750000000000000
  0.7777732813640978  0.2222132718515365  0.8750000000000000
  0.1106923069392106  0.7220238404479112  0.3750000000000000
  0.4450820695903007  0.7213481747385516  0.3750000000000000
  0.2772112969383652  0.2227049958553073  0.3750000000000000
  0.7760099310288405  0.7214635271816107  0.3750000000000000
  0.6121603655836144  0.2227049958553073  0.3750000000000000
  0.9445022163202283  0.2223377659737930  0.3750000000000000
  0.1111253768353729  0.3889053152367367  0.8750000000000000
  0.2777723802133679  0.8888780937600644  0.8750000000000000
  0.6111107609536099  0.8888547783940015  0.8750000000000000
  0.4444970643402881  0.3889497661834772  0.8750000000000000
  0.9444106841070626  0.8888547783940015  0.8750000000000000
  0.1109656561231576  0.8887088759648891  0.3750000000000000
  0.7777753259090575  0.3889269762129452  0.8750000000000000
  0.4444098865084032  0.8887088759648891  0.3750000000000000
  0.2787693940582175  0.3878960514071987  0.3750000000000000
  0.2791701036559225  0.5555060518185387  0.3750000000000000
  0.7779582560687738  0.8892498454708770  0.3750000000000000
  0.9438959422040661  0.3890513527892810  0.3750000000000000
  0.1111222105169892  0.5555777543673069  0.8750000000000000
  0.2777655059426609  0.0555409396519524  0.8750000000000000
  0.7777633223267811  0.5556050428038734  0.8750000000000000
  0.6111093188861555  0.0555296050755169  0.8750000000000000
  0.9444185081021338  0.0555157315684002  0.8750000000000000
  0.0554939863241466  0.1110726581646962  0.1249790777454043
  0.5557202229658209  0.6110788352689440  0.1256059374810682
  0.3888803074978480  0.1110939483290387  0.1249511389487370
  0.8887707587715902  0.6111035840201138  0.1251279662700850
  0.7222453385072145  0.1110726581646962  0.1249790777454043
  0.0554340145871941  0.7776929314030953  0.6249854580099015
  0.3889255834825655  0.7776929314030953  0.6249854580099015
  0.2222059549160257  0.2778442816938024  0.6250701398865950
  0.7221541307349714  0.7776415948032797  0.6247008192005393
  0.5556696558988846  0.2779710694239980  0.6253429174558742
  0.8889275105910049  0.2778082712906296  0.6250203152047299
  0.2221875080669100  0.7777083494671558  0.1249926764404374
  0.0555474273662883  0.2778082712906296  0.1249796847952699
  0.3889680801917778  0.2779710694239980  0.1246570825441261
  0.5556252491517817  0.7776553125786723  0.1251703130543917
  0.8886967300935551  0.7776553125786723  0.1251703130543917
  0.7223049934444415  0.2778442816938024  0.1249298601134052
  0.0554354598046507  0.9443424098028159  0.6250017067191825
  0.3888728753342268  0.9443530868967673  0.6250219837136685
  0.2222496012591920  0.4445168944434318  0.6250044585023803
  0.5557297987366404  0.4447929308066088  0.6249982011640548
  0.7222149976867450  0.9443491977242495  0.6249764161633777
  0.8889339598509042  0.4445168944434318  0.6250044585023803
  0.0555767349370246  0.4444868032073780  0.1249867423363299
  0.2221468782292043  0.9443530868967673  0.1249780162863319
  0.5555736166648376  0.9443424098028159  0.1249982932808175
  0.3890375016895824  0.4446146673347638  0.1248112738677313
  0.8888008667041689  0.9443491977242495  0.1250235838366218
  0.7222438323118461  0.4446146673347638  0.1248112738677313
  0.2222455838662094  0.6111069101446732  0.6250031329236926
  0.0554939863241466  0.1110726581646962  0.6250209222545967
  0.5557202229658209  0.6110788352689440  0.6243940625189313
  0.3888803074978480  0.1110939483290387  0.6250488610512632
  0.8887707587715902  0.6111035840201138  0.6248720337299151
  0.0555279929451279  0.6111069101446732  0.1249968670763074
  0.7222453385072145  0.1110726581646962  0.6250209222545967
  0.2221631192126363  0.1110739583737123  0.1249718459997072
  0.3889994919151809  0.6111035840201138  0.1251279662700850
  0.7220252789697879  0.6110788352689440  0.1256059374810682
  0.5555775058277407  0.1110739583737123  0.1249718459997072
  0.3889994919151809  0.6111035840201138  0.6248720337299151
  0.8888723975160111  0.1110781283653654  0.1249958716907498
  0.2221875080669100  0.7777083494671558  0.6250073235595628
  0.0555474273662883  0.2778082712906296  0.6250203152047299
  0.3889680801917778  0.2779710694239980  0.6253429174558742
  0.5556252491517817  0.7776553125786723  0.6248296869456084
  0.8886967300935551  0.7776553125786723  0.6248296869456084
  0.7223049934444415  0.2778442816938024  0.6250701398865950
  0.0554340145871941  0.7776929314030953  0.1250145419900985
  0.3889255834825655  0.7776929314030953  0.1250145419900985
  0.2222059549160257  0.2778442816938024  0.1249298601134052
  0.7221541307349714  0.7776415948032797  0.1252991807994608
  0.5556696558988846  0.2779710694239980  0.1246570825441261
  0.8889275105910049  0.2778082712906296  0.1249796847952699
  0.0555767349370246  0.4444868032073780  0.6250132576636709
  0.2221468782292043  0.9443530868967673  0.6250219837136685
  0.5555736166648376  0.9443424098028159  0.6250017067191825
  0.3890375016895824  0.4446146673347638  0.6251887261322681
  0.8888008667041689  0.9443491977242495  0.6249764161633777
  0.0554354598046507  0.9443424098028159  0.1249982932808175
  0.7222438323118461  0.4446146673347638  0.6251887261322681
  0.3888728753342268  0.9443530868967673  0.1249780162863319
  0.2222496012591920  0.4445168944434318  0.1249955414976201
  0.2222455838662094  0.6111069101446732  0.1249968670763074
  0.5557297987366404  0.4447929308066088  0.1250017988359456
  0.7222149976867450  0.9443491977242495  0.1250235838366218
  0.8889339598509042  0.4445168944434318  0.1249955414976201
  0.0555279929451279  0.6111069101446732  0.6250031329236926
  0.2221631192126363  0.1110739583737123  0.6250281540002928
  0.7220252789697879  0.6110788352689440  0.6243940625189313
  0.5555775058277407  0.1110739583737123  0.6250281540002928
  0.8888723975160111  0.1110781283653654  0.6250041283092506
 
  0.00000000E+00  0.00000000E+00  0.00000000E+00
  0.00000000E+00  0.00000000E+00  0.00000000E+00
  0.00000000E+00  0.00000000E+00  0.00000000E+00
  0.00000000E+00  0.00000000E+00  0.00000000E+00
  0.00000000E+00  0.00000000E+00  0.00000000E+00
  0.00000000E+00  0.00000000E+00  0.00000000E+00
  0.00000000E+00  0.00000000E+00  0.00000000E+00
  0.00000000E+00  0.00000000E+00  0.00000000E+00
  0.00000000E+00  0.00000000E+00  0.00000000E+00
  0.00000000E+00  0.00000000E+00  0.00000000E+00
  0.00000000E+00  0.00000000E+00  0.00000000E+00
  0.00000000E+00  0.00000000E+00  0.00000000E+00
  0.00000000E+00  0.00000000E+00  0.00000000E+00
  0.00000000E+00  0.00000000E+00  0.00000000E+00
  0.00000000E+00  0.00000000E+00  0.00000000E+00
  0.00000000E+00  0.00000000E+00  0.00000000E+00
  0.00000000E+00  0.00000000E+00  0.00000000E+00
  0.00000000E+00  0.00000000E+00  0.00000000E+00
  0.00000000E+00  0.00000000E+00  0.00000000E+00
  0.00000000E+00  0.00000000E+00  0.00000000E+00
  0.00000000E+00  0.00000000E+00  0.00000000E+00
  0.00000000E+00  0.00000000E+00  0.00000000E+00
  0.00000000E+00  0.00000000E+00  0.00000000E+00
  0.00000000E+00  0.00000000E+00  0.00000000E+00
  0.00000000E+00  0.00000000E+00  0.00000000E+00
  0.00000000E+00  0.00000000E+00  0.00000000E+00
  0.00000000E+00  0.00000000E+00  0.00000000E+00
  0.00000000E+00  0.00000000E+00  0.00000000E+00
  0.00000000E+00  0.00000000E+00  0.00000000E+00
  0.00000000E+00  0.00000000E+00  0.00000000E+00
  0.00000000E+00  0.00000000E+00  0.00000000E+00
  0.00000000E+00  0.00000000E+00  0.00000000E+00
  0.00000000E+00  0.00000000E+00  0.00000000E+00
  0.00000000E+00  0.00000000E+00  0.00000000E+00
  0.00000000E+00  0.00000000E+00  0.00000000E+00
  0.00000000E+00  0.00000000E+00  0.00000000E+00
  0.00000000E+00  0.00000000E+00  0.00000000E+00
  0.00000000E+00  0.00000000E+00  0.00000000E+00
  0.00000000E+00  0.00000000E+00  0.00000000E+00
  0.00000000E+00  0.00000000E+00  0.00000000E+00
  0.00000000E+00  0.00000000E+00  0.00000000E+00
  0.00000000E+00  0.00000000E+00  0.00000000E+00
  0.00000000E+00  0.00000000E+00  0.00000000E+00
  0.00000000E+00  0.00000000E+00  0.00000000E+00
  0.00000000E+00  0.00000000E+00  0.00000000E+00
  0.00000000E+00  0.00000000E+00  0.00000000E+00
  0.00000000E+00  0.00000000E+00  0.00000000E+00
  0.00000000E+00  0.00000000E+00  0.00000000E+00
  0.00000000E+00  0.00000000E+00  0.00000000E+00
  0.00000000E+00  0.00000000E+00  0.00000000E+00
  0.00000000E+00  0.00000000E+00  0.00000000E+00
  0.00000000E+00  0.00000000E+00  0.00000000E+00
  0.00000000E+00  0.00000000E+00  0.00000000E+00
  0.00000000E+00  0.00000000E+00  0.00000000E+00
  0.00000000E+00  0.00000000E+00  0.00000000E+00
  0.00000000E+00  0.00000000E+00  0.00000000E+00
  0.00000000E+00  0.00000000E+00  0.00000000E+00
  0.00000000E+00  0.00000000E+00  0.00000000E+00
  0.00000000E+00  0.00000000E+00  0.00000000E+00
  0.00000000E+00  0.00000000E+00  0.00000000E+00
  0.00000000E+00  0.00000000E+00  0.00000000E+00
  0.00000000E+00  0.00000000E+00  0.00000000E+00
  0.00000000E+00  0.00000000E+00  0.00000000E+00
  0.00000000E+00  0.00000000E+00  0.00000000E+00
  0.00000000E+00  0.00000000E+00  0.00000000E+00
  0.00000000E+00  0.00000000E+00  0.00000000E+00
  0.00000000E+00  0.00000000E+00  0.00000000E+00
  0.00000000E+00  0.00000000E+00  0.00000000E+00
  0.00000000E+00  0.00000000E+00  0.00000000E+00
  0.00000000E+00  0.00000000E+00  0.00000000E+00
  0.00000000E+00  0.00000000E+00  0.00000000E+00
  0.00000000E+00  0.00000000E+00  0.00000000E+00
  0.00000000E+00  0.00000000E+00  0.00000000E+00
  0.00000000E+00  0.00000000E+00  0.00000000E+00
  0.00000000E+00  0.00000000E+00  0.00000000E+00
  0.00000000E+00  0.00000000E+00  0.00000000E+00
  0.00000000E+00  0.00000000E+00  0.00000000E+00
  0.00000000E+00  0.00000000E+00  0.00000000E+00
  0.00000000E+00  0.00000000E+00  0.00000000E+00
  0.00000000E+00  0.00000000E+00  0.00000000E+00
  0.00000000E+00  0.00000000E+00  0.00000000E+00
  0.00000000E+00  0.00000000E+00  0.00000000E+00
  0.00000000E+00  0.00000000E+00  0.00000000E+00
  0.00000000E+00  0.00000000E+00  0.00000000E+00
  0.00000000E+00  0.00000000E+00  0.00000000E+00
  0.00000000E+00  0.00000000E+00  0.00000000E+00
  0.00000000E+00  0.00000000E+00  0.00000000E+00
  0.00000000E+00  0.00000000E+00  0.00000000E+00
  0.00000000E+00  0.00000000E+00  0.00000000E+00
  0.00000000E+00  0.00000000E+00  0.00000000E+00
  0.00000000E+00  0.00000000E+00  0.00000000E+00
  0.00000000E+00  0.00000000E+00  0.00000000E+00
  0.00000000E+00  0.00000000E+00  0.00000000E+00
  0.00000000E+00  0.00000000E+00  0.00000000E+00
  0.00000000E+00  0.00000000E+00  0.00000000E+00
  0.00000000E+00  0.00000000E+00  0.00000000E+00
  0.00000000E+00  0.00000000E+00  0.00000000E+00
  0.00000000E+00  0.00000000E+00  0.00000000E+00
  0.00000000E+00  0.00000000E+00  0.00000000E+00
  0.00000000E+00  0.00000000E+00  0.00000000E+00
  0.00000000E+00  0.00000000E+00  0.00000000E+00
  0.00000000E+00  0.00000000E+00  0.00000000E+00
  0.00000000E+00  0.00000000E+00  0.00000000E+00
  0.00000000E+00  0.00000000E+00  0.00000000E+00
  0.00000000E+00  0.00000000E+00  0.00000000E+00
  0.00000000E+00  0.00000000E+00  0.00000000E+00
  0.00000000E+00  0.00000000E+00  0.00000000E+00
  0.00000000E+00  0.00000000E+00  0.00000000E+00
  0.00000000E+00  0.00000000E+00  0.00000000E+00
  0.00000000E+00  0.00000000E+00  0.00000000E+00
  0.00000000E+00  0.00000000E+00  0.00000000E+00
  0.00000000E+00  0.00000000E+00  0.00000000E+00
  0.00000000E+00  0.00000000E+00  0.00000000E+00
  0.00000000E+00  0.00000000E+00  0.00000000E+00
  0.00000000E+00  0.00000000E+00  0.00000000E+00
  0.00000000E+00  0.00000000E+00  0.00000000E+00
  0.00000000E+00  0.00000000E+00  0.00000000E+00
  0.00000000E+00  0.00000000E+00  0.00000000E+00
  0.00000000E+00  0.00000000E+00  0.00000000E+00
  0.00000000E+00  0.00000000E+00  0.00000000E+00
  0.00000000E+00  0.00000000E+00  0.00000000E+00
  0.00000000E+00  0.00000000E+00  0.00000000E+00
  0.00000000E+00  0.00000000E+00  0.00000000E+00
  0.00000000E+00  0.00000000E+00  0.00000000E+00
  0.00000000E+00  0.00000000E+00  0.00000000E+00
  0.00000000E+00  0.00000000E+00  0.00000000E+00
  0.00000000E+00  0.00000000E+00  0.00000000E+00
  0.00000000E+00  0.00000000E+00  0.00000000E+00
  0.00000000E+00  0.00000000E+00  0.00000000E+00
  0.00000000E+00  0.00000000E+00  0.00000000E+00
  0.00000000E+00  0.00000000E+00  0.00000000E+00
  0.00000000E+00  0.00000000E+00  0.00000000E+00
  0.00000000E+00  0.00000000E+00  0.00000000E+00
  0.00000000E+00  0.00000000E+00  0.00000000E+00
  0.00000000E+00  0.00000000E+00  0.00000000E+00
  0.00000000E+00  0.00000000E+00  0.00000000E+00
  0.00000000E+00  0.00000000E+00  0.00000000E+00
  0.00000000E+00  0.00000000E+00  0.00000000E+00
  0.00000000E+00  0.00000000E+00  0.00000000E+00
  0.00000000E+00  0.00000000E+00  0.00000000E+00
  0.00000000E+00  0.00000000E+00  0.00000000E+00
  0.00000000E+00  0.00000000E+00  0.00000000E+00
  0.00000000E+00  0.00000000E+00  0.00000000E+00
  0.00000000E+00  0.00000000E+00  0.00000000E+00
  0.00000000E+00  0.00000000E+00  0.00000000E+00
  0.00000000E+00  0.00000000E+00  0.00000000E+00
  0.00000000E+00  0.00000000E+00  0.00000000E+00
  0.00000000E+00  0.00000000E+00  0.00000000E+00
  0.00000000E+00  0.00000000E+00  0.00000000E+00
  0.00000000E+00  0.00000000E+00  0.00000000E+00
  0.00000000E+00  0.00000000E+00  0.00000000E+00
  0.00000000E+00  0.00000000E+00  0.00000000E+00
  0.00000000E+00  0.00000000E+00  0.00000000E+00
  0.00000000E+00  0.00000000E+00  0.00000000E+00
  0.00000000E+00  0.00000000E+00  0.00000000E+00
  0.00000000E+00  0.00000000E+00  0.00000000E+00
  0.00000000E+00  0.00000000E+00  0.00000000E+00
  0.00000000E+00  0.00000000E+00  0.00000000E+00
  0.00000000E+00  0.00000000E+00  0.00000000E+00
  0.00000000E+00  0.00000000E+00  0.00000000E+00
  0.00000000E+00  0.00000000E+00  0.00000000E+00
  0.00000000E+00  0.00000000E+00  0.00000000E+00
  0.00000000E+00  0.00000000E+00  0.00000000E+00
  0.00000000E+00  0.00000000E+00  0.00000000E+00
  0.00000000E+00  0.00000000E+00  0.00000000E+00
  0.00000000E+00  0.00000000E+00  0.00000000E+00
  0.00000000E+00  0.00000000E+00  0.00000000E+00
  0.00000000E+00  0.00000000E+00  0.00000000E+00
  0.00000000E+00  0.00000000E+00  0.00000000E+00
  0.00000000E+00  0.00000000E+00  0.00000000E+00
  0.00000000E+00  0.00000000E+00  0.00000000E+00
  0.00000000E+00  0.00000000E+00  0.00000000E+00
  0.00000000E+00  0.00000000E+00  0.00000000E+00
  0.00000000E+00  0.00000000E+00  0.00000000E+00
  0.00000000E+00  0.00000000E+00  0.00000000E+00
  0.00000000E+00  0.00000000E+00  0.00000000E+00
  0.00000000E+00  0.00000000E+00  0.00000000E+00
  0.00000000E+00  0.00000000E+00  0.00000000E+00
  0.00000000E+00  0.00000000E+00  0.00000000E+00
  0.00000000E+00  0.00000000E+00  0.00000000E+00
  0.00000000E+00  0.00000000E+00  0.00000000E+00
  0.00000000E+00  0.00000000E+00  0.00000000E+00
  0.00000000E+00  0.00000000E+00  0.00000000E+00
  0.00000000E+00  0.00000000E+00  0.00000000E+00
  0.00000000E+00  0.00000000E+00  0.00000000E+00
  0.00000000E+00  0.00000000E+00  0.00000000E+00
  0.00000000E+00  0.00000000E+00  0.00000000E+00
  0.00000000E+00  0.00000000E+00  0.00000000E+00
  0.00000000E+00  0.00000000E+00  0.00000000E+00
  0.00000000E+00  0.00000000E+00  0.00000000E+00
  0.00000000E+00  0.00000000E+00  0.00000000E+00
  0.00000000E+00  0.00000000E+00  0.00000000E+00
  0.00000000E+00  0.00000000E+00  0.00000000E+00
  0.00000000E+00  0.00000000E+00  0.00000000E+00
  0.00000000E+00  0.00000000E+00  0.00000000E+00
  0.00000000E+00  0.00000000E+00  0.00000000E+00
  0.00000000E+00  0.00000000E+00  0.00000000E+00
  0.00000000E+00  0.00000000E+00  0.00000000E+00
  0.00000000E+00  0.00000000E+00  0.00000000E+00
  0.00000000E+00  0.00000000E+00  0.00000000E+00
  0.00000000E+00  0.00000000E+00  0.00000000E+00
  0.00000000E+00  0.00000000E+00  0.00000000E+00
  0.00000000E+00  0.00000000E+00  0.00000000E+00
  0.00000000E+00  0.00000000E+00  0.00000000E+00
  0.00000000E+00  0.00000000E+00  0.00000000E+00
  0.00000000E+00  0.00000000E+00  0.00000000E+00
  0.00000000E+00  0.00000000E+00  0.00000000E+00
  0.00000000E+00  0.00000000E+00  0.00000000E+00
  0.00000000E+00  0.00000000E+00  0.00000000E+00
  0.00000000E+00  0.00000000E+00  0.00000000E+00
  0.00000000E+00  0.00000000E+00  0.00000000E+00
  0.00000000E+00  0.00000000E+00  0.00000000E+00
  0.00000000E+00  0.00000000E+00  0.00000000E+00
  0.00000000E+00  0.00000000E+00  0.00000000E+00
  0.00000000E+00  0.00000000E+00  0.00000000E+00
  0.00000000E+00  0.00000000E+00  0.00000000E+00
  0.00000000E+00  0.00000000E+00  0.00000000E+00
  0.00000000E+00  0.00000000E+00  0.00000000E+00
  0.00000000E+00  0.00000000E+00  0.00000000E+00
  0.00000000E+00  0.00000000E+00  0.00000000E+00
  0.00000000E+00  0.00000000E+00  0.00000000E+00
  0.00000000E+00  0.00000000E+00  0.00000000E+00
  0.00000000E+00  0.00000000E+00  0.00000000E+00
  0.00000000E+00  0.00000000E+00  0.00000000E+00
  0.00000000E+00  0.00000000E+00  0.00000000E+00
  0.00000000E+00  0.00000000E+00  0.00000000E+00
  0.00000000E+00  0.00000000E+00  0.00000000E+00
  0.00000000E+00  0.00000000E+00  0.00000000E+00
  0.00000000E+00  0.00000000E+00  0.00000000E+00
  0.00000000E+00  0.00000000E+00  0.00000000E+00
  0.00000000E+00  0.00000000E+00  0.00000000E+00
  0.00000000E+00  0.00000000E+00  0.00000000E+00
  0.00000000E+00  0.00000000E+00  0.00000000E+00
  0.00000000E+00  0.00000000E+00  0.00000000E+00
  0.00000000E+00  0.00000000E+00  0.00000000E+00
  0.00000000E+00  0.00000000E+00  0.00000000E+00
  0.00000000E+00  0.00000000E+00  0.00000000E+00
  0.00000000E+00  0.00000000E+00  0.00000000E+00
  0.00000000E+00  0.00000000E+00  0.00000000E+00
  0.00000000E+00  0.00000000E+00  0.00000000E+00
  0.00000000E+00  0.00000000E+00  0.00000000E+00
  0.00000000E+00  0.00000000E+00  0.00000000E+00
  0.00000000E+00  0.00000000E+00  0.00000000E+00
  0.00000000E+00  0.00000000E+00  0.00000000E+00
  0.00000000E+00  0.00000000E+00  0.00000000E+00
  0.00000000E+00  0.00000000E+00  0.00000000E+00
  0.00000000E+00  0.00000000E+00  0.00000000E+00
  0.00000000E+00  0.00000000E+00  0.00000000E+00