 B N C 
 1.0
 14.936314146199660   0.000000000000000   0.000000000000000
 -7.468157073099825  12.935227489513863   0.000000000000000
  0.000000000000001   0.000000000000001  13.341276283792837
 B N C 
 141 143   3
Cartesian
  1.246950405764853   0.721121027227538   5.002978606422314 
  6.219404706382946   0.727410449486643   5.002978606422314 
  9.936376845739451   7.185597152074479   5.002978606422314 
 11.201939510030240   0.718796612301790   5.002978606422314 
 -3.734235740129854   9.342216141533592  11.673616748318732 
  1.245089224554823   9.342164711658889  11.673616748318732 
  2.489446149371036   2.874597663075316  11.673616748318732 
  6.223211796785079   9.341889782952610  11.673616748318732 
  7.468096614762154   2.874597663075316  11.673616748318732 
 12.446928455166379   2.874302361851680  11.673616748318732 
 -1.239919001090297   9.339542629046191   5.002978606422314 
 -0.005255563614047   2.871566412207360   5.002978606422314 
  4.978771382066542   2.904743182732065   5.002978606422314 
  3.754817597220589   9.332294849481206   5.002978606422314 
  8.696798625233004   9.330802739388767   5.002978606422314 
  9.962798327747223   2.871566412207360   5.002978606422314 
 -4.979003661054992  11.497786218921380  11.673616748318732 
  0.000232278988529  11.497786218921380  11.673616748318732 
  1.245013909516710   5.030858914123192  11.673616748318732 
  6.223132921486799   5.031153707576502  11.673616748318732 
  4.978771382066599  11.497358906696272  11.673616748318732 
 11.202145206856596   5.030578724468296  11.673616748318732 
 -1.235286937817533   5.032467753432464   5.002978606422314 
 -2.489385691033239  11.498570714051340   5.002978606422314 
  2.490078733089219  11.496053540163151   5.002978606422314 
  7.467464031043933  11.496053540163151   5.002978606422314 
  8.690624160078087   5.017523667236285   5.002978606422314 
  0.000350364481908   7.186656213636261  11.673616748318732 
  1.244525812490604   0.718288074054677  11.673616748318732 
  4.978771382066581   7.186815641183475  11.673616748318732 
  6.223538369703745   0.718434689379361  11.673616748318732 
  9.957192399651181   7.186656213636261  11.673616748318732 
 -2.489385691033247   7.186441332500831   5.002978606422314 
 11.202325591214903   0.718108617084042  11.673616748318732 
  3.738138057750108   0.727410449486643   5.002978606422314 
  2.561976312567523   7.184323021453393   5.002978606422314 
  7.395566451565564   7.184323021453393   5.002978606422314 
  8.710592358368332   0.721121027227538   5.002978606422314 
  2.489971180734019   7.186877622989186  11.673616748318732 
 13.691917400302488   0.718796612301790   5.002978606422314 
 -1.244535641936625   9.342216141533592  11.673616748318732 
  0.000000317073187   2.874379222588807  11.673616748318732 
  4.978771382066536   2.874693021041286  11.673616748318732 
  3.734330967348101   9.341889782952610  11.673616748318732 
  8.712453539578270   9.342164711658889  11.673616748318732 
  9.957542447060002   2.874379222588807  11.673616748318732 
 -3.738852380976154   9.339542629046191   5.002978606422314 
  1.260744138900069   9.330802739388767   5.002978606422314 
  2.477319125935378   2.880739784439639   5.002978606422314 
  6.202725166912604   9.332294849481206   5.002978606422314 
  7.480223638197812   2.880739784439639   5.002978606422314 
 12.446928455166358   2.875989582381308   5.002978606422314 
 -1.244602442723404   5.030578724468296  11.673616748318732 
 -2.489385691033232  11.497840353231863  11.673616748318732 
  2.489635203504502  11.497538763667849  11.673616748318732 
  3.734409842646408   5.031153707576502  11.673616748318732 
  7.467907560628682  11.497538763667849  11.673616748318732 
 -4.979599578669129  11.495651482555999   5.002978606422314 
  8.712528854616481   5.030858914123192  11.673616748318732 
  0.000828196602665  11.495651482555999   5.002978606422314 
  1.266918604055087   5.017523667236285   5.002978606422314 
  0.021165918393594   7.185597152074479   5.002978606422314 
  4.978771382066591  11.502649046180844   5.002978606422314 
 11.192829701950725   5.032467753432464   5.002978606422314 
 -2.489385691033240   7.186524640854372  11.673616748318732 
  3.734004394429338   0.718434689379361  11.673616748318732 
  7.467571583399071   7.186877622989186  11.673616748318732 
  8.713016951642555   0.718288074054677  11.673616748318732 
 13.691531319117825   0.718108617084042  11.673616748318732 
 -0.000632444738306   1.436750101225352   1.667380405895059 
  3.736779101778254   7.904443748230959   1.675743514819738 
  4.978771382066482   1.437025494344418   1.667007666689688 
  8.711141703572238   7.904763878957423   1.669366768838315 
  9.958175208871403   1.436750101225352   1.667380405895059 
 -4.979953110098416  10.059634984685934   8.338103668662896 
  0.001181728031847  10.059634984685934   8.338103668662896 
  1.243953210230136   3.593978990369902   8.339233432976101 
  4.978771382066524  10.058970934088789   8.334306223666108 
  6.223724933780461   3.595619018502866   8.342872633891874 
 11.202584745181722   3.593513187612883   8.338568708129587 
 -2.489385691033291  10.059834420852010   1.667561829842594 
 -1.245041981048668   3.593513187612882   1.667388504715040 
  3.733817830352624   3.595619018502866   1.663084578952754 
  2.491341245823407  10.059148376634134   1.669931728987485 
  7.466201518309682  10.059148376634134   1.669931728987485 
  8.713589553902963   3.593978990369901   1.666723779868527 
 -6.224496004715742  12.215283898795152   8.338320447182682 
 -1.244249756483792  12.215422009434334   8.338590968168312 
 -0.000132126075181   5.749927152558015   8.338357159482586 
  4.978771382066587   5.753497745711087   8.338273678603192 
  3.734681946085584  12.215371702103081   8.337983038890316 
  9.957674890208253   5.749927152558015   8.338357159482586 
 -2.489385691033234   5.749537915574215   1.667482661320206 
 -3.734521625582791  12.215422009434334   1.667366244676316 
  1.245724622649293  12.215283898795152   1.667636765661959 
  2.490334167228234   5.751191867149701   1.665141688001532 
  6.222860818047497  12.215371702103081   1.667974173954310 
  7.467208596904836   5.751191867149701   1.665141688001532 
 -1.244312535185858   7.904806903135253   8.338339474571088 
 -0.000632444738306   1.436750101225353   8.338576806949582 
  3.736779101778254   7.904443748230960   8.330213698024876 
  4.978771382066483   1.437025494344419   8.338949546154939 
  8.711141703572238   7.904763878957424   8.336590444006312 
 -3.734458846880728   7.904806903135253   1.667617738273540 
  9.958175208871403   1.436750101225353   8.338576806949582 
  2.488780372393704   1.436766919724758   1.667283925177702 
  1.246401060560731   7.904763878957423   1.669366768838315 
  6.220763662354832   7.904443748230959   1.675743514819738 
  7.468762391739380   1.436766919724758   1.667283925177702 
  1.246401060560732   7.904763878957424   8.336590444006312 
 12.446928455166312   1.436820859515419   1.667604458559815 
 -2.489385691033291  10.059834420852010   8.338395383002034 
 -1.245041981048667   3.593513187612883   8.338568708129587 
  3.733817830352624   3.595619018502866   8.342872633891874 
  2.491341245823408  10.059148376634134   8.336025483857144 
  7.466201518309683  10.059148376634134   8.336025483857144 
  8.713589553902963   3.593978990369902   8.339233432976101 
 -4.979953110098417  10.059634984685934   1.667853544181732 
  0.001181728031846  10.059634984685934   1.667853544181732 
  1.243953210230135   3.593978990369901   1.666723779868527 
  4.978771382066523  10.058970934088789   1.671650989178520 
  6.223724933780460   3.595619018502866   1.663084578952754 
 11.202584745181722   3.593513187612882   1.667388504715040 
 -2.489385691033234   5.749537915574216   8.338474551524435 
 -3.734521625582790  12.215422009434334   8.338590968168312 
  1.245724622649294  12.215283898795152   8.338320447182682 
  2.490334167228235   5.751191867149702   8.340815524843082 
  6.222860818047498  12.215371702103081   8.337983038890316 
 -6.224496004715743  12.215283898795152   1.667636765661959 
  7.467208596904837   5.751191867149702   8.340815524843082 
 -1.244249756483793  12.215422009434334   1.667366244676316 
 -0.000132126075182   5.749927152558014   1.667600053362041 
 -1.244312535185859   7.904806903135253   1.667617738273540 
  4.978771382066586   5.753497745711086   1.667683534241450 
  3.734681946085583  12.215371702103081   1.667974173954310 
  9.957674890208253   5.749927152558014   1.667600053362041 
 -3.734458846880728   7.904806903135253   8.338339474571088 
  2.488780372393705   1.436766919724759   8.338673287666927 
  6.220763662354833   7.904443748230960   8.330213698024876 
  7.468762391739381   1.436766919724759   8.338673287666927 
 12.446928455166312   1.436820859515420   8.338352754284825 
  1.244698382970438   0.718701712856649   1.668777877899392 
  4.978771382066580   7.185907089667949   1.653801978616029 
  6.223468331647902   0.718742205004779   1.669282666349661 
  9.957564795295365   7.186051891059114   1.667993802093516 
 11.202223835068363   0.718891902719705   1.667945283023161 
 -3.734120877068247   9.341898072109862   8.338316158529681 
  1.244824720830920   9.341845414311772   8.338438515671372 
  2.489376888263390   2.874791180557917   8.335023049938256 
  6.223303149791900   9.342056990291269   8.337884397297206 
  7.468165875869785   2.874791180557917   8.335023049938256 
 12.446928455166356   2.874724475758836   8.337535534475423 
 -1.244650504998218   9.341898072109862   1.667641054314946 
 -0.000061011760401   2.874652693262371   1.669051448877165 
  4.978771382066527   2.874905575442579   1.670987284341940 
  3.734239614341297   9.342056990291269   1.668072815547408 
  8.712718043302155   9.341845414311772   1.667518697173256 
  9.957603775893590   2.874652693262371   1.669051448877165 
 -4.978857862270535  11.497866227754283   8.338103256218194 
  0.000086480204057  11.497866227754283   8.338103256218194 
  1.244580333666338   5.030394386679989   8.335910165976742 
  6.223772332868091   5.030347332971433   8.341558325337136 
  4.978771382066583  11.498224677988254   8.338849791261287 
 11.202331546321965   5.030447582748454   8.337334979480769 
 -1.244788782188761   5.030447582748453   1.668622233363846 
 -2.489385691033232  11.497889590873935   1.668033918892399 
  2.489508579287337  11.497945265060475   1.667496798291913 
  3.733770431265086   5.030347332971432   1.664398887507492 
  7.468034184845843  11.497945265060475   1.667496798291913 
  8.712962430466838   5.030394386679988   1.670047046867887 
 -0.000022031162307   7.186051891059114   8.337963410751099 
  1.244698382970439   0.718701712856649   8.337179334945223 
  4.978771382066581   7.185907089667950   8.352155234228599 
  6.223468331647902   0.718742205004779   8.336674546494965 
  9.957564795295365   7.186051891059114   8.337963410751099 
 -2.489385691033257   7.186129524748209   1.667882835859565 
 11.202223835068363   0.718891902719706   8.338011929821466 
  3.734074432485181   0.718742205004779   1.669282666349661 
  2.489323352730265   7.185807137881393   1.668245080743515 
  7.468219411402776   7.185807137881393   1.668245080743515 
  8.712844381162748   0.718701712856649   1.668777877899392 
  2.489323352730266   7.185807137881394   8.337712132101126 
 13.691633075264379   0.718891902719705   1.667945283023161 
 -1.244650504998218   9.341898072109862   8.338316158529681 
 -0.000061011760400   2.874652693262372   8.336905763967490 
  4.978771382066528   2.874905575442580   8.334969928502687 
  3.734239614341297   9.342056990291269   8.337884397297206 
  8.712718043302155   9.341845414311772   8.338438515671372 
  9.957603775893590   2.874652693262372   8.336905763967490 
 -3.734120877068247   9.341898072109862   1.667641054314946 
  1.244824720830920   9.341845414311772   1.667518697173256 
  2.489376888263390   2.874791180557916   1.670934162906371 
  6.223303149791899   9.342056990291269   1.668072815547408 
  7.468165875869784   2.874791180557916   1.670934162906371 
 12.446928455166356   2.874724475758835   1.668421678369205 
 -1.244788782188760   5.030447582748454   8.337334979480769 
 -2.489385691033231  11.497889590873935   8.337923293952242 
  2.489508579287337  11.497945265060475   8.338460414552742 
  3.733770431265086   5.030347332971433   8.341558325337136 
  7.468034184845844  11.497945265060475   8.338460414552742 
 -4.978857862270536  11.497866227754283   1.667853956626447 
  8.712962430466838   5.030394386679989   8.335910165976742 
  0.000086480204057  11.497866227754283   1.667853956626447 
  1.244580333666337   5.030394386679988   1.670047046867887 
 -0.000022031162308   7.186051891059114   1.667993802093516 
  6.223772332868090   5.030347332971432   1.664398887507492 
  4.978771382066582  11.498224677988254   1.667107421583341 
 11.202331546321965   5.030447582748453   1.668622233363846 
 -2.489385691033256   7.186129524748210   8.338074376985075 
  3.734074432485181   0.718742205004779   8.336674546494965 
  7.468219411402777   7.185807137881394   8.337712132101126 
  8.712844381162748   0.718701712856649   8.337179334945223 
 13.691633075264379   0.718891902719706   8.338011929821466 
  0.003539000895200   1.440322702649651   5.002978606422314 
  3.725547617834100   7.931023487158560   5.002978606422314 
  4.978771382066475   1.469214885001468   5.002978606422314 
  8.685957897731765   7.884483673031611   5.002978606422314 
  9.954003763237854   1.440322702649651   5.002978606422314 
 -4.978714490469197  10.060870019147099  11.673616748318732 
 -0.000056891597370  10.060870019147099  11.673616748318732 
  1.244744244667906   3.593117044375437  11.673616748318732 
  4.978771382066509  10.060821743719179  11.673616748318732 
  6.223433564384738   3.593077500603106  11.673616748318732 
 11.202211299516790   3.593126807933368  11.673616748318732 
 -2.489385691033284  10.059827587501861   5.002978606422314 
 -1.242487991371413   3.595403151214668   5.002978606422314 
  3.729089578068016   3.638142175539095   5.002978606422314 
  2.491527527852281  10.063164324130948   5.002978606422314 
  7.466015236280779  10.063164324130948   5.002978606422314 
  8.711239570828464   3.590256276427035   5.002978606422314 
 -6.223426905970063  12.216694918479069  11.673616748318732 
 -1.244702437148243  12.216707429123188  11.673616748318732 
  0.000005926319186   5.749029986683951  11.673616748318732 
  4.978771382066589   5.748943888658015  11.673616748318732 
  3.734047894342949  12.216653246999098  11.673616748318732 
  9.957536837813873   5.749029986683951  11.673616748318732 
 -2.489385691033242   5.747094576695301   5.002978606422314 
 -3.731920474790762  12.225385735631752   5.002978606422314 
  1.240671440924774  12.222034188598878   5.002978606422314 
  2.557005463223843   5.700791331953684   5.002978606422314 
  6.226328831239695  12.224198055515238   5.002978606422314 
  7.400537300909243   5.700791331953684   5.002978606422314 
 -1.244718231803920   7.904923672087230  11.673616748318732 
  0.000041555702406   1.437233036503414  11.673616748318732 
  3.734034024785130   7.904938176353313  11.673616748318732 
  4.978771382066483   1.437247585323452  11.673616748318732 
  8.712889019028502   7.904938063227350  11.673616748318732 
 -3.742625127935877   7.899092955369587   5.002978606422314 
  9.957501208430662   1.437233036503414  11.673616748318732 
  2.497726640142024   1.451945984770210   5.002978606422314 
  1.271584866401218   7.884483673031611   5.002978606422314 
  6.231995146298975   7.931023487158560   5.002978606422314 
  7.459816123991044   1.451945984770210   5.002978606422314 
  1.244653745104482   7.904938063227350  11.673616748318732 
 12.446928455166304   1.441637431531416   5.002978606422314 
 -2.489385691033292  10.060850464568857  11.673616748318732 
 -1.244668535383717   3.593126807933368  11.673616748318732 
  3.734109199748334   3.593077500603106  11.673616748318732 
  2.489328045110486  10.060839549242774  11.673616748318732 
  7.468214719022605  10.060839549242774  11.673616748318732 
  8.712798519465149   3.593117044375437  11.673616748318732 
 -4.983942057742355  10.056012317462434   5.002978606422314 
  0.005170675675786  10.056012317462434   5.002978606422314 
  1.246303193304606   3.590256276427035   5.002978606422314 
  4.978771382066516  10.081912492223616   5.002978606422314 
  6.228453186065069   3.638142175539095   5.002978606422314 
 11.200030755504470   3.595403151214668   5.002978606422314 
 -2.489385691033248   5.749028411361838  11.673616748318732 
 -3.734068944918323  12.216707429123188  11.673616748318732 
  1.244655523903601  12.216694918479069  11.673616748318732 
  2.489403515120704   5.749020255587943  11.673616748318732 
  6.223494869790145  12.216653246999098  11.673616748318732 
 -6.219442822991224  12.222034188598878   5.002978606422314 
  7.468139249012384   5.749020255587943  11.673616748318732 
 -1.246850907275806  12.225385735631752   5.002978606422314 
  0.025964250163737   5.742982063695656   5.002978606422314 
 -1.236146254130709   7.899092955369587   5.002978606422314 
  3.731213932893368  12.224198055515238   5.002978606422314 
  9.931578513969335   5.742982063695656   5.002978606422314 
 -3.734053150262666   7.904923672087230  11.673616748318732 
  2.489408319883206   1.437254592307325  11.673616748318732 
  6.223508739347931   7.904938176353313  11.673616748318732 
  7.468134444249878   1.437254592307325  11.673616748318732 
 12.446928455166313   1.437238012418641  11.673616748318732 
  6.202965971218964   5.023733238921706   5.002978606422314 
  3.754576792914229   5.023733238921706   5.002978606422314 
  4.978771382066588   5.665955289566641   5.002978606422314 
Generated by cif2cell 2.0.0.  :  Failed to get author information, No journal information. Species order: B N C 
 1.0
 14.936314146199660   0.000000000000000   0.000000000000000
 -7.468157073099825  12.935227489513863   0.000000000000000
  0.000000000000001   0.000000000000001  13.341276283792837
 B N C 
 141 143   3
Cartesian
  1.246950405764853   0.721121027227538   5.002978606422314 
  6.219404706382946   0.727410449486643   5.002978606422314 
  9.936376845739451   7.185597152074479   5.002978606422314 
 11.201939510030240   0.718796612301790   5.002978606422314 
 -3.734235740129854   9.342216141533592  11.673616748318732 
  1.245089224554823   9.342164711658889  11.673616748318732 
  2.489446149371036   2.874597663075316  11.673616748318732 
  6.223211796785079   9.341889782952610  11.673616748318732 
  7.468096614762154   2.874597663075316  11.673616748318732 
 12.446928455166379   2.874302361851680  11.673616748318732 
 -1.239919001090297   9.339542629046191   5.002978606422314 
 -0.005255563614047   2.871566412207360   5.002978606422314 
  4.978771382066542   2.904743182732065   5.002978606422314 
  3.754817597220589   9.332294849481206   5.002978606422314 
  8.696798625233004   9.330802739388767   5.002978606422314 
  9.962798327747223   2.871566412207360   5.002978606422314 
 -4.979003661054992  11.497786218921380  11.673616748318732 
  0.000232278988529  11.497786218921380  11.673616748318732 
  1.245013909516710   5.030858914123192  11.673616748318732 
  6.223132921486799   5.031153707576502  11.673616748318732 
  4.978771382066599  11.497358906696272  11.673616748318732 
 11.202145206856596   5.030578724468296  11.673616748318732 
 -1.235286937817533   5.032467753432464   5.002978606422314 
 -2.489385691033239  11.498570714051340   5.002978606422314 
  2.490078733089219  11.496053540163151   5.002978606422314 
  7.467464031043933  11.496053540163151   5.002978606422314 
  8.690624160078087   5.017523667236285   5.002978606422314 
  0.000350364481908   7.186656213636261  11.673616748318732 
  1.244525812490604   0.718288074054677  11.673616748318732 
  4.978771382066581   7.186815641183475  11.673616748318732 
  6.223538369703745   0.718434689379361  11.673616748318732 
  9.957192399651181   7.186656213636261  11.673616748318732 
 -2.489385691033247   7.186441332500831   5.002978606422314 
 11.202325591214903   0.718108617084042  11.673616748318732 
  3.738138057750108   0.727410449486643   5.002978606422314 
  2.561976312567523   7.184323021453393   5.002978606422314 
  7.395566451565564   7.184323021453393   5.002978606422314 
  8.710592358368332   0.721121027227538   5.002978606422314 
  2.489971180734019   7.186877622989186  11.673616748318732 
 13.691917400302488   0.718796612301790   5.002978606422314 
 -1.244535641936625   9.342216141533592  11.673616748318732 
  0.000000317073187   2.874379222588807  11.673616748318732 
  4.978771382066536   2.874693021041286  11.673616748318732 
  3.734330967348101   9.341889782952610  11.673616748318732 
  8.712453539578270   9.342164711658889  11.673616748318732 
  9.957542447060002   2.874379222588807  11.673616748318732 
 -3.738852380976154   9.339542629046191   5.002978606422314 
  1.260744138900069   9.330802739388767   5.002978606422314 
  2.477319125935378   2.880739784439639   5.002978606422314 
  6.202725166912604   9.332294849481206   5.002978606422314 
  7.480223638197812   2.880739784439639   5.002978606422314 
 12.446928455166358   2.875989582381308   5.002978606422314 
 -1.244602442723404   5.030578724468296  11.673616748318732 
 -2.489385691033232  11.497840353231863  11.673616748318732 
  2.489635203504502  11.497538763667849  11.673616748318732 
  3.734409842646408   5.031153707576502  11.673616748318732 
  7.467907560628682  11.497538763667849  11.673616748318732 
 -4.979599578669129  11.495651482555999   5.002978606422314 
  8.712528854616481   5.030858914123192  11.673616748318732 
  0.000828196602665  11.495651482555999   5.002978606422314 
  1.266918604055087   5.017523667236285   5.002978606422314 
  0.021165918393594   7.185597152074479   5.002978606422314 
  4.978771382066591  11.502649046180844   5.002978606422314 
 11.192829701950725   5.032467753432464   5.002978606422314 
 -2.489385691033240   7.186524640854372  11.673616748318732 
  3.734004394429338   0.718434689379361  11.673616748318732 
  7.467571583399071   7.186877622989186  11.673616748318732 
  8.713016951642555   0.718288074054677  11.673616748318732 
 13.691531319117825   0.718108617084042  11.673616748318732 
 -0.000632444738306   1.436750101225352   1.667380405895059 
  3.736779101778254   7.904443748230959   1.675743514819738 
  4.978771382066482   1.437025494344418   1.667007666689688 
  8.711141703572238   7.904763878957423   1.669366768838315 
  9.958175208871403   1.436750101225352   1.667380405895059 
 -4.979953110098416  10.059634984685934   8.338103668662896 
  0.001181728031847  10.059634984685934   8.338103668662896 
  1.243953210230136   3.593978990369902   8.339233432976101 
  4.978771382066524  10.058970934088789   8.334306223666108 
  6.223724933780461   3.595619018502866   8.342872633891874 
 11.202584745181722   3.593513187612883   8.338568708129587 
 -2.489385691033291  10.059834420852010   1.667561829842594 
 -1.245041981048668   3.593513187612882   1.667388504715040 
  3.733817830352624   3.595619018502866   1.663084578952754 
  2.491341245823407  10.059148376634134   1.669931728987485 
  7.466201518309682  10.059148376634134   1.669931728987485 
  8.713589553902963   3.593978990369901   1.666723779868527 
 -6.224496004715742  12.215283898795152   8.338320447182682 
 -1.244249756483792  12.215422009434334   8.338590968168312 
 -0.000132126075181   5.749927152558015   8.338357159482586 
  4.978771382066587   5.753497745711087   8.338273678603192 
  3.734681946085584  12.215371702103081   8.337983038890316 
  9.957674890208253   5.749927152558015   8.338357159482586 
 -2.489385691033234   5.749537915574215   1.667482661320206 
 -3.734521625582791  12.215422009434334   1.667366244676316 
  1.245724622649293  12.215283898795152   1.667636765661959 
  2.490334167228234   5.751191867149701   1.665141688001532 
  6.222860818047497  12.215371702103081   1.667974173954310 
  7.467208596904836   5.751191867149701   1.665141688001532 
 -1.244312535185858   7.904806903135253   8.338339474571088 
 -0.000632444738306   1.436750101225353   8.338576806949582 
  3.736779101778254   7.904443748230960   8.330213698024876 
  4.978771382066483   1.437025494344419   8.338949546154939 
  8.711141703572238   7.904763878957424   8.336590444006312 
 -3.734458846880728   7.904806903135253   1.667617738273540 
  9.958175208871403   1.436750101225353   8.338576806949582 
  2.488780372393704   1.436766919724758   1.667283925177702 
  1.246401060560731   7.904763878957423   1.669366768838315 
  6.220763662354832   7.904443748230959   1.675743514819738 
  7.468762391739380   1.436766919724758   1.667283925177702 
  1.246401060560732   7.904763878957424   8.336590444006312 
 12.446928455166312   1.436820859515419   1.667604458559815 
 -2.489385691033291  10.059834420852010   8.338395383002034 
 -1.245041981048667   3.593513187612883   8.338568708129587 
  3.733817830352624   3.595619018502866   8.342872633891874 
  2.491341245823408  10.059148376634134   8.336025483857144 
  7.466201518309683  10.059148376634134   8.336025483857144 
  8.713589553902963   3.593978990369902   8.339233432976101 
 -4.979953110098417  10.059634984685934   1.667853544181732 
  0.001181728031846  10.059634984685934   1.667853544181732 
  1.243953210230135   3.593978990369901   1.666723779868527 
  4.978771382066523  10.058970934088789   1.671650989178520 
  6.223724933780460   3.595619018502866   1.663084578952754 
 11.202584745181722   3.593513187612882   1.667388504715040 
 -2.489385691033234   5.749537915574216   8.338474551524435 
 -3.734521625582790  12.215422009434334   8.338590968168312 
  1.245724622649294  12.215283898795152   8.338320447182682 
  2.490334167228235   5.751191867149702   8.340815524843082 
  6.222860818047498  12.215371702103081   8.337983038890316 
 -6.224496004715743  12.215283898795152   1.667636765661959 
  7.467208596904837   5.751191867149702   8.340815524843082 
 -1.244249756483793  12.215422009434334   1.667366244676316 
 -0.000132126075182   5.749927152558014   1.667600053362041 
 -1.244312535185859   7.904806903135253   1.667617738273540 
  4.978771382066586   5.753497745711086   1.667683534241450 
  3.734681946085583  12.215371702103081   1.667974173954310 
  9.957674890208253   5.749927152558014   1.667600053362041 
 -3.734458846880728   7.904806903135253   8.338339474571088 
  2.488780372393705   1.436766919724759   8.338673287666927 
  6.220763662354833   7.904443748230960   8.330213698024876 
  7.468762391739381   1.436766919724759   8.338673287666927 
 12.446928455166312   1.436820859515420   8.338352754284825 
  1.244698382970438   0.718701712856649   1.668777877899392 
  4.978771382066580   7.185907089667949   1.653801978616029 
  6.223468331647902   0.718742205004779   1.669282666349661 
  9.957564795295365   7.186051891059114   1.667993802093516 
 11.202223835068363   0.718891902719705   1.667945283023161 
 -3.734120877068247   9.341898072109862   8.338316158529681 
  1.244824720830920   9.341845414311772   8.338438515671372 
  2.489376888263390   2.874791180557917   8.335023049938256 
  6.223303149791900   9.342056990291269   8.337884397297206 
  7.468165875869785   2.874791180557917   8.335023049938256 
 12.446928455166356   2.874724475758836   8.337535534475423 
 -1.244650504998218   9.341898072109862   1.667641054314946 
 -0.000061011760401   2.874652693262371   1.669051448877165 
  4.978771382066527   2.874905575442579   1.670987284341940 
  3.734239614341297   9.342056990291269   1.668072815547408 
  8.712718043302155   9.341845414311772   1.667518697173256 
  9.957603775893590   2.874652693262371   1.669051448877165 
 -4.978857862270535  11.497866227754283   8.338103256218194 
  0.000086480204057  11.497866227754283   8.338103256218194 
  1.244580333666338   5.030394386679989   8.335910165976742 
  6.223772332868091   5.030347332971433   8.341558325337136 
  4.978771382066583  11.498224677988254   8.338849791261287 
 11.202331546321965   5.030447582748454   8.337334979480769 
 -1.244788782188761   5.030447582748453   1.668622233363846 
 -2.489385691033232  11.497889590873935   1.668033918892399 
  2.489508579287337  11.497945265060475   1.667496798291913 
  3.733770431265086   5.030347332971432   1.664398887507492 
  7.468034184845843  11.497945265060475   1.667496798291913 
  8.712962430466838   5.030394386679988   1.670047046867887 
 -0.000022031162307   7.186051891059114   8.337963410751099 
  1.244698382970439   0.718701712856649   8.337179334945223 
  4.978771382066581   7.185907089667950   8.352155234228599 
  6.223468331647902   0.718742205004779   8.336674546494965 
  9.957564795295365   7.186051891059114   8.337963410751099 
 -2.489385691033257   7.186129524748209   1.667882835859565 
 11.202223835068363   0.718891902719706   8.338011929821466 
  3.734074432485181   0.718742205004779   1.669282666349661 
  2.489323352730265   7.185807137881393   1.668245080743515 
  7.468219411402776   7.185807137881393   1.668245080743515 
  8.712844381162748   0.718701712856649   1.668777877899392 
  2.489323352730266   7.185807137881394   8.337712132101126 
 13.691633075264379   0.718891902719705   1.667945283023161 
 -1.244650504998218   9.341898072109862   8.338316158529681 
 -0.000061011760400   2.874652693262372   8.336905763967490 
  4.978771382066528   2.874905575442580   8.334969928502687 
  3.734239614341297   9.342056990291269   8.337884397297206 
  8.712718043302155   9.341845414311772   8.338438515671372 
  9.957603775893590   2.874652693262372   8.336905763967490 
 -3.734120877068247   9.341898072109862   1.667641054314946 
  1.244824720830920   9.341845414311772   1.667518697173256 
  2.489376888263390   2.874791180557916   1.670934162906371 
  6.223303149791899   9.342056990291269   1.668072815547408 
  7.468165875869784   2.874791180557916   1.670934162906371 
 12.446928455166356   2.874724475758835   1.668421678369205 