 O B N 
 1.0
 17.527899999999772   0.000000000000000   0.000000000000000
 -8.763949999999658  15.179606674993195   0.000000000000000
  0.000000000000001   0.000000000000002  15.000000000000000
 O B N 
   1  47  49
Cartesian
  3.821799251340346   7.743652713637371   1.669343112625650 
  7.517952734254688  14.471774847861049   1.664806866081870 
 15.029918743990972   1.462176312501297   1.665583573007625 
 13.777655326700204   3.628256679750401   1.666639117552215 
 12.523682934517314   5.790803442124495   1.665011634449925 
 11.257953806888279   7.950390680792386   1.664725354612050 
 10.003060104209412  10.113488723332278   1.665824718521625 
  8.756443895013630  12.282302765810927   1.665215415545865 
 -7.515621225033013  14.442926546877850   1.664631488189115 
  0.002794810238150   1.441842547298352   1.664680506577605 
 -1.243612178979641   3.619939518893542   1.665196083269535 
 -2.492720037831317   5.789896769984637   1.665261502730865 
 -3.746645460092608   7.951153941207668   1.664660867310450 
 -5.011816086721428  10.112168363842915   1.664863863970215 
 -6.265864562087725  12.275538269533563   1.664512024332000 
 -5.011312351951718  14.435284836149046   1.665499249703565 
  2.501617918190051   1.416253870878261   1.665962049506475 
  1.254610851839563   3.589746447460462   1.665217230239625 
  0.015039878393023   5.781543733452384   1.665385497241455 
 -1.220433920273583   7.953227834222880   1.665224630418855 
 -2.500137360225299  10.115591905438249   1.665987286896360 
 -3.758798362073892  12.276403697787307   1.664789851911105 
 -2.505375487054670  14.442586229973871   1.665547122670920 
  5.009580312868597   1.409059347690731   1.666864694185230 
  3.773897855881096   3.549039309527541   1.665158971051680 
  2.517473309339645   5.712395682572927   1.665557892484755 
  1.310644102704740   7.972483364858994   1.666126184172765 
  0.005455836234153  10.127719819788878   1.666529848033605 
 -1.252033022622784  12.288322591265830   1.666117354277955 
 -0.008546384759828  14.473398713920067   1.664678553252120 
  7.511610679459576   1.436659869157813   1.664885202233835 
  6.249867522516304   3.571282122323552   1.664731957965315 
  2.467217391559730  10.215872278691432   1.665242857245735 
  1.232739544712843  12.337284084723347   1.665731608029075 
  2.500001097207878  14.490315480438108   1.664849643495915 
 10.014114064007686   1.461442165652447   1.664793367697310 
  8.762840692016910   3.616838137349019   1.664680189781895 
  7.509147716171042   5.789184815659588   1.664917635200955 
  6.194817210839424   7.937231725624945   1.667311478989620 
  5.025662939293091  10.203714190646885   1.665526468557450 
  3.754020443460402  12.345110370900402   1.664883534308145 
  5.012107410478251  14.489117836836535   1.664862963238455 
 12.522267223287741   1.468006865651372   1.666117576845405 
 11.268926895116612   3.627015058096854   1.666102338566955 
 10.014539703462733   5.788234612127076   1.665015232607535 
  8.732570481572690   7.950641768185678   1.666528925543625 
  7.489629598233922  10.113748868924409   1.666766954208630 
  6.270938848846141  12.330451066614758   1.665418239783615 
  8.759203021968105  13.728559804395395   1.664466601811640 
 16.278524980410022   0.732975704000652   1.664652200017365 
 15.029986431280335   2.905939349628279   1.665771666034845 
 13.779903418438156   5.072860733041020   1.665459293181960 
 12.520976848974247   7.234304978259408   1.664068754876565 
 11.258543623481897   9.393580458175608   1.664841721458030 
 10.006849619174110  11.556477939760942   1.664866372201035 
 -6.265278782509355  13.717570270712891   1.664414293268595 
  1.247139142558694   0.706333267066659   1.664615039169150 
 -0.000087128880723   2.884542948132879   1.664472072870165 
 -1.240439968172497   5.067933555615016   1.664882389600980 
 -2.481694389265477   7.234545665167191   1.664503279558140 
 -3.753328516844741   9.394004861513418   1.664970430263615 
 -5.012315136455610  11.554593681282087   1.664157689908530 
 -3.757796833720120  13.717809628797797   1.664854992875685 
  3.753334200529430   0.694880909749287   1.666355888882655 
  2.496603515513216   2.854560921873977   1.665544943607855 
  1.243719820217666   5.034854717896260   1.665450238570260 
  0.052907381088674   7.233597463355311   1.665184133872335 
 -1.239557813344831   9.397325022100018   1.665857049158025 
 -2.503827922853612  11.558691640557726   1.665602616288990 
 -1.252294464606521  13.731534620926253   1.665043325582070 
  6.263775172542140   0.702011230605574   1.665689078695860 
  5.013926528755040   2.840946092948708   1.666029974071770 
  3.662320866964303   4.943082034578028   1.662484262712135 
  2.535691575158414   7.143317068680567   1.666465584065085 
  1.268676139040541   9.411476303441862   1.665638514286035 
 -0.000553024927082  11.575140803831045   1.666268909790690 
  1.243355009721504  13.771428802986842   1.664759696523420 
  8.764713163338923   0.731728573142842   1.663967728131150 
  7.522458746725314   2.874213768459177   1.664456145074925 
  6.382208081354145   4.966357221907964   1.661871223545150 
  4.951260322460049   7.054970514089228   1.667701319863575 
  3.743492456118378   9.699325139526159   1.664023856010060 
  2.482733868382057  11.651830326264349   1.664918192557815 
  3.755931339611052  13.780843892353980   1.664482460487075 
 11.268690152444194   0.749574547304491   1.664933138171160 
 10.018712550171697   2.903208756127005   1.665008976951390 
  8.771145579633629   5.063532187101148   1.664585246636595 
  7.460551876614078   7.236455398680249   1.666641762128790 
  6.221559562315932   9.385841276364369   1.666430687853705 
  5.021134540058392  11.643533841636296   1.664873095106310 
  6.266316004921366  13.767253989203724   1.664594484197145 
 13.775927212663332   0.749548040654732   1.665385389426600 
 12.524121241133066   2.910328946819086   1.666606688517675 
 11.270476602233845   5.071434141972297   1.665105263783685 
  9.996522828318252   7.234094071338341   1.664960250954885 
  8.741708249122460   9.394103519572196   1.666485980942955 
  7.501358671647981  11.564697575280688   1.665666072163695 
