B N As                                  
   1.0000000000000000     
     8.7639499999999995  -15.1796066749929999    0.0000000000000000
     8.7639499999999995   15.1796066749929999    0.0000000000000000
     0.0000000000000000    0.0000000000000000   15.0000000000000000
   B    N    As
    48    48     1
Selective dynamics
Direct
  0.9056805573598729  0.9539035468705539  0.1110161927026980   T   T   T
  0.9040970123556070  0.0959050088403822  0.1110080009902505   T   T   T
  0.9035501325002053  0.2385637089485236  0.1110484625692239   T   T   T
  0.9035682002898385  0.3813582333944531  0.1109695767774505   T   T   T
  0.9050090497054153  0.5243793775288513  0.1109846335766214   T   T   T
  0.9067265638473607  0.6679026618095993  0.1110742469349163   T   T   T
  0.9075497667654200  0.8119745434915264  0.1110448461557590   T   T   T
  0.0478051647114167  0.9521968564845867  0.1109846137613822   T   T   T
  0.0460984743254498  0.0943214638361235  0.1110161927026980   T   T   T
  0.0456319439205941  0.2375605123347213  0.1110009985696279   T   T   T
  0.0459945273739173  0.3807691629748425  0.1109870206113634   T   T   T
  0.0472677260425972  0.5237393590233610  0.1109917531559073   T   T   T
  0.0485102226213325  0.6666786917909309  0.1110288627646572   T   T   T
  0.0486753443851842  0.8096607594818913  0.1110011428339311   T   T   T
  0.1903412617141123  0.9513266768108123  0.1110011428339311   T   T   T
  0.1880274777044766  0.0924522544305763  0.1110448461557590   T   T   T
  0.1861856522917189  0.2346563538706128  0.1110092951390452   T   T   T
  0.1875645545081139  0.3795350457969491  0.1110207407319168   T   T   T
  0.1896195066287847  0.5230590786773883  0.1110758269585932   T   T   T
  0.1912435841601240  0.6661096650414615  0.1110645981877710   T   T   T
  0.1910677109011753  0.8089343102948278  0.1109922707820407   T   T   T
  0.3333233294060605  0.9514917985746713  0.1110288627646572   T   T   T
  0.3320993593873989  0.0932754573486430  0.1110742469349163   T   T   T
  0.3274521924905054  0.2319360961840716  0.1109804700408707   T   T   T
  0.3257029344954627  0.3757303133989925  0.1109855706149733   T   T   T
  0.3322821072819749  0.5206425801419846  0.1110712886996148   T   T   T
  0.3347084144562628  0.6652936067407349  0.1111130002158978   T   T   T
  0.3338923561555361  0.8087584370358861  0.1110645981877710   T   T   T
  0.4762626621736379  0.9527342951534064  0.1109917531559073   T   T   T
  0.4756226436681544  0.0949929714905808  0.1109846335766214   T   T   T
  0.4741565872737594  0.2365547362985583  0.1109787597808659   T   T   T
  0.4649269291058054  0.3706991371415427  0.1112101129401719   T   T   T
  0.4793594410550135  0.6677199139150233  0.1110712886996148   T   T   T
  0.4769429425196094  0.8103825145672122  0.1110758269585932   T   T   T
  0.6192328582211680  0.9540074938220792  0.1109870206113634   T   T   T
  0.6186437878015507  0.0964338209061578  0.1109695767774505   T   T   T
  0.6179611694032798  0.2393553972057122  0.1110192928999627   T   T   T
  0.6168728089033050  0.3831292122926985  0.1110117512893037   T   T   T
  0.6293028840544610  0.5350750920912006  0.1112101129401719   T   T   T
  0.6242717077970112  0.6742990867015357  0.1109855706149733   T   T   T
  0.6204669753990542  0.8124374666878896  0.1110207407319168   T   T   T
  0.7624415088612893  0.9543700772754096  0.1110009985696279   T   T   T
  0.7614383122474802  0.0964518886957988  0.1110484625692239   T   T   T
  0.7609227872326134  0.2390792339633905  0.1110608214911128   T   T   T
  0.7606466239902913  0.3820408517927242  0.1110192928999627   T   T   T
  0.7634472848974458  0.5258454339232388  0.1109787597808659   T   T   T
  0.7680659250119318  0.6725498287064924  0.1109804700408707   T   T   T
  0.7653456673253908  0.8138163689042850  0.1110092951390452   T   T   T
  0.9536656151599009  0.9063950658058638  0.1109969684706866   T   T   T
  0.9517315044684237  0.0482698974495817  0.1109921847909519   T   T   T
  0.9507562067386822  0.1906704519646474  0.1110114637005714   T   T   T
  0.9507638375955628  0.3335144319774226  0.1109790305815251   T   T   T
  0.9519822066475107  0.4764349229789934  0.1109390321812974   T   T   T
  0.9535293680505120  0.6195757155930610  0.1110250454996252   T   T   T
  0.9541666677527741  0.7630972337286680  0.1110400169535007   T   T   T
  0.0955183721943572  0.9044830297236414  0.1109486720510125   T   T   T
  0.0936063361121349  0.0463357867581052  0.1109969684706866   T   T   T
  0.0917785396625525  0.1884721678338657  0.1110004911189894   T   T   T
  0.0923137668780615  0.3323616197638991  0.1109741790405218   T   T   T
  0.0939927605937790  0.4758543952899911  0.1109966117826433   T   T   T
  0.0956969715898394  0.6189268180937751  0.1110133641125900   T   T   T
  0.0960188062268776  0.7618036641100377  0.1109753947969286   T   T   T
  0.2381977378079679  0.9039825956911210  0.1109753947969286   T   T   T
  0.2369041681893377  0.0458347341652312  0.1110400169535007   T   T   T
  0.2331202459387104  0.1859328814574107  0.1110081864921296   T   T   T
  0.2310939334775396  0.3282053713325143  0.1109943636072787   T   T   T
  0.2352770212185918  0.4747485808176535  0.1110618359122559   T   T   T
  0.2384661089968814  0.6185471852740559  0.1110827123833982   T   T   T
  0.2385580407251183  0.7614433611928864  0.1110300432781570   T   T   T
  0.3810745838242229  0.9043044303281590  0.1110133641125900   T   T   T
  0.3804256863249437  0.0464720338674938  0.1110250454996252   T   T   T
  0.3785422470260961  0.1875228599090900  0.1110120352673491   T   T   T
  0.3716397104397602  0.3243350737068423  0.1109590306556477   T   T   T
  0.3695004742842333  0.4667764440837950  0.1109292801277900   T   T   T
  0.3820882366520296  0.6179131652659693  0.1110837950344577   T   T   T
  0.3814542166439429  0.7615352929211243  0.1110827123833982   T   T   T
  0.5241470066270051  0.9060086413242202  0.1109966117826433   T   T   T
  0.5235664789380028  0.0480191952704953  0.1109390321812974   T   T   T
  0.5227552763533015  0.1899917906462548  0.1109754910640000   T   T   T
  0.5205406133765331  0.3314450248197533  0.1109632342725895   T   T   T
  0.5332249578332012  0.6305009276337659  0.1109292801277900   T   T   T
  0.5252528210993439  0.7647243806994140  0.1110618359122559   T   T   T
  0.6676397821530980  0.9076876350399372  0.1109741790405218   T   T   T
  0.6664869699395745  0.0492375643224424  0.1109790305815251   T   T   T
  0.6658388081328779  0.1917315734481326  0.1109993336221588   T   T   T
  0.6650854840072467  0.3349159179097503  0.1110086046580730   T   T   T
  0.6685563770972435  0.4794607885404639  0.1109632342725895   T   T   T
  0.6756663282101543  0.6283616914782455  0.1109590306556477   T   T   T
  0.6717960305844817  0.7689074684404663  0.1109943636072787   T   T   T
  0.8115292340841335  0.9082228622554467  0.1110004911189894   T   T   T
  0.8093309499533509  0.0492451951793231  0.1110114637005714   T   T   T
  0.8085366474812212  0.1914647544367771  0.1110602893507296   T   T   T
  0.8082698284698664  0.3341625937841190  0.1109993336221588   T   T   T
  0.8100096112717442  0.4772461255636958  0.1109754910640000   T   T   T
  0.8124785420089088  0.6214591548919024  0.1110120352673491   T   T   T
  0.8140685204605873  0.7668811559792958  0.1110081864921296   T   T   T
  0.5036230930876366  0.4963789281093617  0.1116485174057726   T   T   T

  0.00000000E+00  0.00000000E+00  0.00000000E+00
  0.00000000E+00  0.00000000E+00  0.00000000E+00
  0.00000000E+00  0.00000000E+00  0.00000000E+00
  0.00000000E+00  0.00000000E+00  0.00000000E+00
  0.00000000E+00  0.00000000E+00  0.00000000E+00
  0.00000000E+00  0.00000000E+00  0.00000000E+00
  0.00000000E+00  0.00000000E+00  0.00000000E+00
  0.00000000E+00  0.00000000E+00  0.00000000E+00
  0.00000000E+00  0.00000000E+00  0.00000000E+00
  0.00000000E+00  0.00000000E+00  0.00000000E+00
  0.00000000E+00  0.00000000E+00  0.00000000E+00
  0.00000000E+00  0.00000000E+00  0.00000000E+00
  0.00000000E+00  0.00000000E+00  0.00000000E+00
  0.00000000E+00  0.00000000E+00  0.00000000E+00
  0.00000000E+00  0.00000000E+00  0.00000000E+00
  0.00000000E+00  0.00000000E+00  0.00000000E+00
  0.00000000E+00  0.00000000E+00  0.00000000E+00
  0.00000000E+00  0.00000000E+00  0.00000000E+00
  0.00000000E+00  0.00000000E+00  0.00000000E+00
  0.00000000E+00  0.00000000E+00  0.00000000E+00
  0.00000000E+00  0.00000000E+00  0.00000000E+00
  0.00000000E+00  0.00000000E+00  0.00000000E+00
  0.00000000E+00  0.00000000E+00  0.00000000E+00
  0.00000000E+00  0.00000000E+00  0.00000000E+00
  0.00000000E+00  0.00000000E+00  0.00000000E+00
  0.00000000E+00  0.00000000E+00  0.00000000E+00
  0.00000000E+00  0.00000000E+00  0.00000000E+00
  0.00000000E+00  0.00000000E+00  0.00000000E+00
  0.00000000E+00  0.00000000E+00  0.00000000E+00
  0.00000000E+00  0.00000000E+00  0.00000000E+00
  0.00000000E+00  0.00000000E+00  0.00000000E+00
  0.00000000E+00  0.00000000E+00  0.00000000E+00
  0.00000000E+00  0.00000000E+00  0.00000000E+00
  0.00000000E+00  0.00000000E+00  0.00000000E+00
  0.00000000E+00  0.00000000E+00  0.00000000E+00
  0.00000000E+00  0.00000000E+00  0.00000000E+00
  0.00000000E+00  0.00000000E+00  0.00000000E+00
  0.00000000E+00  0.00000000E+00  0.00000000E+00
  0.00000000E+00  0.00000000E+00  0.00000000E+00
  0.00000000E+00  0.00000000E+00  0.00000000E+00
  0.00000000E+00  0.00000000E+00  0.00000000E+00
  0.00000000E+00  0.00000000E+00  0.00000000E+00
  0.00000000E+00  0.00000000E+00  0.00000000E+00
  0.00000000E+00  0.00000000E+00  0.00000000E+00
  0.00000000E+00  0.00000000E+00  0.00000000E+00
  0.00000000E+00  0.00000000E+00  0.00000000E+00
  0.00000000E+00  0.00000000E+00  0.00000000E+00
  0.00000000E+00  0.00000000E+00  0.00000000E+00
  0.00000000E+00  0.00000000E+00  0.00000000E+00
  0.00000000E+00  0.00000000E+00  0.00000000E+00
  0.00000000E+00  0.00000000E+00  0.00000000E+00
  0.00000000E+00  0.00000000E+00  0.00000000E+00
  0.00000000E+00  0.00000000E+00  0.00000000E+00
  0.00000000E+00  0.00000000E+00  0.00000000E+00
  0.00000000E+00  0.00000000E+00  0.00000000E+00
  0.00000000E+00  0.00000000E+00  0.00000000E+00
  0.00000000E+00  0.00000000E+00  0.00000000E+00
  0.00000000E+00  0.00000000E+00  0.00000000E+00
  0.00000000E+00  0.00000000E+00  0.00000000E+00
  0.00000000E+00  0.00000000E+00  0.00000000E+00
  0.00000000E+00  0.00000000E+00  0.00000000E+00
  0.00000000E+00  0.00000000E+00  0.00000000E+00
  0.00000000E+00  0.00000000E+00  0.00000000E+00
  0.00000000E+00  0.00000000E+00  0.00000000E+00
  0.00000000E+00  0.00000000E+00  0.00000000E+00
  0.00000000E+00  0.00000000E+00  0.00000000E+00
  0.00000000E+00  0.00000000E+00  0.00000000E+00
  0.00000000E+00  0.00000000E+00  0.00000000E+00
  0.00000000E+00  0.00000000E+00  0.00000000E+00
  0.00000000E+00  0.00000000E+00  0.00000000E+00
  0.00000000E+00  0.00000000E+00  0.00000000E+00
  0.00000000E+00  0.00000000E+00  0.00000000E+00
  0.00000000E+00  0.00000000E+00  0.00000000E+00
  0.00000000E+00  0.00000000E+00  0.00000000E+00
  0.00000000E+00  0.00000000E+00  0.00000000E+00
  0.00000000E+00  0.00000000E+00  0.00000000E+00
  0.00000000E+00  0.00000000E+00  0.00000000E+00
  0.00000000E+00  0.00000000E+00  0.00000000E+00
  0.00000000E+00  0.00000000E+00  0.00000000E+00
  0.00000000E+00  0.00000000E+00  0.00000000E+00
  0.00000000E+00  0.00000000E+00  0.00000000E+00
  0.00000000E+00  0.00000000E+00  0.00000000E+00
  0.00000000E+00  0.00000000E+00  0.00000000E+00
  0.00000000E+00  0.00000000E+00  0.00000000E+00
  0.00000000E+00  0.00000000E+00  0.00000000E+00
  0.00000000E+00  0.00000000E+00  0.00000000E+00
  0.00000000E+00  0.00000000E+00  0.00000000E+00
  0.00000000E+00  0.00000000E+00  0.00000000E+00
  0.00000000E+00  0.00000000E+00  0.00000000E+00
  0.00000000E+00  0.00000000E+00  0.00000000E+00
  0.00000000E+00  0.00000000E+00  0.00000000E+00
  0.00000000E+00  0.00000000E+00  0.00000000E+00
  0.00000000E+00  0.00000000E+00  0.00000000E+00
  0.00000000E+00  0.00000000E+00  0.00000000E+00
  0.00000000E+00  0.00000000E+00  0.00000000E+00
  0.00000000E+00  0.00000000E+00  0.00000000E+00
  0.00000000E+00  0.00000000E+00  0.00000000E+00
