B Sn N                                  
   1.0000000000000000     
     8.7639499999999995  -15.1796066749929999    0.0000000000000000
     8.7639499999999995   15.1796066749929999    0.0000000000000000
     0.0000000000000000    0.0000000000000000   15.0000000000000000
   B    Sn   N 
    48     1    49
Selective dynamics
Direct
  0.9061990987694133  0.9535303072413145  0.1110336638230259   T   T   T
  0.9046875218356327  0.0953142248563672  0.1110425991231531   T   T   T
  0.9042144752074837  0.2378177907493661  0.1110489462820360   T   T   T
  0.9046775388985703  0.3807878510843580  0.1109827061850400   T   T   T
  0.9061945530995629  0.5240800235888980  0.1110191455941680   T   T   T
  0.9057457921578282  0.6671915946575445  0.1110925611701386   T   T   T
  0.9057567761323727  0.8099854241891749  0.1110756573817314   T   T   T
  0.0478220098023432  0.9521797135626509  0.1109806535269515   T   T   T
  0.0464714081006853  0.0938026217025936  0.1110336633500247   T   T   T
  0.0456963479507095  0.2367008180774389  0.1110326388075184   T   T   T
  0.0456757589773192  0.3804040352372361  0.1110404760639989   T   T   T
  0.0464517205021620  0.5240895777261946  0.1110003094158484   T   T   T
  0.0478283317862604  0.6670823468378622  0.1110073045763895   T   T   T
  0.0479732924281188  0.8097096717634482  0.1109818935946401   T   T   T
  0.1902920779295501  0.9520284706648905  0.1109818920686430   T   T   T
  0.1900162768468223  0.0942449365756324  0.1110756532577342   T   T   T
  0.1860263328966099  0.2334705603573629  0.1111427848833416   T   T   T
  0.1859121561094692  0.3786594421258982  0.1111322663068032   T   T   T
  0.1860032285801217  0.5239521995482059  0.1111591152743384   T   T   T
  0.1900093932859734  0.6671868199933814  0.1110867179261175   T   T   T
  0.1902988820607309  0.8097028124802657  0.1109864182974962   T   T   T
  0.3329193888671363  0.9521733920477422  0.1110073069903874   T   T   T
  0.3328101193194567  0.0942559477621746  0.1110925567931385   T   T   T
  0.3327388204310357  0.2368876235759931  0.1111118524334221   T   T   T
  0.3231823227043308  0.3726669412178420  0.1109041656025088   T   T   T
  0.3231761610229136  0.5219601791725682  0.1109129182623494   T   T   T
  0.3327184024232228  0.6672833003507755  0.1111242748579656   T   T   T
  0.3328148333266191  0.8099922355570206  0.1110867214591207   T   T   T
  0.4759121096928048  0.9535498604278342  0.1110003147268498   T   T   T
  0.4759217179171051  0.0938072695764355  0.1110191542871681   T   T   T
  0.4760469045985410  0.2334790097131167  0.1111048974474313   T   T   T
  0.4780345624184058  0.3726749462892811  0.1109926508946567   T   T   T
  0.4780416052604280  0.6768256963170904  0.1109129187763560   T   T   T
  0.4760495162417901  0.8139984584878783  0.1111591210113386   T   T   T
  0.6195977037347727  0.9543259254396823  0.1110404781709997   T   T   T
  0.6192138192636417  0.0953241483834317  0.1109827072710406   T   T   T
  0.6196071534374261  0.2367061295665975  0.1110168203365169   T   T   T
  0.6213278662307006  0.3786738679783003  0.1111093863698051   T   T   T
  0.6273266226807193  0.5219671047845984  0.1109926456366547   T   T   T
  0.6273347082371520  0.6768194010116639  0.1109041653155064   T   T   T
  0.6213423010341004  0.8140896132935297  0.1111322619588004   T   T   T
  0.7633009224505615  0.9543053715762887  0.1110326410335138   T   T   T
  0.7621839050116350  0.0957872013265138  0.1110489486850347   T   T   T
  0.7621903859551216  0.2378113192248760  0.1110540576073448   T   T   T
  0.7632956928174027  0.3803946019935733  0.1110168119295174   T   T   T
  0.7665227424628812  0.5239547782084698  0.1111048894834339   T   T   T
  0.7631140351950066  0.6672628601139620  0.1111118610614217   T   T   T
  0.7665311110666401  0.8139753837853900  0.1111427873573378   T   T   T
  0.4761742900799240  0.5238273654670724  0.1104663847347767   T   T   T
  0.9530631427184710  0.9051587884399792  0.1109930654632918   T   T   T
  0.9522591819007951  0.0477425354092036  0.1110139535553398   T   T   T
  0.9512086776595786  0.1899244118872661  0.1110140121267654   T   T   T
  0.9511966697050267  0.3326988427363113  0.1109838611944368   T   T   T
  0.9522491870540210  0.4759307660325903  0.1109557248586430   T   T   T
  0.9530621688033220  0.6193287171759327  0.1110275427742024   T   T   T
  0.9532414393520509  0.7623354982617850  0.1110385591427912   T   T   T
  0.0953545834763955  0.9046471689916056  0.1109320071945035   T   T   T
  0.0948429169980232  0.0469385760965292  0.1109930719602885   T   T   T
  0.0919337661596715  0.1876961006059937  0.1110465041027737   T   T   T
  0.0916567616179072  0.3315392340620157  0.1110438509282959   T   T   T
  0.0919115239776786  0.4756500394098035  0.1110563318997995   T   T   T
  0.0948348359715940  0.6193303581509833  0.1109833622748010   T   T   T
  0.0953556848120624  0.7621494000529423  0.1109584854234746   T   T   T
  0.2378523121080592  0.9046460259459382  0.1109584863154758   T   T   T
  0.2376662311152196  0.0467603296119446  0.1110385517197939   T   T   T
  0.2368663761545925  0.1887698092595818  0.1111270383439616   T   T   T
  0.2295440815542845  0.3264052060718378  0.1111735246330552   T   T   T
  0.2295420390576824  0.4745531195088668  0.1111866102678534   T   T   T
  0.2368505882948255  0.6195043477279196  0.1111479835992775   T   T   T
  0.2376643242947626  0.7623373099002320  0.1110465352522082   T   T   T
  0.3806713129520179  0.9051667898114064  0.1109833664248040   T   T   T
  0.3806730100110631  0.0469395821166784  0.1110275505222019   T   T   T
  0.3805006622410178  0.1887796134633701  0.1111175906820302   T   T   T
  0.3802176228136069  0.3318839022177807  0.1109350259366376   T   T   T
  0.3537047978897905  0.4625746434491436  0.1104074025092354   T   T   T
  0.3802163479017884  0.6197854500572109  0.1109102824850616   T   T   T
  0.3804973907610782  0.7631511185851739  0.1111479882202780   T   T   T
  0.5243516928181979  0.9080900715383180  0.1110563456777987   T   T   T
  0.5240708923164087  0.0477524747059811  0.1109557253036488   T   T   T
  0.5243638678365365  0.1877118692913951  0.1110117385006836   T   T   T
  0.5254252866425271  0.3264140554973729  0.1111507383764956   T   T   T
  0.5374092234684547  0.4625923731565537  0.1107358779540800   T   T   T
  0.5374270158338602  0.6462968842492098  0.1104074040872372   T   T   T
  0.5254486631041405  0.7704598172703223  0.1111866074518517   T   T   T
  0.6684625565499788  0.9083449858550929  0.1110438487152964   T   T   T
  0.6673028269946807  0.0488049845439776  0.1109838597264413   T   T   T
  0.6673057523391343  0.1899247010675457  0.1109938357217651   T   T   T
  0.6684593412627059  0.3315424692862946  0.1110210745351098   T   T   T
  0.6735876086346188  0.4745764293674722  0.1111507179774957   T   T   T
  0.6681177284262192  0.6197840717313913  0.1109350285716356   T   T   T
  0.6735964603821600  0.7704576759137141  0.1111735175020555   T   T   T
  0.8123056119100089  0.9080679488743332  0.1110465044787787   T   T   T
  0.8100773133897365  0.0487930314134177  0.1110140218137650   T   T   T
  0.8095306697449397  0.1904709849470598  0.1110719129445649   T   T   T
  0.8100770370404528  0.3326959328218680  0.1109938297817699   T   T   T
  0.8122900222636097  0.4756378866134667  0.1110117179896809   T   T   T
  0.8112221079036309  0.6195010418059813  0.1111176060350326   T   T   T
  0.8112318528344198  0.7631353156294143  0.1111270496399568   T   T   T

  0.00000000E+00  0.00000000E+00  0.00000000E+00
  0.00000000E+00  0.00000000E+00  0.00000000E+00
  0.00000000E+00  0.00000000E+00  0.00000000E+00
  0.00000000E+00  0.00000000E+00  0.00000000E+00
  0.00000000E+00  0.00000000E+00  0.00000000E+00
  0.00000000E+00  0.00000000E+00  0.00000000E+00
  0.00000000E+00  0.00000000E+00  0.00000000E+00
  0.00000000E+00  0.00000000E+00  0.00000000E+00
  0.00000000E+00  0.00000000E+00  0.00000000E+00
  0.00000000E+00  0.00000000E+00  0.00000000E+00
  0.00000000E+00  0.00000000E+00  0.00000000E+00
  0.00000000E+00  0.00000000E+00  0.00000000E+00
  0.00000000E+00  0.00000000E+00  0.00000000E+00
  0.00000000E+00  0.00000000E+00  0.00000000E+00
  0.00000000E+00  0.00000000E+00  0.00000000E+00
  0.00000000E+00  0.00000000E+00  0.00000000E+00
  0.00000000E+00  0.00000000E+00  0.00000000E+00
  0.00000000E+00  0.00000000E+00  0.00000000E+00
  0.00000000E+00  0.00000000E+00  0.00000000E+00
  0.00000000E+00  0.00000000E+00  0.00000000E+00
  0.00000000E+00  0.00000000E+00  0.00000000E+00
  0.00000000E+00  0.00000000E+00  0.00000000E+00
  0.00000000E+00  0.00000000E+00  0.00000000E+00
  0.00000000E+00  0.00000000E+00  0.00000000E+00
  0.00000000E+00  0.00000000E+00  0.00000000E+00
  0.00000000E+00  0.00000000E+00  0.00000000E+00
  0.00000000E+00  0.00000000E+00  0.00000000E+00
  0.00000000E+00  0.00000000E+00  0.00000000E+00
  0.00000000E+00  0.00000000E+00  0.00000000E+00
  0.00000000E+00  0.00000000E+00  0.00000000E+00
  0.00000000E+00  0.00000000E+00  0.00000000E+00
  0.00000000E+00  0.00000000E+00  0.00000000E+00
  0.00000000E+00  0.00000000E+00  0.00000000E+00
  0.00000000E+00  0.00000000E+00  0.00000000E+00
  0.00000000E+00  0.00000000E+00  0.00000000E+00
  0.00000000E+00  0.00000000E+00  0.00000000E+00
  0.00000000E+00  0.00000000E+00  0.00000000E+00
  0.00000000E+00  0.00000000E+00  0.00000000E+00
  0.00000000E+00  0.00000000E+00  0.00000000E+00
  0.00000000E+00  0.00000000E+00  0.00000000E+00
  0.00000000E+00  0.00000000E+00  0.00000000E+00
  0.00000000E+00  0.00000000E+00  0.00000000E+00
  0.00000000E+00  0.00000000E+00  0.00000000E+00
  0.00000000E+00  0.00000000E+00  0.00000000E+00
  0.00000000E+00  0.00000000E+00  0.00000000E+00
  0.00000000E+00  0.00000000E+00  0.00000000E+00
  0.00000000E+00  0.00000000E+00  0.00000000E+00
  0.00000000E+00  0.00000000E+00  0.00000000E+00
  0.00000000E+00  0.00000000E+00  0.00000000E+00
  0.00000000E+00  0.00000000E+00  0.00000000E+00
  0.00000000E+00  0.00000000E+00  0.00000000E+00
  0.00000000E+00  0.00000000E+00  0.00000000E+00
  0.00000000E+00  0.00000000E+00  0.00000000E+00
  0.00000000E+00  0.00000000E+00  0.00000000E+00
  0.00000000E+00  0.00000000E+00  0.00000000E+00
  0.00000000E+00  0.00000000E+00  0.00000000E+00
  0.00000000E+00  0.00000000E+00  0.00000000E+00
  0.00000000E+00  0.00000000E+00  0.00000000E+00
  0.00000000E+00  0.00000000E+00  0.00000000E+00
  0.00000000E+00  0.00000000E+00  0.00000000E+00
  0.00000000E+00  0.00000000E+00  0.00000000E+00
  0.00000000E+00  0.00000000E+00  0.00000000E+00
  0.00000000E+00  0.00000000E+00  0.00000000E+00
  0.00000000E+00  0.00000000E+00  0.00000000E+00
  0.00000000E+00  0.00000000E+00  0.00000000E+00
  0.00000000E+00  0.00000000E+00  0.00000000E+00
  0.00000000E+00  0.00000000E+00  0.00000000E+00
  0.00000000E+00  0.00000000E+00  0.00000000E+00
  0.00000000E+00  0.00000000E+00  0.00000000E+00
  0.00000000E+00  0.00000000E+00  0.00000000E+00
  0.00000000E+00  0.00000000E+00  0.00000000E+00
  0.00000000E+00  0.00000000E+00  0.00000000E+00
  0.00000000E+00  0.00000000E+00  0.00000000E+00
  0.00000000E+00  0.00000000E+00  0.00000000E+00
  0.00000000E+00  0.00000000E+00  0.00000000E+00
  0.00000000E+00  0.00000000E+00  0.00000000E+00
  0.00000000E+00  0.00000000E+00  0.00000000E+00
  0.00000000E+00  0.00000000E+00  0.00000000E+00
  0.00000000E+00  0.00000000E+00  0.00000000E+00
  0.00000000E+00  0.00000000E+00  0.00000000E+00
  0.00000000E+00  0.00000000E+00  0.00000000E+00
  0.00000000E+00  0.00000000E+00  0.00000000E+00
  0.00000000E+00  0.00000000E+00  0.00000000E+00
  0.00000000E+00  0.00000000E+00  0.00000000E+00
  0.00000000E+00  0.00000000E+00  0.00000000E+00
  0.00000000E+00  0.00000000E+00  0.00000000E+00
  0.00000000E+00  0.00000000E+00  0.00000000E+00
  0.00000000E+00  0.00000000E+00  0.00000000E+00
  0.00000000E+00  0.00000000E+00  0.00000000E+00
  0.00000000E+00  0.00000000E+00  0.00000000E+00
  0.00000000E+00  0.00000000E+00  0.00000000E+00
  0.00000000E+00  0.00000000E+00  0.00000000E+00
  0.00000000E+00  0.00000000E+00  0.00000000E+00
  0.00000000E+00  0.00000000E+00  0.00000000E+00
  0.00000000E+00  0.00000000E+00  0.00000000E+00
  0.00000000E+00  0.00000000E+00  0.00000000E+00
  0.00000000E+00  0.00000000E+00  0.00000000E+00
  0.00000000E+00  0.00000000E+00  0.00000000E+00
