 Sn B N 
 1.0
 17.527899999999772   0.000000000000000   0.000000000000000
 -8.763949999999658  15.179606674993195   0.000000000000000
  0.000000000000001   0.000000000000002  15.000000000000000
 Sn B N 
   1  48  49
Cartesian
  3.755538499506824   7.951493373388065   1.656995771021655 
  7.527075247172998  14.474215016608563   1.665504957345390 
 15.021943313052658   1.446832443851511   1.665638986847295 
 13.764757672751227   3.609980523891211   1.665734194230540 
 12.519891746549410   5.780209806076435   1.664740592775600 
 11.290676384541879   7.955328624300628   1.665287183912520 
 10.028587894364223  10.127705983763024   1.666388417552085 
  8.777342438047970  12.295260151669195   1.666134860725965 
 -7.506635995062592  14.453713535788726   1.664709802904265 
 -0.007535292422431   1.423886902528558   1.665504950250375 
 -1.273473117344451   3.593025318064643   1.665489582112770 
 -2.533241808838705   5.774383632481494   1.665607140959985 
 -3.778893742923473   7.955473652346915   1.665004641237720 
 -5.007946116853078  10.126047644830136   1.665109568645850 
 -6.255384005500177  12.291074338306984   1.664728403919600 
 -5.008109402741922  14.451417728088328   1.664728381029645 
  2.504628387041390   1.430601068327774   1.666134798866010 
  1.214526642934616   3.543991276415029   1.667141773250130 
 -0.059902736748015   5.747901395243481   1.666983994602045 
 -1.331644889000844   7.953388305639315   1.667386729115070 
 -2.516726286503602  10.127633506239009   1.666300768891770 
 -3.760655188563907  12.290970217086208   1.664796274462440 
 -2.509422243112287  14.453617577678816   1.665109604855805 
  5.007408077029153   1.430768213808522   1.666388351897070 
  3.756141481994336   3.595860952057419   1.666677786501330 
  2.398672994643191   5.656937588459651   1.663562484037635 
  1.090166520534211   7.923150219848557   1.663693773935235 
 -0.016182594275021  10.129098040116128   1.666864122869490 
 -1.265186335744109  12.295363545554018   1.666300821886815 
 -0.015123431811782  14.474511826289179   1.665004720902750 
  7.519786059274752   1.423957455425339   1.665287314307520 
  6.297904171937466   3.544119534312032   1.666573461711465 
  5.112837411081652   5.657059102295500   1.664889763419855 
  2.447398891606217  10.273947857621817   1.663693781645340 
  1.210306525469802  12.356176433896763   1.667386815170085 
  2.496581897035810  14.486292187923254   1.665607172565000 
 10.018101832446105   1.446983079089186   1.664740609065615 
  8.785931540520613   3.593105944380935   1.665252305047755 
  7.571893861236669   5.748120374008894   1.666640795547075 
  6.421224701708433   7.923255347915156   1.664889684549825 
  5.064248643013891  10.273852297361552   1.663562479732590 
  3.756185051871905  12.357560127993098   1.666983929382000 
  5.015577677395322  14.485980188361298   1.665489615502710 
 12.520009025587795   1.454012040634869   1.665734230275525 
 11.275430354861838   3.609882288694865   1.665810864110175 
 10.045211301992538   5.774240439553020   1.665252178942755 
  8.843620499135016   7.953427448687870   1.666573342251510 
  7.527928154598859  10.128787765360947   1.666677915921330 
  6.302041096939092  12.355826168988854   1.667141810360070 
  8.772429095306626  13.739954386932258   1.664895981949380 
 16.272690521239248   0.724712909178652   1.665209303330100 
 15.008202531589776   2.882977870428100   1.665210181901475 
 13.756724084123745   5.050237573962618   1.664757917916555 
 12.519895088792801   7.224441832902928   1.664335872879645 
 11.277412477673721   9.401166329258764   1.665413141613030 
 10.027250434827486  11.571953017998856   1.665578387141865 
 -6.256916952967794  13.732188204938680   1.663980107917545 
  1.251029830868466   0.712509123029548   1.664896079404335 
 -0.033553381035761   2.849152981628941   1.665697561541610 
 -1.299042718395201   5.032635170389909   1.665657763924440 
 -2.557557161757042   7.220180513185822   1.665844978497000 
 -3.765524770890615   9.401191238614588   1.664750434122015 
 -5.008054326776400  11.569128120385697   1.664377281352125 
 -3.759220997689802  13.732170853955028   1.664377294732140 
  3.755984741661822   0.709803411502362   1.665578275796910 
  2.497400984739570   2.865451456673943   1.666905575159430 
  1.162826801322109   4.954702644840602   1.667602869495825 
 -0.135569905320481   7.203529700535642   1.667799154017795 
 -1.277811701697083   9.403832331958039   1.667219753989155 
 -2.515329557293756  11.571980517957916   1.665698028783120 
 -1.260467781275773  13.740075844603380   1.664750496372060 
  6.261022301481381   0.712524394019717   1.665413257833030 
  5.014922464282016   2.865600280631206   1.666763860230450 
  3.755802546073126   5.037867097427818   1.664025389049570 
  2.145721280476401   7.021701145383224   1.656111037638525 
  1.232625429358980   9.408099354752101   1.663654237275930 
 -0.018898030203263  11.584333813704031   1.667219823304170 
  1.232328054090043  13.784450111418099   1.665845185166985 
  8.767361892733200   0.724863783794353   1.664335879554735 
  7.545900002175661   2.849392344071110   1.665176077510260 
  6.348925420065337   4.954836975639522   1.667261075647440 
  5.365518699307386   7.021970275368170   1.661038169311200 
  3.755853412118549   9.810532498176611   1.656111061308555 
  2.457740306456976  11.695276985050617   1.667799111777780 
  3.756054806167792  13.788319610482571   1.665657730729440 
 11.268692776985738   0.740840469156708   1.664757895896615 
 10.031977912504100   2.882982260071008   1.664907535826475 
  8.811066864016921   5.032684279821970   1.665316118026650 
  7.647412147231689   7.203883535020915   1.667260769662440 
  6.278944116631657   9.408078432308285   1.664025428574540 
  5.054478849108579  11.695244480099555   1.667602762530825 
  6.279749434460363  13.784114298080205   1.665697567181685 
 13.771334453708176   0.740659025336273   1.665210327206475 
 12.520094437695429   2.891274634494920   1.666078694168475 
 11.283218777087075   5.050193402605915   1.664907446726550 
 10.069271624848213   7.219996038517440   1.665175769845215 
  8.789743829788552   9.403782149363307   1.666764090525495 
  7.531111043886104  11.584093931051290   1.666905744599355 
