S B N                                   
   1.0000000000000000     
     8.7639499999999995  -15.1796066749929999    0.0000000000000000
     8.7639499999999995   15.1796066749929999    0.0000000000000000
     0.0000000000000000    0.0000000000000000   15.0000000000000000
   S    B    N 
     1    48    48
Selective dynamics
Direct
  0.4242616620937443  0.4978460336708727  0.1110440796646105   T   T   T
  0.9044508201621343  0.9521919251478883  0.1110024605345086   T   T   T
  0.9068974237956826  0.0965937391216289  0.1110419285908292   T   T   T
  0.9077121561366509  0.2395704249138277  0.1110823823584034   T   T   T
  0.9068974237956826  0.3817323783650517  0.1110419285908292   T   T   T
  0.9044508201621343  0.5236893002622474  0.1110024605345086   T   T   T
  0.9025981172519627  0.6657213200752258  0.1110454533212346   T   T   T
  0.9025981172519627  0.8083072024247392  0.1110454533212346   T   T   T
  0.0466220454447442  0.9515382938308391  0.1110086821101256   T   T   T
  0.0490585300696057  0.0959780140161909  0.1110114858109344   T   T   T
  0.0514989899291272  0.2402628554979229  0.1110417655250739   T   T   T
  0.0514989899291272  0.3826665396782045  0.1110417655250739   T   T   T
  0.0490585300696057  0.5245109213014093  0.1110114858109344   T   T   T
  0.0466220454447442  0.6665158684179021  0.1110086821101256   T   T   T
  0.0460899093916382  0.8087610130978206  0.1109868715754287   T   T   T
  0.1895903249912391  0.9514569072320005  0.1110006966673797   T   T   T
  0.1901932704575034  0.0938493894471115  0.1110489854246638   T   T   T
  0.1941441943766900  0.2394120460825096  0.1110337844273357   T   T   T
  0.1970506010557667  0.3842405031513830  0.1110491792845122   T   T   T
  0.1941441943766900  0.5261625535421806  0.1110337844273357   T   T   T
  0.1901932704575034  0.6677742862583863  0.1110489854246638   T   T   T
  0.1895903249912392  0.8095655345632422  0.1110006966673797   T   T   T
  0.3331426387780329  0.9522873777905173  0.1110141798844320   T   T   T
  0.3332429443461026  0.0930480854054248  0.1110754011417747   T   T   T
  0.3334495165090666  0.2331606408467771  0.1110508911775497   T   T   T
  0.3406443550652622  0.3771670392043689  0.1110222151155274   T   T   T
  0.3406443550652619  0.5349077211078935  0.1110222151155274   T   T   T
  0.3334495165090666  0.6717192809092886  0.1110508911775497   T   T   T
  0.3332429443461026  0.8116252641876770  0.1110754011417747   T   T   T
  0.4770134997771751  0.9536365519491067  0.1110103771964125   T   T   T
  0.4770134997771751  0.0948073530750692  0.1110103771964125   T   T   T
  0.4770017660169768  0.2359608613550613  0.1110430557566104   T   T   T
  0.4767363732016015  0.3768204216972083  0.1109918145549045   T   T   T
  0.4767363732016015  0.6713463567513926  0.1109918145549045   T   T   T
  0.4770017660169768  0.8124713099089221  0.1110430557566104   T   T   T
  0.6205038087430501  0.9538812858729525  0.1110120763581573   T   T   T
  0.6206729967784937  0.0960508452347420  0.1109957948477525   T   T   T
  0.6205038087430501  0.2380529281170979  0.1110120763581573   T   T   T
  0.6193923028191367  0.3799519018051330  0.1110208156647881   T   T   T
  0.6128696870646364  0.5213738469994873  0.1110297621111367   T   T   T
  0.6128696870646364  0.6629262453131416  0.1110297621111367   T   T   T
  0.6193923028191367  0.8108708062610039  0.1110208156647881   T   T   T
  0.7629217856240278  0.9532845761880517  0.1110036912153149   T   T   T
  0.7640007444436510  0.0964989775695523  0.1110448383395946   T   T   T
  0.7640007444436510  0.2389304605650963  0.1110448383395946   T   T   T
  0.7629217856240278  0.3810676146829765  0.1110036912153149   T   T   T
  0.7594538594453424  0.5228329979921339  0.1110427235389882   T   T   T
  0.7579574717467439  0.6646939384973694  0.1110802765811584   T   T   T
  0.7594538594453424  0.8080512667012116  0.1110427235389882   T   T   T
  0.9512699460106556  0.9039003225002172  0.1109992893882453   T   T   T
  0.9535588571963320  0.0481389738400456  0.1109894425150383   T   T   T
  0.9557681788804802  0.1922952542543893  0.1110449700554006   T   T   T
  0.9557681788804802  0.3348999067440886  0.1110449700554006   T   T   T
  0.9535588571963320  0.4768468654742855  0.1109894425150383   T   T   T
  0.9512699460106557  0.6187983171854349  0.1109992893882453   T   T   T
  0.9506077545761012  0.7610182241255514  0.1110162324172822   T   T   T
  0.0942071783495911  0.9039835107350325  0.1109692492024776   T   T   T
  0.0951463743451983  0.0469918218049867  0.1110070810901328   T   T   T
  0.0985231364318637  0.1920779097948993  0.1110039747185332   T   T   T
  0.1007941641221650  0.3361114288980828  0.1110239818658715   T   T   T
  0.0985231364318637  0.4778739203109648  0.1110039747185332   T   T   T
  0.0951463743451983  0.6195832462152149  0.1110070810901328   T   T   T
  0.0942071783495911  0.7616540728455635  0.1109692492024776   T   T   T
  0.2376382297066237  0.9045343174688113  0.1109781419289699   T   T   T
  0.2378241925846365  0.0464109376534183  0.1110323681624301   T   T   T
  0.2387543925404721  0.1889879723918774  0.1110362369658107   T   T   T
  0.2450383678089449  0.3364420020123067  0.1110185136803848   T   T   T
  0.2450383678089451  0.4800250594706320  0.1110185136803848   T   T   T
  0.2387543925404721  0.6211951138235904  0.1110362369658107   T   T   T
  0.2378241925846365  0.7628419486062217  0.1110323681624301   T   T   T
  0.3814831400643124  0.9061034483838591  0.1110110642473248   T   T   T
  0.3814831400643124  0.0468083853554548  0.1110110642473248   T   T   T
  0.3816008033559052  0.1873188936279761  0.1110568627146709   T   T   T
  0.3819386251112227  0.3267639923860065  0.1109894716576683   T   T   T
  0.3819386251112227  0.6266033264002124  0.1109894716576683   T   T   T
  0.3816008033559052  0.7657106034029330  0.1110568627146709   T   T   T
  0.5251626500281722  0.9070336122223629  0.1110118401328455   T   T   T
  0.5252272612191983  0.0483271216691027  0.1109663111909297   T   T   T
  0.5251626500281722  0.1895577314808120  0.1110118401328455   T   T   T
  0.5247921700760638  0.3305324324854048  0.1110043173820428   T   T   T
  0.5171001570847213  0.4696986996652677  0.1109622936480119   T   T   T
  0.5171001570847221  0.6188301510944504  0.1109622936480119   T   T   T
  0.5247921700760638  0.7656884312656616  0.1110043173820428   T   T   T
  0.6678519114983578  0.9061455287960880  0.1109954921782978   T   T   T
  0.6686330672434283  0.0489617382199770  0.1109967468089430   T   T   T
  0.6686330672434283  0.1910983111424592  0.1109967468089430   T   T   T
  0.6678519114983578  0.3331350763772719  0.1109954921782978   T   T   T
  0.6636271273957148  0.4749792764716999  0.1110193584914867   T   T   T
  0.6619498943071157  0.6166892939915567  0.1110459438892854   T   T   T
  0.6636271273957148  0.7600765445990187  0.1110193584914867   T   T   T
  0.8089066496498372  0.9041789208161567  0.1109955781853015   T   T   T
  0.8114961751571058  0.0488312338075837  0.1110178272206978   T   T   T
  0.8121947409850155  0.1918108615515107  0.1110588670007474   T   T   T
  0.8114961751571058  0.3340919234675274  0.1110178272206978   T   T   T
  0.8089066496498372  0.4761564225076818  0.1109955781853015   T   T   T
  0.8069481764451304  0.6180279712559573  0.1110560725657166   T   T   T
  0.8069481764451304  0.7603488988641737  0.1110560725657166   T   T   T

  0.00000000E+00  0.00000000E+00  0.00000000E+00
  0.00000000E+00  0.00000000E+00  0.00000000E+00
  0.00000000E+00  0.00000000E+00  0.00000000E+00
  0.00000000E+00  0.00000000E+00  0.00000000E+00
  0.00000000E+00  0.00000000E+00  0.00000000E+00
  0.00000000E+00  0.00000000E+00  0.00000000E+00
  0.00000000E+00  0.00000000E+00  0.00000000E+00
  0.00000000E+00  0.00000000E+00  0.00000000E+00
  0.00000000E+00  0.00000000E+00  0.00000000E+00
  0.00000000E+00  0.00000000E+00  0.00000000E+00
  0.00000000E+00  0.00000000E+00  0.00000000E+00
  0.00000000E+00  0.00000000E+00  0.00000000E+00
  0.00000000E+00  0.00000000E+00  0.00000000E+00
  0.00000000E+00  0.00000000E+00  0.00000000E+00
  0.00000000E+00  0.00000000E+00  0.00000000E+00
  0.00000000E+00  0.00000000E+00  0.00000000E+00
  0.00000000E+00  0.00000000E+00  0.00000000E+00
  0.00000000E+00  0.00000000E+00  0.00000000E+00
  0.00000000E+00  0.00000000E+00  0.00000000E+00
  0.00000000E+00  0.00000000E+00  0.00000000E+00
  0.00000000E+00  0.00000000E+00  0.00000000E+00
  0.00000000E+00  0.00000000E+00  0.00000000E+00
  0.00000000E+00  0.00000000E+00  0.00000000E+00
  0.00000000E+00  0.00000000E+00  0.00000000E+00
  0.00000000E+00  0.00000000E+00  0.00000000E+00
  0.00000000E+00  0.00000000E+00  0.00000000E+00
  0.00000000E+00  0.00000000E+00  0.00000000E+00
  0.00000000E+00  0.00000000E+00  0.00000000E+00
  0.00000000E+00  0.00000000E+00  0.00000000E+00
  0.00000000E+00  0.00000000E+00  0.00000000E+00
  0.00000000E+00  0.00000000E+00  0.00000000E+00
  0.00000000E+00  0.00000000E+00  0.00000000E+00
  0.00000000E+00  0.00000000E+00  0.00000000E+00
  0.00000000E+00  0.00000000E+00  0.00000000E+00
  0.00000000E+00  0.00000000E+00  0.00000000E+00
  0.00000000E+00  0.00000000E+00  0.00000000E+00
  0.00000000E+00  0.00000000E+00  0.00000000E+00
  0.00000000E+00  0.00000000E+00  0.00000000E+00
  0.00000000E+00  0.00000000E+00  0.00000000E+00
  0.00000000E+00  0.00000000E+00  0.00000000E+00
  0.00000000E+00  0.00000000E+00  0.00000000E+00
  0.00000000E+00  0.00000000E+00  0.00000000E+00
  0.00000000E+00  0.00000000E+00  0.00000000E+00
  0.00000000E+00  0.00000000E+00  0.00000000E+00
  0.00000000E+00  0.00000000E+00  0.00000000E+00
  0.00000000E+00  0.00000000E+00  0.00000000E+00
  0.00000000E+00  0.00000000E+00  0.00000000E+00
  0.00000000E+00  0.00000000E+00  0.00000000E+00
  0.00000000E+00  0.00000000E+00  0.00000000E+00
  0.00000000E+00  0.00000000E+00  0.00000000E+00
  0.00000000E+00  0.00000000E+00  0.00000000E+00
  0.00000000E+00  0.00000000E+00  0.00000000E+00
  0.00000000E+00  0.00000000E+00  0.00000000E+00
  0.00000000E+00  0.00000000E+00  0.00000000E+00
  0.00000000E+00  0.00000000E+00  0.00000000E+00
  0.00000000E+00  0.00000000E+00  0.00000000E+00
  0.00000000E+00  0.00000000E+00  0.00000000E+00
  0.00000000E+00  0.00000000E+00  0.00000000E+00
  0.00000000E+00  0.00000000E+00  0.00000000E+00
  0.00000000E+00  0.00000000E+00  0.00000000E+00
  0.00000000E+00  0.00000000E+00  0.00000000E+00
  0.00000000E+00  0.00000000E+00  0.00000000E+00
  0.00000000E+00  0.00000000E+00  0.00000000E+00
  0.00000000E+00  0.00000000E+00  0.00000000E+00
  0.00000000E+00  0.00000000E+00  0.00000000E+00
  0.00000000E+00  0.00000000E+00  0.00000000E+00
  0.00000000E+00  0.00000000E+00  0.00000000E+00
  0.00000000E+00  0.00000000E+00  0.00000000E+00
  0.00000000E+00  0.00000000E+00  0.00000000E+00
  0.00000000E+00  0.00000000E+00  0.00000000E+00
  0.00000000E+00  0.00000000E+00  0.00000000E+00
  0.00000000E+00  0.00000000E+00  0.00000000E+00
  0.00000000E+00  0.00000000E+00  0.00000000E+00
  0.00000000E+00  0.00000000E+00  0.00000000E+00
  0.00000000E+00  0.00000000E+00  0.00000000E+00
  0.00000000E+00  0.00000000E+00  0.00000000E+00
  0.00000000E+00  0.00000000E+00  0.00000000E+00
  0.00000000E+00  0.00000000E+00  0.00000000E+00
  0.00000000E+00  0.00000000E+00  0.00000000E+00
  0.00000000E+00  0.00000000E+00  0.00000000E+00
  0.00000000E+00  0.00000000E+00  0.00000000E+00
  0.00000000E+00  0.00000000E+00  0.00000000E+00
  0.00000000E+00  0.00000000E+00  0.00000000E+00
  0.00000000E+00  0.00000000E+00  0.00000000E+00
  0.00000000E+00  0.00000000E+00  0.00000000E+00
  0.00000000E+00  0.00000000E+00  0.00000000E+00
  0.00000000E+00  0.00000000E+00  0.00000000E+00
  0.00000000E+00  0.00000000E+00  0.00000000E+00
  0.00000000E+00  0.00000000E+00  0.00000000E+00
  0.00000000E+00  0.00000000E+00  0.00000000E+00
  0.00000000E+00  0.00000000E+00  0.00000000E+00
  0.00000000E+00  0.00000000E+00  0.00000000E+00
  0.00000000E+00  0.00000000E+00  0.00000000E+00
  0.00000000E+00  0.00000000E+00  0.00000000E+00
  0.00000000E+00  0.00000000E+00  0.00000000E+00
  0.00000000E+00  0.00000000E+00  0.00000000E+00
  0.00000000E+00  0.00000000E+00  0.00000000E+00
