B C N                                   
   1.0000000000000000     
     8.7639499999999995  -15.1796066749929999    0.0000000000000000
     8.7639499999999995   15.1796066749929999    0.0000000000000000
     0.0000000000000000    0.0000000000000000   15.0000000000000000
   B    C    N 
    48     1    49
Selective dynamics
Direct
  0.9047239708885134  0.9522523021815733  0.1110126115795513   T   T   T
  0.9049894421519604  0.0950123045400394  0.1110520992535191   T   T   T
  0.9045626608363970  0.2379892030565212  0.1110504137287774   T   T   T
  0.9049911115615091  0.3814181280945944  0.1110040422137608   T   T   T
  0.9047264702153320  0.5238691700053296  0.1109902627382152   T   T   T
  0.9044765382455259  0.6666467441733502  0.1110425112715693   T   T   T
  0.9044807426359738  0.8092602653890623  0.1110458848594858   T   T   T
  0.0476452401528323  0.9523564832121634  0.1110019066399132   T   T   T
  0.0477494131604285  0.0952777495834931  0.1110126111065501   T   T   T
  0.0482869348482690  0.2385391053732550  0.1110179427365125   T   T   T
  0.0482745969610767  0.3811696116691135  0.1110308843155465   T   T   T
  0.0477186041712858  0.5238628387875505  0.1110047709826809   T   T   T
  0.0476506107187806  0.6667320429481461  0.1110128670076299   T   T   T
  0.0475766357085873  0.8095063246416906  0.1109885949884377   T   T   T
  0.1904954250513079  0.9524251273844229  0.1109885934624406   T   T   T
  0.1907414356469360  0.0955209700720318  0.1110458807354886   T   T   T
  0.1912927422526602  0.2388174087465544  0.1110268366965975   T   T   T
  0.1908999717238766  0.3811576721689490  0.1109980067673915   T   T   T
  0.1912819028668404  0.5239140190808254  0.1110389850763179   T   T   T
  0.1907443517512658  0.6666661674244738  0.1110597141402517   T   T   T
  0.1904987710987620  0.8095029234422363  0.1109934947367564   T   T   T
  0.3332696927568523  0.9523511131152229  0.1110128694216278   T   T   T
  0.3333549698036492  0.0955252016744760  0.1110425068945692   T   T   T
  0.3335347711331059  0.2384789650511808  0.1110855126445897   T   T   T
  0.3346113093857971  0.3819996302843040  0.1109977488973750   T   T   T
  0.3346122987894542  0.5240473052594103  0.1110181305308301   T   T   T
  0.3335129437543277  0.6664887590196724  0.1110763112657095   T   T   T
  0.3333354858955241  0.8092572770917289  0.1110597176732549   T   T   T
  0.4761388486314504  0.9522829767587108  0.1110047762936823   T   T   T
  0.4761325715006747  0.0952753524606657  0.1109902714312153   T   T   T
  0.4760823284058079  0.2388138893350224  0.1110451965124755   T   T   T
  0.4759682370269567  0.3820029046953802  0.1110499805168461   T   T   T
  0.4759544791735854  0.6653895585505486  0.1110181310448367   T   T   T
  0.4760876967091736  0.8087197842011596  0.1110389908133181   T   T   T
  0.6188321273028965  0.9517270874559238  0.1110308864225473   T   T   T
  0.6185835422534042  0.0950105757204920  0.1110040432997614   T   T   T
  0.6188586968259291  0.2385629385695229  0.1110187874588937   T   T   T
  0.6188453905321255  0.3811563436768750  0.1110184797996790   T   T   T
  0.6179986642746190  0.5240334301760448  0.1110499752588441   T   T   T
  0.6180020191706898  0.6653904143301993  0.1109977486103726   T   T   T
  0.6188440709910495  0.8091017976791226  0.1109980024193886   T   T   T
  0.7614626351547440  0.9517147846787301  0.1110179449625079   T   T   T
  0.7620124927044788  0.0954390156976009  0.1110504161317761   T   T   T
  0.7620011030970036  0.2380006020829936  0.1110593456445164   T   T   T
  0.7614388838144772  0.3811430586050715  0.1110187790518941   T   T   T
  0.7611878628409748  0.5239193544012025  0.1110451885484780   T   T   T
  0.7615226937198171  0.6664669094118915  0.1110855212725893   T   T   T
  0.7611842626774474  0.8087089744293399  0.1110268391705936   T   T   T
  0.4762110052929466  0.5237906502540489  0.1112002301626584   T   T   T
  0.9522015445211728  0.9047702265216095  0.1110014723713541   T   T   T
  0.9523692888350184  0.0476324284749808  0.1110055230959438   T   T   T
  0.9523495659231248  0.1905200910720217  0.1110342598162080   T   T   T
  0.9523443558850131  0.3332932863000675  0.1110150147672800   T   T   T
  0.9523557708557188  0.4761563086711136  0.1109565144405388   T   T   T
  0.9521941521184474  0.6188254089200601  0.1109952518354304   T   T   T
  0.9522158162969907  0.7618004449349923  0.1110189847053702   T   T   T
  0.0952066623742120  0.9047950900937897  0.1109603328909349   T   T   T
  0.0952314789163928  0.0478001742938270  0.1110014788683509   T   T   T
  0.0954730669980240  0.1908724543172746  0.1109981749880730   T   T   T
  0.0955148464984319  0.3334828674854914  0.1109985811860538   T   T   T
  0.0954475706253998  0.4760284273131334  0.1110080443367282   T   T   T
  0.0952026020585147  0.6188376089875591  0.1110156226162644   T   T   T
  0.0952047628381009  0.7618271264981551  0.1109706762019902   T   T   T
  0.2381745856628464  0.9047969479198982  0.1109706770939913   T   T   T
  0.2382012844420119  0.0477859526670069  0.1110189772823729   T   T   T
  0.2382985780906045  0.1907755629770173  0.1110486217992007   T   T   T
  0.2388869116806368  0.3341776068901768  0.1109789074267337   T   T   T
  0.2388669289003957  0.4761501613237135  0.1110001819420396   T   T   T
  0.2382679810961376  0.6189565967714903  0.1110526989406142   T   T   T
  0.2381761799807664  0.7618254542142281  0.1110253632193192   T   T   T
  0.3811640621154408  0.9047990237244851  0.1110156267662674   T   T   T
  0.3811763182669378  0.0478075988015520  0.1109952595834300   T   T   T
  0.3810779713272971  0.1907779796592753  0.1110509858504681   T   T   T
  0.3810775206591814  0.3335429283675344  0.1110542600259591   T   T   T
  0.3835528000064055  0.4774884686326309  0.1109585107067215   T   T   T
  0.3810483145331038  0.6189534834258976  0.1110487717563421   T   T   T
  0.3810451417175069  0.7617337257838613  0.1110527035616146   T   T   T
  0.5239733049148668  0.9045540248905969  0.1110080581147274   T   T   T
  0.5238453496778859  0.0476458909042837  0.1109565148855446   T   T   T
  0.5239881852593827  0.1908681458671072  0.1110000231694551   T   T   T
  0.5238812268218234  0.3341626790812985  0.1110259264907026   T   T   T
  0.5225313798510178  0.4774702167739869  0.1109956011622099   T   T   T
  0.5225131906503698  0.6164488821325950  0.1109585122847232   T   T   T
  0.5238516212892914  0.7611349274276094  0.1110001791260380   T   T   T
  0.6665189231265051  0.9044869009745681  0.1109985789730542   T   T   T
  0.6667083834309242  0.0476572983639912  0.1110150132992845   T   T   T
  0.6667266334104063  0.1905301733260822  0.1110223334199413   T   T   T
  0.6665285377222412  0.3334732728267603  0.1109932682865998   T   T   T
  0.6658389850506947  0.4761204891881739  0.1110259060917028   T   T   T
  0.6664587022764659  0.6189241738858171  0.1110542626609571   T   T   T
  0.6658240595638202  0.7611148457873619  0.1109789002957339   T   T   T
  0.8091292581987283  0.9045286480359788  0.1109981753640780   T   T   T
  0.8094816342049805  0.0476521431498722  0.1110342695032076   T   T   T
  0.8095146200571646  0.1904870346348348  0.1110397871671165   T   T   T
  0.8094715647819148  0.3332750517505964  0.1110223274799462   T   T   T
  0.8091337456878943  0.4760135691906213  0.1110000026584525   T   T   T
  0.8092237417077237  0.6189237327197042  0.1110510012034706   T   T   T
  0.8092260991169830  0.7617031136934028  0.1110486330951959   T   T   T

  0.00000000E+00  0.00000000E+00  0.00000000E+00
  0.00000000E+00  0.00000000E+00  0.00000000E+00
  0.00000000E+00  0.00000000E+00  0.00000000E+00
  0.00000000E+00  0.00000000E+00  0.00000000E+00
  0.00000000E+00  0.00000000E+00  0.00000000E+00
  0.00000000E+00  0.00000000E+00  0.00000000E+00
  0.00000000E+00  0.00000000E+00  0.00000000E+00
  0.00000000E+00  0.00000000E+00  0.00000000E+00
  0.00000000E+00  0.00000000E+00  0.00000000E+00
  0.00000000E+00  0.00000000E+00  0.00000000E+00
  0.00000000E+00  0.00000000E+00  0.00000000E+00
  0.00000000E+00  0.00000000E+00  0.00000000E+00
  0.00000000E+00  0.00000000E+00  0.00000000E+00
  0.00000000E+00  0.00000000E+00  0.00000000E+00
  0.00000000E+00  0.00000000E+00  0.00000000E+00
  0.00000000E+00  0.00000000E+00  0.00000000E+00
  0.00000000E+00  0.00000000E+00  0.00000000E+00
  0.00000000E+00  0.00000000E+00  0.00000000E+00
  0.00000000E+00  0.00000000E+00  0.00000000E+00
  0.00000000E+00  0.00000000E+00  0.00000000E+00
  0.00000000E+00  0.00000000E+00  0.00000000E+00
  0.00000000E+00  0.00000000E+00  0.00000000E+00
  0.00000000E+00  0.00000000E+00  0.00000000E+00
  0.00000000E+00  0.00000000E+00  0.00000000E+00
  0.00000000E+00  0.00000000E+00  0.00000000E+00
  0.00000000E+00  0.00000000E+00  0.00000000E+00
  0.00000000E+00  0.00000000E+00  0.00000000E+00
  0.00000000E+00  0.00000000E+00  0.00000000E+00
  0.00000000E+00  0.00000000E+00  0.00000000E+00
  0.00000000E+00  0.00000000E+00  0.00000000E+00
  0.00000000E+00  0.00000000E+00  0.00000000E+00
  0.00000000E+00  0.00000000E+00  0.00000000E+00
  0.00000000E+00  0.00000000E+00  0.00000000E+00
  0.00000000E+00  0.00000000E+00  0.00000000E+00
  0.00000000E+00  0.00000000E+00  0.00000000E+00
  0.00000000E+00  0.00000000E+00  0.00000000E+00
  0.00000000E+00  0.00000000E+00  0.00000000E+00
  0.00000000E+00  0.00000000E+00  0.00000000E+00
  0.00000000E+00  0.00000000E+00  0.00000000E+00
  0.00000000E+00  0.00000000E+00  0.00000000E+00
  0.00000000E+00  0.00000000E+00  0.00000000E+00
  0.00000000E+00  0.00000000E+00  0.00000000E+00
  0.00000000E+00  0.00000000E+00  0.00000000E+00
  0.00000000E+00  0.00000000E+00  0.00000000E+00
  0.00000000E+00  0.00000000E+00  0.00000000E+00
  0.00000000E+00  0.00000000E+00  0.00000000E+00
  0.00000000E+00  0.00000000E+00  0.00000000E+00
  0.00000000E+00  0.00000000E+00  0.00000000E+00
  0.00000000E+00  0.00000000E+00  0.00000000E+00
  0.00000000E+00  0.00000000E+00  0.00000000E+00
  0.00000000E+00  0.00000000E+00  0.00000000E+00
  0.00000000E+00  0.00000000E+00  0.00000000E+00
  0.00000000E+00  0.00000000E+00  0.00000000E+00
  0.00000000E+00  0.00000000E+00  0.00000000E+00
  0.00000000E+00  0.00000000E+00  0.00000000E+00
  0.00000000E+00  0.00000000E+00  0.00000000E+00
  0.00000000E+00  0.00000000E+00  0.00000000E+00
  0.00000000E+00  0.00000000E+00  0.00000000E+00
  0.00000000E+00  0.00000000E+00  0.00000000E+00
  0.00000000E+00  0.00000000E+00  0.00000000E+00
  0.00000000E+00  0.00000000E+00  0.00000000E+00
  0.00000000E+00  0.00000000E+00  0.00000000E+00
  0.00000000E+00  0.00000000E+00  0.00000000E+00
  0.00000000E+00  0.00000000E+00  0.00000000E+00
  0.00000000E+00  0.00000000E+00  0.00000000E+00
  0.00000000E+00  0.00000000E+00  0.00000000E+00
  0.00000000E+00  0.00000000E+00  0.00000000E+00
  0.00000000E+00  0.00000000E+00  0.00000000E+00
  0.00000000E+00  0.00000000E+00  0.00000000E+00
  0.00000000E+00  0.00000000E+00  0.00000000E+00
  0.00000000E+00  0.00000000E+00  0.00000000E+00
  0.00000000E+00  0.00000000E+00  0.00000000E+00
  0.00000000E+00  0.00000000E+00  0.00000000E+00
  0.00000000E+00  0.00000000E+00  0.00000000E+00
  0.00000000E+00  0.00000000E+00  0.00000000E+00
  0.00000000E+00  0.00000000E+00  0.00000000E+00
  0.00000000E+00  0.00000000E+00  0.00000000E+00
  0.00000000E+00  0.00000000E+00  0.00000000E+00
  0.00000000E+00  0.00000000E+00  0.00000000E+00
  0.00000000E+00  0.00000000E+00  0.00000000E+00
  0.00000000E+00  0.00000000E+00  0.00000000E+00
  0.00000000E+00  0.00000000E+00  0.00000000E+00
  0.00000000E+00  0.00000000E+00  0.00000000E+00
  0.00000000E+00  0.00000000E+00  0.00000000E+00
  0.00000000E+00  0.00000000E+00  0.00000000E+00
  0.00000000E+00  0.00000000E+00  0.00000000E+00
  0.00000000E+00  0.00000000E+00  0.00000000E+00
  0.00000000E+00  0.00000000E+00  0.00000000E+00
  0.00000000E+00  0.00000000E+00  0.00000000E+00
  0.00000000E+00  0.00000000E+00  0.00000000E+00
  0.00000000E+00  0.00000000E+00  0.00000000E+00
  0.00000000E+00  0.00000000E+00  0.00000000E+00
  0.00000000E+00  0.00000000E+00  0.00000000E+00
  0.00000000E+00  0.00000000E+00  0.00000000E+00
  0.00000000E+00  0.00000000E+00  0.00000000E+00
  0.00000000E+00  0.00000000E+00  0.00000000E+00
  0.00000000E+00  0.00000000E+00  0.00000000E+00
  0.00000000E+00  0.00000000E+00  0.00000000E+00
