 N As B 
 1.0
 17.527899999999772   0.000000000000000   0.000000000000000
 -8.763949999999658  15.179606674993195   0.000000000000000
  0.000000000000001   0.000000000000002  15.000000000000000
 N As B 
  48   1  48
Cartesian
  8.792999970157801  13.717110385253985   1.659223417202025 
 16.328704871373414   0.724184862003016   1.661710766617860 
 15.089732801003084   2.900563872099507   1.662564018861210 
 13.833338565091035   5.063702385861323   1.660695910320075 
 12.539058048112008   7.226003728255066   1.660251896730120 
 11.268683193461131   9.385888821494378   1.661086712425725 
 10.022199043458091  11.544495988161632   1.660087589703690 
 -6.238153400695431  13.721536510074806   1.659568379310030 
  1.299701400232311   0.713670947259896   1.660077499985445 
  0.053118273778108   2.875964747676642   1.661554342799430 
 -1.189239352030783   5.072313257924612   1.661580785915640 
 -2.508088337067591   7.240362451741939   1.660547881871415 
 -3.761626452610638   9.406001056147462   1.661511002172060 
 -5.005029705890040  11.563002517714025   1.660614760486995 
 -3.736109819772946  13.734956176925948   1.659717732822525 
  3.802340379473981   0.706928451735316   1.660138243832340 
  2.585781621001488   2.880179131052989   1.660591621642035 
  1.312098600211718   5.009990323764950   1.660559912971290 
 -0.048407163541896   7.265896857301940   1.658976916047630 
 -1.274695748810164   9.439230803506508   1.661287988803740 
 -2.506380654595283  11.589268811182396   1.662116292743055 
 -1.230795800596186  13.764041922351257   1.662427659120450 
  6.315509003825507   0.709583589959312   1.661356904843595 
  5.111138395564955   2.837089954854480   1.660604562568875 
  3.970398653125635   4.998067752431077   1.660405214333850 
  1.185572129143751   9.558506849470231   1.658922820578600 
 -0.013957428646993  11.650739227606321   1.662905462516370 
  1.284340107075547  13.781845952454928   1.662299077424085 
  8.822597260776428   0.729979621866258   1.662093281480670 
  7.603074369498129   2.863002671649871   1.661813389933545 
  6.404184784911449   5.000263456931670   1.660923287078550 
  4.057231786710026   8.316169531621791   1.669961236673310 
  3.762647594125825   9.617689217936009   1.659764410121820 
  2.512676746191770  11.662075596749231   1.659776767002930 
  3.803072243678391  13.773809332148167   1.660720021751205 
 11.331525111807565   0.737810926499909   1.660777572978255 
 10.100958196867326   2.877706319463946   1.660597336297860 
  8.876683352763470   5.016190357637888   1.660615572773535 
  7.544305123544435   7.152403982957815   1.662710505042450 
  6.219990315503365   9.304510506504924   1.658297457572625 
  5.054296784392215  11.631860725710718   1.658662151313570 
  6.309898506506830  13.754383988611135   1.660559697819435 
 13.833852557206406   0.738943815917447   1.661641409984625 
 12.593225040070312   2.895053425443548   1.660615949746605 
 11.344528395775214   5.049650657906008   1.660092563846910 
 10.044224884619425   7.206595688076307   1.661446478669220 
  8.759312141912154   9.360408049291351   1.661387298488505 
  7.518939630805071  11.529025512242663   1.660219929624720 
  2.679624277456618   7.321502909187843   1.665639341239440 
  7.559114758389759  14.459512080199975   1.660565688622800 
 15.085701729689308   1.455261071954253   1.662446928137325 
 13.838063404832488   3.620369995047066   1.661475982412100 
 12.575265672332261   5.782126140011585   1.660428657425025 
 11.274298251586833   7.938639165903186   1.661026886143860 
  9.998942347089919  10.090118894048485   1.661162638988070 
  8.767938039114224  12.255949177996252   1.660004516822370 
 -7.483354842624292  14.444438888234913   1.659639883003335 
  0.052504714361663   1.436037202904886   1.661480932426185 
 -1.186325505042709   3.620819668064137   1.662452904284970 
 -2.453302460948456   5.792762792492761   1.661052123204465 
 -3.757967494993498   7.959703052166225   1.660901835481515 
 -5.019765318827936  10.119737783328796   1.661434590795435 
 -6.258994146894182  12.274477519123820   1.660219813111335 
 -4.985657207545480  14.449407073869278   1.660079229036555 
  2.561239577009668   1.439847650998707   1.660501121025150 
  1.313048641020998   3.574483162575056   1.660893489104670 
  0.066243425737751   5.798929969673281   1.660753639468995 
 -1.287277629080081   7.983134493577852   1.660372910074125 
 -2.522392438408650  10.145145513291563   1.662117858877545 
 -3.757807226224928  12.295484803674286   1.660830182243235 
 -2.480573514919305  14.463079902276768   1.661164249962180 
  5.069220115656319   1.420374726880511   1.661024472769425 
  3.896026072498682   3.580340803569819   1.660843006828410 
  2.673641619982296   5.516038465549224   1.662213392986485 
  1.073339866143079   8.148829825409152   1.659126934020765 
 -0.054230462060269  10.227688082165876   1.661389074069690 
 -1.262270627011016  12.335730275335079   1.663251060145995 
  0.030814547788642  14.481648181529071   1.662688960528845 
  7.571118890347291   1.438760128678646   1.662586986238005 
  6.356593697118052   3.589629837510488   1.661242552491510 
  5.280860687806685   5.919342299876103   1.659053150436015 
  2.478418778014762  10.236880869563102   1.659232864058790 
  1.259593888917428  12.354134503650016   1.661977373778420 
  2.550912418266773  14.484097285279297   1.661482528178790 
 10.079620384144015   1.447396686731320   1.661345447795100 
  8.849946973391665   3.589824027260206   1.661241854008710 
  7.630017145401904   5.726228799198293   1.661982754232940 
  6.101778207419569   7.600189415471423   1.659058976189475 
  5.085453381038183  10.194352683223498   1.658714682675870 
  3.795596498320077  12.337127266595026   1.659826670470575 
  5.063339196761055  14.476899953646281   1.661181152366040 
 12.584081400794028   1.456057385350602   1.661087782423890 
 11.340797439385547   3.610814055857264   1.660414917522570 
 10.088130498113532   5.765808696033587   1.661022744988005 
  8.752623135841354   7.904333167370127   1.662662463535575 
  7.469345220493731  10.035286054483212   1.659985355573400 
  6.309150933431617  12.309097840694758   1.659877700065125 
