 N B In 
 1.0
 17.527899999999772   0.000000000000000   0.000000000000000
 -8.763949999999658  15.179606674993195   0.000000000000000
  0.000000000000001   0.000000000000002  15.000000000000000
 N B In 
  49  47   1
Cartesian
  8.763268487832764  13.773757433652047   1.665037963701240 
 16.289801758823920   0.777106146751377   1.663747291629825 
 15.032652984972804   2.929410663014600   1.664784418603665 
 13.760507101152584   5.078825181552889   1.663803228060585 
 12.447067184399234   7.226218371721019   1.664024178786285 
 11.190560400709749   9.371336457560728   1.664543248483620 
  9.969939661254951  11.547149778279705   1.664497475943390 
 -6.285096544225170  13.712359338641344   1.663962679201860 
  1.264287018151289   0.742786810691386   1.663932592392540 
  0.015030155786548   2.908331274194396   1.664899329739065 
 -1.250634906024069   5.078320309243487   1.664818436356350 
 -2.547488612183515   7.235014842744238   1.664680529369205 
 -3.809992704847957   9.383287673790509   1.665038214898290 
 -5.055837645994254  11.535954468669733   1.663388048682300 
 -3.787084592417743  13.693383902979757   1.664087177781645 
  3.743839838146011   0.682317520647107   1.665096311460735 
  2.545392980920754   2.905408767024769   1.665345804258780 
  1.263527842842525   5.030766059836433   1.666312070077530 
 -0.035386753184587   7.236274921689932   1.664888476839315 
 -1.286844479196922   9.395760751503277   1.665727581661860 
 -2.544968561678263  11.542206626105042   1.664463224162610 
 -1.277436533625966  13.703180490460012   1.664348139510570 
  6.250317888985429   0.657365610905612   1.664622161863995 
  5.018372141698408   2.805021477557125   1.664761015586145 
  3.886280278528100   5.103125055970307   1.668454722745530 
  2.380792139179767   7.131819422588164   1.664532211125600 
  1.235150321012034   9.423892135754858   1.666335236200755 
 -0.034752182222065  11.570287054832351   1.665560416619355 
  1.226869360689694  13.766798542645612   1.664448693595665 
  8.771988762145641   0.676172168689416   1.664752910175045 
  7.561037606379994   2.757577598547314   1.662362035137990 
  6.381595467051111   4.792154744985004   1.662901128679740 
  5.968922112719643   7.009159175625856   1.674649451924355 
  3.725007897647506   9.774602258499037   1.671435262440840 
  2.446872423284399  11.691759941050183   1.666831077857670 
  3.738576867245152  13.834927683126514   1.664421804488265 
 11.271671026658121   0.746019380751418   1.664670651757095 
 10.042545457346048   2.845276597214135   1.664553726434505 
  8.820066171321114   4.941415268126290   1.662178365639315 
  7.315547449031512   6.974966693663893   1.668382918979130 
  6.183595968466875   9.725989144462462   1.662800166963960 
  4.999378839883290  11.799149796578030   1.668181625401410 
  6.271251501881382  13.844097641814381   1.664545585223115 
 13.777913662071644   0.784667135949094   1.663797425644935 
 12.525641261513815   2.914662936289933   1.664940263826315 
 11.258236105364711   5.055397952654375   1.663367049718365 
  9.881601208773787   7.198095410448884   1.664800538651430 
  8.663588206415035   9.360094396733542   1.665432602639145 
  7.496686760112353  11.650016062879789   1.666214395825770 
  7.527236333425398  14.526524416223516   1.664695407074010 
 15.034721258174738   1.492804804769696   1.664355673259220 
 13.776513976761283   3.638264803017539   1.665018415717785 
 12.504708757865313   5.786351907873547   1.663676404194180 
 11.177557103603574   7.932281081179107   1.664740628633655 
  9.949357274166813  10.099071623241336   1.664855668250580 
  8.756347149234166  12.333448938576165   1.665714113883795 
 -7.510051747615254  14.475482798146549   1.664483106525300 
  0.015739234955476   1.472537099361723   1.664259165217980 
 -1.239666402361071   3.637936513420103   1.665323946430845 
 -2.513072704795717   5.795725399233580   1.664496198969225 
 -3.811676462026309   7.945385357991829   1.664991380324535 
 -5.064249376971270  10.096445483297135   1.664554582568100 
 -6.297746247087433  12.266096181665167   1.663914457329150 
 -5.031105143363176  14.417547657894735   1.664711144340525 
  2.520856801677660   1.446549548387190   1.664800448177295 
  1.268840302583867   3.601474101395674   1.665786969716610 
  0.003633741858683   5.789340760486572   1.665407175722595 
 -1.292713953656008   7.954505755917171   1.665454847845110 
 -2.546630129770134  10.104118253993050   1.665692835554460 
 -3.796309640758393  12.253788365964279   1.664009944269555 
 -2.530065061654954  14.400901997073470   1.664715560814285 
  4.998294391468315   1.365116561240741   1.665240870258105 
  3.814436564603305   3.600871750413120   1.666262782262415 
  2.503874644909738   5.741108704634267   1.666637499303990 
  1.211818363944202   7.962232176959469   1.665297564692595 
 -0.032748991730454  10.125563803022356   1.666126962266880 
 -1.290784282469832  12.265567400945255   1.664869487746710 
 -0.026241425356174  14.431496199326368   1.664699646020985 
  7.521630830632760   1.338492013660334   1.664258087650455 
  6.308796599709359   3.397176031516846   1.662913842187815 
  5.278132378725531   5.608661456982124   1.668820969894695 
  2.425566165135296  10.266893466851116   1.668730848831810 
  1.193477532901110  12.343726228871349   1.665624907099605 
  2.478416327098786  14.500625319700823   1.664544308940975 
 10.018932844207264   1.412343199343205   1.665159711629340 
  8.797295320968463   3.497098732347748   1.663162596041640 
  7.580238592234092   5.529574893194252   1.663837002656655 
  4.946584669825557  10.410576788064612   1.669073477201835 
  3.706421437810478  12.421185366294134   1.666796504284245 
  5.004484731113855  14.536436896171983   1.664391518505045 
 12.520841576489866   1.476567255058874   1.664779993649175 
 11.274171090202126   3.604826266929917   1.664522467230420 
 10.011550559638692   5.745039782901487   1.663830743302530 
  8.615875915247340   7.924195444875592   1.666656760955940 
  7.487681527881745  10.201366797280368   1.665919187666325 
  6.270991880592655  12.428538198824656   1.666567263615420 
  4.181427809764696   7.925225418468876   1.678294749368655 
