B In N                                  
   1.0000000000000000     
     8.7639499999999995  -15.1796066749929999    0.0000000000000000
     8.7639499999999995   15.1796066749929999    0.0000000000000000
     0.0000000000000000    0.0000000000000000   15.0000000000000000
   B    In   N 
    47     1    49
Selective dynamics
Direct
  0.9079313046926121  0.9569763385341485  0.1109796938049337   T   T   T
  0.9069308082574792  0.0983427856025369  0.1109570448839484   T   T   T
  0.9058168485766538  0.2396810985235335  0.1110012277145189   T   T   T
  0.9040136348052019  0.3811924796052821  0.1109117602796119   T   T   T
  0.8989817217755784  0.5225617007749422  0.1109827085755768   T   T   T
  0.9002823495347709  0.6653052242703028  0.1109903778833723   T   T   T
  0.9058168527865619  0.8125012197380730  0.1110476075922529   T   T   T
  0.0483441908354210  0.9536138259757014  0.1109655404350198   T   T   T
  0.0494017495343800  0.0970075925476763  0.1109506110145320   T   T   T
  0.0491044119921227  0.2396594715074681  0.1110215964287234   T   T   T
  0.0475294196452990  0.3818099851547158  0.1109664132646150   T   T   T
  0.0442491064660023  0.5234249824852850  0.1109994253549688   T   T   T
  0.0436410602906517  0.6651322197913045  0.1109703055045399   T   T   T
  0.0447336923021328  0.8080641642627189  0.1109276304886097   T   T   T
  0.1878644833651696  0.9497971829300511  0.1109807429560351   T   T   T
  0.1914674646041544  0.0952955883086370  0.1109866965451526   T   T   T
  0.1910184531235398  0.2372574058410039  0.1110524646477739   T   T   T
  0.1909020012868629  0.3813893788186155  0.1110271450481729   T   T   T
  0.1882611200310976  0.5240258147809176  0.1110303231896737   T   T   T
  0.1875287549618840  0.6656376855033088  0.1110461890369638   T   T   T
  0.1870399974283046  0.8072533517058188  0.1109339962846372   T   T   T
  0.3300052820319964  0.9487006024205779  0.1109810373876188   T   T   T
  0.3301276710601910  0.0899309574002093  0.1110160580172073   T   T   T
  0.3362297159968762  0.2372177242474389  0.1110841854841614   T   T   T
  0.3319567832414154  0.3782119542064381  0.1111091666202659   T   T   T
  0.3314039476869429  0.5245348148629179  0.1110198376461731   T   T   T
  0.3316568439825140  0.6670504723750951  0.1110751308177917   T   T   T
  0.3303729687087007  0.8080293293205999  0.1109912991831143   T   T   T
  0.4738609183150175  0.9507160829865726  0.1109799764013994   T   T   T
  0.4732118254341819  0.0881769891880899  0.1109505391766972   T   T   T
  0.4718281765636608  0.2237986862408854  0.1108609228125210   T   T   T
  0.4858707877559567  0.3694866129978064  0.1112547313263125   T   T   T
  0.4765636426476025  0.6763609681510885  0.1112487232554544   T   T   T
  0.4746792938083219  0.8131782656270228  0.1110416604733072   T   T   T
  0.6190334414759220  0.9552701614850846  0.1109696205960651   T   T   T
  0.6181202294933404  0.0930421472428460  0.1110106474419559   T   T   T
  0.6170931038785143  0.2303813799147281  0.1108775064027758   T   T   T
  0.6146052947200757  0.3642765594383708  0.1109224668437765   T   T   T
  0.6251253134051353  0.6858265178382351  0.1112715651467892   T   T   T
  0.6205989395589051  0.8182811078205824  0.1111197669522833   T   T   T
  0.7643300387483178  0.9576293514982335  0.1109594345670033   T   T   T
  0.7629743482490675  0.0972730905795713  0.1109853329099454   T   T   T
  0.7619520025671097  0.2374782393320170  0.1109681644820278   T   T   T
  0.7604134451247456  0.3784709252292970  0.1109220495535020   T   T   T
  0.7525666102874548  0.5220290363603336  0.1111104507303958   T   T   T
  0.7632085643113917  0.6720442114014746  0.1110612791777546   T   T   T
  0.7671547507298386  0.8187654966909886  0.1111044842410281   T   T   T
  0.4996068461427853  0.5220968888162860  0.1118863166245771   T   T   T
  0.9536539488418080  0.9073856608118089  0.1110025309134165   T   T   T
  0.9549611876973250  0.0511940897672648  0.1109164861086555   T   T   T
  0.9541330689832438  0.1929833048863176  0.1109856279069107   T   T   T
  0.9523541432167747  0.3345821331404926  0.1109202152040394   T   T   T
  0.9481527340146544  0.4760478006077363  0.1109349452524188   T   T   T
  0.9471245287312812  0.6173635890710537  0.1109695498989084   T   T   T
  0.9491547586486486  0.7607015139135596  0.1109664983962262   T   T   T
  0.0930937426140061  0.9033408857181402  0.1109308452801244   T   T   T
  0.0965965793537433  0.0489332053586772  0.1109288394928358   T   T   T
  0.0966548188793440  0.1915946398654433  0.1109932886492714   T   T   T
  0.0959233388796556  0.3345488732332889  0.1109878957570899   T   T   T
  0.0929745808035013  0.4766272932923328  0.1109787019579470   T   T   T
  0.0917081315787127  0.6181509096180000  0.1110025476598855   T   T   T
  0.0915368510689397  0.7599639908769180  0.1108925365788199   T   T   T
  0.2349850404260804  0.9020908246284253  0.1109391451854427   T   T   T
  0.2360679854611480  0.0449496179483456  0.1110064207640489   T   T   T
  0.2409205617711425  0.1914021113479264  0.1110230536172516   T   T   T
  0.2377947148100498  0.3314161010590673  0.1110874713385022   T   T   T
  0.2363362707901770  0.4767103045964254  0.1109925651226213   T   T   T
  0.2360693819524689  0.6189726092825446  0.1110485054441242   T   T   T
  0.2349926426409092  0.7603758696277433  0.1109642149441745   T   T   T
  0.3784879199045504  0.9027362028447391  0.1109565426340378   T   T   T
  0.3782454316488491  0.0433058395372360  0.1109748107909327   T   T   T
  0.3787020719452259  0.1847888115690177  0.1109840677057432   T   T   T
  0.3898111526937550  0.3361829568599543  0.1112303148497022   T   T   T
  0.3707432152524145  0.4698289998736982  0.1109688140750404   T   T   T
  0.3808805950743668  0.6208258446695943  0.1110890157467171   T   T   T
  0.3791301960580836  0.7622257481739093  0.1110373611079568   T   T   T
  0.5234588402013552  0.9069272239658857  0.1109632462397108   T   T   T
  0.5227310143118749  0.0445447753137988  0.1109835273450028   T   T   T
  0.5222032174540384  0.1816633103603492  0.1108241356758658   T   T   T
  0.5219305963102581  0.3156968983181609  0.1108600752453161   T   T   T
  0.5714125508224123  0.4617484053241453  0.1116432967949573   T   T   T
  0.5344837169776975  0.6439298769579888  0.1114290174960562   T   T   T
  0.5247127820531888  0.7702281219388333  0.1111220718571779   T   T   T
  0.6690006269614234  0.9114154259291910  0.1109614536325507   T   T   T
  0.6676433296034185  0.0491461601558097  0.1109780434504731   T   T   T
  0.6667273631459097  0.1874407326970754  0.1109702484289668   T   T   T
  0.6659664652668945  0.3255298621318533  0.1108118910426212   T   T   T
  0.6471138212339783  0.4594958777920387  0.1112255279319419   T   T   T
  0.6731495740595060  0.6407273490481813  0.1108533444642639   T   T   T
  0.6738754300940935  0.7773027357827319  0.1112121083600938   T   T   T
  0.8137965758630689  0.9120195231817878  0.1109697056815414   T   T   T
  0.8119022497981085  0.0516921915534053  0.1109198283763292   T   T   T
  0.8106175122164067  0.1920117562131260  0.1109960175884215   T   T   T
  0.8088231604579263  0.3330387974401605  0.1108911366478905   T   T   T
  0.8008616851790064  0.4741951201085461  0.1109867025767619   T   T   T
  0.8025856620593145  0.6166229861642799  0.1110288401759427   T   T   T
  0.8114392865134675  0.7674781245861904  0.1110809597217184   T   T   T

  0.00000000E+00  0.00000000E+00  0.00000000E+00
  0.00000000E+00  0.00000000E+00  0.00000000E+00
  0.00000000E+00  0.00000000E+00  0.00000000E+00
  0.00000000E+00  0.00000000E+00  0.00000000E+00
  0.00000000E+00  0.00000000E+00  0.00000000E+00
  0.00000000E+00  0.00000000E+00  0.00000000E+00
  0.00000000E+00  0.00000000E+00  0.00000000E+00
  0.00000000E+00  0.00000000E+00  0.00000000E+00
  0.00000000E+00  0.00000000E+00  0.00000000E+00
  0.00000000E+00  0.00000000E+00  0.00000000E+00
  0.00000000E+00  0.00000000E+00  0.00000000E+00
  0.00000000E+00  0.00000000E+00  0.00000000E+00
  0.00000000E+00  0.00000000E+00  0.00000000E+00
  0.00000000E+00  0.00000000E+00  0.00000000E+00
  0.00000000E+00  0.00000000E+00  0.00000000E+00
  0.00000000E+00  0.00000000E+00  0.00000000E+00
  0.00000000E+00  0.00000000E+00  0.00000000E+00
  0.00000000E+00  0.00000000E+00  0.00000000E+00
  0.00000000E+00  0.00000000E+00  0.00000000E+00
  0.00000000E+00  0.00000000E+00  0.00000000E+00
  0.00000000E+00  0.00000000E+00  0.00000000E+00
  0.00000000E+00  0.00000000E+00  0.00000000E+00
  0.00000000E+00  0.00000000E+00  0.00000000E+00
  0.00000000E+00  0.00000000E+00  0.00000000E+00
  0.00000000E+00  0.00000000E+00  0.00000000E+00
  0.00000000E+00  0.00000000E+00  0.00000000E+00
  0.00000000E+00  0.00000000E+00  0.00000000E+00
  0.00000000E+00  0.00000000E+00  0.00000000E+00
  0.00000000E+00  0.00000000E+00  0.00000000E+00
  0.00000000E+00  0.00000000E+00  0.00000000E+00
  0.00000000E+00  0.00000000E+00  0.00000000E+00
  0.00000000E+00  0.00000000E+00  0.00000000E+00
  0.00000000E+00  0.00000000E+00  0.00000000E+00
  0.00000000E+00  0.00000000E+00  0.00000000E+00
  0.00000000E+00  0.00000000E+00  0.00000000E+00
  0.00000000E+00  0.00000000E+00  0.00000000E+00
  0.00000000E+00  0.00000000E+00  0.00000000E+00
  0.00000000E+00  0.00000000E+00  0.00000000E+00
  0.00000000E+00  0.00000000E+00  0.00000000E+00
  0.00000000E+00  0.00000000E+00  0.00000000E+00
  0.00000000E+00  0.00000000E+00  0.00000000E+00
  0.00000000E+00  0.00000000E+00  0.00000000E+00
  0.00000000E+00  0.00000000E+00  0.00000000E+00
  0.00000000E+00  0.00000000E+00  0.00000000E+00
  0.00000000E+00  0.00000000E+00  0.00000000E+00
  0.00000000E+00  0.00000000E+00  0.00000000E+00
  0.00000000E+00  0.00000000E+00  0.00000000E+00
  0.00000000E+00  0.00000000E+00  0.00000000E+00
  0.00000000E+00  0.00000000E+00  0.00000000E+00
  0.00000000E+00  0.00000000E+00  0.00000000E+00
  0.00000000E+00  0.00000000E+00  0.00000000E+00
  0.00000000E+00  0.00000000E+00  0.00000000E+00
  0.00000000E+00  0.00000000E+00  0.00000000E+00
  0.00000000E+00  0.00000000E+00  0.00000000E+00
  0.00000000E+00  0.00000000E+00  0.00000000E+00
  0.00000000E+00  0.00000000E+00  0.00000000E+00
  0.00000000E+00  0.00000000E+00  0.00000000E+00
  0.00000000E+00  0.00000000E+00  0.00000000E+00
  0.00000000E+00  0.00000000E+00  0.00000000E+00
  0.00000000E+00  0.00000000E+00  0.00000000E+00
  0.00000000E+00  0.00000000E+00  0.00000000E+00
  0.00000000E+00  0.00000000E+00  0.00000000E+00
  0.00000000E+00  0.00000000E+00  0.00000000E+00
  0.00000000E+00  0.00000000E+00  0.00000000E+00
  0.00000000E+00  0.00000000E+00  0.00000000E+00
  0.00000000E+00  0.00000000E+00  0.00000000E+00
  0.00000000E+00  0.00000000E+00  0.00000000E+00
  0.00000000E+00  0.00000000E+00  0.00000000E+00
  0.00000000E+00  0.00000000E+00  0.00000000E+00
  0.00000000E+00  0.00000000E+00  0.00000000E+00
  0.00000000E+00  0.00000000E+00  0.00000000E+00
  0.00000000E+00  0.00000000E+00  0.00000000E+00
  0.00000000E+00  0.00000000E+00  0.00000000E+00
  0.00000000E+00  0.00000000E+00  0.00000000E+00
  0.00000000E+00  0.00000000E+00  0.00000000E+00
  0.00000000E+00  0.00000000E+00  0.00000000E+00
  0.00000000E+00  0.00000000E+00  0.00000000E+00
  0.00000000E+00  0.00000000E+00  0.00000000E+00
  0.00000000E+00  0.00000000E+00  0.00000000E+00
  0.00000000E+00  0.00000000E+00  0.00000000E+00
  0.00000000E+00  0.00000000E+00  0.00000000E+00
  0.00000000E+00  0.00000000E+00  0.00000000E+00
  0.00000000E+00  0.00000000E+00  0.00000000E+00
  0.00000000E+00  0.00000000E+00  0.00000000E+00
  0.00000000E+00  0.00000000E+00  0.00000000E+00
  0.00000000E+00  0.00000000E+00  0.00000000E+00
  0.00000000E+00  0.00000000E+00  0.00000000E+00
  0.00000000E+00  0.00000000E+00  0.00000000E+00
  0.00000000E+00  0.00000000E+00  0.00000000E+00
  0.00000000E+00  0.00000000E+00  0.00000000E+00
  0.00000000E+00  0.00000000E+00  0.00000000E+00
  0.00000000E+00  0.00000000E+00  0.00000000E+00
  0.00000000E+00  0.00000000E+00  0.00000000E+00
  0.00000000E+00  0.00000000E+00  0.00000000E+00
  0.00000000E+00  0.00000000E+00  0.00000000E+00
  0.00000000E+00  0.00000000E+00  0.00000000E+00
  0.00000000E+00  0.00000000E+00  0.00000000E+00
