In B N                                  
   1.0000000000000000     
     8.7639499999999995  -15.1796066749929999    0.0000000000000000
     8.7639499999999995   15.1796066749929999    0.0000000000000000
     0.0000000000000000    0.0000000000000000   15.0000000000000000
   In   B    N 
     1    48    48
Selective dynamics
Direct
  0.4339231464812923  0.5026767758646616  0.1113092925180430   T   T   T
  0.9050763301427383  0.9527233609993613  0.1109925543660938   T   T   T
  0.9062386732334788  0.0962869632505229  0.1110306247363099   T   T   T
  0.9064699838541813  0.2389493387725815  0.1111088877725122   T   T   T
  0.9062386732334788  0.3813804036739900  0.1110306247363099   T   T   T
  0.9050763301427383  0.5237833743914257  0.1109925543660938   T   T   T
  0.9032909741337308  0.6660542744343791  0.1110453456312139   T   T   T
  0.9032909741337308  0.8086671049473787  0.1110453456312139   T   T   T
  0.0466871383451079  0.9514294620609403  0.1109935973336862   T   T   T
  0.0477476198099361  0.0947637921582745  0.1109867227657022   T   T   T
  0.0489774757943252  0.2388887476670292  0.1110288282387294   T   T   T
  0.0489774757943252  0.3815191333742877  0.1110288282387294   T   T   T
  0.0477476198099361  0.5244142328996562  0.1109867227657022   T   T   T
  0.0466871383451079  0.6666897930881573  0.1109935973336862   T   T   T
  0.0463205015885497  0.8088763091963006  0.1109868683082421   T   T   T
  0.1894719788837263  0.9512909551971506  0.1110158663280141   T   T   T
  0.1897643188589285  0.0933592074557267  0.1110394190172358   T   T   T
  0.1899438204320975  0.2360536238531464  0.1109982185588170   T   T   T
  0.1923033059883994  0.3818668556177131  0.1110066220884087   T   T   T
  0.1899438204320975  0.5253206018269577  0.1109982185588170   T   T   T
  0.1897643188589285  0.6678355166511798  0.1110394190172358   T   T   T
  0.1894719788837263  0.8096131404905920  0.1110158663280141   T   T   T
  0.3328960625952179  0.9521640896991317  0.1110375445592474   T   T   T
  0.3329717346141029  0.0921530374561978  0.1110642399594702   T   T   T
  0.3332595723641301  0.2314842347662760  0.1110508989366868   T   T   T
  0.3298748492079762  0.3646932280154513  0.1111177944810412   T   T   T
  0.3298748492079762  0.5366120264395340  0.1111177944810412   T   T   T
  0.3332595723641301  0.6732057428448488  0.1110508989366868   T   T   T
  0.3329717346141029  0.8122491024048952  0.1110642399594702   T   T   T
  0.4769081233710980  0.9543391812904449  0.1110048519003388   T   T   T
  0.4769081233710980  0.0939993473276442  0.1110048519003388   T   T   T
  0.4772409550225955  0.2334718883078997  0.1110138374034266   T   T   T
  0.4786219780287466  0.3726874656294758  0.1110464412454027   T   T   T
  0.4786219780287466  0.6773649176462868  0.1110464412454027   T   T   T
  0.4772409550225955  0.8151994719616920  0.1110138374034266   T   T   T
  0.6208197093306598  0.9550035783336656  0.1109777607963124   T   T   T
  0.6206870936381044  0.0960578936645454  0.1109730474545636   T   T   T
  0.6208197093306598  0.2372465362439543  0.1109777607963124   T   T   T
  0.6209313704512764  0.3788267598143783  0.1110245041133942   T   T   T
  0.6180396174069496  0.5203956596922606  0.1110572580196152   T   T   T
  0.6180396174069496  0.6690743629627061  0.1110572580196152   T   T   T
  0.6209313704512696  0.8135350158839002  0.1110245041133942   T   T   T
  0.7635789171895951  0.9543235670695145  0.1109854784163664   T   T   T
  0.7637878364162095  0.0966256580412656  0.1110283335691857   T   T   T
  0.7637878364162095  0.2385908720659192  0.1110283335691857   T   T   T
  0.7635789171895951  0.3806857553670571  0.1109854784163664   T   T   T
  0.7622301596813741  0.5229209441901294  0.1110518602542840   T   T   T
  0.7590316549286177  0.6652310300883265  0.1110934677081040   T   T   T
  0.7622301596813741  0.8107396207392655  0.1110518602542840   T   T   T
  0.9516744943589768  0.9041595862344254  0.1109883794306300   T   T   T
  0.9529075978767866  0.0478406649172635  0.1109735561980004   T   T   T
  0.9537981167479564  0.1912985194721618  0.1110587768731223   T   T   T
  0.9537981167479564  0.3339265793937877  0.1110587768731223   T   T   T
  0.9529075978767866  0.4764939150775333  0.1109735561980004   T   T   T
  0.9516744943589768  0.6189436017995377  0.1109883794306300   T   T   T
  0.9512360974658037  0.7613323955704324  0.1110125121455259   T   T   T
  0.0942350917511155  0.9038813818131668  0.1109708012747286   T   T   T
  0.0945715766925811  0.0463879596955028  0.1109829868122060   T   T   T
  0.0951607236350627  0.1896603536653951  0.1109666016588809   T   T   T
  0.0964112087721912  0.3339199512230946  0.1110009272912931   T   T   T
  0.0951607236350627  0.4769290636436746  0.1109666016588809   T   T   T
  0.0945715766925811  0.6196123106720768  0.1109829868122060   T   T   T
  0.0942350917511155  0.7617841151689404  0.1109708012747286   T   T   T
  0.2374560037598115  0.9044432044953915  0.1109972864164815   T   T   T
  0.2374807263884915  0.0457936457516420  0.1110439677265618   T   T   T
  0.2374928965928506  0.1876358734118709  0.1110144201835935   T   T   T
  0.2370914407632254  0.3311489954167863  0.1110138607981971   T   T   T
  0.2370914407632254  0.4773711390204153  0.1110138607981971   T   T   T
  0.2374928965928506  0.6212857168559721  0.1110144201835935   T   T   T
  0.2374807263884915  0.7631157743118299  0.1110439677265618   T   T   T
  0.3813865885111217  0.9066031387499704  0.1110271291760082   T   T   T
  0.3813865885111217  0.0462121434361518  0.1110271291760082   T   T   T
  0.3816651376379855  0.1855651593198628  0.1110312656972904   T   T   T
  0.3827292300870284  0.3238932595715403  0.1110277019347822   T   T   T
  0.3827292300870284  0.6302646641904833  0.1110277019347822   T   T   T
  0.3816651376379855  0.7675286719931338  0.1110312656972904   T   T   T
  0.5256574908333087  0.9091945273584543  0.1109713370453530   T   T   T
  0.5254203884782508  0.0484236852986213  0.1109590305016167   T   T   T
  0.5256574908333087  0.1878916571498835  0.1109713370453530   T   T   T
  0.5263565037390787  0.3267428375684617  0.1110157936731809   T   T   T
  0.5267576987469439  0.4641133938864562  0.1110132958965884   T   T   T
  0.5267576987469439  0.6340729985354414  0.1110132958965884   T   T   T
  0.5263565037390787  0.7710423598456441  0.1110157936731809   T   T   T
  0.6689897192888646  0.9083772178955610  0.1109650610391565   T   T   T
  0.6688212142902390  0.0495876213492793  0.1109716981233677   T   T   T
  0.6688212142902390  0.1906605750599401  0.1109716981233677   T   T   T
  0.6689897192888646  0.3320411950683137  0.1109650610391565   T   T   T
  0.6682598609190802  0.4742606483777833  0.1110288425728763   T   T   T
  0.6639808962153699  0.6177047949456803  0.1110582852667211   T   T   T
  0.6682598609190802  0.7654279062162745  0.1110288425728763   T   T   T
  0.8105035109125464  0.9061320699049932  0.1109900285379476   T   T   T
  0.8113754285687025  0.0492937210620124  0.1109983964059640   T   T   T
  0.8114721745028133  0.1914495783104055  0.1110533597299958   T   T   T
  0.8113754285687025  0.3335086896247171  0.1109983964059640   T   T   T
  0.8105035109125464  0.4758001346815522  0.1109900285379476   T   T   T
  0.8083829170464674  0.6184067857924715  0.1110651738288834   T   T   T
  0.8083829170464674  0.7614048249290187  0.1110651738288834   T   T   T

  0.00000000E+00  0.00000000E+00  0.00000000E+00
  0.00000000E+00  0.00000000E+00  0.00000000E+00
  0.00000000E+00  0.00000000E+00  0.00000000E+00
  0.00000000E+00  0.00000000E+00  0.00000000E+00
  0.00000000E+00  0.00000000E+00  0.00000000E+00
  0.00000000E+00  0.00000000E+00  0.00000000E+00
  0.00000000E+00  0.00000000E+00  0.00000000E+00
  0.00000000E+00  0.00000000E+00  0.00000000E+00
  0.00000000E+00  0.00000000E+00  0.00000000E+00
  0.00000000E+00  0.00000000E+00  0.00000000E+00
  0.00000000E+00  0.00000000E+00  0.00000000E+00
  0.00000000E+00  0.00000000E+00  0.00000000E+00
  0.00000000E+00  0.00000000E+00  0.00000000E+00
  0.00000000E+00  0.00000000E+00  0.00000000E+00
  0.00000000E+00  0.00000000E+00  0.00000000E+00
  0.00000000E+00  0.00000000E+00  0.00000000E+00
  0.00000000E+00  0.00000000E+00  0.00000000E+00
  0.00000000E+00  0.00000000E+00  0.00000000E+00
  0.00000000E+00  0.00000000E+00  0.00000000E+00
  0.00000000E+00  0.00000000E+00  0.00000000E+00
  0.00000000E+00  0.00000000E+00  0.00000000E+00
  0.00000000E+00  0.00000000E+00  0.00000000E+00
  0.00000000E+00  0.00000000E+00  0.00000000E+00
  0.00000000E+00  0.00000000E+00  0.00000000E+00
  0.00000000E+00  0.00000000E+00  0.00000000E+00
  0.00000000E+00  0.00000000E+00  0.00000000E+00
  0.00000000E+00  0.00000000E+00  0.00000000E+00
  0.00000000E+00  0.00000000E+00  0.00000000E+00
  0.00000000E+00  0.00000000E+00  0.00000000E+00
  0.00000000E+00  0.00000000E+00  0.00000000E+00
  0.00000000E+00  0.00000000E+00  0.00000000E+00
  0.00000000E+00  0.00000000E+00  0.00000000E+00
  0.00000000E+00  0.00000000E+00  0.00000000E+00
  0.00000000E+00  0.00000000E+00  0.00000000E+00
  0.00000000E+00  0.00000000E+00  0.00000000E+00
  0.00000000E+00  0.00000000E+00  0.00000000E+00
  0.00000000E+00  0.00000000E+00  0.00000000E+00
  0.00000000E+00  0.00000000E+00  0.00000000E+00
  0.00000000E+00  0.00000000E+00  0.00000000E+00
  0.00000000E+00  0.00000000E+00  0.00000000E+00
  0.00000000E+00  0.00000000E+00  0.00000000E+00
  0.00000000E+00  0.00000000E+00  0.00000000E+00
  0.00000000E+00  0.00000000E+00  0.00000000E+00
  0.00000000E+00  0.00000000E+00  0.00000000E+00
  0.00000000E+00  0.00000000E+00  0.00000000E+00
  0.00000000E+00  0.00000000E+00  0.00000000E+00
  0.00000000E+00  0.00000000E+00  0.00000000E+00
  0.00000000E+00  0.00000000E+00  0.00000000E+00
  0.00000000E+00  0.00000000E+00  0.00000000E+00
  0.00000000E+00  0.00000000E+00  0.00000000E+00
  0.00000000E+00  0.00000000E+00  0.00000000E+00
  0.00000000E+00  0.00000000E+00  0.00000000E+00
  0.00000000E+00  0.00000000E+00  0.00000000E+00
  0.00000000E+00  0.00000000E+00  0.00000000E+00
  0.00000000E+00  0.00000000E+00  0.00000000E+00
  0.00000000E+00  0.00000000E+00  0.00000000E+00
  0.00000000E+00  0.00000000E+00  0.00000000E+00
  0.00000000E+00  0.00000000E+00  0.00000000E+00
  0.00000000E+00  0.00000000E+00  0.00000000E+00
  0.00000000E+00  0.00000000E+00  0.00000000E+00
  0.00000000E+00  0.00000000E+00  0.00000000E+00
  0.00000000E+00  0.00000000E+00  0.00000000E+00
  0.00000000E+00  0.00000000E+00  0.00000000E+00
  0.00000000E+00  0.00000000E+00  0.00000000E+00
  0.00000000E+00  0.00000000E+00  0.00000000E+00
  0.00000000E+00  0.00000000E+00  0.00000000E+00
  0.00000000E+00  0.00000000E+00  0.00000000E+00
  0.00000000E+00  0.00000000E+00  0.00000000E+00
  0.00000000E+00  0.00000000E+00  0.00000000E+00
  0.00000000E+00  0.00000000E+00  0.00000000E+00
  0.00000000E+00  0.00000000E+00  0.00000000E+00
  0.00000000E+00  0.00000000E+00  0.00000000E+00
  0.00000000E+00  0.00000000E+00  0.00000000E+00
  0.00000000E+00  0.00000000E+00  0.00000000E+00
  0.00000000E+00  0.00000000E+00  0.00000000E+00
  0.00000000E+00  0.00000000E+00  0.00000000E+00
  0.00000000E+00  0.00000000E+00  0.00000000E+00
  0.00000000E+00  0.00000000E+00  0.00000000E+00
  0.00000000E+00  0.00000000E+00  0.00000000E+00
  0.00000000E+00  0.00000000E+00  0.00000000E+00
  0.00000000E+00  0.00000000E+00  0.00000000E+00
  0.00000000E+00  0.00000000E+00  0.00000000E+00
  0.00000000E+00  0.00000000E+00  0.00000000E+00
  0.00000000E+00  0.00000000E+00  0.00000000E+00
  0.00000000E+00  0.00000000E+00  0.00000000E+00
  0.00000000E+00  0.00000000E+00  0.00000000E+00
  0.00000000E+00  0.00000000E+00  0.00000000E+00
  0.00000000E+00  0.00000000E+00  0.00000000E+00
  0.00000000E+00  0.00000000E+00  0.00000000E+00
  0.00000000E+00  0.00000000E+00  0.00000000E+00
  0.00000000E+00  0.00000000E+00  0.00000000E+00
  0.00000000E+00  0.00000000E+00  0.00000000E+00
  0.00000000E+00  0.00000000E+00  0.00000000E+00
  0.00000000E+00  0.00000000E+00  0.00000000E+00
  0.00000000E+00  0.00000000E+00  0.00000000E+00
  0.00000000E+00  0.00000000E+00  0.00000000E+00
  0.00000000E+00  0.00000000E+00  0.00000000E+00
