 C B N 
 1.0
 17.527899999999772   0.000000000000000   0.000000000000000
 -8.763949999999658  15.179606674993195   0.000000000000000
  0.000000000000001   0.000000000000002  15.000000000000000
 C B N 
   3  47  47
Cartesian
  4.985458944217260   5.697066229337731   1.669550802978390 
  3.739101976441264   7.722720998313514   1.662968922320580 
  4.949273722308936   7.116968836004951   1.670377911072600 
  7.501694200968036  14.464066447446182   1.665012373624560 
 15.025939734353823   1.471361193870369   1.665571047745185 
 13.772961882802822   3.640707849145261   1.666137447725385 
 12.515627618434493   5.802945897345383   1.665046225809135 
 11.256263107846312   7.961104278732298   1.664768064545355 
  9.969766576503698  10.116018090164076   1.665682180992825 
  8.733384928597982  12.277559156918207   1.665686844453300 
 -7.521450025499135  14.437349575689691   1.664694960656460 
 -0.002783502165506   1.437584619854322   1.664742590709900 
 -1.243669575123959   3.627522938761867   1.665128671096560 
 -2.488106111674850   5.801546228371625   1.665308180348760 
 -3.739169346998535   7.959965716407363   1.665048987462705 
 -5.005973698025780  10.112245234526025   1.665099045458040 
 -6.269615594119491  12.269933107316698   1.664826840979050 
 -5.006535885604643  14.426524725125546   1.665247065539145 
  2.502091909183299   1.412951960908258   1.665517782199995 
  1.252104011103954   3.585244630182906   1.664663162133495 
  0.029625414972936   5.789346808418720   1.664781845798790 
 -1.207366034222148   7.963214071640480   1.665343796837490 
 -2.454476818936420  10.112446885356867   1.665414653332590 
 -3.741554387791042  12.267892053556180   1.664699746342335 
 -2.489685377578105  14.431999352155792   1.665405041519760 
  5.011359496846808   1.403158619402124   1.666015684068630 
  3.763025036519891   3.548906576574564   1.665615365984760 
  2.523725254678744   5.706458590193833   1.666106654892270 
  1.309715479159669   7.977365980710078   1.665133735461165 
  0.120765980515313  10.114376145518337   1.665887725799595 
 -1.215381972807221  12.270946747862647   1.665286518331155 
  0.012797758457895  14.460150700313859   1.664880561386490 
  7.512058827016373   1.439520723970006   1.664738533353780 
  6.245881372320212   3.586121973961210   1.665340490680275 
  2.765235247986227  10.168792089366596   1.667027103332115 
  1.290580525061693  12.300353749742595   1.665513132928110 
  2.503601791349936  14.500551249661974   1.664760095068890 
 10.009924494861384   1.472281862625663   1.664704381375530 
  8.746981666458437   3.631734814524342   1.664965326517590 
  7.468950184557377   5.810638888754442   1.665594557894250 
  6.203039830083691   7.979326773259106   1.667525030889135 
  4.778597683028993  10.177396042768068   1.666954433342535 
  3.761291271606863  12.372307876515571   1.664900179271385 
  5.009280903441429  14.502231738209026   1.664846812772655 
 12.516807037318832   1.482452406590457   1.665589315485555 
 11.257533065314821   3.642781728785920   1.665627381665415 
  9.989341516758124   5.805929281765328   1.665040024891140 
  8.727315928656715   7.966604366733629   1.665645594985935 
  7.396403278522955  10.123413498158593   1.666048716797625 
  6.228266623612095  12.309421484363076   1.665293533618860 
  8.750015180809349  13.727902858404349   1.664820446950140 
 16.272259306169644   0.733328677750571   1.664793159264285 
 15.028778577724198   2.917865797764917   1.665541517177595 
 13.778087538150995   5.085466239560090   1.665281514948540 
 12.522318647361733   7.245467174419788   1.664379513878820 
 11.248221868594088   9.402725960621522   1.664965176054945 
  9.993670773698460  11.559127646314415   1.665340156110675 
 -6.264839366325142  13.715632624580172   1.664367951655740 
  1.247935208886426   0.706767741898933   1.664702920659345 
  0.001229236925763   2.884951927539835   1.664392646695590 
 -1.228718387501719   5.076586873521801   1.664718917411220 
 -2.473002828891857   7.245189859546673   1.664914604982360 
 -3.730780013572335   9.400824894582938   1.665008919836565 
 -5.005248068589699  11.554912935964651   1.664463548886945 
 -3.746778454910370  13.713841069974661   1.664715470613675 
  3.755410543394141   0.693329017613802   1.665612055310250 
  2.505231665878427   2.862815030098022   1.664886186053670 
  1.270598523779842   5.029189178688788   1.664664016732200 
  0.059404096103291   7.241252892912249   1.664907650950560 
 -1.173364113602425   9.401342769630393   1.665332470093620 
 -2.476178837063569  11.554428205333961   1.664925837108195 
 -1.232817965418662  13.721172608032568   1.664989061496915 
  6.267149494210585   0.700522825252934   1.665315571353675 
  5.008404342526158   2.847769747406655   1.665614127126255 
  3.791688289341883   5.001523848546129   1.666420956715605 
  2.536898313136536   7.155906601016374   1.664401910719560 
  1.425399422208414   9.406060790780149   1.665830055765435 
  0.048714338314993  11.559498430257015   1.665458856648210 
  1.265990824720839  13.753630118501428   1.664746236225060 
  8.765266889770762   0.732489094445914   1.664210054168115 
  7.501106422019944   2.892286548327944   1.664386704369720 
  6.201062513205665   5.039093590167593   1.666239374126400 
  2.548724243857944  11.607040850902104   1.665295809577860 
  3.756210896267996  13.804577807506762   1.664470231637880 
 11.262600896500244   0.764869153401805   1.664829595662495 
  9.999669515032233   2.919539907724058   1.664900377041435 
  8.721677844117918   5.079678072185577   1.664701321522230 
  7.474283388147499   7.249168887727350   1.665801801943830 
  6.090758661100914   9.419468339758190   1.666242501466785 
  4.976019647969428  11.620756716913771   1.664692860074925 
  6.249010566572566  13.761378359066477   1.664785035201000 
 13.772082373002007   0.766359527215918   1.665156256591230 
 12.514892885491296   2.927428705660708   1.665942450025710 
 11.251221846552829   5.086688030511494   1.664998089183015 
  9.993177335778398   7.247057035412101   1.664730776157720 
  8.690246094772153   9.408573710454016   1.665739492546350 
  7.469793582476258  11.568662075415778   1.665591726380715 
