Species order:X N B                     
   2.51242800000000     
     5.9449720136058266    0.0000000000000000    0.0000000000000000
    -2.9724860068029120    5.1484967885702053   -0.0000000000000001
     0.0000000000000000    0.0000000000000009    5.3101128803662583
   C    N    B 
     1   144   142
Direct
  0.4465107394296658  0.3911755294059996  0.3750000000000000
  0.5464234970697543  0.4401189851029368  0.3750000000000000
  0.1111014520216800  0.0555469005171893  0.1250638179015512
  0.6111024782292044  0.5555181995861477  0.1252440965890571
  0.4444460058888892  0.0555654274797742  0.1250193138919937
  0.9444368790274971  0.5555468372595024  0.1249926653530794
  0.7777824843010002  0.0555383141665191  0.1250226698945169
  0.1111023661557302  0.7222175698683756  0.6249942221335516
  0.4444382460354713  0.7222037635533262  0.6249348955027958
  0.2777700946190734  0.2222162823116068  0.6248073146712759
  0.7777779983049302  0.7222138896187377  0.6249641598884766
  0.6111270709999265  0.2222229378697637  0.6249120452663989
  0.9444527825606501  0.2222074215956495  0.6249728325087049
  0.2777711208846321  0.7222165915520957  0.1250290597525928
  0.1111058751035468  0.2222064849290590  0.1250891332425507
  0.4444311572881731  0.2222300115095035  0.1251108090656463
  0.6111047572113938  0.7221891071783412  0.1250749580253012
  0.9444402768214971  0.7222229750473257  0.1249936677153907
  0.7777902434729000  0.2222059320865258  0.1249986675660305
  0.1111053365493020  0.8888904722373239  0.6249784947647752
  0.4444412939939855  0.8888881584558140  0.6249828122099760
  0.2777836556091601  0.3888716779703105  0.6248136450638690
  0.6111342175242627  0.3888823145602391  0.6256020863025891
  0.7777787417849553  0.8888751666779250  0.6249670623117056
  0.9444464804628139  0.3888776424847067  0.6249899394919235
  0.1111125038923706  0.3888794484090505  0.1250746781389590
  0.2777752655322647  0.8888933683638010  0.1250117535260417
  0.6111058268940270  0.8888724817711108  0.1250347701395740
  0.4444333988566402  0.3888683629137671  0.1250508600962290
  0.9444455628341125  0.8888890266959715  0.1250164684633976
  0.7777881957428854  0.3888690482854884  0.1250255134801883
  0.2777739662852622  0.5555409537211933  0.6249182008036253
  0.1111014520216800  0.0555469005171893  0.6249361820984487
  0.6111024782292044  0.5555181995861477  0.6247559034109423
  0.4444460058888892  0.0555654274797742  0.6249806861080065
  0.9444368790274971  0.5555468372595024  0.6250073346469204
  0.1111019961407836  0.5555469864799013  0.1250212809288672
  0.7777824843010002  0.0555383141665191  0.6249773301054838
  0.2777708333239430  0.0555607915610901  0.1250463145663090
  0.4444415737919881  0.5555239306927212  0.1251489795172528
  0.7777805820118547  0.5555626737158512  0.1250305276395134
  0.6111124025687965  0.0555520182441753  0.1250168141770628
  0.4444415737919881  0.5555239306927212  0.6248510204827475
  0.9444461898139208  0.0555422481088725  0.1250382983002468
  0.2777711208846321  0.7222165915520957  0.6249709402474072
  0.1111058751035467  0.2222064849290590  0.6249108667574494
  0.4444311572881731  0.2222300115095035  0.6248891909343531
  0.6111047572113938  0.7221891071783412  0.6249250419746989
  0.9444402768214971  0.7222229750473257  0.6250063322846099
  0.7777902434729000  0.2222059320865258  0.6250013324339703
  0.1111023661557302  0.7222175698683756  0.1250057778664487
  0.4444382460354713  0.7222037635533262  0.1250651044972050
  0.2777700946190734  0.2222162823116068  0.1251926853287240
  0.7777779983049302  0.7222138896187377  0.1250358401115230
  0.6111270709999265  0.2222229378697637  0.1250879547336012
  0.9444527825606501  0.2222074215956495  0.1250271674912949
  0.1111125038923706  0.3888794484090505  0.6249253218610408
  0.2777752655322647  0.8888933683638010  0.6249882464739590
  0.6111058268940270  0.8888724817711108  0.6249652298604260
  0.4444333988566402  0.3888683629137671  0.6249491399037709
  0.9444455628341125  0.8888890266959715  0.6249835315366021
  0.1111053365493020  0.8888904722373239  0.1250215052352250
  0.7777881957428854  0.3888690482854884  0.6249744865198117
  0.4444412939939855  0.8888881584558140  0.1250171877900243
  0.2777836556091601  0.3888716779703105  0.1251863549361311
  0.2777739662852622  0.5555409537211933  0.1250817991963748
  0.6111342175242627  0.3888823145602391  0.1243979136974114
  0.7777787417849553  0.8888751666779250  0.1250329376882938
  0.9444464804628139  0.3888776424847067  0.1250100605080767
  0.1111019961407836  0.5555469864799013  0.6249787190711329
  0.2777708333239430  0.0555607915610901  0.6249536854336910
  0.7777805820118547  0.5555626737158512  0.6249694723604865
  0.6111124025687965  0.0555520182441753  0.6249831858229371
  0.9444461898139208  0.0555422481088725  0.6249617016997533
  0.0553542295385601  0.1110629709956192  0.3750000000000000
  0.5547355179226149  0.6104445577213412  0.3750000000000000
  0.3886357749459692  0.1128631936245571  0.3750000000000000
  0.8894918705243050  0.6118799998903570  0.3750000000000000
  0.7222357071042330  0.1106600835370418  0.3750000000000000
  0.0555562462615243  0.7777757625668602  0.8750000000000000
  0.3888883865289708  0.7777780795389453  0.8750000000000000
  0.2222220327354349  0.2777777759976245  0.8750000000000000
  0.7222172300168680  0.7777749922054327  0.8750000000000000
  0.5555520893558520  0.2777696513889413  0.8750000000000000
  0.8888894356105810  0.2777768623099997  0.8750000000000000
  0.2225244962019393  0.7783031346429345  0.3750000000000000
  0.0556138820628800  0.2777686369013466  0.3750000000000000
  0.3901564250096476  0.2835938723893067  0.3750000000000000
  0.5551799777175730  0.7774190237565168  0.3750000000000000
  0.8879358983430209  0.7771755637643134  0.3750000000000000
  0.7231162738309366  0.2771071001411831  0.3750000000000000
  0.0555543478488912  0.9444440972952056  0.8750000000000000
  0.3888893927595564  0.9444410220692938  0.8750000000000000
  0.2222228465863185  0.4444446721544369  0.8750000000000000
  0.5555510027963907  0.4444455042349134  0.8750000000000000
  0.7222175842235974  0.9444411042312943  0.8750000000000000
  0.8888930498550413  0.4444438356692796  0.8750000000000000
  0.0565406234773260  0.4446167459055269  0.3750000000000000
  0.2224750543339483  0.9453560717547669  0.3750000000000000
  0.5553641375466453  0.9443723037417336  0.3750000000000000
  0.3899032945753704  0.4422878580887597  0.3750000000000000
  0.8885297310580413  0.9440869119837106  0.3750000000000000
  0.7333469945833216  0.4495353144104786  0.3750000000000000
  0.2222207239961381  0.6111091712358470  0.8750000000000000
  0.0555529908802458  0.1111074565362447  0.8750000000000000
  0.5555498441796453  0.6111075376148922  0.8750000000000000
  0.3888878890656421  0.1111047727613514  0.8750000000000000
  0.8888910450320848  0.6111090351574655  0.8750000000000000
  0.0560795853686219  0.6115191304736591  0.3750000000000000
  0.7222175281519788  0.1111053867710043  0.8750000000000000
  0.2231604857089395  0.1129973957698141  0.3750000000000000
  0.3888065539739886  0.6101955522929018  0.3750000000000000
  0.7191007494936216  0.6091311663533167  0.3750000000000000
  0.5555255216861732  0.1111669499981355  0.3750000000000000
  0.3888875887798297  0.6111102822810602  0.8750000000000000
  0.8888052372616621  0.1108067152153260  0.3750000000000000
  0.2222225914608639  0.7777752302462202  0.8750000000000000
  0.0555551087885369  0.2777761747870824  0.8750000000000000
  0.3888880545407297  0.2777774035419114  0.8750000000000000
  0.5555512630150998  0.7777757463051440  0.8750000000000000
  0.8888888158653699  0.7777790983456935  0.8750000000000000
  0.7222212193335780  0.2777728010136730  0.8750000000000000
  0.0558223028104590  0.7783264648896145  0.3750000000000000
  0.3889183415415050  0.7777910211122038  0.3750000000000000
  0.2215332223086680  0.2778786347781047  0.3750000000000000
  0.7215227773950215  0.7771731756457771  0.3750000000000000
  0.5513271635866260  0.2703073405362627  0.3750000000000000
  0.8893825539585569  0.2776090111777816  0.3750000000000000
  0.0555561501025371  0.4444436243463439  0.8750000000000000
  0.2222220883241341  0.9444413205891228  0.8750000000000000
  0.5555512309565396  0.9444418128696832  0.8750000000000000
  0.3888890487276140  0.4444463940202283  0.8750000000000000
  0.8888876322809577  0.9444436089652963  0.8750000000000000
  0.0556123796970505  0.9448651861655353  0.3750000000000000
  0.7222246278155915  0.4444428405843897  0.8750000000000000
  0.3889990214998247  0.9452914696548951  0.3750000000000000
  0.2232402004551829  0.4443965828605551  0.3750000000000000
  0.2226067572996518  0.6112344809417596  0.3750000000000000
  0.7219167043725599  0.9439879277672297  0.3750000000000000
  0.8905423743705927  0.4447202510615862  0.3750000000000000
  0.0555565690611194  0.6111070270589631  0.8750000000000000
  0.2222199505874931  0.1111086555727517  0.8750000000000000
  0.7222174233190288  0.6111085501255444  0.8750000000000000
  0.5555517193422744  0.1111025851456373  0.8750000000000000
  0.8888871827275350  0.1111072398744934  0.8750000000000000
  0.1114101103513848  0.0561468627708340  0.3750000000000000
  0.6072750333597751  0.5516627843010847  0.3750000000000000
  0.4445332247549143  0.0568850143076226  0.3750000000000000
  0.9447547097514389  0.5558460332630677  0.3750000000000000
  0.7776029910574651  0.0551255738901550  0.3750000000000000
  0.1111011853257993  0.7222117558187554  0.8750000000000000
  0.4444468754117460  0.7222304607278160  0.8750000000000000
  0.2778009774071536  0.2222236823692302  0.8750000000000000
  0.7777688744328292  0.7221962163630294  0.8750000000000000
  0.6111109795451627  0.2222372705424575  0.8750000000000000
  0.9444254978791340  0.2222227438488502  0.8750000000000000
  0.2778910594336328  0.7225102314359187  0.3750000000000000
  0.1102439258526974  0.2218315158016733  0.3750000000000000
  0.4448811872236382  0.2253843239386928  0.3750000000000000
  0.6107175483975744  0.7219695313902719  0.3750000000000000
  0.9445315047143938  0.7225653840520621  0.3750000000000000
  0.7782246461518139  0.2217178415114592  0.3750000000000000
  0.1111092735619554  0.8888768407832708  0.8750000000000000
  0.4444471284521767  0.8888995114542313  0.8750000000000000
  0.2777896771427533  0.3888948184155678  0.8750000000000000
  0.6111237172454758  0.3888835876933629  0.8750000000000000
  0.7777680271492292  0.8888787846855634  0.8750000000000000
  0.9444227292628080  0.3888914466423417  0.8750000000000000
  0.1116492125281906  0.3888436131175141  0.3750000000000000
  0.2779894541637131  0.8895808342222313  0.3750000000000000
  0.6108263427636128  0.8887236848372123  0.3750000000000000
  0.9440125469833747  0.8884972304782329  0.3750000000000000
  0.7786433686472118  0.3873824206500106  0.3750000000000000
  0.2777767408622942  0.5555636490281608  0.8750000000000000
  0.1111114972712798  0.0555461890836123  0.8750000000000000
  0.6111180720121465  0.5555323784855196  0.8750000000000000
  0.4444570164472006  0.0555652835786226  0.8750000000000000
  0.9444241931375188  0.5555432449686237  0.8750000000000000
  0.1114547524338103  0.5558147213416172  0.3750000000000000
  0.7777639311879201  0.0555573253153777  0.8750000000000000
  0.2779840345238339  0.0565556291788211  0.3750000000000000
  0.4448863598812964  0.5552851884317109  0.3750000000000000
  0.7771320274311564  0.5564638714721568  0.3750000000000000
  0.6110447872745629  0.0555642682778474  0.3750000000000000
  0.4444582865893495  0.5555588871680071  0.8750000000000000
  0.9440845042046652  0.0551408362015445  0.3750000000000000
  0.2777753960123416  0.7222271237006030  0.8750000000000000
  0.1111047452790823  0.2222181115495019  0.8750000000000000
  0.4444824457228720  0.2222330440164578  0.8750000000000000
  0.6111108839157383  0.7222133132277545  0.8750000000000000
  0.9444303337679654  0.7221993358559515  0.8750000000000000
  0.7777596394822363  0.2222316375994375  0.8750000000000000
  0.1113552380332406  0.7226465623965314  0.3750000000000000
  0.4442574560782857  0.7219096094181751  0.3750000000000000
  0.2777994988732915  0.2241331664921387  0.3750000000000000
  0.7761537661135802  0.7206868898192478  0.3750000000000000
  0.6127057083028183  0.2232365681740385  0.3750000000000000
  0.9443940369696472  0.2219368386950823  0.3750000000000000
  0.1110984292815977  0.3888909641094477  0.8750000000000000
  0.2777844033160591  0.8888901699935474  0.8750000000000000
  0.6111060664600221  0.8888941394427714  0.8750000000000000
  0.4444830909077599  0.3888938225253817  0.8750000000000000
  0.9444361568424549  0.8888736712216706  0.8750000000000000
  0.1112967833631369  0.8893985246422291  0.3750000000000000
  0.7777590809768062  0.3888903117416989  0.8750000000000000
  0.4443175308463680  0.8892417991862833  0.3750000000000000
  0.2774477394647671  0.3879212852120714  0.3750000000000000
  0.2779178276796293  0.5555749791026391  0.3750000000000000
  0.7773786377956580  0.8883886112302710  0.3750000000000000
  0.9453517902588419  0.3888451330825166  0.3750000000000000
  0.1110961236633340  0.5555543051296902  0.8750000000000000
  0.2777960040978166  0.0555551224144345  0.8750000000000000
  0.7777621381836380  0.5555244554193997  0.8750000000000000
  0.6111059844560263  0.0555669821227678  0.8750000000000000
  0.9444315550664226  0.0555473626688482  0.8750000000000000
  0.0555283986313475  0.1110686869180369  0.1249909609693611
  0.5556367643964596  0.6110528322209893  0.1250454839100798
  0.3889580851358854  0.1111872454248884  0.1250526610627541
  0.8887963178219914  0.6110435483589285  0.1250626113316546
  0.7222205682013999  0.1111341257721866  0.1249967901090818
  0.0555125696929443  0.7777470099672520  0.6250035829431203
  0.3888851129224903  0.7777967011366731  0.6250026917390606
  0.2222047374018259  0.2777326410448094  0.6250379486784386
  0.7222485867945626  0.7777425988475954  0.6249962527450973
  0.5556876974498947  0.2779501152135010  0.6245683437288018
  0.8888524057710686  0.2777774660129107  0.6250086116199099
  0.2221953718813421  0.7777832010712732  0.1249959624625873
  0.0555178563299130  0.2777596008404914  0.1249857508710826
  0.3889998804295186  0.2777944520755181  0.1249291352052931
  0.5555771197799160  0.7777706386848883  0.1249908156572586
  0.8888708693011249  0.7777348729398439  0.1250019289307161
  0.7221987418424239  0.2778261870101156  0.1250929107442563
  0.0555347173745597  0.9444070296566446  0.6250019544201993
  0.3889083633218336  0.9444954537704117  0.6250019907710770
  0.2221971983744791  0.4444381648057368  0.6250150089642336
  0.5557005031038406  0.4443209751089529  0.6246990954976305
  0.7222289086463035  0.9444380274986972  0.6250025420389069
  0.8887860979916173  0.4444116918512561  0.6249391515166940
  0.0554959351395663  0.4444371425287862  0.1249945600360135
  0.2222197678346568  0.9444442193993496  0.1249947254738023
  0.5555667120230549  0.9444773754970455  0.1249950256740810
  0.3889711928719762  0.4443952309487720  0.1248254035109398
  0.8888816170220322  0.9444143192579930  0.1249951501586667
  0.7221023569847242  0.4443665231899331  0.1254073375860179
  0.2221829432650342  0.6111142725704289  0.6250084150545930
  0.0555283986313475  0.1110686869180369  0.6250090390306385
  0.5556367643964596  0.6110528322209893  0.6249545160899206
  0.3889580851358854  0.1111872454248884  0.6249473389372467
  0.8887963178219914  0.6110435483589285  0.6249373886683448
  0.0554789435246289  0.6110857497152851  0.1250000750175293
  0.7222205682013999  0.1111341257721866  0.6250032098909181
  0.2222179201967274  0.1110732945111157  0.1249991126210109
  0.3889024606512348  0.6111072121136172  0.1249883908634029
  0.7222309444179248  0.6110196286818025  0.1251570511250669
  0.5556027781852620  0.1112160416369671  0.1250756028792488
  0.3889024606512348  0.6111072121136172  0.6250116091365971
  0.8888724409925662  0.1110964908441602  0.1249938099426948
  0.2221953718813421  0.7777832010712732  0.6250040375374130
  0.0555178563299130  0.2777596008404914  0.6250142491289175
  0.3889998804295186  0.2777944520755181  0.6250708647947074
  0.5555771197799160  0.7777706386848883  0.6250091843427418
  0.8888708693011249  0.7777348729398439  0.6249980710692837
  0.7221987418424239  0.2778261870101156  0.6249070892557446
  0.0555125696929443  0.7777470099672520  0.1249964170568794
  0.3888851129224903  0.7777967011366731  0.1249973082609393
  0.2222047374018259  0.2777326410448094  0.1249620513215610
  0.7222485867945626  0.7777425988475954  0.1250037472549030
  0.5556876974498947  0.2779501152135010  0.1254316562711983
  0.8888524057710686  0.2777774660129107  0.1249913883800905
  0.0554959351395663  0.4444371425287862  0.6250054399639866
  0.2222197678346568  0.9444442193993496  0.6250052745261976
  0.5555667120230549  0.9444773754970455  0.6250049743259184
  0.3889711928719762  0.4443952309487720  0.6251745964890603
  0.8888816170220322  0.9444143192579930  0.6250048498413336
  0.0555347173745597  0.9444070296566446  0.1249980455798008
  0.7221023569847242  0.4443665231899331  0.6245926624139823
  0.3889083633218336  0.9444954537704117  0.1249980092289231
  0.2221971983744791  0.4444381648057368  0.1249849910357660
  0.2221829432650342  0.6111142725704289  0.1249915849454065
  0.5557005031038406  0.4443209751089529  0.1253009045023701
  0.7222289086463035  0.9444380274986972  0.1249974579610933
  0.8887860979916173  0.4444116918512561  0.1250608484833048
  0.0554789435246289  0.6110857497152851  0.6249999249824705
  0.2222179201967274  0.1110732945111157  0.6250008873789895
  0.7222309444179248  0.6110196286818025  0.6248429488749332
  0.5556027781852620  0.1112160416369671  0.6249243971207513
  0.8888724409925662  0.1110964908441602  0.6250061900573048
 
  0.00000000E+00  0.00000000E+00  0.00000000E+00
  0.00000000E+00  0.00000000E+00  0.00000000E+00
  0.00000000E+00  0.00000000E+00  0.00000000E+00
  0.00000000E+00  0.00000000E+00  0.00000000E+00
  0.00000000E+00  0.00000000E+00  0.00000000E+00
  0.00000000E+00  0.00000000E+00  0.00000000E+00
  0.00000000E+00  0.00000000E+00  0.00000000E+00
  0.00000000E+00  0.00000000E+00  0.00000000E+00
  0.00000000E+00  0.00000000E+00  0.00000000E+00
  0.00000000E+00  0.00000000E+00  0.00000000E+00
  0.00000000E+00  0.00000000E+00  0.00000000E+00
  0.00000000E+00  0.00000000E+00  0.00000000E+00
  0.00000000E+00  0.00000000E+00  0.00000000E+00
  0.00000000E+00  0.00000000E+00  0.00000000E+00
  0.00000000E+00  0.00000000E+00  0.00000000E+00
  0.00000000E+00  0.00000000E+00  0.00000000E+00
  0.00000000E+00  0.00000000E+00  0.00000000E+00
  0.00000000E+00  0.00000000E+00  0.00000000E+00
  0.00000000E+00  0.00000000E+00  0.00000000E+00
  0.00000000E+00  0.00000000E+00  0.00000000E+00
  0.00000000E+00  0.00000000E+00  0.00000000E+00
  0.00000000E+00  0.00000000E+00  0.00000000E+00
  0.00000000E+00  0.00000000E+00  0.00000000E+00
  0.00000000E+00  0.00000000E+00  0.00000000E+00
  0.00000000E+00  0.00000000E+00  0.00000000E+00
  0.00000000E+00  0.00000000E+00  0.00000000E+00
  0.00000000E+00  0.00000000E+00  0.00000000E+00
  0.00000000E+00  0.00000000E+00  0.00000000E+00
  0.00000000E+00  0.00000000E+00  0.00000000E+00
  0.00000000E+00  0.00000000E+00  0.00000000E+00
  0.00000000E+00  0.00000000E+00  0.00000000E+00
  0.00000000E+00  0.00000000E+00  0.00000000E+00
  0.00000000E+00  0.00000000E+00  0.00000000E+00
  0.00000000E+00  0.00000000E+00  0.00000000E+00
  0.00000000E+00  0.00000000E+00  0.00000000E+00
  0.00000000E+00  0.00000000E+00  0.00000000E+00
  0.00000000E+00  0.00000000E+00  0.00000000E+00
  0.00000000E+00  0.00000000E+00  0.00000000E+00
  0.00000000E+00  0.00000000E+00  0.00000000E+00
  0.00000000E+00  0.00000000E+00  0.00000000E+00
  0.00000000E+00  0.00000000E+00  0.00000000E+00
  0.00000000E+00  0.00000000E+00  0.00000000E+00
  0.00000000E+00  0.00000000E+00  0.00000000E+00
  0.00000000E+00  0.00000000E+00  0.00000000E+00
  0.00000000E+00  0.00000000E+00  0.00000000E+00
  0.00000000E+00  0.00000000E+00  0.00000000E+00
  0.00000000E+00  0.00000000E+00  0.00000000E+00
  0.00000000E+00  0.00000000E+00  0.00000000E+00
  0.00000000E+00  0.00000000E+00  0.00000000E+00
  0.00000000E+00  0.00000000E+00  0.00000000E+00
  0.00000000E+00  0.00000000E+00  0.00000000E+00
  0.00000000E+00  0.00000000E+00  0.00000000E+00
  0.00000000E+00  0.00000000E+00  0.00000000E+00
  0.00000000E+00  0.00000000E+00  0.00000000E+00
  0.00000000E+00  0.00000000E+00  0.00000000E+00
  0.00000000E+00  0.00000000E+00  0.00000000E+00
  0.00000000E+00  0.00000000E+00  0.00000000E+00
  0.00000000E+00  0.00000000E+00  0.00000000E+00
  0.00000000E+00  0.00000000E+00  0.00000000E+00
  0.00000000E+00  0.00000000E+00  0.00000000E+00
  0.00000000E+00  0.00000000E+00  0.00000000E+00
  0.00000000E+00  0.00000000E+00  0.00000000E+00
  0.00000000E+00  0.00000000E+00  0.00000000E+00
  0.00000000E+00  0.00000000E+00  0.00000000E+00
  0.00000000E+00  0.00000000E+00  0.00000000E+00
  0.00000000E+00  0.00000000E+00  0.00000000E+00
  0.00000000E+00  0.00000000E+00  0.00000000E+00
  0.00000000E+00  0.00000000E+00  0.00000000E+00
  0.00000000E+00  0.00000000E+00  0.00000000E+00
  0.00000000E+00  0.00000000E+00  0.00000000E+00
  0.00000000E+00  0.00000000E+00  0.00000000E+00
  0.00000000E+00  0.00000000E+00  0.00000000E+00
  0.00000000E+00  0.00000000E+00  0.00000000E+00
  0.00000000E+00  0.00000000E+00  0.00000000E+00
  0.00000000E+00  0.00000000E+00  0.00000000E+00
  0.00000000E+00  0.00000000E+00  0.00000000E+00
  0.00000000E+00  0.00000000E+00  0.00000000E+00
  0.00000000E+00  0.00000000E+00  0.00000000E+00
  0.00000000E+00  0.00000000E+00  0.00000000E+00
  0.00000000E+00  0.00000000E+00  0.00000000E+00
  0.00000000E+00  0.00000000E+00  0.00000000E+00
  0.00000000E+00  0.00000000E+00  0.00000000E+00
  0.00000000E+00  0.00000000E+00  0.00000000E+00
  0.00000000E+00  0.00000000E+00  0.00000000E+00
  0.00000000E+00  0.00000000E+00  0.00000000E+00
  0.00000000E+00  0.00000000E+00  0.00000000E+00
  0.00000000E+00  0.00000000E+00  0.00000000E+00
  0.00000000E+00  0.00000000E+00  0.00000000E+00
  0.00000000E+00  0.00000000E+00  0.00000000E+00
  0.00000000E+00  0.00000000E+00  0.00000000E+00
  0.00000000E+00  0.00000000E+00  0.00000000E+00
  0.00000000E+00  0.00000000E+00  0.00000000E+00
  0.00000000E+00  0.00000000E+00  0.00000000E+00
  0.00000000E+00  0.00000000E+00  0.00000000E+00
  0.00000000E+00  0.00000000E+00  0.00000000E+00
  0.00000000E+00  0.00000000E+00  0.00000000E+00
  0.00000000E+00  0.00000000E+00  0.00000000E+00
  0.00000000E+00  0.00000000E+00  0.00000000E+00
  0.00000000E+00  0.00000000E+00  0.00000000E+00
  0.00000000E+00  0.00000000E+00  0.00000000E+00
  0.00000000E+00  0.00000000E+00  0.00000000E+00
  0.00000000E+00  0.00000000E+00  0.00000000E+00
  0.00000000E+00  0.00000000E+00  0.00000000E+00
  0.00000000E+00  0.00000000E+00  0.00000000E+00
  0.00000000E+00  0.00000000E+00  0.00000000E+00
  0.00000000E+00  0.00000000E+00  0.00000000E+00
  0.00000000E+00  0.00000000E+00  0.00000000E+00
  0.00000000E+00  0.00000000E+00  0.00000000E+00
  0.00000000E+00  0.00000000E+00  0.00000000E+00
  0.00000000E+00  0.00000000E+00  0.00000000E+00
  0.00000000E+00  0.00000000E+00  0.00000000E+00
  0.00000000E+00  0.00000000E+00  0.00000000E+00
  0.00000000E+00  0.00000000E+00  0.00000000E+00
  0.00000000E+00  0.00000000E+00  0.00000000E+00
  0.00000000E+00  0.00000000E+00  0.00000000E+00
  0.00000000E+00  0.00000000E+00  0.00000000E+00
  0.00000000E+00  0.00000000E+00  0.00000000E+00
  0.00000000E+00  0.00000000E+00  0.00000000E+00
  0.00000000E+00  0.00000000E+00  0.00000000E+00
  0.00000000E+00  0.00000000E+00  0.00000000E+00
  0.00000000E+00  0.00000000E+00  0.00000000E+00
  0.00000000E+00  0.00000000E+00  0.00000000E+00
  0.00000000E+00  0.00000000E+00  0.00000000E+00
  0.00000000E+00  0.00000000E+00  0.00000000E+00
  0.00000000E+00  0.00000000E+00  0.00000000E+00
  0.00000000E+00  0.00000000E+00  0.00000000E+00
  0.00000000E+00  0.00000000E+00  0.00000000E+00
  0.00000000E+00  0.00000000E+00  0.00000000E+00
  0.00000000E+00  0.00000000E+00  0.00000000E+00
  0.00000000E+00  0.00000000E+00  0.00000000E+00
  0.00000000E+00  0.00000000E+00  0.00000000E+00
  0.00000000E+00  0.00000000E+00  0.00000000E+00
  0.00000000E+00  0.00000000E+00  0.00000000E+00
  0.00000000E+00  0.00000000E+00  0.00000000E+00
  0.00000000E+00  0.00000000E+00  0.00000000E+00
  0.00000000E+00  0.00000000E+00  0.00000000E+00
  0.00000000E+00  0.00000000E+00  0.00000000E+00
  0.00000000E+00  0.00000000E+00  0.00000000E+00
  0.00000000E+00  0.00000000E+00  0.00000000E+00
  0.00000000E+00  0.00000000E+00  0.00000000E+00
  0.00000000E+00  0.00000000E+00  0.00000000E+00
  0.00000000E+00  0.00000000E+00  0.00000000E+00
  0.00000000E+00  0.00000000E+00  0.00000000E+00
  0.00000000E+00  0.00000000E+00  0.00000000E+00
  0.00000000E+00  0.00000000E+00  0.00000000E+00
  0.00000000E+00  0.00000000E+00  0.00000000E+00
  0.00000000E+00  0.00000000E+00  0.00000000E+00
  0.00000000E+00  0.00000000E+00  0.00000000E+00
  0.00000000E+00  0.00000000E+00  0.00000000E+00
  0.00000000E+00  0.00000000E+00  0.00000000E+00
  0.00000000E+00  0.00000000E+00  0.00000000E+00
  0.00000000E+00  0.00000000E+00  0.00000000E+00
  0.00000000E+00  0.00000000E+00  0.00000000E+00
  0.00000000E+00  0.00000000E+00  0.00000000E+00
  0.00000000E+00  0.00000000E+00  0.00000000E+00
  0.00000000E+00  0.00000000E+00  0.00000000E+00
  0.00000000E+00  0.00000000E+00  0.00000000E+00
  0.00000000E+00  0.00000000E+00  0.00000000E+00
  0.00000000E+00  0.00000000E+00  0.00000000E+00
  0.00000000E+00  0.00000000E+00  0.00000000E+00
  0.00000000E+00  0.00000000E+00  0.00000000E+00
  0.00000000E+00  0.00000000E+00  0.00000000E+00
  0.00000000E+00  0.00000000E+00  0.00000000E+00
  0.00000000E+00  0.00000000E+00  0.00000000E+00
  0.00000000E+00  0.00000000E+00  0.00000000E+00
  0.00000000E+00  0.00000000E+00  0.00000000E+00
  0.00000000E+00  0.00000000E+00  0.00000000E+00
  0.00000000E+00  0.00000000E+00  0.00000000E+00
  0.00000000E+00  0.00000000E+00  0.00000000E+00
  0.00000000E+00  0.00000000E+00  0.00000000E+00
  0.00000000E+00  0.00000000E+00  0.00000000E+00
  0.00000000E+00  0.00000000E+00  0.00000000E+00
  0.00000000E+00  0.00000000E+00  0.00000000E+00
  0.00000000E+00  0.00000000E+00  0.00000000E+00
  0.00000000E+00  0.00000000E+00  0.00000000E+00
  0.00000000E+00  0.00000000E+00  0.00000000E+00
  0.00000000E+00  0.00000000E+00  0.00000000E+00
  0.00000000E+00  0.00000000E+00  0.00000000E+00
  0.00000000E+00  0.00000000E+00  0.00000000E+00
  0.00000000E+00  0.00000000E+00  0.00000000E+00
  0.00000000E+00  0.00000000E+00  0.00000000E+00
  0.00000000E+00  0.00000000E+00  0.00000000E+00
  0.00000000E+00  0.00000000E+00  0.00000000E+00
  0.00000000E+00  0.00000000E+00  0.00000000E+00
  0.00000000E+00  0.00000000E+00  0.00000000E+00
  0.00000000E+00  0.00000000E+00  0.00000000E+00
  0.00000000E+00  0.00000000E+00  0.00000000E+00
  0.00000000E+00  0.00000000E+00  0.00000000E+00
  0.00000000E+00  0.00000000E+00  0.00000000E+00
  0.00000000E+00  0.00000000E+00  0.00000000E+00
  0.00000000E+00  0.00000000E+00  0.00000000E+00
  0.00000000E+00  0.00000000E+00  0.00000000E+00
  0.00000000E+00  0.00000000E+00  0.00000000E+00
  0.00000000E+00  0.00000000E+00  0.00000000E+00
  0.00000000E+00  0.00000000E+00  0.00000000E+00
  0.00000000E+00  0.00000000E+00  0.00000000E+00
  0.00000000E+00  0.00000000E+00  0.00000000E+00
  0.00000000E+00  0.00000000E+00  0.00000000E+00
  0.00000000E+00  0.00000000E+00  0.00000000E+00
  0.00000000E+00  0.00000000E+00  0.00000000E+00
  0.00000000E+00  0.00000000E+00  0.00000000E+00
  0.00000000E+00  0.00000000E+00  0.00000000E+00
  0.00000000E+00  0.00000000E+00  0.00000000E+00
  0.00000000E+00  0.00000000E+00  0.00000000E+00
  0.00000000E+00  0.00000000E+00  0.00000000E+00
  0.00000000E+00  0.00000000E+00  0.00000000E+00
  0.00000000E+00  0.00000000E+00  0.00000000E+00
  0.00000000E+00  0.00000000E+00  0.00000000E+00
  0.00000000E+00  0.00000000E+00  0.00000000E+00
  0.00000000E+00  0.00000000E+00  0.00000000E+00
  0.00000000E+00  0.00000000E+00  0.00000000E+00
  0.00000000E+00  0.00000000E+00  0.00000000E+00
  0.00000000E+00  0.00000000E+00  0.00000000E+00
  0.00000000E+00  0.00000000E+00  0.00000000E+00
  0.00000000E+00  0.00000000E+00  0.00000000E+00
  0.00000000E+00  0.00000000E+00  0.00000000E+00
  0.00000000E+00  0.00000000E+00  0.00000000E+00
  0.00000000E+00  0.00000000E+00  0.00000000E+00
  0.00000000E+00  0.00000000E+00  0.00000000E+00
  0.00000000E+00  0.00000000E+00  0.00000000E+00
  0.00000000E+00  0.00000000E+00  0.00000000E+00
  0.00000000E+00  0.00000000E+00  0.00000000E+00
  0.00000000E+00  0.00000000E+00  0.00000000E+00
  0.00000000E+00  0.00000000E+00  0.00000000E+00
  0.00000000E+00  0.00000000E+00  0.00000000E+00
  0.00000000E+00  0.00000000E+00  0.00000000E+00
  0.00000000E+00  0.00000000E+00  0.00000000E+00
  0.00000000E+00  0.00000000E+00  0.00000000E+00
  0.00000000E+00  0.00000000E+00  0.00000000E+00
  0.00000000E+00  0.00000000E+00  0.00000000E+00
  0.00000000E+00  0.00000000E+00  0.00000000E+00
  0.00000000E+00  0.00000000E+00  0.00000000E+00
  0.00000000E+00  0.00000000E+00  0.00000000E+00
  0.00000000E+00  0.00000000E+00  0.00000000E+00
  0.00000000E+00  0.00000000E+00  0.00000000E+00
  0.00000000E+00  0.00000000E+00  0.00000000E+00
  0.00000000E+00  0.00000000E+00  0.00000000E+00
  0.00000000E+00  0.00000000E+00  0.00000000E+00
  0.00000000E+00  0.00000000E+00  0.00000000E+00
  0.00000000E+00  0.00000000E+00  0.00000000E+00
  0.00000000E+00  0.00000000E+00  0.00000000E+00
  0.00000000E+00  0.00000000E+00  0.00000000E+00
  0.00000000E+00  0.00000000E+00  0.00000000E+00
  0.00000000E+00  0.00000000E+00  0.00000000E+00
  0.00000000E+00  0.00000000E+00  0.00000000E+00
  0.00000000E+00  0.00000000E+00  0.00000000E+00
  0.00000000E+00  0.00000000E+00  0.00000000E+00
  0.00000000E+00  0.00000000E+00  0.00000000E+00