 B N As 
 1.0
 17.527899999999772   0.000000000000000   0.000000000000000
 -8.763949999999658  15.179606674993195   0.000000000000000
  0.000000000000001   0.000000000000002  15.000000000000000
 B N As 
  49  47   1
Cartesian
  7.545135345426520  14.482922295551164   1.675123425713940 
 15.012170243629066   1.423776034828563   1.666929420014640 
 13.748866189189737   3.581852575907531   1.665593476520145 
 12.507288806630990   5.758755381425411   1.670365351245285 
 11.309026067638783   7.952512448017274   1.679042333125965 
 10.115503123370848  10.158355536302549   1.677283354470225 
  8.857167453348262  12.358419713597305   1.681950736741530 
 -7.476142332961490  14.485217523290903   1.680110884488810 
  0.000877574566765   1.449544612567780   1.668742866580965 
 -1.285068116997251   3.586797547014628   1.662633355648005 
 -2.549166560414832   5.754622933701336   1.662756521555640 
 -3.784120322143895   7.941859986733876   1.671382471409415 
 -4.983352359576242  10.133706144126553   1.682714838866190 
 -6.210365174034234  12.318384676089536   1.685228202528270 
 -4.985619623284950  14.468114796219718   1.674897587894055 
  2.502974046415404   1.437445954990513   1.673086883433195 
  1.224350034324005   3.605449781540899   1.673642599717080 
 -0.074672001214381   5.751339682670955   1.669651736639775 
 -1.353939090753613   7.938740183531013   1.661711128469040 
 -2.544617292728739  10.123308397016382   1.666204759334355 
 -3.741857423293271  12.299987179564162   1.671906021478470 
 -2.492740769951094  14.451891106136488   1.664647966349850 
  5.014215053101913   1.434862551279570   1.672594311410625 
  3.717514389669164   3.561314150132799   1.684172137612305 
  2.431296636733799   5.793192498253377   1.698382445821065 
  1.038324718007027   7.934169842967314   1.685730348371250 
 -0.109370952205612  10.119737783328796   1.665337686931500 
 -1.260387663095894  12.285760242083809   1.659412861678950 
  0.015807398035685  14.414044390835901   1.660574546823120 
  7.526347683025143   1.413062565741319   1.665909657218445 
  6.273398204093306   3.570302577736284   1.669735255605465 
  4.961424659510423   5.585006816651790   1.684627317856590 
  3.201777950192342   8.401996684843311   1.673281368774525 
  2.388550201298743   9.959682276871240   1.661347664571315 
  1.264181223721574  12.213201357339290   1.658642109529035 
  2.507288485792062  14.404644071641814   1.665484133117925 
 10.019182248307009   1.407934594197385   1.667957135304195 
  8.769275127333637   3.589125836214657   1.665953253541650 
  7.536938712457472   5.782147148654043   1.639220680090425 
  6.577471478972316   8.151030585954933   1.562250624255600 
  5.291630197732988  10.238221498211155   1.619532364893150 
  3.762667768161194  12.223323796456055   1.658751923680035 
  5.010028439682175  14.429763112110177   1.668617768582595 
 12.510135141640044   1.408596250095220   1.669416475345365 
 11.261011708396270   3.582412518069572   1.670161940096085 
 10.032598997087391   5.767489458987686   1.663919933894040 
  8.889253450446560   7.978174501058320   1.635188526747630 
  7.729098049423204  10.248684292878162   1.619054427616710 
  6.350936268596877  12.347094498924767   1.658122363979025 
  8.807205911625523  13.779965451696857   1.683677737684830 
 16.280465068963501   0.731653202731146   1.669425868378770 
 15.000042744685116   2.862941326625189   1.662739018437150 
 13.742994779757636   5.025842422666545   1.665046251512805 
 12.518452723788364   7.205764464821353   1.675932614701470 
 11.317671534995524   9.400751974045260   1.686324863375850 
 10.079575857432104  11.600101962183970   1.686795305696550 
 -6.231416079561487  13.757036974238726   1.681378545304755 
  1.257548050676158   0.736117622117342   1.672143104896965 
 -0.018853145208723   2.888546912920810   1.665129861901560 
 -1.302061788377703   5.026036531308240   1.661790213654090 
 -2.565878172895651   7.199435564820403   1.662579212467440 
 -3.770110518437960   9.388441951033426   1.674074539945620 
 -4.982044976214025  11.577830150034361   1.681365860968215 
 -3.741946090254883  13.741473698834820   1.669669407339735 
  3.763125980486045   0.729605022287163   1.673077252074345 
  2.474844792363196   2.873912859448909   1.675406824148235 
  1.204813212395194   5.059868891664398   1.680381987414555 
 -0.137313605819282   7.188246482978841   1.666729353682335 
 -1.330901043374873   9.381779231813889   1.660761669882930 
 -2.508597236564399  11.566255166652461   1.664539716865605 
 -1.246680392487553  13.723063844175778   1.658703033169500 
  6.267393948193193   0.715633026872822   1.666638149121705 
  5.001265808114429   2.883645155674419   1.677190301377875 
  3.682278228698797   5.005692590039175   1.698874581891555 
  2.317434178431045   7.271990220402076   1.707443031604125 
  1.087064449483763   9.372085624899077   1.677759860131890 
 -0.021022609723232  11.550253945289992   1.658193071894880 
  1.267406831276361  13.668168538771498   1.660274273749785 
  8.774430002177400   0.684178234367325   1.663953661804815 
  7.521212201527564   2.863200773622131   1.666220649249255 
  6.269746000900650   5.028881720449363   1.662469412147880 
  2.528063244983252  11.430429109286695   1.656251568329985 
  3.763409725411909  13.670025439496243   1.665950097207330 
 11.266957719433341   0.674806182338932   1.668538618462875 
 10.011771435569749   2.860649134578226   1.669916332425420 
  8.769635311680084   5.050021642977561   1.657654936449855 
  7.640451461196375   7.256096024379621   1.598124300669525 
  6.507435706683358   9.553229323524187   1.554688308656940 
  5.097293380987078  11.595399493087507   1.646917724480250 
  6.294820660931106  13.758742885776563   1.669708378951980 
 13.764054314172748   0.689701710990224   1.668471926662710 
 12.504429541662674   2.854427220455444   1.669043849406780 
 11.261012703905712   5.031283886475954   1.669777643267550 
 10.076374173673699   7.218899784468555   1.666628584667205 
  8.889048172283694   9.432161810528111   1.644738169977570 
  7.618171691175486  11.654604161083157   1.662130826045220 
  4.857707658005293   7.477601886794504   1.659946617457665 
